# vtk DataFile Version 3.0
vtk output
ASCII
DATASET UNSTRUCTURED_GRID
POINTS      5151 double 
  0.00000000E+00  0.00000000E+00  0.00000000E+00
  1.00000000E+01  0.00000000E+00  0.00000000E+00
  2.00000000E+01  0.00000000E+00  0.00000000E+00
  3.00000000E+01  0.00000000E+00  0.00000000E+00
  4.00000000E+01  0.00000000E+00  0.00000000E+00
  5.00000000E+01  0.00000000E+00  0.00000000E+00
  6.00000000E+01  0.00000000E+00  0.00000000E+00
  7.00000000E+01  0.00000000E+00  0.00000000E+00
  8.00000000E+01  0.00000000E+00  0.00000000E+00
  9.00000000E+01  0.00000000E+00  0.00000000E+00
  1.00000000E+02  0.00000000E+00  0.00000000E+00
  1.10000000E+02  0.00000000E+00  0.00000000E+00
  1.20000000E+02  0.00000000E+00  0.00000000E+00
  1.30000000E+02  0.00000000E+00  0.00000000E+00
  1.40000000E+02  0.00000000E+00  0.00000000E+00
  1.50000000E+02  0.00000000E+00  0.00000000E+00
  1.60000000E+02  0.00000000E+00  0.00000000E+00
  1.70000000E+02  0.00000000E+00  0.00000000E+00
  1.80000000E+02  0.00000000E+00  0.00000000E+00
  1.90000000E+02  0.00000000E+00  0.00000000E+00
  2.00000000E+02  0.00000000E+00  0.00000000E+00
  2.10000000E+02  0.00000000E+00  0.00000000E+00
  2.20000000E+02  0.00000000E+00  0.00000000E+00
  2.30000000E+02  0.00000000E+00  0.00000000E+00
  2.40000000E+02  0.00000000E+00  0.00000000E+00
  2.50000000E+02  0.00000000E+00  0.00000000E+00
  2.60000000E+02  0.00000000E+00  0.00000000E+00
  2.70000000E+02  0.00000000E+00  0.00000000E+00
  2.80000000E+02  0.00000000E+00  0.00000000E+00
  2.90000000E+02  0.00000000E+00  0.00000000E+00
  3.00000000E+02  0.00000000E+00  0.00000000E+00
  3.10000000E+02  0.00000000E+00  0.00000000E+00
  3.20000000E+02  0.00000000E+00  0.00000000E+00
  3.30000000E+02  0.00000000E+00  0.00000000E+00
  3.40000000E+02  0.00000000E+00  0.00000000E+00
  3.50000000E+02  0.00000000E+00  0.00000000E+00
  3.60000000E+02  0.00000000E+00  0.00000000E+00
  3.70000000E+02  0.00000000E+00  0.00000000E+00
  3.80000000E+02  0.00000000E+00  0.00000000E+00
  3.90000000E+02  0.00000000E+00  0.00000000E+00
  4.00000000E+02  0.00000000E+00  0.00000000E+00
  4.10000000E+02  0.00000000E+00  0.00000000E+00
  4.20000000E+02  0.00000000E+00  0.00000000E+00
  4.30000000E+02  0.00000000E+00  0.00000000E+00
  4.40000000E+02  0.00000000E+00  0.00000000E+00
  4.50000000E+02  0.00000000E+00  0.00000000E+00
  4.60000000E+02  0.00000000E+00  0.00000000E+00
  4.70000000E+02  0.00000000E+00  0.00000000E+00
  4.80000000E+02  0.00000000E+00  0.00000000E+00
  4.90000000E+02  0.00000000E+00  0.00000000E+00
  5.00000000E+02  0.00000000E+00  0.00000000E+00
  5.10000000E+02  0.00000000E+00  0.00000000E+00
  5.20000000E+02  0.00000000E+00  0.00000000E+00
  5.30000000E+02  0.00000000E+00  0.00000000E+00
  5.40000000E+02  0.00000000E+00  0.00000000E+00
  5.50000000E+02  0.00000000E+00  0.00000000E+00
  5.60000000E+02  0.00000000E+00  0.00000000E+00
  5.70000000E+02  0.00000000E+00  0.00000000E+00
  5.80000000E+02  0.00000000E+00  0.00000000E+00
  5.90000000E+02  0.00000000E+00  0.00000000E+00
  6.00000000E+02  0.00000000E+00  0.00000000E+00
  6.10000000E+02  0.00000000E+00  0.00000000E+00
  6.20000000E+02  0.00000000E+00  0.00000000E+00
  6.30000000E+02  0.00000000E+00  0.00000000E+00
  6.40000000E+02  0.00000000E+00  0.00000000E+00
  6.50000000E+02  0.00000000E+00  0.00000000E+00
  6.60000000E+02  0.00000000E+00  0.00000000E+00
  6.70000000E+02  0.00000000E+00  0.00000000E+00
  6.80000000E+02  0.00000000E+00  0.00000000E+00
  6.90000000E+02  0.00000000E+00  0.00000000E+00
  7.00000000E+02  0.00000000E+00  0.00000000E+00
  7.10000000E+02  0.00000000E+00  0.00000000E+00
  7.20000000E+02  0.00000000E+00  0.00000000E+00
  7.30000000E+02  0.00000000E+00  0.00000000E+00
  7.40000000E+02  0.00000000E+00  0.00000000E+00
  7.50000000E+02  0.00000000E+00  0.00000000E+00
  7.60000000E+02  0.00000000E+00  0.00000000E+00
  7.70000000E+02  0.00000000E+00  0.00000000E+00
  7.80000000E+02  0.00000000E+00  0.00000000E+00
  7.90000000E+02  0.00000000E+00  0.00000000E+00
  8.00000000E+02  0.00000000E+00  0.00000000E+00
  8.10000000E+02  0.00000000E+00  0.00000000E+00
  8.20000000E+02  0.00000000E+00  0.00000000E+00
  8.30000000E+02  0.00000000E+00  0.00000000E+00
  8.40000000E+02  0.00000000E+00  0.00000000E+00
  8.50000000E+02  0.00000000E+00  0.00000000E+00
  8.60000000E+02  0.00000000E+00  0.00000000E+00
  8.70000000E+02  0.00000000E+00  0.00000000E+00
  8.80000000E+02  0.00000000E+00  0.00000000E+00
  8.90000000E+02  0.00000000E+00  0.00000000E+00
  9.00000000E+02  0.00000000E+00  0.00000000E+00
  9.10000000E+02  0.00000000E+00  0.00000000E+00
  9.20000000E+02  0.00000000E+00  0.00000000E+00
  9.30000000E+02  0.00000000E+00  0.00000000E+00
  9.40000000E+02  0.00000000E+00  0.00000000E+00
  9.50000000E+02  0.00000000E+00  0.00000000E+00
  9.60000000E+02  0.00000000E+00  0.00000000E+00
  9.70000000E+02  0.00000000E+00  0.00000000E+00
  9.80000000E+02  0.00000000E+00  0.00000000E+00
  9.90000000E+02  0.00000000E+00  0.00000000E+00
  1.00000000E+03  0.00000000E+00  0.00000000E+00
  0.00000000E+00  2.00000000E+00  0.00000000E+00
  1.00000000E+01  2.00000000E+00  0.00000000E+00
  2.00000000E+01  2.00000000E+00  0.00000000E+00
  3.00000000E+01  2.00000000E+00  0.00000000E+00
  4.00000000E+01  2.00000000E+00  0.00000000E+00
  5.00000000E+01  2.00000000E+00  0.00000000E+00
  6.00000000E+01  2.00000000E+00  0.00000000E+00
  7.00000000E+01  2.00000000E+00  0.00000000E+00
  8.00000000E+01  2.00000000E+00  0.00000000E+00
  9.00000000E+01  2.00000000E+00  0.00000000E+00
  1.00000000E+02  2.00000000E+00  0.00000000E+00
  1.10000000E+02  2.00000000E+00  0.00000000E+00
  1.20000000E+02  2.00000000E+00  0.00000000E+00
  1.30000000E+02  2.00000000E+00  0.00000000E+00
  1.40000000E+02  2.00000000E+00  0.00000000E+00
  1.50000000E+02  2.00000000E+00  0.00000000E+00
  1.60000000E+02  2.00000000E+00  0.00000000E+00
  1.70000000E+02  2.00000000E+00  0.00000000E+00
  1.80000000E+02  2.00000000E+00  0.00000000E+00
  1.90000000E+02  2.00000000E+00  0.00000000E+00
  2.00000000E+02  2.00000000E+00  0.00000000E+00
  2.10000000E+02  2.00000000E+00  0.00000000E+00
  2.20000000E+02  2.00000000E+00  0.00000000E+00
  2.30000000E+02  2.00000000E+00  0.00000000E+00
  2.40000000E+02  2.00000000E+00  0.00000000E+00
  2.50000000E+02  2.00000000E+00  0.00000000E+00
  2.60000000E+02  2.00000000E+00  0.00000000E+00
  2.70000000E+02  2.00000000E+00  0.00000000E+00
  2.80000000E+02  2.00000000E+00  0.00000000E+00
  2.90000000E+02  2.00000000E+00  0.00000000E+00
  3.00000000E+02  2.00000000E+00  0.00000000E+00
  3.10000000E+02  2.00000000E+00  0.00000000E+00
  3.20000000E+02  2.00000000E+00  0.00000000E+00
  3.30000000E+02  2.00000000E+00  0.00000000E+00
  3.40000000E+02  2.00000000E+00  0.00000000E+00
  3.50000000E+02  2.00000000E+00  0.00000000E+00
  3.60000000E+02  2.00000000E+00  0.00000000E+00
  3.70000000E+02  2.00000000E+00  0.00000000E+00
  3.80000000E+02  2.00000000E+00  0.00000000E+00
  3.90000000E+02  2.00000000E+00  0.00000000E+00
  4.00000000E+02  2.00000000E+00  0.00000000E+00
  4.10000000E+02  2.00000000E+00  0.00000000E+00
  4.20000000E+02  2.00000000E+00  0.00000000E+00
  4.30000000E+02  2.00000000E+00  0.00000000E+00
  4.40000000E+02  2.00000000E+00  0.00000000E+00
  4.50000000E+02  2.00000000E+00  0.00000000E+00
  4.60000000E+02  2.00000000E+00  0.00000000E+00
  4.70000000E+02  2.00000000E+00  0.00000000E+00
  4.80000000E+02  2.00000000E+00  0.00000000E+00
  4.90000000E+02  2.00000000E+00  0.00000000E+00
  5.00000000E+02  2.00000000E+00  0.00000000E+00
  5.10000000E+02  2.00000000E+00  0.00000000E+00
  5.20000000E+02  2.00000000E+00  0.00000000E+00
  5.30000000E+02  2.00000000E+00  0.00000000E+00
  5.40000000E+02  2.00000000E+00  0.00000000E+00
  5.50000000E+02  2.00000000E+00  0.00000000E+00
  5.60000000E+02  2.00000000E+00  0.00000000E+00
  5.70000000E+02  2.00000000E+00  0.00000000E+00
  5.80000000E+02  2.00000000E+00  0.00000000E+00
  5.90000000E+02  2.00000000E+00  0.00000000E+00
  6.00000000E+02  2.00000000E+00  0.00000000E+00
  6.10000000E+02  2.00000000E+00  0.00000000E+00
  6.20000000E+02  2.00000000E+00  0.00000000E+00
  6.30000000E+02  2.00000000E+00  0.00000000E+00
  6.40000000E+02  2.00000000E+00  0.00000000E+00
  6.50000000E+02  2.00000000E+00  0.00000000E+00
  6.60000000E+02  2.00000000E+00  0.00000000E+00
  6.70000000E+02  2.00000000E+00  0.00000000E+00
  6.80000000E+02  2.00000000E+00  0.00000000E+00
  6.90000000E+02  2.00000000E+00  0.00000000E+00
  7.00000000E+02  2.00000000E+00  0.00000000E+00
  7.10000000E+02  2.00000000E+00  0.00000000E+00
  7.20000000E+02  2.00000000E+00  0.00000000E+00
  7.30000000E+02  2.00000000E+00  0.00000000E+00
  7.40000000E+02  2.00000000E+00  0.00000000E+00
  7.50000000E+02  2.00000000E+00  0.00000000E+00
  7.60000000E+02  2.00000000E+00  0.00000000E+00
  7.70000000E+02  2.00000000E+00  0.00000000E+00
  7.80000000E+02  2.00000000E+00  0.00000000E+00
  7.90000000E+02  2.00000000E+00  0.00000000E+00
  8.00000000E+02  2.00000000E+00  0.00000000E+00
  8.10000000E+02  2.00000000E+00  0.00000000E+00
  8.20000000E+02  2.00000000E+00  0.00000000E+00
  8.30000000E+02  2.00000000E+00  0.00000000E+00
  8.40000000E+02  2.00000000E+00  0.00000000E+00
  8.50000000E+02  2.00000000E+00  0.00000000E+00
  8.60000000E+02  2.00000000E+00  0.00000000E+00
  8.70000000E+02  2.00000000E+00  0.00000000E+00
  8.80000000E+02  2.00000000E+00  0.00000000E+00
  8.90000000E+02  2.00000000E+00  0.00000000E+00
  9.00000000E+02  2.00000000E+00  0.00000000E+00
  9.10000000E+02  2.00000000E+00  0.00000000E+00
  9.20000000E+02  2.00000000E+00  0.00000000E+00
  9.30000000E+02  2.00000000E+00  0.00000000E+00
  9.40000000E+02  2.00000000E+00  0.00000000E+00
  9.50000000E+02  2.00000000E+00  0.00000000E+00
  9.60000000E+02  2.00000000E+00  0.00000000E+00
  9.70000000E+02  2.00000000E+00  0.00000000E+00
  9.80000000E+02  2.00000000E+00  0.00000000E+00
  9.90000000E+02  2.00000000E+00  0.00000000E+00
  1.00000000E+03  2.00000000E+00  0.00000000E+00
  0.00000000E+00  4.00000000E+00  0.00000000E+00
  1.00000000E+01  4.00000000E+00  0.00000000E+00
  2.00000000E+01  4.00000000E+00  0.00000000E+00
  3.00000000E+01  4.00000000E+00  0.00000000E+00
  4.00000000E+01  4.00000000E+00  0.00000000E+00
  5.00000000E+01  4.00000000E+00  0.00000000E+00
  6.00000000E+01  4.00000000E+00  0.00000000E+00
  7.00000000E+01  4.00000000E+00  0.00000000E+00
  8.00000000E+01  4.00000000E+00  0.00000000E+00
  9.00000000E+01  4.00000000E+00  0.00000000E+00
  1.00000000E+02  4.00000000E+00  0.00000000E+00
  1.10000000E+02  4.00000000E+00  0.00000000E+00
  1.20000000E+02  4.00000000E+00  0.00000000E+00
  1.30000000E+02  4.00000000E+00  0.00000000E+00
  1.40000000E+02  4.00000000E+00  0.00000000E+00
  1.50000000E+02  4.00000000E+00  0.00000000E+00
  1.60000000E+02  4.00000000E+00  0.00000000E+00
  1.70000000E+02  4.00000000E+00  0.00000000E+00
  1.80000000E+02  4.00000000E+00  0.00000000E+00
  1.90000000E+02  4.00000000E+00  0.00000000E+00
  2.00000000E+02  4.00000000E+00  0.00000000E+00
  2.10000000E+02  4.00000000E+00  0.00000000E+00
  2.20000000E+02  4.00000000E+00  0.00000000E+00
  2.30000000E+02  4.00000000E+00  0.00000000E+00
  2.40000000E+02  4.00000000E+00  0.00000000E+00
  2.50000000E+02  4.00000000E+00  0.00000000E+00
  2.60000000E+02  4.00000000E+00  0.00000000E+00
  2.70000000E+02  4.00000000E+00  0.00000000E+00
  2.80000000E+02  4.00000000E+00  0.00000000E+00
  2.90000000E+02  4.00000000E+00  0.00000000E+00
  3.00000000E+02  4.00000000E+00  0.00000000E+00
  3.10000000E+02  4.00000000E+00  0.00000000E+00
  3.20000000E+02  4.00000000E+00  0.00000000E+00
  3.30000000E+02  4.00000000E+00  0.00000000E+00
  3.40000000E+02  4.00000000E+00  0.00000000E+00
  3.50000000E+02  4.00000000E+00  0.00000000E+00
  3.60000000E+02  4.00000000E+00  0.00000000E+00
  3.70000000E+02  4.00000000E+00  0.00000000E+00
  3.80000000E+02  4.00000000E+00  0.00000000E+00
  3.90000000E+02  4.00000000E+00  0.00000000E+00
  4.00000000E+02  4.00000000E+00  0.00000000E+00
  4.10000000E+02  4.00000000E+00  0.00000000E+00
  4.20000000E+02  4.00000000E+00  0.00000000E+00
  4.30000000E+02  4.00000000E+00  0.00000000E+00
  4.40000000E+02  4.00000000E+00  0.00000000E+00
  4.50000000E+02  4.00000000E+00  0.00000000E+00
  4.60000000E+02  4.00000000E+00  0.00000000E+00
  4.70000000E+02  4.00000000E+00  0.00000000E+00
  4.80000000E+02  4.00000000E+00  0.00000000E+00
  4.90000000E+02  4.00000000E+00  0.00000000E+00
  5.00000000E+02  4.00000000E+00  0.00000000E+00
  5.10000000E+02  4.00000000E+00  0.00000000E+00
  5.20000000E+02  4.00000000E+00  0.00000000E+00
  5.30000000E+02  4.00000000E+00  0.00000000E+00
  5.40000000E+02  4.00000000E+00  0.00000000E+00
  5.50000000E+02  4.00000000E+00  0.00000000E+00
  5.60000000E+02  4.00000000E+00  0.00000000E+00
  5.70000000E+02  4.00000000E+00  0.00000000E+00
  5.80000000E+02  4.00000000E+00  0.00000000E+00
  5.90000000E+02  4.00000000E+00  0.00000000E+00
  6.00000000E+02  4.00000000E+00  0.00000000E+00
  6.10000000E+02  4.00000000E+00  0.00000000E+00
  6.20000000E+02  4.00000000E+00  0.00000000E+00
  6.30000000E+02  4.00000000E+00  0.00000000E+00
  6.40000000E+02  4.00000000E+00  0.00000000E+00
  6.50000000E+02  4.00000000E+00  0.00000000E+00
  6.60000000E+02  4.00000000E+00  0.00000000E+00
  6.70000000E+02  4.00000000E+00  0.00000000E+00
  6.80000000E+02  4.00000000E+00  0.00000000E+00
  6.90000000E+02  4.00000000E+00  0.00000000E+00
  7.00000000E+02  4.00000000E+00  0.00000000E+00
  7.10000000E+02  4.00000000E+00  0.00000000E+00
  7.20000000E+02  4.00000000E+00  0.00000000E+00
  7.30000000E+02  4.00000000E+00  0.00000000E+00
  7.40000000E+02  4.00000000E+00  0.00000000E+00
  7.50000000E+02  4.00000000E+00  0.00000000E+00
  7.60000000E+02  4.00000000E+00  0.00000000E+00
  7.70000000E+02  4.00000000E+00  0.00000000E+00
  7.80000000E+02  4.00000000E+00  0.00000000E+00
  7.90000000E+02  4.00000000E+00  0.00000000E+00
  8.00000000E+02  4.00000000E+00  0.00000000E+00
  8.10000000E+02  4.00000000E+00  0.00000000E+00
  8.20000000E+02  4.00000000E+00  0.00000000E+00
  8.30000000E+02  4.00000000E+00  0.00000000E+00
  8.40000000E+02  4.00000000E+00  0.00000000E+00
  8.50000000E+02  4.00000000E+00  0.00000000E+00
  8.60000000E+02  4.00000000E+00  0.00000000E+00
  8.70000000E+02  4.00000000E+00  0.00000000E+00
  8.80000000E+02  4.00000000E+00  0.00000000E+00
  8.90000000E+02  4.00000000E+00  0.00000000E+00
  9.00000000E+02  4.00000000E+00  0.00000000E+00
  9.10000000E+02  4.00000000E+00  0.00000000E+00
  9.20000000E+02  4.00000000E+00  0.00000000E+00
  9.30000000E+02  4.00000000E+00  0.00000000E+00
  9.40000000E+02  4.00000000E+00  0.00000000E+00
  9.50000000E+02  4.00000000E+00  0.00000000E+00
  9.60000000E+02  4.00000000E+00  0.00000000E+00
  9.70000000E+02  4.00000000E+00  0.00000000E+00
  9.80000000E+02  4.00000000E+00  0.00000000E+00
  9.90000000E+02  4.00000000E+00  0.00000000E+00
  1.00000000E+03  4.00000000E+00  0.00000000E+00
  0.00000000E+00  6.00000000E+00  0.00000000E+00
  1.00000000E+01  6.00000000E+00  0.00000000E+00
  2.00000000E+01  6.00000000E+00  0.00000000E+00
  3.00000000E+01  6.00000000E+00  0.00000000E+00
  4.00000000E+01  6.00000000E+00  0.00000000E+00
  5.00000000E+01  6.00000000E+00  0.00000000E+00
  6.00000000E+01  6.00000000E+00  0.00000000E+00
  7.00000000E+01  6.00000000E+00  0.00000000E+00
  8.00000000E+01  6.00000000E+00  0.00000000E+00
  9.00000000E+01  6.00000000E+00  0.00000000E+00
  1.00000000E+02  6.00000000E+00  0.00000000E+00
  1.10000000E+02  6.00000000E+00  0.00000000E+00
  1.20000000E+02  6.00000000E+00  0.00000000E+00
  1.30000000E+02  6.00000000E+00  0.00000000E+00
  1.40000000E+02  6.00000000E+00  0.00000000E+00
  1.50000000E+02  6.00000000E+00  0.00000000E+00
  1.60000000E+02  6.00000000E+00  0.00000000E+00
  1.70000000E+02  6.00000000E+00  0.00000000E+00
  1.80000000E+02  6.00000000E+00  0.00000000E+00
  1.90000000E+02  6.00000000E+00  0.00000000E+00
  2.00000000E+02  6.00000000E+00  0.00000000E+00
  2.10000000E+02  6.00000000E+00  0.00000000E+00
  2.20000000E+02  6.00000000E+00  0.00000000E+00
  2.30000000E+02  6.00000000E+00  0.00000000E+00
  2.40000000E+02  6.00000000E+00  0.00000000E+00
  2.50000000E+02  6.00000000E+00  0.00000000E+00
  2.60000000E+02  6.00000000E+00  0.00000000E+00
  2.70000000E+02  6.00000000E+00  0.00000000E+00
  2.80000000E+02  6.00000000E+00  0.00000000E+00
  2.90000000E+02  6.00000000E+00  0.00000000E+00
  3.00000000E+02  6.00000000E+00  0.00000000E+00
  3.10000000E+02  6.00000000E+00  0.00000000E+00
  3.20000000E+02  6.00000000E+00  0.00000000E+00
  3.30000000E+02  6.00000000E+00  0.00000000E+00
  3.40000000E+02  6.00000000E+00  0.00000000E+00
  3.50000000E+02  6.00000000E+00  0.00000000E+00
  3.60000000E+02  6.00000000E+00  0.00000000E+00
  3.70000000E+02  6.00000000E+00  0.00000000E+00
  3.80000000E+02  6.00000000E+00  0.00000000E+00
  3.90000000E+02  6.00000000E+00  0.00000000E+00
  4.00000000E+02  6.00000000E+00  0.00000000E+00
  4.10000000E+02  6.00000000E+00  0.00000000E+00
  4.20000000E+02  6.00000000E+00  0.00000000E+00
  4.30000000E+02  6.00000000E+00  0.00000000E+00
  4.40000000E+02  6.00000000E+00  0.00000000E+00
  4.50000000E+02  6.00000000E+00  0.00000000E+00
  4.60000000E+02  6.00000000E+00  0.00000000E+00
  4.70000000E+02  6.00000000E+00  0.00000000E+00
  4.80000000E+02  6.00000000E+00  0.00000000E+00
  4.90000000E+02  6.00000000E+00  0.00000000E+00
  5.00000000E+02  6.00000000E+00  0.00000000E+00
  5.10000000E+02  6.00000000E+00  0.00000000E+00
  5.20000000E+02  6.00000000E+00  0.00000000E+00
  5.30000000E+02  6.00000000E+00  0.00000000E+00
  5.40000000E+02  6.00000000E+00  0.00000000E+00
  5.50000000E+02  6.00000000E+00  0.00000000E+00
  5.60000000E+02  6.00000000E+00  0.00000000E+00
  5.70000000E+02  6.00000000E+00  0.00000000E+00
  5.80000000E+02  6.00000000E+00  0.00000000E+00
  5.90000000E+02  6.00000000E+00  0.00000000E+00
  6.00000000E+02  6.00000000E+00  0.00000000E+00
  6.10000000E+02  6.00000000E+00  0.00000000E+00
  6.20000000E+02  6.00000000E+00  0.00000000E+00
  6.30000000E+02  6.00000000E+00  0.00000000E+00
  6.40000000E+02  6.00000000E+00  0.00000000E+00
  6.50000000E+02  6.00000000E+00  0.00000000E+00
  6.60000000E+02  6.00000000E+00  0.00000000E+00
  6.70000000E+02  6.00000000E+00  0.00000000E+00
  6.80000000E+02  6.00000000E+00  0.00000000E+00
  6.90000000E+02  6.00000000E+00  0.00000000E+00
  7.00000000E+02  6.00000000E+00  0.00000000E+00
  7.10000000E+02  6.00000000E+00  0.00000000E+00
  7.20000000E+02  6.00000000E+00  0.00000000E+00
  7.30000000E+02  6.00000000E+00  0.00000000E+00
  7.40000000E+02  6.00000000E+00  0.00000000E+00
  7.50000000E+02  6.00000000E+00  0.00000000E+00
  7.60000000E+02  6.00000000E+00  0.00000000E+00
  7.70000000E+02  6.00000000E+00  0.00000000E+00
  7.80000000E+02  6.00000000E+00  0.00000000E+00
  7.90000000E+02  6.00000000E+00  0.00000000E+00
  8.00000000E+02  6.00000000E+00  0.00000000E+00
  8.10000000E+02  6.00000000E+00  0.00000000E+00
  8.20000000E+02  6.00000000E+00  0.00000000E+00
  8.30000000E+02  6.00000000E+00  0.00000000E+00
  8.40000000E+02  6.00000000E+00  0.00000000E+00
  8.50000000E+02  6.00000000E+00  0.00000000E+00
  8.60000000E+02  6.00000000E+00  0.00000000E+00
  8.70000000E+02  6.00000000E+00  0.00000000E+00
  8.80000000E+02  6.00000000E+00  0.00000000E+00
  8.90000000E+02  6.00000000E+00  0.00000000E+00
  9.00000000E+02  6.00000000E+00  0.00000000E+00
  9.10000000E+02  6.00000000E+00  0.00000000E+00
  9.20000000E+02  6.00000000E+00  0.00000000E+00
  9.30000000E+02  6.00000000E+00  0.00000000E+00
  9.40000000E+02  6.00000000E+00  0.00000000E+00
  9.50000000E+02  6.00000000E+00  0.00000000E+00
  9.60000000E+02  6.00000000E+00  0.00000000E+00
  9.70000000E+02  6.00000000E+00  0.00000000E+00
  9.80000000E+02  6.00000000E+00  0.00000000E+00
  9.90000000E+02  6.00000000E+00  0.00000000E+00
  1.00000000E+03  6.00000000E+00  0.00000000E+00
  0.00000000E+00  8.00000000E+00  0.00000000E+00
  1.00000000E+01  8.00000000E+00  0.00000000E+00
  2.00000000E+01  8.00000000E+00  0.00000000E+00
  3.00000000E+01  8.00000000E+00  0.00000000E+00
  4.00000000E+01  8.00000000E+00  0.00000000E+00
  5.00000000E+01  8.00000000E+00  0.00000000E+00
  6.00000000E+01  8.00000000E+00  0.00000000E+00
  7.00000000E+01  8.00000000E+00  0.00000000E+00
  8.00000000E+01  8.00000000E+00  0.00000000E+00
  9.00000000E+01  8.00000000E+00  0.00000000E+00
  1.00000000E+02  8.00000000E+00  0.00000000E+00
  1.10000000E+02  8.00000000E+00  0.00000000E+00
  1.20000000E+02  8.00000000E+00  0.00000000E+00
  1.30000000E+02  8.00000000E+00  0.00000000E+00
  1.40000000E+02  8.00000000E+00  0.00000000E+00
  1.50000000E+02  8.00000000E+00  0.00000000E+00
  1.60000000E+02  8.00000000E+00  0.00000000E+00
  1.70000000E+02  8.00000000E+00  0.00000000E+00
  1.80000000E+02  8.00000000E+00  0.00000000E+00
  1.90000000E+02  8.00000000E+00  0.00000000E+00
  2.00000000E+02  8.00000000E+00  0.00000000E+00
  2.10000000E+02  8.00000000E+00  0.00000000E+00
  2.20000000E+02  8.00000000E+00  0.00000000E+00
  2.30000000E+02  8.00000000E+00  0.00000000E+00
  2.40000000E+02  8.00000000E+00  0.00000000E+00
  2.50000000E+02  8.00000000E+00  0.00000000E+00
  2.60000000E+02  8.00000000E+00  0.00000000E+00
  2.70000000E+02  8.00000000E+00  0.00000000E+00
  2.80000000E+02  8.00000000E+00  0.00000000E+00
  2.90000000E+02  8.00000000E+00  0.00000000E+00
  3.00000000E+02  8.00000000E+00  0.00000000E+00
  3.10000000E+02  8.00000000E+00  0.00000000E+00
  3.20000000E+02  8.00000000E+00  0.00000000E+00
  3.30000000E+02  8.00000000E+00  0.00000000E+00
  3.40000000E+02  8.00000000E+00  0.00000000E+00
  3.50000000E+02  8.00000000E+00  0.00000000E+00
  3.60000000E+02  8.00000000E+00  0.00000000E+00
  3.70000000E+02  8.00000000E+00  0.00000000E+00
  3.80000000E+02  8.00000000E+00  0.00000000E+00
  3.90000000E+02  8.00000000E+00  0.00000000E+00
  4.00000000E+02  8.00000000E+00  0.00000000E+00
  4.10000000E+02  8.00000000E+00  0.00000000E+00
  4.20000000E+02  8.00000000E+00  0.00000000E+00
  4.30000000E+02  8.00000000E+00  0.00000000E+00
  4.40000000E+02  8.00000000E+00  0.00000000E+00
  4.50000000E+02  8.00000000E+00  0.00000000E+00
  4.60000000E+02  8.00000000E+00  0.00000000E+00
  4.70000000E+02  8.00000000E+00  0.00000000E+00
  4.80000000E+02  8.00000000E+00  0.00000000E+00
  4.90000000E+02  8.00000000E+00  0.00000000E+00
  5.00000000E+02  8.00000000E+00  0.00000000E+00
  5.10000000E+02  8.00000000E+00  0.00000000E+00
  5.20000000E+02  8.00000000E+00  0.00000000E+00
  5.30000000E+02  8.00000000E+00  0.00000000E+00
  5.40000000E+02  8.00000000E+00  0.00000000E+00
  5.50000000E+02  8.00000000E+00  0.00000000E+00
  5.60000000E+02  8.00000000E+00  0.00000000E+00
  5.70000000E+02  8.00000000E+00  0.00000000E+00
  5.80000000E+02  8.00000000E+00  0.00000000E+00
  5.90000000E+02  8.00000000E+00  0.00000000E+00
  6.00000000E+02  8.00000000E+00  0.00000000E+00
  6.10000000E+02  8.00000000E+00  0.00000000E+00
  6.20000000E+02  8.00000000E+00  0.00000000E+00
  6.30000000E+02  8.00000000E+00  0.00000000E+00
  6.40000000E+02  8.00000000E+00  0.00000000E+00
  6.50000000E+02  8.00000000E+00  0.00000000E+00
  6.60000000E+02  8.00000000E+00  0.00000000E+00
  6.70000000E+02  8.00000000E+00  0.00000000E+00
  6.80000000E+02  8.00000000E+00  0.00000000E+00
  6.90000000E+02  8.00000000E+00  0.00000000E+00
  7.00000000E+02  8.00000000E+00  0.00000000E+00
  7.10000000E+02  8.00000000E+00  0.00000000E+00
  7.20000000E+02  8.00000000E+00  0.00000000E+00
  7.30000000E+02  8.00000000E+00  0.00000000E+00
  7.40000000E+02  8.00000000E+00  0.00000000E+00
  7.50000000E+02  8.00000000E+00  0.00000000E+00
  7.60000000E+02  8.00000000E+00  0.00000000E+00
  7.70000000E+02  8.00000000E+00  0.00000000E+00
  7.80000000E+02  8.00000000E+00  0.00000000E+00
  7.90000000E+02  8.00000000E+00  0.00000000E+00
  8.00000000E+02  8.00000000E+00  0.00000000E+00
  8.10000000E+02  8.00000000E+00  0.00000000E+00
  8.20000000E+02  8.00000000E+00  0.00000000E+00
  8.30000000E+02  8.00000000E+00  0.00000000E+00
  8.40000000E+02  8.00000000E+00  0.00000000E+00
  8.50000000E+02  8.00000000E+00  0.00000000E+00
  8.60000000E+02  8.00000000E+00  0.00000000E+00
  8.70000000E+02  8.00000000E+00  0.00000000E+00
  8.80000000E+02  8.00000000E+00  0.00000000E+00
  8.90000000E+02  8.00000000E+00  0.00000000E+00
  9.00000000E+02  8.00000000E+00  0.00000000E+00
  9.10000000E+02  8.00000000E+00  0.00000000E+00
  9.20000000E+02  8.00000000E+00  0.00000000E+00
  9.30000000E+02  8.00000000E+00  0.00000000E+00
  9.40000000E+02  8.00000000E+00  0.00000000E+00
  9.50000000E+02  8.00000000E+00  0.00000000E+00
  9.60000000E+02  8.00000000E+00  0.00000000E+00
  9.70000000E+02  8.00000000E+00  0.00000000E+00
  9.80000000E+02  8.00000000E+00  0.00000000E+00
  9.90000000E+02  8.00000000E+00  0.00000000E+00
  1.00000000E+03  8.00000000E+00  0.00000000E+00
  0.00000000E+00  1.00000000E+01  0.00000000E+00
  1.00000000E+01  1.00000000E+01  0.00000000E+00
  2.00000000E+01  1.00000000E+01  0.00000000E+00
  3.00000000E+01  1.00000000E+01  0.00000000E+00
  4.00000000E+01  1.00000000E+01  0.00000000E+00
  5.00000000E+01  1.00000000E+01  0.00000000E+00
  6.00000000E+01  1.00000000E+01  0.00000000E+00
  7.00000000E+01  1.00000000E+01  0.00000000E+00
  8.00000000E+01  1.00000000E+01  0.00000000E+00
  9.00000000E+01  1.00000000E+01  0.00000000E+00
  1.00000000E+02  1.00000000E+01  0.00000000E+00
  1.10000000E+02  1.00000000E+01  0.00000000E+00
  1.20000000E+02  1.00000000E+01  0.00000000E+00
  1.30000000E+02  1.00000000E+01  0.00000000E+00
  1.40000000E+02  1.00000000E+01  0.00000000E+00
  1.50000000E+02  1.00000000E+01  0.00000000E+00
  1.60000000E+02  1.00000000E+01  0.00000000E+00
  1.70000000E+02  1.00000000E+01  0.00000000E+00
  1.80000000E+02  1.00000000E+01  0.00000000E+00
  1.90000000E+02  1.00000000E+01  0.00000000E+00
  2.00000000E+02  1.00000000E+01  0.00000000E+00
  2.10000000E+02  1.00000000E+01  0.00000000E+00
  2.20000000E+02  1.00000000E+01  0.00000000E+00
  2.30000000E+02  1.00000000E+01  0.00000000E+00
  2.40000000E+02  1.00000000E+01  0.00000000E+00
  2.50000000E+02  1.00000000E+01  0.00000000E+00
  2.60000000E+02  1.00000000E+01  0.00000000E+00
  2.70000000E+02  1.00000000E+01  0.00000000E+00
  2.80000000E+02  1.00000000E+01  0.00000000E+00
  2.90000000E+02  1.00000000E+01  0.00000000E+00
  3.00000000E+02  1.00000000E+01  0.00000000E+00
  3.10000000E+02  1.00000000E+01  0.00000000E+00
  3.20000000E+02  1.00000000E+01  0.00000000E+00
  3.30000000E+02  1.00000000E+01  0.00000000E+00
  3.40000000E+02  1.00000000E+01  0.00000000E+00
  3.50000000E+02  1.00000000E+01  0.00000000E+00
  3.60000000E+02  1.00000000E+01  0.00000000E+00
  3.70000000E+02  1.00000000E+01  0.00000000E+00
  3.80000000E+02  1.00000000E+01  0.00000000E+00
  3.90000000E+02  1.00000000E+01  0.00000000E+00
  4.00000000E+02  1.00000000E+01  0.00000000E+00
  4.10000000E+02  1.00000000E+01  0.00000000E+00
  4.20000000E+02  1.00000000E+01  0.00000000E+00
  4.30000000E+02  1.00000000E+01  0.00000000E+00
  4.40000000E+02  1.00000000E+01  0.00000000E+00
  4.50000000E+02  1.00000000E+01  0.00000000E+00
  4.60000000E+02  1.00000000E+01  0.00000000E+00
  4.70000000E+02  1.00000000E+01  0.00000000E+00
  4.80000000E+02  1.00000000E+01  0.00000000E+00
  4.90000000E+02  1.00000000E+01  0.00000000E+00
  5.00000000E+02  1.00000000E+01  0.00000000E+00
  5.10000000E+02  1.00000000E+01  0.00000000E+00
  5.20000000E+02  1.00000000E+01  0.00000000E+00
  5.30000000E+02  1.00000000E+01  0.00000000E+00
  5.40000000E+02  1.00000000E+01  0.00000000E+00
  5.50000000E+02  1.00000000E+01  0.00000000E+00
  5.60000000E+02  1.00000000E+01  0.00000000E+00
  5.70000000E+02  1.00000000E+01  0.00000000E+00
  5.80000000E+02  1.00000000E+01  0.00000000E+00
  5.90000000E+02  1.00000000E+01  0.00000000E+00
  6.00000000E+02  1.00000000E+01  0.00000000E+00
  6.10000000E+02  1.00000000E+01  0.00000000E+00
  6.20000000E+02  1.00000000E+01  0.00000000E+00
  6.30000000E+02  1.00000000E+01  0.00000000E+00
  6.40000000E+02  1.00000000E+01  0.00000000E+00
  6.50000000E+02  1.00000000E+01  0.00000000E+00
  6.60000000E+02  1.00000000E+01  0.00000000E+00
  6.70000000E+02  1.00000000E+01  0.00000000E+00
  6.80000000E+02  1.00000000E+01  0.00000000E+00
  6.90000000E+02  1.00000000E+01  0.00000000E+00
  7.00000000E+02  1.00000000E+01  0.00000000E+00
  7.10000000E+02  1.00000000E+01  0.00000000E+00
  7.20000000E+02  1.00000000E+01  0.00000000E+00
  7.30000000E+02  1.00000000E+01  0.00000000E+00
  7.40000000E+02  1.00000000E+01  0.00000000E+00
  7.50000000E+02  1.00000000E+01  0.00000000E+00
  7.60000000E+02  1.00000000E+01  0.00000000E+00
  7.70000000E+02  1.00000000E+01  0.00000000E+00
  7.80000000E+02  1.00000000E+01  0.00000000E+00
  7.90000000E+02  1.00000000E+01  0.00000000E+00
  8.00000000E+02  1.00000000E+01  0.00000000E+00
  8.10000000E+02  1.00000000E+01  0.00000000E+00
  8.20000000E+02  1.00000000E+01  0.00000000E+00
  8.30000000E+02  1.00000000E+01  0.00000000E+00
  8.40000000E+02  1.00000000E+01  0.00000000E+00
  8.50000000E+02  1.00000000E+01  0.00000000E+00
  8.60000000E+02  1.00000000E+01  0.00000000E+00
  8.70000000E+02  1.00000000E+01  0.00000000E+00
  8.80000000E+02  1.00000000E+01  0.00000000E+00
  8.90000000E+02  1.00000000E+01  0.00000000E+00
  9.00000000E+02  1.00000000E+01  0.00000000E+00
  9.10000000E+02  1.00000000E+01  0.00000000E+00
  9.20000000E+02  1.00000000E+01  0.00000000E+00
  9.30000000E+02  1.00000000E+01  0.00000000E+00
  9.40000000E+02  1.00000000E+01  0.00000000E+00
  9.50000000E+02  1.00000000E+01  0.00000000E+00
  9.60000000E+02  1.00000000E+01  0.00000000E+00
  9.70000000E+02  1.00000000E+01  0.00000000E+00
  9.80000000E+02  1.00000000E+01  0.00000000E+00
  9.90000000E+02  1.00000000E+01  0.00000000E+00
  1.00000000E+03  1.00000000E+01  0.00000000E+00
  0.00000000E+00  1.20000000E+01  0.00000000E+00
  1.00000000E+01  1.20000000E+01  0.00000000E+00
  2.00000000E+01  1.20000000E+01  0.00000000E+00
  3.00000000E+01  1.20000000E+01  0.00000000E+00
  4.00000000E+01  1.20000000E+01  0.00000000E+00
  5.00000000E+01  1.20000000E+01  0.00000000E+00
  6.00000000E+01  1.20000000E+01  0.00000000E+00
  7.00000000E+01  1.20000000E+01  0.00000000E+00
  8.00000000E+01  1.20000000E+01  0.00000000E+00
  9.00000000E+01  1.20000000E+01  0.00000000E+00
  1.00000000E+02  1.20000000E+01  0.00000000E+00
  1.10000000E+02  1.20000000E+01  0.00000000E+00
  1.20000000E+02  1.20000000E+01  0.00000000E+00
  1.30000000E+02  1.20000000E+01  0.00000000E+00
  1.40000000E+02  1.20000000E+01  0.00000000E+00
  1.50000000E+02  1.20000000E+01  0.00000000E+00
  1.60000000E+02  1.20000000E+01  0.00000000E+00
  1.70000000E+02  1.20000000E+01  0.00000000E+00
  1.80000000E+02  1.20000000E+01  0.00000000E+00
  1.90000000E+02  1.20000000E+01  0.00000000E+00
  2.00000000E+02  1.20000000E+01  0.00000000E+00
  2.10000000E+02  1.20000000E+01  0.00000000E+00
  2.20000000E+02  1.20000000E+01  0.00000000E+00
  2.30000000E+02  1.20000000E+01  0.00000000E+00
  2.40000000E+02  1.20000000E+01  0.00000000E+00
  2.50000000E+02  1.20000000E+01  0.00000000E+00
  2.60000000E+02  1.20000000E+01  0.00000000E+00
  2.70000000E+02  1.20000000E+01  0.00000000E+00
  2.80000000E+02  1.20000000E+01  0.00000000E+00
  2.90000000E+02  1.20000000E+01  0.00000000E+00
  3.00000000E+02  1.20000000E+01  0.00000000E+00
  3.10000000E+02  1.20000000E+01  0.00000000E+00
  3.20000000E+02  1.20000000E+01  0.00000000E+00
  3.30000000E+02  1.20000000E+01  0.00000000E+00
  3.40000000E+02  1.20000000E+01  0.00000000E+00
  3.50000000E+02  1.20000000E+01  0.00000000E+00
  3.60000000E+02  1.20000000E+01  0.00000000E+00
  3.70000000E+02  1.20000000E+01  0.00000000E+00
  3.80000000E+02  1.20000000E+01  0.00000000E+00
  3.90000000E+02  1.20000000E+01  0.00000000E+00
  4.00000000E+02  1.20000000E+01  0.00000000E+00
  4.10000000E+02  1.20000000E+01  0.00000000E+00
  4.20000000E+02  1.20000000E+01  0.00000000E+00
  4.30000000E+02  1.20000000E+01  0.00000000E+00
  4.40000000E+02  1.20000000E+01  0.00000000E+00
  4.50000000E+02  1.20000000E+01  0.00000000E+00
  4.60000000E+02  1.20000000E+01  0.00000000E+00
  4.70000000E+02  1.20000000E+01  0.00000000E+00
  4.80000000E+02  1.20000000E+01  0.00000000E+00
  4.90000000E+02  1.20000000E+01  0.00000000E+00
  5.00000000E+02  1.20000000E+01  0.00000000E+00
  5.10000000E+02  1.20000000E+01  0.00000000E+00
  5.20000000E+02  1.20000000E+01  0.00000000E+00
  5.30000000E+02  1.20000000E+01  0.00000000E+00
  5.40000000E+02  1.20000000E+01  0.00000000E+00
  5.50000000E+02  1.20000000E+01  0.00000000E+00
  5.60000000E+02  1.20000000E+01  0.00000000E+00
  5.70000000E+02  1.20000000E+01  0.00000000E+00
  5.80000000E+02  1.20000000E+01  0.00000000E+00
  5.90000000E+02  1.20000000E+01  0.00000000E+00
  6.00000000E+02  1.20000000E+01  0.00000000E+00
  6.10000000E+02  1.20000000E+01  0.00000000E+00
  6.20000000E+02  1.20000000E+01  0.00000000E+00
  6.30000000E+02  1.20000000E+01  0.00000000E+00
  6.40000000E+02  1.20000000E+01  0.00000000E+00
  6.50000000E+02  1.20000000E+01  0.00000000E+00
  6.60000000E+02  1.20000000E+01  0.00000000E+00
  6.70000000E+02  1.20000000E+01  0.00000000E+00
  6.80000000E+02  1.20000000E+01  0.00000000E+00
  6.90000000E+02  1.20000000E+01  0.00000000E+00
  7.00000000E+02  1.20000000E+01  0.00000000E+00
  7.10000000E+02  1.20000000E+01  0.00000000E+00
  7.20000000E+02  1.20000000E+01  0.00000000E+00
  7.30000000E+02  1.20000000E+01  0.00000000E+00
  7.40000000E+02  1.20000000E+01  0.00000000E+00
  7.50000000E+02  1.20000000E+01  0.00000000E+00
  7.60000000E+02  1.20000000E+01  0.00000000E+00
  7.70000000E+02  1.20000000E+01  0.00000000E+00
  7.80000000E+02  1.20000000E+01  0.00000000E+00
  7.90000000E+02  1.20000000E+01  0.00000000E+00
  8.00000000E+02  1.20000000E+01  0.00000000E+00
  8.10000000E+02  1.20000000E+01  0.00000000E+00
  8.20000000E+02  1.20000000E+01  0.00000000E+00
  8.30000000E+02  1.20000000E+01  0.00000000E+00
  8.40000000E+02  1.20000000E+01  0.00000000E+00
  8.50000000E+02  1.20000000E+01  0.00000000E+00
  8.60000000E+02  1.20000000E+01  0.00000000E+00
  8.70000000E+02  1.20000000E+01  0.00000000E+00
  8.80000000E+02  1.20000000E+01  0.00000000E+00
  8.90000000E+02  1.20000000E+01  0.00000000E+00
  9.00000000E+02  1.20000000E+01  0.00000000E+00
  9.10000000E+02  1.20000000E+01  0.00000000E+00
  9.20000000E+02  1.20000000E+01  0.00000000E+00
  9.30000000E+02  1.20000000E+01  0.00000000E+00
  9.40000000E+02  1.20000000E+01  0.00000000E+00
  9.50000000E+02  1.20000000E+01  0.00000000E+00
  9.60000000E+02  1.20000000E+01  0.00000000E+00
  9.70000000E+02  1.20000000E+01  0.00000000E+00
  9.80000000E+02  1.20000000E+01  0.00000000E+00
  9.90000000E+02  1.20000000E+01  0.00000000E+00
  1.00000000E+03  1.20000000E+01  0.00000000E+00
  0.00000000E+00  1.40000000E+01  0.00000000E+00
  1.00000000E+01  1.40000000E+01  0.00000000E+00
  2.00000000E+01  1.40000000E+01  0.00000000E+00
  3.00000000E+01  1.40000000E+01  0.00000000E+00
  4.00000000E+01  1.40000000E+01  0.00000000E+00
  5.00000000E+01  1.40000000E+01  0.00000000E+00
  6.00000000E+01  1.40000000E+01  0.00000000E+00
  7.00000000E+01  1.40000000E+01  0.00000000E+00
  8.00000000E+01  1.40000000E+01  0.00000000E+00
  9.00000000E+01  1.40000000E+01  0.00000000E+00
  1.00000000E+02  1.40000000E+01  0.00000000E+00
  1.10000000E+02  1.40000000E+01  0.00000000E+00
  1.20000000E+02  1.40000000E+01  0.00000000E+00
  1.30000000E+02  1.40000000E+01  0.00000000E+00
  1.40000000E+02  1.40000000E+01  0.00000000E+00
  1.50000000E+02  1.40000000E+01  0.00000000E+00
  1.60000000E+02  1.40000000E+01  0.00000000E+00
  1.70000000E+02  1.40000000E+01  0.00000000E+00
  1.80000000E+02  1.40000000E+01  0.00000000E+00
  1.90000000E+02  1.40000000E+01  0.00000000E+00
  2.00000000E+02  1.40000000E+01  0.00000000E+00
  2.10000000E+02  1.40000000E+01  0.00000000E+00
  2.20000000E+02  1.40000000E+01  0.00000000E+00
  2.30000000E+02  1.40000000E+01  0.00000000E+00
  2.40000000E+02  1.40000000E+01  0.00000000E+00
  2.50000000E+02  1.40000000E+01  0.00000000E+00
  2.60000000E+02  1.40000000E+01  0.00000000E+00
  2.70000000E+02  1.40000000E+01  0.00000000E+00
  2.80000000E+02  1.40000000E+01  0.00000000E+00
  2.90000000E+02  1.40000000E+01  0.00000000E+00
  3.00000000E+02  1.40000000E+01  0.00000000E+00
  3.10000000E+02  1.40000000E+01  0.00000000E+00
  3.20000000E+02  1.40000000E+01  0.00000000E+00
  3.30000000E+02  1.40000000E+01  0.00000000E+00
  3.40000000E+02  1.40000000E+01  0.00000000E+00
  3.50000000E+02  1.40000000E+01  0.00000000E+00
  3.60000000E+02  1.40000000E+01  0.00000000E+00
  3.70000000E+02  1.40000000E+01  0.00000000E+00
  3.80000000E+02  1.40000000E+01  0.00000000E+00
  3.90000000E+02  1.40000000E+01  0.00000000E+00
  4.00000000E+02  1.40000000E+01  0.00000000E+00
  4.10000000E+02  1.40000000E+01  0.00000000E+00
  4.20000000E+02  1.40000000E+01  0.00000000E+00
  4.30000000E+02  1.40000000E+01  0.00000000E+00
  4.40000000E+02  1.40000000E+01  0.00000000E+00
  4.50000000E+02  1.40000000E+01  0.00000000E+00
  4.60000000E+02  1.40000000E+01  0.00000000E+00
  4.70000000E+02  1.40000000E+01  0.00000000E+00
  4.80000000E+02  1.40000000E+01  0.00000000E+00
  4.90000000E+02  1.40000000E+01  0.00000000E+00
  5.00000000E+02  1.40000000E+01  0.00000000E+00
  5.10000000E+02  1.40000000E+01  0.00000000E+00
  5.20000000E+02  1.40000000E+01  0.00000000E+00
  5.30000000E+02  1.40000000E+01  0.00000000E+00
  5.40000000E+02  1.40000000E+01  0.00000000E+00
  5.50000000E+02  1.40000000E+01  0.00000000E+00
  5.60000000E+02  1.40000000E+01  0.00000000E+00
  5.70000000E+02  1.40000000E+01  0.00000000E+00
  5.80000000E+02  1.40000000E+01  0.00000000E+00
  5.90000000E+02  1.40000000E+01  0.00000000E+00
  6.00000000E+02  1.40000000E+01  0.00000000E+00
  6.10000000E+02  1.40000000E+01  0.00000000E+00
  6.20000000E+02  1.40000000E+01  0.00000000E+00
  6.30000000E+02  1.40000000E+01  0.00000000E+00
  6.40000000E+02  1.40000000E+01  0.00000000E+00
  6.50000000E+02  1.40000000E+01  0.00000000E+00
  6.60000000E+02  1.40000000E+01  0.00000000E+00
  6.70000000E+02  1.40000000E+01  0.00000000E+00
  6.80000000E+02  1.40000000E+01  0.00000000E+00
  6.90000000E+02  1.40000000E+01  0.00000000E+00
  7.00000000E+02  1.40000000E+01  0.00000000E+00
  7.10000000E+02  1.40000000E+01  0.00000000E+00
  7.20000000E+02  1.40000000E+01  0.00000000E+00
  7.30000000E+02  1.40000000E+01  0.00000000E+00
  7.40000000E+02  1.40000000E+01  0.00000000E+00
  7.50000000E+02  1.40000000E+01  0.00000000E+00
  7.60000000E+02  1.40000000E+01  0.00000000E+00
  7.70000000E+02  1.40000000E+01  0.00000000E+00
  7.80000000E+02  1.40000000E+01  0.00000000E+00
  7.90000000E+02  1.40000000E+01  0.00000000E+00
  8.00000000E+02  1.40000000E+01  0.00000000E+00
  8.10000000E+02  1.40000000E+01  0.00000000E+00
  8.20000000E+02  1.40000000E+01  0.00000000E+00
  8.30000000E+02  1.40000000E+01  0.00000000E+00
  8.40000000E+02  1.40000000E+01  0.00000000E+00
  8.50000000E+02  1.40000000E+01  0.00000000E+00
  8.60000000E+02  1.40000000E+01  0.00000000E+00
  8.70000000E+02  1.40000000E+01  0.00000000E+00
  8.80000000E+02  1.40000000E+01  0.00000000E+00
  8.90000000E+02  1.40000000E+01  0.00000000E+00
  9.00000000E+02  1.40000000E+01  0.00000000E+00
  9.10000000E+02  1.40000000E+01  0.00000000E+00
  9.20000000E+02  1.40000000E+01  0.00000000E+00
  9.30000000E+02  1.40000000E+01  0.00000000E+00
  9.40000000E+02  1.40000000E+01  0.00000000E+00
  9.50000000E+02  1.40000000E+01  0.00000000E+00
  9.60000000E+02  1.40000000E+01  0.00000000E+00
  9.70000000E+02  1.40000000E+01  0.00000000E+00
  9.80000000E+02  1.40000000E+01  0.00000000E+00
  9.90000000E+02  1.40000000E+01  0.00000000E+00
  1.00000000E+03  1.40000000E+01  0.00000000E+00
  0.00000000E+00  1.60000000E+01  0.00000000E+00
  1.00000000E+01  1.60000000E+01  0.00000000E+00
  2.00000000E+01  1.60000000E+01  0.00000000E+00
  3.00000000E+01  1.60000000E+01  0.00000000E+00
  4.00000000E+01  1.60000000E+01  0.00000000E+00
  5.00000000E+01  1.60000000E+01  0.00000000E+00
  6.00000000E+01  1.60000000E+01  0.00000000E+00
  7.00000000E+01  1.60000000E+01  0.00000000E+00
  8.00000000E+01  1.60000000E+01  0.00000000E+00
  9.00000000E+01  1.60000000E+01  0.00000000E+00
  1.00000000E+02  1.60000000E+01  0.00000000E+00
  1.10000000E+02  1.60000000E+01  0.00000000E+00
  1.20000000E+02  1.60000000E+01  0.00000000E+00
  1.30000000E+02  1.60000000E+01  0.00000000E+00
  1.40000000E+02  1.60000000E+01  0.00000000E+00
  1.50000000E+02  1.60000000E+01  0.00000000E+00
  1.60000000E+02  1.60000000E+01  0.00000000E+00
  1.70000000E+02  1.60000000E+01  0.00000000E+00
  1.80000000E+02  1.60000000E+01  0.00000000E+00
  1.90000000E+02  1.60000000E+01  0.00000000E+00
  2.00000000E+02  1.60000000E+01  0.00000000E+00
  2.10000000E+02  1.60000000E+01  0.00000000E+00
  2.20000000E+02  1.60000000E+01  0.00000000E+00
  2.30000000E+02  1.60000000E+01  0.00000000E+00
  2.40000000E+02  1.60000000E+01  0.00000000E+00
  2.50000000E+02  1.60000000E+01  0.00000000E+00
  2.60000000E+02  1.60000000E+01  0.00000000E+00
  2.70000000E+02  1.60000000E+01  0.00000000E+00
  2.80000000E+02  1.60000000E+01  0.00000000E+00
  2.90000000E+02  1.60000000E+01  0.00000000E+00
  3.00000000E+02  1.60000000E+01  0.00000000E+00
  3.10000000E+02  1.60000000E+01  0.00000000E+00
  3.20000000E+02  1.60000000E+01  0.00000000E+00
  3.30000000E+02  1.60000000E+01  0.00000000E+00
  3.40000000E+02  1.60000000E+01  0.00000000E+00
  3.50000000E+02  1.60000000E+01  0.00000000E+00
  3.60000000E+02  1.60000000E+01  0.00000000E+00
  3.70000000E+02  1.60000000E+01  0.00000000E+00
  3.80000000E+02  1.60000000E+01  0.00000000E+00
  3.90000000E+02  1.60000000E+01  0.00000000E+00
  4.00000000E+02  1.60000000E+01  0.00000000E+00
  4.10000000E+02  1.60000000E+01  0.00000000E+00
  4.20000000E+02  1.60000000E+01  0.00000000E+00
  4.30000000E+02  1.60000000E+01  0.00000000E+00
  4.40000000E+02  1.60000000E+01  0.00000000E+00
  4.50000000E+02  1.60000000E+01  0.00000000E+00
  4.60000000E+02  1.60000000E+01  0.00000000E+00
  4.70000000E+02  1.60000000E+01  0.00000000E+00
  4.80000000E+02  1.60000000E+01  0.00000000E+00
  4.90000000E+02  1.60000000E+01  0.00000000E+00
  5.00000000E+02  1.60000000E+01  0.00000000E+00
  5.10000000E+02  1.60000000E+01  0.00000000E+00
  5.20000000E+02  1.60000000E+01  0.00000000E+00
  5.30000000E+02  1.60000000E+01  0.00000000E+00
  5.40000000E+02  1.60000000E+01  0.00000000E+00
  5.50000000E+02  1.60000000E+01  0.00000000E+00
  5.60000000E+02  1.60000000E+01  0.00000000E+00
  5.70000000E+02  1.60000000E+01  0.00000000E+00
  5.80000000E+02  1.60000000E+01  0.00000000E+00
  5.90000000E+02  1.60000000E+01  0.00000000E+00
  6.00000000E+02  1.60000000E+01  0.00000000E+00
  6.10000000E+02  1.60000000E+01  0.00000000E+00
  6.20000000E+02  1.60000000E+01  0.00000000E+00
  6.30000000E+02  1.60000000E+01  0.00000000E+00
  6.40000000E+02  1.60000000E+01  0.00000000E+00
  6.50000000E+02  1.60000000E+01  0.00000000E+00
  6.60000000E+02  1.60000000E+01  0.00000000E+00
  6.70000000E+02  1.60000000E+01  0.00000000E+00
  6.80000000E+02  1.60000000E+01  0.00000000E+00
  6.90000000E+02  1.60000000E+01  0.00000000E+00
  7.00000000E+02  1.60000000E+01  0.00000000E+00
  7.10000000E+02  1.60000000E+01  0.00000000E+00
  7.20000000E+02  1.60000000E+01  0.00000000E+00
  7.30000000E+02  1.60000000E+01  0.00000000E+00
  7.40000000E+02  1.60000000E+01  0.00000000E+00
  7.50000000E+02  1.60000000E+01  0.00000000E+00
  7.60000000E+02  1.60000000E+01  0.00000000E+00
  7.70000000E+02  1.60000000E+01  0.00000000E+00
  7.80000000E+02  1.60000000E+01  0.00000000E+00
  7.90000000E+02  1.60000000E+01  0.00000000E+00
  8.00000000E+02  1.60000000E+01  0.00000000E+00
  8.10000000E+02  1.60000000E+01  0.00000000E+00
  8.20000000E+02  1.60000000E+01  0.00000000E+00
  8.30000000E+02  1.60000000E+01  0.00000000E+00
  8.40000000E+02  1.60000000E+01  0.00000000E+00
  8.50000000E+02  1.60000000E+01  0.00000000E+00
  8.60000000E+02  1.60000000E+01  0.00000000E+00
  8.70000000E+02  1.60000000E+01  0.00000000E+00
  8.80000000E+02  1.60000000E+01  0.00000000E+00
  8.90000000E+02  1.60000000E+01  0.00000000E+00
  9.00000000E+02  1.60000000E+01  0.00000000E+00
  9.10000000E+02  1.60000000E+01  0.00000000E+00
  9.20000000E+02  1.60000000E+01  0.00000000E+00
  9.30000000E+02  1.60000000E+01  0.00000000E+00
  9.40000000E+02  1.60000000E+01  0.00000000E+00
  9.50000000E+02  1.60000000E+01  0.00000000E+00
  9.60000000E+02  1.60000000E+01  0.00000000E+00
  9.70000000E+02  1.60000000E+01  0.00000000E+00
  9.80000000E+02  1.60000000E+01  0.00000000E+00
  9.90000000E+02  1.60000000E+01  0.00000000E+00
  1.00000000E+03  1.60000000E+01  0.00000000E+00
  0.00000000E+00  1.80000000E+01  0.00000000E+00
  1.00000000E+01  1.80000000E+01  0.00000000E+00
  2.00000000E+01  1.80000000E+01  0.00000000E+00
  3.00000000E+01  1.80000000E+01  0.00000000E+00
  4.00000000E+01  1.80000000E+01  0.00000000E+00
  5.00000000E+01  1.80000000E+01  0.00000000E+00
  6.00000000E+01  1.80000000E+01  0.00000000E+00
  7.00000000E+01  1.80000000E+01  0.00000000E+00
  8.00000000E+01  1.80000000E+01  0.00000000E+00
  9.00000000E+01  1.80000000E+01  0.00000000E+00
  1.00000000E+02  1.80000000E+01  0.00000000E+00
  1.10000000E+02  1.80000000E+01  0.00000000E+00
  1.20000000E+02  1.80000000E+01  0.00000000E+00
  1.30000000E+02  1.80000000E+01  0.00000000E+00
  1.40000000E+02  1.80000000E+01  0.00000000E+00
  1.50000000E+02  1.80000000E+01  0.00000000E+00
  1.60000000E+02  1.80000000E+01  0.00000000E+00
  1.70000000E+02  1.80000000E+01  0.00000000E+00
  1.80000000E+02  1.80000000E+01  0.00000000E+00
  1.90000000E+02  1.80000000E+01  0.00000000E+00
  2.00000000E+02  1.80000000E+01  0.00000000E+00
  2.10000000E+02  1.80000000E+01  0.00000000E+00
  2.20000000E+02  1.80000000E+01  0.00000000E+00
  2.30000000E+02  1.80000000E+01  0.00000000E+00
  2.40000000E+02  1.80000000E+01  0.00000000E+00
  2.50000000E+02  1.80000000E+01  0.00000000E+00
  2.60000000E+02  1.80000000E+01  0.00000000E+00
  2.70000000E+02  1.80000000E+01  0.00000000E+00
  2.80000000E+02  1.80000000E+01  0.00000000E+00
  2.90000000E+02  1.80000000E+01  0.00000000E+00
  3.00000000E+02  1.80000000E+01  0.00000000E+00
  3.10000000E+02  1.80000000E+01  0.00000000E+00
  3.20000000E+02  1.80000000E+01  0.00000000E+00
  3.30000000E+02  1.80000000E+01  0.00000000E+00
  3.40000000E+02  1.80000000E+01  0.00000000E+00
  3.50000000E+02  1.80000000E+01  0.00000000E+00
  3.60000000E+02  1.80000000E+01  0.00000000E+00
  3.70000000E+02  1.80000000E+01  0.00000000E+00
  3.80000000E+02  1.80000000E+01  0.00000000E+00
  3.90000000E+02  1.80000000E+01  0.00000000E+00
  4.00000000E+02  1.80000000E+01  0.00000000E+00
  4.10000000E+02  1.80000000E+01  0.00000000E+00
  4.20000000E+02  1.80000000E+01  0.00000000E+00
  4.30000000E+02  1.80000000E+01  0.00000000E+00
  4.40000000E+02  1.80000000E+01  0.00000000E+00
  4.50000000E+02  1.80000000E+01  0.00000000E+00
  4.60000000E+02  1.80000000E+01  0.00000000E+00
  4.70000000E+02  1.80000000E+01  0.00000000E+00
  4.80000000E+02  1.80000000E+01  0.00000000E+00
  4.90000000E+02  1.80000000E+01  0.00000000E+00
  5.00000000E+02  1.80000000E+01  0.00000000E+00
  5.10000000E+02  1.80000000E+01  0.00000000E+00
  5.20000000E+02  1.80000000E+01  0.00000000E+00
  5.30000000E+02  1.80000000E+01  0.00000000E+00
  5.40000000E+02  1.80000000E+01  0.00000000E+00
  5.50000000E+02  1.80000000E+01  0.00000000E+00
  5.60000000E+02  1.80000000E+01  0.00000000E+00
  5.70000000E+02  1.80000000E+01  0.00000000E+00
  5.80000000E+02  1.80000000E+01  0.00000000E+00
  5.90000000E+02  1.80000000E+01  0.00000000E+00
  6.00000000E+02  1.80000000E+01  0.00000000E+00
  6.10000000E+02  1.80000000E+01  0.00000000E+00
  6.20000000E+02  1.80000000E+01  0.00000000E+00
  6.30000000E+02  1.80000000E+01  0.00000000E+00
  6.40000000E+02  1.80000000E+01  0.00000000E+00
  6.50000000E+02  1.80000000E+01  0.00000000E+00
  6.60000000E+02  1.80000000E+01  0.00000000E+00
  6.70000000E+02  1.80000000E+01  0.00000000E+00
  6.80000000E+02  1.80000000E+01  0.00000000E+00
  6.90000000E+02  1.80000000E+01  0.00000000E+00
  7.00000000E+02  1.80000000E+01  0.00000000E+00
  7.10000000E+02  1.80000000E+01  0.00000000E+00
  7.20000000E+02  1.80000000E+01  0.00000000E+00
  7.30000000E+02  1.80000000E+01  0.00000000E+00
  7.40000000E+02  1.80000000E+01  0.00000000E+00
  7.50000000E+02  1.80000000E+01  0.00000000E+00
  7.60000000E+02  1.80000000E+01  0.00000000E+00
  7.70000000E+02  1.80000000E+01  0.00000000E+00
  7.80000000E+02  1.80000000E+01  0.00000000E+00
  7.90000000E+02  1.80000000E+01  0.00000000E+00
  8.00000000E+02  1.80000000E+01  0.00000000E+00
  8.10000000E+02  1.80000000E+01  0.00000000E+00
  8.20000000E+02  1.80000000E+01  0.00000000E+00
  8.30000000E+02  1.80000000E+01  0.00000000E+00
  8.40000000E+02  1.80000000E+01  0.00000000E+00
  8.50000000E+02  1.80000000E+01  0.00000000E+00
  8.60000000E+02  1.80000000E+01  0.00000000E+00
  8.70000000E+02  1.80000000E+01  0.00000000E+00
  8.80000000E+02  1.80000000E+01  0.00000000E+00
  8.90000000E+02  1.80000000E+01  0.00000000E+00
  9.00000000E+02  1.80000000E+01  0.00000000E+00
  9.10000000E+02  1.80000000E+01  0.00000000E+00
  9.20000000E+02  1.80000000E+01  0.00000000E+00
  9.30000000E+02  1.80000000E+01  0.00000000E+00
  9.40000000E+02  1.80000000E+01  0.00000000E+00
  9.50000000E+02  1.80000000E+01  0.00000000E+00
  9.60000000E+02  1.80000000E+01  0.00000000E+00
  9.70000000E+02  1.80000000E+01  0.00000000E+00
  9.80000000E+02  1.80000000E+01  0.00000000E+00
  9.90000000E+02  1.80000000E+01  0.00000000E+00
  1.00000000E+03  1.80000000E+01  0.00000000E+00
  0.00000000E+00  2.00000000E+01  0.00000000E+00
  1.00000000E+01  2.00000000E+01  0.00000000E+00
  2.00000000E+01  2.00000000E+01  0.00000000E+00
  3.00000000E+01  2.00000000E+01  0.00000000E+00
  4.00000000E+01  2.00000000E+01  0.00000000E+00
  5.00000000E+01  2.00000000E+01  0.00000000E+00
  6.00000000E+01  2.00000000E+01  0.00000000E+00
  7.00000000E+01  2.00000000E+01  0.00000000E+00
  8.00000000E+01  2.00000000E+01  0.00000000E+00
  9.00000000E+01  2.00000000E+01  0.00000000E+00
  1.00000000E+02  2.00000000E+01  0.00000000E+00
  1.10000000E+02  2.00000000E+01  0.00000000E+00
  1.20000000E+02  2.00000000E+01  0.00000000E+00
  1.30000000E+02  2.00000000E+01  0.00000000E+00
  1.40000000E+02  2.00000000E+01  0.00000000E+00
  1.50000000E+02  2.00000000E+01  0.00000000E+00
  1.60000000E+02  2.00000000E+01  0.00000000E+00
  1.70000000E+02  2.00000000E+01  0.00000000E+00
  1.80000000E+02  2.00000000E+01  0.00000000E+00
  1.90000000E+02  2.00000000E+01  0.00000000E+00
  2.00000000E+02  2.00000000E+01  0.00000000E+00
  2.10000000E+02  2.00000000E+01  0.00000000E+00
  2.20000000E+02  2.00000000E+01  0.00000000E+00
  2.30000000E+02  2.00000000E+01  0.00000000E+00
  2.40000000E+02  2.00000000E+01  0.00000000E+00
  2.50000000E+02  2.00000000E+01  0.00000000E+00
  2.60000000E+02  2.00000000E+01  0.00000000E+00
  2.70000000E+02  2.00000000E+01  0.00000000E+00
  2.80000000E+02  2.00000000E+01  0.00000000E+00
  2.90000000E+02  2.00000000E+01  0.00000000E+00
  3.00000000E+02  2.00000000E+01  0.00000000E+00
  3.10000000E+02  2.00000000E+01  0.00000000E+00
  3.20000000E+02  2.00000000E+01  0.00000000E+00
  3.30000000E+02  2.00000000E+01  0.00000000E+00
  3.40000000E+02  2.00000000E+01  0.00000000E+00
  3.50000000E+02  2.00000000E+01  0.00000000E+00
  3.60000000E+02  2.00000000E+01  0.00000000E+00
  3.70000000E+02  2.00000000E+01  0.00000000E+00
  3.80000000E+02  2.00000000E+01  0.00000000E+00
  3.90000000E+02  2.00000000E+01  0.00000000E+00
  4.00000000E+02  2.00000000E+01  0.00000000E+00
  4.10000000E+02  2.00000000E+01  0.00000000E+00
  4.20000000E+02  2.00000000E+01  0.00000000E+00
  4.30000000E+02  2.00000000E+01  0.00000000E+00
  4.40000000E+02  2.00000000E+01  0.00000000E+00
  4.50000000E+02  2.00000000E+01  0.00000000E+00
  4.60000000E+02  2.00000000E+01  0.00000000E+00
  4.70000000E+02  2.00000000E+01  0.00000000E+00
  4.80000000E+02  2.00000000E+01  0.00000000E+00
  4.90000000E+02  2.00000000E+01  0.00000000E+00
  5.00000000E+02  2.00000000E+01  0.00000000E+00
  5.10000000E+02  2.00000000E+01  0.00000000E+00
  5.20000000E+02  2.00000000E+01  0.00000000E+00
  5.30000000E+02  2.00000000E+01  0.00000000E+00
  5.40000000E+02  2.00000000E+01  0.00000000E+00
  5.50000000E+02  2.00000000E+01  0.00000000E+00
  5.60000000E+02  2.00000000E+01  0.00000000E+00
  5.70000000E+02  2.00000000E+01  0.00000000E+00
  5.80000000E+02  2.00000000E+01  0.00000000E+00
  5.90000000E+02  2.00000000E+01  0.00000000E+00
  6.00000000E+02  2.00000000E+01  0.00000000E+00
  6.10000000E+02  2.00000000E+01  0.00000000E+00
  6.20000000E+02  2.00000000E+01  0.00000000E+00
  6.30000000E+02  2.00000000E+01  0.00000000E+00
  6.40000000E+02  2.00000000E+01  0.00000000E+00
  6.50000000E+02  2.00000000E+01  0.00000000E+00
  6.60000000E+02  2.00000000E+01  0.00000000E+00
  6.70000000E+02  2.00000000E+01  0.00000000E+00
  6.80000000E+02  2.00000000E+01  0.00000000E+00
  6.90000000E+02  2.00000000E+01  0.00000000E+00
  7.00000000E+02  2.00000000E+01  0.00000000E+00
  7.10000000E+02  2.00000000E+01  0.00000000E+00
  7.20000000E+02  2.00000000E+01  0.00000000E+00
  7.30000000E+02  2.00000000E+01  0.00000000E+00
  7.40000000E+02  2.00000000E+01  0.00000000E+00
  7.50000000E+02  2.00000000E+01  0.00000000E+00
  7.60000000E+02  2.00000000E+01  0.00000000E+00
  7.70000000E+02  2.00000000E+01  0.00000000E+00
  7.80000000E+02  2.00000000E+01  0.00000000E+00
  7.90000000E+02  2.00000000E+01  0.00000000E+00
  8.00000000E+02  2.00000000E+01  0.00000000E+00
  8.10000000E+02  2.00000000E+01  0.00000000E+00
  8.20000000E+02  2.00000000E+01  0.00000000E+00
  8.30000000E+02  2.00000000E+01  0.00000000E+00
  8.40000000E+02  2.00000000E+01  0.00000000E+00
  8.50000000E+02  2.00000000E+01  0.00000000E+00
  8.60000000E+02  2.00000000E+01  0.00000000E+00
  8.70000000E+02  2.00000000E+01  0.00000000E+00
  8.80000000E+02  2.00000000E+01  0.00000000E+00
  8.90000000E+02  2.00000000E+01  0.00000000E+00
  9.00000000E+02  2.00000000E+01  0.00000000E+00
  9.10000000E+02  2.00000000E+01  0.00000000E+00
  9.20000000E+02  2.00000000E+01  0.00000000E+00
  9.30000000E+02  2.00000000E+01  0.00000000E+00
  9.40000000E+02  2.00000000E+01  0.00000000E+00
  9.50000000E+02  2.00000000E+01  0.00000000E+00
  9.60000000E+02  2.00000000E+01  0.00000000E+00
  9.70000000E+02  2.00000000E+01  0.00000000E+00
  9.80000000E+02  2.00000000E+01  0.00000000E+00
  9.90000000E+02  2.00000000E+01  0.00000000E+00
  1.00000000E+03  2.00000000E+01  0.00000000E+00
  0.00000000E+00  2.20000000E+01  0.00000000E+00
  1.00000000E+01  2.20000000E+01  0.00000000E+00
  2.00000000E+01  2.20000000E+01  0.00000000E+00
  3.00000000E+01  2.20000000E+01  0.00000000E+00
  4.00000000E+01  2.20000000E+01  0.00000000E+00
  5.00000000E+01  2.20000000E+01  0.00000000E+00
  6.00000000E+01  2.20000000E+01  0.00000000E+00
  7.00000000E+01  2.20000000E+01  0.00000000E+00
  8.00000000E+01  2.20000000E+01  0.00000000E+00
  9.00000000E+01  2.20000000E+01  0.00000000E+00
  1.00000000E+02  2.20000000E+01  0.00000000E+00
  1.10000000E+02  2.20000000E+01  0.00000000E+00
  1.20000000E+02  2.20000000E+01  0.00000000E+00
  1.30000000E+02  2.20000000E+01  0.00000000E+00
  1.40000000E+02  2.20000000E+01  0.00000000E+00
  1.50000000E+02  2.20000000E+01  0.00000000E+00
  1.60000000E+02  2.20000000E+01  0.00000000E+00
  1.70000000E+02  2.20000000E+01  0.00000000E+00
  1.80000000E+02  2.20000000E+01  0.00000000E+00
  1.90000000E+02  2.20000000E+01  0.00000000E+00
  2.00000000E+02  2.20000000E+01  0.00000000E+00
  2.10000000E+02  2.20000000E+01  0.00000000E+00
  2.20000000E+02  2.20000000E+01  0.00000000E+00
  2.30000000E+02  2.20000000E+01  0.00000000E+00
  2.40000000E+02  2.20000000E+01  0.00000000E+00
  2.50000000E+02  2.20000000E+01  0.00000000E+00
  2.60000000E+02  2.20000000E+01  0.00000000E+00
  2.70000000E+02  2.20000000E+01  0.00000000E+00
  2.80000000E+02  2.20000000E+01  0.00000000E+00
  2.90000000E+02  2.20000000E+01  0.00000000E+00
  3.00000000E+02  2.20000000E+01  0.00000000E+00
  3.10000000E+02  2.20000000E+01  0.00000000E+00
  3.20000000E+02  2.20000000E+01  0.00000000E+00
  3.30000000E+02  2.20000000E+01  0.00000000E+00
  3.40000000E+02  2.20000000E+01  0.00000000E+00
  3.50000000E+02  2.20000000E+01  0.00000000E+00
  3.60000000E+02  2.20000000E+01  0.00000000E+00
  3.70000000E+02  2.20000000E+01  0.00000000E+00
  3.80000000E+02  2.20000000E+01  0.00000000E+00
  3.90000000E+02  2.20000000E+01  0.00000000E+00
  4.00000000E+02  2.20000000E+01  0.00000000E+00
  4.10000000E+02  2.20000000E+01  0.00000000E+00
  4.20000000E+02  2.20000000E+01  0.00000000E+00
  4.30000000E+02  2.20000000E+01  0.00000000E+00
  4.40000000E+02  2.20000000E+01  0.00000000E+00
  4.50000000E+02  2.20000000E+01  0.00000000E+00
  4.60000000E+02  2.20000000E+01  0.00000000E+00
  4.70000000E+02  2.20000000E+01  0.00000000E+00
  4.80000000E+02  2.20000000E+01  0.00000000E+00
  4.90000000E+02  2.20000000E+01  0.00000000E+00
  5.00000000E+02  2.20000000E+01  0.00000000E+00
  5.10000000E+02  2.20000000E+01  0.00000000E+00
  5.20000000E+02  2.20000000E+01  0.00000000E+00
  5.30000000E+02  2.20000000E+01  0.00000000E+00
  5.40000000E+02  2.20000000E+01  0.00000000E+00
  5.50000000E+02  2.20000000E+01  0.00000000E+00
  5.60000000E+02  2.20000000E+01  0.00000000E+00
  5.70000000E+02  2.20000000E+01  0.00000000E+00
  5.80000000E+02  2.20000000E+01  0.00000000E+00
  5.90000000E+02  2.20000000E+01  0.00000000E+00
  6.00000000E+02  2.20000000E+01  0.00000000E+00
  6.10000000E+02  2.20000000E+01  0.00000000E+00
  6.20000000E+02  2.20000000E+01  0.00000000E+00
  6.30000000E+02  2.20000000E+01  0.00000000E+00
  6.40000000E+02  2.20000000E+01  0.00000000E+00
  6.50000000E+02  2.20000000E+01  0.00000000E+00
  6.60000000E+02  2.20000000E+01  0.00000000E+00
  6.70000000E+02  2.20000000E+01  0.00000000E+00
  6.80000000E+02  2.20000000E+01  0.00000000E+00
  6.90000000E+02  2.20000000E+01  0.00000000E+00
  7.00000000E+02  2.20000000E+01  0.00000000E+00
  7.10000000E+02  2.20000000E+01  0.00000000E+00
  7.20000000E+02  2.20000000E+01  0.00000000E+00
  7.30000000E+02  2.20000000E+01  0.00000000E+00
  7.40000000E+02  2.20000000E+01  0.00000000E+00
  7.50000000E+02  2.20000000E+01  0.00000000E+00
  7.60000000E+02  2.20000000E+01  0.00000000E+00
  7.70000000E+02  2.20000000E+01  0.00000000E+00
  7.80000000E+02  2.20000000E+01  0.00000000E+00
  7.90000000E+02  2.20000000E+01  0.00000000E+00
  8.00000000E+02  2.20000000E+01  0.00000000E+00
  8.10000000E+02  2.20000000E+01  0.00000000E+00
  8.20000000E+02  2.20000000E+01  0.00000000E+00
  8.30000000E+02  2.20000000E+01  0.00000000E+00
  8.40000000E+02  2.20000000E+01  0.00000000E+00
  8.50000000E+02  2.20000000E+01  0.00000000E+00
  8.60000000E+02  2.20000000E+01  0.00000000E+00
  8.70000000E+02  2.20000000E+01  0.00000000E+00
  8.80000000E+02  2.20000000E+01  0.00000000E+00
  8.90000000E+02  2.20000000E+01  0.00000000E+00
  9.00000000E+02  2.20000000E+01  0.00000000E+00
  9.10000000E+02  2.20000000E+01  0.00000000E+00
  9.20000000E+02  2.20000000E+01  0.00000000E+00
  9.30000000E+02  2.20000000E+01  0.00000000E+00
  9.40000000E+02  2.20000000E+01  0.00000000E+00
  9.50000000E+02  2.20000000E+01  0.00000000E+00
  9.60000000E+02  2.20000000E+01  0.00000000E+00
  9.70000000E+02  2.20000000E+01  0.00000000E+00
  9.80000000E+02  2.20000000E+01  0.00000000E+00
  9.90000000E+02  2.20000000E+01  0.00000000E+00
  1.00000000E+03  2.20000000E+01  0.00000000E+00
  0.00000000E+00  2.40000000E+01  0.00000000E+00
  1.00000000E+01  2.40000000E+01  0.00000000E+00
  2.00000000E+01  2.40000000E+01  0.00000000E+00
  3.00000000E+01  2.40000000E+01  0.00000000E+00
  4.00000000E+01  2.40000000E+01  0.00000000E+00
  5.00000000E+01  2.40000000E+01  0.00000000E+00
  6.00000000E+01  2.40000000E+01  0.00000000E+00
  7.00000000E+01  2.40000000E+01  0.00000000E+00
  8.00000000E+01  2.40000000E+01  0.00000000E+00
  9.00000000E+01  2.40000000E+01  0.00000000E+00
  1.00000000E+02  2.40000000E+01  0.00000000E+00
  1.10000000E+02  2.40000000E+01  0.00000000E+00
  1.20000000E+02  2.40000000E+01  0.00000000E+00
  1.30000000E+02  2.40000000E+01  0.00000000E+00
  1.40000000E+02  2.40000000E+01  0.00000000E+00
  1.50000000E+02  2.40000000E+01  0.00000000E+00
  1.60000000E+02  2.40000000E+01  0.00000000E+00
  1.70000000E+02  2.40000000E+01  0.00000000E+00
  1.80000000E+02  2.40000000E+01  0.00000000E+00
  1.90000000E+02  2.40000000E+01  0.00000000E+00
  2.00000000E+02  2.40000000E+01  0.00000000E+00
  2.10000000E+02  2.40000000E+01  0.00000000E+00
  2.20000000E+02  2.40000000E+01  0.00000000E+00
  2.30000000E+02  2.40000000E+01  0.00000000E+00
  2.40000000E+02  2.40000000E+01  0.00000000E+00
  2.50000000E+02  2.40000000E+01  0.00000000E+00
  2.60000000E+02  2.40000000E+01  0.00000000E+00
  2.70000000E+02  2.40000000E+01  0.00000000E+00
  2.80000000E+02  2.40000000E+01  0.00000000E+00
  2.90000000E+02  2.40000000E+01  0.00000000E+00
  3.00000000E+02  2.40000000E+01  0.00000000E+00
  3.10000000E+02  2.40000000E+01  0.00000000E+00
  3.20000000E+02  2.40000000E+01  0.00000000E+00
  3.30000000E+02  2.40000000E+01  0.00000000E+00
  3.40000000E+02  2.40000000E+01  0.00000000E+00
  3.50000000E+02  2.40000000E+01  0.00000000E+00
  3.60000000E+02  2.40000000E+01  0.00000000E+00
  3.70000000E+02  2.40000000E+01  0.00000000E+00
  3.80000000E+02  2.40000000E+01  0.00000000E+00
  3.90000000E+02  2.40000000E+01  0.00000000E+00
  4.00000000E+02  2.40000000E+01  0.00000000E+00
  4.10000000E+02  2.40000000E+01  0.00000000E+00
  4.20000000E+02  2.40000000E+01  0.00000000E+00
  4.30000000E+02  2.40000000E+01  0.00000000E+00
  4.40000000E+02  2.40000000E+01  0.00000000E+00
  4.50000000E+02  2.40000000E+01  0.00000000E+00
  4.60000000E+02  2.40000000E+01  0.00000000E+00
  4.70000000E+02  2.40000000E+01  0.00000000E+00
  4.80000000E+02  2.40000000E+01  0.00000000E+00
  4.90000000E+02  2.40000000E+01  0.00000000E+00
  5.00000000E+02  2.40000000E+01  0.00000000E+00
  5.10000000E+02  2.40000000E+01  0.00000000E+00
  5.20000000E+02  2.40000000E+01  0.00000000E+00
  5.30000000E+02  2.40000000E+01  0.00000000E+00
  5.40000000E+02  2.40000000E+01  0.00000000E+00
  5.50000000E+02  2.40000000E+01  0.00000000E+00
  5.60000000E+02  2.40000000E+01  0.00000000E+00
  5.70000000E+02  2.40000000E+01  0.00000000E+00
  5.80000000E+02  2.40000000E+01  0.00000000E+00
  5.90000000E+02  2.40000000E+01  0.00000000E+00
  6.00000000E+02  2.40000000E+01  0.00000000E+00
  6.10000000E+02  2.40000000E+01  0.00000000E+00
  6.20000000E+02  2.40000000E+01  0.00000000E+00
  6.30000000E+02  2.40000000E+01  0.00000000E+00
  6.40000000E+02  2.40000000E+01  0.00000000E+00
  6.50000000E+02  2.40000000E+01  0.00000000E+00
  6.60000000E+02  2.40000000E+01  0.00000000E+00
  6.70000000E+02  2.40000000E+01  0.00000000E+00
  6.80000000E+02  2.40000000E+01  0.00000000E+00
  6.90000000E+02  2.40000000E+01  0.00000000E+00
  7.00000000E+02  2.40000000E+01  0.00000000E+00
  7.10000000E+02  2.40000000E+01  0.00000000E+00
  7.20000000E+02  2.40000000E+01  0.00000000E+00
  7.30000000E+02  2.40000000E+01  0.00000000E+00
  7.40000000E+02  2.40000000E+01  0.00000000E+00
  7.50000000E+02  2.40000000E+01  0.00000000E+00
  7.60000000E+02  2.40000000E+01  0.00000000E+00
  7.70000000E+02  2.40000000E+01  0.00000000E+00
  7.80000000E+02  2.40000000E+01  0.00000000E+00
  7.90000000E+02  2.40000000E+01  0.00000000E+00
  8.00000000E+02  2.40000000E+01  0.00000000E+00
  8.10000000E+02  2.40000000E+01  0.00000000E+00
  8.20000000E+02  2.40000000E+01  0.00000000E+00
  8.30000000E+02  2.40000000E+01  0.00000000E+00
  8.40000000E+02  2.40000000E+01  0.00000000E+00
  8.50000000E+02  2.40000000E+01  0.00000000E+00
  8.60000000E+02  2.40000000E+01  0.00000000E+00
  8.70000000E+02  2.40000000E+01  0.00000000E+00
  8.80000000E+02  2.40000000E+01  0.00000000E+00
  8.90000000E+02  2.40000000E+01  0.00000000E+00
  9.00000000E+02  2.40000000E+01  0.00000000E+00
  9.10000000E+02  2.40000000E+01  0.00000000E+00
  9.20000000E+02  2.40000000E+01  0.00000000E+00
  9.30000000E+02  2.40000000E+01  0.00000000E+00
  9.40000000E+02  2.40000000E+01  0.00000000E+00
  9.50000000E+02  2.40000000E+01  0.00000000E+00
  9.60000000E+02  2.40000000E+01  0.00000000E+00
  9.70000000E+02  2.40000000E+01  0.00000000E+00
  9.80000000E+02  2.40000000E+01  0.00000000E+00
  9.90000000E+02  2.40000000E+01  0.00000000E+00
  1.00000000E+03  2.40000000E+01  0.00000000E+00
  0.00000000E+00  2.60000000E+01  0.00000000E+00
  1.00000000E+01  2.60000000E+01  0.00000000E+00
  2.00000000E+01  2.60000000E+01  0.00000000E+00
  3.00000000E+01  2.60000000E+01  0.00000000E+00
  4.00000000E+01  2.60000000E+01  0.00000000E+00
  5.00000000E+01  2.60000000E+01  0.00000000E+00
  6.00000000E+01  2.60000000E+01  0.00000000E+00
  7.00000000E+01  2.60000000E+01  0.00000000E+00
  8.00000000E+01  2.60000000E+01  0.00000000E+00
  9.00000000E+01  2.60000000E+01  0.00000000E+00
  1.00000000E+02  2.60000000E+01  0.00000000E+00
  1.10000000E+02  2.60000000E+01  0.00000000E+00
  1.20000000E+02  2.60000000E+01  0.00000000E+00
  1.30000000E+02  2.60000000E+01  0.00000000E+00
  1.40000000E+02  2.60000000E+01  0.00000000E+00
  1.50000000E+02  2.60000000E+01  0.00000000E+00
  1.60000000E+02  2.60000000E+01  0.00000000E+00
  1.70000000E+02  2.60000000E+01  0.00000000E+00
  1.80000000E+02  2.60000000E+01  0.00000000E+00
  1.90000000E+02  2.60000000E+01  0.00000000E+00
  2.00000000E+02  2.60000000E+01  0.00000000E+00
  2.10000000E+02  2.60000000E+01  0.00000000E+00
  2.20000000E+02  2.60000000E+01  0.00000000E+00
  2.30000000E+02  2.60000000E+01  0.00000000E+00
  2.40000000E+02  2.60000000E+01  0.00000000E+00
  2.50000000E+02  2.60000000E+01  0.00000000E+00
  2.60000000E+02  2.60000000E+01  0.00000000E+00
  2.70000000E+02  2.60000000E+01  0.00000000E+00
  2.80000000E+02  2.60000000E+01  0.00000000E+00
  2.90000000E+02  2.60000000E+01  0.00000000E+00
  3.00000000E+02  2.60000000E+01  0.00000000E+00
  3.10000000E+02  2.60000000E+01  0.00000000E+00
  3.20000000E+02  2.60000000E+01  0.00000000E+00
  3.30000000E+02  2.60000000E+01  0.00000000E+00
  3.40000000E+02  2.60000000E+01  0.00000000E+00
  3.50000000E+02  2.60000000E+01  0.00000000E+00
  3.60000000E+02  2.60000000E+01  0.00000000E+00
  3.70000000E+02  2.60000000E+01  0.00000000E+00
  3.80000000E+02  2.60000000E+01  0.00000000E+00
  3.90000000E+02  2.60000000E+01  0.00000000E+00
  4.00000000E+02  2.60000000E+01  0.00000000E+00
  4.10000000E+02  2.60000000E+01  0.00000000E+00
  4.20000000E+02  2.60000000E+01  0.00000000E+00
  4.30000000E+02  2.60000000E+01  0.00000000E+00
  4.40000000E+02  2.60000000E+01  0.00000000E+00
  4.50000000E+02  2.60000000E+01  0.00000000E+00
  4.60000000E+02  2.60000000E+01  0.00000000E+00
  4.70000000E+02  2.60000000E+01  0.00000000E+00
  4.80000000E+02  2.60000000E+01  0.00000000E+00
  4.90000000E+02  2.60000000E+01  0.00000000E+00
  5.00000000E+02  2.60000000E+01  0.00000000E+00
  5.10000000E+02  2.60000000E+01  0.00000000E+00
  5.20000000E+02  2.60000000E+01  0.00000000E+00
  5.30000000E+02  2.60000000E+01  0.00000000E+00
  5.40000000E+02  2.60000000E+01  0.00000000E+00
  5.50000000E+02  2.60000000E+01  0.00000000E+00
  5.60000000E+02  2.60000000E+01  0.00000000E+00
  5.70000000E+02  2.60000000E+01  0.00000000E+00
  5.80000000E+02  2.60000000E+01  0.00000000E+00
  5.90000000E+02  2.60000000E+01  0.00000000E+00
  6.00000000E+02  2.60000000E+01  0.00000000E+00
  6.10000000E+02  2.60000000E+01  0.00000000E+00
  6.20000000E+02  2.60000000E+01  0.00000000E+00
  6.30000000E+02  2.60000000E+01  0.00000000E+00
  6.40000000E+02  2.60000000E+01  0.00000000E+00
  6.50000000E+02  2.60000000E+01  0.00000000E+00
  6.60000000E+02  2.60000000E+01  0.00000000E+00
  6.70000000E+02  2.60000000E+01  0.00000000E+00
  6.80000000E+02  2.60000000E+01  0.00000000E+00
  6.90000000E+02  2.60000000E+01  0.00000000E+00
  7.00000000E+02  2.60000000E+01  0.00000000E+00
  7.10000000E+02  2.60000000E+01  0.00000000E+00
  7.20000000E+02  2.60000000E+01  0.00000000E+00
  7.30000000E+02  2.60000000E+01  0.00000000E+00
  7.40000000E+02  2.60000000E+01  0.00000000E+00
  7.50000000E+02  2.60000000E+01  0.00000000E+00
  7.60000000E+02  2.60000000E+01  0.00000000E+00
  7.70000000E+02  2.60000000E+01  0.00000000E+00
  7.80000000E+02  2.60000000E+01  0.00000000E+00
  7.90000000E+02  2.60000000E+01  0.00000000E+00
  8.00000000E+02  2.60000000E+01  0.00000000E+00
  8.10000000E+02  2.60000000E+01  0.00000000E+00
  8.20000000E+02  2.60000000E+01  0.00000000E+00
  8.30000000E+02  2.60000000E+01  0.00000000E+00
  8.40000000E+02  2.60000000E+01  0.00000000E+00
  8.50000000E+02  2.60000000E+01  0.00000000E+00
  8.60000000E+02  2.60000000E+01  0.00000000E+00
  8.70000000E+02  2.60000000E+01  0.00000000E+00
  8.80000000E+02  2.60000000E+01  0.00000000E+00
  8.90000000E+02  2.60000000E+01  0.00000000E+00
  9.00000000E+02  2.60000000E+01  0.00000000E+00
  9.10000000E+02  2.60000000E+01  0.00000000E+00
  9.20000000E+02  2.60000000E+01  0.00000000E+00
  9.30000000E+02  2.60000000E+01  0.00000000E+00
  9.40000000E+02  2.60000000E+01  0.00000000E+00
  9.50000000E+02  2.60000000E+01  0.00000000E+00
  9.60000000E+02  2.60000000E+01  0.00000000E+00
  9.70000000E+02  2.60000000E+01  0.00000000E+00
  9.80000000E+02  2.60000000E+01  0.00000000E+00
  9.90000000E+02  2.60000000E+01  0.00000000E+00
  1.00000000E+03  2.60000000E+01  0.00000000E+00
  0.00000000E+00  2.80000000E+01  0.00000000E+00
  1.00000000E+01  2.80000000E+01  0.00000000E+00
  2.00000000E+01  2.80000000E+01  0.00000000E+00
  3.00000000E+01  2.80000000E+01  0.00000000E+00
  4.00000000E+01  2.80000000E+01  0.00000000E+00
  5.00000000E+01  2.80000000E+01  0.00000000E+00
  6.00000000E+01  2.80000000E+01  0.00000000E+00
  7.00000000E+01  2.80000000E+01  0.00000000E+00
  8.00000000E+01  2.80000000E+01  0.00000000E+00
  9.00000000E+01  2.80000000E+01  0.00000000E+00
  1.00000000E+02  2.80000000E+01  0.00000000E+00
  1.10000000E+02  2.80000000E+01  0.00000000E+00
  1.20000000E+02  2.80000000E+01  0.00000000E+00
  1.30000000E+02  2.80000000E+01  0.00000000E+00
  1.40000000E+02  2.80000000E+01  0.00000000E+00
  1.50000000E+02  2.80000000E+01  0.00000000E+00
  1.60000000E+02  2.80000000E+01  0.00000000E+00
  1.70000000E+02  2.80000000E+01  0.00000000E+00
  1.80000000E+02  2.80000000E+01  0.00000000E+00
  1.90000000E+02  2.80000000E+01  0.00000000E+00
  2.00000000E+02  2.80000000E+01  0.00000000E+00
  2.10000000E+02  2.80000000E+01  0.00000000E+00
  2.20000000E+02  2.80000000E+01  0.00000000E+00
  2.30000000E+02  2.80000000E+01  0.00000000E+00
  2.40000000E+02  2.80000000E+01  0.00000000E+00
  2.50000000E+02  2.80000000E+01  0.00000000E+00
  2.60000000E+02  2.80000000E+01  0.00000000E+00
  2.70000000E+02  2.80000000E+01  0.00000000E+00
  2.80000000E+02  2.80000000E+01  0.00000000E+00
  2.90000000E+02  2.80000000E+01  0.00000000E+00
  3.00000000E+02  2.80000000E+01  0.00000000E+00
  3.10000000E+02  2.80000000E+01  0.00000000E+00
  3.20000000E+02  2.80000000E+01  0.00000000E+00
  3.30000000E+02  2.80000000E+01  0.00000000E+00
  3.40000000E+02  2.80000000E+01  0.00000000E+00
  3.50000000E+02  2.80000000E+01  0.00000000E+00
  3.60000000E+02  2.80000000E+01  0.00000000E+00
  3.70000000E+02  2.80000000E+01  0.00000000E+00
  3.80000000E+02  2.80000000E+01  0.00000000E+00
  3.90000000E+02  2.80000000E+01  0.00000000E+00
  4.00000000E+02  2.80000000E+01  0.00000000E+00
  4.10000000E+02  2.80000000E+01  0.00000000E+00
  4.20000000E+02  2.80000000E+01  0.00000000E+00
  4.30000000E+02  2.80000000E+01  0.00000000E+00
  4.40000000E+02  2.80000000E+01  0.00000000E+00
  4.50000000E+02  2.80000000E+01  0.00000000E+00
  4.60000000E+02  2.80000000E+01  0.00000000E+00
  4.70000000E+02  2.80000000E+01  0.00000000E+00
  4.80000000E+02  2.80000000E+01  0.00000000E+00
  4.90000000E+02  2.80000000E+01  0.00000000E+00
  5.00000000E+02  2.80000000E+01  0.00000000E+00
  5.10000000E+02  2.80000000E+01  0.00000000E+00
  5.20000000E+02  2.80000000E+01  0.00000000E+00
  5.30000000E+02  2.80000000E+01  0.00000000E+00
  5.40000000E+02  2.80000000E+01  0.00000000E+00
  5.50000000E+02  2.80000000E+01  0.00000000E+00
  5.60000000E+02  2.80000000E+01  0.00000000E+00
  5.70000000E+02  2.80000000E+01  0.00000000E+00
  5.80000000E+02  2.80000000E+01  0.00000000E+00
  5.90000000E+02  2.80000000E+01  0.00000000E+00
  6.00000000E+02  2.80000000E+01  0.00000000E+00
  6.10000000E+02  2.80000000E+01  0.00000000E+00
  6.20000000E+02  2.80000000E+01  0.00000000E+00
  6.30000000E+02  2.80000000E+01  0.00000000E+00
  6.40000000E+02  2.80000000E+01  0.00000000E+00
  6.50000000E+02  2.80000000E+01  0.00000000E+00
  6.60000000E+02  2.80000000E+01  0.00000000E+00
  6.70000000E+02  2.80000000E+01  0.00000000E+00
  6.80000000E+02  2.80000000E+01  0.00000000E+00
  6.90000000E+02  2.80000000E+01  0.00000000E+00
  7.00000000E+02  2.80000000E+01  0.00000000E+00
  7.10000000E+02  2.80000000E+01  0.00000000E+00
  7.20000000E+02  2.80000000E+01  0.00000000E+00
  7.30000000E+02  2.80000000E+01  0.00000000E+00
  7.40000000E+02  2.80000000E+01  0.00000000E+00
  7.50000000E+02  2.80000000E+01  0.00000000E+00
  7.60000000E+02  2.80000000E+01  0.00000000E+00
  7.70000000E+02  2.80000000E+01  0.00000000E+00
  7.80000000E+02  2.80000000E+01  0.00000000E+00
  7.90000000E+02  2.80000000E+01  0.00000000E+00
  8.00000000E+02  2.80000000E+01  0.00000000E+00
  8.10000000E+02  2.80000000E+01  0.00000000E+00
  8.20000000E+02  2.80000000E+01  0.00000000E+00
  8.30000000E+02  2.80000000E+01  0.00000000E+00
  8.40000000E+02  2.80000000E+01  0.00000000E+00
  8.50000000E+02  2.80000000E+01  0.00000000E+00
  8.60000000E+02  2.80000000E+01  0.00000000E+00
  8.70000000E+02  2.80000000E+01  0.00000000E+00
  8.80000000E+02  2.80000000E+01  0.00000000E+00
  8.90000000E+02  2.80000000E+01  0.00000000E+00
  9.00000000E+02  2.80000000E+01  0.00000000E+00
  9.10000000E+02  2.80000000E+01  0.00000000E+00
  9.20000000E+02  2.80000000E+01  0.00000000E+00
  9.30000000E+02  2.80000000E+01  0.00000000E+00
  9.40000000E+02  2.80000000E+01  0.00000000E+00
  9.50000000E+02  2.80000000E+01  0.00000000E+00
  9.60000000E+02  2.80000000E+01  0.00000000E+00
  9.70000000E+02  2.80000000E+01  0.00000000E+00
  9.80000000E+02  2.80000000E+01  0.00000000E+00
  9.90000000E+02  2.80000000E+01  0.00000000E+00
  1.00000000E+03  2.80000000E+01  0.00000000E+00
  0.00000000E+00  3.00000000E+01  0.00000000E+00
  1.00000000E+01  3.00000000E+01  0.00000000E+00
  2.00000000E+01  3.00000000E+01  0.00000000E+00
  3.00000000E+01  3.00000000E+01  0.00000000E+00
  4.00000000E+01  3.00000000E+01  0.00000000E+00
  5.00000000E+01  3.00000000E+01  0.00000000E+00
  6.00000000E+01  3.00000000E+01  0.00000000E+00
  7.00000000E+01  3.00000000E+01  0.00000000E+00
  8.00000000E+01  3.00000000E+01  0.00000000E+00
  9.00000000E+01  3.00000000E+01  0.00000000E+00
  1.00000000E+02  3.00000000E+01  0.00000000E+00
  1.10000000E+02  3.00000000E+01  0.00000000E+00
  1.20000000E+02  3.00000000E+01  0.00000000E+00
  1.30000000E+02  3.00000000E+01  0.00000000E+00
  1.40000000E+02  3.00000000E+01  0.00000000E+00
  1.50000000E+02  3.00000000E+01  0.00000000E+00
  1.60000000E+02  3.00000000E+01  0.00000000E+00
  1.70000000E+02  3.00000000E+01  0.00000000E+00
  1.80000000E+02  3.00000000E+01  0.00000000E+00
  1.90000000E+02  3.00000000E+01  0.00000000E+00
  2.00000000E+02  3.00000000E+01  0.00000000E+00
  2.10000000E+02  3.00000000E+01  0.00000000E+00
  2.20000000E+02  3.00000000E+01  0.00000000E+00
  2.30000000E+02  3.00000000E+01  0.00000000E+00
  2.40000000E+02  3.00000000E+01  0.00000000E+00
  2.50000000E+02  3.00000000E+01  0.00000000E+00
  2.60000000E+02  3.00000000E+01  0.00000000E+00
  2.70000000E+02  3.00000000E+01  0.00000000E+00
  2.80000000E+02  3.00000000E+01  0.00000000E+00
  2.90000000E+02  3.00000000E+01  0.00000000E+00
  3.00000000E+02  3.00000000E+01  0.00000000E+00
  3.10000000E+02  3.00000000E+01  0.00000000E+00
  3.20000000E+02  3.00000000E+01  0.00000000E+00
  3.30000000E+02  3.00000000E+01  0.00000000E+00
  3.40000000E+02  3.00000000E+01  0.00000000E+00
  3.50000000E+02  3.00000000E+01  0.00000000E+00
  3.60000000E+02  3.00000000E+01  0.00000000E+00
  3.70000000E+02  3.00000000E+01  0.00000000E+00
  3.80000000E+02  3.00000000E+01  0.00000000E+00
  3.90000000E+02  3.00000000E+01  0.00000000E+00
  4.00000000E+02  3.00000000E+01  0.00000000E+00
  4.10000000E+02  3.00000000E+01  0.00000000E+00
  4.20000000E+02  3.00000000E+01  0.00000000E+00
  4.30000000E+02  3.00000000E+01  0.00000000E+00
  4.40000000E+02  3.00000000E+01  0.00000000E+00
  4.50000000E+02  3.00000000E+01  0.00000000E+00
  4.60000000E+02  3.00000000E+01  0.00000000E+00
  4.70000000E+02  3.00000000E+01  0.00000000E+00
  4.80000000E+02  3.00000000E+01  0.00000000E+00
  4.90000000E+02  3.00000000E+01  0.00000000E+00
  5.00000000E+02  3.00000000E+01  0.00000000E+00
  5.10000000E+02  3.00000000E+01  0.00000000E+00
  5.20000000E+02  3.00000000E+01  0.00000000E+00
  5.30000000E+02  3.00000000E+01  0.00000000E+00
  5.40000000E+02  3.00000000E+01  0.00000000E+00
  5.50000000E+02  3.00000000E+01  0.00000000E+00
  5.60000000E+02  3.00000000E+01  0.00000000E+00
  5.70000000E+02  3.00000000E+01  0.00000000E+00
  5.80000000E+02  3.00000000E+01  0.00000000E+00
  5.90000000E+02  3.00000000E+01  0.00000000E+00
  6.00000000E+02  3.00000000E+01  0.00000000E+00
  6.10000000E+02  3.00000000E+01  0.00000000E+00
  6.20000000E+02  3.00000000E+01  0.00000000E+00
  6.30000000E+02  3.00000000E+01  0.00000000E+00
  6.40000000E+02  3.00000000E+01  0.00000000E+00
  6.50000000E+02  3.00000000E+01  0.00000000E+00
  6.60000000E+02  3.00000000E+01  0.00000000E+00
  6.70000000E+02  3.00000000E+01  0.00000000E+00
  6.80000000E+02  3.00000000E+01  0.00000000E+00
  6.90000000E+02  3.00000000E+01  0.00000000E+00
  7.00000000E+02  3.00000000E+01  0.00000000E+00
  7.10000000E+02  3.00000000E+01  0.00000000E+00
  7.20000000E+02  3.00000000E+01  0.00000000E+00
  7.30000000E+02  3.00000000E+01  0.00000000E+00
  7.40000000E+02  3.00000000E+01  0.00000000E+00
  7.50000000E+02  3.00000000E+01  0.00000000E+00
  7.60000000E+02  3.00000000E+01  0.00000000E+00
  7.70000000E+02  3.00000000E+01  0.00000000E+00
  7.80000000E+02  3.00000000E+01  0.00000000E+00
  7.90000000E+02  3.00000000E+01  0.00000000E+00
  8.00000000E+02  3.00000000E+01  0.00000000E+00
  8.10000000E+02  3.00000000E+01  0.00000000E+00
  8.20000000E+02  3.00000000E+01  0.00000000E+00
  8.30000000E+02  3.00000000E+01  0.00000000E+00
  8.40000000E+02  3.00000000E+01  0.00000000E+00
  8.50000000E+02  3.00000000E+01  0.00000000E+00
  8.60000000E+02  3.00000000E+01  0.00000000E+00
  8.70000000E+02  3.00000000E+01  0.00000000E+00
  8.80000000E+02  3.00000000E+01  0.00000000E+00
  8.90000000E+02  3.00000000E+01  0.00000000E+00
  9.00000000E+02  3.00000000E+01  0.00000000E+00
  9.10000000E+02  3.00000000E+01  0.00000000E+00
  9.20000000E+02  3.00000000E+01  0.00000000E+00
  9.30000000E+02  3.00000000E+01  0.00000000E+00
  9.40000000E+02  3.00000000E+01  0.00000000E+00
  9.50000000E+02  3.00000000E+01  0.00000000E+00
  9.60000000E+02  3.00000000E+01  0.00000000E+00
  9.70000000E+02  3.00000000E+01  0.00000000E+00
  9.80000000E+02  3.00000000E+01  0.00000000E+00
  9.90000000E+02  3.00000000E+01  0.00000000E+00
  1.00000000E+03  3.00000000E+01  0.00000000E+00
  0.00000000E+00  3.20000000E+01  0.00000000E+00
  1.00000000E+01  3.20000000E+01  0.00000000E+00
  2.00000000E+01  3.20000000E+01  0.00000000E+00
  3.00000000E+01  3.20000000E+01  0.00000000E+00
  4.00000000E+01  3.20000000E+01  0.00000000E+00
  5.00000000E+01  3.20000000E+01  0.00000000E+00
  6.00000000E+01  3.20000000E+01  0.00000000E+00
  7.00000000E+01  3.20000000E+01  0.00000000E+00
  8.00000000E+01  3.20000000E+01  0.00000000E+00
  9.00000000E+01  3.20000000E+01  0.00000000E+00
  1.00000000E+02  3.20000000E+01  0.00000000E+00
  1.10000000E+02  3.20000000E+01  0.00000000E+00
  1.20000000E+02  3.20000000E+01  0.00000000E+00
  1.30000000E+02  3.20000000E+01  0.00000000E+00
  1.40000000E+02  3.20000000E+01  0.00000000E+00
  1.50000000E+02  3.20000000E+01  0.00000000E+00
  1.60000000E+02  3.20000000E+01  0.00000000E+00
  1.70000000E+02  3.20000000E+01  0.00000000E+00
  1.80000000E+02  3.20000000E+01  0.00000000E+00
  1.90000000E+02  3.20000000E+01  0.00000000E+00
  2.00000000E+02  3.20000000E+01  0.00000000E+00
  2.10000000E+02  3.20000000E+01  0.00000000E+00
  2.20000000E+02  3.20000000E+01  0.00000000E+00
  2.30000000E+02  3.20000000E+01  0.00000000E+00
  2.40000000E+02  3.20000000E+01  0.00000000E+00
  2.50000000E+02  3.20000000E+01  0.00000000E+00
  2.60000000E+02  3.20000000E+01  0.00000000E+00
  2.70000000E+02  3.20000000E+01  0.00000000E+00
  2.80000000E+02  3.20000000E+01  0.00000000E+00
  2.90000000E+02  3.20000000E+01  0.00000000E+00
  3.00000000E+02  3.20000000E+01  0.00000000E+00
  3.10000000E+02  3.20000000E+01  0.00000000E+00
  3.20000000E+02  3.20000000E+01  0.00000000E+00
  3.30000000E+02  3.20000000E+01  0.00000000E+00
  3.40000000E+02  3.20000000E+01  0.00000000E+00
  3.50000000E+02  3.20000000E+01  0.00000000E+00
  3.60000000E+02  3.20000000E+01  0.00000000E+00
  3.70000000E+02  3.20000000E+01  0.00000000E+00
  3.80000000E+02  3.20000000E+01  0.00000000E+00
  3.90000000E+02  3.20000000E+01  0.00000000E+00
  4.00000000E+02  3.20000000E+01  0.00000000E+00
  4.10000000E+02  3.20000000E+01  0.00000000E+00
  4.20000000E+02  3.20000000E+01  0.00000000E+00
  4.30000000E+02  3.20000000E+01  0.00000000E+00
  4.40000000E+02  3.20000000E+01  0.00000000E+00
  4.50000000E+02  3.20000000E+01  0.00000000E+00
  4.60000000E+02  3.20000000E+01  0.00000000E+00
  4.70000000E+02  3.20000000E+01  0.00000000E+00
  4.80000000E+02  3.20000000E+01  0.00000000E+00
  4.90000000E+02  3.20000000E+01  0.00000000E+00
  5.00000000E+02  3.20000000E+01  0.00000000E+00
  5.10000000E+02  3.20000000E+01  0.00000000E+00
  5.20000000E+02  3.20000000E+01  0.00000000E+00
  5.30000000E+02  3.20000000E+01  0.00000000E+00
  5.40000000E+02  3.20000000E+01  0.00000000E+00
  5.50000000E+02  3.20000000E+01  0.00000000E+00
  5.60000000E+02  3.20000000E+01  0.00000000E+00
  5.70000000E+02  3.20000000E+01  0.00000000E+00
  5.80000000E+02  3.20000000E+01  0.00000000E+00
  5.90000000E+02  3.20000000E+01  0.00000000E+00
  6.00000000E+02  3.20000000E+01  0.00000000E+00
  6.10000000E+02  3.20000000E+01  0.00000000E+00
  6.20000000E+02  3.20000000E+01  0.00000000E+00
  6.30000000E+02  3.20000000E+01  0.00000000E+00
  6.40000000E+02  3.20000000E+01  0.00000000E+00
  6.50000000E+02  3.20000000E+01  0.00000000E+00
  6.60000000E+02  3.20000000E+01  0.00000000E+00
  6.70000000E+02  3.20000000E+01  0.00000000E+00
  6.80000000E+02  3.20000000E+01  0.00000000E+00
  6.90000000E+02  3.20000000E+01  0.00000000E+00
  7.00000000E+02  3.20000000E+01  0.00000000E+00
  7.10000000E+02  3.20000000E+01  0.00000000E+00
  7.20000000E+02  3.20000000E+01  0.00000000E+00
  7.30000000E+02  3.20000000E+01  0.00000000E+00
  7.40000000E+02  3.20000000E+01  0.00000000E+00
  7.50000000E+02  3.20000000E+01  0.00000000E+00
  7.60000000E+02  3.20000000E+01  0.00000000E+00
  7.70000000E+02  3.20000000E+01  0.00000000E+00
  7.80000000E+02  3.20000000E+01  0.00000000E+00
  7.90000000E+02  3.20000000E+01  0.00000000E+00
  8.00000000E+02  3.20000000E+01  0.00000000E+00
  8.10000000E+02  3.20000000E+01  0.00000000E+00
  8.20000000E+02  3.20000000E+01  0.00000000E+00
  8.30000000E+02  3.20000000E+01  0.00000000E+00
  8.40000000E+02  3.20000000E+01  0.00000000E+00
  8.50000000E+02  3.20000000E+01  0.00000000E+00
  8.60000000E+02  3.20000000E+01  0.00000000E+00
  8.70000000E+02  3.20000000E+01  0.00000000E+00
  8.80000000E+02  3.20000000E+01  0.00000000E+00
  8.90000000E+02  3.20000000E+01  0.00000000E+00
  9.00000000E+02  3.20000000E+01  0.00000000E+00
  9.10000000E+02  3.20000000E+01  0.00000000E+00
  9.20000000E+02  3.20000000E+01  0.00000000E+00
  9.30000000E+02  3.20000000E+01  0.00000000E+00
  9.40000000E+02  3.20000000E+01  0.00000000E+00
  9.50000000E+02  3.20000000E+01  0.00000000E+00
  9.60000000E+02  3.20000000E+01  0.00000000E+00
  9.70000000E+02  3.20000000E+01  0.00000000E+00
  9.80000000E+02  3.20000000E+01  0.00000000E+00
  9.90000000E+02  3.20000000E+01  0.00000000E+00
  1.00000000E+03  3.20000000E+01  0.00000000E+00
  0.00000000E+00  3.40000000E+01  0.00000000E+00
  1.00000000E+01  3.40000000E+01  0.00000000E+00
  2.00000000E+01  3.40000000E+01  0.00000000E+00
  3.00000000E+01  3.40000000E+01  0.00000000E+00
  4.00000000E+01  3.40000000E+01  0.00000000E+00
  5.00000000E+01  3.40000000E+01  0.00000000E+00
  6.00000000E+01  3.40000000E+01  0.00000000E+00
  7.00000000E+01  3.40000000E+01  0.00000000E+00
  8.00000000E+01  3.40000000E+01  0.00000000E+00
  9.00000000E+01  3.40000000E+01  0.00000000E+00
  1.00000000E+02  3.40000000E+01  0.00000000E+00
  1.10000000E+02  3.40000000E+01  0.00000000E+00
  1.20000000E+02  3.40000000E+01  0.00000000E+00
  1.30000000E+02  3.40000000E+01  0.00000000E+00
  1.40000000E+02  3.40000000E+01  0.00000000E+00
  1.50000000E+02  3.40000000E+01  0.00000000E+00
  1.60000000E+02  3.40000000E+01  0.00000000E+00
  1.70000000E+02  3.40000000E+01  0.00000000E+00
  1.80000000E+02  3.40000000E+01  0.00000000E+00
  1.90000000E+02  3.40000000E+01  0.00000000E+00
  2.00000000E+02  3.40000000E+01  0.00000000E+00
  2.10000000E+02  3.40000000E+01  0.00000000E+00
  2.20000000E+02  3.40000000E+01  0.00000000E+00
  2.30000000E+02  3.40000000E+01  0.00000000E+00
  2.40000000E+02  3.40000000E+01  0.00000000E+00
  2.50000000E+02  3.40000000E+01  0.00000000E+00
  2.60000000E+02  3.40000000E+01  0.00000000E+00
  2.70000000E+02  3.40000000E+01  0.00000000E+00
  2.80000000E+02  3.40000000E+01  0.00000000E+00
  2.90000000E+02  3.40000000E+01  0.00000000E+00
  3.00000000E+02  3.40000000E+01  0.00000000E+00
  3.10000000E+02  3.40000000E+01  0.00000000E+00
  3.20000000E+02  3.40000000E+01  0.00000000E+00
  3.30000000E+02  3.40000000E+01  0.00000000E+00
  3.40000000E+02  3.40000000E+01  0.00000000E+00
  3.50000000E+02  3.40000000E+01  0.00000000E+00
  3.60000000E+02  3.40000000E+01  0.00000000E+00
  3.70000000E+02  3.40000000E+01  0.00000000E+00
  3.80000000E+02  3.40000000E+01  0.00000000E+00
  3.90000000E+02  3.40000000E+01  0.00000000E+00
  4.00000000E+02  3.40000000E+01  0.00000000E+00
  4.10000000E+02  3.40000000E+01  0.00000000E+00
  4.20000000E+02  3.40000000E+01  0.00000000E+00
  4.30000000E+02  3.40000000E+01  0.00000000E+00
  4.40000000E+02  3.40000000E+01  0.00000000E+00
  4.50000000E+02  3.40000000E+01  0.00000000E+00
  4.60000000E+02  3.40000000E+01  0.00000000E+00
  4.70000000E+02  3.40000000E+01  0.00000000E+00
  4.80000000E+02  3.40000000E+01  0.00000000E+00
  4.90000000E+02  3.40000000E+01  0.00000000E+00
  5.00000000E+02  3.40000000E+01  0.00000000E+00
  5.10000000E+02  3.40000000E+01  0.00000000E+00
  5.20000000E+02  3.40000000E+01  0.00000000E+00
  5.30000000E+02  3.40000000E+01  0.00000000E+00
  5.40000000E+02  3.40000000E+01  0.00000000E+00
  5.50000000E+02  3.40000000E+01  0.00000000E+00
  5.60000000E+02  3.40000000E+01  0.00000000E+00
  5.70000000E+02  3.40000000E+01  0.00000000E+00
  5.80000000E+02  3.40000000E+01  0.00000000E+00
  5.90000000E+02  3.40000000E+01  0.00000000E+00
  6.00000000E+02  3.40000000E+01  0.00000000E+00
  6.10000000E+02  3.40000000E+01  0.00000000E+00
  6.20000000E+02  3.40000000E+01  0.00000000E+00
  6.30000000E+02  3.40000000E+01  0.00000000E+00
  6.40000000E+02  3.40000000E+01  0.00000000E+00
  6.50000000E+02  3.40000000E+01  0.00000000E+00
  6.60000000E+02  3.40000000E+01  0.00000000E+00
  6.70000000E+02  3.40000000E+01  0.00000000E+00
  6.80000000E+02  3.40000000E+01  0.00000000E+00
  6.90000000E+02  3.40000000E+01  0.00000000E+00
  7.00000000E+02  3.40000000E+01  0.00000000E+00
  7.10000000E+02  3.40000000E+01  0.00000000E+00
  7.20000000E+02  3.40000000E+01  0.00000000E+00
  7.30000000E+02  3.40000000E+01  0.00000000E+00
  7.40000000E+02  3.40000000E+01  0.00000000E+00
  7.50000000E+02  3.40000000E+01  0.00000000E+00
  7.60000000E+02  3.40000000E+01  0.00000000E+00
  7.70000000E+02  3.40000000E+01  0.00000000E+00
  7.80000000E+02  3.40000000E+01  0.00000000E+00
  7.90000000E+02  3.40000000E+01  0.00000000E+00
  8.00000000E+02  3.40000000E+01  0.00000000E+00
  8.10000000E+02  3.40000000E+01  0.00000000E+00
  8.20000000E+02  3.40000000E+01  0.00000000E+00
  8.30000000E+02  3.40000000E+01  0.00000000E+00
  8.40000000E+02  3.40000000E+01  0.00000000E+00
  8.50000000E+02  3.40000000E+01  0.00000000E+00
  8.60000000E+02  3.40000000E+01  0.00000000E+00
  8.70000000E+02  3.40000000E+01  0.00000000E+00
  8.80000000E+02  3.40000000E+01  0.00000000E+00
  8.90000000E+02  3.40000000E+01  0.00000000E+00
  9.00000000E+02  3.40000000E+01  0.00000000E+00
  9.10000000E+02  3.40000000E+01  0.00000000E+00
  9.20000000E+02  3.40000000E+01  0.00000000E+00
  9.30000000E+02  3.40000000E+01  0.00000000E+00
  9.40000000E+02  3.40000000E+01  0.00000000E+00
  9.50000000E+02  3.40000000E+01  0.00000000E+00
  9.60000000E+02  3.40000000E+01  0.00000000E+00
  9.70000000E+02  3.40000000E+01  0.00000000E+00
  9.80000000E+02  3.40000000E+01  0.00000000E+00
  9.90000000E+02  3.40000000E+01  0.00000000E+00
  1.00000000E+03  3.40000000E+01  0.00000000E+00
  0.00000000E+00  3.60000000E+01  0.00000000E+00
  1.00000000E+01  3.60000000E+01  0.00000000E+00
  2.00000000E+01  3.60000000E+01  0.00000000E+00
  3.00000000E+01  3.60000000E+01  0.00000000E+00
  4.00000000E+01  3.60000000E+01  0.00000000E+00
  5.00000000E+01  3.60000000E+01  0.00000000E+00
  6.00000000E+01  3.60000000E+01  0.00000000E+00
  7.00000000E+01  3.60000000E+01  0.00000000E+00
  8.00000000E+01  3.60000000E+01  0.00000000E+00
  9.00000000E+01  3.60000000E+01  0.00000000E+00
  1.00000000E+02  3.60000000E+01  0.00000000E+00
  1.10000000E+02  3.60000000E+01  0.00000000E+00
  1.20000000E+02  3.60000000E+01  0.00000000E+00
  1.30000000E+02  3.60000000E+01  0.00000000E+00
  1.40000000E+02  3.60000000E+01  0.00000000E+00
  1.50000000E+02  3.60000000E+01  0.00000000E+00
  1.60000000E+02  3.60000000E+01  0.00000000E+00
  1.70000000E+02  3.60000000E+01  0.00000000E+00
  1.80000000E+02  3.60000000E+01  0.00000000E+00
  1.90000000E+02  3.60000000E+01  0.00000000E+00
  2.00000000E+02  3.60000000E+01  0.00000000E+00
  2.10000000E+02  3.60000000E+01  0.00000000E+00
  2.20000000E+02  3.60000000E+01  0.00000000E+00
  2.30000000E+02  3.60000000E+01  0.00000000E+00
  2.40000000E+02  3.60000000E+01  0.00000000E+00
  2.50000000E+02  3.60000000E+01  0.00000000E+00
  2.60000000E+02  3.60000000E+01  0.00000000E+00
  2.70000000E+02  3.60000000E+01  0.00000000E+00
  2.80000000E+02  3.60000000E+01  0.00000000E+00
  2.90000000E+02  3.60000000E+01  0.00000000E+00
  3.00000000E+02  3.60000000E+01  0.00000000E+00
  3.10000000E+02  3.60000000E+01  0.00000000E+00
  3.20000000E+02  3.60000000E+01  0.00000000E+00
  3.30000000E+02  3.60000000E+01  0.00000000E+00
  3.40000000E+02  3.60000000E+01  0.00000000E+00
  3.50000000E+02  3.60000000E+01  0.00000000E+00
  3.60000000E+02  3.60000000E+01  0.00000000E+00
  3.70000000E+02  3.60000000E+01  0.00000000E+00
  3.80000000E+02  3.60000000E+01  0.00000000E+00
  3.90000000E+02  3.60000000E+01  0.00000000E+00
  4.00000000E+02  3.60000000E+01  0.00000000E+00
  4.10000000E+02  3.60000000E+01  0.00000000E+00
  4.20000000E+02  3.60000000E+01  0.00000000E+00
  4.30000000E+02  3.60000000E+01  0.00000000E+00
  4.40000000E+02  3.60000000E+01  0.00000000E+00
  4.50000000E+02  3.60000000E+01  0.00000000E+00
  4.60000000E+02  3.60000000E+01  0.00000000E+00
  4.70000000E+02  3.60000000E+01  0.00000000E+00
  4.80000000E+02  3.60000000E+01  0.00000000E+00
  4.90000000E+02  3.60000000E+01  0.00000000E+00
  5.00000000E+02  3.60000000E+01  0.00000000E+00
  5.10000000E+02  3.60000000E+01  0.00000000E+00
  5.20000000E+02  3.60000000E+01  0.00000000E+00
  5.30000000E+02  3.60000000E+01  0.00000000E+00
  5.40000000E+02  3.60000000E+01  0.00000000E+00
  5.50000000E+02  3.60000000E+01  0.00000000E+00
  5.60000000E+02  3.60000000E+01  0.00000000E+00
  5.70000000E+02  3.60000000E+01  0.00000000E+00
  5.80000000E+02  3.60000000E+01  0.00000000E+00
  5.90000000E+02  3.60000000E+01  0.00000000E+00
  6.00000000E+02  3.60000000E+01  0.00000000E+00
  6.10000000E+02  3.60000000E+01  0.00000000E+00
  6.20000000E+02  3.60000000E+01  0.00000000E+00
  6.30000000E+02  3.60000000E+01  0.00000000E+00
  6.40000000E+02  3.60000000E+01  0.00000000E+00
  6.50000000E+02  3.60000000E+01  0.00000000E+00
  6.60000000E+02  3.60000000E+01  0.00000000E+00
  6.70000000E+02  3.60000000E+01  0.00000000E+00
  6.80000000E+02  3.60000000E+01  0.00000000E+00
  6.90000000E+02  3.60000000E+01  0.00000000E+00
  7.00000000E+02  3.60000000E+01  0.00000000E+00
  7.10000000E+02  3.60000000E+01  0.00000000E+00
  7.20000000E+02  3.60000000E+01  0.00000000E+00
  7.30000000E+02  3.60000000E+01  0.00000000E+00
  7.40000000E+02  3.60000000E+01  0.00000000E+00
  7.50000000E+02  3.60000000E+01  0.00000000E+00
  7.60000000E+02  3.60000000E+01  0.00000000E+00
  7.70000000E+02  3.60000000E+01  0.00000000E+00
  7.80000000E+02  3.60000000E+01  0.00000000E+00
  7.90000000E+02  3.60000000E+01  0.00000000E+00
  8.00000000E+02  3.60000000E+01  0.00000000E+00
  8.10000000E+02  3.60000000E+01  0.00000000E+00
  8.20000000E+02  3.60000000E+01  0.00000000E+00
  8.30000000E+02  3.60000000E+01  0.00000000E+00
  8.40000000E+02  3.60000000E+01  0.00000000E+00
  8.50000000E+02  3.60000000E+01  0.00000000E+00
  8.60000000E+02  3.60000000E+01  0.00000000E+00
  8.70000000E+02  3.60000000E+01  0.00000000E+00
  8.80000000E+02  3.60000000E+01  0.00000000E+00
  8.90000000E+02  3.60000000E+01  0.00000000E+00
  9.00000000E+02  3.60000000E+01  0.00000000E+00
  9.10000000E+02  3.60000000E+01  0.00000000E+00
  9.20000000E+02  3.60000000E+01  0.00000000E+00
  9.30000000E+02  3.60000000E+01  0.00000000E+00
  9.40000000E+02  3.60000000E+01  0.00000000E+00
  9.50000000E+02  3.60000000E+01  0.00000000E+00
  9.60000000E+02  3.60000000E+01  0.00000000E+00
  9.70000000E+02  3.60000000E+01  0.00000000E+00
  9.80000000E+02  3.60000000E+01  0.00000000E+00
  9.90000000E+02  3.60000000E+01  0.00000000E+00
  1.00000000E+03  3.60000000E+01  0.00000000E+00
  0.00000000E+00  3.80000000E+01  0.00000000E+00
  1.00000000E+01  3.80000000E+01  0.00000000E+00
  2.00000000E+01  3.80000000E+01  0.00000000E+00
  3.00000000E+01  3.80000000E+01  0.00000000E+00
  4.00000000E+01  3.80000000E+01  0.00000000E+00
  5.00000000E+01  3.80000000E+01  0.00000000E+00
  6.00000000E+01  3.80000000E+01  0.00000000E+00
  7.00000000E+01  3.80000000E+01  0.00000000E+00
  8.00000000E+01  3.80000000E+01  0.00000000E+00
  9.00000000E+01  3.80000000E+01  0.00000000E+00
  1.00000000E+02  3.80000000E+01  0.00000000E+00
  1.10000000E+02  3.80000000E+01  0.00000000E+00
  1.20000000E+02  3.80000000E+01  0.00000000E+00
  1.30000000E+02  3.80000000E+01  0.00000000E+00
  1.40000000E+02  3.80000000E+01  0.00000000E+00
  1.50000000E+02  3.80000000E+01  0.00000000E+00
  1.60000000E+02  3.80000000E+01  0.00000000E+00
  1.70000000E+02  3.80000000E+01  0.00000000E+00
  1.80000000E+02  3.80000000E+01  0.00000000E+00
  1.90000000E+02  3.80000000E+01  0.00000000E+00
  2.00000000E+02  3.80000000E+01  0.00000000E+00
  2.10000000E+02  3.80000000E+01  0.00000000E+00
  2.20000000E+02  3.80000000E+01  0.00000000E+00
  2.30000000E+02  3.80000000E+01  0.00000000E+00
  2.40000000E+02  3.80000000E+01  0.00000000E+00
  2.50000000E+02  3.80000000E+01  0.00000000E+00
  2.60000000E+02  3.80000000E+01  0.00000000E+00
  2.70000000E+02  3.80000000E+01  0.00000000E+00
  2.80000000E+02  3.80000000E+01  0.00000000E+00
  2.90000000E+02  3.80000000E+01  0.00000000E+00
  3.00000000E+02  3.80000000E+01  0.00000000E+00
  3.10000000E+02  3.80000000E+01  0.00000000E+00
  3.20000000E+02  3.80000000E+01  0.00000000E+00
  3.30000000E+02  3.80000000E+01  0.00000000E+00
  3.40000000E+02  3.80000000E+01  0.00000000E+00
  3.50000000E+02  3.80000000E+01  0.00000000E+00
  3.60000000E+02  3.80000000E+01  0.00000000E+00
  3.70000000E+02  3.80000000E+01  0.00000000E+00
  3.80000000E+02  3.80000000E+01  0.00000000E+00
  3.90000000E+02  3.80000000E+01  0.00000000E+00
  4.00000000E+02  3.80000000E+01  0.00000000E+00
  4.10000000E+02  3.80000000E+01  0.00000000E+00
  4.20000000E+02  3.80000000E+01  0.00000000E+00
  4.30000000E+02  3.80000000E+01  0.00000000E+00
  4.40000000E+02  3.80000000E+01  0.00000000E+00
  4.50000000E+02  3.80000000E+01  0.00000000E+00
  4.60000000E+02  3.80000000E+01  0.00000000E+00
  4.70000000E+02  3.80000000E+01  0.00000000E+00
  4.80000000E+02  3.80000000E+01  0.00000000E+00
  4.90000000E+02  3.80000000E+01  0.00000000E+00
  5.00000000E+02  3.80000000E+01  0.00000000E+00
  5.10000000E+02  3.80000000E+01  0.00000000E+00
  5.20000000E+02  3.80000000E+01  0.00000000E+00
  5.30000000E+02  3.80000000E+01  0.00000000E+00
  5.40000000E+02  3.80000000E+01  0.00000000E+00
  5.50000000E+02  3.80000000E+01  0.00000000E+00
  5.60000000E+02  3.80000000E+01  0.00000000E+00
  5.70000000E+02  3.80000000E+01  0.00000000E+00
  5.80000000E+02  3.80000000E+01  0.00000000E+00
  5.90000000E+02  3.80000000E+01  0.00000000E+00
  6.00000000E+02  3.80000000E+01  0.00000000E+00
  6.10000000E+02  3.80000000E+01  0.00000000E+00
  6.20000000E+02  3.80000000E+01  0.00000000E+00
  6.30000000E+02  3.80000000E+01  0.00000000E+00
  6.40000000E+02  3.80000000E+01  0.00000000E+00
  6.50000000E+02  3.80000000E+01  0.00000000E+00
  6.60000000E+02  3.80000000E+01  0.00000000E+00
  6.70000000E+02  3.80000000E+01  0.00000000E+00
  6.80000000E+02  3.80000000E+01  0.00000000E+00
  6.90000000E+02  3.80000000E+01  0.00000000E+00
  7.00000000E+02  3.80000000E+01  0.00000000E+00
  7.10000000E+02  3.80000000E+01  0.00000000E+00
  7.20000000E+02  3.80000000E+01  0.00000000E+00
  7.30000000E+02  3.80000000E+01  0.00000000E+00
  7.40000000E+02  3.80000000E+01  0.00000000E+00
  7.50000000E+02  3.80000000E+01  0.00000000E+00
  7.60000000E+02  3.80000000E+01  0.00000000E+00
  7.70000000E+02  3.80000000E+01  0.00000000E+00
  7.80000000E+02  3.80000000E+01  0.00000000E+00
  7.90000000E+02  3.80000000E+01  0.00000000E+00
  8.00000000E+02  3.80000000E+01  0.00000000E+00
  8.10000000E+02  3.80000000E+01  0.00000000E+00
  8.20000000E+02  3.80000000E+01  0.00000000E+00
  8.30000000E+02  3.80000000E+01  0.00000000E+00
  8.40000000E+02  3.80000000E+01  0.00000000E+00
  8.50000000E+02  3.80000000E+01  0.00000000E+00
  8.60000000E+02  3.80000000E+01  0.00000000E+00
  8.70000000E+02  3.80000000E+01  0.00000000E+00
  8.80000000E+02  3.80000000E+01  0.00000000E+00
  8.90000000E+02  3.80000000E+01  0.00000000E+00
  9.00000000E+02  3.80000000E+01  0.00000000E+00
  9.10000000E+02  3.80000000E+01  0.00000000E+00
  9.20000000E+02  3.80000000E+01  0.00000000E+00
  9.30000000E+02  3.80000000E+01  0.00000000E+00
  9.40000000E+02  3.80000000E+01  0.00000000E+00
  9.50000000E+02  3.80000000E+01  0.00000000E+00
  9.60000000E+02  3.80000000E+01  0.00000000E+00
  9.70000000E+02  3.80000000E+01  0.00000000E+00
  9.80000000E+02  3.80000000E+01  0.00000000E+00
  9.90000000E+02  3.80000000E+01  0.00000000E+00
  1.00000000E+03  3.80000000E+01  0.00000000E+00
  0.00000000E+00  4.00000000E+01  0.00000000E+00
  1.00000000E+01  4.00000000E+01  0.00000000E+00
  2.00000000E+01  4.00000000E+01  0.00000000E+00
  3.00000000E+01  4.00000000E+01  0.00000000E+00
  4.00000000E+01  4.00000000E+01  0.00000000E+00
  5.00000000E+01  4.00000000E+01  0.00000000E+00
  6.00000000E+01  4.00000000E+01  0.00000000E+00
  7.00000000E+01  4.00000000E+01  0.00000000E+00
  8.00000000E+01  4.00000000E+01  0.00000000E+00
  9.00000000E+01  4.00000000E+01  0.00000000E+00
  1.00000000E+02  4.00000000E+01  0.00000000E+00
  1.10000000E+02  4.00000000E+01  0.00000000E+00
  1.20000000E+02  4.00000000E+01  0.00000000E+00
  1.30000000E+02  4.00000000E+01  0.00000000E+00
  1.40000000E+02  4.00000000E+01  0.00000000E+00
  1.50000000E+02  4.00000000E+01  0.00000000E+00
  1.60000000E+02  4.00000000E+01  0.00000000E+00
  1.70000000E+02  4.00000000E+01  0.00000000E+00
  1.80000000E+02  4.00000000E+01  0.00000000E+00
  1.90000000E+02  4.00000000E+01  0.00000000E+00
  2.00000000E+02  4.00000000E+01  0.00000000E+00
  2.10000000E+02  4.00000000E+01  0.00000000E+00
  2.20000000E+02  4.00000000E+01  0.00000000E+00
  2.30000000E+02  4.00000000E+01  0.00000000E+00
  2.40000000E+02  4.00000000E+01  0.00000000E+00
  2.50000000E+02  4.00000000E+01  0.00000000E+00
  2.60000000E+02  4.00000000E+01  0.00000000E+00
  2.70000000E+02  4.00000000E+01  0.00000000E+00
  2.80000000E+02  4.00000000E+01  0.00000000E+00
  2.90000000E+02  4.00000000E+01  0.00000000E+00
  3.00000000E+02  4.00000000E+01  0.00000000E+00
  3.10000000E+02  4.00000000E+01  0.00000000E+00
  3.20000000E+02  4.00000000E+01  0.00000000E+00
  3.30000000E+02  4.00000000E+01  0.00000000E+00
  3.40000000E+02  4.00000000E+01  0.00000000E+00
  3.50000000E+02  4.00000000E+01  0.00000000E+00
  3.60000000E+02  4.00000000E+01  0.00000000E+00
  3.70000000E+02  4.00000000E+01  0.00000000E+00
  3.80000000E+02  4.00000000E+01  0.00000000E+00
  3.90000000E+02  4.00000000E+01  0.00000000E+00
  4.00000000E+02  4.00000000E+01  0.00000000E+00
  4.10000000E+02  4.00000000E+01  0.00000000E+00
  4.20000000E+02  4.00000000E+01  0.00000000E+00
  4.30000000E+02  4.00000000E+01  0.00000000E+00
  4.40000000E+02  4.00000000E+01  0.00000000E+00
  4.50000000E+02  4.00000000E+01  0.00000000E+00
  4.60000000E+02  4.00000000E+01  0.00000000E+00
  4.70000000E+02  4.00000000E+01  0.00000000E+00
  4.80000000E+02  4.00000000E+01  0.00000000E+00
  4.90000000E+02  4.00000000E+01  0.00000000E+00
  5.00000000E+02  4.00000000E+01  0.00000000E+00
  5.10000000E+02  4.00000000E+01  0.00000000E+00
  5.20000000E+02  4.00000000E+01  0.00000000E+00
  5.30000000E+02  4.00000000E+01  0.00000000E+00
  5.40000000E+02  4.00000000E+01  0.00000000E+00
  5.50000000E+02  4.00000000E+01  0.00000000E+00
  5.60000000E+02  4.00000000E+01  0.00000000E+00
  5.70000000E+02  4.00000000E+01  0.00000000E+00
  5.80000000E+02  4.00000000E+01  0.00000000E+00
  5.90000000E+02  4.00000000E+01  0.00000000E+00
  6.00000000E+02  4.00000000E+01  0.00000000E+00
  6.10000000E+02  4.00000000E+01  0.00000000E+00
  6.20000000E+02  4.00000000E+01  0.00000000E+00
  6.30000000E+02  4.00000000E+01  0.00000000E+00
  6.40000000E+02  4.00000000E+01  0.00000000E+00
  6.50000000E+02  4.00000000E+01  0.00000000E+00
  6.60000000E+02  4.00000000E+01  0.00000000E+00
  6.70000000E+02  4.00000000E+01  0.00000000E+00
  6.80000000E+02  4.00000000E+01  0.00000000E+00
  6.90000000E+02  4.00000000E+01  0.00000000E+00
  7.00000000E+02  4.00000000E+01  0.00000000E+00
  7.10000000E+02  4.00000000E+01  0.00000000E+00
  7.20000000E+02  4.00000000E+01  0.00000000E+00
  7.30000000E+02  4.00000000E+01  0.00000000E+00
  7.40000000E+02  4.00000000E+01  0.00000000E+00
  7.50000000E+02  4.00000000E+01  0.00000000E+00
  7.60000000E+02  4.00000000E+01  0.00000000E+00
  7.70000000E+02  4.00000000E+01  0.00000000E+00
  7.80000000E+02  4.00000000E+01  0.00000000E+00
  7.90000000E+02  4.00000000E+01  0.00000000E+00
  8.00000000E+02  4.00000000E+01  0.00000000E+00
  8.10000000E+02  4.00000000E+01  0.00000000E+00
  8.20000000E+02  4.00000000E+01  0.00000000E+00
  8.30000000E+02  4.00000000E+01  0.00000000E+00
  8.40000000E+02  4.00000000E+01  0.00000000E+00
  8.50000000E+02  4.00000000E+01  0.00000000E+00
  8.60000000E+02  4.00000000E+01  0.00000000E+00
  8.70000000E+02  4.00000000E+01  0.00000000E+00
  8.80000000E+02  4.00000000E+01  0.00000000E+00
  8.90000000E+02  4.00000000E+01  0.00000000E+00
  9.00000000E+02  4.00000000E+01  0.00000000E+00
  9.10000000E+02  4.00000000E+01  0.00000000E+00
  9.20000000E+02  4.00000000E+01  0.00000000E+00
  9.30000000E+02  4.00000000E+01  0.00000000E+00
  9.40000000E+02  4.00000000E+01  0.00000000E+00
  9.50000000E+02  4.00000000E+01  0.00000000E+00
  9.60000000E+02  4.00000000E+01  0.00000000E+00
  9.70000000E+02  4.00000000E+01  0.00000000E+00
  9.80000000E+02  4.00000000E+01  0.00000000E+00
  9.90000000E+02  4.00000000E+01  0.00000000E+00
  1.00000000E+03  4.00000000E+01  0.00000000E+00
  0.00000000E+00  4.20000000E+01  0.00000000E+00
  1.00000000E+01  4.20000000E+01  0.00000000E+00
  2.00000000E+01  4.20000000E+01  0.00000000E+00
  3.00000000E+01  4.20000000E+01  0.00000000E+00
  4.00000000E+01  4.20000000E+01  0.00000000E+00
  5.00000000E+01  4.20000000E+01  0.00000000E+00
  6.00000000E+01  4.20000000E+01  0.00000000E+00
  7.00000000E+01  4.20000000E+01  0.00000000E+00
  8.00000000E+01  4.20000000E+01  0.00000000E+00
  9.00000000E+01  4.20000000E+01  0.00000000E+00
  1.00000000E+02  4.20000000E+01  0.00000000E+00
  1.10000000E+02  4.20000000E+01  0.00000000E+00
  1.20000000E+02  4.20000000E+01  0.00000000E+00
  1.30000000E+02  4.20000000E+01  0.00000000E+00
  1.40000000E+02  4.20000000E+01  0.00000000E+00
  1.50000000E+02  4.20000000E+01  0.00000000E+00
  1.60000000E+02  4.20000000E+01  0.00000000E+00
  1.70000000E+02  4.20000000E+01  0.00000000E+00
  1.80000000E+02  4.20000000E+01  0.00000000E+00
  1.90000000E+02  4.20000000E+01  0.00000000E+00
  2.00000000E+02  4.20000000E+01  0.00000000E+00
  2.10000000E+02  4.20000000E+01  0.00000000E+00
  2.20000000E+02  4.20000000E+01  0.00000000E+00
  2.30000000E+02  4.20000000E+01  0.00000000E+00
  2.40000000E+02  4.20000000E+01  0.00000000E+00
  2.50000000E+02  4.20000000E+01  0.00000000E+00
  2.60000000E+02  4.20000000E+01  0.00000000E+00
  2.70000000E+02  4.20000000E+01  0.00000000E+00
  2.80000000E+02  4.20000000E+01  0.00000000E+00
  2.90000000E+02  4.20000000E+01  0.00000000E+00
  3.00000000E+02  4.20000000E+01  0.00000000E+00
  3.10000000E+02  4.20000000E+01  0.00000000E+00
  3.20000000E+02  4.20000000E+01  0.00000000E+00
  3.30000000E+02  4.20000000E+01  0.00000000E+00
  3.40000000E+02  4.20000000E+01  0.00000000E+00
  3.50000000E+02  4.20000000E+01  0.00000000E+00
  3.60000000E+02  4.20000000E+01  0.00000000E+00
  3.70000000E+02  4.20000000E+01  0.00000000E+00
  3.80000000E+02  4.20000000E+01  0.00000000E+00
  3.90000000E+02  4.20000000E+01  0.00000000E+00
  4.00000000E+02  4.20000000E+01  0.00000000E+00
  4.10000000E+02  4.20000000E+01  0.00000000E+00
  4.20000000E+02  4.20000000E+01  0.00000000E+00
  4.30000000E+02  4.20000000E+01  0.00000000E+00
  4.40000000E+02  4.20000000E+01  0.00000000E+00
  4.50000000E+02  4.20000000E+01  0.00000000E+00
  4.60000000E+02  4.20000000E+01  0.00000000E+00
  4.70000000E+02  4.20000000E+01  0.00000000E+00
  4.80000000E+02  4.20000000E+01  0.00000000E+00
  4.90000000E+02  4.20000000E+01  0.00000000E+00
  5.00000000E+02  4.20000000E+01  0.00000000E+00
  5.10000000E+02  4.20000000E+01  0.00000000E+00
  5.20000000E+02  4.20000000E+01  0.00000000E+00
  5.30000000E+02  4.20000000E+01  0.00000000E+00
  5.40000000E+02  4.20000000E+01  0.00000000E+00
  5.50000000E+02  4.20000000E+01  0.00000000E+00
  5.60000000E+02  4.20000000E+01  0.00000000E+00
  5.70000000E+02  4.20000000E+01  0.00000000E+00
  5.80000000E+02  4.20000000E+01  0.00000000E+00
  5.90000000E+02  4.20000000E+01  0.00000000E+00
  6.00000000E+02  4.20000000E+01  0.00000000E+00
  6.10000000E+02  4.20000000E+01  0.00000000E+00
  6.20000000E+02  4.20000000E+01  0.00000000E+00
  6.30000000E+02  4.20000000E+01  0.00000000E+00
  6.40000000E+02  4.20000000E+01  0.00000000E+00
  6.50000000E+02  4.20000000E+01  0.00000000E+00
  6.60000000E+02  4.20000000E+01  0.00000000E+00
  6.70000000E+02  4.20000000E+01  0.00000000E+00
  6.80000000E+02  4.20000000E+01  0.00000000E+00
  6.90000000E+02  4.20000000E+01  0.00000000E+00
  7.00000000E+02  4.20000000E+01  0.00000000E+00
  7.10000000E+02  4.20000000E+01  0.00000000E+00
  7.20000000E+02  4.20000000E+01  0.00000000E+00
  7.30000000E+02  4.20000000E+01  0.00000000E+00
  7.40000000E+02  4.20000000E+01  0.00000000E+00
  7.50000000E+02  4.20000000E+01  0.00000000E+00
  7.60000000E+02  4.20000000E+01  0.00000000E+00
  7.70000000E+02  4.20000000E+01  0.00000000E+00
  7.80000000E+02  4.20000000E+01  0.00000000E+00
  7.90000000E+02  4.20000000E+01  0.00000000E+00
  8.00000000E+02  4.20000000E+01  0.00000000E+00
  8.10000000E+02  4.20000000E+01  0.00000000E+00
  8.20000000E+02  4.20000000E+01  0.00000000E+00
  8.30000000E+02  4.20000000E+01  0.00000000E+00
  8.40000000E+02  4.20000000E+01  0.00000000E+00
  8.50000000E+02  4.20000000E+01  0.00000000E+00
  8.60000000E+02  4.20000000E+01  0.00000000E+00
  8.70000000E+02  4.20000000E+01  0.00000000E+00
  8.80000000E+02  4.20000000E+01  0.00000000E+00
  8.90000000E+02  4.20000000E+01  0.00000000E+00
  9.00000000E+02  4.20000000E+01  0.00000000E+00
  9.10000000E+02  4.20000000E+01  0.00000000E+00
  9.20000000E+02  4.20000000E+01  0.00000000E+00
  9.30000000E+02  4.20000000E+01  0.00000000E+00
  9.40000000E+02  4.20000000E+01  0.00000000E+00
  9.50000000E+02  4.20000000E+01  0.00000000E+00
  9.60000000E+02  4.20000000E+01  0.00000000E+00
  9.70000000E+02  4.20000000E+01  0.00000000E+00
  9.80000000E+02  4.20000000E+01  0.00000000E+00
  9.90000000E+02  4.20000000E+01  0.00000000E+00
  1.00000000E+03  4.20000000E+01  0.00000000E+00
  0.00000000E+00  4.40000000E+01  0.00000000E+00
  1.00000000E+01  4.40000000E+01  0.00000000E+00
  2.00000000E+01  4.40000000E+01  0.00000000E+00
  3.00000000E+01  4.40000000E+01  0.00000000E+00
  4.00000000E+01  4.40000000E+01  0.00000000E+00
  5.00000000E+01  4.40000000E+01  0.00000000E+00
  6.00000000E+01  4.40000000E+01  0.00000000E+00
  7.00000000E+01  4.40000000E+01  0.00000000E+00
  8.00000000E+01  4.40000000E+01  0.00000000E+00
  9.00000000E+01  4.40000000E+01  0.00000000E+00
  1.00000000E+02  4.40000000E+01  0.00000000E+00
  1.10000000E+02  4.40000000E+01  0.00000000E+00
  1.20000000E+02  4.40000000E+01  0.00000000E+00
  1.30000000E+02  4.40000000E+01  0.00000000E+00
  1.40000000E+02  4.40000000E+01  0.00000000E+00
  1.50000000E+02  4.40000000E+01  0.00000000E+00
  1.60000000E+02  4.40000000E+01  0.00000000E+00
  1.70000000E+02  4.40000000E+01  0.00000000E+00
  1.80000000E+02  4.40000000E+01  0.00000000E+00
  1.90000000E+02  4.40000000E+01  0.00000000E+00
  2.00000000E+02  4.40000000E+01  0.00000000E+00
  2.10000000E+02  4.40000000E+01  0.00000000E+00
  2.20000000E+02  4.40000000E+01  0.00000000E+00
  2.30000000E+02  4.40000000E+01  0.00000000E+00
  2.40000000E+02  4.40000000E+01  0.00000000E+00
  2.50000000E+02  4.40000000E+01  0.00000000E+00
  2.60000000E+02  4.40000000E+01  0.00000000E+00
  2.70000000E+02  4.40000000E+01  0.00000000E+00
  2.80000000E+02  4.40000000E+01  0.00000000E+00
  2.90000000E+02  4.40000000E+01  0.00000000E+00
  3.00000000E+02  4.40000000E+01  0.00000000E+00
  3.10000000E+02  4.40000000E+01  0.00000000E+00
  3.20000000E+02  4.40000000E+01  0.00000000E+00
  3.30000000E+02  4.40000000E+01  0.00000000E+00
  3.40000000E+02  4.40000000E+01  0.00000000E+00
  3.50000000E+02  4.40000000E+01  0.00000000E+00
  3.60000000E+02  4.40000000E+01  0.00000000E+00
  3.70000000E+02  4.40000000E+01  0.00000000E+00
  3.80000000E+02  4.40000000E+01  0.00000000E+00
  3.90000000E+02  4.40000000E+01  0.00000000E+00
  4.00000000E+02  4.40000000E+01  0.00000000E+00
  4.10000000E+02  4.40000000E+01  0.00000000E+00
  4.20000000E+02  4.40000000E+01  0.00000000E+00
  4.30000000E+02  4.40000000E+01  0.00000000E+00
  4.40000000E+02  4.40000000E+01  0.00000000E+00
  4.50000000E+02  4.40000000E+01  0.00000000E+00
  4.60000000E+02  4.40000000E+01  0.00000000E+00
  4.70000000E+02  4.40000000E+01  0.00000000E+00
  4.80000000E+02  4.40000000E+01  0.00000000E+00
  4.90000000E+02  4.40000000E+01  0.00000000E+00
  5.00000000E+02  4.40000000E+01  0.00000000E+00
  5.10000000E+02  4.40000000E+01  0.00000000E+00
  5.20000000E+02  4.40000000E+01  0.00000000E+00
  5.30000000E+02  4.40000000E+01  0.00000000E+00
  5.40000000E+02  4.40000000E+01  0.00000000E+00
  5.50000000E+02  4.40000000E+01  0.00000000E+00
  5.60000000E+02  4.40000000E+01  0.00000000E+00
  5.70000000E+02  4.40000000E+01  0.00000000E+00
  5.80000000E+02  4.40000000E+01  0.00000000E+00
  5.90000000E+02  4.40000000E+01  0.00000000E+00
  6.00000000E+02  4.40000000E+01  0.00000000E+00
  6.10000000E+02  4.40000000E+01  0.00000000E+00
  6.20000000E+02  4.40000000E+01  0.00000000E+00
  6.30000000E+02  4.40000000E+01  0.00000000E+00
  6.40000000E+02  4.40000000E+01  0.00000000E+00
  6.50000000E+02  4.40000000E+01  0.00000000E+00
  6.60000000E+02  4.40000000E+01  0.00000000E+00
  6.70000000E+02  4.40000000E+01  0.00000000E+00
  6.80000000E+02  4.40000000E+01  0.00000000E+00
  6.90000000E+02  4.40000000E+01  0.00000000E+00
  7.00000000E+02  4.40000000E+01  0.00000000E+00
  7.10000000E+02  4.40000000E+01  0.00000000E+00
  7.20000000E+02  4.40000000E+01  0.00000000E+00
  7.30000000E+02  4.40000000E+01  0.00000000E+00
  7.40000000E+02  4.40000000E+01  0.00000000E+00
  7.50000000E+02  4.40000000E+01  0.00000000E+00
  7.60000000E+02  4.40000000E+01  0.00000000E+00
  7.70000000E+02  4.40000000E+01  0.00000000E+00
  7.80000000E+02  4.40000000E+01  0.00000000E+00
  7.90000000E+02  4.40000000E+01  0.00000000E+00
  8.00000000E+02  4.40000000E+01  0.00000000E+00
  8.10000000E+02  4.40000000E+01  0.00000000E+00
  8.20000000E+02  4.40000000E+01  0.00000000E+00
  8.30000000E+02  4.40000000E+01  0.00000000E+00
  8.40000000E+02  4.40000000E+01  0.00000000E+00
  8.50000000E+02  4.40000000E+01  0.00000000E+00
  8.60000000E+02  4.40000000E+01  0.00000000E+00
  8.70000000E+02  4.40000000E+01  0.00000000E+00
  8.80000000E+02  4.40000000E+01  0.00000000E+00
  8.90000000E+02  4.40000000E+01  0.00000000E+00
  9.00000000E+02  4.40000000E+01  0.00000000E+00
  9.10000000E+02  4.40000000E+01  0.00000000E+00
  9.20000000E+02  4.40000000E+01  0.00000000E+00
  9.30000000E+02  4.40000000E+01  0.00000000E+00
  9.40000000E+02  4.40000000E+01  0.00000000E+00
  9.50000000E+02  4.40000000E+01  0.00000000E+00
  9.60000000E+02  4.40000000E+01  0.00000000E+00
  9.70000000E+02  4.40000000E+01  0.00000000E+00
  9.80000000E+02  4.40000000E+01  0.00000000E+00
  9.90000000E+02  4.40000000E+01  0.00000000E+00
  1.00000000E+03  4.40000000E+01  0.00000000E+00
  0.00000000E+00  4.60000000E+01  0.00000000E+00
  1.00000000E+01  4.60000000E+01  0.00000000E+00
  2.00000000E+01  4.60000000E+01  0.00000000E+00
  3.00000000E+01  4.60000000E+01  0.00000000E+00
  4.00000000E+01  4.60000000E+01  0.00000000E+00
  5.00000000E+01  4.60000000E+01  0.00000000E+00
  6.00000000E+01  4.60000000E+01  0.00000000E+00
  7.00000000E+01  4.60000000E+01  0.00000000E+00
  8.00000000E+01  4.60000000E+01  0.00000000E+00
  9.00000000E+01  4.60000000E+01  0.00000000E+00
  1.00000000E+02  4.60000000E+01  0.00000000E+00
  1.10000000E+02  4.60000000E+01  0.00000000E+00
  1.20000000E+02  4.60000000E+01  0.00000000E+00
  1.30000000E+02  4.60000000E+01  0.00000000E+00
  1.40000000E+02  4.60000000E+01  0.00000000E+00
  1.50000000E+02  4.60000000E+01  0.00000000E+00
  1.60000000E+02  4.60000000E+01  0.00000000E+00
  1.70000000E+02  4.60000000E+01  0.00000000E+00
  1.80000000E+02  4.60000000E+01  0.00000000E+00
  1.90000000E+02  4.60000000E+01  0.00000000E+00
  2.00000000E+02  4.60000000E+01  0.00000000E+00
  2.10000000E+02  4.60000000E+01  0.00000000E+00
  2.20000000E+02  4.60000000E+01  0.00000000E+00
  2.30000000E+02  4.60000000E+01  0.00000000E+00
  2.40000000E+02  4.60000000E+01  0.00000000E+00
  2.50000000E+02  4.60000000E+01  0.00000000E+00
  2.60000000E+02  4.60000000E+01  0.00000000E+00
  2.70000000E+02  4.60000000E+01  0.00000000E+00
  2.80000000E+02  4.60000000E+01  0.00000000E+00
  2.90000000E+02  4.60000000E+01  0.00000000E+00
  3.00000000E+02  4.60000000E+01  0.00000000E+00
  3.10000000E+02  4.60000000E+01  0.00000000E+00
  3.20000000E+02  4.60000000E+01  0.00000000E+00
  3.30000000E+02  4.60000000E+01  0.00000000E+00
  3.40000000E+02  4.60000000E+01  0.00000000E+00
  3.50000000E+02  4.60000000E+01  0.00000000E+00
  3.60000000E+02  4.60000000E+01  0.00000000E+00
  3.70000000E+02  4.60000000E+01  0.00000000E+00
  3.80000000E+02  4.60000000E+01  0.00000000E+00
  3.90000000E+02  4.60000000E+01  0.00000000E+00
  4.00000000E+02  4.60000000E+01  0.00000000E+00
  4.10000000E+02  4.60000000E+01  0.00000000E+00
  4.20000000E+02  4.60000000E+01  0.00000000E+00
  4.30000000E+02  4.60000000E+01  0.00000000E+00
  4.40000000E+02  4.60000000E+01  0.00000000E+00
  4.50000000E+02  4.60000000E+01  0.00000000E+00
  4.60000000E+02  4.60000000E+01  0.00000000E+00
  4.70000000E+02  4.60000000E+01  0.00000000E+00
  4.80000000E+02  4.60000000E+01  0.00000000E+00
  4.90000000E+02  4.60000000E+01  0.00000000E+00
  5.00000000E+02  4.60000000E+01  0.00000000E+00
  5.10000000E+02  4.60000000E+01  0.00000000E+00
  5.20000000E+02  4.60000000E+01  0.00000000E+00
  5.30000000E+02  4.60000000E+01  0.00000000E+00
  5.40000000E+02  4.60000000E+01  0.00000000E+00
  5.50000000E+02  4.60000000E+01  0.00000000E+00
  5.60000000E+02  4.60000000E+01  0.00000000E+00
  5.70000000E+02  4.60000000E+01  0.00000000E+00
  5.80000000E+02  4.60000000E+01  0.00000000E+00
  5.90000000E+02  4.60000000E+01  0.00000000E+00
  6.00000000E+02  4.60000000E+01  0.00000000E+00
  6.10000000E+02  4.60000000E+01  0.00000000E+00
  6.20000000E+02  4.60000000E+01  0.00000000E+00
  6.30000000E+02  4.60000000E+01  0.00000000E+00
  6.40000000E+02  4.60000000E+01  0.00000000E+00
  6.50000000E+02  4.60000000E+01  0.00000000E+00
  6.60000000E+02  4.60000000E+01  0.00000000E+00
  6.70000000E+02  4.60000000E+01  0.00000000E+00
  6.80000000E+02  4.60000000E+01  0.00000000E+00
  6.90000000E+02  4.60000000E+01  0.00000000E+00
  7.00000000E+02  4.60000000E+01  0.00000000E+00
  7.10000000E+02  4.60000000E+01  0.00000000E+00
  7.20000000E+02  4.60000000E+01  0.00000000E+00
  7.30000000E+02  4.60000000E+01  0.00000000E+00
  7.40000000E+02  4.60000000E+01  0.00000000E+00
  7.50000000E+02  4.60000000E+01  0.00000000E+00
  7.60000000E+02  4.60000000E+01  0.00000000E+00
  7.70000000E+02  4.60000000E+01  0.00000000E+00
  7.80000000E+02  4.60000000E+01  0.00000000E+00
  7.90000000E+02  4.60000000E+01  0.00000000E+00
  8.00000000E+02  4.60000000E+01  0.00000000E+00
  8.10000000E+02  4.60000000E+01  0.00000000E+00
  8.20000000E+02  4.60000000E+01  0.00000000E+00
  8.30000000E+02  4.60000000E+01  0.00000000E+00
  8.40000000E+02  4.60000000E+01  0.00000000E+00
  8.50000000E+02  4.60000000E+01  0.00000000E+00
  8.60000000E+02  4.60000000E+01  0.00000000E+00
  8.70000000E+02  4.60000000E+01  0.00000000E+00
  8.80000000E+02  4.60000000E+01  0.00000000E+00
  8.90000000E+02  4.60000000E+01  0.00000000E+00
  9.00000000E+02  4.60000000E+01  0.00000000E+00
  9.10000000E+02  4.60000000E+01  0.00000000E+00
  9.20000000E+02  4.60000000E+01  0.00000000E+00
  9.30000000E+02  4.60000000E+01  0.00000000E+00
  9.40000000E+02  4.60000000E+01  0.00000000E+00
  9.50000000E+02  4.60000000E+01  0.00000000E+00
  9.60000000E+02  4.60000000E+01  0.00000000E+00
  9.70000000E+02  4.60000000E+01  0.00000000E+00
  9.80000000E+02  4.60000000E+01  0.00000000E+00
  9.90000000E+02  4.60000000E+01  0.00000000E+00
  1.00000000E+03  4.60000000E+01  0.00000000E+00
  0.00000000E+00  4.80000000E+01  0.00000000E+00
  1.00000000E+01  4.80000000E+01  0.00000000E+00
  2.00000000E+01  4.80000000E+01  0.00000000E+00
  3.00000000E+01  4.80000000E+01  0.00000000E+00
  4.00000000E+01  4.80000000E+01  0.00000000E+00
  5.00000000E+01  4.80000000E+01  0.00000000E+00
  6.00000000E+01  4.80000000E+01  0.00000000E+00
  7.00000000E+01  4.80000000E+01  0.00000000E+00
  8.00000000E+01  4.80000000E+01  0.00000000E+00
  9.00000000E+01  4.80000000E+01  0.00000000E+00
  1.00000000E+02  4.80000000E+01  0.00000000E+00
  1.10000000E+02  4.80000000E+01  0.00000000E+00
  1.20000000E+02  4.80000000E+01  0.00000000E+00
  1.30000000E+02  4.80000000E+01  0.00000000E+00
  1.40000000E+02  4.80000000E+01  0.00000000E+00
  1.50000000E+02  4.80000000E+01  0.00000000E+00
  1.60000000E+02  4.80000000E+01  0.00000000E+00
  1.70000000E+02  4.80000000E+01  0.00000000E+00
  1.80000000E+02  4.80000000E+01  0.00000000E+00
  1.90000000E+02  4.80000000E+01  0.00000000E+00
  2.00000000E+02  4.80000000E+01  0.00000000E+00
  2.10000000E+02  4.80000000E+01  0.00000000E+00
  2.20000000E+02  4.80000000E+01  0.00000000E+00
  2.30000000E+02  4.80000000E+01  0.00000000E+00
  2.40000000E+02  4.80000000E+01  0.00000000E+00
  2.50000000E+02  4.80000000E+01  0.00000000E+00
  2.60000000E+02  4.80000000E+01  0.00000000E+00
  2.70000000E+02  4.80000000E+01  0.00000000E+00
  2.80000000E+02  4.80000000E+01  0.00000000E+00
  2.90000000E+02  4.80000000E+01  0.00000000E+00
  3.00000000E+02  4.80000000E+01  0.00000000E+00
  3.10000000E+02  4.80000000E+01  0.00000000E+00
  3.20000000E+02  4.80000000E+01  0.00000000E+00
  3.30000000E+02  4.80000000E+01  0.00000000E+00
  3.40000000E+02  4.80000000E+01  0.00000000E+00
  3.50000000E+02  4.80000000E+01  0.00000000E+00
  3.60000000E+02  4.80000000E+01  0.00000000E+00
  3.70000000E+02  4.80000000E+01  0.00000000E+00
  3.80000000E+02  4.80000000E+01  0.00000000E+00
  3.90000000E+02  4.80000000E+01  0.00000000E+00
  4.00000000E+02  4.80000000E+01  0.00000000E+00
  4.10000000E+02  4.80000000E+01  0.00000000E+00
  4.20000000E+02  4.80000000E+01  0.00000000E+00
  4.30000000E+02  4.80000000E+01  0.00000000E+00
  4.40000000E+02  4.80000000E+01  0.00000000E+00
  4.50000000E+02  4.80000000E+01  0.00000000E+00
  4.60000000E+02  4.80000000E+01  0.00000000E+00
  4.70000000E+02  4.80000000E+01  0.00000000E+00
  4.80000000E+02  4.80000000E+01  0.00000000E+00
  4.90000000E+02  4.80000000E+01  0.00000000E+00
  5.00000000E+02  4.80000000E+01  0.00000000E+00
  5.10000000E+02  4.80000000E+01  0.00000000E+00
  5.20000000E+02  4.80000000E+01  0.00000000E+00
  5.30000000E+02  4.80000000E+01  0.00000000E+00
  5.40000000E+02  4.80000000E+01  0.00000000E+00
  5.50000000E+02  4.80000000E+01  0.00000000E+00
  5.60000000E+02  4.80000000E+01  0.00000000E+00
  5.70000000E+02  4.80000000E+01  0.00000000E+00
  5.80000000E+02  4.80000000E+01  0.00000000E+00
  5.90000000E+02  4.80000000E+01  0.00000000E+00
  6.00000000E+02  4.80000000E+01  0.00000000E+00
  6.10000000E+02  4.80000000E+01  0.00000000E+00
  6.20000000E+02  4.80000000E+01  0.00000000E+00
  6.30000000E+02  4.80000000E+01  0.00000000E+00
  6.40000000E+02  4.80000000E+01  0.00000000E+00
  6.50000000E+02  4.80000000E+01  0.00000000E+00
  6.60000000E+02  4.80000000E+01  0.00000000E+00
  6.70000000E+02  4.80000000E+01  0.00000000E+00
  6.80000000E+02  4.80000000E+01  0.00000000E+00
  6.90000000E+02  4.80000000E+01  0.00000000E+00
  7.00000000E+02  4.80000000E+01  0.00000000E+00
  7.10000000E+02  4.80000000E+01  0.00000000E+00
  7.20000000E+02  4.80000000E+01  0.00000000E+00
  7.30000000E+02  4.80000000E+01  0.00000000E+00
  7.40000000E+02  4.80000000E+01  0.00000000E+00
  7.50000000E+02  4.80000000E+01  0.00000000E+00
  7.60000000E+02  4.80000000E+01  0.00000000E+00
  7.70000000E+02  4.80000000E+01  0.00000000E+00
  7.80000000E+02  4.80000000E+01  0.00000000E+00
  7.90000000E+02  4.80000000E+01  0.00000000E+00
  8.00000000E+02  4.80000000E+01  0.00000000E+00
  8.10000000E+02  4.80000000E+01  0.00000000E+00
  8.20000000E+02  4.80000000E+01  0.00000000E+00
  8.30000000E+02  4.80000000E+01  0.00000000E+00
  8.40000000E+02  4.80000000E+01  0.00000000E+00
  8.50000000E+02  4.80000000E+01  0.00000000E+00
  8.60000000E+02  4.80000000E+01  0.00000000E+00
  8.70000000E+02  4.80000000E+01  0.00000000E+00
  8.80000000E+02  4.80000000E+01  0.00000000E+00
  8.90000000E+02  4.80000000E+01  0.00000000E+00
  9.00000000E+02  4.80000000E+01  0.00000000E+00
  9.10000000E+02  4.80000000E+01  0.00000000E+00
  9.20000000E+02  4.80000000E+01  0.00000000E+00
  9.30000000E+02  4.80000000E+01  0.00000000E+00
  9.40000000E+02  4.80000000E+01  0.00000000E+00
  9.50000000E+02  4.80000000E+01  0.00000000E+00
  9.60000000E+02  4.80000000E+01  0.00000000E+00
  9.70000000E+02  4.80000000E+01  0.00000000E+00
  9.80000000E+02  4.80000000E+01  0.00000000E+00
  9.90000000E+02  4.80000000E+01  0.00000000E+00
  1.00000000E+03  4.80000000E+01  0.00000000E+00
  0.00000000E+00  5.00000000E+01  0.00000000E+00
  1.00000000E+01  5.00000000E+01  0.00000000E+00
  2.00000000E+01  5.00000000E+01  0.00000000E+00
  3.00000000E+01  5.00000000E+01  0.00000000E+00
  4.00000000E+01  5.00000000E+01  0.00000000E+00
  5.00000000E+01  5.00000000E+01  0.00000000E+00
  6.00000000E+01  5.00000000E+01  0.00000000E+00
  7.00000000E+01  5.00000000E+01  0.00000000E+00
  8.00000000E+01  5.00000000E+01  0.00000000E+00
  9.00000000E+01  5.00000000E+01  0.00000000E+00
  1.00000000E+02  5.00000000E+01  0.00000000E+00
  1.10000000E+02  5.00000000E+01  0.00000000E+00
  1.20000000E+02  5.00000000E+01  0.00000000E+00
  1.30000000E+02  5.00000000E+01  0.00000000E+00
  1.40000000E+02  5.00000000E+01  0.00000000E+00
  1.50000000E+02  5.00000000E+01  0.00000000E+00
  1.60000000E+02  5.00000000E+01  0.00000000E+00
  1.70000000E+02  5.00000000E+01  0.00000000E+00
  1.80000000E+02  5.00000000E+01  0.00000000E+00
  1.90000000E+02  5.00000000E+01  0.00000000E+00
  2.00000000E+02  5.00000000E+01  0.00000000E+00
  2.10000000E+02  5.00000000E+01  0.00000000E+00
  2.20000000E+02  5.00000000E+01  0.00000000E+00
  2.30000000E+02  5.00000000E+01  0.00000000E+00
  2.40000000E+02  5.00000000E+01  0.00000000E+00
  2.50000000E+02  5.00000000E+01  0.00000000E+00
  2.60000000E+02  5.00000000E+01  0.00000000E+00
  2.70000000E+02  5.00000000E+01  0.00000000E+00
  2.80000000E+02  5.00000000E+01  0.00000000E+00
  2.90000000E+02  5.00000000E+01  0.00000000E+00
  3.00000000E+02  5.00000000E+01  0.00000000E+00
  3.10000000E+02  5.00000000E+01  0.00000000E+00
  3.20000000E+02  5.00000000E+01  0.00000000E+00
  3.30000000E+02  5.00000000E+01  0.00000000E+00
  3.40000000E+02  5.00000000E+01  0.00000000E+00
  3.50000000E+02  5.00000000E+01  0.00000000E+00
  3.60000000E+02  5.00000000E+01  0.00000000E+00
  3.70000000E+02  5.00000000E+01  0.00000000E+00
  3.80000000E+02  5.00000000E+01  0.00000000E+00
  3.90000000E+02  5.00000000E+01  0.00000000E+00
  4.00000000E+02  5.00000000E+01  0.00000000E+00
  4.10000000E+02  5.00000000E+01  0.00000000E+00
  4.20000000E+02  5.00000000E+01  0.00000000E+00
  4.30000000E+02  5.00000000E+01  0.00000000E+00
  4.40000000E+02  5.00000000E+01  0.00000000E+00
  4.50000000E+02  5.00000000E+01  0.00000000E+00
  4.60000000E+02  5.00000000E+01  0.00000000E+00
  4.70000000E+02  5.00000000E+01  0.00000000E+00
  4.80000000E+02  5.00000000E+01  0.00000000E+00
  4.90000000E+02  5.00000000E+01  0.00000000E+00
  5.00000000E+02  5.00000000E+01  0.00000000E+00
  5.10000000E+02  5.00000000E+01  0.00000000E+00
  5.20000000E+02  5.00000000E+01  0.00000000E+00
  5.30000000E+02  5.00000000E+01  0.00000000E+00
  5.40000000E+02  5.00000000E+01  0.00000000E+00
  5.50000000E+02  5.00000000E+01  0.00000000E+00
  5.60000000E+02  5.00000000E+01  0.00000000E+00
  5.70000000E+02  5.00000000E+01  0.00000000E+00
  5.80000000E+02  5.00000000E+01  0.00000000E+00
  5.90000000E+02  5.00000000E+01  0.00000000E+00
  6.00000000E+02  5.00000000E+01  0.00000000E+00
  6.10000000E+02  5.00000000E+01  0.00000000E+00
  6.20000000E+02  5.00000000E+01  0.00000000E+00
  6.30000000E+02  5.00000000E+01  0.00000000E+00
  6.40000000E+02  5.00000000E+01  0.00000000E+00
  6.50000000E+02  5.00000000E+01  0.00000000E+00
  6.60000000E+02  5.00000000E+01  0.00000000E+00
  6.70000000E+02  5.00000000E+01  0.00000000E+00
  6.80000000E+02  5.00000000E+01  0.00000000E+00
  6.90000000E+02  5.00000000E+01  0.00000000E+00
  7.00000000E+02  5.00000000E+01  0.00000000E+00
  7.10000000E+02  5.00000000E+01  0.00000000E+00
  7.20000000E+02  5.00000000E+01  0.00000000E+00
  7.30000000E+02  5.00000000E+01  0.00000000E+00
  7.40000000E+02  5.00000000E+01  0.00000000E+00
  7.50000000E+02  5.00000000E+01  0.00000000E+00
  7.60000000E+02  5.00000000E+01  0.00000000E+00
  7.70000000E+02  5.00000000E+01  0.00000000E+00
  7.80000000E+02  5.00000000E+01  0.00000000E+00
  7.90000000E+02  5.00000000E+01  0.00000000E+00
  8.00000000E+02  5.00000000E+01  0.00000000E+00
  8.10000000E+02  5.00000000E+01  0.00000000E+00
  8.20000000E+02  5.00000000E+01  0.00000000E+00
  8.30000000E+02  5.00000000E+01  0.00000000E+00
  8.40000000E+02  5.00000000E+01  0.00000000E+00
  8.50000000E+02  5.00000000E+01  0.00000000E+00
  8.60000000E+02  5.00000000E+01  0.00000000E+00
  8.70000000E+02  5.00000000E+01  0.00000000E+00
  8.80000000E+02  5.00000000E+01  0.00000000E+00
  8.90000000E+02  5.00000000E+01  0.00000000E+00
  9.00000000E+02  5.00000000E+01  0.00000000E+00
  9.10000000E+02  5.00000000E+01  0.00000000E+00
  9.20000000E+02  5.00000000E+01  0.00000000E+00
  9.30000000E+02  5.00000000E+01  0.00000000E+00
  9.40000000E+02  5.00000000E+01  0.00000000E+00
  9.50000000E+02  5.00000000E+01  0.00000000E+00
  9.60000000E+02  5.00000000E+01  0.00000000E+00
  9.70000000E+02  5.00000000E+01  0.00000000E+00
  9.80000000E+02  5.00000000E+01  0.00000000E+00
  9.90000000E+02  5.00000000E+01  0.00000000E+00
  1.00000000E+03  5.00000000E+01  0.00000000E+00
  0.00000000E+00  5.20000000E+01  0.00000000E+00
  1.00000000E+01  5.20000000E+01  0.00000000E+00
  2.00000000E+01  5.20000000E+01  0.00000000E+00
  3.00000000E+01  5.20000000E+01  0.00000000E+00
  4.00000000E+01  5.20000000E+01  0.00000000E+00
  5.00000000E+01  5.20000000E+01  0.00000000E+00
  6.00000000E+01  5.20000000E+01  0.00000000E+00
  7.00000000E+01  5.20000000E+01  0.00000000E+00
  8.00000000E+01  5.20000000E+01  0.00000000E+00
  9.00000000E+01  5.20000000E+01  0.00000000E+00
  1.00000000E+02  5.20000000E+01  0.00000000E+00
  1.10000000E+02  5.20000000E+01  0.00000000E+00
  1.20000000E+02  5.20000000E+01  0.00000000E+00
  1.30000000E+02  5.20000000E+01  0.00000000E+00
  1.40000000E+02  5.20000000E+01  0.00000000E+00
  1.50000000E+02  5.20000000E+01  0.00000000E+00
  1.60000000E+02  5.20000000E+01  0.00000000E+00
  1.70000000E+02  5.20000000E+01  0.00000000E+00
  1.80000000E+02  5.20000000E+01  0.00000000E+00
  1.90000000E+02  5.20000000E+01  0.00000000E+00
  2.00000000E+02  5.20000000E+01  0.00000000E+00
  2.10000000E+02  5.20000000E+01  0.00000000E+00
  2.20000000E+02  5.20000000E+01  0.00000000E+00
  2.30000000E+02  5.20000000E+01  0.00000000E+00
  2.40000000E+02  5.20000000E+01  0.00000000E+00
  2.50000000E+02  5.20000000E+01  0.00000000E+00
  2.60000000E+02  5.20000000E+01  0.00000000E+00
  2.70000000E+02  5.20000000E+01  0.00000000E+00
  2.80000000E+02  5.20000000E+01  0.00000000E+00
  2.90000000E+02  5.20000000E+01  0.00000000E+00
  3.00000000E+02  5.20000000E+01  0.00000000E+00
  3.10000000E+02  5.20000000E+01  0.00000000E+00
  3.20000000E+02  5.20000000E+01  0.00000000E+00
  3.30000000E+02  5.20000000E+01  0.00000000E+00
  3.40000000E+02  5.20000000E+01  0.00000000E+00
  3.50000000E+02  5.20000000E+01  0.00000000E+00
  3.60000000E+02  5.20000000E+01  0.00000000E+00
  3.70000000E+02  5.20000000E+01  0.00000000E+00
  3.80000000E+02  5.20000000E+01  0.00000000E+00
  3.90000000E+02  5.20000000E+01  0.00000000E+00
  4.00000000E+02  5.20000000E+01  0.00000000E+00
  4.10000000E+02  5.20000000E+01  0.00000000E+00
  4.20000000E+02  5.20000000E+01  0.00000000E+00
  4.30000000E+02  5.20000000E+01  0.00000000E+00
  4.40000000E+02  5.20000000E+01  0.00000000E+00
  4.50000000E+02  5.20000000E+01  0.00000000E+00
  4.60000000E+02  5.20000000E+01  0.00000000E+00
  4.70000000E+02  5.20000000E+01  0.00000000E+00
  4.80000000E+02  5.20000000E+01  0.00000000E+00
  4.90000000E+02  5.20000000E+01  0.00000000E+00
  5.00000000E+02  5.20000000E+01  0.00000000E+00
  5.10000000E+02  5.20000000E+01  0.00000000E+00
  5.20000000E+02  5.20000000E+01  0.00000000E+00
  5.30000000E+02  5.20000000E+01  0.00000000E+00
  5.40000000E+02  5.20000000E+01  0.00000000E+00
  5.50000000E+02  5.20000000E+01  0.00000000E+00
  5.60000000E+02  5.20000000E+01  0.00000000E+00
  5.70000000E+02  5.20000000E+01  0.00000000E+00
  5.80000000E+02  5.20000000E+01  0.00000000E+00
  5.90000000E+02  5.20000000E+01  0.00000000E+00
  6.00000000E+02  5.20000000E+01  0.00000000E+00
  6.10000000E+02  5.20000000E+01  0.00000000E+00
  6.20000000E+02  5.20000000E+01  0.00000000E+00
  6.30000000E+02  5.20000000E+01  0.00000000E+00
  6.40000000E+02  5.20000000E+01  0.00000000E+00
  6.50000000E+02  5.20000000E+01  0.00000000E+00
  6.60000000E+02  5.20000000E+01  0.00000000E+00
  6.70000000E+02  5.20000000E+01  0.00000000E+00
  6.80000000E+02  5.20000000E+01  0.00000000E+00
  6.90000000E+02  5.20000000E+01  0.00000000E+00
  7.00000000E+02  5.20000000E+01  0.00000000E+00
  7.10000000E+02  5.20000000E+01  0.00000000E+00
  7.20000000E+02  5.20000000E+01  0.00000000E+00
  7.30000000E+02  5.20000000E+01  0.00000000E+00
  7.40000000E+02  5.20000000E+01  0.00000000E+00
  7.50000000E+02  5.20000000E+01  0.00000000E+00
  7.60000000E+02  5.20000000E+01  0.00000000E+00
  7.70000000E+02  5.20000000E+01  0.00000000E+00
  7.80000000E+02  5.20000000E+01  0.00000000E+00
  7.90000000E+02  5.20000000E+01  0.00000000E+00
  8.00000000E+02  5.20000000E+01  0.00000000E+00
  8.10000000E+02  5.20000000E+01  0.00000000E+00
  8.20000000E+02  5.20000000E+01  0.00000000E+00
  8.30000000E+02  5.20000000E+01  0.00000000E+00
  8.40000000E+02  5.20000000E+01  0.00000000E+00
  8.50000000E+02  5.20000000E+01  0.00000000E+00
  8.60000000E+02  5.20000000E+01  0.00000000E+00
  8.70000000E+02  5.20000000E+01  0.00000000E+00
  8.80000000E+02  5.20000000E+01  0.00000000E+00
  8.90000000E+02  5.20000000E+01  0.00000000E+00
  9.00000000E+02  5.20000000E+01  0.00000000E+00
  9.10000000E+02  5.20000000E+01  0.00000000E+00
  9.20000000E+02  5.20000000E+01  0.00000000E+00
  9.30000000E+02  5.20000000E+01  0.00000000E+00
  9.40000000E+02  5.20000000E+01  0.00000000E+00
  9.50000000E+02  5.20000000E+01  0.00000000E+00
  9.60000000E+02  5.20000000E+01  0.00000000E+00
  9.70000000E+02  5.20000000E+01  0.00000000E+00
  9.80000000E+02  5.20000000E+01  0.00000000E+00
  9.90000000E+02  5.20000000E+01  0.00000000E+00
  1.00000000E+03  5.20000000E+01  0.00000000E+00
  0.00000000E+00  5.40000000E+01  0.00000000E+00
  1.00000000E+01  5.40000000E+01  0.00000000E+00
  2.00000000E+01  5.40000000E+01  0.00000000E+00
  3.00000000E+01  5.40000000E+01  0.00000000E+00
  4.00000000E+01  5.40000000E+01  0.00000000E+00
  5.00000000E+01  5.40000000E+01  0.00000000E+00
  6.00000000E+01  5.40000000E+01  0.00000000E+00
  7.00000000E+01  5.40000000E+01  0.00000000E+00
  8.00000000E+01  5.40000000E+01  0.00000000E+00
  9.00000000E+01  5.40000000E+01  0.00000000E+00
  1.00000000E+02  5.40000000E+01  0.00000000E+00
  1.10000000E+02  5.40000000E+01  0.00000000E+00
  1.20000000E+02  5.40000000E+01  0.00000000E+00
  1.30000000E+02  5.40000000E+01  0.00000000E+00
  1.40000000E+02  5.40000000E+01  0.00000000E+00
  1.50000000E+02  5.40000000E+01  0.00000000E+00
  1.60000000E+02  5.40000000E+01  0.00000000E+00
  1.70000000E+02  5.40000000E+01  0.00000000E+00
  1.80000000E+02  5.40000000E+01  0.00000000E+00
  1.90000000E+02  5.40000000E+01  0.00000000E+00
  2.00000000E+02  5.40000000E+01  0.00000000E+00
  2.10000000E+02  5.40000000E+01  0.00000000E+00
  2.20000000E+02  5.40000000E+01  0.00000000E+00
  2.30000000E+02  5.40000000E+01  0.00000000E+00
  2.40000000E+02  5.40000000E+01  0.00000000E+00
  2.50000000E+02  5.40000000E+01  0.00000000E+00
  2.60000000E+02  5.40000000E+01  0.00000000E+00
  2.70000000E+02  5.40000000E+01  0.00000000E+00
  2.80000000E+02  5.40000000E+01  0.00000000E+00
  2.90000000E+02  5.40000000E+01  0.00000000E+00
  3.00000000E+02  5.40000000E+01  0.00000000E+00
  3.10000000E+02  5.40000000E+01  0.00000000E+00
  3.20000000E+02  5.40000000E+01  0.00000000E+00
  3.30000000E+02  5.40000000E+01  0.00000000E+00
  3.40000000E+02  5.40000000E+01  0.00000000E+00
  3.50000000E+02  5.40000000E+01  0.00000000E+00
  3.60000000E+02  5.40000000E+01  0.00000000E+00
  3.70000000E+02  5.40000000E+01  0.00000000E+00
  3.80000000E+02  5.40000000E+01  0.00000000E+00
  3.90000000E+02  5.40000000E+01  0.00000000E+00
  4.00000000E+02  5.40000000E+01  0.00000000E+00
  4.10000000E+02  5.40000000E+01  0.00000000E+00
  4.20000000E+02  5.40000000E+01  0.00000000E+00
  4.30000000E+02  5.40000000E+01  0.00000000E+00
  4.40000000E+02  5.40000000E+01  0.00000000E+00
  4.50000000E+02  5.40000000E+01  0.00000000E+00
  4.60000000E+02  5.40000000E+01  0.00000000E+00
  4.70000000E+02  5.40000000E+01  0.00000000E+00
  4.80000000E+02  5.40000000E+01  0.00000000E+00
  4.90000000E+02  5.40000000E+01  0.00000000E+00
  5.00000000E+02  5.40000000E+01  0.00000000E+00
  5.10000000E+02  5.40000000E+01  0.00000000E+00
  5.20000000E+02  5.40000000E+01  0.00000000E+00
  5.30000000E+02  5.40000000E+01  0.00000000E+00
  5.40000000E+02  5.40000000E+01  0.00000000E+00
  5.50000000E+02  5.40000000E+01  0.00000000E+00
  5.60000000E+02  5.40000000E+01  0.00000000E+00
  5.70000000E+02  5.40000000E+01  0.00000000E+00
  5.80000000E+02  5.40000000E+01  0.00000000E+00
  5.90000000E+02  5.40000000E+01  0.00000000E+00
  6.00000000E+02  5.40000000E+01  0.00000000E+00
  6.10000000E+02  5.40000000E+01  0.00000000E+00
  6.20000000E+02  5.40000000E+01  0.00000000E+00
  6.30000000E+02  5.40000000E+01  0.00000000E+00
  6.40000000E+02  5.40000000E+01  0.00000000E+00
  6.50000000E+02  5.40000000E+01  0.00000000E+00
  6.60000000E+02  5.40000000E+01  0.00000000E+00
  6.70000000E+02  5.40000000E+01  0.00000000E+00
  6.80000000E+02  5.40000000E+01  0.00000000E+00
  6.90000000E+02  5.40000000E+01  0.00000000E+00
  7.00000000E+02  5.40000000E+01  0.00000000E+00
  7.10000000E+02  5.40000000E+01  0.00000000E+00
  7.20000000E+02  5.40000000E+01  0.00000000E+00
  7.30000000E+02  5.40000000E+01  0.00000000E+00
  7.40000000E+02  5.40000000E+01  0.00000000E+00
  7.50000000E+02  5.40000000E+01  0.00000000E+00
  7.60000000E+02  5.40000000E+01  0.00000000E+00
  7.70000000E+02  5.40000000E+01  0.00000000E+00
  7.80000000E+02  5.40000000E+01  0.00000000E+00
  7.90000000E+02  5.40000000E+01  0.00000000E+00
  8.00000000E+02  5.40000000E+01  0.00000000E+00
  8.10000000E+02  5.40000000E+01  0.00000000E+00
  8.20000000E+02  5.40000000E+01  0.00000000E+00
  8.30000000E+02  5.40000000E+01  0.00000000E+00
  8.40000000E+02  5.40000000E+01  0.00000000E+00
  8.50000000E+02  5.40000000E+01  0.00000000E+00
  8.60000000E+02  5.40000000E+01  0.00000000E+00
  8.70000000E+02  5.40000000E+01  0.00000000E+00
  8.80000000E+02  5.40000000E+01  0.00000000E+00
  8.90000000E+02  5.40000000E+01  0.00000000E+00
  9.00000000E+02  5.40000000E+01  0.00000000E+00
  9.10000000E+02  5.40000000E+01  0.00000000E+00
  9.20000000E+02  5.40000000E+01  0.00000000E+00
  9.30000000E+02  5.40000000E+01  0.00000000E+00
  9.40000000E+02  5.40000000E+01  0.00000000E+00
  9.50000000E+02  5.40000000E+01  0.00000000E+00
  9.60000000E+02  5.40000000E+01  0.00000000E+00
  9.70000000E+02  5.40000000E+01  0.00000000E+00
  9.80000000E+02  5.40000000E+01  0.00000000E+00
  9.90000000E+02  5.40000000E+01  0.00000000E+00
  1.00000000E+03  5.40000000E+01  0.00000000E+00
  0.00000000E+00  5.60000000E+01  0.00000000E+00
  1.00000000E+01  5.60000000E+01  0.00000000E+00
  2.00000000E+01  5.60000000E+01  0.00000000E+00
  3.00000000E+01  5.60000000E+01  0.00000000E+00
  4.00000000E+01  5.60000000E+01  0.00000000E+00
  5.00000000E+01  5.60000000E+01  0.00000000E+00
  6.00000000E+01  5.60000000E+01  0.00000000E+00
  7.00000000E+01  5.60000000E+01  0.00000000E+00
  8.00000000E+01  5.60000000E+01  0.00000000E+00
  9.00000000E+01  5.60000000E+01  0.00000000E+00
  1.00000000E+02  5.60000000E+01  0.00000000E+00
  1.10000000E+02  5.60000000E+01  0.00000000E+00
  1.20000000E+02  5.60000000E+01  0.00000000E+00
  1.30000000E+02  5.60000000E+01  0.00000000E+00
  1.40000000E+02  5.60000000E+01  0.00000000E+00
  1.50000000E+02  5.60000000E+01  0.00000000E+00
  1.60000000E+02  5.60000000E+01  0.00000000E+00
  1.70000000E+02  5.60000000E+01  0.00000000E+00
  1.80000000E+02  5.60000000E+01  0.00000000E+00
  1.90000000E+02  5.60000000E+01  0.00000000E+00
  2.00000000E+02  5.60000000E+01  0.00000000E+00
  2.10000000E+02  5.60000000E+01  0.00000000E+00
  2.20000000E+02  5.60000000E+01  0.00000000E+00
  2.30000000E+02  5.60000000E+01  0.00000000E+00
  2.40000000E+02  5.60000000E+01  0.00000000E+00
  2.50000000E+02  5.60000000E+01  0.00000000E+00
  2.60000000E+02  5.60000000E+01  0.00000000E+00
  2.70000000E+02  5.60000000E+01  0.00000000E+00
  2.80000000E+02  5.60000000E+01  0.00000000E+00
  2.90000000E+02  5.60000000E+01  0.00000000E+00
  3.00000000E+02  5.60000000E+01  0.00000000E+00
  3.10000000E+02  5.60000000E+01  0.00000000E+00
  3.20000000E+02  5.60000000E+01  0.00000000E+00
  3.30000000E+02  5.60000000E+01  0.00000000E+00
  3.40000000E+02  5.60000000E+01  0.00000000E+00
  3.50000000E+02  5.60000000E+01  0.00000000E+00
  3.60000000E+02  5.60000000E+01  0.00000000E+00
  3.70000000E+02  5.60000000E+01  0.00000000E+00
  3.80000000E+02  5.60000000E+01  0.00000000E+00
  3.90000000E+02  5.60000000E+01  0.00000000E+00
  4.00000000E+02  5.60000000E+01  0.00000000E+00
  4.10000000E+02  5.60000000E+01  0.00000000E+00
  4.20000000E+02  5.60000000E+01  0.00000000E+00
  4.30000000E+02  5.60000000E+01  0.00000000E+00
  4.40000000E+02  5.60000000E+01  0.00000000E+00
  4.50000000E+02  5.60000000E+01  0.00000000E+00
  4.60000000E+02  5.60000000E+01  0.00000000E+00
  4.70000000E+02  5.60000000E+01  0.00000000E+00
  4.80000000E+02  5.60000000E+01  0.00000000E+00
  4.90000000E+02  5.60000000E+01  0.00000000E+00
  5.00000000E+02  5.60000000E+01  0.00000000E+00
  5.10000000E+02  5.60000000E+01  0.00000000E+00
  5.20000000E+02  5.60000000E+01  0.00000000E+00
  5.30000000E+02  5.60000000E+01  0.00000000E+00
  5.40000000E+02  5.60000000E+01  0.00000000E+00
  5.50000000E+02  5.60000000E+01  0.00000000E+00
  5.60000000E+02  5.60000000E+01  0.00000000E+00
  5.70000000E+02  5.60000000E+01  0.00000000E+00
  5.80000000E+02  5.60000000E+01  0.00000000E+00
  5.90000000E+02  5.60000000E+01  0.00000000E+00
  6.00000000E+02  5.60000000E+01  0.00000000E+00
  6.10000000E+02  5.60000000E+01  0.00000000E+00
  6.20000000E+02  5.60000000E+01  0.00000000E+00
  6.30000000E+02  5.60000000E+01  0.00000000E+00
  6.40000000E+02  5.60000000E+01  0.00000000E+00
  6.50000000E+02  5.60000000E+01  0.00000000E+00
  6.60000000E+02  5.60000000E+01  0.00000000E+00
  6.70000000E+02  5.60000000E+01  0.00000000E+00
  6.80000000E+02  5.60000000E+01  0.00000000E+00
  6.90000000E+02  5.60000000E+01  0.00000000E+00
  7.00000000E+02  5.60000000E+01  0.00000000E+00
  7.10000000E+02  5.60000000E+01  0.00000000E+00
  7.20000000E+02  5.60000000E+01  0.00000000E+00
  7.30000000E+02  5.60000000E+01  0.00000000E+00
  7.40000000E+02  5.60000000E+01  0.00000000E+00
  7.50000000E+02  5.60000000E+01  0.00000000E+00
  7.60000000E+02  5.60000000E+01  0.00000000E+00
  7.70000000E+02  5.60000000E+01  0.00000000E+00
  7.80000000E+02  5.60000000E+01  0.00000000E+00
  7.90000000E+02  5.60000000E+01  0.00000000E+00
  8.00000000E+02  5.60000000E+01  0.00000000E+00
  8.10000000E+02  5.60000000E+01  0.00000000E+00
  8.20000000E+02  5.60000000E+01  0.00000000E+00
  8.30000000E+02  5.60000000E+01  0.00000000E+00
  8.40000000E+02  5.60000000E+01  0.00000000E+00
  8.50000000E+02  5.60000000E+01  0.00000000E+00
  8.60000000E+02  5.60000000E+01  0.00000000E+00
  8.70000000E+02  5.60000000E+01  0.00000000E+00
  8.80000000E+02  5.60000000E+01  0.00000000E+00
  8.90000000E+02  5.60000000E+01  0.00000000E+00
  9.00000000E+02  5.60000000E+01  0.00000000E+00
  9.10000000E+02  5.60000000E+01  0.00000000E+00
  9.20000000E+02  5.60000000E+01  0.00000000E+00
  9.30000000E+02  5.60000000E+01  0.00000000E+00
  9.40000000E+02  5.60000000E+01  0.00000000E+00
  9.50000000E+02  5.60000000E+01  0.00000000E+00
  9.60000000E+02  5.60000000E+01  0.00000000E+00
  9.70000000E+02  5.60000000E+01  0.00000000E+00
  9.80000000E+02  5.60000000E+01  0.00000000E+00
  9.90000000E+02  5.60000000E+01  0.00000000E+00
  1.00000000E+03  5.60000000E+01  0.00000000E+00
  0.00000000E+00  5.80000000E+01  0.00000000E+00
  1.00000000E+01  5.80000000E+01  0.00000000E+00
  2.00000000E+01  5.80000000E+01  0.00000000E+00
  3.00000000E+01  5.80000000E+01  0.00000000E+00
  4.00000000E+01  5.80000000E+01  0.00000000E+00
  5.00000000E+01  5.80000000E+01  0.00000000E+00
  6.00000000E+01  5.80000000E+01  0.00000000E+00
  7.00000000E+01  5.80000000E+01  0.00000000E+00
  8.00000000E+01  5.80000000E+01  0.00000000E+00
  9.00000000E+01  5.80000000E+01  0.00000000E+00
  1.00000000E+02  5.80000000E+01  0.00000000E+00
  1.10000000E+02  5.80000000E+01  0.00000000E+00
  1.20000000E+02  5.80000000E+01  0.00000000E+00
  1.30000000E+02  5.80000000E+01  0.00000000E+00
  1.40000000E+02  5.80000000E+01  0.00000000E+00
  1.50000000E+02  5.80000000E+01  0.00000000E+00
  1.60000000E+02  5.80000000E+01  0.00000000E+00
  1.70000000E+02  5.80000000E+01  0.00000000E+00
  1.80000000E+02  5.80000000E+01  0.00000000E+00
  1.90000000E+02  5.80000000E+01  0.00000000E+00
  2.00000000E+02  5.80000000E+01  0.00000000E+00
  2.10000000E+02  5.80000000E+01  0.00000000E+00
  2.20000000E+02  5.80000000E+01  0.00000000E+00
  2.30000000E+02  5.80000000E+01  0.00000000E+00
  2.40000000E+02  5.80000000E+01  0.00000000E+00
  2.50000000E+02  5.80000000E+01  0.00000000E+00
  2.60000000E+02  5.80000000E+01  0.00000000E+00
  2.70000000E+02  5.80000000E+01  0.00000000E+00
  2.80000000E+02  5.80000000E+01  0.00000000E+00
  2.90000000E+02  5.80000000E+01  0.00000000E+00
  3.00000000E+02  5.80000000E+01  0.00000000E+00
  3.10000000E+02  5.80000000E+01  0.00000000E+00
  3.20000000E+02  5.80000000E+01  0.00000000E+00
  3.30000000E+02  5.80000000E+01  0.00000000E+00
  3.40000000E+02  5.80000000E+01  0.00000000E+00
  3.50000000E+02  5.80000000E+01  0.00000000E+00
  3.60000000E+02  5.80000000E+01  0.00000000E+00
  3.70000000E+02  5.80000000E+01  0.00000000E+00
  3.80000000E+02  5.80000000E+01  0.00000000E+00
  3.90000000E+02  5.80000000E+01  0.00000000E+00
  4.00000000E+02  5.80000000E+01  0.00000000E+00
  4.10000000E+02  5.80000000E+01  0.00000000E+00
  4.20000000E+02  5.80000000E+01  0.00000000E+00
  4.30000000E+02  5.80000000E+01  0.00000000E+00
  4.40000000E+02  5.80000000E+01  0.00000000E+00
  4.50000000E+02  5.80000000E+01  0.00000000E+00
  4.60000000E+02  5.80000000E+01  0.00000000E+00
  4.70000000E+02  5.80000000E+01  0.00000000E+00
  4.80000000E+02  5.80000000E+01  0.00000000E+00
  4.90000000E+02  5.80000000E+01  0.00000000E+00
  5.00000000E+02  5.80000000E+01  0.00000000E+00
  5.10000000E+02  5.80000000E+01  0.00000000E+00
  5.20000000E+02  5.80000000E+01  0.00000000E+00
  5.30000000E+02  5.80000000E+01  0.00000000E+00
  5.40000000E+02  5.80000000E+01  0.00000000E+00
  5.50000000E+02  5.80000000E+01  0.00000000E+00
  5.60000000E+02  5.80000000E+01  0.00000000E+00
  5.70000000E+02  5.80000000E+01  0.00000000E+00
  5.80000000E+02  5.80000000E+01  0.00000000E+00
  5.90000000E+02  5.80000000E+01  0.00000000E+00
  6.00000000E+02  5.80000000E+01  0.00000000E+00
  6.10000000E+02  5.80000000E+01  0.00000000E+00
  6.20000000E+02  5.80000000E+01  0.00000000E+00
  6.30000000E+02  5.80000000E+01  0.00000000E+00
  6.40000000E+02  5.80000000E+01  0.00000000E+00
  6.50000000E+02  5.80000000E+01  0.00000000E+00
  6.60000000E+02  5.80000000E+01  0.00000000E+00
  6.70000000E+02  5.80000000E+01  0.00000000E+00
  6.80000000E+02  5.80000000E+01  0.00000000E+00
  6.90000000E+02  5.80000000E+01  0.00000000E+00
  7.00000000E+02  5.80000000E+01  0.00000000E+00
  7.10000000E+02  5.80000000E+01  0.00000000E+00
  7.20000000E+02  5.80000000E+01  0.00000000E+00
  7.30000000E+02  5.80000000E+01  0.00000000E+00
  7.40000000E+02  5.80000000E+01  0.00000000E+00
  7.50000000E+02  5.80000000E+01  0.00000000E+00
  7.60000000E+02  5.80000000E+01  0.00000000E+00
  7.70000000E+02  5.80000000E+01  0.00000000E+00
  7.80000000E+02  5.80000000E+01  0.00000000E+00
  7.90000000E+02  5.80000000E+01  0.00000000E+00
  8.00000000E+02  5.80000000E+01  0.00000000E+00
  8.10000000E+02  5.80000000E+01  0.00000000E+00
  8.20000000E+02  5.80000000E+01  0.00000000E+00
  8.30000000E+02  5.80000000E+01  0.00000000E+00
  8.40000000E+02  5.80000000E+01  0.00000000E+00
  8.50000000E+02  5.80000000E+01  0.00000000E+00
  8.60000000E+02  5.80000000E+01  0.00000000E+00
  8.70000000E+02  5.80000000E+01  0.00000000E+00
  8.80000000E+02  5.80000000E+01  0.00000000E+00
  8.90000000E+02  5.80000000E+01  0.00000000E+00
  9.00000000E+02  5.80000000E+01  0.00000000E+00
  9.10000000E+02  5.80000000E+01  0.00000000E+00
  9.20000000E+02  5.80000000E+01  0.00000000E+00
  9.30000000E+02  5.80000000E+01  0.00000000E+00
  9.40000000E+02  5.80000000E+01  0.00000000E+00
  9.50000000E+02  5.80000000E+01  0.00000000E+00
  9.60000000E+02  5.80000000E+01  0.00000000E+00
  9.70000000E+02  5.80000000E+01  0.00000000E+00
  9.80000000E+02  5.80000000E+01  0.00000000E+00
  9.90000000E+02  5.80000000E+01  0.00000000E+00
  1.00000000E+03  5.80000000E+01  0.00000000E+00
  0.00000000E+00  6.00000000E+01  0.00000000E+00
  1.00000000E+01  6.00000000E+01  0.00000000E+00
  2.00000000E+01  6.00000000E+01  0.00000000E+00
  3.00000000E+01  6.00000000E+01  0.00000000E+00
  4.00000000E+01  6.00000000E+01  0.00000000E+00
  5.00000000E+01  6.00000000E+01  0.00000000E+00
  6.00000000E+01  6.00000000E+01  0.00000000E+00
  7.00000000E+01  6.00000000E+01  0.00000000E+00
  8.00000000E+01  6.00000000E+01  0.00000000E+00
  9.00000000E+01  6.00000000E+01  0.00000000E+00
  1.00000000E+02  6.00000000E+01  0.00000000E+00
  1.10000000E+02  6.00000000E+01  0.00000000E+00
  1.20000000E+02  6.00000000E+01  0.00000000E+00
  1.30000000E+02  6.00000000E+01  0.00000000E+00
  1.40000000E+02  6.00000000E+01  0.00000000E+00
  1.50000000E+02  6.00000000E+01  0.00000000E+00
  1.60000000E+02  6.00000000E+01  0.00000000E+00
  1.70000000E+02  6.00000000E+01  0.00000000E+00
  1.80000000E+02  6.00000000E+01  0.00000000E+00
  1.90000000E+02  6.00000000E+01  0.00000000E+00
  2.00000000E+02  6.00000000E+01  0.00000000E+00
  2.10000000E+02  6.00000000E+01  0.00000000E+00
  2.20000000E+02  6.00000000E+01  0.00000000E+00
  2.30000000E+02  6.00000000E+01  0.00000000E+00
  2.40000000E+02  6.00000000E+01  0.00000000E+00
  2.50000000E+02  6.00000000E+01  0.00000000E+00
  2.60000000E+02  6.00000000E+01  0.00000000E+00
  2.70000000E+02  6.00000000E+01  0.00000000E+00
  2.80000000E+02  6.00000000E+01  0.00000000E+00
  2.90000000E+02  6.00000000E+01  0.00000000E+00
  3.00000000E+02  6.00000000E+01  0.00000000E+00
  3.10000000E+02  6.00000000E+01  0.00000000E+00
  3.20000000E+02  6.00000000E+01  0.00000000E+00
  3.30000000E+02  6.00000000E+01  0.00000000E+00
  3.40000000E+02  6.00000000E+01  0.00000000E+00
  3.50000000E+02  6.00000000E+01  0.00000000E+00
  3.60000000E+02  6.00000000E+01  0.00000000E+00
  3.70000000E+02  6.00000000E+01  0.00000000E+00
  3.80000000E+02  6.00000000E+01  0.00000000E+00
  3.90000000E+02  6.00000000E+01  0.00000000E+00
  4.00000000E+02  6.00000000E+01  0.00000000E+00
  4.10000000E+02  6.00000000E+01  0.00000000E+00
  4.20000000E+02  6.00000000E+01  0.00000000E+00
  4.30000000E+02  6.00000000E+01  0.00000000E+00
  4.40000000E+02  6.00000000E+01  0.00000000E+00
  4.50000000E+02  6.00000000E+01  0.00000000E+00
  4.60000000E+02  6.00000000E+01  0.00000000E+00
  4.70000000E+02  6.00000000E+01  0.00000000E+00
  4.80000000E+02  6.00000000E+01  0.00000000E+00
  4.90000000E+02  6.00000000E+01  0.00000000E+00
  5.00000000E+02  6.00000000E+01  0.00000000E+00
  5.10000000E+02  6.00000000E+01  0.00000000E+00
  5.20000000E+02  6.00000000E+01  0.00000000E+00
  5.30000000E+02  6.00000000E+01  0.00000000E+00
  5.40000000E+02  6.00000000E+01  0.00000000E+00
  5.50000000E+02  6.00000000E+01  0.00000000E+00
  5.60000000E+02  6.00000000E+01  0.00000000E+00
  5.70000000E+02  6.00000000E+01  0.00000000E+00
  5.80000000E+02  6.00000000E+01  0.00000000E+00
  5.90000000E+02  6.00000000E+01  0.00000000E+00
  6.00000000E+02  6.00000000E+01  0.00000000E+00
  6.10000000E+02  6.00000000E+01  0.00000000E+00
  6.20000000E+02  6.00000000E+01  0.00000000E+00
  6.30000000E+02  6.00000000E+01  0.00000000E+00
  6.40000000E+02  6.00000000E+01  0.00000000E+00
  6.50000000E+02  6.00000000E+01  0.00000000E+00
  6.60000000E+02  6.00000000E+01  0.00000000E+00
  6.70000000E+02  6.00000000E+01  0.00000000E+00
  6.80000000E+02  6.00000000E+01  0.00000000E+00
  6.90000000E+02  6.00000000E+01  0.00000000E+00
  7.00000000E+02  6.00000000E+01  0.00000000E+00
  7.10000000E+02  6.00000000E+01  0.00000000E+00
  7.20000000E+02  6.00000000E+01  0.00000000E+00
  7.30000000E+02  6.00000000E+01  0.00000000E+00
  7.40000000E+02  6.00000000E+01  0.00000000E+00
  7.50000000E+02  6.00000000E+01  0.00000000E+00
  7.60000000E+02  6.00000000E+01  0.00000000E+00
  7.70000000E+02  6.00000000E+01  0.00000000E+00
  7.80000000E+02  6.00000000E+01  0.00000000E+00
  7.90000000E+02  6.00000000E+01  0.00000000E+00
  8.00000000E+02  6.00000000E+01  0.00000000E+00
  8.10000000E+02  6.00000000E+01  0.00000000E+00
  8.20000000E+02  6.00000000E+01  0.00000000E+00
  8.30000000E+02  6.00000000E+01  0.00000000E+00
  8.40000000E+02  6.00000000E+01  0.00000000E+00
  8.50000000E+02  6.00000000E+01  0.00000000E+00
  8.60000000E+02  6.00000000E+01  0.00000000E+00
  8.70000000E+02  6.00000000E+01  0.00000000E+00
  8.80000000E+02  6.00000000E+01  0.00000000E+00
  8.90000000E+02  6.00000000E+01  0.00000000E+00
  9.00000000E+02  6.00000000E+01  0.00000000E+00
  9.10000000E+02  6.00000000E+01  0.00000000E+00
  9.20000000E+02  6.00000000E+01  0.00000000E+00
  9.30000000E+02  6.00000000E+01  0.00000000E+00
  9.40000000E+02  6.00000000E+01  0.00000000E+00
  9.50000000E+02  6.00000000E+01  0.00000000E+00
  9.60000000E+02  6.00000000E+01  0.00000000E+00
  9.70000000E+02  6.00000000E+01  0.00000000E+00
  9.80000000E+02  6.00000000E+01  0.00000000E+00
  9.90000000E+02  6.00000000E+01  0.00000000E+00
  1.00000000E+03  6.00000000E+01  0.00000000E+00
  0.00000000E+00  6.20000000E+01  0.00000000E+00
  1.00000000E+01  6.20000000E+01  0.00000000E+00
  2.00000000E+01  6.20000000E+01  0.00000000E+00
  3.00000000E+01  6.20000000E+01  0.00000000E+00
  4.00000000E+01  6.20000000E+01  0.00000000E+00
  5.00000000E+01  6.20000000E+01  0.00000000E+00
  6.00000000E+01  6.20000000E+01  0.00000000E+00
  7.00000000E+01  6.20000000E+01  0.00000000E+00
  8.00000000E+01  6.20000000E+01  0.00000000E+00
  9.00000000E+01  6.20000000E+01  0.00000000E+00
  1.00000000E+02  6.20000000E+01  0.00000000E+00
  1.10000000E+02  6.20000000E+01  0.00000000E+00
  1.20000000E+02  6.20000000E+01  0.00000000E+00
  1.30000000E+02  6.20000000E+01  0.00000000E+00
  1.40000000E+02  6.20000000E+01  0.00000000E+00
  1.50000000E+02  6.20000000E+01  0.00000000E+00
  1.60000000E+02  6.20000000E+01  0.00000000E+00
  1.70000000E+02  6.20000000E+01  0.00000000E+00
  1.80000000E+02  6.20000000E+01  0.00000000E+00
  1.90000000E+02  6.20000000E+01  0.00000000E+00
  2.00000000E+02  6.20000000E+01  0.00000000E+00
  2.10000000E+02  6.20000000E+01  0.00000000E+00
  2.20000000E+02  6.20000000E+01  0.00000000E+00
  2.30000000E+02  6.20000000E+01  0.00000000E+00
  2.40000000E+02  6.20000000E+01  0.00000000E+00
  2.50000000E+02  6.20000000E+01  0.00000000E+00
  2.60000000E+02  6.20000000E+01  0.00000000E+00
  2.70000000E+02  6.20000000E+01  0.00000000E+00
  2.80000000E+02  6.20000000E+01  0.00000000E+00
  2.90000000E+02  6.20000000E+01  0.00000000E+00
  3.00000000E+02  6.20000000E+01  0.00000000E+00
  3.10000000E+02  6.20000000E+01  0.00000000E+00
  3.20000000E+02  6.20000000E+01  0.00000000E+00
  3.30000000E+02  6.20000000E+01  0.00000000E+00
  3.40000000E+02  6.20000000E+01  0.00000000E+00
  3.50000000E+02  6.20000000E+01  0.00000000E+00
  3.60000000E+02  6.20000000E+01  0.00000000E+00
  3.70000000E+02  6.20000000E+01  0.00000000E+00
  3.80000000E+02  6.20000000E+01  0.00000000E+00
  3.90000000E+02  6.20000000E+01  0.00000000E+00
  4.00000000E+02  6.20000000E+01  0.00000000E+00
  4.10000000E+02  6.20000000E+01  0.00000000E+00
  4.20000000E+02  6.20000000E+01  0.00000000E+00
  4.30000000E+02  6.20000000E+01  0.00000000E+00
  4.40000000E+02  6.20000000E+01  0.00000000E+00
  4.50000000E+02  6.20000000E+01  0.00000000E+00
  4.60000000E+02  6.20000000E+01  0.00000000E+00
  4.70000000E+02  6.20000000E+01  0.00000000E+00
  4.80000000E+02  6.20000000E+01  0.00000000E+00
  4.90000000E+02  6.20000000E+01  0.00000000E+00
  5.00000000E+02  6.20000000E+01  0.00000000E+00
  5.10000000E+02  6.20000000E+01  0.00000000E+00
  5.20000000E+02  6.20000000E+01  0.00000000E+00
  5.30000000E+02  6.20000000E+01  0.00000000E+00
  5.40000000E+02  6.20000000E+01  0.00000000E+00
  5.50000000E+02  6.20000000E+01  0.00000000E+00
  5.60000000E+02  6.20000000E+01  0.00000000E+00
  5.70000000E+02  6.20000000E+01  0.00000000E+00
  5.80000000E+02  6.20000000E+01  0.00000000E+00
  5.90000000E+02  6.20000000E+01  0.00000000E+00
  6.00000000E+02  6.20000000E+01  0.00000000E+00
  6.10000000E+02  6.20000000E+01  0.00000000E+00
  6.20000000E+02  6.20000000E+01  0.00000000E+00
  6.30000000E+02  6.20000000E+01  0.00000000E+00
  6.40000000E+02  6.20000000E+01  0.00000000E+00
  6.50000000E+02  6.20000000E+01  0.00000000E+00
  6.60000000E+02  6.20000000E+01  0.00000000E+00
  6.70000000E+02  6.20000000E+01  0.00000000E+00
  6.80000000E+02  6.20000000E+01  0.00000000E+00
  6.90000000E+02  6.20000000E+01  0.00000000E+00
  7.00000000E+02  6.20000000E+01  0.00000000E+00
  7.10000000E+02  6.20000000E+01  0.00000000E+00
  7.20000000E+02  6.20000000E+01  0.00000000E+00
  7.30000000E+02  6.20000000E+01  0.00000000E+00
  7.40000000E+02  6.20000000E+01  0.00000000E+00
  7.50000000E+02  6.20000000E+01  0.00000000E+00
  7.60000000E+02  6.20000000E+01  0.00000000E+00
  7.70000000E+02  6.20000000E+01  0.00000000E+00
  7.80000000E+02  6.20000000E+01  0.00000000E+00
  7.90000000E+02  6.20000000E+01  0.00000000E+00
  8.00000000E+02  6.20000000E+01  0.00000000E+00
  8.10000000E+02  6.20000000E+01  0.00000000E+00
  8.20000000E+02  6.20000000E+01  0.00000000E+00
  8.30000000E+02  6.20000000E+01  0.00000000E+00
  8.40000000E+02  6.20000000E+01  0.00000000E+00
  8.50000000E+02  6.20000000E+01  0.00000000E+00
  8.60000000E+02  6.20000000E+01  0.00000000E+00
  8.70000000E+02  6.20000000E+01  0.00000000E+00
  8.80000000E+02  6.20000000E+01  0.00000000E+00
  8.90000000E+02  6.20000000E+01  0.00000000E+00
  9.00000000E+02  6.20000000E+01  0.00000000E+00
  9.10000000E+02  6.20000000E+01  0.00000000E+00
  9.20000000E+02  6.20000000E+01  0.00000000E+00
  9.30000000E+02  6.20000000E+01  0.00000000E+00
  9.40000000E+02  6.20000000E+01  0.00000000E+00
  9.50000000E+02  6.20000000E+01  0.00000000E+00
  9.60000000E+02  6.20000000E+01  0.00000000E+00
  9.70000000E+02  6.20000000E+01  0.00000000E+00
  9.80000000E+02  6.20000000E+01  0.00000000E+00
  9.90000000E+02  6.20000000E+01  0.00000000E+00
  1.00000000E+03  6.20000000E+01  0.00000000E+00
  0.00000000E+00  6.40000000E+01  0.00000000E+00
  1.00000000E+01  6.40000000E+01  0.00000000E+00
  2.00000000E+01  6.40000000E+01  0.00000000E+00
  3.00000000E+01  6.40000000E+01  0.00000000E+00
  4.00000000E+01  6.40000000E+01  0.00000000E+00
  5.00000000E+01  6.40000000E+01  0.00000000E+00
  6.00000000E+01  6.40000000E+01  0.00000000E+00
  7.00000000E+01  6.40000000E+01  0.00000000E+00
  8.00000000E+01  6.40000000E+01  0.00000000E+00
  9.00000000E+01  6.40000000E+01  0.00000000E+00
  1.00000000E+02  6.40000000E+01  0.00000000E+00
  1.10000000E+02  6.40000000E+01  0.00000000E+00
  1.20000000E+02  6.40000000E+01  0.00000000E+00
  1.30000000E+02  6.40000000E+01  0.00000000E+00
  1.40000000E+02  6.40000000E+01  0.00000000E+00
  1.50000000E+02  6.40000000E+01  0.00000000E+00
  1.60000000E+02  6.40000000E+01  0.00000000E+00
  1.70000000E+02  6.40000000E+01  0.00000000E+00
  1.80000000E+02  6.40000000E+01  0.00000000E+00
  1.90000000E+02  6.40000000E+01  0.00000000E+00
  2.00000000E+02  6.40000000E+01  0.00000000E+00
  2.10000000E+02  6.40000000E+01  0.00000000E+00
  2.20000000E+02  6.40000000E+01  0.00000000E+00
  2.30000000E+02  6.40000000E+01  0.00000000E+00
  2.40000000E+02  6.40000000E+01  0.00000000E+00
  2.50000000E+02  6.40000000E+01  0.00000000E+00
  2.60000000E+02  6.40000000E+01  0.00000000E+00
  2.70000000E+02  6.40000000E+01  0.00000000E+00
  2.80000000E+02  6.40000000E+01  0.00000000E+00
  2.90000000E+02  6.40000000E+01  0.00000000E+00
  3.00000000E+02  6.40000000E+01  0.00000000E+00
  3.10000000E+02  6.40000000E+01  0.00000000E+00
  3.20000000E+02  6.40000000E+01  0.00000000E+00
  3.30000000E+02  6.40000000E+01  0.00000000E+00
  3.40000000E+02  6.40000000E+01  0.00000000E+00
  3.50000000E+02  6.40000000E+01  0.00000000E+00
  3.60000000E+02  6.40000000E+01  0.00000000E+00
  3.70000000E+02  6.40000000E+01  0.00000000E+00
  3.80000000E+02  6.40000000E+01  0.00000000E+00
  3.90000000E+02  6.40000000E+01  0.00000000E+00
  4.00000000E+02  6.40000000E+01  0.00000000E+00
  4.10000000E+02  6.40000000E+01  0.00000000E+00
  4.20000000E+02  6.40000000E+01  0.00000000E+00
  4.30000000E+02  6.40000000E+01  0.00000000E+00
  4.40000000E+02  6.40000000E+01  0.00000000E+00
  4.50000000E+02  6.40000000E+01  0.00000000E+00
  4.60000000E+02  6.40000000E+01  0.00000000E+00
  4.70000000E+02  6.40000000E+01  0.00000000E+00
  4.80000000E+02  6.40000000E+01  0.00000000E+00
  4.90000000E+02  6.40000000E+01  0.00000000E+00
  5.00000000E+02  6.40000000E+01  0.00000000E+00
  5.10000000E+02  6.40000000E+01  0.00000000E+00
  5.20000000E+02  6.40000000E+01  0.00000000E+00
  5.30000000E+02  6.40000000E+01  0.00000000E+00
  5.40000000E+02  6.40000000E+01  0.00000000E+00
  5.50000000E+02  6.40000000E+01  0.00000000E+00
  5.60000000E+02  6.40000000E+01  0.00000000E+00
  5.70000000E+02  6.40000000E+01  0.00000000E+00
  5.80000000E+02  6.40000000E+01  0.00000000E+00
  5.90000000E+02  6.40000000E+01  0.00000000E+00
  6.00000000E+02  6.40000000E+01  0.00000000E+00
  6.10000000E+02  6.40000000E+01  0.00000000E+00
  6.20000000E+02  6.40000000E+01  0.00000000E+00
  6.30000000E+02  6.40000000E+01  0.00000000E+00
  6.40000000E+02  6.40000000E+01  0.00000000E+00
  6.50000000E+02  6.40000000E+01  0.00000000E+00
  6.60000000E+02  6.40000000E+01  0.00000000E+00
  6.70000000E+02  6.40000000E+01  0.00000000E+00
  6.80000000E+02  6.40000000E+01  0.00000000E+00
  6.90000000E+02  6.40000000E+01  0.00000000E+00
  7.00000000E+02  6.40000000E+01  0.00000000E+00
  7.10000000E+02  6.40000000E+01  0.00000000E+00
  7.20000000E+02  6.40000000E+01  0.00000000E+00
  7.30000000E+02  6.40000000E+01  0.00000000E+00
  7.40000000E+02  6.40000000E+01  0.00000000E+00
  7.50000000E+02  6.40000000E+01  0.00000000E+00
  7.60000000E+02  6.40000000E+01  0.00000000E+00
  7.70000000E+02  6.40000000E+01  0.00000000E+00
  7.80000000E+02  6.40000000E+01  0.00000000E+00
  7.90000000E+02  6.40000000E+01  0.00000000E+00
  8.00000000E+02  6.40000000E+01  0.00000000E+00
  8.10000000E+02  6.40000000E+01  0.00000000E+00
  8.20000000E+02  6.40000000E+01  0.00000000E+00
  8.30000000E+02  6.40000000E+01  0.00000000E+00
  8.40000000E+02  6.40000000E+01  0.00000000E+00
  8.50000000E+02  6.40000000E+01  0.00000000E+00
  8.60000000E+02  6.40000000E+01  0.00000000E+00
  8.70000000E+02  6.40000000E+01  0.00000000E+00
  8.80000000E+02  6.40000000E+01  0.00000000E+00
  8.90000000E+02  6.40000000E+01  0.00000000E+00
  9.00000000E+02  6.40000000E+01  0.00000000E+00
  9.10000000E+02  6.40000000E+01  0.00000000E+00
  9.20000000E+02  6.40000000E+01  0.00000000E+00
  9.30000000E+02  6.40000000E+01  0.00000000E+00
  9.40000000E+02  6.40000000E+01  0.00000000E+00
  9.50000000E+02  6.40000000E+01  0.00000000E+00
  9.60000000E+02  6.40000000E+01  0.00000000E+00
  9.70000000E+02  6.40000000E+01  0.00000000E+00
  9.80000000E+02  6.40000000E+01  0.00000000E+00
  9.90000000E+02  6.40000000E+01  0.00000000E+00
  1.00000000E+03  6.40000000E+01  0.00000000E+00
  0.00000000E+00  6.60000000E+01  0.00000000E+00
  1.00000000E+01  6.60000000E+01  0.00000000E+00
  2.00000000E+01  6.60000000E+01  0.00000000E+00
  3.00000000E+01  6.60000000E+01  0.00000000E+00
  4.00000000E+01  6.60000000E+01  0.00000000E+00
  5.00000000E+01  6.60000000E+01  0.00000000E+00
  6.00000000E+01  6.60000000E+01  0.00000000E+00
  7.00000000E+01  6.60000000E+01  0.00000000E+00
  8.00000000E+01  6.60000000E+01  0.00000000E+00
  9.00000000E+01  6.60000000E+01  0.00000000E+00
  1.00000000E+02  6.60000000E+01  0.00000000E+00
  1.10000000E+02  6.60000000E+01  0.00000000E+00
  1.20000000E+02  6.60000000E+01  0.00000000E+00
  1.30000000E+02  6.60000000E+01  0.00000000E+00
  1.40000000E+02  6.60000000E+01  0.00000000E+00
  1.50000000E+02  6.60000000E+01  0.00000000E+00
  1.60000000E+02  6.60000000E+01  0.00000000E+00
  1.70000000E+02  6.60000000E+01  0.00000000E+00
  1.80000000E+02  6.60000000E+01  0.00000000E+00
  1.90000000E+02  6.60000000E+01  0.00000000E+00
  2.00000000E+02  6.60000000E+01  0.00000000E+00
  2.10000000E+02  6.60000000E+01  0.00000000E+00
  2.20000000E+02  6.60000000E+01  0.00000000E+00
  2.30000000E+02  6.60000000E+01  0.00000000E+00
  2.40000000E+02  6.60000000E+01  0.00000000E+00
  2.50000000E+02  6.60000000E+01  0.00000000E+00
  2.60000000E+02  6.60000000E+01  0.00000000E+00
  2.70000000E+02  6.60000000E+01  0.00000000E+00
  2.80000000E+02  6.60000000E+01  0.00000000E+00
  2.90000000E+02  6.60000000E+01  0.00000000E+00
  3.00000000E+02  6.60000000E+01  0.00000000E+00
  3.10000000E+02  6.60000000E+01  0.00000000E+00
  3.20000000E+02  6.60000000E+01  0.00000000E+00
  3.30000000E+02  6.60000000E+01  0.00000000E+00
  3.40000000E+02  6.60000000E+01  0.00000000E+00
  3.50000000E+02  6.60000000E+01  0.00000000E+00
  3.60000000E+02  6.60000000E+01  0.00000000E+00
  3.70000000E+02  6.60000000E+01  0.00000000E+00
  3.80000000E+02  6.60000000E+01  0.00000000E+00
  3.90000000E+02  6.60000000E+01  0.00000000E+00
  4.00000000E+02  6.60000000E+01  0.00000000E+00
  4.10000000E+02  6.60000000E+01  0.00000000E+00
  4.20000000E+02  6.60000000E+01  0.00000000E+00
  4.30000000E+02  6.60000000E+01  0.00000000E+00
  4.40000000E+02  6.60000000E+01  0.00000000E+00
  4.50000000E+02  6.60000000E+01  0.00000000E+00
  4.60000000E+02  6.60000000E+01  0.00000000E+00
  4.70000000E+02  6.60000000E+01  0.00000000E+00
  4.80000000E+02  6.60000000E+01  0.00000000E+00
  4.90000000E+02  6.60000000E+01  0.00000000E+00
  5.00000000E+02  6.60000000E+01  0.00000000E+00
  5.10000000E+02  6.60000000E+01  0.00000000E+00
  5.20000000E+02  6.60000000E+01  0.00000000E+00
  5.30000000E+02  6.60000000E+01  0.00000000E+00
  5.40000000E+02  6.60000000E+01  0.00000000E+00
  5.50000000E+02  6.60000000E+01  0.00000000E+00
  5.60000000E+02  6.60000000E+01  0.00000000E+00
  5.70000000E+02  6.60000000E+01  0.00000000E+00
  5.80000000E+02  6.60000000E+01  0.00000000E+00
  5.90000000E+02  6.60000000E+01  0.00000000E+00
  6.00000000E+02  6.60000000E+01  0.00000000E+00
  6.10000000E+02  6.60000000E+01  0.00000000E+00
  6.20000000E+02  6.60000000E+01  0.00000000E+00
  6.30000000E+02  6.60000000E+01  0.00000000E+00
  6.40000000E+02  6.60000000E+01  0.00000000E+00
  6.50000000E+02  6.60000000E+01  0.00000000E+00
  6.60000000E+02  6.60000000E+01  0.00000000E+00
  6.70000000E+02  6.60000000E+01  0.00000000E+00
  6.80000000E+02  6.60000000E+01  0.00000000E+00
  6.90000000E+02  6.60000000E+01  0.00000000E+00
  7.00000000E+02  6.60000000E+01  0.00000000E+00
  7.10000000E+02  6.60000000E+01  0.00000000E+00
  7.20000000E+02  6.60000000E+01  0.00000000E+00
  7.30000000E+02  6.60000000E+01  0.00000000E+00
  7.40000000E+02  6.60000000E+01  0.00000000E+00
  7.50000000E+02  6.60000000E+01  0.00000000E+00
  7.60000000E+02  6.60000000E+01  0.00000000E+00
  7.70000000E+02  6.60000000E+01  0.00000000E+00
  7.80000000E+02  6.60000000E+01  0.00000000E+00
  7.90000000E+02  6.60000000E+01  0.00000000E+00
  8.00000000E+02  6.60000000E+01  0.00000000E+00
  8.10000000E+02  6.60000000E+01  0.00000000E+00
  8.20000000E+02  6.60000000E+01  0.00000000E+00
  8.30000000E+02  6.60000000E+01  0.00000000E+00
  8.40000000E+02  6.60000000E+01  0.00000000E+00
  8.50000000E+02  6.60000000E+01  0.00000000E+00
  8.60000000E+02  6.60000000E+01  0.00000000E+00
  8.70000000E+02  6.60000000E+01  0.00000000E+00
  8.80000000E+02  6.60000000E+01  0.00000000E+00
  8.90000000E+02  6.60000000E+01  0.00000000E+00
  9.00000000E+02  6.60000000E+01  0.00000000E+00
  9.10000000E+02  6.60000000E+01  0.00000000E+00
  9.20000000E+02  6.60000000E+01  0.00000000E+00
  9.30000000E+02  6.60000000E+01  0.00000000E+00
  9.40000000E+02  6.60000000E+01  0.00000000E+00
  9.50000000E+02  6.60000000E+01  0.00000000E+00
  9.60000000E+02  6.60000000E+01  0.00000000E+00
  9.70000000E+02  6.60000000E+01  0.00000000E+00
  9.80000000E+02  6.60000000E+01  0.00000000E+00
  9.90000000E+02  6.60000000E+01  0.00000000E+00
  1.00000000E+03  6.60000000E+01  0.00000000E+00
  0.00000000E+00  6.80000000E+01  0.00000000E+00
  1.00000000E+01  6.80000000E+01  0.00000000E+00
  2.00000000E+01  6.80000000E+01  0.00000000E+00
  3.00000000E+01  6.80000000E+01  0.00000000E+00
  4.00000000E+01  6.80000000E+01  0.00000000E+00
  5.00000000E+01  6.80000000E+01  0.00000000E+00
  6.00000000E+01  6.80000000E+01  0.00000000E+00
  7.00000000E+01  6.80000000E+01  0.00000000E+00
  8.00000000E+01  6.80000000E+01  0.00000000E+00
  9.00000000E+01  6.80000000E+01  0.00000000E+00
  1.00000000E+02  6.80000000E+01  0.00000000E+00
  1.10000000E+02  6.80000000E+01  0.00000000E+00
  1.20000000E+02  6.80000000E+01  0.00000000E+00
  1.30000000E+02  6.80000000E+01  0.00000000E+00
  1.40000000E+02  6.80000000E+01  0.00000000E+00
  1.50000000E+02  6.80000000E+01  0.00000000E+00
  1.60000000E+02  6.80000000E+01  0.00000000E+00
  1.70000000E+02  6.80000000E+01  0.00000000E+00
  1.80000000E+02  6.80000000E+01  0.00000000E+00
  1.90000000E+02  6.80000000E+01  0.00000000E+00
  2.00000000E+02  6.80000000E+01  0.00000000E+00
  2.10000000E+02  6.80000000E+01  0.00000000E+00
  2.20000000E+02  6.80000000E+01  0.00000000E+00
  2.30000000E+02  6.80000000E+01  0.00000000E+00
  2.40000000E+02  6.80000000E+01  0.00000000E+00
  2.50000000E+02  6.80000000E+01  0.00000000E+00
  2.60000000E+02  6.80000000E+01  0.00000000E+00
  2.70000000E+02  6.80000000E+01  0.00000000E+00
  2.80000000E+02  6.80000000E+01  0.00000000E+00
  2.90000000E+02  6.80000000E+01  0.00000000E+00
  3.00000000E+02  6.80000000E+01  0.00000000E+00
  3.10000000E+02  6.80000000E+01  0.00000000E+00
  3.20000000E+02  6.80000000E+01  0.00000000E+00
  3.30000000E+02  6.80000000E+01  0.00000000E+00
  3.40000000E+02  6.80000000E+01  0.00000000E+00
  3.50000000E+02  6.80000000E+01  0.00000000E+00
  3.60000000E+02  6.80000000E+01  0.00000000E+00
  3.70000000E+02  6.80000000E+01  0.00000000E+00
  3.80000000E+02  6.80000000E+01  0.00000000E+00
  3.90000000E+02  6.80000000E+01  0.00000000E+00
  4.00000000E+02  6.80000000E+01  0.00000000E+00
  4.10000000E+02  6.80000000E+01  0.00000000E+00
  4.20000000E+02  6.80000000E+01  0.00000000E+00
  4.30000000E+02  6.80000000E+01  0.00000000E+00
  4.40000000E+02  6.80000000E+01  0.00000000E+00
  4.50000000E+02  6.80000000E+01  0.00000000E+00
  4.60000000E+02  6.80000000E+01  0.00000000E+00
  4.70000000E+02  6.80000000E+01  0.00000000E+00
  4.80000000E+02  6.80000000E+01  0.00000000E+00
  4.90000000E+02  6.80000000E+01  0.00000000E+00
  5.00000000E+02  6.80000000E+01  0.00000000E+00
  5.10000000E+02  6.80000000E+01  0.00000000E+00
  5.20000000E+02  6.80000000E+01  0.00000000E+00
  5.30000000E+02  6.80000000E+01  0.00000000E+00
  5.40000000E+02  6.80000000E+01  0.00000000E+00
  5.50000000E+02  6.80000000E+01  0.00000000E+00
  5.60000000E+02  6.80000000E+01  0.00000000E+00
  5.70000000E+02  6.80000000E+01  0.00000000E+00
  5.80000000E+02  6.80000000E+01  0.00000000E+00
  5.90000000E+02  6.80000000E+01  0.00000000E+00
  6.00000000E+02  6.80000000E+01  0.00000000E+00
  6.10000000E+02  6.80000000E+01  0.00000000E+00
  6.20000000E+02  6.80000000E+01  0.00000000E+00
  6.30000000E+02  6.80000000E+01  0.00000000E+00
  6.40000000E+02  6.80000000E+01  0.00000000E+00
  6.50000000E+02  6.80000000E+01  0.00000000E+00
  6.60000000E+02  6.80000000E+01  0.00000000E+00
  6.70000000E+02  6.80000000E+01  0.00000000E+00
  6.80000000E+02  6.80000000E+01  0.00000000E+00
  6.90000000E+02  6.80000000E+01  0.00000000E+00
  7.00000000E+02  6.80000000E+01  0.00000000E+00
  7.10000000E+02  6.80000000E+01  0.00000000E+00
  7.20000000E+02  6.80000000E+01  0.00000000E+00
  7.30000000E+02  6.80000000E+01  0.00000000E+00
  7.40000000E+02  6.80000000E+01  0.00000000E+00
  7.50000000E+02  6.80000000E+01  0.00000000E+00
  7.60000000E+02  6.80000000E+01  0.00000000E+00
  7.70000000E+02  6.80000000E+01  0.00000000E+00
  7.80000000E+02  6.80000000E+01  0.00000000E+00
  7.90000000E+02  6.80000000E+01  0.00000000E+00
  8.00000000E+02  6.80000000E+01  0.00000000E+00
  8.10000000E+02  6.80000000E+01  0.00000000E+00
  8.20000000E+02  6.80000000E+01  0.00000000E+00
  8.30000000E+02  6.80000000E+01  0.00000000E+00
  8.40000000E+02  6.80000000E+01  0.00000000E+00
  8.50000000E+02  6.80000000E+01  0.00000000E+00
  8.60000000E+02  6.80000000E+01  0.00000000E+00
  8.70000000E+02  6.80000000E+01  0.00000000E+00
  8.80000000E+02  6.80000000E+01  0.00000000E+00
  8.90000000E+02  6.80000000E+01  0.00000000E+00
  9.00000000E+02  6.80000000E+01  0.00000000E+00
  9.10000000E+02  6.80000000E+01  0.00000000E+00
  9.20000000E+02  6.80000000E+01  0.00000000E+00
  9.30000000E+02  6.80000000E+01  0.00000000E+00
  9.40000000E+02  6.80000000E+01  0.00000000E+00
  9.50000000E+02  6.80000000E+01  0.00000000E+00
  9.60000000E+02  6.80000000E+01  0.00000000E+00
  9.70000000E+02  6.80000000E+01  0.00000000E+00
  9.80000000E+02  6.80000000E+01  0.00000000E+00
  9.90000000E+02  6.80000000E+01  0.00000000E+00
  1.00000000E+03  6.80000000E+01  0.00000000E+00
  0.00000000E+00  7.00000000E+01  0.00000000E+00
  1.00000000E+01  7.00000000E+01  0.00000000E+00
  2.00000000E+01  7.00000000E+01  0.00000000E+00
  3.00000000E+01  7.00000000E+01  0.00000000E+00
  4.00000000E+01  7.00000000E+01  0.00000000E+00
  5.00000000E+01  7.00000000E+01  0.00000000E+00
  6.00000000E+01  7.00000000E+01  0.00000000E+00
  7.00000000E+01  7.00000000E+01  0.00000000E+00
  8.00000000E+01  7.00000000E+01  0.00000000E+00
  9.00000000E+01  7.00000000E+01  0.00000000E+00
  1.00000000E+02  7.00000000E+01  0.00000000E+00
  1.10000000E+02  7.00000000E+01  0.00000000E+00
  1.20000000E+02  7.00000000E+01  0.00000000E+00
  1.30000000E+02  7.00000000E+01  0.00000000E+00
  1.40000000E+02  7.00000000E+01  0.00000000E+00
  1.50000000E+02  7.00000000E+01  0.00000000E+00
  1.60000000E+02  7.00000000E+01  0.00000000E+00
  1.70000000E+02  7.00000000E+01  0.00000000E+00
  1.80000000E+02  7.00000000E+01  0.00000000E+00
  1.90000000E+02  7.00000000E+01  0.00000000E+00
  2.00000000E+02  7.00000000E+01  0.00000000E+00
  2.10000000E+02  7.00000000E+01  0.00000000E+00
  2.20000000E+02  7.00000000E+01  0.00000000E+00
  2.30000000E+02  7.00000000E+01  0.00000000E+00
  2.40000000E+02  7.00000000E+01  0.00000000E+00
  2.50000000E+02  7.00000000E+01  0.00000000E+00
  2.60000000E+02  7.00000000E+01  0.00000000E+00
  2.70000000E+02  7.00000000E+01  0.00000000E+00
  2.80000000E+02  7.00000000E+01  0.00000000E+00
  2.90000000E+02  7.00000000E+01  0.00000000E+00
  3.00000000E+02  7.00000000E+01  0.00000000E+00
  3.10000000E+02  7.00000000E+01  0.00000000E+00
  3.20000000E+02  7.00000000E+01  0.00000000E+00
  3.30000000E+02  7.00000000E+01  0.00000000E+00
  3.40000000E+02  7.00000000E+01  0.00000000E+00
  3.50000000E+02  7.00000000E+01  0.00000000E+00
  3.60000000E+02  7.00000000E+01  0.00000000E+00
  3.70000000E+02  7.00000000E+01  0.00000000E+00
  3.80000000E+02  7.00000000E+01  0.00000000E+00
  3.90000000E+02  7.00000000E+01  0.00000000E+00
  4.00000000E+02  7.00000000E+01  0.00000000E+00
  4.10000000E+02  7.00000000E+01  0.00000000E+00
  4.20000000E+02  7.00000000E+01  0.00000000E+00
  4.30000000E+02  7.00000000E+01  0.00000000E+00
  4.40000000E+02  7.00000000E+01  0.00000000E+00
  4.50000000E+02  7.00000000E+01  0.00000000E+00
  4.60000000E+02  7.00000000E+01  0.00000000E+00
  4.70000000E+02  7.00000000E+01  0.00000000E+00
  4.80000000E+02  7.00000000E+01  0.00000000E+00
  4.90000000E+02  7.00000000E+01  0.00000000E+00
  5.00000000E+02  7.00000000E+01  0.00000000E+00
  5.10000000E+02  7.00000000E+01  0.00000000E+00
  5.20000000E+02  7.00000000E+01  0.00000000E+00
  5.30000000E+02  7.00000000E+01  0.00000000E+00
  5.40000000E+02  7.00000000E+01  0.00000000E+00
  5.50000000E+02  7.00000000E+01  0.00000000E+00
  5.60000000E+02  7.00000000E+01  0.00000000E+00
  5.70000000E+02  7.00000000E+01  0.00000000E+00
  5.80000000E+02  7.00000000E+01  0.00000000E+00
  5.90000000E+02  7.00000000E+01  0.00000000E+00
  6.00000000E+02  7.00000000E+01  0.00000000E+00
  6.10000000E+02  7.00000000E+01  0.00000000E+00
  6.20000000E+02  7.00000000E+01  0.00000000E+00
  6.30000000E+02  7.00000000E+01  0.00000000E+00
  6.40000000E+02  7.00000000E+01  0.00000000E+00
  6.50000000E+02  7.00000000E+01  0.00000000E+00
  6.60000000E+02  7.00000000E+01  0.00000000E+00
  6.70000000E+02  7.00000000E+01  0.00000000E+00
  6.80000000E+02  7.00000000E+01  0.00000000E+00
  6.90000000E+02  7.00000000E+01  0.00000000E+00
  7.00000000E+02  7.00000000E+01  0.00000000E+00
  7.10000000E+02  7.00000000E+01  0.00000000E+00
  7.20000000E+02  7.00000000E+01  0.00000000E+00
  7.30000000E+02  7.00000000E+01  0.00000000E+00
  7.40000000E+02  7.00000000E+01  0.00000000E+00
  7.50000000E+02  7.00000000E+01  0.00000000E+00
  7.60000000E+02  7.00000000E+01  0.00000000E+00
  7.70000000E+02  7.00000000E+01  0.00000000E+00
  7.80000000E+02  7.00000000E+01  0.00000000E+00
  7.90000000E+02  7.00000000E+01  0.00000000E+00
  8.00000000E+02  7.00000000E+01  0.00000000E+00
  8.10000000E+02  7.00000000E+01  0.00000000E+00
  8.20000000E+02  7.00000000E+01  0.00000000E+00
  8.30000000E+02  7.00000000E+01  0.00000000E+00
  8.40000000E+02  7.00000000E+01  0.00000000E+00
  8.50000000E+02  7.00000000E+01  0.00000000E+00
  8.60000000E+02  7.00000000E+01  0.00000000E+00
  8.70000000E+02  7.00000000E+01  0.00000000E+00
  8.80000000E+02  7.00000000E+01  0.00000000E+00
  8.90000000E+02  7.00000000E+01  0.00000000E+00
  9.00000000E+02  7.00000000E+01  0.00000000E+00
  9.10000000E+02  7.00000000E+01  0.00000000E+00
  9.20000000E+02  7.00000000E+01  0.00000000E+00
  9.30000000E+02  7.00000000E+01  0.00000000E+00
  9.40000000E+02  7.00000000E+01  0.00000000E+00
  9.50000000E+02  7.00000000E+01  0.00000000E+00
  9.60000000E+02  7.00000000E+01  0.00000000E+00
  9.70000000E+02  7.00000000E+01  0.00000000E+00
  9.80000000E+02  7.00000000E+01  0.00000000E+00
  9.90000000E+02  7.00000000E+01  0.00000000E+00
  1.00000000E+03  7.00000000E+01  0.00000000E+00
  0.00000000E+00  7.20000000E+01  0.00000000E+00
  1.00000000E+01  7.20000000E+01  0.00000000E+00
  2.00000000E+01  7.20000000E+01  0.00000000E+00
  3.00000000E+01  7.20000000E+01  0.00000000E+00
  4.00000000E+01  7.20000000E+01  0.00000000E+00
  5.00000000E+01  7.20000000E+01  0.00000000E+00
  6.00000000E+01  7.20000000E+01  0.00000000E+00
  7.00000000E+01  7.20000000E+01  0.00000000E+00
  8.00000000E+01  7.20000000E+01  0.00000000E+00
  9.00000000E+01  7.20000000E+01  0.00000000E+00
  1.00000000E+02  7.20000000E+01  0.00000000E+00
  1.10000000E+02  7.20000000E+01  0.00000000E+00
  1.20000000E+02  7.20000000E+01  0.00000000E+00
  1.30000000E+02  7.20000000E+01  0.00000000E+00
  1.40000000E+02  7.20000000E+01  0.00000000E+00
  1.50000000E+02  7.20000000E+01  0.00000000E+00
  1.60000000E+02  7.20000000E+01  0.00000000E+00
  1.70000000E+02  7.20000000E+01  0.00000000E+00
  1.80000000E+02  7.20000000E+01  0.00000000E+00
  1.90000000E+02  7.20000000E+01  0.00000000E+00
  2.00000000E+02  7.20000000E+01  0.00000000E+00
  2.10000000E+02  7.20000000E+01  0.00000000E+00
  2.20000000E+02  7.20000000E+01  0.00000000E+00
  2.30000000E+02  7.20000000E+01  0.00000000E+00
  2.40000000E+02  7.20000000E+01  0.00000000E+00
  2.50000000E+02  7.20000000E+01  0.00000000E+00
  2.60000000E+02  7.20000000E+01  0.00000000E+00
  2.70000000E+02  7.20000000E+01  0.00000000E+00
  2.80000000E+02  7.20000000E+01  0.00000000E+00
  2.90000000E+02  7.20000000E+01  0.00000000E+00
  3.00000000E+02  7.20000000E+01  0.00000000E+00
  3.10000000E+02  7.20000000E+01  0.00000000E+00
  3.20000000E+02  7.20000000E+01  0.00000000E+00
  3.30000000E+02  7.20000000E+01  0.00000000E+00
  3.40000000E+02  7.20000000E+01  0.00000000E+00
  3.50000000E+02  7.20000000E+01  0.00000000E+00
  3.60000000E+02  7.20000000E+01  0.00000000E+00
  3.70000000E+02  7.20000000E+01  0.00000000E+00
  3.80000000E+02  7.20000000E+01  0.00000000E+00
  3.90000000E+02  7.20000000E+01  0.00000000E+00
  4.00000000E+02  7.20000000E+01  0.00000000E+00
  4.10000000E+02  7.20000000E+01  0.00000000E+00
  4.20000000E+02  7.20000000E+01  0.00000000E+00
  4.30000000E+02  7.20000000E+01  0.00000000E+00
  4.40000000E+02  7.20000000E+01  0.00000000E+00
  4.50000000E+02  7.20000000E+01  0.00000000E+00
  4.60000000E+02  7.20000000E+01  0.00000000E+00
  4.70000000E+02  7.20000000E+01  0.00000000E+00
  4.80000000E+02  7.20000000E+01  0.00000000E+00
  4.90000000E+02  7.20000000E+01  0.00000000E+00
  5.00000000E+02  7.20000000E+01  0.00000000E+00
  5.10000000E+02  7.20000000E+01  0.00000000E+00
  5.20000000E+02  7.20000000E+01  0.00000000E+00
  5.30000000E+02  7.20000000E+01  0.00000000E+00
  5.40000000E+02  7.20000000E+01  0.00000000E+00
  5.50000000E+02  7.20000000E+01  0.00000000E+00
  5.60000000E+02  7.20000000E+01  0.00000000E+00
  5.70000000E+02  7.20000000E+01  0.00000000E+00
  5.80000000E+02  7.20000000E+01  0.00000000E+00
  5.90000000E+02  7.20000000E+01  0.00000000E+00
  6.00000000E+02  7.20000000E+01  0.00000000E+00
  6.10000000E+02  7.20000000E+01  0.00000000E+00
  6.20000000E+02  7.20000000E+01  0.00000000E+00
  6.30000000E+02  7.20000000E+01  0.00000000E+00
  6.40000000E+02  7.20000000E+01  0.00000000E+00
  6.50000000E+02  7.20000000E+01  0.00000000E+00
  6.60000000E+02  7.20000000E+01  0.00000000E+00
  6.70000000E+02  7.20000000E+01  0.00000000E+00
  6.80000000E+02  7.20000000E+01  0.00000000E+00
  6.90000000E+02  7.20000000E+01  0.00000000E+00
  7.00000000E+02  7.20000000E+01  0.00000000E+00
  7.10000000E+02  7.20000000E+01  0.00000000E+00
  7.20000000E+02  7.20000000E+01  0.00000000E+00
  7.30000000E+02  7.20000000E+01  0.00000000E+00
  7.40000000E+02  7.20000000E+01  0.00000000E+00
  7.50000000E+02  7.20000000E+01  0.00000000E+00
  7.60000000E+02  7.20000000E+01  0.00000000E+00
  7.70000000E+02  7.20000000E+01  0.00000000E+00
  7.80000000E+02  7.20000000E+01  0.00000000E+00
  7.90000000E+02  7.20000000E+01  0.00000000E+00
  8.00000000E+02  7.20000000E+01  0.00000000E+00
  8.10000000E+02  7.20000000E+01  0.00000000E+00
  8.20000000E+02  7.20000000E+01  0.00000000E+00
  8.30000000E+02  7.20000000E+01  0.00000000E+00
  8.40000000E+02  7.20000000E+01  0.00000000E+00
  8.50000000E+02  7.20000000E+01  0.00000000E+00
  8.60000000E+02  7.20000000E+01  0.00000000E+00
  8.70000000E+02  7.20000000E+01  0.00000000E+00
  8.80000000E+02  7.20000000E+01  0.00000000E+00
  8.90000000E+02  7.20000000E+01  0.00000000E+00
  9.00000000E+02  7.20000000E+01  0.00000000E+00
  9.10000000E+02  7.20000000E+01  0.00000000E+00
  9.20000000E+02  7.20000000E+01  0.00000000E+00
  9.30000000E+02  7.20000000E+01  0.00000000E+00
  9.40000000E+02  7.20000000E+01  0.00000000E+00
  9.50000000E+02  7.20000000E+01  0.00000000E+00
  9.60000000E+02  7.20000000E+01  0.00000000E+00
  9.70000000E+02  7.20000000E+01  0.00000000E+00
  9.80000000E+02  7.20000000E+01  0.00000000E+00
  9.90000000E+02  7.20000000E+01  0.00000000E+00
  1.00000000E+03  7.20000000E+01  0.00000000E+00
  0.00000000E+00  7.40000000E+01  0.00000000E+00
  1.00000000E+01  7.40000000E+01  0.00000000E+00
  2.00000000E+01  7.40000000E+01  0.00000000E+00
  3.00000000E+01  7.40000000E+01  0.00000000E+00
  4.00000000E+01  7.40000000E+01  0.00000000E+00
  5.00000000E+01  7.40000000E+01  0.00000000E+00
  6.00000000E+01  7.40000000E+01  0.00000000E+00
  7.00000000E+01  7.40000000E+01  0.00000000E+00
  8.00000000E+01  7.40000000E+01  0.00000000E+00
  9.00000000E+01  7.40000000E+01  0.00000000E+00
  1.00000000E+02  7.40000000E+01  0.00000000E+00
  1.10000000E+02  7.40000000E+01  0.00000000E+00
  1.20000000E+02  7.40000000E+01  0.00000000E+00
  1.30000000E+02  7.40000000E+01  0.00000000E+00
  1.40000000E+02  7.40000000E+01  0.00000000E+00
  1.50000000E+02  7.40000000E+01  0.00000000E+00
  1.60000000E+02  7.40000000E+01  0.00000000E+00
  1.70000000E+02  7.40000000E+01  0.00000000E+00
  1.80000000E+02  7.40000000E+01  0.00000000E+00
  1.90000000E+02  7.40000000E+01  0.00000000E+00
  2.00000000E+02  7.40000000E+01  0.00000000E+00
  2.10000000E+02  7.40000000E+01  0.00000000E+00
  2.20000000E+02  7.40000000E+01  0.00000000E+00
  2.30000000E+02  7.40000000E+01  0.00000000E+00
  2.40000000E+02  7.40000000E+01  0.00000000E+00
  2.50000000E+02  7.40000000E+01  0.00000000E+00
  2.60000000E+02  7.40000000E+01  0.00000000E+00
  2.70000000E+02  7.40000000E+01  0.00000000E+00
  2.80000000E+02  7.40000000E+01  0.00000000E+00
  2.90000000E+02  7.40000000E+01  0.00000000E+00
  3.00000000E+02  7.40000000E+01  0.00000000E+00
  3.10000000E+02  7.40000000E+01  0.00000000E+00
  3.20000000E+02  7.40000000E+01  0.00000000E+00
  3.30000000E+02  7.40000000E+01  0.00000000E+00
  3.40000000E+02  7.40000000E+01  0.00000000E+00
  3.50000000E+02  7.40000000E+01  0.00000000E+00
  3.60000000E+02  7.40000000E+01  0.00000000E+00
  3.70000000E+02  7.40000000E+01  0.00000000E+00
  3.80000000E+02  7.40000000E+01  0.00000000E+00
  3.90000000E+02  7.40000000E+01  0.00000000E+00
  4.00000000E+02  7.40000000E+01  0.00000000E+00
  4.10000000E+02  7.40000000E+01  0.00000000E+00
  4.20000000E+02  7.40000000E+01  0.00000000E+00
  4.30000000E+02  7.40000000E+01  0.00000000E+00
  4.40000000E+02  7.40000000E+01  0.00000000E+00
  4.50000000E+02  7.40000000E+01  0.00000000E+00
  4.60000000E+02  7.40000000E+01  0.00000000E+00
  4.70000000E+02  7.40000000E+01  0.00000000E+00
  4.80000000E+02  7.40000000E+01  0.00000000E+00
  4.90000000E+02  7.40000000E+01  0.00000000E+00
  5.00000000E+02  7.40000000E+01  0.00000000E+00
  5.10000000E+02  7.40000000E+01  0.00000000E+00
  5.20000000E+02  7.40000000E+01  0.00000000E+00
  5.30000000E+02  7.40000000E+01  0.00000000E+00
  5.40000000E+02  7.40000000E+01  0.00000000E+00
  5.50000000E+02  7.40000000E+01  0.00000000E+00
  5.60000000E+02  7.40000000E+01  0.00000000E+00
  5.70000000E+02  7.40000000E+01  0.00000000E+00
  5.80000000E+02  7.40000000E+01  0.00000000E+00
  5.90000000E+02  7.40000000E+01  0.00000000E+00
  6.00000000E+02  7.40000000E+01  0.00000000E+00
  6.10000000E+02  7.40000000E+01  0.00000000E+00
  6.20000000E+02  7.40000000E+01  0.00000000E+00
  6.30000000E+02  7.40000000E+01  0.00000000E+00
  6.40000000E+02  7.40000000E+01  0.00000000E+00
  6.50000000E+02  7.40000000E+01  0.00000000E+00
  6.60000000E+02  7.40000000E+01  0.00000000E+00
  6.70000000E+02  7.40000000E+01  0.00000000E+00
  6.80000000E+02  7.40000000E+01  0.00000000E+00
  6.90000000E+02  7.40000000E+01  0.00000000E+00
  7.00000000E+02  7.40000000E+01  0.00000000E+00
  7.10000000E+02  7.40000000E+01  0.00000000E+00
  7.20000000E+02  7.40000000E+01  0.00000000E+00
  7.30000000E+02  7.40000000E+01  0.00000000E+00
  7.40000000E+02  7.40000000E+01  0.00000000E+00
  7.50000000E+02  7.40000000E+01  0.00000000E+00
  7.60000000E+02  7.40000000E+01  0.00000000E+00
  7.70000000E+02  7.40000000E+01  0.00000000E+00
  7.80000000E+02  7.40000000E+01  0.00000000E+00
  7.90000000E+02  7.40000000E+01  0.00000000E+00
  8.00000000E+02  7.40000000E+01  0.00000000E+00
  8.10000000E+02  7.40000000E+01  0.00000000E+00
  8.20000000E+02  7.40000000E+01  0.00000000E+00
  8.30000000E+02  7.40000000E+01  0.00000000E+00
  8.40000000E+02  7.40000000E+01  0.00000000E+00
  8.50000000E+02  7.40000000E+01  0.00000000E+00
  8.60000000E+02  7.40000000E+01  0.00000000E+00
  8.70000000E+02  7.40000000E+01  0.00000000E+00
  8.80000000E+02  7.40000000E+01  0.00000000E+00
  8.90000000E+02  7.40000000E+01  0.00000000E+00
  9.00000000E+02  7.40000000E+01  0.00000000E+00
  9.10000000E+02  7.40000000E+01  0.00000000E+00
  9.20000000E+02  7.40000000E+01  0.00000000E+00
  9.30000000E+02  7.40000000E+01  0.00000000E+00
  9.40000000E+02  7.40000000E+01  0.00000000E+00
  9.50000000E+02  7.40000000E+01  0.00000000E+00
  9.60000000E+02  7.40000000E+01  0.00000000E+00
  9.70000000E+02  7.40000000E+01  0.00000000E+00
  9.80000000E+02  7.40000000E+01  0.00000000E+00
  9.90000000E+02  7.40000000E+01  0.00000000E+00
  1.00000000E+03  7.40000000E+01  0.00000000E+00
  0.00000000E+00  7.60000000E+01  0.00000000E+00
  1.00000000E+01  7.60000000E+01  0.00000000E+00
  2.00000000E+01  7.60000000E+01  0.00000000E+00
  3.00000000E+01  7.60000000E+01  0.00000000E+00
  4.00000000E+01  7.60000000E+01  0.00000000E+00
  5.00000000E+01  7.60000000E+01  0.00000000E+00
  6.00000000E+01  7.60000000E+01  0.00000000E+00
  7.00000000E+01  7.60000000E+01  0.00000000E+00
  8.00000000E+01  7.60000000E+01  0.00000000E+00
  9.00000000E+01  7.60000000E+01  0.00000000E+00
  1.00000000E+02  7.60000000E+01  0.00000000E+00
  1.10000000E+02  7.60000000E+01  0.00000000E+00
  1.20000000E+02  7.60000000E+01  0.00000000E+00
  1.30000000E+02  7.60000000E+01  0.00000000E+00
  1.40000000E+02  7.60000000E+01  0.00000000E+00
  1.50000000E+02  7.60000000E+01  0.00000000E+00
  1.60000000E+02  7.60000000E+01  0.00000000E+00
  1.70000000E+02  7.60000000E+01  0.00000000E+00
  1.80000000E+02  7.60000000E+01  0.00000000E+00
  1.90000000E+02  7.60000000E+01  0.00000000E+00
  2.00000000E+02  7.60000000E+01  0.00000000E+00
  2.10000000E+02  7.60000000E+01  0.00000000E+00
  2.20000000E+02  7.60000000E+01  0.00000000E+00
  2.30000000E+02  7.60000000E+01  0.00000000E+00
  2.40000000E+02  7.60000000E+01  0.00000000E+00
  2.50000000E+02  7.60000000E+01  0.00000000E+00
  2.60000000E+02  7.60000000E+01  0.00000000E+00
  2.70000000E+02  7.60000000E+01  0.00000000E+00
  2.80000000E+02  7.60000000E+01  0.00000000E+00
  2.90000000E+02  7.60000000E+01  0.00000000E+00
  3.00000000E+02  7.60000000E+01  0.00000000E+00
  3.10000000E+02  7.60000000E+01  0.00000000E+00
  3.20000000E+02  7.60000000E+01  0.00000000E+00
  3.30000000E+02  7.60000000E+01  0.00000000E+00
  3.40000000E+02  7.60000000E+01  0.00000000E+00
  3.50000000E+02  7.60000000E+01  0.00000000E+00
  3.60000000E+02  7.60000000E+01  0.00000000E+00
  3.70000000E+02  7.60000000E+01  0.00000000E+00
  3.80000000E+02  7.60000000E+01  0.00000000E+00
  3.90000000E+02  7.60000000E+01  0.00000000E+00
  4.00000000E+02  7.60000000E+01  0.00000000E+00
  4.10000000E+02  7.60000000E+01  0.00000000E+00
  4.20000000E+02  7.60000000E+01  0.00000000E+00
  4.30000000E+02  7.60000000E+01  0.00000000E+00
  4.40000000E+02  7.60000000E+01  0.00000000E+00
  4.50000000E+02  7.60000000E+01  0.00000000E+00
  4.60000000E+02  7.60000000E+01  0.00000000E+00
  4.70000000E+02  7.60000000E+01  0.00000000E+00
  4.80000000E+02  7.60000000E+01  0.00000000E+00
  4.90000000E+02  7.60000000E+01  0.00000000E+00
  5.00000000E+02  7.60000000E+01  0.00000000E+00
  5.10000000E+02  7.60000000E+01  0.00000000E+00
  5.20000000E+02  7.60000000E+01  0.00000000E+00
  5.30000000E+02  7.60000000E+01  0.00000000E+00
  5.40000000E+02  7.60000000E+01  0.00000000E+00
  5.50000000E+02  7.60000000E+01  0.00000000E+00
  5.60000000E+02  7.60000000E+01  0.00000000E+00
  5.70000000E+02  7.60000000E+01  0.00000000E+00
  5.80000000E+02  7.60000000E+01  0.00000000E+00
  5.90000000E+02  7.60000000E+01  0.00000000E+00
  6.00000000E+02  7.60000000E+01  0.00000000E+00
  6.10000000E+02  7.60000000E+01  0.00000000E+00
  6.20000000E+02  7.60000000E+01  0.00000000E+00
  6.30000000E+02  7.60000000E+01  0.00000000E+00
  6.40000000E+02  7.60000000E+01  0.00000000E+00
  6.50000000E+02  7.60000000E+01  0.00000000E+00
  6.60000000E+02  7.60000000E+01  0.00000000E+00
  6.70000000E+02  7.60000000E+01  0.00000000E+00
  6.80000000E+02  7.60000000E+01  0.00000000E+00
  6.90000000E+02  7.60000000E+01  0.00000000E+00
  7.00000000E+02  7.60000000E+01  0.00000000E+00
  7.10000000E+02  7.60000000E+01  0.00000000E+00
  7.20000000E+02  7.60000000E+01  0.00000000E+00
  7.30000000E+02  7.60000000E+01  0.00000000E+00
  7.40000000E+02  7.60000000E+01  0.00000000E+00
  7.50000000E+02  7.60000000E+01  0.00000000E+00
  7.60000000E+02  7.60000000E+01  0.00000000E+00
  7.70000000E+02  7.60000000E+01  0.00000000E+00
  7.80000000E+02  7.60000000E+01  0.00000000E+00
  7.90000000E+02  7.60000000E+01  0.00000000E+00
  8.00000000E+02  7.60000000E+01  0.00000000E+00
  8.10000000E+02  7.60000000E+01  0.00000000E+00
  8.20000000E+02  7.60000000E+01  0.00000000E+00
  8.30000000E+02  7.60000000E+01  0.00000000E+00
  8.40000000E+02  7.60000000E+01  0.00000000E+00
  8.50000000E+02  7.60000000E+01  0.00000000E+00
  8.60000000E+02  7.60000000E+01  0.00000000E+00
  8.70000000E+02  7.60000000E+01  0.00000000E+00
  8.80000000E+02  7.60000000E+01  0.00000000E+00
  8.90000000E+02  7.60000000E+01  0.00000000E+00
  9.00000000E+02  7.60000000E+01  0.00000000E+00
  9.10000000E+02  7.60000000E+01  0.00000000E+00
  9.20000000E+02  7.60000000E+01  0.00000000E+00
  9.30000000E+02  7.60000000E+01  0.00000000E+00
  9.40000000E+02  7.60000000E+01  0.00000000E+00
  9.50000000E+02  7.60000000E+01  0.00000000E+00
  9.60000000E+02  7.60000000E+01  0.00000000E+00
  9.70000000E+02  7.60000000E+01  0.00000000E+00
  9.80000000E+02  7.60000000E+01  0.00000000E+00
  9.90000000E+02  7.60000000E+01  0.00000000E+00
  1.00000000E+03  7.60000000E+01  0.00000000E+00
  0.00000000E+00  7.80000000E+01  0.00000000E+00
  1.00000000E+01  7.80000000E+01  0.00000000E+00
  2.00000000E+01  7.80000000E+01  0.00000000E+00
  3.00000000E+01  7.80000000E+01  0.00000000E+00
  4.00000000E+01  7.80000000E+01  0.00000000E+00
  5.00000000E+01  7.80000000E+01  0.00000000E+00
  6.00000000E+01  7.80000000E+01  0.00000000E+00
  7.00000000E+01  7.80000000E+01  0.00000000E+00
  8.00000000E+01  7.80000000E+01  0.00000000E+00
  9.00000000E+01  7.80000000E+01  0.00000000E+00
  1.00000000E+02  7.80000000E+01  0.00000000E+00
  1.10000000E+02  7.80000000E+01  0.00000000E+00
  1.20000000E+02  7.80000000E+01  0.00000000E+00
  1.30000000E+02  7.80000000E+01  0.00000000E+00
  1.40000000E+02  7.80000000E+01  0.00000000E+00
  1.50000000E+02  7.80000000E+01  0.00000000E+00
  1.60000000E+02  7.80000000E+01  0.00000000E+00
  1.70000000E+02  7.80000000E+01  0.00000000E+00
  1.80000000E+02  7.80000000E+01  0.00000000E+00
  1.90000000E+02  7.80000000E+01  0.00000000E+00
  2.00000000E+02  7.80000000E+01  0.00000000E+00
  2.10000000E+02  7.80000000E+01  0.00000000E+00
  2.20000000E+02  7.80000000E+01  0.00000000E+00
  2.30000000E+02  7.80000000E+01  0.00000000E+00
  2.40000000E+02  7.80000000E+01  0.00000000E+00
  2.50000000E+02  7.80000000E+01  0.00000000E+00
  2.60000000E+02  7.80000000E+01  0.00000000E+00
  2.70000000E+02  7.80000000E+01  0.00000000E+00
  2.80000000E+02  7.80000000E+01  0.00000000E+00
  2.90000000E+02  7.80000000E+01  0.00000000E+00
  3.00000000E+02  7.80000000E+01  0.00000000E+00
  3.10000000E+02  7.80000000E+01  0.00000000E+00
  3.20000000E+02  7.80000000E+01  0.00000000E+00
  3.30000000E+02  7.80000000E+01  0.00000000E+00
  3.40000000E+02  7.80000000E+01  0.00000000E+00
  3.50000000E+02  7.80000000E+01  0.00000000E+00
  3.60000000E+02  7.80000000E+01  0.00000000E+00
  3.70000000E+02  7.80000000E+01  0.00000000E+00
  3.80000000E+02  7.80000000E+01  0.00000000E+00
  3.90000000E+02  7.80000000E+01  0.00000000E+00
  4.00000000E+02  7.80000000E+01  0.00000000E+00
  4.10000000E+02  7.80000000E+01  0.00000000E+00
  4.20000000E+02  7.80000000E+01  0.00000000E+00
  4.30000000E+02  7.80000000E+01  0.00000000E+00
  4.40000000E+02  7.80000000E+01  0.00000000E+00
  4.50000000E+02  7.80000000E+01  0.00000000E+00
  4.60000000E+02  7.80000000E+01  0.00000000E+00
  4.70000000E+02  7.80000000E+01  0.00000000E+00
  4.80000000E+02  7.80000000E+01  0.00000000E+00
  4.90000000E+02  7.80000000E+01  0.00000000E+00
  5.00000000E+02  7.80000000E+01  0.00000000E+00
  5.10000000E+02  7.80000000E+01  0.00000000E+00
  5.20000000E+02  7.80000000E+01  0.00000000E+00
  5.30000000E+02  7.80000000E+01  0.00000000E+00
  5.40000000E+02  7.80000000E+01  0.00000000E+00
  5.50000000E+02  7.80000000E+01  0.00000000E+00
  5.60000000E+02  7.80000000E+01  0.00000000E+00
  5.70000000E+02  7.80000000E+01  0.00000000E+00
  5.80000000E+02  7.80000000E+01  0.00000000E+00
  5.90000000E+02  7.80000000E+01  0.00000000E+00
  6.00000000E+02  7.80000000E+01  0.00000000E+00
  6.10000000E+02  7.80000000E+01  0.00000000E+00
  6.20000000E+02  7.80000000E+01  0.00000000E+00
  6.30000000E+02  7.80000000E+01  0.00000000E+00
  6.40000000E+02  7.80000000E+01  0.00000000E+00
  6.50000000E+02  7.80000000E+01  0.00000000E+00
  6.60000000E+02  7.80000000E+01  0.00000000E+00
  6.70000000E+02  7.80000000E+01  0.00000000E+00
  6.80000000E+02  7.80000000E+01  0.00000000E+00
  6.90000000E+02  7.80000000E+01  0.00000000E+00
  7.00000000E+02  7.80000000E+01  0.00000000E+00
  7.10000000E+02  7.80000000E+01  0.00000000E+00
  7.20000000E+02  7.80000000E+01  0.00000000E+00
  7.30000000E+02  7.80000000E+01  0.00000000E+00
  7.40000000E+02  7.80000000E+01  0.00000000E+00
  7.50000000E+02  7.80000000E+01  0.00000000E+00
  7.60000000E+02  7.80000000E+01  0.00000000E+00
  7.70000000E+02  7.80000000E+01  0.00000000E+00
  7.80000000E+02  7.80000000E+01  0.00000000E+00
  7.90000000E+02  7.80000000E+01  0.00000000E+00
  8.00000000E+02  7.80000000E+01  0.00000000E+00
  8.10000000E+02  7.80000000E+01  0.00000000E+00
  8.20000000E+02  7.80000000E+01  0.00000000E+00
  8.30000000E+02  7.80000000E+01  0.00000000E+00
  8.40000000E+02  7.80000000E+01  0.00000000E+00
  8.50000000E+02  7.80000000E+01  0.00000000E+00
  8.60000000E+02  7.80000000E+01  0.00000000E+00
  8.70000000E+02  7.80000000E+01  0.00000000E+00
  8.80000000E+02  7.80000000E+01  0.00000000E+00
  8.90000000E+02  7.80000000E+01  0.00000000E+00
  9.00000000E+02  7.80000000E+01  0.00000000E+00
  9.10000000E+02  7.80000000E+01  0.00000000E+00
  9.20000000E+02  7.80000000E+01  0.00000000E+00
  9.30000000E+02  7.80000000E+01  0.00000000E+00
  9.40000000E+02  7.80000000E+01  0.00000000E+00
  9.50000000E+02  7.80000000E+01  0.00000000E+00
  9.60000000E+02  7.80000000E+01  0.00000000E+00
  9.70000000E+02  7.80000000E+01  0.00000000E+00
  9.80000000E+02  7.80000000E+01  0.00000000E+00
  9.90000000E+02  7.80000000E+01  0.00000000E+00
  1.00000000E+03  7.80000000E+01  0.00000000E+00
  0.00000000E+00  8.00000000E+01  0.00000000E+00
  1.00000000E+01  8.00000000E+01  0.00000000E+00
  2.00000000E+01  8.00000000E+01  0.00000000E+00
  3.00000000E+01  8.00000000E+01  0.00000000E+00
  4.00000000E+01  8.00000000E+01  0.00000000E+00
  5.00000000E+01  8.00000000E+01  0.00000000E+00
  6.00000000E+01  8.00000000E+01  0.00000000E+00
  7.00000000E+01  8.00000000E+01  0.00000000E+00
  8.00000000E+01  8.00000000E+01  0.00000000E+00
  9.00000000E+01  8.00000000E+01  0.00000000E+00
  1.00000000E+02  8.00000000E+01  0.00000000E+00
  1.10000000E+02  8.00000000E+01  0.00000000E+00
  1.20000000E+02  8.00000000E+01  0.00000000E+00
  1.30000000E+02  8.00000000E+01  0.00000000E+00
  1.40000000E+02  8.00000000E+01  0.00000000E+00
  1.50000000E+02  8.00000000E+01  0.00000000E+00
  1.60000000E+02  8.00000000E+01  0.00000000E+00
  1.70000000E+02  8.00000000E+01  0.00000000E+00
  1.80000000E+02  8.00000000E+01  0.00000000E+00
  1.90000000E+02  8.00000000E+01  0.00000000E+00
  2.00000000E+02  8.00000000E+01  0.00000000E+00
  2.10000000E+02  8.00000000E+01  0.00000000E+00
  2.20000000E+02  8.00000000E+01  0.00000000E+00
  2.30000000E+02  8.00000000E+01  0.00000000E+00
  2.40000000E+02  8.00000000E+01  0.00000000E+00
  2.50000000E+02  8.00000000E+01  0.00000000E+00
  2.60000000E+02  8.00000000E+01  0.00000000E+00
  2.70000000E+02  8.00000000E+01  0.00000000E+00
  2.80000000E+02  8.00000000E+01  0.00000000E+00
  2.90000000E+02  8.00000000E+01  0.00000000E+00
  3.00000000E+02  8.00000000E+01  0.00000000E+00
  3.10000000E+02  8.00000000E+01  0.00000000E+00
  3.20000000E+02  8.00000000E+01  0.00000000E+00
  3.30000000E+02  8.00000000E+01  0.00000000E+00
  3.40000000E+02  8.00000000E+01  0.00000000E+00
  3.50000000E+02  8.00000000E+01  0.00000000E+00
  3.60000000E+02  8.00000000E+01  0.00000000E+00
  3.70000000E+02  8.00000000E+01  0.00000000E+00
  3.80000000E+02  8.00000000E+01  0.00000000E+00
  3.90000000E+02  8.00000000E+01  0.00000000E+00
  4.00000000E+02  8.00000000E+01  0.00000000E+00
  4.10000000E+02  8.00000000E+01  0.00000000E+00
  4.20000000E+02  8.00000000E+01  0.00000000E+00
  4.30000000E+02  8.00000000E+01  0.00000000E+00
  4.40000000E+02  8.00000000E+01  0.00000000E+00
  4.50000000E+02  8.00000000E+01  0.00000000E+00
  4.60000000E+02  8.00000000E+01  0.00000000E+00
  4.70000000E+02  8.00000000E+01  0.00000000E+00
  4.80000000E+02  8.00000000E+01  0.00000000E+00
  4.90000000E+02  8.00000000E+01  0.00000000E+00
  5.00000000E+02  8.00000000E+01  0.00000000E+00
  5.10000000E+02  8.00000000E+01  0.00000000E+00
  5.20000000E+02  8.00000000E+01  0.00000000E+00
  5.30000000E+02  8.00000000E+01  0.00000000E+00
  5.40000000E+02  8.00000000E+01  0.00000000E+00
  5.50000000E+02  8.00000000E+01  0.00000000E+00
  5.60000000E+02  8.00000000E+01  0.00000000E+00
  5.70000000E+02  8.00000000E+01  0.00000000E+00
  5.80000000E+02  8.00000000E+01  0.00000000E+00
  5.90000000E+02  8.00000000E+01  0.00000000E+00
  6.00000000E+02  8.00000000E+01  0.00000000E+00
  6.10000000E+02  8.00000000E+01  0.00000000E+00
  6.20000000E+02  8.00000000E+01  0.00000000E+00
  6.30000000E+02  8.00000000E+01  0.00000000E+00
  6.40000000E+02  8.00000000E+01  0.00000000E+00
  6.50000000E+02  8.00000000E+01  0.00000000E+00
  6.60000000E+02  8.00000000E+01  0.00000000E+00
  6.70000000E+02  8.00000000E+01  0.00000000E+00
  6.80000000E+02  8.00000000E+01  0.00000000E+00
  6.90000000E+02  8.00000000E+01  0.00000000E+00
  7.00000000E+02  8.00000000E+01  0.00000000E+00
  7.10000000E+02  8.00000000E+01  0.00000000E+00
  7.20000000E+02  8.00000000E+01  0.00000000E+00
  7.30000000E+02  8.00000000E+01  0.00000000E+00
  7.40000000E+02  8.00000000E+01  0.00000000E+00
  7.50000000E+02  8.00000000E+01  0.00000000E+00
  7.60000000E+02  8.00000000E+01  0.00000000E+00
  7.70000000E+02  8.00000000E+01  0.00000000E+00
  7.80000000E+02  8.00000000E+01  0.00000000E+00
  7.90000000E+02  8.00000000E+01  0.00000000E+00
  8.00000000E+02  8.00000000E+01  0.00000000E+00
  8.10000000E+02  8.00000000E+01  0.00000000E+00
  8.20000000E+02  8.00000000E+01  0.00000000E+00
  8.30000000E+02  8.00000000E+01  0.00000000E+00
  8.40000000E+02  8.00000000E+01  0.00000000E+00
  8.50000000E+02  8.00000000E+01  0.00000000E+00
  8.60000000E+02  8.00000000E+01  0.00000000E+00
  8.70000000E+02  8.00000000E+01  0.00000000E+00
  8.80000000E+02  8.00000000E+01  0.00000000E+00
  8.90000000E+02  8.00000000E+01  0.00000000E+00
  9.00000000E+02  8.00000000E+01  0.00000000E+00
  9.10000000E+02  8.00000000E+01  0.00000000E+00
  9.20000000E+02  8.00000000E+01  0.00000000E+00
  9.30000000E+02  8.00000000E+01  0.00000000E+00
  9.40000000E+02  8.00000000E+01  0.00000000E+00
  9.50000000E+02  8.00000000E+01  0.00000000E+00
  9.60000000E+02  8.00000000E+01  0.00000000E+00
  9.70000000E+02  8.00000000E+01  0.00000000E+00
  9.80000000E+02  8.00000000E+01  0.00000000E+00
  9.90000000E+02  8.00000000E+01  0.00000000E+00
  1.00000000E+03  8.00000000E+01  0.00000000E+00
  0.00000000E+00  8.20000000E+01  0.00000000E+00
  1.00000000E+01  8.20000000E+01  0.00000000E+00
  2.00000000E+01  8.20000000E+01  0.00000000E+00
  3.00000000E+01  8.20000000E+01  0.00000000E+00
  4.00000000E+01  8.20000000E+01  0.00000000E+00
  5.00000000E+01  8.20000000E+01  0.00000000E+00
  6.00000000E+01  8.20000000E+01  0.00000000E+00
  7.00000000E+01  8.20000000E+01  0.00000000E+00
  8.00000000E+01  8.20000000E+01  0.00000000E+00
  9.00000000E+01  8.20000000E+01  0.00000000E+00
  1.00000000E+02  8.20000000E+01  0.00000000E+00
  1.10000000E+02  8.20000000E+01  0.00000000E+00
  1.20000000E+02  8.20000000E+01  0.00000000E+00
  1.30000000E+02  8.20000000E+01  0.00000000E+00
  1.40000000E+02  8.20000000E+01  0.00000000E+00
  1.50000000E+02  8.20000000E+01  0.00000000E+00
  1.60000000E+02  8.20000000E+01  0.00000000E+00
  1.70000000E+02  8.20000000E+01  0.00000000E+00
  1.80000000E+02  8.20000000E+01  0.00000000E+00
  1.90000000E+02  8.20000000E+01  0.00000000E+00
  2.00000000E+02  8.20000000E+01  0.00000000E+00
  2.10000000E+02  8.20000000E+01  0.00000000E+00
  2.20000000E+02  8.20000000E+01  0.00000000E+00
  2.30000000E+02  8.20000000E+01  0.00000000E+00
  2.40000000E+02  8.20000000E+01  0.00000000E+00
  2.50000000E+02  8.20000000E+01  0.00000000E+00
  2.60000000E+02  8.20000000E+01  0.00000000E+00
  2.70000000E+02  8.20000000E+01  0.00000000E+00
  2.80000000E+02  8.20000000E+01  0.00000000E+00
  2.90000000E+02  8.20000000E+01  0.00000000E+00
  3.00000000E+02  8.20000000E+01  0.00000000E+00
  3.10000000E+02  8.20000000E+01  0.00000000E+00
  3.20000000E+02  8.20000000E+01  0.00000000E+00
  3.30000000E+02  8.20000000E+01  0.00000000E+00
  3.40000000E+02  8.20000000E+01  0.00000000E+00
  3.50000000E+02  8.20000000E+01  0.00000000E+00
  3.60000000E+02  8.20000000E+01  0.00000000E+00
  3.70000000E+02  8.20000000E+01  0.00000000E+00
  3.80000000E+02  8.20000000E+01  0.00000000E+00
  3.90000000E+02  8.20000000E+01  0.00000000E+00
  4.00000000E+02  8.20000000E+01  0.00000000E+00
  4.10000000E+02  8.20000000E+01  0.00000000E+00
  4.20000000E+02  8.20000000E+01  0.00000000E+00
  4.30000000E+02  8.20000000E+01  0.00000000E+00
  4.40000000E+02  8.20000000E+01  0.00000000E+00
  4.50000000E+02  8.20000000E+01  0.00000000E+00
  4.60000000E+02  8.20000000E+01  0.00000000E+00
  4.70000000E+02  8.20000000E+01  0.00000000E+00
  4.80000000E+02  8.20000000E+01  0.00000000E+00
  4.90000000E+02  8.20000000E+01  0.00000000E+00
  5.00000000E+02  8.20000000E+01  0.00000000E+00
  5.10000000E+02  8.20000000E+01  0.00000000E+00
  5.20000000E+02  8.20000000E+01  0.00000000E+00
  5.30000000E+02  8.20000000E+01  0.00000000E+00
  5.40000000E+02  8.20000000E+01  0.00000000E+00
  5.50000000E+02  8.20000000E+01  0.00000000E+00
  5.60000000E+02  8.20000000E+01  0.00000000E+00
  5.70000000E+02  8.20000000E+01  0.00000000E+00
  5.80000000E+02  8.20000000E+01  0.00000000E+00
  5.90000000E+02  8.20000000E+01  0.00000000E+00
  6.00000000E+02  8.20000000E+01  0.00000000E+00
  6.10000000E+02  8.20000000E+01  0.00000000E+00
  6.20000000E+02  8.20000000E+01  0.00000000E+00
  6.30000000E+02  8.20000000E+01  0.00000000E+00
  6.40000000E+02  8.20000000E+01  0.00000000E+00
  6.50000000E+02  8.20000000E+01  0.00000000E+00
  6.60000000E+02  8.20000000E+01  0.00000000E+00
  6.70000000E+02  8.20000000E+01  0.00000000E+00
  6.80000000E+02  8.20000000E+01  0.00000000E+00
  6.90000000E+02  8.20000000E+01  0.00000000E+00
  7.00000000E+02  8.20000000E+01  0.00000000E+00
  7.10000000E+02  8.20000000E+01  0.00000000E+00
  7.20000000E+02  8.20000000E+01  0.00000000E+00
  7.30000000E+02  8.20000000E+01  0.00000000E+00
  7.40000000E+02  8.20000000E+01  0.00000000E+00
  7.50000000E+02  8.20000000E+01  0.00000000E+00
  7.60000000E+02  8.20000000E+01  0.00000000E+00
  7.70000000E+02  8.20000000E+01  0.00000000E+00
  7.80000000E+02  8.20000000E+01  0.00000000E+00
  7.90000000E+02  8.20000000E+01  0.00000000E+00
  8.00000000E+02  8.20000000E+01  0.00000000E+00
  8.10000000E+02  8.20000000E+01  0.00000000E+00
  8.20000000E+02  8.20000000E+01  0.00000000E+00
  8.30000000E+02  8.20000000E+01  0.00000000E+00
  8.40000000E+02  8.20000000E+01  0.00000000E+00
  8.50000000E+02  8.20000000E+01  0.00000000E+00
  8.60000000E+02  8.20000000E+01  0.00000000E+00
  8.70000000E+02  8.20000000E+01  0.00000000E+00
  8.80000000E+02  8.20000000E+01  0.00000000E+00
  8.90000000E+02  8.20000000E+01  0.00000000E+00
  9.00000000E+02  8.20000000E+01  0.00000000E+00
  9.10000000E+02  8.20000000E+01  0.00000000E+00
  9.20000000E+02  8.20000000E+01  0.00000000E+00
  9.30000000E+02  8.20000000E+01  0.00000000E+00
  9.40000000E+02  8.20000000E+01  0.00000000E+00
  9.50000000E+02  8.20000000E+01  0.00000000E+00
  9.60000000E+02  8.20000000E+01  0.00000000E+00
  9.70000000E+02  8.20000000E+01  0.00000000E+00
  9.80000000E+02  8.20000000E+01  0.00000000E+00
  9.90000000E+02  8.20000000E+01  0.00000000E+00
  1.00000000E+03  8.20000000E+01  0.00000000E+00
  0.00000000E+00  8.40000000E+01  0.00000000E+00
  1.00000000E+01  8.40000000E+01  0.00000000E+00
  2.00000000E+01  8.40000000E+01  0.00000000E+00
  3.00000000E+01  8.40000000E+01  0.00000000E+00
  4.00000000E+01  8.40000000E+01  0.00000000E+00
  5.00000000E+01  8.40000000E+01  0.00000000E+00
  6.00000000E+01  8.40000000E+01  0.00000000E+00
  7.00000000E+01  8.40000000E+01  0.00000000E+00
  8.00000000E+01  8.40000000E+01  0.00000000E+00
  9.00000000E+01  8.40000000E+01  0.00000000E+00
  1.00000000E+02  8.40000000E+01  0.00000000E+00
  1.10000000E+02  8.40000000E+01  0.00000000E+00
  1.20000000E+02  8.40000000E+01  0.00000000E+00
  1.30000000E+02  8.40000000E+01  0.00000000E+00
  1.40000000E+02  8.40000000E+01  0.00000000E+00
  1.50000000E+02  8.40000000E+01  0.00000000E+00
  1.60000000E+02  8.40000000E+01  0.00000000E+00
  1.70000000E+02  8.40000000E+01  0.00000000E+00
  1.80000000E+02  8.40000000E+01  0.00000000E+00
  1.90000000E+02  8.40000000E+01  0.00000000E+00
  2.00000000E+02  8.40000000E+01  0.00000000E+00
  2.10000000E+02  8.40000000E+01  0.00000000E+00
  2.20000000E+02  8.40000000E+01  0.00000000E+00
  2.30000000E+02  8.40000000E+01  0.00000000E+00
  2.40000000E+02  8.40000000E+01  0.00000000E+00
  2.50000000E+02  8.40000000E+01  0.00000000E+00
  2.60000000E+02  8.40000000E+01  0.00000000E+00
  2.70000000E+02  8.40000000E+01  0.00000000E+00
  2.80000000E+02  8.40000000E+01  0.00000000E+00
  2.90000000E+02  8.40000000E+01  0.00000000E+00
  3.00000000E+02  8.40000000E+01  0.00000000E+00
  3.10000000E+02  8.40000000E+01  0.00000000E+00
  3.20000000E+02  8.40000000E+01  0.00000000E+00
  3.30000000E+02  8.40000000E+01  0.00000000E+00
  3.40000000E+02  8.40000000E+01  0.00000000E+00
  3.50000000E+02  8.40000000E+01  0.00000000E+00
  3.60000000E+02  8.40000000E+01  0.00000000E+00
  3.70000000E+02  8.40000000E+01  0.00000000E+00
  3.80000000E+02  8.40000000E+01  0.00000000E+00
  3.90000000E+02  8.40000000E+01  0.00000000E+00
  4.00000000E+02  8.40000000E+01  0.00000000E+00
  4.10000000E+02  8.40000000E+01  0.00000000E+00
  4.20000000E+02  8.40000000E+01  0.00000000E+00
  4.30000000E+02  8.40000000E+01  0.00000000E+00
  4.40000000E+02  8.40000000E+01  0.00000000E+00
  4.50000000E+02  8.40000000E+01  0.00000000E+00
  4.60000000E+02  8.40000000E+01  0.00000000E+00
  4.70000000E+02  8.40000000E+01  0.00000000E+00
  4.80000000E+02  8.40000000E+01  0.00000000E+00
  4.90000000E+02  8.40000000E+01  0.00000000E+00
  5.00000000E+02  8.40000000E+01  0.00000000E+00
  5.10000000E+02  8.40000000E+01  0.00000000E+00
  5.20000000E+02  8.40000000E+01  0.00000000E+00
  5.30000000E+02  8.40000000E+01  0.00000000E+00
  5.40000000E+02  8.40000000E+01  0.00000000E+00
  5.50000000E+02  8.40000000E+01  0.00000000E+00
  5.60000000E+02  8.40000000E+01  0.00000000E+00
  5.70000000E+02  8.40000000E+01  0.00000000E+00
  5.80000000E+02  8.40000000E+01  0.00000000E+00
  5.90000000E+02  8.40000000E+01  0.00000000E+00
  6.00000000E+02  8.40000000E+01  0.00000000E+00
  6.10000000E+02  8.40000000E+01  0.00000000E+00
  6.20000000E+02  8.40000000E+01  0.00000000E+00
  6.30000000E+02  8.40000000E+01  0.00000000E+00
  6.40000000E+02  8.40000000E+01  0.00000000E+00
  6.50000000E+02  8.40000000E+01  0.00000000E+00
  6.60000000E+02  8.40000000E+01  0.00000000E+00
  6.70000000E+02  8.40000000E+01  0.00000000E+00
  6.80000000E+02  8.40000000E+01  0.00000000E+00
  6.90000000E+02  8.40000000E+01  0.00000000E+00
  7.00000000E+02  8.40000000E+01  0.00000000E+00
  7.10000000E+02  8.40000000E+01  0.00000000E+00
  7.20000000E+02  8.40000000E+01  0.00000000E+00
  7.30000000E+02  8.40000000E+01  0.00000000E+00
  7.40000000E+02  8.40000000E+01  0.00000000E+00
  7.50000000E+02  8.40000000E+01  0.00000000E+00
  7.60000000E+02  8.40000000E+01  0.00000000E+00
  7.70000000E+02  8.40000000E+01  0.00000000E+00
  7.80000000E+02  8.40000000E+01  0.00000000E+00
  7.90000000E+02  8.40000000E+01  0.00000000E+00
  8.00000000E+02  8.40000000E+01  0.00000000E+00
  8.10000000E+02  8.40000000E+01  0.00000000E+00
  8.20000000E+02  8.40000000E+01  0.00000000E+00
  8.30000000E+02  8.40000000E+01  0.00000000E+00
  8.40000000E+02  8.40000000E+01  0.00000000E+00
  8.50000000E+02  8.40000000E+01  0.00000000E+00
  8.60000000E+02  8.40000000E+01  0.00000000E+00
  8.70000000E+02  8.40000000E+01  0.00000000E+00
  8.80000000E+02  8.40000000E+01  0.00000000E+00
  8.90000000E+02  8.40000000E+01  0.00000000E+00
  9.00000000E+02  8.40000000E+01  0.00000000E+00
  9.10000000E+02  8.40000000E+01  0.00000000E+00
  9.20000000E+02  8.40000000E+01  0.00000000E+00
  9.30000000E+02  8.40000000E+01  0.00000000E+00
  9.40000000E+02  8.40000000E+01  0.00000000E+00
  9.50000000E+02  8.40000000E+01  0.00000000E+00
  9.60000000E+02  8.40000000E+01  0.00000000E+00
  9.70000000E+02  8.40000000E+01  0.00000000E+00
  9.80000000E+02  8.40000000E+01  0.00000000E+00
  9.90000000E+02  8.40000000E+01  0.00000000E+00
  1.00000000E+03  8.40000000E+01  0.00000000E+00
  0.00000000E+00  8.60000000E+01  0.00000000E+00
  1.00000000E+01  8.60000000E+01  0.00000000E+00
  2.00000000E+01  8.60000000E+01  0.00000000E+00
  3.00000000E+01  8.60000000E+01  0.00000000E+00
  4.00000000E+01  8.60000000E+01  0.00000000E+00
  5.00000000E+01  8.60000000E+01  0.00000000E+00
  6.00000000E+01  8.60000000E+01  0.00000000E+00
  7.00000000E+01  8.60000000E+01  0.00000000E+00
  8.00000000E+01  8.60000000E+01  0.00000000E+00
  9.00000000E+01  8.60000000E+01  0.00000000E+00
  1.00000000E+02  8.60000000E+01  0.00000000E+00
  1.10000000E+02  8.60000000E+01  0.00000000E+00
  1.20000000E+02  8.60000000E+01  0.00000000E+00
  1.30000000E+02  8.60000000E+01  0.00000000E+00
  1.40000000E+02  8.60000000E+01  0.00000000E+00
  1.50000000E+02  8.60000000E+01  0.00000000E+00
  1.60000000E+02  8.60000000E+01  0.00000000E+00
  1.70000000E+02  8.60000000E+01  0.00000000E+00
  1.80000000E+02  8.60000000E+01  0.00000000E+00
  1.90000000E+02  8.60000000E+01  0.00000000E+00
  2.00000000E+02  8.60000000E+01  0.00000000E+00
  2.10000000E+02  8.60000000E+01  0.00000000E+00
  2.20000000E+02  8.60000000E+01  0.00000000E+00
  2.30000000E+02  8.60000000E+01  0.00000000E+00
  2.40000000E+02  8.60000000E+01  0.00000000E+00
  2.50000000E+02  8.60000000E+01  0.00000000E+00
  2.60000000E+02  8.60000000E+01  0.00000000E+00
  2.70000000E+02  8.60000000E+01  0.00000000E+00
  2.80000000E+02  8.60000000E+01  0.00000000E+00
  2.90000000E+02  8.60000000E+01  0.00000000E+00
  3.00000000E+02  8.60000000E+01  0.00000000E+00
  3.10000000E+02  8.60000000E+01  0.00000000E+00
  3.20000000E+02  8.60000000E+01  0.00000000E+00
  3.30000000E+02  8.60000000E+01  0.00000000E+00
  3.40000000E+02  8.60000000E+01  0.00000000E+00
  3.50000000E+02  8.60000000E+01  0.00000000E+00
  3.60000000E+02  8.60000000E+01  0.00000000E+00
  3.70000000E+02  8.60000000E+01  0.00000000E+00
  3.80000000E+02  8.60000000E+01  0.00000000E+00
  3.90000000E+02  8.60000000E+01  0.00000000E+00
  4.00000000E+02  8.60000000E+01  0.00000000E+00
  4.10000000E+02  8.60000000E+01  0.00000000E+00
  4.20000000E+02  8.60000000E+01  0.00000000E+00
  4.30000000E+02  8.60000000E+01  0.00000000E+00
  4.40000000E+02  8.60000000E+01  0.00000000E+00
  4.50000000E+02  8.60000000E+01  0.00000000E+00
  4.60000000E+02  8.60000000E+01  0.00000000E+00
  4.70000000E+02  8.60000000E+01  0.00000000E+00
  4.80000000E+02  8.60000000E+01  0.00000000E+00
  4.90000000E+02  8.60000000E+01  0.00000000E+00
  5.00000000E+02  8.60000000E+01  0.00000000E+00
  5.10000000E+02  8.60000000E+01  0.00000000E+00
  5.20000000E+02  8.60000000E+01  0.00000000E+00
  5.30000000E+02  8.60000000E+01  0.00000000E+00
  5.40000000E+02  8.60000000E+01  0.00000000E+00
  5.50000000E+02  8.60000000E+01  0.00000000E+00
  5.60000000E+02  8.60000000E+01  0.00000000E+00
  5.70000000E+02  8.60000000E+01  0.00000000E+00
  5.80000000E+02  8.60000000E+01  0.00000000E+00
  5.90000000E+02  8.60000000E+01  0.00000000E+00
  6.00000000E+02  8.60000000E+01  0.00000000E+00
  6.10000000E+02  8.60000000E+01  0.00000000E+00
  6.20000000E+02  8.60000000E+01  0.00000000E+00
  6.30000000E+02  8.60000000E+01  0.00000000E+00
  6.40000000E+02  8.60000000E+01  0.00000000E+00
  6.50000000E+02  8.60000000E+01  0.00000000E+00
  6.60000000E+02  8.60000000E+01  0.00000000E+00
  6.70000000E+02  8.60000000E+01  0.00000000E+00
  6.80000000E+02  8.60000000E+01  0.00000000E+00
  6.90000000E+02  8.60000000E+01  0.00000000E+00
  7.00000000E+02  8.60000000E+01  0.00000000E+00
  7.10000000E+02  8.60000000E+01  0.00000000E+00
  7.20000000E+02  8.60000000E+01  0.00000000E+00
  7.30000000E+02  8.60000000E+01  0.00000000E+00
  7.40000000E+02  8.60000000E+01  0.00000000E+00
  7.50000000E+02  8.60000000E+01  0.00000000E+00
  7.60000000E+02  8.60000000E+01  0.00000000E+00
  7.70000000E+02  8.60000000E+01  0.00000000E+00
  7.80000000E+02  8.60000000E+01  0.00000000E+00
  7.90000000E+02  8.60000000E+01  0.00000000E+00
  8.00000000E+02  8.60000000E+01  0.00000000E+00
  8.10000000E+02  8.60000000E+01  0.00000000E+00
  8.20000000E+02  8.60000000E+01  0.00000000E+00
  8.30000000E+02  8.60000000E+01  0.00000000E+00
  8.40000000E+02  8.60000000E+01  0.00000000E+00
  8.50000000E+02  8.60000000E+01  0.00000000E+00
  8.60000000E+02  8.60000000E+01  0.00000000E+00
  8.70000000E+02  8.60000000E+01  0.00000000E+00
  8.80000000E+02  8.60000000E+01  0.00000000E+00
  8.90000000E+02  8.60000000E+01  0.00000000E+00
  9.00000000E+02  8.60000000E+01  0.00000000E+00
  9.10000000E+02  8.60000000E+01  0.00000000E+00
  9.20000000E+02  8.60000000E+01  0.00000000E+00
  9.30000000E+02  8.60000000E+01  0.00000000E+00
  9.40000000E+02  8.60000000E+01  0.00000000E+00
  9.50000000E+02  8.60000000E+01  0.00000000E+00
  9.60000000E+02  8.60000000E+01  0.00000000E+00
  9.70000000E+02  8.60000000E+01  0.00000000E+00
  9.80000000E+02  8.60000000E+01  0.00000000E+00
  9.90000000E+02  8.60000000E+01  0.00000000E+00
  1.00000000E+03  8.60000000E+01  0.00000000E+00
  0.00000000E+00  8.80000000E+01  0.00000000E+00
  1.00000000E+01  8.80000000E+01  0.00000000E+00
  2.00000000E+01  8.80000000E+01  0.00000000E+00
  3.00000000E+01  8.80000000E+01  0.00000000E+00
  4.00000000E+01  8.80000000E+01  0.00000000E+00
  5.00000000E+01  8.80000000E+01  0.00000000E+00
  6.00000000E+01  8.80000000E+01  0.00000000E+00
  7.00000000E+01  8.80000000E+01  0.00000000E+00
  8.00000000E+01  8.80000000E+01  0.00000000E+00
  9.00000000E+01  8.80000000E+01  0.00000000E+00
  1.00000000E+02  8.80000000E+01  0.00000000E+00
  1.10000000E+02  8.80000000E+01  0.00000000E+00
  1.20000000E+02  8.80000000E+01  0.00000000E+00
  1.30000000E+02  8.80000000E+01  0.00000000E+00
  1.40000000E+02  8.80000000E+01  0.00000000E+00
  1.50000000E+02  8.80000000E+01  0.00000000E+00
  1.60000000E+02  8.80000000E+01  0.00000000E+00
  1.70000000E+02  8.80000000E+01  0.00000000E+00
  1.80000000E+02  8.80000000E+01  0.00000000E+00
  1.90000000E+02  8.80000000E+01  0.00000000E+00
  2.00000000E+02  8.80000000E+01  0.00000000E+00
  2.10000000E+02  8.80000000E+01  0.00000000E+00
  2.20000000E+02  8.80000000E+01  0.00000000E+00
  2.30000000E+02  8.80000000E+01  0.00000000E+00
  2.40000000E+02  8.80000000E+01  0.00000000E+00
  2.50000000E+02  8.80000000E+01  0.00000000E+00
  2.60000000E+02  8.80000000E+01  0.00000000E+00
  2.70000000E+02  8.80000000E+01  0.00000000E+00
  2.80000000E+02  8.80000000E+01  0.00000000E+00
  2.90000000E+02  8.80000000E+01  0.00000000E+00
  3.00000000E+02  8.80000000E+01  0.00000000E+00
  3.10000000E+02  8.80000000E+01  0.00000000E+00
  3.20000000E+02  8.80000000E+01  0.00000000E+00
  3.30000000E+02  8.80000000E+01  0.00000000E+00
  3.40000000E+02  8.80000000E+01  0.00000000E+00
  3.50000000E+02  8.80000000E+01  0.00000000E+00
  3.60000000E+02  8.80000000E+01  0.00000000E+00
  3.70000000E+02  8.80000000E+01  0.00000000E+00
  3.80000000E+02  8.80000000E+01  0.00000000E+00
  3.90000000E+02  8.80000000E+01  0.00000000E+00
  4.00000000E+02  8.80000000E+01  0.00000000E+00
  4.10000000E+02  8.80000000E+01  0.00000000E+00
  4.20000000E+02  8.80000000E+01  0.00000000E+00
  4.30000000E+02  8.80000000E+01  0.00000000E+00
  4.40000000E+02  8.80000000E+01  0.00000000E+00
  4.50000000E+02  8.80000000E+01  0.00000000E+00
  4.60000000E+02  8.80000000E+01  0.00000000E+00
  4.70000000E+02  8.80000000E+01  0.00000000E+00
  4.80000000E+02  8.80000000E+01  0.00000000E+00
  4.90000000E+02  8.80000000E+01  0.00000000E+00
  5.00000000E+02  8.80000000E+01  0.00000000E+00
  5.10000000E+02  8.80000000E+01  0.00000000E+00
  5.20000000E+02  8.80000000E+01  0.00000000E+00
  5.30000000E+02  8.80000000E+01  0.00000000E+00
  5.40000000E+02  8.80000000E+01  0.00000000E+00
  5.50000000E+02  8.80000000E+01  0.00000000E+00
  5.60000000E+02  8.80000000E+01  0.00000000E+00
  5.70000000E+02  8.80000000E+01  0.00000000E+00
  5.80000000E+02  8.80000000E+01  0.00000000E+00
  5.90000000E+02  8.80000000E+01  0.00000000E+00
  6.00000000E+02  8.80000000E+01  0.00000000E+00
  6.10000000E+02  8.80000000E+01  0.00000000E+00
  6.20000000E+02  8.80000000E+01  0.00000000E+00
  6.30000000E+02  8.80000000E+01  0.00000000E+00
  6.40000000E+02  8.80000000E+01  0.00000000E+00
  6.50000000E+02  8.80000000E+01  0.00000000E+00
  6.60000000E+02  8.80000000E+01  0.00000000E+00
  6.70000000E+02  8.80000000E+01  0.00000000E+00
  6.80000000E+02  8.80000000E+01  0.00000000E+00
  6.90000000E+02  8.80000000E+01  0.00000000E+00
  7.00000000E+02  8.80000000E+01  0.00000000E+00
  7.10000000E+02  8.80000000E+01  0.00000000E+00
  7.20000000E+02  8.80000000E+01  0.00000000E+00
  7.30000000E+02  8.80000000E+01  0.00000000E+00
  7.40000000E+02  8.80000000E+01  0.00000000E+00
  7.50000000E+02  8.80000000E+01  0.00000000E+00
  7.60000000E+02  8.80000000E+01  0.00000000E+00
  7.70000000E+02  8.80000000E+01  0.00000000E+00
  7.80000000E+02  8.80000000E+01  0.00000000E+00
  7.90000000E+02  8.80000000E+01  0.00000000E+00
  8.00000000E+02  8.80000000E+01  0.00000000E+00
  8.10000000E+02  8.80000000E+01  0.00000000E+00
  8.20000000E+02  8.80000000E+01  0.00000000E+00
  8.30000000E+02  8.80000000E+01  0.00000000E+00
  8.40000000E+02  8.80000000E+01  0.00000000E+00
  8.50000000E+02  8.80000000E+01  0.00000000E+00
  8.60000000E+02  8.80000000E+01  0.00000000E+00
  8.70000000E+02  8.80000000E+01  0.00000000E+00
  8.80000000E+02  8.80000000E+01  0.00000000E+00
  8.90000000E+02  8.80000000E+01  0.00000000E+00
  9.00000000E+02  8.80000000E+01  0.00000000E+00
  9.10000000E+02  8.80000000E+01  0.00000000E+00
  9.20000000E+02  8.80000000E+01  0.00000000E+00
  9.30000000E+02  8.80000000E+01  0.00000000E+00
  9.40000000E+02  8.80000000E+01  0.00000000E+00
  9.50000000E+02  8.80000000E+01  0.00000000E+00
  9.60000000E+02  8.80000000E+01  0.00000000E+00
  9.70000000E+02  8.80000000E+01  0.00000000E+00
  9.80000000E+02  8.80000000E+01  0.00000000E+00
  9.90000000E+02  8.80000000E+01  0.00000000E+00
  1.00000000E+03  8.80000000E+01  0.00000000E+00
  0.00000000E+00  9.00000000E+01  0.00000000E+00
  1.00000000E+01  9.00000000E+01  0.00000000E+00
  2.00000000E+01  9.00000000E+01  0.00000000E+00
  3.00000000E+01  9.00000000E+01  0.00000000E+00
  4.00000000E+01  9.00000000E+01  0.00000000E+00
  5.00000000E+01  9.00000000E+01  0.00000000E+00
  6.00000000E+01  9.00000000E+01  0.00000000E+00
  7.00000000E+01  9.00000000E+01  0.00000000E+00
  8.00000000E+01  9.00000000E+01  0.00000000E+00
  9.00000000E+01  9.00000000E+01  0.00000000E+00
  1.00000000E+02  9.00000000E+01  0.00000000E+00
  1.10000000E+02  9.00000000E+01  0.00000000E+00
  1.20000000E+02  9.00000000E+01  0.00000000E+00
  1.30000000E+02  9.00000000E+01  0.00000000E+00
  1.40000000E+02  9.00000000E+01  0.00000000E+00
  1.50000000E+02  9.00000000E+01  0.00000000E+00
  1.60000000E+02  9.00000000E+01  0.00000000E+00
  1.70000000E+02  9.00000000E+01  0.00000000E+00
  1.80000000E+02  9.00000000E+01  0.00000000E+00
  1.90000000E+02  9.00000000E+01  0.00000000E+00
  2.00000000E+02  9.00000000E+01  0.00000000E+00
  2.10000000E+02  9.00000000E+01  0.00000000E+00
  2.20000000E+02  9.00000000E+01  0.00000000E+00
  2.30000000E+02  9.00000000E+01  0.00000000E+00
  2.40000000E+02  9.00000000E+01  0.00000000E+00
  2.50000000E+02  9.00000000E+01  0.00000000E+00
  2.60000000E+02  9.00000000E+01  0.00000000E+00
  2.70000000E+02  9.00000000E+01  0.00000000E+00
  2.80000000E+02  9.00000000E+01  0.00000000E+00
  2.90000000E+02  9.00000000E+01  0.00000000E+00
  3.00000000E+02  9.00000000E+01  0.00000000E+00
  3.10000000E+02  9.00000000E+01  0.00000000E+00
  3.20000000E+02  9.00000000E+01  0.00000000E+00
  3.30000000E+02  9.00000000E+01  0.00000000E+00
  3.40000000E+02  9.00000000E+01  0.00000000E+00
  3.50000000E+02  9.00000000E+01  0.00000000E+00
  3.60000000E+02  9.00000000E+01  0.00000000E+00
  3.70000000E+02  9.00000000E+01  0.00000000E+00
  3.80000000E+02  9.00000000E+01  0.00000000E+00
  3.90000000E+02  9.00000000E+01  0.00000000E+00
  4.00000000E+02  9.00000000E+01  0.00000000E+00
  4.10000000E+02  9.00000000E+01  0.00000000E+00
  4.20000000E+02  9.00000000E+01  0.00000000E+00
  4.30000000E+02  9.00000000E+01  0.00000000E+00
  4.40000000E+02  9.00000000E+01  0.00000000E+00
  4.50000000E+02  9.00000000E+01  0.00000000E+00
  4.60000000E+02  9.00000000E+01  0.00000000E+00
  4.70000000E+02  9.00000000E+01  0.00000000E+00
  4.80000000E+02  9.00000000E+01  0.00000000E+00
  4.90000000E+02  9.00000000E+01  0.00000000E+00
  5.00000000E+02  9.00000000E+01  0.00000000E+00
  5.10000000E+02  9.00000000E+01  0.00000000E+00
  5.20000000E+02  9.00000000E+01  0.00000000E+00
  5.30000000E+02  9.00000000E+01  0.00000000E+00
  5.40000000E+02  9.00000000E+01  0.00000000E+00
  5.50000000E+02  9.00000000E+01  0.00000000E+00
  5.60000000E+02  9.00000000E+01  0.00000000E+00
  5.70000000E+02  9.00000000E+01  0.00000000E+00
  5.80000000E+02  9.00000000E+01  0.00000000E+00
  5.90000000E+02  9.00000000E+01  0.00000000E+00
  6.00000000E+02  9.00000000E+01  0.00000000E+00
  6.10000000E+02  9.00000000E+01  0.00000000E+00
  6.20000000E+02  9.00000000E+01  0.00000000E+00
  6.30000000E+02  9.00000000E+01  0.00000000E+00
  6.40000000E+02  9.00000000E+01  0.00000000E+00
  6.50000000E+02  9.00000000E+01  0.00000000E+00
  6.60000000E+02  9.00000000E+01  0.00000000E+00
  6.70000000E+02  9.00000000E+01  0.00000000E+00
  6.80000000E+02  9.00000000E+01  0.00000000E+00
  6.90000000E+02  9.00000000E+01  0.00000000E+00
  7.00000000E+02  9.00000000E+01  0.00000000E+00
  7.10000000E+02  9.00000000E+01  0.00000000E+00
  7.20000000E+02  9.00000000E+01  0.00000000E+00
  7.30000000E+02  9.00000000E+01  0.00000000E+00
  7.40000000E+02  9.00000000E+01  0.00000000E+00
  7.50000000E+02  9.00000000E+01  0.00000000E+00
  7.60000000E+02  9.00000000E+01  0.00000000E+00
  7.70000000E+02  9.00000000E+01  0.00000000E+00
  7.80000000E+02  9.00000000E+01  0.00000000E+00
  7.90000000E+02  9.00000000E+01  0.00000000E+00
  8.00000000E+02  9.00000000E+01  0.00000000E+00
  8.10000000E+02  9.00000000E+01  0.00000000E+00
  8.20000000E+02  9.00000000E+01  0.00000000E+00
  8.30000000E+02  9.00000000E+01  0.00000000E+00
  8.40000000E+02  9.00000000E+01  0.00000000E+00
  8.50000000E+02  9.00000000E+01  0.00000000E+00
  8.60000000E+02  9.00000000E+01  0.00000000E+00
  8.70000000E+02  9.00000000E+01  0.00000000E+00
  8.80000000E+02  9.00000000E+01  0.00000000E+00
  8.90000000E+02  9.00000000E+01  0.00000000E+00
  9.00000000E+02  9.00000000E+01  0.00000000E+00
  9.10000000E+02  9.00000000E+01  0.00000000E+00
  9.20000000E+02  9.00000000E+01  0.00000000E+00
  9.30000000E+02  9.00000000E+01  0.00000000E+00
  9.40000000E+02  9.00000000E+01  0.00000000E+00
  9.50000000E+02  9.00000000E+01  0.00000000E+00
  9.60000000E+02  9.00000000E+01  0.00000000E+00
  9.70000000E+02  9.00000000E+01  0.00000000E+00
  9.80000000E+02  9.00000000E+01  0.00000000E+00
  9.90000000E+02  9.00000000E+01  0.00000000E+00
  1.00000000E+03  9.00000000E+01  0.00000000E+00
  0.00000000E+00  9.20000000E+01  0.00000000E+00
  1.00000000E+01  9.20000000E+01  0.00000000E+00
  2.00000000E+01  9.20000000E+01  0.00000000E+00
  3.00000000E+01  9.20000000E+01  0.00000000E+00
  4.00000000E+01  9.20000000E+01  0.00000000E+00
  5.00000000E+01  9.20000000E+01  0.00000000E+00
  6.00000000E+01  9.20000000E+01  0.00000000E+00
  7.00000000E+01  9.20000000E+01  0.00000000E+00
  8.00000000E+01  9.20000000E+01  0.00000000E+00
  9.00000000E+01  9.20000000E+01  0.00000000E+00
  1.00000000E+02  9.20000000E+01  0.00000000E+00
  1.10000000E+02  9.20000000E+01  0.00000000E+00
  1.20000000E+02  9.20000000E+01  0.00000000E+00
  1.30000000E+02  9.20000000E+01  0.00000000E+00
  1.40000000E+02  9.20000000E+01  0.00000000E+00
  1.50000000E+02  9.20000000E+01  0.00000000E+00
  1.60000000E+02  9.20000000E+01  0.00000000E+00
  1.70000000E+02  9.20000000E+01  0.00000000E+00
  1.80000000E+02  9.20000000E+01  0.00000000E+00
  1.90000000E+02  9.20000000E+01  0.00000000E+00
  2.00000000E+02  9.20000000E+01  0.00000000E+00
  2.10000000E+02  9.20000000E+01  0.00000000E+00
  2.20000000E+02  9.20000000E+01  0.00000000E+00
  2.30000000E+02  9.20000000E+01  0.00000000E+00
  2.40000000E+02  9.20000000E+01  0.00000000E+00
  2.50000000E+02  9.20000000E+01  0.00000000E+00
  2.60000000E+02  9.20000000E+01  0.00000000E+00
  2.70000000E+02  9.20000000E+01  0.00000000E+00
  2.80000000E+02  9.20000000E+01  0.00000000E+00
  2.90000000E+02  9.20000000E+01  0.00000000E+00
  3.00000000E+02  9.20000000E+01  0.00000000E+00
  3.10000000E+02  9.20000000E+01  0.00000000E+00
  3.20000000E+02  9.20000000E+01  0.00000000E+00
  3.30000000E+02  9.20000000E+01  0.00000000E+00
  3.40000000E+02  9.20000000E+01  0.00000000E+00
  3.50000000E+02  9.20000000E+01  0.00000000E+00
  3.60000000E+02  9.20000000E+01  0.00000000E+00
  3.70000000E+02  9.20000000E+01  0.00000000E+00
  3.80000000E+02  9.20000000E+01  0.00000000E+00
  3.90000000E+02  9.20000000E+01  0.00000000E+00
  4.00000000E+02  9.20000000E+01  0.00000000E+00
  4.10000000E+02  9.20000000E+01  0.00000000E+00
  4.20000000E+02  9.20000000E+01  0.00000000E+00
  4.30000000E+02  9.20000000E+01  0.00000000E+00
  4.40000000E+02  9.20000000E+01  0.00000000E+00
  4.50000000E+02  9.20000000E+01  0.00000000E+00
  4.60000000E+02  9.20000000E+01  0.00000000E+00
  4.70000000E+02  9.20000000E+01  0.00000000E+00
  4.80000000E+02  9.20000000E+01  0.00000000E+00
  4.90000000E+02  9.20000000E+01  0.00000000E+00
  5.00000000E+02  9.20000000E+01  0.00000000E+00
  5.10000000E+02  9.20000000E+01  0.00000000E+00
  5.20000000E+02  9.20000000E+01  0.00000000E+00
  5.30000000E+02  9.20000000E+01  0.00000000E+00
  5.40000000E+02  9.20000000E+01  0.00000000E+00
  5.50000000E+02  9.20000000E+01  0.00000000E+00
  5.60000000E+02  9.20000000E+01  0.00000000E+00
  5.70000000E+02  9.20000000E+01  0.00000000E+00
  5.80000000E+02  9.20000000E+01  0.00000000E+00
  5.90000000E+02  9.20000000E+01  0.00000000E+00
  6.00000000E+02  9.20000000E+01  0.00000000E+00
  6.10000000E+02  9.20000000E+01  0.00000000E+00
  6.20000000E+02  9.20000000E+01  0.00000000E+00
  6.30000000E+02  9.20000000E+01  0.00000000E+00
  6.40000000E+02  9.20000000E+01  0.00000000E+00
  6.50000000E+02  9.20000000E+01  0.00000000E+00
  6.60000000E+02  9.20000000E+01  0.00000000E+00
  6.70000000E+02  9.20000000E+01  0.00000000E+00
  6.80000000E+02  9.20000000E+01  0.00000000E+00
  6.90000000E+02  9.20000000E+01  0.00000000E+00
  7.00000000E+02  9.20000000E+01  0.00000000E+00
  7.10000000E+02  9.20000000E+01  0.00000000E+00
  7.20000000E+02  9.20000000E+01  0.00000000E+00
  7.30000000E+02  9.20000000E+01  0.00000000E+00
  7.40000000E+02  9.20000000E+01  0.00000000E+00
  7.50000000E+02  9.20000000E+01  0.00000000E+00
  7.60000000E+02  9.20000000E+01  0.00000000E+00
  7.70000000E+02  9.20000000E+01  0.00000000E+00
  7.80000000E+02  9.20000000E+01  0.00000000E+00
  7.90000000E+02  9.20000000E+01  0.00000000E+00
  8.00000000E+02  9.20000000E+01  0.00000000E+00
  8.10000000E+02  9.20000000E+01  0.00000000E+00
  8.20000000E+02  9.20000000E+01  0.00000000E+00
  8.30000000E+02  9.20000000E+01  0.00000000E+00
  8.40000000E+02  9.20000000E+01  0.00000000E+00
  8.50000000E+02  9.20000000E+01  0.00000000E+00
  8.60000000E+02  9.20000000E+01  0.00000000E+00
  8.70000000E+02  9.20000000E+01  0.00000000E+00
  8.80000000E+02  9.20000000E+01  0.00000000E+00
  8.90000000E+02  9.20000000E+01  0.00000000E+00
  9.00000000E+02  9.20000000E+01  0.00000000E+00
  9.10000000E+02  9.20000000E+01  0.00000000E+00
  9.20000000E+02  9.20000000E+01  0.00000000E+00
  9.30000000E+02  9.20000000E+01  0.00000000E+00
  9.40000000E+02  9.20000000E+01  0.00000000E+00
  9.50000000E+02  9.20000000E+01  0.00000000E+00
  9.60000000E+02  9.20000000E+01  0.00000000E+00
  9.70000000E+02  9.20000000E+01  0.00000000E+00
  9.80000000E+02  9.20000000E+01  0.00000000E+00
  9.90000000E+02  9.20000000E+01  0.00000000E+00
  1.00000000E+03  9.20000000E+01  0.00000000E+00
  0.00000000E+00  9.40000000E+01  0.00000000E+00
  1.00000000E+01  9.40000000E+01  0.00000000E+00
  2.00000000E+01  9.40000000E+01  0.00000000E+00
  3.00000000E+01  9.40000000E+01  0.00000000E+00
  4.00000000E+01  9.40000000E+01  0.00000000E+00
  5.00000000E+01  9.40000000E+01  0.00000000E+00
  6.00000000E+01  9.40000000E+01  0.00000000E+00
  7.00000000E+01  9.40000000E+01  0.00000000E+00
  8.00000000E+01  9.40000000E+01  0.00000000E+00
  9.00000000E+01  9.40000000E+01  0.00000000E+00
  1.00000000E+02  9.40000000E+01  0.00000000E+00
  1.10000000E+02  9.40000000E+01  0.00000000E+00
  1.20000000E+02  9.40000000E+01  0.00000000E+00
  1.30000000E+02  9.40000000E+01  0.00000000E+00
  1.40000000E+02  9.40000000E+01  0.00000000E+00
  1.50000000E+02  9.40000000E+01  0.00000000E+00
  1.60000000E+02  9.40000000E+01  0.00000000E+00
  1.70000000E+02  9.40000000E+01  0.00000000E+00
  1.80000000E+02  9.40000000E+01  0.00000000E+00
  1.90000000E+02  9.40000000E+01  0.00000000E+00
  2.00000000E+02  9.40000000E+01  0.00000000E+00
  2.10000000E+02  9.40000000E+01  0.00000000E+00
  2.20000000E+02  9.40000000E+01  0.00000000E+00
  2.30000000E+02  9.40000000E+01  0.00000000E+00
  2.40000000E+02  9.40000000E+01  0.00000000E+00
  2.50000000E+02  9.40000000E+01  0.00000000E+00
  2.60000000E+02  9.40000000E+01  0.00000000E+00
  2.70000000E+02  9.40000000E+01  0.00000000E+00
  2.80000000E+02  9.40000000E+01  0.00000000E+00
  2.90000000E+02  9.40000000E+01  0.00000000E+00
  3.00000000E+02  9.40000000E+01  0.00000000E+00
  3.10000000E+02  9.40000000E+01  0.00000000E+00
  3.20000000E+02  9.40000000E+01  0.00000000E+00
  3.30000000E+02  9.40000000E+01  0.00000000E+00
  3.40000000E+02  9.40000000E+01  0.00000000E+00
  3.50000000E+02  9.40000000E+01  0.00000000E+00
  3.60000000E+02  9.40000000E+01  0.00000000E+00
  3.70000000E+02  9.40000000E+01  0.00000000E+00
  3.80000000E+02  9.40000000E+01  0.00000000E+00
  3.90000000E+02  9.40000000E+01  0.00000000E+00
  4.00000000E+02  9.40000000E+01  0.00000000E+00
  4.10000000E+02  9.40000000E+01  0.00000000E+00
  4.20000000E+02  9.40000000E+01  0.00000000E+00
  4.30000000E+02  9.40000000E+01  0.00000000E+00
  4.40000000E+02  9.40000000E+01  0.00000000E+00
  4.50000000E+02  9.40000000E+01  0.00000000E+00
  4.60000000E+02  9.40000000E+01  0.00000000E+00
  4.70000000E+02  9.40000000E+01  0.00000000E+00
  4.80000000E+02  9.40000000E+01  0.00000000E+00
  4.90000000E+02  9.40000000E+01  0.00000000E+00
  5.00000000E+02  9.40000000E+01  0.00000000E+00
  5.10000000E+02  9.40000000E+01  0.00000000E+00
  5.20000000E+02  9.40000000E+01  0.00000000E+00
  5.30000000E+02  9.40000000E+01  0.00000000E+00
  5.40000000E+02  9.40000000E+01  0.00000000E+00
  5.50000000E+02  9.40000000E+01  0.00000000E+00
  5.60000000E+02  9.40000000E+01  0.00000000E+00
  5.70000000E+02  9.40000000E+01  0.00000000E+00
  5.80000000E+02  9.40000000E+01  0.00000000E+00
  5.90000000E+02  9.40000000E+01  0.00000000E+00
  6.00000000E+02  9.40000000E+01  0.00000000E+00
  6.10000000E+02  9.40000000E+01  0.00000000E+00
  6.20000000E+02  9.40000000E+01  0.00000000E+00
  6.30000000E+02  9.40000000E+01  0.00000000E+00
  6.40000000E+02  9.40000000E+01  0.00000000E+00
  6.50000000E+02  9.40000000E+01  0.00000000E+00
  6.60000000E+02  9.40000000E+01  0.00000000E+00
  6.70000000E+02  9.40000000E+01  0.00000000E+00
  6.80000000E+02  9.40000000E+01  0.00000000E+00
  6.90000000E+02  9.40000000E+01  0.00000000E+00
  7.00000000E+02  9.40000000E+01  0.00000000E+00
  7.10000000E+02  9.40000000E+01  0.00000000E+00
  7.20000000E+02  9.40000000E+01  0.00000000E+00
  7.30000000E+02  9.40000000E+01  0.00000000E+00
  7.40000000E+02  9.40000000E+01  0.00000000E+00
  7.50000000E+02  9.40000000E+01  0.00000000E+00
  7.60000000E+02  9.40000000E+01  0.00000000E+00
  7.70000000E+02  9.40000000E+01  0.00000000E+00
  7.80000000E+02  9.40000000E+01  0.00000000E+00
  7.90000000E+02  9.40000000E+01  0.00000000E+00
  8.00000000E+02  9.40000000E+01  0.00000000E+00
  8.10000000E+02  9.40000000E+01  0.00000000E+00
  8.20000000E+02  9.40000000E+01  0.00000000E+00
  8.30000000E+02  9.40000000E+01  0.00000000E+00
  8.40000000E+02  9.40000000E+01  0.00000000E+00
  8.50000000E+02  9.40000000E+01  0.00000000E+00
  8.60000000E+02  9.40000000E+01  0.00000000E+00
  8.70000000E+02  9.40000000E+01  0.00000000E+00
  8.80000000E+02  9.40000000E+01  0.00000000E+00
  8.90000000E+02  9.40000000E+01  0.00000000E+00
  9.00000000E+02  9.40000000E+01  0.00000000E+00
  9.10000000E+02  9.40000000E+01  0.00000000E+00
  9.20000000E+02  9.40000000E+01  0.00000000E+00
  9.30000000E+02  9.40000000E+01  0.00000000E+00
  9.40000000E+02  9.40000000E+01  0.00000000E+00
  9.50000000E+02  9.40000000E+01  0.00000000E+00
  9.60000000E+02  9.40000000E+01  0.00000000E+00
  9.70000000E+02  9.40000000E+01  0.00000000E+00
  9.80000000E+02  9.40000000E+01  0.00000000E+00
  9.90000000E+02  9.40000000E+01  0.00000000E+00
  1.00000000E+03  9.40000000E+01  0.00000000E+00
  0.00000000E+00  9.60000000E+01  0.00000000E+00
  1.00000000E+01  9.60000000E+01  0.00000000E+00
  2.00000000E+01  9.60000000E+01  0.00000000E+00
  3.00000000E+01  9.60000000E+01  0.00000000E+00
  4.00000000E+01  9.60000000E+01  0.00000000E+00
  5.00000000E+01  9.60000000E+01  0.00000000E+00
  6.00000000E+01  9.60000000E+01  0.00000000E+00
  7.00000000E+01  9.60000000E+01  0.00000000E+00
  8.00000000E+01  9.60000000E+01  0.00000000E+00
  9.00000000E+01  9.60000000E+01  0.00000000E+00
  1.00000000E+02  9.60000000E+01  0.00000000E+00
  1.10000000E+02  9.60000000E+01  0.00000000E+00
  1.20000000E+02  9.60000000E+01  0.00000000E+00
  1.30000000E+02  9.60000000E+01  0.00000000E+00
  1.40000000E+02  9.60000000E+01  0.00000000E+00
  1.50000000E+02  9.60000000E+01  0.00000000E+00
  1.60000000E+02  9.60000000E+01  0.00000000E+00
  1.70000000E+02  9.60000000E+01  0.00000000E+00
  1.80000000E+02  9.60000000E+01  0.00000000E+00
  1.90000000E+02  9.60000000E+01  0.00000000E+00
  2.00000000E+02  9.60000000E+01  0.00000000E+00
  2.10000000E+02  9.60000000E+01  0.00000000E+00
  2.20000000E+02  9.60000000E+01  0.00000000E+00
  2.30000000E+02  9.60000000E+01  0.00000000E+00
  2.40000000E+02  9.60000000E+01  0.00000000E+00
  2.50000000E+02  9.60000000E+01  0.00000000E+00
  2.60000000E+02  9.60000000E+01  0.00000000E+00
  2.70000000E+02  9.60000000E+01  0.00000000E+00
  2.80000000E+02  9.60000000E+01  0.00000000E+00
  2.90000000E+02  9.60000000E+01  0.00000000E+00
  3.00000000E+02  9.60000000E+01  0.00000000E+00
  3.10000000E+02  9.60000000E+01  0.00000000E+00
  3.20000000E+02  9.60000000E+01  0.00000000E+00
  3.30000000E+02  9.60000000E+01  0.00000000E+00
  3.40000000E+02  9.60000000E+01  0.00000000E+00
  3.50000000E+02  9.60000000E+01  0.00000000E+00
  3.60000000E+02  9.60000000E+01  0.00000000E+00
  3.70000000E+02  9.60000000E+01  0.00000000E+00
  3.80000000E+02  9.60000000E+01  0.00000000E+00
  3.90000000E+02  9.60000000E+01  0.00000000E+00
  4.00000000E+02  9.60000000E+01  0.00000000E+00
  4.10000000E+02  9.60000000E+01  0.00000000E+00
  4.20000000E+02  9.60000000E+01  0.00000000E+00
  4.30000000E+02  9.60000000E+01  0.00000000E+00
  4.40000000E+02  9.60000000E+01  0.00000000E+00
  4.50000000E+02  9.60000000E+01  0.00000000E+00
  4.60000000E+02  9.60000000E+01  0.00000000E+00
  4.70000000E+02  9.60000000E+01  0.00000000E+00
  4.80000000E+02  9.60000000E+01  0.00000000E+00
  4.90000000E+02  9.60000000E+01  0.00000000E+00
  5.00000000E+02  9.60000000E+01  0.00000000E+00
  5.10000000E+02  9.60000000E+01  0.00000000E+00
  5.20000000E+02  9.60000000E+01  0.00000000E+00
  5.30000000E+02  9.60000000E+01  0.00000000E+00
  5.40000000E+02  9.60000000E+01  0.00000000E+00
  5.50000000E+02  9.60000000E+01  0.00000000E+00
  5.60000000E+02  9.60000000E+01  0.00000000E+00
  5.70000000E+02  9.60000000E+01  0.00000000E+00
  5.80000000E+02  9.60000000E+01  0.00000000E+00
  5.90000000E+02  9.60000000E+01  0.00000000E+00
  6.00000000E+02  9.60000000E+01  0.00000000E+00
  6.10000000E+02  9.60000000E+01  0.00000000E+00
  6.20000000E+02  9.60000000E+01  0.00000000E+00
  6.30000000E+02  9.60000000E+01  0.00000000E+00
  6.40000000E+02  9.60000000E+01  0.00000000E+00
  6.50000000E+02  9.60000000E+01  0.00000000E+00
  6.60000000E+02  9.60000000E+01  0.00000000E+00
  6.70000000E+02  9.60000000E+01  0.00000000E+00
  6.80000000E+02  9.60000000E+01  0.00000000E+00
  6.90000000E+02  9.60000000E+01  0.00000000E+00
  7.00000000E+02  9.60000000E+01  0.00000000E+00
  7.10000000E+02  9.60000000E+01  0.00000000E+00
  7.20000000E+02  9.60000000E+01  0.00000000E+00
  7.30000000E+02  9.60000000E+01  0.00000000E+00
  7.40000000E+02  9.60000000E+01  0.00000000E+00
  7.50000000E+02  9.60000000E+01  0.00000000E+00
  7.60000000E+02  9.60000000E+01  0.00000000E+00
  7.70000000E+02  9.60000000E+01  0.00000000E+00
  7.80000000E+02  9.60000000E+01  0.00000000E+00
  7.90000000E+02  9.60000000E+01  0.00000000E+00
  8.00000000E+02  9.60000000E+01  0.00000000E+00
  8.10000000E+02  9.60000000E+01  0.00000000E+00
  8.20000000E+02  9.60000000E+01  0.00000000E+00
  8.30000000E+02  9.60000000E+01  0.00000000E+00
  8.40000000E+02  9.60000000E+01  0.00000000E+00
  8.50000000E+02  9.60000000E+01  0.00000000E+00
  8.60000000E+02  9.60000000E+01  0.00000000E+00
  8.70000000E+02  9.60000000E+01  0.00000000E+00
  8.80000000E+02  9.60000000E+01  0.00000000E+00
  8.90000000E+02  9.60000000E+01  0.00000000E+00
  9.00000000E+02  9.60000000E+01  0.00000000E+00
  9.10000000E+02  9.60000000E+01  0.00000000E+00
  9.20000000E+02  9.60000000E+01  0.00000000E+00
  9.30000000E+02  9.60000000E+01  0.00000000E+00
  9.40000000E+02  9.60000000E+01  0.00000000E+00
  9.50000000E+02  9.60000000E+01  0.00000000E+00
  9.60000000E+02  9.60000000E+01  0.00000000E+00
  9.70000000E+02  9.60000000E+01  0.00000000E+00
  9.80000000E+02  9.60000000E+01  0.00000000E+00
  9.90000000E+02  9.60000000E+01  0.00000000E+00
  1.00000000E+03  9.60000000E+01  0.00000000E+00
  0.00000000E+00  9.80000000E+01  0.00000000E+00
  1.00000000E+01  9.80000000E+01  0.00000000E+00
  2.00000000E+01  9.80000000E+01  0.00000000E+00
  3.00000000E+01  9.80000000E+01  0.00000000E+00
  4.00000000E+01  9.80000000E+01  0.00000000E+00
  5.00000000E+01  9.80000000E+01  0.00000000E+00
  6.00000000E+01  9.80000000E+01  0.00000000E+00
  7.00000000E+01  9.80000000E+01  0.00000000E+00
  8.00000000E+01  9.80000000E+01  0.00000000E+00
  9.00000000E+01  9.80000000E+01  0.00000000E+00
  1.00000000E+02  9.80000000E+01  0.00000000E+00
  1.10000000E+02  9.80000000E+01  0.00000000E+00
  1.20000000E+02  9.80000000E+01  0.00000000E+00
  1.30000000E+02  9.80000000E+01  0.00000000E+00
  1.40000000E+02  9.80000000E+01  0.00000000E+00
  1.50000000E+02  9.80000000E+01  0.00000000E+00
  1.60000000E+02  9.80000000E+01  0.00000000E+00
  1.70000000E+02  9.80000000E+01  0.00000000E+00
  1.80000000E+02  9.80000000E+01  0.00000000E+00
  1.90000000E+02  9.80000000E+01  0.00000000E+00
  2.00000000E+02  9.80000000E+01  0.00000000E+00
  2.10000000E+02  9.80000000E+01  0.00000000E+00
  2.20000000E+02  9.80000000E+01  0.00000000E+00
  2.30000000E+02  9.80000000E+01  0.00000000E+00
  2.40000000E+02  9.80000000E+01  0.00000000E+00
  2.50000000E+02  9.80000000E+01  0.00000000E+00
  2.60000000E+02  9.80000000E+01  0.00000000E+00
  2.70000000E+02  9.80000000E+01  0.00000000E+00
  2.80000000E+02  9.80000000E+01  0.00000000E+00
  2.90000000E+02  9.80000000E+01  0.00000000E+00
  3.00000000E+02  9.80000000E+01  0.00000000E+00
  3.10000000E+02  9.80000000E+01  0.00000000E+00
  3.20000000E+02  9.80000000E+01  0.00000000E+00
  3.30000000E+02  9.80000000E+01  0.00000000E+00
  3.40000000E+02  9.80000000E+01  0.00000000E+00
  3.50000000E+02  9.80000000E+01  0.00000000E+00
  3.60000000E+02  9.80000000E+01  0.00000000E+00
  3.70000000E+02  9.80000000E+01  0.00000000E+00
  3.80000000E+02  9.80000000E+01  0.00000000E+00
  3.90000000E+02  9.80000000E+01  0.00000000E+00
  4.00000000E+02  9.80000000E+01  0.00000000E+00
  4.10000000E+02  9.80000000E+01  0.00000000E+00
  4.20000000E+02  9.80000000E+01  0.00000000E+00
  4.30000000E+02  9.80000000E+01  0.00000000E+00
  4.40000000E+02  9.80000000E+01  0.00000000E+00
  4.50000000E+02  9.80000000E+01  0.00000000E+00
  4.60000000E+02  9.80000000E+01  0.00000000E+00
  4.70000000E+02  9.80000000E+01  0.00000000E+00
  4.80000000E+02  9.80000000E+01  0.00000000E+00
  4.90000000E+02  9.80000000E+01  0.00000000E+00
  5.00000000E+02  9.80000000E+01  0.00000000E+00
  5.10000000E+02  9.80000000E+01  0.00000000E+00
  5.20000000E+02  9.80000000E+01  0.00000000E+00
  5.30000000E+02  9.80000000E+01  0.00000000E+00
  5.40000000E+02  9.80000000E+01  0.00000000E+00
  5.50000000E+02  9.80000000E+01  0.00000000E+00
  5.60000000E+02  9.80000000E+01  0.00000000E+00
  5.70000000E+02  9.80000000E+01  0.00000000E+00
  5.80000000E+02  9.80000000E+01  0.00000000E+00
  5.90000000E+02  9.80000000E+01  0.00000000E+00
  6.00000000E+02  9.80000000E+01  0.00000000E+00
  6.10000000E+02  9.80000000E+01  0.00000000E+00
  6.20000000E+02  9.80000000E+01  0.00000000E+00
  6.30000000E+02  9.80000000E+01  0.00000000E+00
  6.40000000E+02  9.80000000E+01  0.00000000E+00
  6.50000000E+02  9.80000000E+01  0.00000000E+00
  6.60000000E+02  9.80000000E+01  0.00000000E+00
  6.70000000E+02  9.80000000E+01  0.00000000E+00
  6.80000000E+02  9.80000000E+01  0.00000000E+00
  6.90000000E+02  9.80000000E+01  0.00000000E+00
  7.00000000E+02  9.80000000E+01  0.00000000E+00
  7.10000000E+02  9.80000000E+01  0.00000000E+00
  7.20000000E+02  9.80000000E+01  0.00000000E+00
  7.30000000E+02  9.80000000E+01  0.00000000E+00
  7.40000000E+02  9.80000000E+01  0.00000000E+00
  7.50000000E+02  9.80000000E+01  0.00000000E+00
  7.60000000E+02  9.80000000E+01  0.00000000E+00
  7.70000000E+02  9.80000000E+01  0.00000000E+00
  7.80000000E+02  9.80000000E+01  0.00000000E+00
  7.90000000E+02  9.80000000E+01  0.00000000E+00
  8.00000000E+02  9.80000000E+01  0.00000000E+00
  8.10000000E+02  9.80000000E+01  0.00000000E+00
  8.20000000E+02  9.80000000E+01  0.00000000E+00
  8.30000000E+02  9.80000000E+01  0.00000000E+00
  8.40000000E+02  9.80000000E+01  0.00000000E+00
  8.50000000E+02  9.80000000E+01  0.00000000E+00
  8.60000000E+02  9.80000000E+01  0.00000000E+00
  8.70000000E+02  9.80000000E+01  0.00000000E+00
  8.80000000E+02  9.80000000E+01  0.00000000E+00
  8.90000000E+02  9.80000000E+01  0.00000000E+00
  9.00000000E+02  9.80000000E+01  0.00000000E+00
  9.10000000E+02  9.80000000E+01  0.00000000E+00
  9.20000000E+02  9.80000000E+01  0.00000000E+00
  9.30000000E+02  9.80000000E+01  0.00000000E+00
  9.40000000E+02  9.80000000E+01  0.00000000E+00
  9.50000000E+02  9.80000000E+01  0.00000000E+00
  9.60000000E+02  9.80000000E+01  0.00000000E+00
  9.70000000E+02  9.80000000E+01  0.00000000E+00
  9.80000000E+02  9.80000000E+01  0.00000000E+00
  9.90000000E+02  9.80000000E+01  0.00000000E+00
  1.00000000E+03  9.80000000E+01  0.00000000E+00
  0.00000000E+00  1.00000000E+02  0.00000000E+00
  1.00000000E+01  1.00000000E+02  0.00000000E+00
  2.00000000E+01  1.00000000E+02  0.00000000E+00
  3.00000000E+01  1.00000000E+02  0.00000000E+00
  4.00000000E+01  1.00000000E+02  0.00000000E+00
  5.00000000E+01  1.00000000E+02  0.00000000E+00
  6.00000000E+01  1.00000000E+02  0.00000000E+00
  7.00000000E+01  1.00000000E+02  0.00000000E+00
  8.00000000E+01  1.00000000E+02  0.00000000E+00
  9.00000000E+01  1.00000000E+02  0.00000000E+00
  1.00000000E+02  1.00000000E+02  0.00000000E+00
  1.10000000E+02  1.00000000E+02  0.00000000E+00
  1.20000000E+02  1.00000000E+02  0.00000000E+00
  1.30000000E+02  1.00000000E+02  0.00000000E+00
  1.40000000E+02  1.00000000E+02  0.00000000E+00
  1.50000000E+02  1.00000000E+02  0.00000000E+00
  1.60000000E+02  1.00000000E+02  0.00000000E+00
  1.70000000E+02  1.00000000E+02  0.00000000E+00
  1.80000000E+02  1.00000000E+02  0.00000000E+00
  1.90000000E+02  1.00000000E+02  0.00000000E+00
  2.00000000E+02  1.00000000E+02  0.00000000E+00
  2.10000000E+02  1.00000000E+02  0.00000000E+00
  2.20000000E+02  1.00000000E+02  0.00000000E+00
  2.30000000E+02  1.00000000E+02  0.00000000E+00
  2.40000000E+02  1.00000000E+02  0.00000000E+00
  2.50000000E+02  1.00000000E+02  0.00000000E+00
  2.60000000E+02  1.00000000E+02  0.00000000E+00
  2.70000000E+02  1.00000000E+02  0.00000000E+00
  2.80000000E+02  1.00000000E+02  0.00000000E+00
  2.90000000E+02  1.00000000E+02  0.00000000E+00
  3.00000000E+02  1.00000000E+02  0.00000000E+00
  3.10000000E+02  1.00000000E+02  0.00000000E+00
  3.20000000E+02  1.00000000E+02  0.00000000E+00
  3.30000000E+02  1.00000000E+02  0.00000000E+00
  3.40000000E+02  1.00000000E+02  0.00000000E+00
  3.50000000E+02  1.00000000E+02  0.00000000E+00
  3.60000000E+02  1.00000000E+02  0.00000000E+00
  3.70000000E+02  1.00000000E+02  0.00000000E+00
  3.80000000E+02  1.00000000E+02  0.00000000E+00
  3.90000000E+02  1.00000000E+02  0.00000000E+00
  4.00000000E+02  1.00000000E+02  0.00000000E+00
  4.10000000E+02  1.00000000E+02  0.00000000E+00
  4.20000000E+02  1.00000000E+02  0.00000000E+00
  4.30000000E+02  1.00000000E+02  0.00000000E+00
  4.40000000E+02  1.00000000E+02  0.00000000E+00
  4.50000000E+02  1.00000000E+02  0.00000000E+00
  4.60000000E+02  1.00000000E+02  0.00000000E+00
  4.70000000E+02  1.00000000E+02  0.00000000E+00
  4.80000000E+02  1.00000000E+02  0.00000000E+00
  4.90000000E+02  1.00000000E+02  0.00000000E+00
  5.00000000E+02  1.00000000E+02  0.00000000E+00
  5.10000000E+02  1.00000000E+02  0.00000000E+00
  5.20000000E+02  1.00000000E+02  0.00000000E+00
  5.30000000E+02  1.00000000E+02  0.00000000E+00
  5.40000000E+02  1.00000000E+02  0.00000000E+00
  5.50000000E+02  1.00000000E+02  0.00000000E+00
  5.60000000E+02  1.00000000E+02  0.00000000E+00
  5.70000000E+02  1.00000000E+02  0.00000000E+00
  5.80000000E+02  1.00000000E+02  0.00000000E+00
  5.90000000E+02  1.00000000E+02  0.00000000E+00
  6.00000000E+02  1.00000000E+02  0.00000000E+00
  6.10000000E+02  1.00000000E+02  0.00000000E+00
  6.20000000E+02  1.00000000E+02  0.00000000E+00
  6.30000000E+02  1.00000000E+02  0.00000000E+00
  6.40000000E+02  1.00000000E+02  0.00000000E+00
  6.50000000E+02  1.00000000E+02  0.00000000E+00
  6.60000000E+02  1.00000000E+02  0.00000000E+00
  6.70000000E+02  1.00000000E+02  0.00000000E+00
  6.80000000E+02  1.00000000E+02  0.00000000E+00
  6.90000000E+02  1.00000000E+02  0.00000000E+00
  7.00000000E+02  1.00000000E+02  0.00000000E+00
  7.10000000E+02  1.00000000E+02  0.00000000E+00
  7.20000000E+02  1.00000000E+02  0.00000000E+00
  7.30000000E+02  1.00000000E+02  0.00000000E+00
  7.40000000E+02  1.00000000E+02  0.00000000E+00
  7.50000000E+02  1.00000000E+02  0.00000000E+00
  7.60000000E+02  1.00000000E+02  0.00000000E+00
  7.70000000E+02  1.00000000E+02  0.00000000E+00
  7.80000000E+02  1.00000000E+02  0.00000000E+00
  7.90000000E+02  1.00000000E+02  0.00000000E+00
  8.00000000E+02  1.00000000E+02  0.00000000E+00
  8.10000000E+02  1.00000000E+02  0.00000000E+00
  8.20000000E+02  1.00000000E+02  0.00000000E+00
  8.30000000E+02  1.00000000E+02  0.00000000E+00
  8.40000000E+02  1.00000000E+02  0.00000000E+00
  8.50000000E+02  1.00000000E+02  0.00000000E+00
  8.60000000E+02  1.00000000E+02  0.00000000E+00
  8.70000000E+02  1.00000000E+02  0.00000000E+00
  8.80000000E+02  1.00000000E+02  0.00000000E+00
  8.90000000E+02  1.00000000E+02  0.00000000E+00
  9.00000000E+02  1.00000000E+02  0.00000000E+00
  9.10000000E+02  1.00000000E+02  0.00000000E+00
  9.20000000E+02  1.00000000E+02  0.00000000E+00
  9.30000000E+02  1.00000000E+02  0.00000000E+00
  9.40000000E+02  1.00000000E+02  0.00000000E+00
  9.50000000E+02  1.00000000E+02  0.00000000E+00
  9.60000000E+02  1.00000000E+02  0.00000000E+00
  9.70000000E+02  1.00000000E+02  0.00000000E+00
  9.80000000E+02  1.00000000E+02  0.00000000E+00
  9.90000000E+02  1.00000000E+02  0.00000000E+00
  1.00000000E+03  1.00000000E+02  0.00000000E+00
CELLS      5000     25000
         4           0           1         102         101
         4           1           2         103         102
         4           2           3         104         103
         4           3           4         105         104
         4           4           5         106         105
         4           5           6         107         106
         4           6           7         108         107
         4           7           8         109         108
         4           8           9         110         109
         4           9          10         111         110
         4          10          11         112         111
         4          11          12         113         112
         4          12          13         114         113
         4          13          14         115         114
         4          14          15         116         115
         4          15          16         117         116
         4          16          17         118         117
         4          17          18         119         118
         4          18          19         120         119
         4          19          20         121         120
         4          20          21         122         121
         4          21          22         123         122
         4          22          23         124         123
         4          23          24         125         124
         4          24          25         126         125
         4          25          26         127         126
         4          26          27         128         127
         4          27          28         129         128
         4          28          29         130         129
         4          29          30         131         130
         4          30          31         132         131
         4          31          32         133         132
         4          32          33         134         133
         4          33          34         135         134
         4          34          35         136         135
         4          35          36         137         136
         4          36          37         138         137
         4          37          38         139         138
         4          38          39         140         139
         4          39          40         141         140
         4          40          41         142         141
         4          41          42         143         142
         4          42          43         144         143
         4          43          44         145         144
         4          44          45         146         145
         4          45          46         147         146
         4          46          47         148         147
         4          47          48         149         148
         4          48          49         150         149
         4          49          50         151         150
         4          50          51         152         151
         4          51          52         153         152
         4          52          53         154         153
         4          53          54         155         154
         4          54          55         156         155
         4          55          56         157         156
         4          56          57         158         157
         4          57          58         159         158
         4          58          59         160         159
         4          59          60         161         160
         4          60          61         162         161
         4          61          62         163         162
         4          62          63         164         163
         4          63          64         165         164
         4          64          65         166         165
         4          65          66         167         166
         4          66          67         168         167
         4          67          68         169         168
         4          68          69         170         169
         4          69          70         171         170
         4          70          71         172         171
         4          71          72         173         172
         4          72          73         174         173
         4          73          74         175         174
         4          74          75         176         175
         4          75          76         177         176
         4          76          77         178         177
         4          77          78         179         178
         4          78          79         180         179
         4          79          80         181         180
         4          80          81         182         181
         4          81          82         183         182
         4          82          83         184         183
         4          83          84         185         184
         4          84          85         186         185
         4          85          86         187         186
         4          86          87         188         187
         4          87          88         189         188
         4          88          89         190         189
         4          89          90         191         190
         4          90          91         192         191
         4          91          92         193         192
         4          92          93         194         193
         4          93          94         195         194
         4          94          95         196         195
         4          95          96         197         196
         4          96          97         198         197
         4          97          98         199         198
         4          98          99         200         199
         4          99         100         201         200
         4         101         102         203         202
         4         102         103         204         203
         4         103         104         205         204
         4         104         105         206         205
         4         105         106         207         206
         4         106         107         208         207
         4         107         108         209         208
         4         108         109         210         209
         4         109         110         211         210
         4         110         111         212         211
         4         111         112         213         212
         4         112         113         214         213
         4         113         114         215         214
         4         114         115         216         215
         4         115         116         217         216
         4         116         117         218         217
         4         117         118         219         218
         4         118         119         220         219
         4         119         120         221         220
         4         120         121         222         221
         4         121         122         223         222
         4         122         123         224         223
         4         123         124         225         224
         4         124         125         226         225
         4         125         126         227         226
         4         126         127         228         227
         4         127         128         229         228
         4         128         129         230         229
         4         129         130         231         230
         4         130         131         232         231
         4         131         132         233         232
         4         132         133         234         233
         4         133         134         235         234
         4         134         135         236         235
         4         135         136         237         236
         4         136         137         238         237
         4         137         138         239         238
         4         138         139         240         239
         4         139         140         241         240
         4         140         141         242         241
         4         141         142         243         242
         4         142         143         244         243
         4         143         144         245         244
         4         144         145         246         245
         4         145         146         247         246
         4         146         147         248         247
         4         147         148         249         248
         4         148         149         250         249
         4         149         150         251         250
         4         150         151         252         251
         4         151         152         253         252
         4         152         153         254         253
         4         153         154         255         254
         4         154         155         256         255
         4         155         156         257         256
         4         156         157         258         257
         4         157         158         259         258
         4         158         159         260         259
         4         159         160         261         260
         4         160         161         262         261
         4         161         162         263         262
         4         162         163         264         263
         4         163         164         265         264
         4         164         165         266         265
         4         165         166         267         266
         4         166         167         268         267
         4         167         168         269         268
         4         168         169         270         269
         4         169         170         271         270
         4         170         171         272         271
         4         171         172         273         272
         4         172         173         274         273
         4         173         174         275         274
         4         174         175         276         275
         4         175         176         277         276
         4         176         177         278         277
         4         177         178         279         278
         4         178         179         280         279
         4         179         180         281         280
         4         180         181         282         281
         4         181         182         283         282
         4         182         183         284         283
         4         183         184         285         284
         4         184         185         286         285
         4         185         186         287         286
         4         186         187         288         287
         4         187         188         289         288
         4         188         189         290         289
         4         189         190         291         290
         4         190         191         292         291
         4         191         192         293         292
         4         192         193         294         293
         4         193         194         295         294
         4         194         195         296         295
         4         195         196         297         296
         4         196         197         298         297
         4         197         198         299         298
         4         198         199         300         299
         4         199         200         301         300
         4         200         201         302         301
         4         202         203         304         303
         4         203         204         305         304
         4         204         205         306         305
         4         205         206         307         306
         4         206         207         308         307
         4         207         208         309         308
         4         208         209         310         309
         4         209         210         311         310
         4         210         211         312         311
         4         211         212         313         312
         4         212         213         314         313
         4         213         214         315         314
         4         214         215         316         315
         4         215         216         317         316
         4         216         217         318         317
         4         217         218         319         318
         4         218         219         320         319
         4         219         220         321         320
         4         220         221         322         321
         4         221         222         323         322
         4         222         223         324         323
         4         223         224         325         324
         4         224         225         326         325
         4         225         226         327         326
         4         226         227         328         327
         4         227         228         329         328
         4         228         229         330         329
         4         229         230         331         330
         4         230         231         332         331
         4         231         232         333         332
         4         232         233         334         333
         4         233         234         335         334
         4         234         235         336         335
         4         235         236         337         336
         4         236         237         338         337
         4         237         238         339         338
         4         238         239         340         339
         4         239         240         341         340
         4         240         241         342         341
         4         241         242         343         342
         4         242         243         344         343
         4         243         244         345         344
         4         244         245         346         345
         4         245         246         347         346
         4         246         247         348         347
         4         247         248         349         348
         4         248         249         350         349
         4         249         250         351         350
         4         250         251         352         351
         4         251         252         353         352
         4         252         253         354         353
         4         253         254         355         354
         4         254         255         356         355
         4         255         256         357         356
         4         256         257         358         357
         4         257         258         359         358
         4         258         259         360         359
         4         259         260         361         360
         4         260         261         362         361
         4         261         262         363         362
         4         262         263         364         363
         4         263         264         365         364
         4         264         265         366         365
         4         265         266         367         366
         4         266         267         368         367
         4         267         268         369         368
         4         268         269         370         369
         4         269         270         371         370
         4         270         271         372         371
         4         271         272         373         372
         4         272         273         374         373
         4         273         274         375         374
         4         274         275         376         375
         4         275         276         377         376
         4         276         277         378         377
         4         277         278         379         378
         4         278         279         380         379
         4         279         280         381         380
         4         280         281         382         381
         4         281         282         383         382
         4         282         283         384         383
         4         283         284         385         384
         4         284         285         386         385
         4         285         286         387         386
         4         286         287         388         387
         4         287         288         389         388
         4         288         289         390         389
         4         289         290         391         390
         4         290         291         392         391
         4         291         292         393         392
         4         292         293         394         393
         4         293         294         395         394
         4         294         295         396         395
         4         295         296         397         396
         4         296         297         398         397
         4         297         298         399         398
         4         298         299         400         399
         4         299         300         401         400
         4         300         301         402         401
         4         301         302         403         402
         4         303         304         405         404
         4         304         305         406         405
         4         305         306         407         406
         4         306         307         408         407
         4         307         308         409         408
         4         308         309         410         409
         4         309         310         411         410
         4         310         311         412         411
         4         311         312         413         412
         4         312         313         414         413
         4         313         314         415         414
         4         314         315         416         415
         4         315         316         417         416
         4         316         317         418         417
         4         317         318         419         418
         4         318         319         420         419
         4         319         320         421         420
         4         320         321         422         421
         4         321         322         423         422
         4         322         323         424         423
         4         323         324         425         424
         4         324         325         426         425
         4         325         326         427         426
         4         326         327         428         427
         4         327         328         429         428
         4         328         329         430         429
         4         329         330         431         430
         4         330         331         432         431
         4         331         332         433         432
         4         332         333         434         433
         4         333         334         435         434
         4         334         335         436         435
         4         335         336         437         436
         4         336         337         438         437
         4         337         338         439         438
         4         338         339         440         439
         4         339         340         441         440
         4         340         341         442         441
         4         341         342         443         442
         4         342         343         444         443
         4         343         344         445         444
         4         344         345         446         445
         4         345         346         447         446
         4         346         347         448         447
         4         347         348         449         448
         4         348         349         450         449
         4         349         350         451         450
         4         350         351         452         451
         4         351         352         453         452
         4         352         353         454         453
         4         353         354         455         454
         4         354         355         456         455
         4         355         356         457         456
         4         356         357         458         457
         4         357         358         459         458
         4         358         359         460         459
         4         359         360         461         460
         4         360         361         462         461
         4         361         362         463         462
         4         362         363         464         463
         4         363         364         465         464
         4         364         365         466         465
         4         365         366         467         466
         4         366         367         468         467
         4         367         368         469         468
         4         368         369         470         469
         4         369         370         471         470
         4         370         371         472         471
         4         371         372         473         472
         4         372         373         474         473
         4         373         374         475         474
         4         374         375         476         475
         4         375         376         477         476
         4         376         377         478         477
         4         377         378         479         478
         4         378         379         480         479
         4         379         380         481         480
         4         380         381         482         481
         4         381         382         483         482
         4         382         383         484         483
         4         383         384         485         484
         4         384         385         486         485
         4         385         386         487         486
         4         386         387         488         487
         4         387         388         489         488
         4         388         389         490         489
         4         389         390         491         490
         4         390         391         492         491
         4         391         392         493         492
         4         392         393         494         493
         4         393         394         495         494
         4         394         395         496         495
         4         395         396         497         496
         4         396         397         498         497
         4         397         398         499         498
         4         398         399         500         499
         4         399         400         501         500
         4         400         401         502         501
         4         401         402         503         502
         4         402         403         504         503
         4         404         405         506         505
         4         405         406         507         506
         4         406         407         508         507
         4         407         408         509         508
         4         408         409         510         509
         4         409         410         511         510
         4         410         411         512         511
         4         411         412         513         512
         4         412         413         514         513
         4         413         414         515         514
         4         414         415         516         515
         4         415         416         517         516
         4         416         417         518         517
         4         417         418         519         518
         4         418         419         520         519
         4         419         420         521         520
         4         420         421         522         521
         4         421         422         523         522
         4         422         423         524         523
         4         423         424         525         524
         4         424         425         526         525
         4         425         426         527         526
         4         426         427         528         527
         4         427         428         529         528
         4         428         429         530         529
         4         429         430         531         530
         4         430         431         532         531
         4         431         432         533         532
         4         432         433         534         533
         4         433         434         535         534
         4         434         435         536         535
         4         435         436         537         536
         4         436         437         538         537
         4         437         438         539         538
         4         438         439         540         539
         4         439         440         541         540
         4         440         441         542         541
         4         441         442         543         542
         4         442         443         544         543
         4         443         444         545         544
         4         444         445         546         545
         4         445         446         547         546
         4         446         447         548         547
         4         447         448         549         548
         4         448         449         550         549
         4         449         450         551         550
         4         450         451         552         551
         4         451         452         553         552
         4         452         453         554         553
         4         453         454         555         554
         4         454         455         556         555
         4         455         456         557         556
         4         456         457         558         557
         4         457         458         559         558
         4         458         459         560         559
         4         459         460         561         560
         4         460         461         562         561
         4         461         462         563         562
         4         462         463         564         563
         4         463         464         565         564
         4         464         465         566         565
         4         465         466         567         566
         4         466         467         568         567
         4         467         468         569         568
         4         468         469         570         569
         4         469         470         571         570
         4         470         471         572         571
         4         471         472         573         572
         4         472         473         574         573
         4         473         474         575         574
         4         474         475         576         575
         4         475         476         577         576
         4         476         477         578         577
         4         477         478         579         578
         4         478         479         580         579
         4         479         480         581         580
         4         480         481         582         581
         4         481         482         583         582
         4         482         483         584         583
         4         483         484         585         584
         4         484         485         586         585
         4         485         486         587         586
         4         486         487         588         587
         4         487         488         589         588
         4         488         489         590         589
         4         489         490         591         590
         4         490         491         592         591
         4         491         492         593         592
         4         492         493         594         593
         4         493         494         595         594
         4         494         495         596         595
         4         495         496         597         596
         4         496         497         598         597
         4         497         498         599         598
         4         498         499         600         599
         4         499         500         601         600
         4         500         501         602         601
         4         501         502         603         602
         4         502         503         604         603
         4         503         504         605         604
         4         505         506         607         606
         4         506         507         608         607
         4         507         508         609         608
         4         508         509         610         609
         4         509         510         611         610
         4         510         511         612         611
         4         511         512         613         612
         4         512         513         614         613
         4         513         514         615         614
         4         514         515         616         615
         4         515         516         617         616
         4         516         517         618         617
         4         517         518         619         618
         4         518         519         620         619
         4         519         520         621         620
         4         520         521         622         621
         4         521         522         623         622
         4         522         523         624         623
         4         523         524         625         624
         4         524         525         626         625
         4         525         526         627         626
         4         526         527         628         627
         4         527         528         629         628
         4         528         529         630         629
         4         529         530         631         630
         4         530         531         632         631
         4         531         532         633         632
         4         532         533         634         633
         4         533         534         635         634
         4         534         535         636         635
         4         535         536         637         636
         4         536         537         638         637
         4         537         538         639         638
         4         538         539         640         639
         4         539         540         641         640
         4         540         541         642         641
         4         541         542         643         642
         4         542         543         644         643
         4         543         544         645         644
         4         544         545         646         645
         4         545         546         647         646
         4         546         547         648         647
         4         547         548         649         648
         4         548         549         650         649
         4         549         550         651         650
         4         550         551         652         651
         4         551         552         653         652
         4         552         553         654         653
         4         553         554         655         654
         4         554         555         656         655
         4         555         556         657         656
         4         556         557         658         657
         4         557         558         659         658
         4         558         559         660         659
         4         559         560         661         660
         4         560         561         662         661
         4         561         562         663         662
         4         562         563         664         663
         4         563         564         665         664
         4         564         565         666         665
         4         565         566         667         666
         4         566         567         668         667
         4         567         568         669         668
         4         568         569         670         669
         4         569         570         671         670
         4         570         571         672         671
         4         571         572         673         672
         4         572         573         674         673
         4         573         574         675         674
         4         574         575         676         675
         4         575         576         677         676
         4         576         577         678         677
         4         577         578         679         678
         4         578         579         680         679
         4         579         580         681         680
         4         580         581         682         681
         4         581         582         683         682
         4         582         583         684         683
         4         583         584         685         684
         4         584         585         686         685
         4         585         586         687         686
         4         586         587         688         687
         4         587         588         689         688
         4         588         589         690         689
         4         589         590         691         690
         4         590         591         692         691
         4         591         592         693         692
         4         592         593         694         693
         4         593         594         695         694
         4         594         595         696         695
         4         595         596         697         696
         4         596         597         698         697
         4         597         598         699         698
         4         598         599         700         699
         4         599         600         701         700
         4         600         601         702         701
         4         601         602         703         702
         4         602         603         704         703
         4         603         604         705         704
         4         604         605         706         705
         4         606         607         708         707
         4         607         608         709         708
         4         608         609         710         709
         4         609         610         711         710
         4         610         611         712         711
         4         611         612         713         712
         4         612         613         714         713
         4         613         614         715         714
         4         614         615         716         715
         4         615         616         717         716
         4         616         617         718         717
         4         617         618         719         718
         4         618         619         720         719
         4         619         620         721         720
         4         620         621         722         721
         4         621         622         723         722
         4         622         623         724         723
         4         623         624         725         724
         4         624         625         726         725
         4         625         626         727         726
         4         626         627         728         727
         4         627         628         729         728
         4         628         629         730         729
         4         629         630         731         730
         4         630         631         732         731
         4         631         632         733         732
         4         632         633         734         733
         4         633         634         735         734
         4         634         635         736         735
         4         635         636         737         736
         4         636         637         738         737
         4         637         638         739         738
         4         638         639         740         739
         4         639         640         741         740
         4         640         641         742         741
         4         641         642         743         742
         4         642         643         744         743
         4         643         644         745         744
         4         644         645         746         745
         4         645         646         747         746
         4         646         647         748         747
         4         647         648         749         748
         4         648         649         750         749
         4         649         650         751         750
         4         650         651         752         751
         4         651         652         753         752
         4         652         653         754         753
         4         653         654         755         754
         4         654         655         756         755
         4         655         656         757         756
         4         656         657         758         757
         4         657         658         759         758
         4         658         659         760         759
         4         659         660         761         760
         4         660         661         762         761
         4         661         662         763         762
         4         662         663         764         763
         4         663         664         765         764
         4         664         665         766         765
         4         665         666         767         766
         4         666         667         768         767
         4         667         668         769         768
         4         668         669         770         769
         4         669         670         771         770
         4         670         671         772         771
         4         671         672         773         772
         4         672         673         774         773
         4         673         674         775         774
         4         674         675         776         775
         4         675         676         777         776
         4         676         677         778         777
         4         677         678         779         778
         4         678         679         780         779
         4         679         680         781         780
         4         680         681         782         781
         4         681         682         783         782
         4         682         683         784         783
         4         683         684         785         784
         4         684         685         786         785
         4         685         686         787         786
         4         686         687         788         787
         4         687         688         789         788
         4         688         689         790         789
         4         689         690         791         790
         4         690         691         792         791
         4         691         692         793         792
         4         692         693         794         793
         4         693         694         795         794
         4         694         695         796         795
         4         695         696         797         796
         4         696         697         798         797
         4         697         698         799         798
         4         698         699         800         799
         4         699         700         801         800
         4         700         701         802         801
         4         701         702         803         802
         4         702         703         804         803
         4         703         704         805         804
         4         704         705         806         805
         4         705         706         807         806
         4         707         708         809         808
         4         708         709         810         809
         4         709         710         811         810
         4         710         711         812         811
         4         711         712         813         812
         4         712         713         814         813
         4         713         714         815         814
         4         714         715         816         815
         4         715         716         817         816
         4         716         717         818         817
         4         717         718         819         818
         4         718         719         820         819
         4         719         720         821         820
         4         720         721         822         821
         4         721         722         823         822
         4         722         723         824         823
         4         723         724         825         824
         4         724         725         826         825
         4         725         726         827         826
         4         726         727         828         827
         4         727         728         829         828
         4         728         729         830         829
         4         729         730         831         830
         4         730         731         832         831
         4         731         732         833         832
         4         732         733         834         833
         4         733         734         835         834
         4         734         735         836         835
         4         735         736         837         836
         4         736         737         838         837
         4         737         738         839         838
         4         738         739         840         839
         4         739         740         841         840
         4         740         741         842         841
         4         741         742         843         842
         4         742         743         844         843
         4         743         744         845         844
         4         744         745         846         845
         4         745         746         847         846
         4         746         747         848         847
         4         747         748         849         848
         4         748         749         850         849
         4         749         750         851         850
         4         750         751         852         851
         4         751         752         853         852
         4         752         753         854         853
         4         753         754         855         854
         4         754         755         856         855
         4         755         756         857         856
         4         756         757         858         857
         4         757         758         859         858
         4         758         759         860         859
         4         759         760         861         860
         4         760         761         862         861
         4         761         762         863         862
         4         762         763         864         863
         4         763         764         865         864
         4         764         765         866         865
         4         765         766         867         866
         4         766         767         868         867
         4         767         768         869         868
         4         768         769         870         869
         4         769         770         871         870
         4         770         771         872         871
         4         771         772         873         872
         4         772         773         874         873
         4         773         774         875         874
         4         774         775         876         875
         4         775         776         877         876
         4         776         777         878         877
         4         777         778         879         878
         4         778         779         880         879
         4         779         780         881         880
         4         780         781         882         881
         4         781         782         883         882
         4         782         783         884         883
         4         783         784         885         884
         4         784         785         886         885
         4         785         786         887         886
         4         786         787         888         887
         4         787         788         889         888
         4         788         789         890         889
         4         789         790         891         890
         4         790         791         892         891
         4         791         792         893         892
         4         792         793         894         893
         4         793         794         895         894
         4         794         795         896         895
         4         795         796         897         896
         4         796         797         898         897
         4         797         798         899         898
         4         798         799         900         899
         4         799         800         901         900
         4         800         801         902         901
         4         801         802         903         902
         4         802         803         904         903
         4         803         804         905         904
         4         804         805         906         905
         4         805         806         907         906
         4         806         807         908         907
         4         808         809         910         909
         4         809         810         911         910
         4         810         811         912         911
         4         811         812         913         912
         4         812         813         914         913
         4         813         814         915         914
         4         814         815         916         915
         4         815         816         917         916
         4         816         817         918         917
         4         817         818         919         918
         4         818         819         920         919
         4         819         820         921         920
         4         820         821         922         921
         4         821         822         923         922
         4         822         823         924         923
         4         823         824         925         924
         4         824         825         926         925
         4         825         826         927         926
         4         826         827         928         927
         4         827         828         929         928
         4         828         829         930         929
         4         829         830         931         930
         4         830         831         932         931
         4         831         832         933         932
         4         832         833         934         933
         4         833         834         935         934
         4         834         835         936         935
         4         835         836         937         936
         4         836         837         938         937
         4         837         838         939         938
         4         838         839         940         939
         4         839         840         941         940
         4         840         841         942         941
         4         841         842         943         942
         4         842         843         944         943
         4         843         844         945         944
         4         844         845         946         945
         4         845         846         947         946
         4         846         847         948         947
         4         847         848         949         948
         4         848         849         950         949
         4         849         850         951         950
         4         850         851         952         951
         4         851         852         953         952
         4         852         853         954         953
         4         853         854         955         954
         4         854         855         956         955
         4         855         856         957         956
         4         856         857         958         957
         4         857         858         959         958
         4         858         859         960         959
         4         859         860         961         960
         4         860         861         962         961
         4         861         862         963         962
         4         862         863         964         963
         4         863         864         965         964
         4         864         865         966         965
         4         865         866         967         966
         4         866         867         968         967
         4         867         868         969         968
         4         868         869         970         969
         4         869         870         971         970
         4         870         871         972         971
         4         871         872         973         972
         4         872         873         974         973
         4         873         874         975         974
         4         874         875         976         975
         4         875         876         977         976
         4         876         877         978         977
         4         877         878         979         978
         4         878         879         980         979
         4         879         880         981         980
         4         880         881         982         981
         4         881         882         983         982
         4         882         883         984         983
         4         883         884         985         984
         4         884         885         986         985
         4         885         886         987         986
         4         886         887         988         987
         4         887         888         989         988
         4         888         889         990         989
         4         889         890         991         990
         4         890         891         992         991
         4         891         892         993         992
         4         892         893         994         993
         4         893         894         995         994
         4         894         895         996         995
         4         895         896         997         996
         4         896         897         998         997
         4         897         898         999         998
         4         898         899        1000         999
         4         899         900        1001        1000
         4         900         901        1002        1001
         4         901         902        1003        1002
         4         902         903        1004        1003
         4         903         904        1005        1004
         4         904         905        1006        1005
         4         905         906        1007        1006
         4         906         907        1008        1007
         4         907         908        1009        1008
         4         909         910        1011        1010
         4         910         911        1012        1011
         4         911         912        1013        1012
         4         912         913        1014        1013
         4         913         914        1015        1014
         4         914         915        1016        1015
         4         915         916        1017        1016
         4         916         917        1018        1017
         4         917         918        1019        1018
         4         918         919        1020        1019
         4         919         920        1021        1020
         4         920         921        1022        1021
         4         921         922        1023        1022
         4         922         923        1024        1023
         4         923         924        1025        1024
         4         924         925        1026        1025
         4         925         926        1027        1026
         4         926         927        1028        1027
         4         927         928        1029        1028
         4         928         929        1030        1029
         4         929         930        1031        1030
         4         930         931        1032        1031
         4         931         932        1033        1032
         4         932         933        1034        1033
         4         933         934        1035        1034
         4         934         935        1036        1035
         4         935         936        1037        1036
         4         936         937        1038        1037
         4         937         938        1039        1038
         4         938         939        1040        1039
         4         939         940        1041        1040
         4         940         941        1042        1041
         4         941         942        1043        1042
         4         942         943        1044        1043
         4         943         944        1045        1044
         4         944         945        1046        1045
         4         945         946        1047        1046
         4         946         947        1048        1047
         4         947         948        1049        1048
         4         948         949        1050        1049
         4         949         950        1051        1050
         4         950         951        1052        1051
         4         951         952        1053        1052
         4         952         953        1054        1053
         4         953         954        1055        1054
         4         954         955        1056        1055
         4         955         956        1057        1056
         4         956         957        1058        1057
         4         957         958        1059        1058
         4         958         959        1060        1059
         4         959         960        1061        1060
         4         960         961        1062        1061
         4         961         962        1063        1062
         4         962         963        1064        1063
         4         963         964        1065        1064
         4         964         965        1066        1065
         4         965         966        1067        1066
         4         966         967        1068        1067
         4         967         968        1069        1068
         4         968         969        1070        1069
         4         969         970        1071        1070
         4         970         971        1072        1071
         4         971         972        1073        1072
         4         972         973        1074        1073
         4         973         974        1075        1074
         4         974         975        1076        1075
         4         975         976        1077        1076
         4         976         977        1078        1077
         4         977         978        1079        1078
         4         978         979        1080        1079
         4         979         980        1081        1080
         4         980         981        1082        1081
         4         981         982        1083        1082
         4         982         983        1084        1083
         4         983         984        1085        1084
         4         984         985        1086        1085
         4         985         986        1087        1086
         4         986         987        1088        1087
         4         987         988        1089        1088
         4         988         989        1090        1089
         4         989         990        1091        1090
         4         990         991        1092        1091
         4         991         992        1093        1092
         4         992         993        1094        1093
         4         993         994        1095        1094
         4         994         995        1096        1095
         4         995         996        1097        1096
         4         996         997        1098        1097
         4         997         998        1099        1098
         4         998         999        1100        1099
         4         999        1000        1101        1100
         4        1000        1001        1102        1101
         4        1001        1002        1103        1102
         4        1002        1003        1104        1103
         4        1003        1004        1105        1104
         4        1004        1005        1106        1105
         4        1005        1006        1107        1106
         4        1006        1007        1108        1107
         4        1007        1008        1109        1108
         4        1008        1009        1110        1109
         4        1010        1011        1112        1111
         4        1011        1012        1113        1112
         4        1012        1013        1114        1113
         4        1013        1014        1115        1114
         4        1014        1015        1116        1115
         4        1015        1016        1117        1116
         4        1016        1017        1118        1117
         4        1017        1018        1119        1118
         4        1018        1019        1120        1119
         4        1019        1020        1121        1120
         4        1020        1021        1122        1121
         4        1021        1022        1123        1122
         4        1022        1023        1124        1123
         4        1023        1024        1125        1124
         4        1024        1025        1126        1125
         4        1025        1026        1127        1126
         4        1026        1027        1128        1127
         4        1027        1028        1129        1128
         4        1028        1029        1130        1129
         4        1029        1030        1131        1130
         4        1030        1031        1132        1131
         4        1031        1032        1133        1132
         4        1032        1033        1134        1133
         4        1033        1034        1135        1134
         4        1034        1035        1136        1135
         4        1035        1036        1137        1136
         4        1036        1037        1138        1137
         4        1037        1038        1139        1138
         4        1038        1039        1140        1139
         4        1039        1040        1141        1140
         4        1040        1041        1142        1141
         4        1041        1042        1143        1142
         4        1042        1043        1144        1143
         4        1043        1044        1145        1144
         4        1044        1045        1146        1145
         4        1045        1046        1147        1146
         4        1046        1047        1148        1147
         4        1047        1048        1149        1148
         4        1048        1049        1150        1149
         4        1049        1050        1151        1150
         4        1050        1051        1152        1151
         4        1051        1052        1153        1152
         4        1052        1053        1154        1153
         4        1053        1054        1155        1154
         4        1054        1055        1156        1155
         4        1055        1056        1157        1156
         4        1056        1057        1158        1157
         4        1057        1058        1159        1158
         4        1058        1059        1160        1159
         4        1059        1060        1161        1160
         4        1060        1061        1162        1161
         4        1061        1062        1163        1162
         4        1062        1063        1164        1163
         4        1063        1064        1165        1164
         4        1064        1065        1166        1165
         4        1065        1066        1167        1166
         4        1066        1067        1168        1167
         4        1067        1068        1169        1168
         4        1068        1069        1170        1169
         4        1069        1070        1171        1170
         4        1070        1071        1172        1171
         4        1071        1072        1173        1172
         4        1072        1073        1174        1173
         4        1073        1074        1175        1174
         4        1074        1075        1176        1175
         4        1075        1076        1177        1176
         4        1076        1077        1178        1177
         4        1077        1078        1179        1178
         4        1078        1079        1180        1179
         4        1079        1080        1181        1180
         4        1080        1081        1182        1181
         4        1081        1082        1183        1182
         4        1082        1083        1184        1183
         4        1083        1084        1185        1184
         4        1084        1085        1186        1185
         4        1085        1086        1187        1186
         4        1086        1087        1188        1187
         4        1087        1088        1189        1188
         4        1088        1089        1190        1189
         4        1089        1090        1191        1190
         4        1090        1091        1192        1191
         4        1091        1092        1193        1192
         4        1092        1093        1194        1193
         4        1093        1094        1195        1194
         4        1094        1095        1196        1195
         4        1095        1096        1197        1196
         4        1096        1097        1198        1197
         4        1097        1098        1199        1198
         4        1098        1099        1200        1199
         4        1099        1100        1201        1200
         4        1100        1101        1202        1201
         4        1101        1102        1203        1202
         4        1102        1103        1204        1203
         4        1103        1104        1205        1204
         4        1104        1105        1206        1205
         4        1105        1106        1207        1206
         4        1106        1107        1208        1207
         4        1107        1108        1209        1208
         4        1108        1109        1210        1209
         4        1109        1110        1211        1210
         4        1111        1112        1213        1212
         4        1112        1113        1214        1213
         4        1113        1114        1215        1214
         4        1114        1115        1216        1215
         4        1115        1116        1217        1216
         4        1116        1117        1218        1217
         4        1117        1118        1219        1218
         4        1118        1119        1220        1219
         4        1119        1120        1221        1220
         4        1120        1121        1222        1221
         4        1121        1122        1223        1222
         4        1122        1123        1224        1223
         4        1123        1124        1225        1224
         4        1124        1125        1226        1225
         4        1125        1126        1227        1226
         4        1126        1127        1228        1227
         4        1127        1128        1229        1228
         4        1128        1129        1230        1229
         4        1129        1130        1231        1230
         4        1130        1131        1232        1231
         4        1131        1132        1233        1232
         4        1132        1133        1234        1233
         4        1133        1134        1235        1234
         4        1134        1135        1236        1235
         4        1135        1136        1237        1236
         4        1136        1137        1238        1237
         4        1137        1138        1239        1238
         4        1138        1139        1240        1239
         4        1139        1140        1241        1240
         4        1140        1141        1242        1241
         4        1141        1142        1243        1242
         4        1142        1143        1244        1243
         4        1143        1144        1245        1244
         4        1144        1145        1246        1245
         4        1145        1146        1247        1246
         4        1146        1147        1248        1247
         4        1147        1148        1249        1248
         4        1148        1149        1250        1249
         4        1149        1150        1251        1250
         4        1150        1151        1252        1251
         4        1151        1152        1253        1252
         4        1152        1153        1254        1253
         4        1153        1154        1255        1254
         4        1154        1155        1256        1255
         4        1155        1156        1257        1256
         4        1156        1157        1258        1257
         4        1157        1158        1259        1258
         4        1158        1159        1260        1259
         4        1159        1160        1261        1260
         4        1160        1161        1262        1261
         4        1161        1162        1263        1262
         4        1162        1163        1264        1263
         4        1163        1164        1265        1264
         4        1164        1165        1266        1265
         4        1165        1166        1267        1266
         4        1166        1167        1268        1267
         4        1167        1168        1269        1268
         4        1168        1169        1270        1269
         4        1169        1170        1271        1270
         4        1170        1171        1272        1271
         4        1171        1172        1273        1272
         4        1172        1173        1274        1273
         4        1173        1174        1275        1274
         4        1174        1175        1276        1275
         4        1175        1176        1277        1276
         4        1176        1177        1278        1277
         4        1177        1178        1279        1278
         4        1178        1179        1280        1279
         4        1179        1180        1281        1280
         4        1180        1181        1282        1281
         4        1181        1182        1283        1282
         4        1182        1183        1284        1283
         4        1183        1184        1285        1284
         4        1184        1185        1286        1285
         4        1185        1186        1287        1286
         4        1186        1187        1288        1287
         4        1187        1188        1289        1288
         4        1188        1189        1290        1289
         4        1189        1190        1291        1290
         4        1190        1191        1292        1291
         4        1191        1192        1293        1292
         4        1192        1193        1294        1293
         4        1193        1194        1295        1294
         4        1194        1195        1296        1295
         4        1195        1196        1297        1296
         4        1196        1197        1298        1297
         4        1197        1198        1299        1298
         4        1198        1199        1300        1299
         4        1199        1200        1301        1300
         4        1200        1201        1302        1301
         4        1201        1202        1303        1302
         4        1202        1203        1304        1303
         4        1203        1204        1305        1304
         4        1204        1205        1306        1305
         4        1205        1206        1307        1306
         4        1206        1207        1308        1307
         4        1207        1208        1309        1308
         4        1208        1209        1310        1309
         4        1209        1210        1311        1310
         4        1210        1211        1312        1311
         4        1212        1213        1314        1313
         4        1213        1214        1315        1314
         4        1214        1215        1316        1315
         4        1215        1216        1317        1316
         4        1216        1217        1318        1317
         4        1217        1218        1319        1318
         4        1218        1219        1320        1319
         4        1219        1220        1321        1320
         4        1220        1221        1322        1321
         4        1221        1222        1323        1322
         4        1222        1223        1324        1323
         4        1223        1224        1325        1324
         4        1224        1225        1326        1325
         4        1225        1226        1327        1326
         4        1226        1227        1328        1327
         4        1227        1228        1329        1328
         4        1228        1229        1330        1329
         4        1229        1230        1331        1330
         4        1230        1231        1332        1331
         4        1231        1232        1333        1332
         4        1232        1233        1334        1333
         4        1233        1234        1335        1334
         4        1234        1235        1336        1335
         4        1235        1236        1337        1336
         4        1236        1237        1338        1337
         4        1237        1238        1339        1338
         4        1238        1239        1340        1339
         4        1239        1240        1341        1340
         4        1240        1241        1342        1341
         4        1241        1242        1343        1342
         4        1242        1243        1344        1343
         4        1243        1244        1345        1344
         4        1244        1245        1346        1345
         4        1245        1246        1347        1346
         4        1246        1247        1348        1347
         4        1247        1248        1349        1348
         4        1248        1249        1350        1349
         4        1249        1250        1351        1350
         4        1250        1251        1352        1351
         4        1251        1252        1353        1352
         4        1252        1253        1354        1353
         4        1253        1254        1355        1354
         4        1254        1255        1356        1355
         4        1255        1256        1357        1356
         4        1256        1257        1358        1357
         4        1257        1258        1359        1358
         4        1258        1259        1360        1359
         4        1259        1260        1361        1360
         4        1260        1261        1362        1361
         4        1261        1262        1363        1362
         4        1262        1263        1364        1363
         4        1263        1264        1365        1364
         4        1264        1265        1366        1365
         4        1265        1266        1367        1366
         4        1266        1267        1368        1367
         4        1267        1268        1369        1368
         4        1268        1269        1370        1369
         4        1269        1270        1371        1370
         4        1270        1271        1372        1371
         4        1271        1272        1373        1372
         4        1272        1273        1374        1373
         4        1273        1274        1375        1374
         4        1274        1275        1376        1375
         4        1275        1276        1377        1376
         4        1276        1277        1378        1377
         4        1277        1278        1379        1378
         4        1278        1279        1380        1379
         4        1279        1280        1381        1380
         4        1280        1281        1382        1381
         4        1281        1282        1383        1382
         4        1282        1283        1384        1383
         4        1283        1284        1385        1384
         4        1284        1285        1386        1385
         4        1285        1286        1387        1386
         4        1286        1287        1388        1387
         4        1287        1288        1389        1388
         4        1288        1289        1390        1389
         4        1289        1290        1391        1390
         4        1290        1291        1392        1391
         4        1291        1292        1393        1392
         4        1292        1293        1394        1393
         4        1293        1294        1395        1394
         4        1294        1295        1396        1395
         4        1295        1296        1397        1396
         4        1296        1297        1398        1397
         4        1297        1298        1399        1398
         4        1298        1299        1400        1399
         4        1299        1300        1401        1400
         4        1300        1301        1402        1401
         4        1301        1302        1403        1402
         4        1302        1303        1404        1403
         4        1303        1304        1405        1404
         4        1304        1305        1406        1405
         4        1305        1306        1407        1406
         4        1306        1307        1408        1407
         4        1307        1308        1409        1408
         4        1308        1309        1410        1409
         4        1309        1310        1411        1410
         4        1310        1311        1412        1411
         4        1311        1312        1413        1412
         4        1313        1314        1415        1414
         4        1314        1315        1416        1415
         4        1315        1316        1417        1416
         4        1316        1317        1418        1417
         4        1317        1318        1419        1418
         4        1318        1319        1420        1419
         4        1319        1320        1421        1420
         4        1320        1321        1422        1421
         4        1321        1322        1423        1422
         4        1322        1323        1424        1423
         4        1323        1324        1425        1424
         4        1324        1325        1426        1425
         4        1325        1326        1427        1426
         4        1326        1327        1428        1427
         4        1327        1328        1429        1428
         4        1328        1329        1430        1429
         4        1329        1330        1431        1430
         4        1330        1331        1432        1431
         4        1331        1332        1433        1432
         4        1332        1333        1434        1433
         4        1333        1334        1435        1434
         4        1334        1335        1436        1435
         4        1335        1336        1437        1436
         4        1336        1337        1438        1437
         4        1337        1338        1439        1438
         4        1338        1339        1440        1439
         4        1339        1340        1441        1440
         4        1340        1341        1442        1441
         4        1341        1342        1443        1442
         4        1342        1343        1444        1443
         4        1343        1344        1445        1444
         4        1344        1345        1446        1445
         4        1345        1346        1447        1446
         4        1346        1347        1448        1447
         4        1347        1348        1449        1448
         4        1348        1349        1450        1449
         4        1349        1350        1451        1450
         4        1350        1351        1452        1451
         4        1351        1352        1453        1452
         4        1352        1353        1454        1453
         4        1353        1354        1455        1454
         4        1354        1355        1456        1455
         4        1355        1356        1457        1456
         4        1356        1357        1458        1457
         4        1357        1358        1459        1458
         4        1358        1359        1460        1459
         4        1359        1360        1461        1460
         4        1360        1361        1462        1461
         4        1361        1362        1463        1462
         4        1362        1363        1464        1463
         4        1363        1364        1465        1464
         4        1364        1365        1466        1465
         4        1365        1366        1467        1466
         4        1366        1367        1468        1467
         4        1367        1368        1469        1468
         4        1368        1369        1470        1469
         4        1369        1370        1471        1470
         4        1370        1371        1472        1471
         4        1371        1372        1473        1472
         4        1372        1373        1474        1473
         4        1373        1374        1475        1474
         4        1374        1375        1476        1475
         4        1375        1376        1477        1476
         4        1376        1377        1478        1477
         4        1377        1378        1479        1478
         4        1378        1379        1480        1479
         4        1379        1380        1481        1480
         4        1380        1381        1482        1481
         4        1381        1382        1483        1482
         4        1382        1383        1484        1483
         4        1383        1384        1485        1484
         4        1384        1385        1486        1485
         4        1385        1386        1487        1486
         4        1386        1387        1488        1487
         4        1387        1388        1489        1488
         4        1388        1389        1490        1489
         4        1389        1390        1491        1490
         4        1390        1391        1492        1491
         4        1391        1392        1493        1492
         4        1392        1393        1494        1493
         4        1393        1394        1495        1494
         4        1394        1395        1496        1495
         4        1395        1396        1497        1496
         4        1396        1397        1498        1497
         4        1397        1398        1499        1498
         4        1398        1399        1500        1499
         4        1399        1400        1501        1500
         4        1400        1401        1502        1501
         4        1401        1402        1503        1502
         4        1402        1403        1504        1503
         4        1403        1404        1505        1504
         4        1404        1405        1506        1505
         4        1405        1406        1507        1506
         4        1406        1407        1508        1507
         4        1407        1408        1509        1508
         4        1408        1409        1510        1509
         4        1409        1410        1511        1510
         4        1410        1411        1512        1511
         4        1411        1412        1513        1512
         4        1412        1413        1514        1513
         4        1414        1415        1516        1515
         4        1415        1416        1517        1516
         4        1416        1417        1518        1517
         4        1417        1418        1519        1518
         4        1418        1419        1520        1519
         4        1419        1420        1521        1520
         4        1420        1421        1522        1521
         4        1421        1422        1523        1522
         4        1422        1423        1524        1523
         4        1423        1424        1525        1524
         4        1424        1425        1526        1525
         4        1425        1426        1527        1526
         4        1426        1427        1528        1527
         4        1427        1428        1529        1528
         4        1428        1429        1530        1529
         4        1429        1430        1531        1530
         4        1430        1431        1532        1531
         4        1431        1432        1533        1532
         4        1432        1433        1534        1533
         4        1433        1434        1535        1534
         4        1434        1435        1536        1535
         4        1435        1436        1537        1536
         4        1436        1437        1538        1537
         4        1437        1438        1539        1538
         4        1438        1439        1540        1539
         4        1439        1440        1541        1540
         4        1440        1441        1542        1541
         4        1441        1442        1543        1542
         4        1442        1443        1544        1543
         4        1443        1444        1545        1544
         4        1444        1445        1546        1545
         4        1445        1446        1547        1546
         4        1446        1447        1548        1547
         4        1447        1448        1549        1548
         4        1448        1449        1550        1549
         4        1449        1450        1551        1550
         4        1450        1451        1552        1551
         4        1451        1452        1553        1552
         4        1452        1453        1554        1553
         4        1453        1454        1555        1554
         4        1454        1455        1556        1555
         4        1455        1456        1557        1556
         4        1456        1457        1558        1557
         4        1457        1458        1559        1558
         4        1458        1459        1560        1559
         4        1459        1460        1561        1560
         4        1460        1461        1562        1561
         4        1461        1462        1563        1562
         4        1462        1463        1564        1563
         4        1463        1464        1565        1564
         4        1464        1465        1566        1565
         4        1465        1466        1567        1566
         4        1466        1467        1568        1567
         4        1467        1468        1569        1568
         4        1468        1469        1570        1569
         4        1469        1470        1571        1570
         4        1470        1471        1572        1571
         4        1471        1472        1573        1572
         4        1472        1473        1574        1573
         4        1473        1474        1575        1574
         4        1474        1475        1576        1575
         4        1475        1476        1577        1576
         4        1476        1477        1578        1577
         4        1477        1478        1579        1578
         4        1478        1479        1580        1579
         4        1479        1480        1581        1580
         4        1480        1481        1582        1581
         4        1481        1482        1583        1582
         4        1482        1483        1584        1583
         4        1483        1484        1585        1584
         4        1484        1485        1586        1585
         4        1485        1486        1587        1586
         4        1486        1487        1588        1587
         4        1487        1488        1589        1588
         4        1488        1489        1590        1589
         4        1489        1490        1591        1590
         4        1490        1491        1592        1591
         4        1491        1492        1593        1592
         4        1492        1493        1594        1593
         4        1493        1494        1595        1594
         4        1494        1495        1596        1595
         4        1495        1496        1597        1596
         4        1496        1497        1598        1597
         4        1497        1498        1599        1598
         4        1498        1499        1600        1599
         4        1499        1500        1601        1600
         4        1500        1501        1602        1601
         4        1501        1502        1603        1602
         4        1502        1503        1604        1603
         4        1503        1504        1605        1604
         4        1504        1505        1606        1605
         4        1505        1506        1607        1606
         4        1506        1507        1608        1607
         4        1507        1508        1609        1608
         4        1508        1509        1610        1609
         4        1509        1510        1611        1610
         4        1510        1511        1612        1611
         4        1511        1512        1613        1612
         4        1512        1513        1614        1613
         4        1513        1514        1615        1614
         4        1515        1516        1617        1616
         4        1516        1517        1618        1617
         4        1517        1518        1619        1618
         4        1518        1519        1620        1619
         4        1519        1520        1621        1620
         4        1520        1521        1622        1621
         4        1521        1522        1623        1622
         4        1522        1523        1624        1623
         4        1523        1524        1625        1624
         4        1524        1525        1626        1625
         4        1525        1526        1627        1626
         4        1526        1527        1628        1627
         4        1527        1528        1629        1628
         4        1528        1529        1630        1629
         4        1529        1530        1631        1630
         4        1530        1531        1632        1631
         4        1531        1532        1633        1632
         4        1532        1533        1634        1633
         4        1533        1534        1635        1634
         4        1534        1535        1636        1635
         4        1535        1536        1637        1636
         4        1536        1537        1638        1637
         4        1537        1538        1639        1638
         4        1538        1539        1640        1639
         4        1539        1540        1641        1640
         4        1540        1541        1642        1641
         4        1541        1542        1643        1642
         4        1542        1543        1644        1643
         4        1543        1544        1645        1644
         4        1544        1545        1646        1645
         4        1545        1546        1647        1646
         4        1546        1547        1648        1647
         4        1547        1548        1649        1648
         4        1548        1549        1650        1649
         4        1549        1550        1651        1650
         4        1550        1551        1652        1651
         4        1551        1552        1653        1652
         4        1552        1553        1654        1653
         4        1553        1554        1655        1654
         4        1554        1555        1656        1655
         4        1555        1556        1657        1656
         4        1556        1557        1658        1657
         4        1557        1558        1659        1658
         4        1558        1559        1660        1659
         4        1559        1560        1661        1660
         4        1560        1561        1662        1661
         4        1561        1562        1663        1662
         4        1562        1563        1664        1663
         4        1563        1564        1665        1664
         4        1564        1565        1666        1665
         4        1565        1566        1667        1666
         4        1566        1567        1668        1667
         4        1567        1568        1669        1668
         4        1568        1569        1670        1669
         4        1569        1570        1671        1670
         4        1570        1571        1672        1671
         4        1571        1572        1673        1672
         4        1572        1573        1674        1673
         4        1573        1574        1675        1674
         4        1574        1575        1676        1675
         4        1575        1576        1677        1676
         4        1576        1577        1678        1677
         4        1577        1578        1679        1678
         4        1578        1579        1680        1679
         4        1579        1580        1681        1680
         4        1580        1581        1682        1681
         4        1581        1582        1683        1682
         4        1582        1583        1684        1683
         4        1583        1584        1685        1684
         4        1584        1585        1686        1685
         4        1585        1586        1687        1686
         4        1586        1587        1688        1687
         4        1587        1588        1689        1688
         4        1588        1589        1690        1689
         4        1589        1590        1691        1690
         4        1590        1591        1692        1691
         4        1591        1592        1693        1692
         4        1592        1593        1694        1693
         4        1593        1594        1695        1694
         4        1594        1595        1696        1695
         4        1595        1596        1697        1696
         4        1596        1597        1698        1697
         4        1597        1598        1699        1698
         4        1598        1599        1700        1699
         4        1599        1600        1701        1700
         4        1600        1601        1702        1701
         4        1601        1602        1703        1702
         4        1602        1603        1704        1703
         4        1603        1604        1705        1704
         4        1604        1605        1706        1705
         4        1605        1606        1707        1706
         4        1606        1607        1708        1707
         4        1607        1608        1709        1708
         4        1608        1609        1710        1709
         4        1609        1610        1711        1710
         4        1610        1611        1712        1711
         4        1611        1612        1713        1712
         4        1612        1613        1714        1713
         4        1613        1614        1715        1714
         4        1614        1615        1716        1715
         4        1616        1617        1718        1717
         4        1617        1618        1719        1718
         4        1618        1619        1720        1719
         4        1619        1620        1721        1720
         4        1620        1621        1722        1721
         4        1621        1622        1723        1722
         4        1622        1623        1724        1723
         4        1623        1624        1725        1724
         4        1624        1625        1726        1725
         4        1625        1626        1727        1726
         4        1626        1627        1728        1727
         4        1627        1628        1729        1728
         4        1628        1629        1730        1729
         4        1629        1630        1731        1730
         4        1630        1631        1732        1731
         4        1631        1632        1733        1732
         4        1632        1633        1734        1733
         4        1633        1634        1735        1734
         4        1634        1635        1736        1735
         4        1635        1636        1737        1736
         4        1636        1637        1738        1737
         4        1637        1638        1739        1738
         4        1638        1639        1740        1739
         4        1639        1640        1741        1740
         4        1640        1641        1742        1741
         4        1641        1642        1743        1742
         4        1642        1643        1744        1743
         4        1643        1644        1745        1744
         4        1644        1645        1746        1745
         4        1645        1646        1747        1746
         4        1646        1647        1748        1747
         4        1647        1648        1749        1748
         4        1648        1649        1750        1749
         4        1649        1650        1751        1750
         4        1650        1651        1752        1751
         4        1651        1652        1753        1752
         4        1652        1653        1754        1753
         4        1653        1654        1755        1754
         4        1654        1655        1756        1755
         4        1655        1656        1757        1756
         4        1656        1657        1758        1757
         4        1657        1658        1759        1758
         4        1658        1659        1760        1759
         4        1659        1660        1761        1760
         4        1660        1661        1762        1761
         4        1661        1662        1763        1762
         4        1662        1663        1764        1763
         4        1663        1664        1765        1764
         4        1664        1665        1766        1765
         4        1665        1666        1767        1766
         4        1666        1667        1768        1767
         4        1667        1668        1769        1768
         4        1668        1669        1770        1769
         4        1669        1670        1771        1770
         4        1670        1671        1772        1771
         4        1671        1672        1773        1772
         4        1672        1673        1774        1773
         4        1673        1674        1775        1774
         4        1674        1675        1776        1775
         4        1675        1676        1777        1776
         4        1676        1677        1778        1777
         4        1677        1678        1779        1778
         4        1678        1679        1780        1779
         4        1679        1680        1781        1780
         4        1680        1681        1782        1781
         4        1681        1682        1783        1782
         4        1682        1683        1784        1783
         4        1683        1684        1785        1784
         4        1684        1685        1786        1785
         4        1685        1686        1787        1786
         4        1686        1687        1788        1787
         4        1687        1688        1789        1788
         4        1688        1689        1790        1789
         4        1689        1690        1791        1790
         4        1690        1691        1792        1791
         4        1691        1692        1793        1792
         4        1692        1693        1794        1793
         4        1693        1694        1795        1794
         4        1694        1695        1796        1795
         4        1695        1696        1797        1796
         4        1696        1697        1798        1797
         4        1697        1698        1799        1798
         4        1698        1699        1800        1799
         4        1699        1700        1801        1800
         4        1700        1701        1802        1801
         4        1701        1702        1803        1802
         4        1702        1703        1804        1803
         4        1703        1704        1805        1804
         4        1704        1705        1806        1805
         4        1705        1706        1807        1806
         4        1706        1707        1808        1807
         4        1707        1708        1809        1808
         4        1708        1709        1810        1809
         4        1709        1710        1811        1810
         4        1710        1711        1812        1811
         4        1711        1712        1813        1812
         4        1712        1713        1814        1813
         4        1713        1714        1815        1814
         4        1714        1715        1816        1815
         4        1715        1716        1817        1816
         4        1717        1718        1819        1818
         4        1718        1719        1820        1819
         4        1719        1720        1821        1820
         4        1720        1721        1822        1821
         4        1721        1722        1823        1822
         4        1722        1723        1824        1823
         4        1723        1724        1825        1824
         4        1724        1725        1826        1825
         4        1725        1726        1827        1826
         4        1726        1727        1828        1827
         4        1727        1728        1829        1828
         4        1728        1729        1830        1829
         4        1729        1730        1831        1830
         4        1730        1731        1832        1831
         4        1731        1732        1833        1832
         4        1732        1733        1834        1833
         4        1733        1734        1835        1834
         4        1734        1735        1836        1835
         4        1735        1736        1837        1836
         4        1736        1737        1838        1837
         4        1737        1738        1839        1838
         4        1738        1739        1840        1839
         4        1739        1740        1841        1840
         4        1740        1741        1842        1841
         4        1741        1742        1843        1842
         4        1742        1743        1844        1843
         4        1743        1744        1845        1844
         4        1744        1745        1846        1845
         4        1745        1746        1847        1846
         4        1746        1747        1848        1847
         4        1747        1748        1849        1848
         4        1748        1749        1850        1849
         4        1749        1750        1851        1850
         4        1750        1751        1852        1851
         4        1751        1752        1853        1852
         4        1752        1753        1854        1853
         4        1753        1754        1855        1854
         4        1754        1755        1856        1855
         4        1755        1756        1857        1856
         4        1756        1757        1858        1857
         4        1757        1758        1859        1858
         4        1758        1759        1860        1859
         4        1759        1760        1861        1860
         4        1760        1761        1862        1861
         4        1761        1762        1863        1862
         4        1762        1763        1864        1863
         4        1763        1764        1865        1864
         4        1764        1765        1866        1865
         4        1765        1766        1867        1866
         4        1766        1767        1868        1867
         4        1767        1768        1869        1868
         4        1768        1769        1870        1869
         4        1769        1770        1871        1870
         4        1770        1771        1872        1871
         4        1771        1772        1873        1872
         4        1772        1773        1874        1873
         4        1773        1774        1875        1874
         4        1774        1775        1876        1875
         4        1775        1776        1877        1876
         4        1776        1777        1878        1877
         4        1777        1778        1879        1878
         4        1778        1779        1880        1879
         4        1779        1780        1881        1880
         4        1780        1781        1882        1881
         4        1781        1782        1883        1882
         4        1782        1783        1884        1883
         4        1783        1784        1885        1884
         4        1784        1785        1886        1885
         4        1785        1786        1887        1886
         4        1786        1787        1888        1887
         4        1787        1788        1889        1888
         4        1788        1789        1890        1889
         4        1789        1790        1891        1890
         4        1790        1791        1892        1891
         4        1791        1792        1893        1892
         4        1792        1793        1894        1893
         4        1793        1794        1895        1894
         4        1794        1795        1896        1895
         4        1795        1796        1897        1896
         4        1796        1797        1898        1897
         4        1797        1798        1899        1898
         4        1798        1799        1900        1899
         4        1799        1800        1901        1900
         4        1800        1801        1902        1901
         4        1801        1802        1903        1902
         4        1802        1803        1904        1903
         4        1803        1804        1905        1904
         4        1804        1805        1906        1905
         4        1805        1806        1907        1906
         4        1806        1807        1908        1907
         4        1807        1808        1909        1908
         4        1808        1809        1910        1909
         4        1809        1810        1911        1910
         4        1810        1811        1912        1911
         4        1811        1812        1913        1912
         4        1812        1813        1914        1913
         4        1813        1814        1915        1914
         4        1814        1815        1916        1915
         4        1815        1816        1917        1916
         4        1816        1817        1918        1917
         4        1818        1819        1920        1919
         4        1819        1820        1921        1920
         4        1820        1821        1922        1921
         4        1821        1822        1923        1922
         4        1822        1823        1924        1923
         4        1823        1824        1925        1924
         4        1824        1825        1926        1925
         4        1825        1826        1927        1926
         4        1826        1827        1928        1927
         4        1827        1828        1929        1928
         4        1828        1829        1930        1929
         4        1829        1830        1931        1930
         4        1830        1831        1932        1931
         4        1831        1832        1933        1932
         4        1832        1833        1934        1933
         4        1833        1834        1935        1934
         4        1834        1835        1936        1935
         4        1835        1836        1937        1936
         4        1836        1837        1938        1937
         4        1837        1838        1939        1938
         4        1838        1839        1940        1939
         4        1839        1840        1941        1940
         4        1840        1841        1942        1941
         4        1841        1842        1943        1942
         4        1842        1843        1944        1943
         4        1843        1844        1945        1944
         4        1844        1845        1946        1945
         4        1845        1846        1947        1946
         4        1846        1847        1948        1947
         4        1847        1848        1949        1948
         4        1848        1849        1950        1949
         4        1849        1850        1951        1950
         4        1850        1851        1952        1951
         4        1851        1852        1953        1952
         4        1852        1853        1954        1953
         4        1853        1854        1955        1954
         4        1854        1855        1956        1955
         4        1855        1856        1957        1956
         4        1856        1857        1958        1957
         4        1857        1858        1959        1958
         4        1858        1859        1960        1959
         4        1859        1860        1961        1960
         4        1860        1861        1962        1961
         4        1861        1862        1963        1962
         4        1862        1863        1964        1963
         4        1863        1864        1965        1964
         4        1864        1865        1966        1965
         4        1865        1866        1967        1966
         4        1866        1867        1968        1967
         4        1867        1868        1969        1968
         4        1868        1869        1970        1969
         4        1869        1870        1971        1970
         4        1870        1871        1972        1971
         4        1871        1872        1973        1972
         4        1872        1873        1974        1973
         4        1873        1874        1975        1974
         4        1874        1875        1976        1975
         4        1875        1876        1977        1976
         4        1876        1877        1978        1977
         4        1877        1878        1979        1978
         4        1878        1879        1980        1979
         4        1879        1880        1981        1980
         4        1880        1881        1982        1981
         4        1881        1882        1983        1982
         4        1882        1883        1984        1983
         4        1883        1884        1985        1984
         4        1884        1885        1986        1985
         4        1885        1886        1987        1986
         4        1886        1887        1988        1987
         4        1887        1888        1989        1988
         4        1888        1889        1990        1989
         4        1889        1890        1991        1990
         4        1890        1891        1992        1991
         4        1891        1892        1993        1992
         4        1892        1893        1994        1993
         4        1893        1894        1995        1994
         4        1894        1895        1996        1995
         4        1895        1896        1997        1996
         4        1896        1897        1998        1997
         4        1897        1898        1999        1998
         4        1898        1899        2000        1999
         4        1899        1900        2001        2000
         4        1900        1901        2002        2001
         4        1901        1902        2003        2002
         4        1902        1903        2004        2003
         4        1903        1904        2005        2004
         4        1904        1905        2006        2005
         4        1905        1906        2007        2006
         4        1906        1907        2008        2007
         4        1907        1908        2009        2008
         4        1908        1909        2010        2009
         4        1909        1910        2011        2010
         4        1910        1911        2012        2011
         4        1911        1912        2013        2012
         4        1912        1913        2014        2013
         4        1913        1914        2015        2014
         4        1914        1915        2016        2015
         4        1915        1916        2017        2016
         4        1916        1917        2018        2017
         4        1917        1918        2019        2018
         4        1919        1920        2021        2020
         4        1920        1921        2022        2021
         4        1921        1922        2023        2022
         4        1922        1923        2024        2023
         4        1923        1924        2025        2024
         4        1924        1925        2026        2025
         4        1925        1926        2027        2026
         4        1926        1927        2028        2027
         4        1927        1928        2029        2028
         4        1928        1929        2030        2029
         4        1929        1930        2031        2030
         4        1930        1931        2032        2031
         4        1931        1932        2033        2032
         4        1932        1933        2034        2033
         4        1933        1934        2035        2034
         4        1934        1935        2036        2035
         4        1935        1936        2037        2036
         4        1936        1937        2038        2037
         4        1937        1938        2039        2038
         4        1938        1939        2040        2039
         4        1939        1940        2041        2040
         4        1940        1941        2042        2041
         4        1941        1942        2043        2042
         4        1942        1943        2044        2043
         4        1943        1944        2045        2044
         4        1944        1945        2046        2045
         4        1945        1946        2047        2046
         4        1946        1947        2048        2047
         4        1947        1948        2049        2048
         4        1948        1949        2050        2049
         4        1949        1950        2051        2050
         4        1950        1951        2052        2051
         4        1951        1952        2053        2052
         4        1952        1953        2054        2053
         4        1953        1954        2055        2054
         4        1954        1955        2056        2055
         4        1955        1956        2057        2056
         4        1956        1957        2058        2057
         4        1957        1958        2059        2058
         4        1958        1959        2060        2059
         4        1959        1960        2061        2060
         4        1960        1961        2062        2061
         4        1961        1962        2063        2062
         4        1962        1963        2064        2063
         4        1963        1964        2065        2064
         4        1964        1965        2066        2065
         4        1965        1966        2067        2066
         4        1966        1967        2068        2067
         4        1967        1968        2069        2068
         4        1968        1969        2070        2069
         4        1969        1970        2071        2070
         4        1970        1971        2072        2071
         4        1971        1972        2073        2072
         4        1972        1973        2074        2073
         4        1973        1974        2075        2074
         4        1974        1975        2076        2075
         4        1975        1976        2077        2076
         4        1976        1977        2078        2077
         4        1977        1978        2079        2078
         4        1978        1979        2080        2079
         4        1979        1980        2081        2080
         4        1980        1981        2082        2081
         4        1981        1982        2083        2082
         4        1982        1983        2084        2083
         4        1983        1984        2085        2084
         4        1984        1985        2086        2085
         4        1985        1986        2087        2086
         4        1986        1987        2088        2087
         4        1987        1988        2089        2088
         4        1988        1989        2090        2089
         4        1989        1990        2091        2090
         4        1990        1991        2092        2091
         4        1991        1992        2093        2092
         4        1992        1993        2094        2093
         4        1993        1994        2095        2094
         4        1994        1995        2096        2095
         4        1995        1996        2097        2096
         4        1996        1997        2098        2097
         4        1997        1998        2099        2098
         4        1998        1999        2100        2099
         4        1999        2000        2101        2100
         4        2000        2001        2102        2101
         4        2001        2002        2103        2102
         4        2002        2003        2104        2103
         4        2003        2004        2105        2104
         4        2004        2005        2106        2105
         4        2005        2006        2107        2106
         4        2006        2007        2108        2107
         4        2007        2008        2109        2108
         4        2008        2009        2110        2109
         4        2009        2010        2111        2110
         4        2010        2011        2112        2111
         4        2011        2012        2113        2112
         4        2012        2013        2114        2113
         4        2013        2014        2115        2114
         4        2014        2015        2116        2115
         4        2015        2016        2117        2116
         4        2016        2017        2118        2117
         4        2017        2018        2119        2118
         4        2018        2019        2120        2119
         4        2020        2021        2122        2121
         4        2021        2022        2123        2122
         4        2022        2023        2124        2123
         4        2023        2024        2125        2124
         4        2024        2025        2126        2125
         4        2025        2026        2127        2126
         4        2026        2027        2128        2127
         4        2027        2028        2129        2128
         4        2028        2029        2130        2129
         4        2029        2030        2131        2130
         4        2030        2031        2132        2131
         4        2031        2032        2133        2132
         4        2032        2033        2134        2133
         4        2033        2034        2135        2134
         4        2034        2035        2136        2135
         4        2035        2036        2137        2136
         4        2036        2037        2138        2137
         4        2037        2038        2139        2138
         4        2038        2039        2140        2139
         4        2039        2040        2141        2140
         4        2040        2041        2142        2141
         4        2041        2042        2143        2142
         4        2042        2043        2144        2143
         4        2043        2044        2145        2144
         4        2044        2045        2146        2145
         4        2045        2046        2147        2146
         4        2046        2047        2148        2147
         4        2047        2048        2149        2148
         4        2048        2049        2150        2149
         4        2049        2050        2151        2150
         4        2050        2051        2152        2151
         4        2051        2052        2153        2152
         4        2052        2053        2154        2153
         4        2053        2054        2155        2154
         4        2054        2055        2156        2155
         4        2055        2056        2157        2156
         4        2056        2057        2158        2157
         4        2057        2058        2159        2158
         4        2058        2059        2160        2159
         4        2059        2060        2161        2160
         4        2060        2061        2162        2161
         4        2061        2062        2163        2162
         4        2062        2063        2164        2163
         4        2063        2064        2165        2164
         4        2064        2065        2166        2165
         4        2065        2066        2167        2166
         4        2066        2067        2168        2167
         4        2067        2068        2169        2168
         4        2068        2069        2170        2169
         4        2069        2070        2171        2170
         4        2070        2071        2172        2171
         4        2071        2072        2173        2172
         4        2072        2073        2174        2173
         4        2073        2074        2175        2174
         4        2074        2075        2176        2175
         4        2075        2076        2177        2176
         4        2076        2077        2178        2177
         4        2077        2078        2179        2178
         4        2078        2079        2180        2179
         4        2079        2080        2181        2180
         4        2080        2081        2182        2181
         4        2081        2082        2183        2182
         4        2082        2083        2184        2183
         4        2083        2084        2185        2184
         4        2084        2085        2186        2185
         4        2085        2086        2187        2186
         4        2086        2087        2188        2187
         4        2087        2088        2189        2188
         4        2088        2089        2190        2189
         4        2089        2090        2191        2190
         4        2090        2091        2192        2191
         4        2091        2092        2193        2192
         4        2092        2093        2194        2193
         4        2093        2094        2195        2194
         4        2094        2095        2196        2195
         4        2095        2096        2197        2196
         4        2096        2097        2198        2197
         4        2097        2098        2199        2198
         4        2098        2099        2200        2199
         4        2099        2100        2201        2200
         4        2100        2101        2202        2201
         4        2101        2102        2203        2202
         4        2102        2103        2204        2203
         4        2103        2104        2205        2204
         4        2104        2105        2206        2205
         4        2105        2106        2207        2206
         4        2106        2107        2208        2207
         4        2107        2108        2209        2208
         4        2108        2109        2210        2209
         4        2109        2110        2211        2210
         4        2110        2111        2212        2211
         4        2111        2112        2213        2212
         4        2112        2113        2214        2213
         4        2113        2114        2215        2214
         4        2114        2115        2216        2215
         4        2115        2116        2217        2216
         4        2116        2117        2218        2217
         4        2117        2118        2219        2218
         4        2118        2119        2220        2219
         4        2119        2120        2221        2220
         4        2121        2122        2223        2222
         4        2122        2123        2224        2223
         4        2123        2124        2225        2224
         4        2124        2125        2226        2225
         4        2125        2126        2227        2226
         4        2126        2127        2228        2227
         4        2127        2128        2229        2228
         4        2128        2129        2230        2229
         4        2129        2130        2231        2230
         4        2130        2131        2232        2231
         4        2131        2132        2233        2232
         4        2132        2133        2234        2233
         4        2133        2134        2235        2234
         4        2134        2135        2236        2235
         4        2135        2136        2237        2236
         4        2136        2137        2238        2237
         4        2137        2138        2239        2238
         4        2138        2139        2240        2239
         4        2139        2140        2241        2240
         4        2140        2141        2242        2241
         4        2141        2142        2243        2242
         4        2142        2143        2244        2243
         4        2143        2144        2245        2244
         4        2144        2145        2246        2245
         4        2145        2146        2247        2246
         4        2146        2147        2248        2247
         4        2147        2148        2249        2248
         4        2148        2149        2250        2249
         4        2149        2150        2251        2250
         4        2150        2151        2252        2251
         4        2151        2152        2253        2252
         4        2152        2153        2254        2253
         4        2153        2154        2255        2254
         4        2154        2155        2256        2255
         4        2155        2156        2257        2256
         4        2156        2157        2258        2257
         4        2157        2158        2259        2258
         4        2158        2159        2260        2259
         4        2159        2160        2261        2260
         4        2160        2161        2262        2261
         4        2161        2162        2263        2262
         4        2162        2163        2264        2263
         4        2163        2164        2265        2264
         4        2164        2165        2266        2265
         4        2165        2166        2267        2266
         4        2166        2167        2268        2267
         4        2167        2168        2269        2268
         4        2168        2169        2270        2269
         4        2169        2170        2271        2270
         4        2170        2171        2272        2271
         4        2171        2172        2273        2272
         4        2172        2173        2274        2273
         4        2173        2174        2275        2274
         4        2174        2175        2276        2275
         4        2175        2176        2277        2276
         4        2176        2177        2278        2277
         4        2177        2178        2279        2278
         4        2178        2179        2280        2279
         4        2179        2180        2281        2280
         4        2180        2181        2282        2281
         4        2181        2182        2283        2282
         4        2182        2183        2284        2283
         4        2183        2184        2285        2284
         4        2184        2185        2286        2285
         4        2185        2186        2287        2286
         4        2186        2187        2288        2287
         4        2187        2188        2289        2288
         4        2188        2189        2290        2289
         4        2189        2190        2291        2290
         4        2190        2191        2292        2291
         4        2191        2192        2293        2292
         4        2192        2193        2294        2293
         4        2193        2194        2295        2294
         4        2194        2195        2296        2295
         4        2195        2196        2297        2296
         4        2196        2197        2298        2297
         4        2197        2198        2299        2298
         4        2198        2199        2300        2299
         4        2199        2200        2301        2300
         4        2200        2201        2302        2301
         4        2201        2202        2303        2302
         4        2202        2203        2304        2303
         4        2203        2204        2305        2304
         4        2204        2205        2306        2305
         4        2205        2206        2307        2306
         4        2206        2207        2308        2307
         4        2207        2208        2309        2308
         4        2208        2209        2310        2309
         4        2209        2210        2311        2310
         4        2210        2211        2312        2311
         4        2211        2212        2313        2312
         4        2212        2213        2314        2313
         4        2213        2214        2315        2314
         4        2214        2215        2316        2315
         4        2215        2216        2317        2316
         4        2216        2217        2318        2317
         4        2217        2218        2319        2318
         4        2218        2219        2320        2319
         4        2219        2220        2321        2320
         4        2220        2221        2322        2321
         4        2222        2223        2324        2323
         4        2223        2224        2325        2324
         4        2224        2225        2326        2325
         4        2225        2226        2327        2326
         4        2226        2227        2328        2327
         4        2227        2228        2329        2328
         4        2228        2229        2330        2329
         4        2229        2230        2331        2330
         4        2230        2231        2332        2331
         4        2231        2232        2333        2332
         4        2232        2233        2334        2333
         4        2233        2234        2335        2334
         4        2234        2235        2336        2335
         4        2235        2236        2337        2336
         4        2236        2237        2338        2337
         4        2237        2238        2339        2338
         4        2238        2239        2340        2339
         4        2239        2240        2341        2340
         4        2240        2241        2342        2341
         4        2241        2242        2343        2342
         4        2242        2243        2344        2343
         4        2243        2244        2345        2344
         4        2244        2245        2346        2345
         4        2245        2246        2347        2346
         4        2246        2247        2348        2347
         4        2247        2248        2349        2348
         4        2248        2249        2350        2349
         4        2249        2250        2351        2350
         4        2250        2251        2352        2351
         4        2251        2252        2353        2352
         4        2252        2253        2354        2353
         4        2253        2254        2355        2354
         4        2254        2255        2356        2355
         4        2255        2256        2357        2356
         4        2256        2257        2358        2357
         4        2257        2258        2359        2358
         4        2258        2259        2360        2359
         4        2259        2260        2361        2360
         4        2260        2261        2362        2361
         4        2261        2262        2363        2362
         4        2262        2263        2364        2363
         4        2263        2264        2365        2364
         4        2264        2265        2366        2365
         4        2265        2266        2367        2366
         4        2266        2267        2368        2367
         4        2267        2268        2369        2368
         4        2268        2269        2370        2369
         4        2269        2270        2371        2370
         4        2270        2271        2372        2371
         4        2271        2272        2373        2372
         4        2272        2273        2374        2373
         4        2273        2274        2375        2374
         4        2274        2275        2376        2375
         4        2275        2276        2377        2376
         4        2276        2277        2378        2377
         4        2277        2278        2379        2378
         4        2278        2279        2380        2379
         4        2279        2280        2381        2380
         4        2280        2281        2382        2381
         4        2281        2282        2383        2382
         4        2282        2283        2384        2383
         4        2283        2284        2385        2384
         4        2284        2285        2386        2385
         4        2285        2286        2387        2386
         4        2286        2287        2388        2387
         4        2287        2288        2389        2388
         4        2288        2289        2390        2389
         4        2289        2290        2391        2390
         4        2290        2291        2392        2391
         4        2291        2292        2393        2392
         4        2292        2293        2394        2393
         4        2293        2294        2395        2394
         4        2294        2295        2396        2395
         4        2295        2296        2397        2396
         4        2296        2297        2398        2397
         4        2297        2298        2399        2398
         4        2298        2299        2400        2399
         4        2299        2300        2401        2400
         4        2300        2301        2402        2401
         4        2301        2302        2403        2402
         4        2302        2303        2404        2403
         4        2303        2304        2405        2404
         4        2304        2305        2406        2405
         4        2305        2306        2407        2406
         4        2306        2307        2408        2407
         4        2307        2308        2409        2408
         4        2308        2309        2410        2409
         4        2309        2310        2411        2410
         4        2310        2311        2412        2411
         4        2311        2312        2413        2412
         4        2312        2313        2414        2413
         4        2313        2314        2415        2414
         4        2314        2315        2416        2415
         4        2315        2316        2417        2416
         4        2316        2317        2418        2417
         4        2317        2318        2419        2418
         4        2318        2319        2420        2419
         4        2319        2320        2421        2420
         4        2320        2321        2422        2421
         4        2321        2322        2423        2422
         4        2323        2324        2425        2424
         4        2324        2325        2426        2425
         4        2325        2326        2427        2426
         4        2326        2327        2428        2427
         4        2327        2328        2429        2428
         4        2328        2329        2430        2429
         4        2329        2330        2431        2430
         4        2330        2331        2432        2431
         4        2331        2332        2433        2432
         4        2332        2333        2434        2433
         4        2333        2334        2435        2434
         4        2334        2335        2436        2435
         4        2335        2336        2437        2436
         4        2336        2337        2438        2437
         4        2337        2338        2439        2438
         4        2338        2339        2440        2439
         4        2339        2340        2441        2440
         4        2340        2341        2442        2441
         4        2341        2342        2443        2442
         4        2342        2343        2444        2443
         4        2343        2344        2445        2444
         4        2344        2345        2446        2445
         4        2345        2346        2447        2446
         4        2346        2347        2448        2447
         4        2347        2348        2449        2448
         4        2348        2349        2450        2449
         4        2349        2350        2451        2450
         4        2350        2351        2452        2451
         4        2351        2352        2453        2452
         4        2352        2353        2454        2453
         4        2353        2354        2455        2454
         4        2354        2355        2456        2455
         4        2355        2356        2457        2456
         4        2356        2357        2458        2457
         4        2357        2358        2459        2458
         4        2358        2359        2460        2459
         4        2359        2360        2461        2460
         4        2360        2361        2462        2461
         4        2361        2362        2463        2462
         4        2362        2363        2464        2463
         4        2363        2364        2465        2464
         4        2364        2365        2466        2465
         4        2365        2366        2467        2466
         4        2366        2367        2468        2467
         4        2367        2368        2469        2468
         4        2368        2369        2470        2469
         4        2369        2370        2471        2470
         4        2370        2371        2472        2471
         4        2371        2372        2473        2472
         4        2372        2373        2474        2473
         4        2373        2374        2475        2474
         4        2374        2375        2476        2475
         4        2375        2376        2477        2476
         4        2376        2377        2478        2477
         4        2377        2378        2479        2478
         4        2378        2379        2480        2479
         4        2379        2380        2481        2480
         4        2380        2381        2482        2481
         4        2381        2382        2483        2482
         4        2382        2383        2484        2483
         4        2383        2384        2485        2484
         4        2384        2385        2486        2485
         4        2385        2386        2487        2486
         4        2386        2387        2488        2487
         4        2387        2388        2489        2488
         4        2388        2389        2490        2489
         4        2389        2390        2491        2490
         4        2390        2391        2492        2491
         4        2391        2392        2493        2492
         4        2392        2393        2494        2493
         4        2393        2394        2495        2494
         4        2394        2395        2496        2495
         4        2395        2396        2497        2496
         4        2396        2397        2498        2497
         4        2397        2398        2499        2498
         4        2398        2399        2500        2499
         4        2399        2400        2501        2500
         4        2400        2401        2502        2501
         4        2401        2402        2503        2502
         4        2402        2403        2504        2503
         4        2403        2404        2505        2504
         4        2404        2405        2506        2505
         4        2405        2406        2507        2506
         4        2406        2407        2508        2507
         4        2407        2408        2509        2508
         4        2408        2409        2510        2509
         4        2409        2410        2511        2510
         4        2410        2411        2512        2511
         4        2411        2412        2513        2512
         4        2412        2413        2514        2513
         4        2413        2414        2515        2514
         4        2414        2415        2516        2515
         4        2415        2416        2517        2516
         4        2416        2417        2518        2517
         4        2417        2418        2519        2518
         4        2418        2419        2520        2519
         4        2419        2420        2521        2520
         4        2420        2421        2522        2521
         4        2421        2422        2523        2522
         4        2422        2423        2524        2523
         4        2424        2425        2526        2525
         4        2425        2426        2527        2526
         4        2426        2427        2528        2527
         4        2427        2428        2529        2528
         4        2428        2429        2530        2529
         4        2429        2430        2531        2530
         4        2430        2431        2532        2531
         4        2431        2432        2533        2532
         4        2432        2433        2534        2533
         4        2433        2434        2535        2534
         4        2434        2435        2536        2535
         4        2435        2436        2537        2536
         4        2436        2437        2538        2537
         4        2437        2438        2539        2538
         4        2438        2439        2540        2539
         4        2439        2440        2541        2540
         4        2440        2441        2542        2541
         4        2441        2442        2543        2542
         4        2442        2443        2544        2543
         4        2443        2444        2545        2544
         4        2444        2445        2546        2545
         4        2445        2446        2547        2546
         4        2446        2447        2548        2547
         4        2447        2448        2549        2548
         4        2448        2449        2550        2549
         4        2449        2450        2551        2550
         4        2450        2451        2552        2551
         4        2451        2452        2553        2552
         4        2452        2453        2554        2553
         4        2453        2454        2555        2554
         4        2454        2455        2556        2555
         4        2455        2456        2557        2556
         4        2456        2457        2558        2557
         4        2457        2458        2559        2558
         4        2458        2459        2560        2559
         4        2459        2460        2561        2560
         4        2460        2461        2562        2561
         4        2461        2462        2563        2562
         4        2462        2463        2564        2563
         4        2463        2464        2565        2564
         4        2464        2465        2566        2565
         4        2465        2466        2567        2566
         4        2466        2467        2568        2567
         4        2467        2468        2569        2568
         4        2468        2469        2570        2569
         4        2469        2470        2571        2570
         4        2470        2471        2572        2571
         4        2471        2472        2573        2572
         4        2472        2473        2574        2573
         4        2473        2474        2575        2574
         4        2474        2475        2576        2575
         4        2475        2476        2577        2576
         4        2476        2477        2578        2577
         4        2477        2478        2579        2578
         4        2478        2479        2580        2579
         4        2479        2480        2581        2580
         4        2480        2481        2582        2581
         4        2481        2482        2583        2582
         4        2482        2483        2584        2583
         4        2483        2484        2585        2584
         4        2484        2485        2586        2585
         4        2485        2486        2587        2586
         4        2486        2487        2588        2587
         4        2487        2488        2589        2588
         4        2488        2489        2590        2589
         4        2489        2490        2591        2590
         4        2490        2491        2592        2591
         4        2491        2492        2593        2592
         4        2492        2493        2594        2593
         4        2493        2494        2595        2594
         4        2494        2495        2596        2595
         4        2495        2496        2597        2596
         4        2496        2497        2598        2597
         4        2497        2498        2599        2598
         4        2498        2499        2600        2599
         4        2499        2500        2601        2600
         4        2500        2501        2602        2601
         4        2501        2502        2603        2602
         4        2502        2503        2604        2603
         4        2503        2504        2605        2604
         4        2504        2505        2606        2605
         4        2505        2506        2607        2606
         4        2506        2507        2608        2607
         4        2507        2508        2609        2608
         4        2508        2509        2610        2609
         4        2509        2510        2611        2610
         4        2510        2511        2612        2611
         4        2511        2512        2613        2612
         4        2512        2513        2614        2613
         4        2513        2514        2615        2614
         4        2514        2515        2616        2615
         4        2515        2516        2617        2616
         4        2516        2517        2618        2617
         4        2517        2518        2619        2618
         4        2518        2519        2620        2619
         4        2519        2520        2621        2620
         4        2520        2521        2622        2621
         4        2521        2522        2623        2622
         4        2522        2523        2624        2623
         4        2523        2524        2625        2624
         4        2525        2526        2627        2626
         4        2526        2527        2628        2627
         4        2527        2528        2629        2628
         4        2528        2529        2630        2629
         4        2529        2530        2631        2630
         4        2530        2531        2632        2631
         4        2531        2532        2633        2632
         4        2532        2533        2634        2633
         4        2533        2534        2635        2634
         4        2534        2535        2636        2635
         4        2535        2536        2637        2636
         4        2536        2537        2638        2637
         4        2537        2538        2639        2638
         4        2538        2539        2640        2639
         4        2539        2540        2641        2640
         4        2540        2541        2642        2641
         4        2541        2542        2643        2642
         4        2542        2543        2644        2643
         4        2543        2544        2645        2644
         4        2544        2545        2646        2645
         4        2545        2546        2647        2646
         4        2546        2547        2648        2647
         4        2547        2548        2649        2648
         4        2548        2549        2650        2649
         4        2549        2550        2651        2650
         4        2550        2551        2652        2651
         4        2551        2552        2653        2652
         4        2552        2553        2654        2653
         4        2553        2554        2655        2654
         4        2554        2555        2656        2655
         4        2555        2556        2657        2656
         4        2556        2557        2658        2657
         4        2557        2558        2659        2658
         4        2558        2559        2660        2659
         4        2559        2560        2661        2660
         4        2560        2561        2662        2661
         4        2561        2562        2663        2662
         4        2562        2563        2664        2663
         4        2563        2564        2665        2664
         4        2564        2565        2666        2665
         4        2565        2566        2667        2666
         4        2566        2567        2668        2667
         4        2567        2568        2669        2668
         4        2568        2569        2670        2669
         4        2569        2570        2671        2670
         4        2570        2571        2672        2671
         4        2571        2572        2673        2672
         4        2572        2573        2674        2673
         4        2573        2574        2675        2674
         4        2574        2575        2676        2675
         4        2575        2576        2677        2676
         4        2576        2577        2678        2677
         4        2577        2578        2679        2678
         4        2578        2579        2680        2679
         4        2579        2580        2681        2680
         4        2580        2581        2682        2681
         4        2581        2582        2683        2682
         4        2582        2583        2684        2683
         4        2583        2584        2685        2684
         4        2584        2585        2686        2685
         4        2585        2586        2687        2686
         4        2586        2587        2688        2687
         4        2587        2588        2689        2688
         4        2588        2589        2690        2689
         4        2589        2590        2691        2690
         4        2590        2591        2692        2691
         4        2591        2592        2693        2692
         4        2592        2593        2694        2693
         4        2593        2594        2695        2694
         4        2594        2595        2696        2695
         4        2595        2596        2697        2696
         4        2596        2597        2698        2697
         4        2597        2598        2699        2698
         4        2598        2599        2700        2699
         4        2599        2600        2701        2700
         4        2600        2601        2702        2701
         4        2601        2602        2703        2702
         4        2602        2603        2704        2703
         4        2603        2604        2705        2704
         4        2604        2605        2706        2705
         4        2605        2606        2707        2706
         4        2606        2607        2708        2707
         4        2607        2608        2709        2708
         4        2608        2609        2710        2709
         4        2609        2610        2711        2710
         4        2610        2611        2712        2711
         4        2611        2612        2713        2712
         4        2612        2613        2714        2713
         4        2613        2614        2715        2714
         4        2614        2615        2716        2715
         4        2615        2616        2717        2716
         4        2616        2617        2718        2717
         4        2617        2618        2719        2718
         4        2618        2619        2720        2719
         4        2619        2620        2721        2720
         4        2620        2621        2722        2721
         4        2621        2622        2723        2722
         4        2622        2623        2724        2723
         4        2623        2624        2725        2724
         4        2624        2625        2726        2725
         4        2626        2627        2728        2727
         4        2627        2628        2729        2728
         4        2628        2629        2730        2729
         4        2629        2630        2731        2730
         4        2630        2631        2732        2731
         4        2631        2632        2733        2732
         4        2632        2633        2734        2733
         4        2633        2634        2735        2734
         4        2634        2635        2736        2735
         4        2635        2636        2737        2736
         4        2636        2637        2738        2737
         4        2637        2638        2739        2738
         4        2638        2639        2740        2739
         4        2639        2640        2741        2740
         4        2640        2641        2742        2741
         4        2641        2642        2743        2742
         4        2642        2643        2744        2743
         4        2643        2644        2745        2744
         4        2644        2645        2746        2745
         4        2645        2646        2747        2746
         4        2646        2647        2748        2747
         4        2647        2648        2749        2748
         4        2648        2649        2750        2749
         4        2649        2650        2751        2750
         4        2650        2651        2752        2751
         4        2651        2652        2753        2752
         4        2652        2653        2754        2753
         4        2653        2654        2755        2754
         4        2654        2655        2756        2755
         4        2655        2656        2757        2756
         4        2656        2657        2758        2757
         4        2657        2658        2759        2758
         4        2658        2659        2760        2759
         4        2659        2660        2761        2760
         4        2660        2661        2762        2761
         4        2661        2662        2763        2762
         4        2662        2663        2764        2763
         4        2663        2664        2765        2764
         4        2664        2665        2766        2765
         4        2665        2666        2767        2766
         4        2666        2667        2768        2767
         4        2667        2668        2769        2768
         4        2668        2669        2770        2769
         4        2669        2670        2771        2770
         4        2670        2671        2772        2771
         4        2671        2672        2773        2772
         4        2672        2673        2774        2773
         4        2673        2674        2775        2774
         4        2674        2675        2776        2775
         4        2675        2676        2777        2776
         4        2676        2677        2778        2777
         4        2677        2678        2779        2778
         4        2678        2679        2780        2779
         4        2679        2680        2781        2780
         4        2680        2681        2782        2781
         4        2681        2682        2783        2782
         4        2682        2683        2784        2783
         4        2683        2684        2785        2784
         4        2684        2685        2786        2785
         4        2685        2686        2787        2786
         4        2686        2687        2788        2787
         4        2687        2688        2789        2788
         4        2688        2689        2790        2789
         4        2689        2690        2791        2790
         4        2690        2691        2792        2791
         4        2691        2692        2793        2792
         4        2692        2693        2794        2793
         4        2693        2694        2795        2794
         4        2694        2695        2796        2795
         4        2695        2696        2797        2796
         4        2696        2697        2798        2797
         4        2697        2698        2799        2798
         4        2698        2699        2800        2799
         4        2699        2700        2801        2800
         4        2700        2701        2802        2801
         4        2701        2702        2803        2802
         4        2702        2703        2804        2803
         4        2703        2704        2805        2804
         4        2704        2705        2806        2805
         4        2705        2706        2807        2806
         4        2706        2707        2808        2807
         4        2707        2708        2809        2808
         4        2708        2709        2810        2809
         4        2709        2710        2811        2810
         4        2710        2711        2812        2811
         4        2711        2712        2813        2812
         4        2712        2713        2814        2813
         4        2713        2714        2815        2814
         4        2714        2715        2816        2815
         4        2715        2716        2817        2816
         4        2716        2717        2818        2817
         4        2717        2718        2819        2818
         4        2718        2719        2820        2819
         4        2719        2720        2821        2820
         4        2720        2721        2822        2821
         4        2721        2722        2823        2822
         4        2722        2723        2824        2823
         4        2723        2724        2825        2824
         4        2724        2725        2826        2825
         4        2725        2726        2827        2826
         4        2727        2728        2829        2828
         4        2728        2729        2830        2829
         4        2729        2730        2831        2830
         4        2730        2731        2832        2831
         4        2731        2732        2833        2832
         4        2732        2733        2834        2833
         4        2733        2734        2835        2834
         4        2734        2735        2836        2835
         4        2735        2736        2837        2836
         4        2736        2737        2838        2837
         4        2737        2738        2839        2838
         4        2738        2739        2840        2839
         4        2739        2740        2841        2840
         4        2740        2741        2842        2841
         4        2741        2742        2843        2842
         4        2742        2743        2844        2843
         4        2743        2744        2845        2844
         4        2744        2745        2846        2845
         4        2745        2746        2847        2846
         4        2746        2747        2848        2847
         4        2747        2748        2849        2848
         4        2748        2749        2850        2849
         4        2749        2750        2851        2850
         4        2750        2751        2852        2851
         4        2751        2752        2853        2852
         4        2752        2753        2854        2853
         4        2753        2754        2855        2854
         4        2754        2755        2856        2855
         4        2755        2756        2857        2856
         4        2756        2757        2858        2857
         4        2757        2758        2859        2858
         4        2758        2759        2860        2859
         4        2759        2760        2861        2860
         4        2760        2761        2862        2861
         4        2761        2762        2863        2862
         4        2762        2763        2864        2863
         4        2763        2764        2865        2864
         4        2764        2765        2866        2865
         4        2765        2766        2867        2866
         4        2766        2767        2868        2867
         4        2767        2768        2869        2868
         4        2768        2769        2870        2869
         4        2769        2770        2871        2870
         4        2770        2771        2872        2871
         4        2771        2772        2873        2872
         4        2772        2773        2874        2873
         4        2773        2774        2875        2874
         4        2774        2775        2876        2875
         4        2775        2776        2877        2876
         4        2776        2777        2878        2877
         4        2777        2778        2879        2878
         4        2778        2779        2880        2879
         4        2779        2780        2881        2880
         4        2780        2781        2882        2881
         4        2781        2782        2883        2882
         4        2782        2783        2884        2883
         4        2783        2784        2885        2884
         4        2784        2785        2886        2885
         4        2785        2786        2887        2886
         4        2786        2787        2888        2887
         4        2787        2788        2889        2888
         4        2788        2789        2890        2889
         4        2789        2790        2891        2890
         4        2790        2791        2892        2891
         4        2791        2792        2893        2892
         4        2792        2793        2894        2893
         4        2793        2794        2895        2894
         4        2794        2795        2896        2895
         4        2795        2796        2897        2896
         4        2796        2797        2898        2897
         4        2797        2798        2899        2898
         4        2798        2799        2900        2899
         4        2799        2800        2901        2900
         4        2800        2801        2902        2901
         4        2801        2802        2903        2902
         4        2802        2803        2904        2903
         4        2803        2804        2905        2904
         4        2804        2805        2906        2905
         4        2805        2806        2907        2906
         4        2806        2807        2908        2907
         4        2807        2808        2909        2908
         4        2808        2809        2910        2909
         4        2809        2810        2911        2910
         4        2810        2811        2912        2911
         4        2811        2812        2913        2912
         4        2812        2813        2914        2913
         4        2813        2814        2915        2914
         4        2814        2815        2916        2915
         4        2815        2816        2917        2916
         4        2816        2817        2918        2917
         4        2817        2818        2919        2918
         4        2818        2819        2920        2919
         4        2819        2820        2921        2920
         4        2820        2821        2922        2921
         4        2821        2822        2923        2922
         4        2822        2823        2924        2923
         4        2823        2824        2925        2924
         4        2824        2825        2926        2925
         4        2825        2826        2927        2926
         4        2826        2827        2928        2927
         4        2828        2829        2930        2929
         4        2829        2830        2931        2930
         4        2830        2831        2932        2931
         4        2831        2832        2933        2932
         4        2832        2833        2934        2933
         4        2833        2834        2935        2934
         4        2834        2835        2936        2935
         4        2835        2836        2937        2936
         4        2836        2837        2938        2937
         4        2837        2838        2939        2938
         4        2838        2839        2940        2939
         4        2839        2840        2941        2940
         4        2840        2841        2942        2941
         4        2841        2842        2943        2942
         4        2842        2843        2944        2943
         4        2843        2844        2945        2944
         4        2844        2845        2946        2945
         4        2845        2846        2947        2946
         4        2846        2847        2948        2947
         4        2847        2848        2949        2948
         4        2848        2849        2950        2949
         4        2849        2850        2951        2950
         4        2850        2851        2952        2951
         4        2851        2852        2953        2952
         4        2852        2853        2954        2953
         4        2853        2854        2955        2954
         4        2854        2855        2956        2955
         4        2855        2856        2957        2956
         4        2856        2857        2958        2957
         4        2857        2858        2959        2958
         4        2858        2859        2960        2959
         4        2859        2860        2961        2960
         4        2860        2861        2962        2961
         4        2861        2862        2963        2962
         4        2862        2863        2964        2963
         4        2863        2864        2965        2964
         4        2864        2865        2966        2965
         4        2865        2866        2967        2966
         4        2866        2867        2968        2967
         4        2867        2868        2969        2968
         4        2868        2869        2970        2969
         4        2869        2870        2971        2970
         4        2870        2871        2972        2971
         4        2871        2872        2973        2972
         4        2872        2873        2974        2973
         4        2873        2874        2975        2974
         4        2874        2875        2976        2975
         4        2875        2876        2977        2976
         4        2876        2877        2978        2977
         4        2877        2878        2979        2978
         4        2878        2879        2980        2979
         4        2879        2880        2981        2980
         4        2880        2881        2982        2981
         4        2881        2882        2983        2982
         4        2882        2883        2984        2983
         4        2883        2884        2985        2984
         4        2884        2885        2986        2985
         4        2885        2886        2987        2986
         4        2886        2887        2988        2987
         4        2887        2888        2989        2988
         4        2888        2889        2990        2989
         4        2889        2890        2991        2990
         4        2890        2891        2992        2991
         4        2891        2892        2993        2992
         4        2892        2893        2994        2993
         4        2893        2894        2995        2994
         4        2894        2895        2996        2995
         4        2895        2896        2997        2996
         4        2896        2897        2998        2997
         4        2897        2898        2999        2998
         4        2898        2899        3000        2999
         4        2899        2900        3001        3000
         4        2900        2901        3002        3001
         4        2901        2902        3003        3002
         4        2902        2903        3004        3003
         4        2903        2904        3005        3004
         4        2904        2905        3006        3005
         4        2905        2906        3007        3006
         4        2906        2907        3008        3007
         4        2907        2908        3009        3008
         4        2908        2909        3010        3009
         4        2909        2910        3011        3010
         4        2910        2911        3012        3011
         4        2911        2912        3013        3012
         4        2912        2913        3014        3013
         4        2913        2914        3015        3014
         4        2914        2915        3016        3015
         4        2915        2916        3017        3016
         4        2916        2917        3018        3017
         4        2917        2918        3019        3018
         4        2918        2919        3020        3019
         4        2919        2920        3021        3020
         4        2920        2921        3022        3021
         4        2921        2922        3023        3022
         4        2922        2923        3024        3023
         4        2923        2924        3025        3024
         4        2924        2925        3026        3025
         4        2925        2926        3027        3026
         4        2926        2927        3028        3027
         4        2927        2928        3029        3028
         4        2929        2930        3031        3030
         4        2930        2931        3032        3031
         4        2931        2932        3033        3032
         4        2932        2933        3034        3033
         4        2933        2934        3035        3034
         4        2934        2935        3036        3035
         4        2935        2936        3037        3036
         4        2936        2937        3038        3037
         4        2937        2938        3039        3038
         4        2938        2939        3040        3039
         4        2939        2940        3041        3040
         4        2940        2941        3042        3041
         4        2941        2942        3043        3042
         4        2942        2943        3044        3043
         4        2943        2944        3045        3044
         4        2944        2945        3046        3045
         4        2945        2946        3047        3046
         4        2946        2947        3048        3047
         4        2947        2948        3049        3048
         4        2948        2949        3050        3049
         4        2949        2950        3051        3050
         4        2950        2951        3052        3051
         4        2951        2952        3053        3052
         4        2952        2953        3054        3053
         4        2953        2954        3055        3054
         4        2954        2955        3056        3055
         4        2955        2956        3057        3056
         4        2956        2957        3058        3057
         4        2957        2958        3059        3058
         4        2958        2959        3060        3059
         4        2959        2960        3061        3060
         4        2960        2961        3062        3061
         4        2961        2962        3063        3062
         4        2962        2963        3064        3063
         4        2963        2964        3065        3064
         4        2964        2965        3066        3065
         4        2965        2966        3067        3066
         4        2966        2967        3068        3067
         4        2967        2968        3069        3068
         4        2968        2969        3070        3069
         4        2969        2970        3071        3070
         4        2970        2971        3072        3071
         4        2971        2972        3073        3072
         4        2972        2973        3074        3073
         4        2973        2974        3075        3074
         4        2974        2975        3076        3075
         4        2975        2976        3077        3076
         4        2976        2977        3078        3077
         4        2977        2978        3079        3078
         4        2978        2979        3080        3079
         4        2979        2980        3081        3080
         4        2980        2981        3082        3081
         4        2981        2982        3083        3082
         4        2982        2983        3084        3083
         4        2983        2984        3085        3084
         4        2984        2985        3086        3085
         4        2985        2986        3087        3086
         4        2986        2987        3088        3087
         4        2987        2988        3089        3088
         4        2988        2989        3090        3089
         4        2989        2990        3091        3090
         4        2990        2991        3092        3091
         4        2991        2992        3093        3092
         4        2992        2993        3094        3093
         4        2993        2994        3095        3094
         4        2994        2995        3096        3095
         4        2995        2996        3097        3096
         4        2996        2997        3098        3097
         4        2997        2998        3099        3098
         4        2998        2999        3100        3099
         4        2999        3000        3101        3100
         4        3000        3001        3102        3101
         4        3001        3002        3103        3102
         4        3002        3003        3104        3103
         4        3003        3004        3105        3104
         4        3004        3005        3106        3105
         4        3005        3006        3107        3106
         4        3006        3007        3108        3107
         4        3007        3008        3109        3108
         4        3008        3009        3110        3109
         4        3009        3010        3111        3110
         4        3010        3011        3112        3111
         4        3011        3012        3113        3112
         4        3012        3013        3114        3113
         4        3013        3014        3115        3114
         4        3014        3015        3116        3115
         4        3015        3016        3117        3116
         4        3016        3017        3118        3117
         4        3017        3018        3119        3118
         4        3018        3019        3120        3119
         4        3019        3020        3121        3120
         4        3020        3021        3122        3121
         4        3021        3022        3123        3122
         4        3022        3023        3124        3123
         4        3023        3024        3125        3124
         4        3024        3025        3126        3125
         4        3025        3026        3127        3126
         4        3026        3027        3128        3127
         4        3027        3028        3129        3128
         4        3028        3029        3130        3129
         4        3030        3031        3132        3131
         4        3031        3032        3133        3132
         4        3032        3033        3134        3133
         4        3033        3034        3135        3134
         4        3034        3035        3136        3135
         4        3035        3036        3137        3136
         4        3036        3037        3138        3137
         4        3037        3038        3139        3138
         4        3038        3039        3140        3139
         4        3039        3040        3141        3140
         4        3040        3041        3142        3141
         4        3041        3042        3143        3142
         4        3042        3043        3144        3143
         4        3043        3044        3145        3144
         4        3044        3045        3146        3145
         4        3045        3046        3147        3146
         4        3046        3047        3148        3147
         4        3047        3048        3149        3148
         4        3048        3049        3150        3149
         4        3049        3050        3151        3150
         4        3050        3051        3152        3151
         4        3051        3052        3153        3152
         4        3052        3053        3154        3153
         4        3053        3054        3155        3154
         4        3054        3055        3156        3155
         4        3055        3056        3157        3156
         4        3056        3057        3158        3157
         4        3057        3058        3159        3158
         4        3058        3059        3160        3159
         4        3059        3060        3161        3160
         4        3060        3061        3162        3161
         4        3061        3062        3163        3162
         4        3062        3063        3164        3163
         4        3063        3064        3165        3164
         4        3064        3065        3166        3165
         4        3065        3066        3167        3166
         4        3066        3067        3168        3167
         4        3067        3068        3169        3168
         4        3068        3069        3170        3169
         4        3069        3070        3171        3170
         4        3070        3071        3172        3171
         4        3071        3072        3173        3172
         4        3072        3073        3174        3173
         4        3073        3074        3175        3174
         4        3074        3075        3176        3175
         4        3075        3076        3177        3176
         4        3076        3077        3178        3177
         4        3077        3078        3179        3178
         4        3078        3079        3180        3179
         4        3079        3080        3181        3180
         4        3080        3081        3182        3181
         4        3081        3082        3183        3182
         4        3082        3083        3184        3183
         4        3083        3084        3185        3184
         4        3084        3085        3186        3185
         4        3085        3086        3187        3186
         4        3086        3087        3188        3187
         4        3087        3088        3189        3188
         4        3088        3089        3190        3189
         4        3089        3090        3191        3190
         4        3090        3091        3192        3191
         4        3091        3092        3193        3192
         4        3092        3093        3194        3193
         4        3093        3094        3195        3194
         4        3094        3095        3196        3195
         4        3095        3096        3197        3196
         4        3096        3097        3198        3197
         4        3097        3098        3199        3198
         4        3098        3099        3200        3199
         4        3099        3100        3201        3200
         4        3100        3101        3202        3201
         4        3101        3102        3203        3202
         4        3102        3103        3204        3203
         4        3103        3104        3205        3204
         4        3104        3105        3206        3205
         4        3105        3106        3207        3206
         4        3106        3107        3208        3207
         4        3107        3108        3209        3208
         4        3108        3109        3210        3209
         4        3109        3110        3211        3210
         4        3110        3111        3212        3211
         4        3111        3112        3213        3212
         4        3112        3113        3214        3213
         4        3113        3114        3215        3214
         4        3114        3115        3216        3215
         4        3115        3116        3217        3216
         4        3116        3117        3218        3217
         4        3117        3118        3219        3218
         4        3118        3119        3220        3219
         4        3119        3120        3221        3220
         4        3120        3121        3222        3221
         4        3121        3122        3223        3222
         4        3122        3123        3224        3223
         4        3123        3124        3225        3224
         4        3124        3125        3226        3225
         4        3125        3126        3227        3226
         4        3126        3127        3228        3227
         4        3127        3128        3229        3228
         4        3128        3129        3230        3229
         4        3129        3130        3231        3230
         4        3131        3132        3233        3232
         4        3132        3133        3234        3233
         4        3133        3134        3235        3234
         4        3134        3135        3236        3235
         4        3135        3136        3237        3236
         4        3136        3137        3238        3237
         4        3137        3138        3239        3238
         4        3138        3139        3240        3239
         4        3139        3140        3241        3240
         4        3140        3141        3242        3241
         4        3141        3142        3243        3242
         4        3142        3143        3244        3243
         4        3143        3144        3245        3244
         4        3144        3145        3246        3245
         4        3145        3146        3247        3246
         4        3146        3147        3248        3247
         4        3147        3148        3249        3248
         4        3148        3149        3250        3249
         4        3149        3150        3251        3250
         4        3150        3151        3252        3251
         4        3151        3152        3253        3252
         4        3152        3153        3254        3253
         4        3153        3154        3255        3254
         4        3154        3155        3256        3255
         4        3155        3156        3257        3256
         4        3156        3157        3258        3257
         4        3157        3158        3259        3258
         4        3158        3159        3260        3259
         4        3159        3160        3261        3260
         4        3160        3161        3262        3261
         4        3161        3162        3263        3262
         4        3162        3163        3264        3263
         4        3163        3164        3265        3264
         4        3164        3165        3266        3265
         4        3165        3166        3267        3266
         4        3166        3167        3268        3267
         4        3167        3168        3269        3268
         4        3168        3169        3270        3269
         4        3169        3170        3271        3270
         4        3170        3171        3272        3271
         4        3171        3172        3273        3272
         4        3172        3173        3274        3273
         4        3173        3174        3275        3274
         4        3174        3175        3276        3275
         4        3175        3176        3277        3276
         4        3176        3177        3278        3277
         4        3177        3178        3279        3278
         4        3178        3179        3280        3279
         4        3179        3180        3281        3280
         4        3180        3181        3282        3281
         4        3181        3182        3283        3282
         4        3182        3183        3284        3283
         4        3183        3184        3285        3284
         4        3184        3185        3286        3285
         4        3185        3186        3287        3286
         4        3186        3187        3288        3287
         4        3187        3188        3289        3288
         4        3188        3189        3290        3289
         4        3189        3190        3291        3290
         4        3190        3191        3292        3291
         4        3191        3192        3293        3292
         4        3192        3193        3294        3293
         4        3193        3194        3295        3294
         4        3194        3195        3296        3295
         4        3195        3196        3297        3296
         4        3196        3197        3298        3297
         4        3197        3198        3299        3298
         4        3198        3199        3300        3299
         4        3199        3200        3301        3300
         4        3200        3201        3302        3301
         4        3201        3202        3303        3302
         4        3202        3203        3304        3303
         4        3203        3204        3305        3304
         4        3204        3205        3306        3305
         4        3205        3206        3307        3306
         4        3206        3207        3308        3307
         4        3207        3208        3309        3308
         4        3208        3209        3310        3309
         4        3209        3210        3311        3310
         4        3210        3211        3312        3311
         4        3211        3212        3313        3312
         4        3212        3213        3314        3313
         4        3213        3214        3315        3314
         4        3214        3215        3316        3315
         4        3215        3216        3317        3316
         4        3216        3217        3318        3317
         4        3217        3218        3319        3318
         4        3218        3219        3320        3319
         4        3219        3220        3321        3320
         4        3220        3221        3322        3321
         4        3221        3222        3323        3322
         4        3222        3223        3324        3323
         4        3223        3224        3325        3324
         4        3224        3225        3326        3325
         4        3225        3226        3327        3326
         4        3226        3227        3328        3327
         4        3227        3228        3329        3328
         4        3228        3229        3330        3329
         4        3229        3230        3331        3330
         4        3230        3231        3332        3331
         4        3232        3233        3334        3333
         4        3233        3234        3335        3334
         4        3234        3235        3336        3335
         4        3235        3236        3337        3336
         4        3236        3237        3338        3337
         4        3237        3238        3339        3338
         4        3238        3239        3340        3339
         4        3239        3240        3341        3340
         4        3240        3241        3342        3341
         4        3241        3242        3343        3342
         4        3242        3243        3344        3343
         4        3243        3244        3345        3344
         4        3244        3245        3346        3345
         4        3245        3246        3347        3346
         4        3246        3247        3348        3347
         4        3247        3248        3349        3348
         4        3248        3249        3350        3349
         4        3249        3250        3351        3350
         4        3250        3251        3352        3351
         4        3251        3252        3353        3352
         4        3252        3253        3354        3353
         4        3253        3254        3355        3354
         4        3254        3255        3356        3355
         4        3255        3256        3357        3356
         4        3256        3257        3358        3357
         4        3257        3258        3359        3358
         4        3258        3259        3360        3359
         4        3259        3260        3361        3360
         4        3260        3261        3362        3361
         4        3261        3262        3363        3362
         4        3262        3263        3364        3363
         4        3263        3264        3365        3364
         4        3264        3265        3366        3365
         4        3265        3266        3367        3366
         4        3266        3267        3368        3367
         4        3267        3268        3369        3368
         4        3268        3269        3370        3369
         4        3269        3270        3371        3370
         4        3270        3271        3372        3371
         4        3271        3272        3373        3372
         4        3272        3273        3374        3373
         4        3273        3274        3375        3374
         4        3274        3275        3376        3375
         4        3275        3276        3377        3376
         4        3276        3277        3378        3377
         4        3277        3278        3379        3378
         4        3278        3279        3380        3379
         4        3279        3280        3381        3380
         4        3280        3281        3382        3381
         4        3281        3282        3383        3382
         4        3282        3283        3384        3383
         4        3283        3284        3385        3384
         4        3284        3285        3386        3385
         4        3285        3286        3387        3386
         4        3286        3287        3388        3387
         4        3287        3288        3389        3388
         4        3288        3289        3390        3389
         4        3289        3290        3391        3390
         4        3290        3291        3392        3391
         4        3291        3292        3393        3392
         4        3292        3293        3394        3393
         4        3293        3294        3395        3394
         4        3294        3295        3396        3395
         4        3295        3296        3397        3396
         4        3296        3297        3398        3397
         4        3297        3298        3399        3398
         4        3298        3299        3400        3399
         4        3299        3300        3401        3400
         4        3300        3301        3402        3401
         4        3301        3302        3403        3402
         4        3302        3303        3404        3403
         4        3303        3304        3405        3404
         4        3304        3305        3406        3405
         4        3305        3306        3407        3406
         4        3306        3307        3408        3407
         4        3307        3308        3409        3408
         4        3308        3309        3410        3409
         4        3309        3310        3411        3410
         4        3310        3311        3412        3411
         4        3311        3312        3413        3412
         4        3312        3313        3414        3413
         4        3313        3314        3415        3414
         4        3314        3315        3416        3415
         4        3315        3316        3417        3416
         4        3316        3317        3418        3417
         4        3317        3318        3419        3418
         4        3318        3319        3420        3419
         4        3319        3320        3421        3420
         4        3320        3321        3422        3421
         4        3321        3322        3423        3422
         4        3322        3323        3424        3423
         4        3323        3324        3425        3424
         4        3324        3325        3426        3425
         4        3325        3326        3427        3426
         4        3326        3327        3428        3427
         4        3327        3328        3429        3428
         4        3328        3329        3430        3429
         4        3329        3330        3431        3430
         4        3330        3331        3432        3431
         4        3331        3332        3433        3432
         4        3333        3334        3435        3434
         4        3334        3335        3436        3435
         4        3335        3336        3437        3436
         4        3336        3337        3438        3437
         4        3337        3338        3439        3438
         4        3338        3339        3440        3439
         4        3339        3340        3441        3440
         4        3340        3341        3442        3441
         4        3341        3342        3443        3442
         4        3342        3343        3444        3443
         4        3343        3344        3445        3444
         4        3344        3345        3446        3445
         4        3345        3346        3447        3446
         4        3346        3347        3448        3447
         4        3347        3348        3449        3448
         4        3348        3349        3450        3449
         4        3349        3350        3451        3450
         4        3350        3351        3452        3451
         4        3351        3352        3453        3452
         4        3352        3353        3454        3453
         4        3353        3354        3455        3454
         4        3354        3355        3456        3455
         4        3355        3356        3457        3456
         4        3356        3357        3458        3457
         4        3357        3358        3459        3458
         4        3358        3359        3460        3459
         4        3359        3360        3461        3460
         4        3360        3361        3462        3461
         4        3361        3362        3463        3462
         4        3362        3363        3464        3463
         4        3363        3364        3465        3464
         4        3364        3365        3466        3465
         4        3365        3366        3467        3466
         4        3366        3367        3468        3467
         4        3367        3368        3469        3468
         4        3368        3369        3470        3469
         4        3369        3370        3471        3470
         4        3370        3371        3472        3471
         4        3371        3372        3473        3472
         4        3372        3373        3474        3473
         4        3373        3374        3475        3474
         4        3374        3375        3476        3475
         4        3375        3376        3477        3476
         4        3376        3377        3478        3477
         4        3377        3378        3479        3478
         4        3378        3379        3480        3479
         4        3379        3380        3481        3480
         4        3380        3381        3482        3481
         4        3381        3382        3483        3482
         4        3382        3383        3484        3483
         4        3383        3384        3485        3484
         4        3384        3385        3486        3485
         4        3385        3386        3487        3486
         4        3386        3387        3488        3487
         4        3387        3388        3489        3488
         4        3388        3389        3490        3489
         4        3389        3390        3491        3490
         4        3390        3391        3492        3491
         4        3391        3392        3493        3492
         4        3392        3393        3494        3493
         4        3393        3394        3495        3494
         4        3394        3395        3496        3495
         4        3395        3396        3497        3496
         4        3396        3397        3498        3497
         4        3397        3398        3499        3498
         4        3398        3399        3500        3499
         4        3399        3400        3501        3500
         4        3400        3401        3502        3501
         4        3401        3402        3503        3502
         4        3402        3403        3504        3503
         4        3403        3404        3505        3504
         4        3404        3405        3506        3505
         4        3405        3406        3507        3506
         4        3406        3407        3508        3507
         4        3407        3408        3509        3508
         4        3408        3409        3510        3509
         4        3409        3410        3511        3510
         4        3410        3411        3512        3511
         4        3411        3412        3513        3512
         4        3412        3413        3514        3513
         4        3413        3414        3515        3514
         4        3414        3415        3516        3515
         4        3415        3416        3517        3516
         4        3416        3417        3518        3517
         4        3417        3418        3519        3518
         4        3418        3419        3520        3519
         4        3419        3420        3521        3520
         4        3420        3421        3522        3521
         4        3421        3422        3523        3522
         4        3422        3423        3524        3523
         4        3423        3424        3525        3524
         4        3424        3425        3526        3525
         4        3425        3426        3527        3526
         4        3426        3427        3528        3527
         4        3427        3428        3529        3528
         4        3428        3429        3530        3529
         4        3429        3430        3531        3530
         4        3430        3431        3532        3531
         4        3431        3432        3533        3532
         4        3432        3433        3534        3533
         4        3434        3435        3536        3535
         4        3435        3436        3537        3536
         4        3436        3437        3538        3537
         4        3437        3438        3539        3538
         4        3438        3439        3540        3539
         4        3439        3440        3541        3540
         4        3440        3441        3542        3541
         4        3441        3442        3543        3542
         4        3442        3443        3544        3543
         4        3443        3444        3545        3544
         4        3444        3445        3546        3545
         4        3445        3446        3547        3546
         4        3446        3447        3548        3547
         4        3447        3448        3549        3548
         4        3448        3449        3550        3549
         4        3449        3450        3551        3550
         4        3450        3451        3552        3551
         4        3451        3452        3553        3552
         4        3452        3453        3554        3553
         4        3453        3454        3555        3554
         4        3454        3455        3556        3555
         4        3455        3456        3557        3556
         4        3456        3457        3558        3557
         4        3457        3458        3559        3558
         4        3458        3459        3560        3559
         4        3459        3460        3561        3560
         4        3460        3461        3562        3561
         4        3461        3462        3563        3562
         4        3462        3463        3564        3563
         4        3463        3464        3565        3564
         4        3464        3465        3566        3565
         4        3465        3466        3567        3566
         4        3466        3467        3568        3567
         4        3467        3468        3569        3568
         4        3468        3469        3570        3569
         4        3469        3470        3571        3570
         4        3470        3471        3572        3571
         4        3471        3472        3573        3572
         4        3472        3473        3574        3573
         4        3473        3474        3575        3574
         4        3474        3475        3576        3575
         4        3475        3476        3577        3576
         4        3476        3477        3578        3577
         4        3477        3478        3579        3578
         4        3478        3479        3580        3579
         4        3479        3480        3581        3580
         4        3480        3481        3582        3581
         4        3481        3482        3583        3582
         4        3482        3483        3584        3583
         4        3483        3484        3585        3584
         4        3484        3485        3586        3585
         4        3485        3486        3587        3586
         4        3486        3487        3588        3587
         4        3487        3488        3589        3588
         4        3488        3489        3590        3589
         4        3489        3490        3591        3590
         4        3490        3491        3592        3591
         4        3491        3492        3593        3592
         4        3492        3493        3594        3593
         4        3493        3494        3595        3594
         4        3494        3495        3596        3595
         4        3495        3496        3597        3596
         4        3496        3497        3598        3597
         4        3497        3498        3599        3598
         4        3498        3499        3600        3599
         4        3499        3500        3601        3600
         4        3500        3501        3602        3601
         4        3501        3502        3603        3602
         4        3502        3503        3604        3603
         4        3503        3504        3605        3604
         4        3504        3505        3606        3605
         4        3505        3506        3607        3606
         4        3506        3507        3608        3607
         4        3507        3508        3609        3608
         4        3508        3509        3610        3609
         4        3509        3510        3611        3610
         4        3510        3511        3612        3611
         4        3511        3512        3613        3612
         4        3512        3513        3614        3613
         4        3513        3514        3615        3614
         4        3514        3515        3616        3615
         4        3515        3516        3617        3616
         4        3516        3517        3618        3617
         4        3517        3518        3619        3618
         4        3518        3519        3620        3619
         4        3519        3520        3621        3620
         4        3520        3521        3622        3621
         4        3521        3522        3623        3622
         4        3522        3523        3624        3623
         4        3523        3524        3625        3624
         4        3524        3525        3626        3625
         4        3525        3526        3627        3626
         4        3526        3527        3628        3627
         4        3527        3528        3629        3628
         4        3528        3529        3630        3629
         4        3529        3530        3631        3630
         4        3530        3531        3632        3631
         4        3531        3532        3633        3632
         4        3532        3533        3634        3633
         4        3533        3534        3635        3634
         4        3535        3536        3637        3636
         4        3536        3537        3638        3637
         4        3537        3538        3639        3638
         4        3538        3539        3640        3639
         4        3539        3540        3641        3640
         4        3540        3541        3642        3641
         4        3541        3542        3643        3642
         4        3542        3543        3644        3643
         4        3543        3544        3645        3644
         4        3544        3545        3646        3645
         4        3545        3546        3647        3646
         4        3546        3547        3648        3647
         4        3547        3548        3649        3648
         4        3548        3549        3650        3649
         4        3549        3550        3651        3650
         4        3550        3551        3652        3651
         4        3551        3552        3653        3652
         4        3552        3553        3654        3653
         4        3553        3554        3655        3654
         4        3554        3555        3656        3655
         4        3555        3556        3657        3656
         4        3556        3557        3658        3657
         4        3557        3558        3659        3658
         4        3558        3559        3660        3659
         4        3559        3560        3661        3660
         4        3560        3561        3662        3661
         4        3561        3562        3663        3662
         4        3562        3563        3664        3663
         4        3563        3564        3665        3664
         4        3564        3565        3666        3665
         4        3565        3566        3667        3666
         4        3566        3567        3668        3667
         4        3567        3568        3669        3668
         4        3568        3569        3670        3669
         4        3569        3570        3671        3670
         4        3570        3571        3672        3671
         4        3571        3572        3673        3672
         4        3572        3573        3674        3673
         4        3573        3574        3675        3674
         4        3574        3575        3676        3675
         4        3575        3576        3677        3676
         4        3576        3577        3678        3677
         4        3577        3578        3679        3678
         4        3578        3579        3680        3679
         4        3579        3580        3681        3680
         4        3580        3581        3682        3681
         4        3581        3582        3683        3682
         4        3582        3583        3684        3683
         4        3583        3584        3685        3684
         4        3584        3585        3686        3685
         4        3585        3586        3687        3686
         4        3586        3587        3688        3687
         4        3587        3588        3689        3688
         4        3588        3589        3690        3689
         4        3589        3590        3691        3690
         4        3590        3591        3692        3691
         4        3591        3592        3693        3692
         4        3592        3593        3694        3693
         4        3593        3594        3695        3694
         4        3594        3595        3696        3695
         4        3595        3596        3697        3696
         4        3596        3597        3698        3697
         4        3597        3598        3699        3698
         4        3598        3599        3700        3699
         4        3599        3600        3701        3700
         4        3600        3601        3702        3701
         4        3601        3602        3703        3702
         4        3602        3603        3704        3703
         4        3603        3604        3705        3704
         4        3604        3605        3706        3705
         4        3605        3606        3707        3706
         4        3606        3607        3708        3707
         4        3607        3608        3709        3708
         4        3608        3609        3710        3709
         4        3609        3610        3711        3710
         4        3610        3611        3712        3711
         4        3611        3612        3713        3712
         4        3612        3613        3714        3713
         4        3613        3614        3715        3714
         4        3614        3615        3716        3715
         4        3615        3616        3717        3716
         4        3616        3617        3718        3717
         4        3617        3618        3719        3718
         4        3618        3619        3720        3719
         4        3619        3620        3721        3720
         4        3620        3621        3722        3721
         4        3621        3622        3723        3722
         4        3622        3623        3724        3723
         4        3623        3624        3725        3724
         4        3624        3625        3726        3725
         4        3625        3626        3727        3726
         4        3626        3627        3728        3727
         4        3627        3628        3729        3728
         4        3628        3629        3730        3729
         4        3629        3630        3731        3730
         4        3630        3631        3732        3731
         4        3631        3632        3733        3732
         4        3632        3633        3734        3733
         4        3633        3634        3735        3734
         4        3634        3635        3736        3735
         4        3636        3637        3738        3737
         4        3637        3638        3739        3738
         4        3638        3639        3740        3739
         4        3639        3640        3741        3740
         4        3640        3641        3742        3741
         4        3641        3642        3743        3742
         4        3642        3643        3744        3743
         4        3643        3644        3745        3744
         4        3644        3645        3746        3745
         4        3645        3646        3747        3746
         4        3646        3647        3748        3747
         4        3647        3648        3749        3748
         4        3648        3649        3750        3749
         4        3649        3650        3751        3750
         4        3650        3651        3752        3751
         4        3651        3652        3753        3752
         4        3652        3653        3754        3753
         4        3653        3654        3755        3754
         4        3654        3655        3756        3755
         4        3655        3656        3757        3756
         4        3656        3657        3758        3757
         4        3657        3658        3759        3758
         4        3658        3659        3760        3759
         4        3659        3660        3761        3760
         4        3660        3661        3762        3761
         4        3661        3662        3763        3762
         4        3662        3663        3764        3763
         4        3663        3664        3765        3764
         4        3664        3665        3766        3765
         4        3665        3666        3767        3766
         4        3666        3667        3768        3767
         4        3667        3668        3769        3768
         4        3668        3669        3770        3769
         4        3669        3670        3771        3770
         4        3670        3671        3772        3771
         4        3671        3672        3773        3772
         4        3672        3673        3774        3773
         4        3673        3674        3775        3774
         4        3674        3675        3776        3775
         4        3675        3676        3777        3776
         4        3676        3677        3778        3777
         4        3677        3678        3779        3778
         4        3678        3679        3780        3779
         4        3679        3680        3781        3780
         4        3680        3681        3782        3781
         4        3681        3682        3783        3782
         4        3682        3683        3784        3783
         4        3683        3684        3785        3784
         4        3684        3685        3786        3785
         4        3685        3686        3787        3786
         4        3686        3687        3788        3787
         4        3687        3688        3789        3788
         4        3688        3689        3790        3789
         4        3689        3690        3791        3790
         4        3690        3691        3792        3791
         4        3691        3692        3793        3792
         4        3692        3693        3794        3793
         4        3693        3694        3795        3794
         4        3694        3695        3796        3795
         4        3695        3696        3797        3796
         4        3696        3697        3798        3797
         4        3697        3698        3799        3798
         4        3698        3699        3800        3799
         4        3699        3700        3801        3800
         4        3700        3701        3802        3801
         4        3701        3702        3803        3802
         4        3702        3703        3804        3803
         4        3703        3704        3805        3804
         4        3704        3705        3806        3805
         4        3705        3706        3807        3806
         4        3706        3707        3808        3807
         4        3707        3708        3809        3808
         4        3708        3709        3810        3809
         4        3709        3710        3811        3810
         4        3710        3711        3812        3811
         4        3711        3712        3813        3812
         4        3712        3713        3814        3813
         4        3713        3714        3815        3814
         4        3714        3715        3816        3815
         4        3715        3716        3817        3816
         4        3716        3717        3818        3817
         4        3717        3718        3819        3818
         4        3718        3719        3820        3819
         4        3719        3720        3821        3820
         4        3720        3721        3822        3821
         4        3721        3722        3823        3822
         4        3722        3723        3824        3823
         4        3723        3724        3825        3824
         4        3724        3725        3826        3825
         4        3725        3726        3827        3826
         4        3726        3727        3828        3827
         4        3727        3728        3829        3828
         4        3728        3729        3830        3829
         4        3729        3730        3831        3830
         4        3730        3731        3832        3831
         4        3731        3732        3833        3832
         4        3732        3733        3834        3833
         4        3733        3734        3835        3834
         4        3734        3735        3836        3835
         4        3735        3736        3837        3836
         4        3737        3738        3839        3838
         4        3738        3739        3840        3839
         4        3739        3740        3841        3840
         4        3740        3741        3842        3841
         4        3741        3742        3843        3842
         4        3742        3743        3844        3843
         4        3743        3744        3845        3844
         4        3744        3745        3846        3845
         4        3745        3746        3847        3846
         4        3746        3747        3848        3847
         4        3747        3748        3849        3848
         4        3748        3749        3850        3849
         4        3749        3750        3851        3850
         4        3750        3751        3852        3851
         4        3751        3752        3853        3852
         4        3752        3753        3854        3853
         4        3753        3754        3855        3854
         4        3754        3755        3856        3855
         4        3755        3756        3857        3856
         4        3756        3757        3858        3857
         4        3757        3758        3859        3858
         4        3758        3759        3860        3859
         4        3759        3760        3861        3860
         4        3760        3761        3862        3861
         4        3761        3762        3863        3862
         4        3762        3763        3864        3863
         4        3763        3764        3865        3864
         4        3764        3765        3866        3865
         4        3765        3766        3867        3866
         4        3766        3767        3868        3867
         4        3767        3768        3869        3868
         4        3768        3769        3870        3869
         4        3769        3770        3871        3870
         4        3770        3771        3872        3871
         4        3771        3772        3873        3872
         4        3772        3773        3874        3873
         4        3773        3774        3875        3874
         4        3774        3775        3876        3875
         4        3775        3776        3877        3876
         4        3776        3777        3878        3877
         4        3777        3778        3879        3878
         4        3778        3779        3880        3879
         4        3779        3780        3881        3880
         4        3780        3781        3882        3881
         4        3781        3782        3883        3882
         4        3782        3783        3884        3883
         4        3783        3784        3885        3884
         4        3784        3785        3886        3885
         4        3785        3786        3887        3886
         4        3786        3787        3888        3887
         4        3787        3788        3889        3888
         4        3788        3789        3890        3889
         4        3789        3790        3891        3890
         4        3790        3791        3892        3891
         4        3791        3792        3893        3892
         4        3792        3793        3894        3893
         4        3793        3794        3895        3894
         4        3794        3795        3896        3895
         4        3795        3796        3897        3896
         4        3796        3797        3898        3897
         4        3797        3798        3899        3898
         4        3798        3799        3900        3899
         4        3799        3800        3901        3900
         4        3800        3801        3902        3901
         4        3801        3802        3903        3902
         4        3802        3803        3904        3903
         4        3803        3804        3905        3904
         4        3804        3805        3906        3905
         4        3805        3806        3907        3906
         4        3806        3807        3908        3907
         4        3807        3808        3909        3908
         4        3808        3809        3910        3909
         4        3809        3810        3911        3910
         4        3810        3811        3912        3911
         4        3811        3812        3913        3912
         4        3812        3813        3914        3913
         4        3813        3814        3915        3914
         4        3814        3815        3916        3915
         4        3815        3816        3917        3916
         4        3816        3817        3918        3917
         4        3817        3818        3919        3918
         4        3818        3819        3920        3919
         4        3819        3820        3921        3920
         4        3820        3821        3922        3921
         4        3821        3822        3923        3922
         4        3822        3823        3924        3923
         4        3823        3824        3925        3924
         4        3824        3825        3926        3925
         4        3825        3826        3927        3926
         4        3826        3827        3928        3927
         4        3827        3828        3929        3928
         4        3828        3829        3930        3929
         4        3829        3830        3931        3930
         4        3830        3831        3932        3931
         4        3831        3832        3933        3932
         4        3832        3833        3934        3933
         4        3833        3834        3935        3934
         4        3834        3835        3936        3935
         4        3835        3836        3937        3936
         4        3836        3837        3938        3937
         4        3838        3839        3940        3939
         4        3839        3840        3941        3940
         4        3840        3841        3942        3941
         4        3841        3842        3943        3942
         4        3842        3843        3944        3943
         4        3843        3844        3945        3944
         4        3844        3845        3946        3945
         4        3845        3846        3947        3946
         4        3846        3847        3948        3947
         4        3847        3848        3949        3948
         4        3848        3849        3950        3949
         4        3849        3850        3951        3950
         4        3850        3851        3952        3951
         4        3851        3852        3953        3952
         4        3852        3853        3954        3953
         4        3853        3854        3955        3954
         4        3854        3855        3956        3955
         4        3855        3856        3957        3956
         4        3856        3857        3958        3957
         4        3857        3858        3959        3958
         4        3858        3859        3960        3959
         4        3859        3860        3961        3960
         4        3860        3861        3962        3961
         4        3861        3862        3963        3962
         4        3862        3863        3964        3963
         4        3863        3864        3965        3964
         4        3864        3865        3966        3965
         4        3865        3866        3967        3966
         4        3866        3867        3968        3967
         4        3867        3868        3969        3968
         4        3868        3869        3970        3969
         4        3869        3870        3971        3970
         4        3870        3871        3972        3971
         4        3871        3872        3973        3972
         4        3872        3873        3974        3973
         4        3873        3874        3975        3974
         4        3874        3875        3976        3975
         4        3875        3876        3977        3976
         4        3876        3877        3978        3977
         4        3877        3878        3979        3978
         4        3878        3879        3980        3979
         4        3879        3880        3981        3980
         4        3880        3881        3982        3981
         4        3881        3882        3983        3982
         4        3882        3883        3984        3983
         4        3883        3884        3985        3984
         4        3884        3885        3986        3985
         4        3885        3886        3987        3986
         4        3886        3887        3988        3987
         4        3887        3888        3989        3988
         4        3888        3889        3990        3989
         4        3889        3890        3991        3990
         4        3890        3891        3992        3991
         4        3891        3892        3993        3992
         4        3892        3893        3994        3993
         4        3893        3894        3995        3994
         4        3894        3895        3996        3995
         4        3895        3896        3997        3996
         4        3896        3897        3998        3997
         4        3897        3898        3999        3998
         4        3898        3899        4000        3999
         4        3899        3900        4001        4000
         4        3900        3901        4002        4001
         4        3901        3902        4003        4002
         4        3902        3903        4004        4003
         4        3903        3904        4005        4004
         4        3904        3905        4006        4005
         4        3905        3906        4007        4006
         4        3906        3907        4008        4007
         4        3907        3908        4009        4008
         4        3908        3909        4010        4009
         4        3909        3910        4011        4010
         4        3910        3911        4012        4011
         4        3911        3912        4013        4012
         4        3912        3913        4014        4013
         4        3913        3914        4015        4014
         4        3914        3915        4016        4015
         4        3915        3916        4017        4016
         4        3916        3917        4018        4017
         4        3917        3918        4019        4018
         4        3918        3919        4020        4019
         4        3919        3920        4021        4020
         4        3920        3921        4022        4021
         4        3921        3922        4023        4022
         4        3922        3923        4024        4023
         4        3923        3924        4025        4024
         4        3924        3925        4026        4025
         4        3925        3926        4027        4026
         4        3926        3927        4028        4027
         4        3927        3928        4029        4028
         4        3928        3929        4030        4029
         4        3929        3930        4031        4030
         4        3930        3931        4032        4031
         4        3931        3932        4033        4032
         4        3932        3933        4034        4033
         4        3933        3934        4035        4034
         4        3934        3935        4036        4035
         4        3935        3936        4037        4036
         4        3936        3937        4038        4037
         4        3937        3938        4039        4038
         4        3939        3940        4041        4040
         4        3940        3941        4042        4041
         4        3941        3942        4043        4042
         4        3942        3943        4044        4043
         4        3943        3944        4045        4044
         4        3944        3945        4046        4045
         4        3945        3946        4047        4046
         4        3946        3947        4048        4047
         4        3947        3948        4049        4048
         4        3948        3949        4050        4049
         4        3949        3950        4051        4050
         4        3950        3951        4052        4051
         4        3951        3952        4053        4052
         4        3952        3953        4054        4053
         4        3953        3954        4055        4054
         4        3954        3955        4056        4055
         4        3955        3956        4057        4056
         4        3956        3957        4058        4057
         4        3957        3958        4059        4058
         4        3958        3959        4060        4059
         4        3959        3960        4061        4060
         4        3960        3961        4062        4061
         4        3961        3962        4063        4062
         4        3962        3963        4064        4063
         4        3963        3964        4065        4064
         4        3964        3965        4066        4065
         4        3965        3966        4067        4066
         4        3966        3967        4068        4067
         4        3967        3968        4069        4068
         4        3968        3969        4070        4069
         4        3969        3970        4071        4070
         4        3970        3971        4072        4071
         4        3971        3972        4073        4072
         4        3972        3973        4074        4073
         4        3973        3974        4075        4074
         4        3974        3975        4076        4075
         4        3975        3976        4077        4076
         4        3976        3977        4078        4077
         4        3977        3978        4079        4078
         4        3978        3979        4080        4079
         4        3979        3980        4081        4080
         4        3980        3981        4082        4081
         4        3981        3982        4083        4082
         4        3982        3983        4084        4083
         4        3983        3984        4085        4084
         4        3984        3985        4086        4085
         4        3985        3986        4087        4086
         4        3986        3987        4088        4087
         4        3987        3988        4089        4088
         4        3988        3989        4090        4089
         4        3989        3990        4091        4090
         4        3990        3991        4092        4091
         4        3991        3992        4093        4092
         4        3992        3993        4094        4093
         4        3993        3994        4095        4094
         4        3994        3995        4096        4095
         4        3995        3996        4097        4096
         4        3996        3997        4098        4097
         4        3997        3998        4099        4098
         4        3998        3999        4100        4099
         4        3999        4000        4101        4100
         4        4000        4001        4102        4101
         4        4001        4002        4103        4102
         4        4002        4003        4104        4103
         4        4003        4004        4105        4104
         4        4004        4005        4106        4105
         4        4005        4006        4107        4106
         4        4006        4007        4108        4107
         4        4007        4008        4109        4108
         4        4008        4009        4110        4109
         4        4009        4010        4111        4110
         4        4010        4011        4112        4111
         4        4011        4012        4113        4112
         4        4012        4013        4114        4113
         4        4013        4014        4115        4114
         4        4014        4015        4116        4115
         4        4015        4016        4117        4116
         4        4016        4017        4118        4117
         4        4017        4018        4119        4118
         4        4018        4019        4120        4119
         4        4019        4020        4121        4120
         4        4020        4021        4122        4121
         4        4021        4022        4123        4122
         4        4022        4023        4124        4123
         4        4023        4024        4125        4124
         4        4024        4025        4126        4125
         4        4025        4026        4127        4126
         4        4026        4027        4128        4127
         4        4027        4028        4129        4128
         4        4028        4029        4130        4129
         4        4029        4030        4131        4130
         4        4030        4031        4132        4131
         4        4031        4032        4133        4132
         4        4032        4033        4134        4133
         4        4033        4034        4135        4134
         4        4034        4035        4136        4135
         4        4035        4036        4137        4136
         4        4036        4037        4138        4137
         4        4037        4038        4139        4138
         4        4038        4039        4140        4139
         4        4040        4041        4142        4141
         4        4041        4042        4143        4142
         4        4042        4043        4144        4143
         4        4043        4044        4145        4144
         4        4044        4045        4146        4145
         4        4045        4046        4147        4146
         4        4046        4047        4148        4147
         4        4047        4048        4149        4148
         4        4048        4049        4150        4149
         4        4049        4050        4151        4150
         4        4050        4051        4152        4151
         4        4051        4052        4153        4152
         4        4052        4053        4154        4153
         4        4053        4054        4155        4154
         4        4054        4055        4156        4155
         4        4055        4056        4157        4156
         4        4056        4057        4158        4157
         4        4057        4058        4159        4158
         4        4058        4059        4160        4159
         4        4059        4060        4161        4160
         4        4060        4061        4162        4161
         4        4061        4062        4163        4162
         4        4062        4063        4164        4163
         4        4063        4064        4165        4164
         4        4064        4065        4166        4165
         4        4065        4066        4167        4166
         4        4066        4067        4168        4167
         4        4067        4068        4169        4168
         4        4068        4069        4170        4169
         4        4069        4070        4171        4170
         4        4070        4071        4172        4171
         4        4071        4072        4173        4172
         4        4072        4073        4174        4173
         4        4073        4074        4175        4174
         4        4074        4075        4176        4175
         4        4075        4076        4177        4176
         4        4076        4077        4178        4177
         4        4077        4078        4179        4178
         4        4078        4079        4180        4179
         4        4079        4080        4181        4180
         4        4080        4081        4182        4181
         4        4081        4082        4183        4182
         4        4082        4083        4184        4183
         4        4083        4084        4185        4184
         4        4084        4085        4186        4185
         4        4085        4086        4187        4186
         4        4086        4087        4188        4187
         4        4087        4088        4189        4188
         4        4088        4089        4190        4189
         4        4089        4090        4191        4190
         4        4090        4091        4192        4191
         4        4091        4092        4193        4192
         4        4092        4093        4194        4193
         4        4093        4094        4195        4194
         4        4094        4095        4196        4195
         4        4095        4096        4197        4196
         4        4096        4097        4198        4197
         4        4097        4098        4199        4198
         4        4098        4099        4200        4199
         4        4099        4100        4201        4200
         4        4100        4101        4202        4201
         4        4101        4102        4203        4202
         4        4102        4103        4204        4203
         4        4103        4104        4205        4204
         4        4104        4105        4206        4205
         4        4105        4106        4207        4206
         4        4106        4107        4208        4207
         4        4107        4108        4209        4208
         4        4108        4109        4210        4209
         4        4109        4110        4211        4210
         4        4110        4111        4212        4211
         4        4111        4112        4213        4212
         4        4112        4113        4214        4213
         4        4113        4114        4215        4214
         4        4114        4115        4216        4215
         4        4115        4116        4217        4216
         4        4116        4117        4218        4217
         4        4117        4118        4219        4218
         4        4118        4119        4220        4219
         4        4119        4120        4221        4220
         4        4120        4121        4222        4221
         4        4121        4122        4223        4222
         4        4122        4123        4224        4223
         4        4123        4124        4225        4224
         4        4124        4125        4226        4225
         4        4125        4126        4227        4226
         4        4126        4127        4228        4227
         4        4127        4128        4229        4228
         4        4128        4129        4230        4229
         4        4129        4130        4231        4230
         4        4130        4131        4232        4231
         4        4131        4132        4233        4232
         4        4132        4133        4234        4233
         4        4133        4134        4235        4234
         4        4134        4135        4236        4235
         4        4135        4136        4237        4236
         4        4136        4137        4238        4237
         4        4137        4138        4239        4238
         4        4138        4139        4240        4239
         4        4139        4140        4241        4240
         4        4141        4142        4243        4242
         4        4142        4143        4244        4243
         4        4143        4144        4245        4244
         4        4144        4145        4246        4245
         4        4145        4146        4247        4246
         4        4146        4147        4248        4247
         4        4147        4148        4249        4248
         4        4148        4149        4250        4249
         4        4149        4150        4251        4250
         4        4150        4151        4252        4251
         4        4151        4152        4253        4252
         4        4152        4153        4254        4253
         4        4153        4154        4255        4254
         4        4154        4155        4256        4255
         4        4155        4156        4257        4256
         4        4156        4157        4258        4257
         4        4157        4158        4259        4258
         4        4158        4159        4260        4259
         4        4159        4160        4261        4260
         4        4160        4161        4262        4261
         4        4161        4162        4263        4262
         4        4162        4163        4264        4263
         4        4163        4164        4265        4264
         4        4164        4165        4266        4265
         4        4165        4166        4267        4266
         4        4166        4167        4268        4267
         4        4167        4168        4269        4268
         4        4168        4169        4270        4269
         4        4169        4170        4271        4270
         4        4170        4171        4272        4271
         4        4171        4172        4273        4272
         4        4172        4173        4274        4273
         4        4173        4174        4275        4274
         4        4174        4175        4276        4275
         4        4175        4176        4277        4276
         4        4176        4177        4278        4277
         4        4177        4178        4279        4278
         4        4178        4179        4280        4279
         4        4179        4180        4281        4280
         4        4180        4181        4282        4281
         4        4181        4182        4283        4282
         4        4182        4183        4284        4283
         4        4183        4184        4285        4284
         4        4184        4185        4286        4285
         4        4185        4186        4287        4286
         4        4186        4187        4288        4287
         4        4187        4188        4289        4288
         4        4188        4189        4290        4289
         4        4189        4190        4291        4290
         4        4190        4191        4292        4291
         4        4191        4192        4293        4292
         4        4192        4193        4294        4293
         4        4193        4194        4295        4294
         4        4194        4195        4296        4295
         4        4195        4196        4297        4296
         4        4196        4197        4298        4297
         4        4197        4198        4299        4298
         4        4198        4199        4300        4299
         4        4199        4200        4301        4300
         4        4200        4201        4302        4301
         4        4201        4202        4303        4302
         4        4202        4203        4304        4303
         4        4203        4204        4305        4304
         4        4204        4205        4306        4305
         4        4205        4206        4307        4306
         4        4206        4207        4308        4307
         4        4207        4208        4309        4308
         4        4208        4209        4310        4309
         4        4209        4210        4311        4310
         4        4210        4211        4312        4311
         4        4211        4212        4313        4312
         4        4212        4213        4314        4313
         4        4213        4214        4315        4314
         4        4214        4215        4316        4315
         4        4215        4216        4317        4316
         4        4216        4217        4318        4317
         4        4217        4218        4319        4318
         4        4218        4219        4320        4319
         4        4219        4220        4321        4320
         4        4220        4221        4322        4321
         4        4221        4222        4323        4322
         4        4222        4223        4324        4323
         4        4223        4224        4325        4324
         4        4224        4225        4326        4325
         4        4225        4226        4327        4326
         4        4226        4227        4328        4327
         4        4227        4228        4329        4328
         4        4228        4229        4330        4329
         4        4229        4230        4331        4330
         4        4230        4231        4332        4331
         4        4231        4232        4333        4332
         4        4232        4233        4334        4333
         4        4233        4234        4335        4334
         4        4234        4235        4336        4335
         4        4235        4236        4337        4336
         4        4236        4237        4338        4337
         4        4237        4238        4339        4338
         4        4238        4239        4340        4339
         4        4239        4240        4341        4340
         4        4240        4241        4342        4341
         4        4242        4243        4344        4343
         4        4243        4244        4345        4344
         4        4244        4245        4346        4345
         4        4245        4246        4347        4346
         4        4246        4247        4348        4347
         4        4247        4248        4349        4348
         4        4248        4249        4350        4349
         4        4249        4250        4351        4350
         4        4250        4251        4352        4351
         4        4251        4252        4353        4352
         4        4252        4253        4354        4353
         4        4253        4254        4355        4354
         4        4254        4255        4356        4355
         4        4255        4256        4357        4356
         4        4256        4257        4358        4357
         4        4257        4258        4359        4358
         4        4258        4259        4360        4359
         4        4259        4260        4361        4360
         4        4260        4261        4362        4361
         4        4261        4262        4363        4362
         4        4262        4263        4364        4363
         4        4263        4264        4365        4364
         4        4264        4265        4366        4365
         4        4265        4266        4367        4366
         4        4266        4267        4368        4367
         4        4267        4268        4369        4368
         4        4268        4269        4370        4369
         4        4269        4270        4371        4370
         4        4270        4271        4372        4371
         4        4271        4272        4373        4372
         4        4272        4273        4374        4373
         4        4273        4274        4375        4374
         4        4274        4275        4376        4375
         4        4275        4276        4377        4376
         4        4276        4277        4378        4377
         4        4277        4278        4379        4378
         4        4278        4279        4380        4379
         4        4279        4280        4381        4380
         4        4280        4281        4382        4381
         4        4281        4282        4383        4382
         4        4282        4283        4384        4383
         4        4283        4284        4385        4384
         4        4284        4285        4386        4385
         4        4285        4286        4387        4386
         4        4286        4287        4388        4387
         4        4287        4288        4389        4388
         4        4288        4289        4390        4389
         4        4289        4290        4391        4390
         4        4290        4291        4392        4391
         4        4291        4292        4393        4392
         4        4292        4293        4394        4393
         4        4293        4294        4395        4394
         4        4294        4295        4396        4395
         4        4295        4296        4397        4396
         4        4296        4297        4398        4397
         4        4297        4298        4399        4398
         4        4298        4299        4400        4399
         4        4299        4300        4401        4400
         4        4300        4301        4402        4401
         4        4301        4302        4403        4402
         4        4302        4303        4404        4403
         4        4303        4304        4405        4404
         4        4304        4305        4406        4405
         4        4305        4306        4407        4406
         4        4306        4307        4408        4407
         4        4307        4308        4409        4408
         4        4308        4309        4410        4409
         4        4309        4310        4411        4410
         4        4310        4311        4412        4411
         4        4311        4312        4413        4412
         4        4312        4313        4414        4413
         4        4313        4314        4415        4414
         4        4314        4315        4416        4415
         4        4315        4316        4417        4416
         4        4316        4317        4418        4417
         4        4317        4318        4419        4418
         4        4318        4319        4420        4419
         4        4319        4320        4421        4420
         4        4320        4321        4422        4421
         4        4321        4322        4423        4422
         4        4322        4323        4424        4423
         4        4323        4324        4425        4424
         4        4324        4325        4426        4425
         4        4325        4326        4427        4426
         4        4326        4327        4428        4427
         4        4327        4328        4429        4428
         4        4328        4329        4430        4429
         4        4329        4330        4431        4430
         4        4330        4331        4432        4431
         4        4331        4332        4433        4432
         4        4332        4333        4434        4433
         4        4333        4334        4435        4434
         4        4334        4335        4436        4435
         4        4335        4336        4437        4436
         4        4336        4337        4438        4437
         4        4337        4338        4439        4438
         4        4338        4339        4440        4439
         4        4339        4340        4441        4440
         4        4340        4341        4442        4441
         4        4341        4342        4443        4442
         4        4343        4344        4445        4444
         4        4344        4345        4446        4445
         4        4345        4346        4447        4446
         4        4346        4347        4448        4447
         4        4347        4348        4449        4448
         4        4348        4349        4450        4449
         4        4349        4350        4451        4450
         4        4350        4351        4452        4451
         4        4351        4352        4453        4452
         4        4352        4353        4454        4453
         4        4353        4354        4455        4454
         4        4354        4355        4456        4455
         4        4355        4356        4457        4456
         4        4356        4357        4458        4457
         4        4357        4358        4459        4458
         4        4358        4359        4460        4459
         4        4359        4360        4461        4460
         4        4360        4361        4462        4461
         4        4361        4362        4463        4462
         4        4362        4363        4464        4463
         4        4363        4364        4465        4464
         4        4364        4365        4466        4465
         4        4365        4366        4467        4466
         4        4366        4367        4468        4467
         4        4367        4368        4469        4468
         4        4368        4369        4470        4469
         4        4369        4370        4471        4470
         4        4370        4371        4472        4471
         4        4371        4372        4473        4472
         4        4372        4373        4474        4473
         4        4373        4374        4475        4474
         4        4374        4375        4476        4475
         4        4375        4376        4477        4476
         4        4376        4377        4478        4477
         4        4377        4378        4479        4478
         4        4378        4379        4480        4479
         4        4379        4380        4481        4480
         4        4380        4381        4482        4481
         4        4381        4382        4483        4482
         4        4382        4383        4484        4483
         4        4383        4384        4485        4484
         4        4384        4385        4486        4485
         4        4385        4386        4487        4486
         4        4386        4387        4488        4487
         4        4387        4388        4489        4488
         4        4388        4389        4490        4489
         4        4389        4390        4491        4490
         4        4390        4391        4492        4491
         4        4391        4392        4493        4492
         4        4392        4393        4494        4493
         4        4393        4394        4495        4494
         4        4394        4395        4496        4495
         4        4395        4396        4497        4496
         4        4396        4397        4498        4497
         4        4397        4398        4499        4498
         4        4398        4399        4500        4499
         4        4399        4400        4501        4500
         4        4400        4401        4502        4501
         4        4401        4402        4503        4502
         4        4402        4403        4504        4503
         4        4403        4404        4505        4504
         4        4404        4405        4506        4505
         4        4405        4406        4507        4506
         4        4406        4407        4508        4507
         4        4407        4408        4509        4508
         4        4408        4409        4510        4509
         4        4409        4410        4511        4510
         4        4410        4411        4512        4511
         4        4411        4412        4513        4512
         4        4412        4413        4514        4513
         4        4413        4414        4515        4514
         4        4414        4415        4516        4515
         4        4415        4416        4517        4516
         4        4416        4417        4518        4517
         4        4417        4418        4519        4518
         4        4418        4419        4520        4519
         4        4419        4420        4521        4520
         4        4420        4421        4522        4521
         4        4421        4422        4523        4522
         4        4422        4423        4524        4523
         4        4423        4424        4525        4524
         4        4424        4425        4526        4525
         4        4425        4426        4527        4526
         4        4426        4427        4528        4527
         4        4427        4428        4529        4528
         4        4428        4429        4530        4529
         4        4429        4430        4531        4530
         4        4430        4431        4532        4531
         4        4431        4432        4533        4532
         4        4432        4433        4534        4533
         4        4433        4434        4535        4534
         4        4434        4435        4536        4535
         4        4435        4436        4537        4536
         4        4436        4437        4538        4537
         4        4437        4438        4539        4538
         4        4438        4439        4540        4539
         4        4439        4440        4541        4540
         4        4440        4441        4542        4541
         4        4441        4442        4543        4542
         4        4442        4443        4544        4543
         4        4444        4445        4546        4545
         4        4445        4446        4547        4546
         4        4446        4447        4548        4547
         4        4447        4448        4549        4548
         4        4448        4449        4550        4549
         4        4449        4450        4551        4550
         4        4450        4451        4552        4551
         4        4451        4452        4553        4552
         4        4452        4453        4554        4553
         4        4453        4454        4555        4554
         4        4454        4455        4556        4555
         4        4455        4456        4557        4556
         4        4456        4457        4558        4557
         4        4457        4458        4559        4558
         4        4458        4459        4560        4559
         4        4459        4460        4561        4560
         4        4460        4461        4562        4561
         4        4461        4462        4563        4562
         4        4462        4463        4564        4563
         4        4463        4464        4565        4564
         4        4464        4465        4566        4565
         4        4465        4466        4567        4566
         4        4466        4467        4568        4567
         4        4467        4468        4569        4568
         4        4468        4469        4570        4569
         4        4469        4470        4571        4570
         4        4470        4471        4572        4571
         4        4471        4472        4573        4572
         4        4472        4473        4574        4573
         4        4473        4474        4575        4574
         4        4474        4475        4576        4575
         4        4475        4476        4577        4576
         4        4476        4477        4578        4577
         4        4477        4478        4579        4578
         4        4478        4479        4580        4579
         4        4479        4480        4581        4580
         4        4480        4481        4582        4581
         4        4481        4482        4583        4582
         4        4482        4483        4584        4583
         4        4483        4484        4585        4584
         4        4484        4485        4586        4585
         4        4485        4486        4587        4586
         4        4486        4487        4588        4587
         4        4487        4488        4589        4588
         4        4488        4489        4590        4589
         4        4489        4490        4591        4590
         4        4490        4491        4592        4591
         4        4491        4492        4593        4592
         4        4492        4493        4594        4593
         4        4493        4494        4595        4594
         4        4494        4495        4596        4595
         4        4495        4496        4597        4596
         4        4496        4497        4598        4597
         4        4497        4498        4599        4598
         4        4498        4499        4600        4599
         4        4499        4500        4601        4600
         4        4500        4501        4602        4601
         4        4501        4502        4603        4602
         4        4502        4503        4604        4603
         4        4503        4504        4605        4604
         4        4504        4505        4606        4605
         4        4505        4506        4607        4606
         4        4506        4507        4608        4607
         4        4507        4508        4609        4608
         4        4508        4509        4610        4609
         4        4509        4510        4611        4610
         4        4510        4511        4612        4611
         4        4511        4512        4613        4612
         4        4512        4513        4614        4613
         4        4513        4514        4615        4614
         4        4514        4515        4616        4615
         4        4515        4516        4617        4616
         4        4516        4517        4618        4617
         4        4517        4518        4619        4618
         4        4518        4519        4620        4619
         4        4519        4520        4621        4620
         4        4520        4521        4622        4621
         4        4521        4522        4623        4622
         4        4522        4523        4624        4623
         4        4523        4524        4625        4624
         4        4524        4525        4626        4625
         4        4525        4526        4627        4626
         4        4526        4527        4628        4627
         4        4527        4528        4629        4628
         4        4528        4529        4630        4629
         4        4529        4530        4631        4630
         4        4530        4531        4632        4631
         4        4531        4532        4633        4632
         4        4532        4533        4634        4633
         4        4533        4534        4635        4634
         4        4534        4535        4636        4635
         4        4535        4536        4637        4636
         4        4536        4537        4638        4637
         4        4537        4538        4639        4638
         4        4538        4539        4640        4639
         4        4539        4540        4641        4640
         4        4540        4541        4642        4641
         4        4541        4542        4643        4642
         4        4542        4543        4644        4643
         4        4543        4544        4645        4644
         4        4545        4546        4647        4646
         4        4546        4547        4648        4647
         4        4547        4548        4649        4648
         4        4548        4549        4650        4649
         4        4549        4550        4651        4650
         4        4550        4551        4652        4651
         4        4551        4552        4653        4652
         4        4552        4553        4654        4653
         4        4553        4554        4655        4654
         4        4554        4555        4656        4655
         4        4555        4556        4657        4656
         4        4556        4557        4658        4657
         4        4557        4558        4659        4658
         4        4558        4559        4660        4659
         4        4559        4560        4661        4660
         4        4560        4561        4662        4661
         4        4561        4562        4663        4662
         4        4562        4563        4664        4663
         4        4563        4564        4665        4664
         4        4564        4565        4666        4665
         4        4565        4566        4667        4666
         4        4566        4567        4668        4667
         4        4567        4568        4669        4668
         4        4568        4569        4670        4669
         4        4569        4570        4671        4670
         4        4570        4571        4672        4671
         4        4571        4572        4673        4672
         4        4572        4573        4674        4673
         4        4573        4574        4675        4674
         4        4574        4575        4676        4675
         4        4575        4576        4677        4676
         4        4576        4577        4678        4677
         4        4577        4578        4679        4678
         4        4578        4579        4680        4679
         4        4579        4580        4681        4680
         4        4580        4581        4682        4681
         4        4581        4582        4683        4682
         4        4582        4583        4684        4683
         4        4583        4584        4685        4684
         4        4584        4585        4686        4685
         4        4585        4586        4687        4686
         4        4586        4587        4688        4687
         4        4587        4588        4689        4688
         4        4588        4589        4690        4689
         4        4589        4590        4691        4690
         4        4590        4591        4692        4691
         4        4591        4592        4693        4692
         4        4592        4593        4694        4693
         4        4593        4594        4695        4694
         4        4594        4595        4696        4695
         4        4595        4596        4697        4696
         4        4596        4597        4698        4697
         4        4597        4598        4699        4698
         4        4598        4599        4700        4699
         4        4599        4600        4701        4700
         4        4600        4601        4702        4701
         4        4601        4602        4703        4702
         4        4602        4603        4704        4703
         4        4603        4604        4705        4704
         4        4604        4605        4706        4705
         4        4605        4606        4707        4706
         4        4606        4607        4708        4707
         4        4607        4608        4709        4708
         4        4608        4609        4710        4709
         4        4609        4610        4711        4710
         4        4610        4611        4712        4711
         4        4611        4612        4713        4712
         4        4612        4613        4714        4713
         4        4613        4614        4715        4714
         4        4614        4615        4716        4715
         4        4615        4616        4717        4716
         4        4616        4617        4718        4717
         4        4617        4618        4719        4718
         4        4618        4619        4720        4719
         4        4619        4620        4721        4720
         4        4620        4621        4722        4721
         4        4621        4622        4723        4722
         4        4622        4623        4724        4723
         4        4623        4624        4725        4724
         4        4624        4625        4726        4725
         4        4625        4626        4727        4726
         4        4626        4627        4728        4727
         4        4627        4628        4729        4728
         4        4628        4629        4730        4729
         4        4629        4630        4731        4730
         4        4630        4631        4732        4731
         4        4631        4632        4733        4732
         4        4632        4633        4734        4733
         4        4633        4634        4735        4734
         4        4634        4635        4736        4735
         4        4635        4636        4737        4736
         4        4636        4637        4738        4737
         4        4637        4638        4739        4738
         4        4638        4639        4740        4739
         4        4639        4640        4741        4740
         4        4640        4641        4742        4741
         4        4641        4642        4743        4742
         4        4642        4643        4744        4743
         4        4643        4644        4745        4744
         4        4644        4645        4746        4745
         4        4646        4647        4748        4747
         4        4647        4648        4749        4748
         4        4648        4649        4750        4749
         4        4649        4650        4751        4750
         4        4650        4651        4752        4751
         4        4651        4652        4753        4752
         4        4652        4653        4754        4753
         4        4653        4654        4755        4754
         4        4654        4655        4756        4755
         4        4655        4656        4757        4756
         4        4656        4657        4758        4757
         4        4657        4658        4759        4758
         4        4658        4659        4760        4759
         4        4659        4660        4761        4760
         4        4660        4661        4762        4761
         4        4661        4662        4763        4762
         4        4662        4663        4764        4763
         4        4663        4664        4765        4764
         4        4664        4665        4766        4765
         4        4665        4666        4767        4766
         4        4666        4667        4768        4767
         4        4667        4668        4769        4768
         4        4668        4669        4770        4769
         4        4669        4670        4771        4770
         4        4670        4671        4772        4771
         4        4671        4672        4773        4772
         4        4672        4673        4774        4773
         4        4673        4674        4775        4774
         4        4674        4675        4776        4775
         4        4675        4676        4777        4776
         4        4676        4677        4778        4777
         4        4677        4678        4779        4778
         4        4678        4679        4780        4779
         4        4679        4680        4781        4780
         4        4680        4681        4782        4781
         4        4681        4682        4783        4782
         4        4682        4683        4784        4783
         4        4683        4684        4785        4784
         4        4684        4685        4786        4785
         4        4685        4686        4787        4786
         4        4686        4687        4788        4787
         4        4687        4688        4789        4788
         4        4688        4689        4790        4789
         4        4689        4690        4791        4790
         4        4690        4691        4792        4791
         4        4691        4692        4793        4792
         4        4692        4693        4794        4793
         4        4693        4694        4795        4794
         4        4694        4695        4796        4795
         4        4695        4696        4797        4796
         4        4696        4697        4798        4797
         4        4697        4698        4799        4798
         4        4698        4699        4800        4799
         4        4699        4700        4801        4800
         4        4700        4701        4802        4801
         4        4701        4702        4803        4802
         4        4702        4703        4804        4803
         4        4703        4704        4805        4804
         4        4704        4705        4806        4805
         4        4705        4706        4807        4806
         4        4706        4707        4808        4807
         4        4707        4708        4809        4808
         4        4708        4709        4810        4809
         4        4709        4710        4811        4810
         4        4710        4711        4812        4811
         4        4711        4712        4813        4812
         4        4712        4713        4814        4813
         4        4713        4714        4815        4814
         4        4714        4715        4816        4815
         4        4715        4716        4817        4816
         4        4716        4717        4818        4817
         4        4717        4718        4819        4818
         4        4718        4719        4820        4819
         4        4719        4720        4821        4820
         4        4720        4721        4822        4821
         4        4721        4722        4823        4822
         4        4722        4723        4824        4823
         4        4723        4724        4825        4824
         4        4724        4725        4826        4825
         4        4725        4726        4827        4826
         4        4726        4727        4828        4827
         4        4727        4728        4829        4828
         4        4728        4729        4830        4829
         4        4729        4730        4831        4830
         4        4730        4731        4832        4831
         4        4731        4732        4833        4832
         4        4732        4733        4834        4833
         4        4733        4734        4835        4834
         4        4734        4735        4836        4835
         4        4735        4736        4837        4836
         4        4736        4737        4838        4837
         4        4737        4738        4839        4838
         4        4738        4739        4840        4839
         4        4739        4740        4841        4840
         4        4740        4741        4842        4841
         4        4741        4742        4843        4842
         4        4742        4743        4844        4843
         4        4743        4744        4845        4844
         4        4744        4745        4846        4845
         4        4745        4746        4847        4846
         4        4747        4748        4849        4848
         4        4748        4749        4850        4849
         4        4749        4750        4851        4850
         4        4750        4751        4852        4851
         4        4751        4752        4853        4852
         4        4752        4753        4854        4853
         4        4753        4754        4855        4854
         4        4754        4755        4856        4855
         4        4755        4756        4857        4856
         4        4756        4757        4858        4857
         4        4757        4758        4859        4858
         4        4758        4759        4860        4859
         4        4759        4760        4861        4860
         4        4760        4761        4862        4861
         4        4761        4762        4863        4862
         4        4762        4763        4864        4863
         4        4763        4764        4865        4864
         4        4764        4765        4866        4865
         4        4765        4766        4867        4866
         4        4766        4767        4868        4867
         4        4767        4768        4869        4868
         4        4768        4769        4870        4869
         4        4769        4770        4871        4870
         4        4770        4771        4872        4871
         4        4771        4772        4873        4872
         4        4772        4773        4874        4873
         4        4773        4774        4875        4874
         4        4774        4775        4876        4875
         4        4775        4776        4877        4876
         4        4776        4777        4878        4877
         4        4777        4778        4879        4878
         4        4778        4779        4880        4879
         4        4779        4780        4881        4880
         4        4780        4781        4882        4881
         4        4781        4782        4883        4882
         4        4782        4783        4884        4883
         4        4783        4784        4885        4884
         4        4784        4785        4886        4885
         4        4785        4786        4887        4886
         4        4786        4787        4888        4887
         4        4787        4788        4889        4888
         4        4788        4789        4890        4889
         4        4789        4790        4891        4890
         4        4790        4791        4892        4891
         4        4791        4792        4893        4892
         4        4792        4793        4894        4893
         4        4793        4794        4895        4894
         4        4794        4795        4896        4895
         4        4795        4796        4897        4896
         4        4796        4797        4898        4897
         4        4797        4798        4899        4898
         4        4798        4799        4900        4899
         4        4799        4800        4901        4900
         4        4800        4801        4902        4901
         4        4801        4802        4903        4902
         4        4802        4803        4904        4903
         4        4803        4804        4905        4904
         4        4804        4805        4906        4905
         4        4805        4806        4907        4906
         4        4806        4807        4908        4907
         4        4807        4808        4909        4908
         4        4808        4809        4910        4909
         4        4809        4810        4911        4910
         4        4810        4811        4912        4911
         4        4811        4812        4913        4912
         4        4812        4813        4914        4913
         4        4813        4814        4915        4914
         4        4814        4815        4916        4915
         4        4815        4816        4917        4916
         4        4816        4817        4918        4917
         4        4817        4818        4919        4918
         4        4818        4819        4920        4919
         4        4819        4820        4921        4920
         4        4820        4821        4922        4921
         4        4821        4822        4923        4922
         4        4822        4823        4924        4923
         4        4823        4824        4925        4924
         4        4824        4825        4926        4925
         4        4825        4826        4927        4926
         4        4826        4827        4928        4927
         4        4827        4828        4929        4928
         4        4828        4829        4930        4929
         4        4829        4830        4931        4930
         4        4830        4831        4932        4931
         4        4831        4832        4933        4932
         4        4832        4833        4934        4933
         4        4833        4834        4935        4934
         4        4834        4835        4936        4935
         4        4835        4836        4937        4936
         4        4836        4837        4938        4937
         4        4837        4838        4939        4938
         4        4838        4839        4940        4939
         4        4839        4840        4941        4940
         4        4840        4841        4942        4941
         4        4841        4842        4943        4942
         4        4842        4843        4944        4943
         4        4843        4844        4945        4944
         4        4844        4845        4946        4945
         4        4845        4846        4947        4946
         4        4846        4847        4948        4947
         4        4848        4849        4950        4949
         4        4849        4850        4951        4950
         4        4850        4851        4952        4951
         4        4851        4852        4953        4952
         4        4852        4853        4954        4953
         4        4853        4854        4955        4954
         4        4854        4855        4956        4955
         4        4855        4856        4957        4956
         4        4856        4857        4958        4957
         4        4857        4858        4959        4958
         4        4858        4859        4960        4959
         4        4859        4860        4961        4960
         4        4860        4861        4962        4961
         4        4861        4862        4963        4962
         4        4862        4863        4964        4963
         4        4863        4864        4965        4964
         4        4864        4865        4966        4965
         4        4865        4866        4967        4966
         4        4866        4867        4968        4967
         4        4867        4868        4969        4968
         4        4868        4869        4970        4969
         4        4869        4870        4971        4970
         4        4870        4871        4972        4971
         4        4871        4872        4973        4972
         4        4872        4873        4974        4973
         4        4873        4874        4975        4974
         4        4874        4875        4976        4975
         4        4875        4876        4977        4976
         4        4876        4877        4978        4977
         4        4877        4878        4979        4978
         4        4878        4879        4980        4979
         4        4879        4880        4981        4980
         4        4880        4881        4982        4981
         4        4881        4882        4983        4982
         4        4882        4883        4984        4983
         4        4883        4884        4985        4984
         4        4884        4885        4986        4985
         4        4885        4886        4987        4986
         4        4886        4887        4988        4987
         4        4887        4888        4989        4988
         4        4888        4889        4990        4989
         4        4889        4890        4991        4990
         4        4890        4891        4992        4991
         4        4891        4892        4993        4992
         4        4892        4893        4994        4993
         4        4893        4894        4995        4994
         4        4894        4895        4996        4995
         4        4895        4896        4997        4996
         4        4896        4897        4998        4997
         4        4897        4898        4999        4998
         4        4898        4899        5000        4999
         4        4899        4900        5001        5000
         4        4900        4901        5002        5001
         4        4901        4902        5003        5002
         4        4902        4903        5004        5003
         4        4903        4904        5005        5004
         4        4904        4905        5006        5005
         4        4905        4906        5007        5006
         4        4906        4907        5008        5007
         4        4907        4908        5009        5008
         4        4908        4909        5010        5009
         4        4909        4910        5011        5010
         4        4910        4911        5012        5011
         4        4911        4912        5013        5012
         4        4912        4913        5014        5013
         4        4913        4914        5015        5014
         4        4914        4915        5016        5015
         4        4915        4916        5017        5016
         4        4916        4917        5018        5017
         4        4917        4918        5019        5018
         4        4918        4919        5020        5019
         4        4919        4920        5021        5020
         4        4920        4921        5022        5021
         4        4921        4922        5023        5022
         4        4922        4923        5024        5023
         4        4923        4924        5025        5024
         4        4924        4925        5026        5025
         4        4925        4926        5027        5026
         4        4926        4927        5028        5027
         4        4927        4928        5029        5028
         4        4928        4929        5030        5029
         4        4929        4930        5031        5030
         4        4930        4931        5032        5031
         4        4931        4932        5033        5032
         4        4932        4933        5034        5033
         4        4933        4934        5035        5034
         4        4934        4935        5036        5035
         4        4935        4936        5037        5036
         4        4936        4937        5038        5037
         4        4937        4938        5039        5038
         4        4938        4939        5040        5039
         4        4939        4940        5041        5040
         4        4940        4941        5042        5041
         4        4941        4942        5043        5042
         4        4942        4943        5044        5043
         4        4943        4944        5045        5044
         4        4944        4945        5046        5045
         4        4945        4946        5047        5046
         4        4946        4947        5048        5047
         4        4947        4948        5049        5048
         4        4949        4950        5051        5050
         4        4950        4951        5052        5051
         4        4951        4952        5053        5052
         4        4952        4953        5054        5053
         4        4953        4954        5055        5054
         4        4954        4955        5056        5055
         4        4955        4956        5057        5056
         4        4956        4957        5058        5057
         4        4957        4958        5059        5058
         4        4958        4959        5060        5059
         4        4959        4960        5061        5060
         4        4960        4961        5062        5061
         4        4961        4962        5063        5062
         4        4962        4963        5064        5063
         4        4963        4964        5065        5064
         4        4964        4965        5066        5065
         4        4965        4966        5067        5066
         4        4966        4967        5068        5067
         4        4967        4968        5069        5068
         4        4968        4969        5070        5069
         4        4969        4970        5071        5070
         4        4970        4971        5072        5071
         4        4971        4972        5073        5072
         4        4972        4973        5074        5073
         4        4973        4974        5075        5074
         4        4974        4975        5076        5075
         4        4975        4976        5077        5076
         4        4976        4977        5078        5077
         4        4977        4978        5079        5078
         4        4978        4979        5080        5079
         4        4979        4980        5081        5080
         4        4980        4981        5082        5081
         4        4981        4982        5083        5082
         4        4982        4983        5084        5083
         4        4983        4984        5085        5084
         4        4984        4985        5086        5085
         4        4985        4986        5087        5086
         4        4986        4987        5088        5087
         4        4987        4988        5089        5088
         4        4988        4989        5090        5089
         4        4989        4990        5091        5090
         4        4990        4991        5092        5091
         4        4991        4992        5093        5092
         4        4992        4993        5094        5093
         4        4993        4994        5095        5094
         4        4994        4995        5096        5095
         4        4995        4996        5097        5096
         4        4996        4997        5098        5097
         4        4997        4998        5099        5098
         4        4998        4999        5100        5099
         4        4999        5000        5101        5100
         4        5000        5001        5102        5101
         4        5001        5002        5103        5102
         4        5002        5003        5104        5103
         4        5003        5004        5105        5104
         4        5004        5005        5106        5105
         4        5005        5006        5107        5106
         4        5006        5007        5108        5107
         4        5007        5008        5109        5108
         4        5008        5009        5110        5109
         4        5009        5010        5111        5110
         4        5010        5011        5112        5111
         4        5011        5012        5113        5112
         4        5012        5013        5114        5113
         4        5013        5014        5115        5114
         4        5014        5015        5116        5115
         4        5015        5016        5117        5116
         4        5016        5017        5118        5117
         4        5017        5018        5119        5118
         4        5018        5019        5120        5119
         4        5019        5020        5121        5120
         4        5020        5021        5122        5121
         4        5021        5022        5123        5122
         4        5022        5023        5124        5123
         4        5023        5024        5125        5124
         4        5024        5025        5126        5125
         4        5025        5026        5127        5126
         4        5026        5027        5128        5127
         4        5027        5028        5129        5128
         4        5028        5029        5130        5129
         4        5029        5030        5131        5130
         4        5030        5031        5132        5131
         4        5031        5032        5133        5132
         4        5032        5033        5134        5133
         4        5033        5034        5135        5134
         4        5034        5035        5136        5135
         4        5035        5036        5137        5136
         4        5036        5037        5138        5137
         4        5037        5038        5139        5138
         4        5038        5039        5140        5139
         4        5039        5040        5141        5140
         4        5040        5041        5142        5141
         4        5041        5042        5143        5142
         4        5042        5043        5144        5143
         4        5043        5044        5145        5144
         4        5044        5045        5146        5145
         4        5045        5046        5147        5146
         4        5046        5047        5148        5147
         4        5047        5048        5149        5148
         4        5048        5049        5150        5149
CELL_TYPES       5000
9
9
9
9
9
9
9
9
9
9
9
9
9
9
9
9
9
9
9
9
9
9
9
9
9
9
9
9
9
9
9
9
9
9
9
9
9
9
9
9
9
9
9
9
9
9
9
9
9
9
9
9
9
9
9
9
9
9
9
9
9
9
9
9
9
9
9
9
9
9
9
9
9
9
9
9
9
9
9
9
9
9
9
9
9
9
9
9
9
9
9
9
9
9
9
9
9
9
9
9
9
9
9
9
9
9
9
9
9
9
9
9
9
9
9
9
9
9
9
9
9
9
9
9
9
9
9
9
9
9
9
9
9
9
9
9
9
9
9
9
9
9
9
9
9
9
9
9
9
9
9
9
9
9
9
9
9
9
9
9
9
9
9
9
9
9
9
9
9
9
9
9
9
9
9
9
9
9
9
9
9
9
9
9
9
9
9
9
9
9
9
9
9
9
9
9
9
9
9
9
9
9
9
9
9
9
9
9
9
9
9
9
9
9
9
9
9
9
9
9
9
9
9
9
9
9
9
9
9
9
9
9
9
9
9
9
9
9
9
9
9
9
9
9
9
9
9
9
9
9
9
9
9
9
9
9
9
9
9
9
9
9
9
9
9
9
9
9
9
9
9
9
9
9
9
9
9
9
9
9
9
9
9
9
9
9
9
9
9
9
9
9
9
9
9
9
9
9
9
9
9
9
9
9
9
9
9
9
9
9
9
9
9
9
9
9
9
9
9
9
9
9
9
9
9
9
9
9
9
9
9
9
9
9
9
9
9
9
9
9
9
9
9
9
9
9
9
9
9
9
9
9
9
9
9
9
9
9
9
9
9
9
9
9
9
9
9
9
9
9
9
9
9
9
9
9
9
9
9
9
9
9
9
9
9
9
9
9
9
9
9
9
9
9
9
9
9
9
9
9
9
9
9
9
9
9
9
9
9
9
9
9
9
9
9
9
9
9
9
9
9
9
9
9
9
9
9
9
9
9
9
9
9
9
9
9
9
9
9
9
9
9
9
9
9
9
9
9
9
9
9
9
9
9
9
9
9
9
9
9
9
9
9
9
9
9
9
9
9
9
9
9
9
9
9
9
9
9
9
9
9
9
9
9
9
9
9
9
9
9
9
9
9
9
9
9
9
9
9
9
9
9
9
9
9
9
9
9
9
9
9
9
9
9
9
9
9
9
9
9
9
9
9
9
9
9
9
9
9
9
9
9
9
9
9
9
9
9
9
9
9
9
9
9
9
9
9
9
9
9
9
9
9
9
9
9
9
9
9
9
9
9
9
9
9
9
9
9
9
9
9
9
9
9
9
9
9
9
9
9
9
9
9
9
9
9
9
9
9
9
9
9
9
9
9
9
9
9
9
9
9
9
9
9
9
9
9
9
9
9
9
9
9
9
9
9
9
9
9
9
9
9
9
9
9
9
9
9
9
9
9
9
9
9
9
9
9
9
9
9
9
9
9
9
9
9
9
9
9
9
9
9
9
9
9
9
9
9
9
9
9
9
9
9
9
9
9
9
9
9
9
9
9
9
9
9
9
9
9
9
9
9
9
9
9
9
9
9
9
9
9
9
9
9
9
9
9
9
9
9
9
9
9
9
9
9
9
9
9
9
9
9
9
9
9
9
9
9
9
9
9
9
9
9
9
9
9
9
9
9
9
9
9
9
9
9
9
9
9
9
9
9
9
9
9
9
9
9
9
9
9
9
9
9
9
9
9
9
9
9
9
9
9
9
9
9
9
9
9
9
9
9
9
9
9
9
9
9
9
9
9
9
9
9
9
9
9
9
9
9
9
9
9
9
9
9
9
9
9
9
9
9
9
9
9
9
9
9
9
9
9
9
9
9
9
9
9
9
9
9
9
9
9
9
9
9
9
9
9
9
9
9
9
9
9
9
9
9
9
9
9
9
9
9
9
9
9
9
9
9
9
9
9
9
9
9
9
9
9
9
9
9
9
9
9
9
9
9
9
9
9
9
9
9
9
9
9
9
9
9
9
9
9
9
9
9
9
9
9
9
9
9
9
9
9
9
9
9
9
9
9
9
9
9
9
9
9
9
9
9
9
9
9
9
9
9
9
9
9
9
9
9
9
9
9
9
9
9
9
9
9
9
9
9
9
9
9
9
9
9
9
9
9
9
9
9
9
9
9
9
9
9
9
9
9
9
9
9
9
9
9
9
9
9
9
9
9
9
9
9
9
9
9
9
9
9
9
9
9
9
9
9
9
9
9
9
9
9
9
9
9
9
9
9
9
9
9
9
9
9
9
9
9
9
9
9
9
9
9
9
9
9
9
9
9
9
9
9
9
9
9
9
9
9
9
9
9
9
9
9
9
9
9
9
9
9
9
9
9
9
9
9
9
9
9
9
9
9
9
9
9
9
9
9
9
9
9
9
9
9
9
9
9
9
9
9
9
9
9
9
9
9
9
9
9
9
9
9
9
9
9
9
9
9
9
9
9
9
9
9
9
9
9
9
9
9
9
9
9
9
9
9
9
9
9
9
9
9
9
9
9
9
9
9
9
9
9
9
9
9
9
9
9
9
9
9
9
9
9
9
9
9
9
9
9
9
9
9
9
9
9
9
9
9
9
9
9
9
9
9
9
9
9
9
9
9
9
9
9
9
9
9
9
9
9
9
9
9
9
9
9
9
9
9
9
9
9
9
9
9
9
9
9
9
9
9
9
9
9
9
9
9
9
9
9
9
9
9
9
9
9
9
9
9
9
9
9
9
9
9
9
9
9
9
9
9
9
9
9
9
9
9
9
9
9
9
9
9
9
9
9
9
9
9
9
9
9
9
9
9
9
9
9
9
9
9
9
9
9
9
9
9
9
9
9
9
9
9
9
9
9
9
9
9
9
9
9
9
9
9
9
9
9
9
9
9
9
9
9
9
9
9
9
9
9
9
9
9
9
9
9
9
9
9
9
9
9
9
9
9
9
9
9
9
9
9
9
9
9
9
9
9
9
9
9
9
9
9
9
9
9
9
9
9
9
9
9
9
9
9
9
9
9
9
9
9
9
9
9
9
9
9
9
9
9
9
9
9
9
9
9
9
9
9
9
9
9
9
9
9
9
9
9
9
9
9
9
9
9
9
9
9
9
9
9
9
9
9
9
9
9
9
9
9
9
9
9
9
9
9
9
9
9
9
9
9
9
9
9
9
9
9
9
9
9
9
9
9
9
9
9
9
9
9
9
9
9
9
9
9
9
9
9
9
9
9
9
9
9
9
9
9
9
9
9
9
9
9
9
9
9
9
9
9
9
9
9
9
9
9
9
9
9
9
9
9
9
9
9
9
9
9
9
9
9
9
9
9
9
9
9
9
9
9
9
9
9
9
9
9
9
9
9
9
9
9
9
9
9
9
9
9
9
9
9
9
9
9
9
9
9
9
9
9
9
9
9
9
9
9
9
9
9
9
9
9
9
9
9
9
9
9
9
9
9
9
9
9
9
9
9
9
9
9
9
9
9
9
9
9
9
9
9
9
9
9
9
9
9
9
9
9
9
9
9
9
9
9
9
9
9
9
9
9
9
9
9
9
9
9
9
9
9
9
9
9
9
9
9
9
9
9
9
9
9
9
9
9
9
9
9
9
9
9
9
9
9
9
9
9
9
9
9
9
9
9
9
9
9
9
9
9
9
9
9
9
9
9
9
9
9
9
9
9
9
9
9
9
9
9
9
9
9
9
9
9
9
9
9
9
9
9
9
9
9
9
9
9
9
9
9
9
9
9
9
9
9
9
9
9
9
9
9
9
9
9
9
9
9
9
9
9
9
9
9
9
9
9
9
9
9
9
9
9
9
9
9
9
9
9
9
9
9
9
9
9
9
9
9
9
9
9
9
9
9
9
9
9
9
9
9
9
9
9
9
9
9
9
9
9
9
9
9
9
9
9
9
9
9
9
9
9
9
9
9
9
9
9
9
9
9
9
9
9
9
9
9
9
9
9
9
9
9
9
9
9
9
9
9
9
9
9
9
9
9
9
9
9
9
9
9
9
9
9
9
9
9
9
9
9
9
9
9
9
9
9
9
9
9
9
9
9
9
9
9
9
9
9
9
9
9
9
9
9
9
9
9
9
9
9
9
9
9
9
9
9
9
9
9
9
9
9
9
9
9
9
9
9
9
9
9
9
9
9
9
9
9
9
9
9
9
9
9
9
9
9
9
9
9
9
9
9
9
9
9
9
9
9
9
9
9
9
9
9
9
9
9
9
9
9
9
9
9
9
9
9
9
9
9
9
9
9
9
9
9
9
9
9
9
9
9
9
9
9
9
9
9
9
9
9
9
9
9
9
9
9
9
9
9
9
9
9
9
9
9
9
9
9
9
9
9
9
9
9
9
9
9
9
9
9
9
9
9
9
9
9
9
9
9
9
9
9
9
9
9
9
9
9
9
9
9
9
9
9
9
9
9
9
9
9
9
9
9
9
9
9
9
9
9
9
9
9
9
9
9
9
9
9
9
9
9
9
9
9
9
9
9
9
9
9
9
9
9
9
9
9
9
9
9
9
9
9
9
9
9
9
9
9
9
9
9
9
9
9
9
9
9
9
9
9
9
9
9
9
9
9
9
9
9
9
9
9
9
9
9
9
9
9
9
9
9
9
9
9
9
9
9
9
9
9
9
9
9
9
9
9
9
9
9
9
9
9
9
9
9
9
9
9
9
9
9
9
9
9
9
9
9
9
9
9
9
9
9
9
9
9
9
9
9
9
9
9
9
9
9
9
9
9
9
9
9
9
9
9
9
9
9
9
9
9
9
9
9
9
9
9
9
9
9
9
9
9
9
9
9
9
9
9
9
9
9
9
9
9
9
9
9
9
9
9
9
9
9
9
9
9
9
9
9
9
9
9
9
9
9
9
9
9
9
9
9
9
9
9
9
9
9
9
9
9
9
9
9
9
9
9
9
9
9
9
9
9
9
9
9
9
9
9
9
9
9
9
9
9
9
9
9
9
9
9
9
9
9
9
9
9
9
9
9
9
9
9
9
9
9
9
9
9
9
9
9
9
9
9
9
9
9
9
9
9
9
9
9
9
9
9
9
9
9
9
9
9
9
9
9
9
9
9
9
9
9
9
9
9
9
9
9
9
9
9
9
9
9
9
9
9
9
9
9
9
9
9
9
9
9
9
9
9
9
9
9
9
9
9
9
9
9
9
9
9
9
9
9
9
9
9
9
9
9
9
9
9
9
9
9
9
9
9
9
9
9
9
9
9
9
9
9
9
9
9
9
9
9
9
9
9
9
9
9
9
9
9
9
9
9
9
9
9
9
9
9
9
9
9
9
9
9
9
9
9
9
9
9
9
9
9
9
9
9
9
9
9
9
9
9
9
9
9
9
9
9
9
9
9
9
9
9
9
9
9
9
9
9
9
9
9
9
9
9
9
9
9
9
9
9
9
9
9
9
9
9
9
9
9
9
9
9
9
9
9
9
9
9
9
9
9
9
9
9
9
9
9
9
9
9
9
9
9
9
9
9
9
9
9
9
9
9
9
9
9
9
9
9
9
9
9
9
9
9
9
9
9
9
9
9
9
9
9
9
9
9
9
9
9
9
9
9
9
9
9
9
9
9
9
9
9
9
9
9
9
9
9
9
9
9
9
9
9
9
9
9
9
9
9
9
9
9
9
9
9
9
9
9
9
9
9
9
9
9
9
9
9
9
9
9
9
9
9
9
9
9
9
9
9
9
9
9
9
9
9
9
9
9
9
9
9
9
9
9
9
9
9
9
9
9
9
9
9
9
9
9
9
9
9
9
9
9
9
9
9
9
9
9
9
9
9
9
9
9
9
9
9
9
9
9
9
9
9
9
9
9
9
9
9
9
9
9
9
9
9
9
9
9
9
9
9
9
9
9
9
9
9
9
9
9
9
9
9
9
9
9
9
9
9
9
9
9
9
9
9
9
9
9
9
9
9
9
9
9
9
9
9
9
9
9
9
9
9
9
9
9
9
9
9
9
9
9
9
9
9
9
9
9
9
9
9
9
9
9
9
9
9
9
9
9
9
9
9
9
9
9
9
9
9
9
9
9
9
9
9
9
9
9
9
9
9
9
9
9
9
9
9
9
9
9
9
9
9
9
9
9
9
9
9
9
9
9
9
9
9
9
9
9
9
9
9
9
9
9
9
9
9
9
9
9
9
9
9
9
9
9
9
9
9
9
9
9
9
9
9
9
9
9
9
9
9
9
9
9
9
9
9
9
9
9
9
9
9
9
9
9
9
9
9
9
9
9
9
9
9
9
9
9
9
9
9
9
9
9
9
9
9
9
9
9
9
9
9
9
9
9
9
9
9
9
9
9
9
9
9
9
9
9
9
9
9
9
9
9
9
9
9
9
9
9
9
9
9
9
9
9
9
9
9
9
9
9
9
9
9
9
9
9
9
9
9
9
9
9
9
9
9
9
9
9
9
9
9
9
9
9
9
9
9
9
9
9
9
9
9
9
9
9
9
9
9
9
9
9
9
9
9
9
9
9
9
9
9
9
9
9
9
9
9
9
9
9
9
9
9
9
9
9
9
9
9
9
9
9
9
9
9
9
9
9
9
9
9
9
9
9
9
9
9
9
9
9
9
9
9
9
9
9
9
9
9
9
9
9
9
9
9
9
9
9
9
9
9
9
9
9
9
9
9
9
9
9
9
9
9
9
9
9
9
9
9
9
9
9
9
9
9
9
9
9
9
9
9
9
9
9
9
9
9
9
9
9
9
9
9
9
9
9
9
9
9
9
9
9
9
9
9
9
9
9
9
9
9
9
9
9
9
9
9
9
9
9
9
9
9
9
9
9
9
9
9
9
9
9
9
9
9
9
9
9
9
9
9
9
9
9
9
9
9
9
9
9
9
9
9
9
9
9
9
9
9
9
9
9
9
9
9
9
9
9
9
9
9
9
9
9
9
9
9
9
9
9
9
9
9
9
9
9
9
9
9
9
9
9
9
9
9
9
9
9
9
9
9
9
9
9
9
9
9
9
9
9
9
9
9
9
9
9
9
9
9
9
9
9
9
9
9
9
9
9
9
9
9
9
9
9
9
9
9
9
9
9
9
9
9
9
9
9
9
9
9
9
9
9
9
9
9
9
9
9
9
9
9
9
9
9
9
9
9
9
9
9
9
9
9
9
9
9
9
9
9
9
9
9
9
9
9
9
9
9
9
9
9
9
9
9
9
9
9
9
9
9
9
9
9
9
9
9
9
9
9
9
9
9
9
9
9
9
9
9
9
9
9
9
9
9
9
9
9
9
9
9
9
9
9
9
9
9
9
9
9
9
9
9
9
9
9
9
9
9
9
9
9
9
9
9
9
9
9
9
9
9
9
9
9
9
9
9
9
9
9
9
9
9
9
9
9
9
9
9
9
9
9
9
9
9
9
9
9
9
9
9
9
9
9
9
9
9
9
9
9
9
9
9
9
9
9
9
9
9
9
9
9
9
9
9
9
9
9
9
9
9
9
9
9
9
9
9
9
9
9
9
9
9
9
9
9
9
9
9
9
9
9
9
9
9
9
9
9
9
9
9
9
9
9
9
9
9
9
9
9
9
9
9
9
9
9
9
9
9
9
9
9
9
9
9
9
9
9
9
9
9
9
9
9
9
9
9
9
9
9
9
9
9
9
9
9
9
9
9
9
9
9
9
9
9
9
9
9
9
9
9
9
9
9
9
9
9
9
9
9
9
9
9
9
9
9
9
9
9
9
9
9
9
9
9
9
9
9
9
9
9
9
9
9
9
9
9
9
9
9
9
9
9
9
9
9
9
9
9
9
9
9
9
9
9
9
9
9
9
9
9
9
9
9
9
9
9
9
9
9
9
9
9
9
9
9
9
9
9
9
9
9
9
9
9
9
9
9
9
9
9
9
9
9
9
9
9
9
9
9
9
9
9
9
9
9
9
9
9
9
9
9
9
9
9
9
9
9
9
9
9
9
9
9
9
9
9
9
9
9
9
9
9
9
9
9
9
9
9
9
9
9
9
9
9
9
9
9
9
9
9
9
9
9
9
9
9
9
9
9
9
9
9
9
9
9
9
9
9
9
9
9
9
9
9
9
9
9
9
9
9
9
9
9
9
9
9
9
9
9
9
9
9
9
9
9
9
9
9
9
9
9
9
9
9
9
9
9
9
9
9
9
9
9
9
9
9
9
9
9
9
9
9
9
9
9
9
9
9
9
9
9
9
9
9
9
9
9
9
9
9
9
9
9
9
9
9
9
9
9
9
9
9
9
9
9
9
9
9
9
9
9
9
9
9
9
9
9
9
9
9
9
9
9
9
9
9
9
9
9
9
9
9
9
9
9
9
9
9
9
9
9
9
9
9
9
9
9
9
9
9
9
9
9
9
9
9
9
9
9
9
9
9
9
9
9
9
9
9
9
9
9
9
9
9
9
9
9
9
9
9
9
9
9
9
9
9
9
9
9
9
9
9
9
9
9
9
9
9
9
9
9
9
9
9
9
9
9
9
9
9
9
9
9
9
9
9
9
9
9
9
9
9
9
9
9
9
9
9
9
9
9
9
9
9
9
9
9
9
9
9
9
9
9
9
9
9
9
9
9
9
9
9
9
9
9
9
9
9
9
9
9
9
9
9
9
9
9
9
9
9
9
9
9
9
9
9
9
9
9
9
9
9
9
9
9
9
9
9
9
9
9
9
9
9
9
9
9
9
9
9
9
9
9
9
9
9
9
9
9
9
9
9
9
9
9
9
9
9
9
9
9
9
9
9
9
9
9
9
9
9
9
9
9
9
9
9
9
9
9
9
9
9
9
9
9
9
9
9
9
9
9
9
9
9
9
9
9
9
9
9
9
9
9
9
9
9
9
9
9
9
9
9
9
9
9
9
9
9
9
9
9
9
9
9
9
9
9
9
9
9
9
9
9
9
9
9
9
9
9
9
9
9
9
9
9
9
9
9
9
9
9
9
9
9
9
9
9
9
9
9
9
9
9
9
9
9
9
9
9
9
9
9
9
9
9
9
9
9
9
9
9
9
9
9
9
9
9
9
9
9
9
9
9
9
9
9
9
9
9
9
9
9
9
9
9
9
9
9
9
9
9
9
9
9
9
9
9
9
9
9
9
9
9
9
9
9
9
9
9
9
9
9
9
9
9
9
9
9
9
9
9
9
9
9
9
9
9
9
9
9
9
9
9
9
9
9
9
9
9
9
9
9
9
9
9
9
9
9
9
9
9
9
9
9
9
9
9
9
9
9
9
9
9
9
9
9
9
9
9
9
9
9
9
9
9
9
9
9
9
9
9
9
9
9
9
9
9
9
9
9
9
9
9
9
9
9
9
9
9
9
9
9
9
9
9
9
9
9
9
9
9
9
9
9
9
9
9
9
9
9
9
9
9
9
9
9
9
9
9
9
9
9
9
9
9
9
9
9
9
9
9
9
9
9
9
9
9
9
9
9
9
9
9
9
9
9
9
9
9
9
9
9
9
9
9
9
9
9
9
9
9
9
9
9
9
9
9
9
9
9
9
9
9
9
9
9
9
9
9
9
9
9
9
9
9
9
9
9
9
9
9
9
9
9
9
9
9
9
9
9
9
9
9
9
9
9
9
9
9
9
9
9
9
9
9
9
9
9
9
9
9
9
9
9
9
9
9
9
9
9
9
9
9
9
9
9
9
9
9
9
9
9
9
9
9
9
9
9
9
9
9
9
9
9
9
9
9
9
9
9
9
9
9
9
9
9
9
9
9
9
9
9
9
9
9
9
9
9
9
9
9
9
9
9
9
9
9
9
9
9
9
9
9
9
9
9
9
9
9
9
9
9
9
9
9
9
9
9
9
9
9
9
9
9
9
9
9
9
9
9
9
9
9
9
9
9
9
9
9
9
9
9
9
9
9
9
9
9
9
9
9
9
9
9
9
9
9
9
9
9
9
9
9
9
9
9
9
9
9
9
9
9
9
9
9
9
9
9
9
9
9
9
9
9
9
9
9
9
9
9
9
9
9
9
9
9
9
9
9
9
9
9
9
9
9
9
9
9
9
9
9
9
9
9
9
9
9
9
9
9
9
9
9
9
9
9
9
9
9
9
9
9
9
9
9
9
9
9
9
9
9
9
9
9
9
9
9
9
9
9
9
9
9
9
9
9
9
9
9
9
9
9
9
9
9
9
9
9
9
9
9
9
9
9
9
9
9
9
9
9
9
9
9
9
9
9
9
9
9
9
9
9
9
9
9
9
9
9
9
9
9
9
9
9
9
9
9
9
9
9
9
9
9
9
9
9
9
9
9
9
9
9
9
9
9
9
9
9
9
9
9
9
9
9
9
9
9
9
9
9
9
9
9
9
9
9
9
9
9
9
9
9
9
9
9
9
9
9
9
9
9
9
9
9
9
9
9
9
9
9
9
9
9
9
9
9
9
9
9
9
9
9
9
9
9
9
9
9
9
9
9
9
9
9
9
9
9
9
9
9
9
9
9
9
9
9
9
9
9
9
9
9
9
9
9
9
9
9
9
9
9
9
9
9
9
9
9
9
9
9
9
9
9
9
9
9
9
9
9
9
9
9
9
9
9
9
9
9
9
9
9
9
9
9
9
9
9
9
9
9
9
9
9
9
9
9
9
9
9
9
9
9
9
9
9
9
9
9
9
9
9
9
9
9
9
9
9
9
9
9
9
9
9
9
9
9
9
9
9
9
9
9
9
9
9
9
9
9
9
9
9
9
9
9
9
9
9
9
9
9
9
9
9
9
9
9
9
9
9
9
9
9
9
9
9
9
9
9
9
9
9
9
9
9
9
9
9
9
9
9
9
9
9
9
9
9
9
9
9
9
9
9
9
9
9
9
9
9
9
9
9
9
9
9
9
9
9
9
9
9
9
9
9
9
9
9
9
9
9
9
9
9
9
9
9
9
9
9
9
9
9
9
9
9
9
9
9
9
9
9
9
9
9
9
9
9
9
9
9
9
9
9
9
9
9
9
9
9
9
9
9
9
9
9
9
9
9
9
9
9
9
9
9
9
9
9
9
9
9
9
9
9
9
9
9
9
9
9
9
9
9
9
9
9
9
9
9
9
9
9
9
9
9
9
9
9
9
9
9
9
9
9
9
9
9
9
9
9
9
9
9
9
9
9
9
9
9
9
9
9
9
9
9
9
9
9
9
9
9
9
9
9
9
9
9
9
9
9
9
9
9
9
9
9
9
9
9
9
9
9
9
9
9
9
9
9
9
9
9
9
9
9
9
9
9
9
9
9
9
9
9
9
9
9
9
9
9
9
9
9
9
9
9
9
9
9
9
9
9
9
9
9
9
POINT_DATA      5151
SCALARS p double 
LOOKUP_TABLE default
   50000000.0000000     
   49956403.8416301     
   49912762.4177633     
   49869020.5538598     
   49825120.5960529     
   49781003.4371061     
   49736608.8313055     
   49691875.6360310     
   49646741.9742665     
   49601145.3577241     
   49555022.7720514     
   49508310.7331447     
   49460945.3189041     
   49412862.1818955     
   49363996.5471805     
   49314283.1992318     
   49263656.4610909     
   49212050.1683879     
   49159397.6402931     
   49105631.6490432     
   49050684.3893203     
   48994487.4484748     
   48936971.7783643     
   48878067.6694033     
   48817704.7272955     
   48755811.8528277     
   48692317.2250369     
   48627148.2880211     
   48560231.7416402     
   48491493.5363321     
   48420858.8722744     
   48348252.2031149     
   48273597.2445083     
   48196816.9877006     
   48117833.7184243     
   48036569.0413666     
   47952943.9105056     
   47866878.6656078     
   47778293.0752074     
   47687106.3863949     
   47593237.3817599     
   47496604.4438475     
   47397125.6275006     
   47294718.7404704     
   47189301.4326905     
   47080791.2946241     
   46969105.9650952     
   46854163.2490316     
   46735881.2455482     
   46614178.4868051     
   46488974.0880811     
   46360187.9094982     
   46227740.7298380     
   46091554.4328793     
   45951552.2066840     
   45807658.7562430     
   45659800.5298799     
   45507905.9597908     
   45351905.7170719     
   45191732.9815554     
   45027323.7267392     
   44858617.0200485     
   44685555.3386154     
   44508084.9007063     
   44326156.0128470     
   44139723.4326224     
   43948746.7470309     
   43753190.7661614     
   43553025.9318476     
   43348228.7408047     
   43138782.1815983     
   42924676.1846145     
   42705908.0839833     
   42482483.0901746     
   42254414.7717058     
   42021725.5440778     
   41784447.1636864     
   41542621.2240210     
   41296299.6509464     
   41045545.1932741     
   40790431.9041077     
   40531045.6076154     
   40267484.3448836     
   39999858.7913281     
   39728292.6367443     
   39452922.9174371     
   39173900.2879449     
   38891389.2176477     
   38605568.0949684     
   38316629.2190432     
   38024778.6554793     
   37730235.9297936     
   37433233.5284017     
   37134016.1758517     
   36832839.8523522     
   36529970.5238761     
   36225682.5385131     
   35920256.6894440     
   35613977.7784359     
   35307131.7809835     
   35000000.0000000     
   50000000.0000000     
   49956403.6832621     
   49912762.2179496     
   49869020.3294865     
   49825120.3641096     
   49781003.2055747     
   49736608.6059799     
   49691875.4200734     
   49646741.7695145     
   49601145.1649262     
   49555022.5913093     
   49508310.5641162     
   49460945.1609967     
   49412862.0343807     
   49363996.4092813     
   49314283.0701758     
   49263656.3401467     
   49212050.0548847     
   49159397.5336321     
   49105631.5487017     
   49050684.2948517     
   48994487.3595061     
   48936971.6945927     
   48878067.5905909     
   48817704.6532652     
   48755811.7834583     
   48692317.1602589     
   48627148.2278130     
   48560231.6860245     
   48491493.4853728     
   48420858.8260740     
   48348252.1618120     
   48273597.2082753     
   48196816.9567421     
   48117833.6929749     
   48036569.0216897     
   47952943.8968916     
   47866878.6583728     
   47778293.0746917     
   47687106.3929612     
   47593237.3957923     
   47496604.4657498     
   47397125.6576945     
   47294718.7793939     
   47189301.4807959     
   47080791.3523763     
   46969106.0329691     
   46854163.3275099     
   46735881.3351189     
   46614178.5879586     
   46488974.2013067     
   46360188.0352813     
   46227740.8686558     
   46091554.5851969     
   45951552.3729500     
   45807658.9368843     
   45659800.7252966     
   45507906.1703502     
   45351905.9431022     
   45191733.2233384     
   45027323.9845032     
   44858617.2939600     
   44685555.6287698     
   44508085.2071185     
   44326156.3354409     
   44139723.7712194     
   43948747.1013373     
   43753191.1357551     
   43553026.3161629     
   43348229.1391166     
   43138782.5930045     
   42924676.6080163     
   42705908.5180642     
   42482483.5333771     
   42254415.2222058     
   42021725.9997568     
   41784447.6221009     
   41542621.6823699     
   41296300.1060357     
   41045545.6414805     
   40790432.3413410     
   40531046.0292823     
   40267484.7458545     
   39999859.1659120     
   39728292.9786756     
   39452923.2198838     
   39173900.5435475     
   38891389.4186031     
   38605568.2331825     
   38316629.2863622     
   38024778.6440674     
   37730235.8326131     
   37433233.3400308     
   37134015.8932595     
   36832839.4767241     
   36529970.0611694     
   36225682.0049218     
   35920256.1075394     
   35613977.2067210     
   35307131.2653836     
   35000000.0000000     
   50000000.0000000     
   49956403.2333053     
   49912761.6308016     
   49869019.6688426     
   49825119.6781456     
   49781002.5202035     
   49736607.9383773     
   49691874.7801645     
   49646741.1628285     
   49601144.5938100     
   49555022.0560738     
   49508310.0637495     
   49460944.6937150     
   49412861.5979952     
   49363996.0014550     
   49314282.6885899     
   49263655.9826059     
   49212049.7193796     
   49159397.2183704     
   49105631.2521213     
   49050684.0156198     
   48994487.0965118     
   48936971.4469342     
   48878067.3575620     
   48817704.4343405     
   48755811.5782795     
   48692316.9686213     
   48627148.0496543     
   48560231.5214139     
   48491493.3345017     
   48420858.6892478     
   48348252.0394432     
   48273597.1008763     
   48196816.8649206     
   48117833.6174274     
   48036568.9631980     
   47952943.8563173     
   47866878.6366531     
   47778293.0728354     
   47687106.4120444     
   47593237.4369536     
   47496604.5301861     
   47397125.7466562     
   47294718.8941796     
   47189301.6227470     
   47080791.5228708     
   46969106.2334155     
   46854163.5593403     
   46735881.5997805     
   46614178.8869061     
   46488974.5359928     
   46360188.4071462     
   46227741.2791165     
   46091555.0356350     
   45951552.8646983     
   45807659.4712123     
   45659801.3033946     
   45507906.7933119     
   45351906.6119058     
   45191733.9388265     
   45027324.7473599     
   44858618.1046866     
   44685556.4876588     
   44508086.1142246     
   44326157.2905501     
   44139724.7738146     
   43948748.1505618     
   43753192.2303722     
   43553027.4545125     
   43348230.3190664     
   43138783.8118984     
   42924677.8626160     
   42705909.8044862     
   42482484.8470232     
   42254416.5576867     
   42021727.3508078     
   41784448.9814914     
   41542623.0418033     
   41296301.4560445     
   41045546.9713144     
   40790433.6388535     
   40531047.2808194     
   40267485.9361540     
   39999860.2780237     
   39728293.9939212     
   39452924.1178767     
   39173901.3023100     
   38891390.0148189     
   38605568.6426512     
   38316629.4847201     
   38024778.6078980     
   37730235.5410055     
   37433232.7768858     
   37134015.0501372     
   36832838.3574185     
   36529968.6859012     
   36225680.4214599     
   35920254.3934212     
   35613975.5247965     
   35307129.8142593     
   35000000.0000000     
   50000000.0000000     
   49956402.5360958     
   49912760.6821110     
   49869018.5960020     
   49825118.5582405     
   49781001.3993885     
   49736606.8454260     
   49691873.7323156     
   49646740.1694614     
   49601143.6590060     
   49555021.1803923     
   49508309.2455270     
   49460943.9299725     
   49412860.8850765     
   49363995.3354560     
   49314282.0656420     
   49263655.3990522     
   49212049.1718778     
   49159396.7039456     
   49105630.7681849     
   49050683.5599680     
   48994486.6673108     
   48936971.0426990     
   48878066.9771319     
   48817704.0768545     
   48755811.2431521     
   48692316.6555206     
   48627147.7584822     
   48560231.2522879     
   48491493.0877400     
   48420858.4653549     
   48348251.8390984     
   48273596.9249231     
   48196816.7143570     
   48117833.4933976     
   48036568.8669843     
   47952943.7893329     
   47866878.6004352     
   47778293.0690377     
   47687106.4424305     
   47593237.5033898     
   47496604.6346342     
   47397125.8911652     
   47294719.0808777     
   47189301.8538330     
   47080791.8006037     
   46969106.5601045     
   46854163.9373333     
   46735882.0314516     
   46614179.3746415     
   46488975.0821761     
   46360189.0141419     
   46227741.9492517     
   46091555.7711799     
   45951553.6678441     
   45807660.3440478     
   45659802.2478802     
   45507907.8112516     
   45351907.7049159     
   45191735.1083025     
   45027325.9944399     
   44858619.4302116     
   44685557.8921298     
   44508087.5977552     
   44326158.8528160     
   44139726.4139983     
   43948749.8672918     
   43753194.0216573     
   43553029.3176699     
   43348232.2506429     
   43138785.8075839     
   42924679.9171484     
   42705911.9115469     
   42482486.9991217     
   42254418.7460339     
   42021729.5651760     
   41784451.2100616     
   41542625.2709994     
   41296303.6703547     
   41045549.1531035     
   40790435.7681699     
   40531049.3352054     
   40267487.8904725     
   39999862.1043201     
   39728295.6613489     
   39452925.5927273     
   39173902.5482017     
   38891390.9931220     
   38605569.3132479     
   38316629.8072367     
   38024778.5435673     
   37730235.0553974     
   37433231.8437053     
   37134013.6565221     
   36832836.5108934     
   36529966.4240602     
   36225677.8251667     
   35920251.6070412     
   35613972.8060368     
   35307127.5944640     
   35000000.0000000     
   50000000.0000000     
   49956401.6257438     
   49912759.3988206     
   49869017.1338153     
   49825117.0248264     
   49780999.8615470     
   49736605.3443249     
   49691872.2927299     
   49646738.8048697     
   49601142.3753009     
   49555019.9784396     
   49508308.1230225     
   49460942.8827466     
   49412859.9080018     
   49363994.4230605     
   49314281.2125087     
   49263654.6000683     
   49212048.4223783     
   49159395.9997855     
   49105630.1057648     
   49050682.9362292     
   48994486.0797135     
   48936970.4891908     
   48878066.4561124     
   48817703.5871396     
   48755810.7839398     
   48692316.2263594     
   48627147.3592428     
   48560230.8831386     
   48491492.7491242     
   48420858.1579724     
   48348251.5638887     
   48273596.6830506     
   48196816.5071979     
   48117833.3225285     
   48036568.7341710     
   47952943.6965206     
   47866878.5497386     
   47778293.0627320     
   47687106.4829414     
   47593237.5932840     
   47496604.7766095     
   47397126.0880395     
   47294719.3355779     
   47189302.1693829     
   47080792.1801109     
   46969107.0067459     
   46854164.4543395     
   46735882.6220897     
   46614180.0421967     
   46488975.8299308     
   46360189.8453534     
   46227742.8671271     
   46091556.7788496     
   45951554.7683317     
   45807661.5402378     
   45659803.5424828     
   45507909.2067637     
   45351909.2035793     
   45191736.7120579     
   45027327.7048770     
   44858621.2485148     
   44685559.8190189     
   44508089.6334218     
   44326160.9968530     
   44139728.6653241     
   43948752.2240675     
   43753196.4811961     
   43553031.8763380     
   43348234.9037507     
   43138788.5492671     
   42924682.7402360     
   42705914.8074164     
   42482489.9575387     
   42254421.7549748     
   42021732.6106332     
   41784454.2758286     
   41542628.3384374     
   41296306.7181409     
   41045552.1569643     
   40790438.7006063     
   40531052.1652220     
   40267490.5833272     
   39999864.6213229     
   39728297.9597498     
   39452927.6257503     
   39173904.2653048     
   38891392.3405920     
   38605570.2352764     
   38316630.2476686     
   38024778.4485684     
   37730234.3773548     
   37433230.5467208     
   37134011.7240282     
   36832833.9557622     
   36529963.3027984     
   36225674.2562154     
   35920247.8043906     
   35613969.1317799     
   35307124.7308522     
   35000000.0000000     
   50000000.0000000     
   49956400.5290215     
   49912757.8071515     
   49869015.3045693     
   49825115.0982498     
   49780997.9252293     
   49736603.4524397     
   49691870.4778171     
   49646737.0846884     
   49601140.7576388     
   49555018.4645121     
   49508306.7099016     
   49460941.5650773     
   49412858.6791884     
   49363993.2760658     
   49314280.1403740     
   49263653.5962348     
   49212047.4808714     
   49159395.1153064     
   49105629.2737203     
   49050682.1527239     
   48994485.3415194     
   48936969.7937050     
   48878065.8013099     
   48817702.9715263     
   48755810.2065076     
   48692315.6865449     
   48627146.8568907     
   48560230.4184692     
   48491492.3227055     
   48420857.7706952     
   48348251.2169454     
   48273596.3779166     
   48196816.2456153     
   48117833.1064907     
   48036568.5659099     
   47952943.5784935     
   47866878.4846163     
   47778293.0533868     
   47687106.5324353     
   47593237.7048568     
   47496604.9536660     
   47397126.3341364     
   47294719.6544096     
   47189302.5647664     
   47080792.6559692     
   46969107.5670902     
   46854165.1032494     
   46735883.3636923     
   46614180.8806427     
   46488976.7693688     
   46360190.8899015     
   46227744.0208426     
   46091558.0456940     
   45951556.1521344     
   45807663.0446551     
   45659805.1709534     
   45507910.9624602     
   45351911.0893557     
   45191738.7303914     
   45027329.8578059     
   44858623.5375698     
   44685562.2451491     
   44508092.1969140     
   44326163.6972438     
   44139731.5013040     
   43948755.1933766     
   43753199.5805098     
   43553035.1011419     
   43348238.2482032     
   43138792.0060481     
   42924686.3003798     
   42705918.4601271     
   42482493.6899857     
   42254425.5520659     
   42021736.4547642     
   41784458.1466075     
   41542632.2123822     
   41296310.5683538     
   41045555.9527850     
   40790442.4072534     
   40531055.7434372     
   40267493.9890452     
   39999867.8054034     
   39728300.8678228     
   39452930.1982508     
   39173906.4378006     
   38891394.0445493     
   38605571.3994546     
   38316630.8003997     
   38024778.3212518     
   37730233.5095761     
   37433228.8935171     
   37134009.2659040     
   36832830.7122543     
   36529959.3509609     
   36225669.7557313     
   35920243.0405912     
   35613964.5824817     
   35307121.3182743     
   35000000.0000000     
   50000000.0000000     
   49956399.2673910     
   49912755.9317431     
   49869013.1300915     
   49825112.7986514     
   49780995.6090768     
   49736601.1872774     
   49691868.3041705     
   49646735.0247242     
   49601138.8211138     
   49555016.6530254     
   49508305.0199188     
   49460939.9900663     
   49412857.2110916     
   49363991.9062892     
   49314278.8604278     
   49263652.3981284     
   49212046.3573376     
   49159394.0599108     
   49105628.2808958     
   49050681.2177583     
   48994484.4605155     
   48936968.9635269     
   48878065.0195239     
   48817702.2363417     
   48755809.5167207     
   48692315.0414881     
   48627146.2563876     
   48560229.8627940     
   48491491.8125490     
   48420857.3071350     
   48348250.8014196     
   48273596.0122017     
   48196815.9318060     
   48117832.8469826     
   48036568.3633828     
   47952943.4358969     
   47866878.4051546     
   47778293.0405056     
   47687106.5898071     
   47593237.8363668     
   47496605.1633970     
   47397126.6263535     
   47294720.0335433     
   47189303.0353943     
   47080793.2227967     
   46969108.2349292     
   46854165.8769951     
   46735884.2482976     
   46614181.8810902     
   46488977.8906402     
   46360192.1369442     
   46227745.3985325     
   46091559.5587953     
   45951557.8052550     
   45807664.8421983     
   45659807.1170649     
   45507913.0609706     
   45351913.3437167     
   45191741.1436080     
   45027332.4323608     
   44858626.2753426     
   44685565.1473272     
   44508095.2638966     
   44326166.9285363     
   44139734.8954042     
   43948758.7476490     
   43753203.2910491     
   43553038.9626225     
   43348242.2537145     
   43138796.1469120     
   42924690.5659493     
   42705922.8375629     
   42482498.1640083     
   42254430.1046799     
   42021741.0649533     
   41784462.7899968     
   41542636.8608685     
   41296315.1897041     
   41045560.5102086     
   40790446.8589582     
   40531060.0421866     
   40267498.0817454     
   39999871.6327642     
   39728304.3641576     
   39452933.2915072     
   39173909.0499545     
   38891396.0925389     
   38605572.7968983     
   38316631.4604167     
   38024778.1608017     
   37730232.4558400     
   37433226.8929803     
   37134006.2969020     
   36832826.8020722     
   36529954.5988510     
   36225664.3651670     
   35920237.3703205     
   35613959.2335122     
   35307117.4300462     
   35000000.0000000     
   50000000.0000000     
   49956397.8584120     
   49912753.7953456     
   49869010.6316703     
   49825110.1459314     
   49780992.9317630     
   49736598.5664687     
   49691865.7885460     
   49646732.6409458     
   49601136.5809625     
   49555014.5585106     
   49508303.0669152     
   49460938.1708751     
   49412855.5162037     
   49363990.3255661     
   49314277.3838644     
   49263651.0163203     
   49212045.0617451     
   49159392.8429857     
   49105627.1361190     
   49050680.1396221     
   48994483.4444739     
   48936968.0059297     
   48878064.1175450     
   48817701.3879073     
   48755808.7204425     
   48692314.2966025     
   48627145.5627010     
   48560229.2206365     
   48491491.2227329     
   48420856.7709199     
   48348250.3204820     
   48273595.5886087     
   48196815.5679923     
   48117832.5457300     
   48036568.1278015     
   47952943.2694081     
   47866878.3114742     
   47778293.0236280     
   47687106.6539891     
   47593237.9861111     
   47496605.4034357     
   47397126.9616294     
   47294720.4691910     
   47189303.5767195     
   47080793.8752539     
   46969109.0040973     
   46854166.7685504     
   46735885.2679847     
   46614183.0346899     
   46488979.1839342     
   46360193.5756764     
   46227746.9883664     
   46091561.3052678     
   45951559.7137251     
   45807666.9177914     
   45659809.3646116     
   45507915.4849402     
   45351915.9481449     
   45191743.9320170     
   45027335.4076736     
   44858629.4397889     
   44685568.5023413     
   44508098.8100057     
   44326170.6652397     
   44139738.8210407     
   43948762.8592519     
   43753207.5841883     
   43553043.4312299     
   43348246.8898924     
   43138800.9407208     
   42924695.5051733     
   42705927.9074485     
   42482503.3469741     
   42254435.3799930     
   42021746.4083698     
   41784468.1733637     
   41542642.2516848     
   41296320.5506447     
   41045565.7986146     
   40790452.0263059     
   40531065.0335552     
   40267502.8353195     
   39999876.0794207     
   39728308.4272155     
   39452936.8867528     
   39173912.0860965     
   38891398.4723109     
   38605574.4191003     
   38316632.2232838     
   38024777.9672039     
   37730231.2209550     
   37433224.5552376     
   37134002.8331540     
   36832822.2482783     
   36529949.0779078     
   36225658.1260805     
   35920230.8473394     
   35613953.1535113     
   35307113.1238190     
   35000000.0000000     
   50000000.0000000     
   49956396.3167260     
   49912751.4187986     
   49869007.8299442     
   49825107.1597257     
   49780989.9119462     
   49736595.6077470     
   49691862.9478449     
   49646729.9494744     
   49601134.0525578     
   49555012.1956102     
   49508300.8648153     
   49460936.1207224     
   49412853.6070513     
   49363988.5457481     
   49314275.7218800     
   49263649.4613736     
   49212043.6040478     
   49159391.4739000     
   49105625.8481982     
   49050678.9265862     
   48994482.3011499     
   48936966.9281726     
   48878063.1021530     
   48817700.4325379     
   48755807.8235337     
   48692313.4573021     
   48627144.7808037     
   48560228.4965293     
   48491490.5573479     
   48420856.1656941     
   48348249.7773224     
   48273595.1098628     
   48196815.1564216     
   48117832.2044867     
   48036567.8604079     
   47952943.0797368     
   47866878.2037301     
   47778293.0023297     
   47687106.7239515     
   47593238.1524267     
   47496605.6714558     
   47397127.3369438     
   47294720.9576068     
   47189304.1842377     
   47080794.6080445     
   46969109.8684718     
   46854167.7709319     
   46735886.4148751     
   46614184.3326338     
   46488980.6394794     
   46360195.1953306     
   46227748.7785492     
   46091563.2722587     
   45951561.8636059     
   45807669.2563838     
   45659811.8974084     
   45507918.2170306     
   45351918.8841325     
   45191747.0759313     
   45027338.7628722     
   44858633.0088524     
   44685572.2869580     
   44508102.8108464     
   44326174.8818207     
   44139743.2515749     
   43948767.5004849     
   43753212.4312198     
   43553048.4773165     
   43348252.1262302     
   43138806.3562047     
   42924701.0861301     
   42705933.6373391     
   42482509.2060616     
   42254441.3449724     
   42021752.4519549     
   41784474.2638284     
   41542648.3523570     
   41296326.6193544     
   41045571.7871015     
   40790457.8796007     
   40531070.6893575     
   40267508.2234120     
   39999881.1211798     
   39728313.0353092     
   39452940.9651546     
   39173915.5306000     
   38891401.1717977     
   38605576.2579052     
   38316633.0851137     
   38024777.7412086     
   37730229.8107111     
   37433221.8915886     
   37133998.8920650     
   36832817.0751655     
   36529942.8204401     
   36225651.0799710     
   35920223.5238700     
   35613946.4040748     
   35307108.4456612     
   35000000.0000000     
   50000000.0000000     
   49956394.6547536     
   49912748.8211444     
   49869004.7448182     
   49825103.8593820     
   49780986.5682361     
   49736592.3289260     
   49691859.7990993     
   49646726.9665729     
   49601131.2514014     
   49555009.5790726     
   49508298.4276234     
   49460933.8528809     
   49412851.4961928     
   49363986.5787002     
   49314273.8856704     
   49263647.7438411     
   49212041.9941826     
   49159389.9620024     
   49105624.4259201     
   49050677.5869008     
   48994481.0382800     
   48936965.7374988     
   48878061.9801155     
   48817699.3765396     
   48755806.8318504     
   48692312.5290010     
   48627143.9156722     
   48560227.6950126     
   48491489.8204962     
   48420855.4951168     
   48348249.1751495     
   48273594.5787112     
   48196814.6993659     
   48117831.8250339     
   48036567.5624741     
   47952942.8676254     
   47866878.0821120     
   47778292.9762233     
   47687106.7987030     
   47593238.3336903     
   47496605.9651723     
   47397127.7493192     
   47294721.4950882     
   47189304.8534884     
   47080795.4159159     
   46969110.8219738     
   46854168.8771995     
   46735887.6811327     
   46614185.7661552     
   46488982.2475447     
   46360196.9851776     
   46227750.7573215     
   46091565.4469477     
   45951564.2409878     
   45807671.8429503     
   45659814.6992912     
   45507921.2399185     
   45351922.1331814     
   45191750.5556659     
   45027342.4770790     
   44858636.9604626     
   44685576.4779206     
   44508107.2419895     
   44326179.5527003     
   44139748.1603095     
   43948772.6435749     
   43753217.8033485     
   43553054.0711310     
   43348257.9321002     
   43138812.3619542     
   42924707.2767388     
   42705939.9946100     
   42482515.7082484     
   42254447.9663633     
   42021759.1624072     
   41784481.0282499     
   41542655.1301329     
   41296333.3637200     
   41045578.4444677     
   40790464.3888466     
   40531076.9811170     
   40267514.2193986     
   39999886.7336188     
   39728318.1665795     
   39452945.5077895     
   39173919.3678571     
   38891404.1790885     
   38605578.3054809     
   38316634.0425351     
   38024777.4842910     
   37730228.2318283     
   37433218.9144341     
   37133994.4922191     
   36832811.3081212     
   36529935.8594222     
   36225643.2681021     
   35920215.4500917     
   35613939.0400875     
   35307103.4329318     
   35000000.0000000     
   50000000.0000000     
   49956392.8831980     
   49912746.0197997     
   49869001.3954185     
   49825100.2639347     
   49780982.9191690     
   49736588.7478804     
   49691856.3594587     
   49646723.7086361     
   49601128.1931174     
   49555006.7237471     
   49508295.7694189     
   49460931.3806737     
   49412849.1962152     
   49363984.4362980     
   49314271.8864280     
   49263645.8742623     
   49212040.2420667     
   49159388.3166183     
   49105622.8780475     
   49050676.1287927     
   48994479.6635795     
   48936964.4411334     
   48878060.7581856     
   48817698.2262085     
   48755805.7512429     
   48692311.5171118     
   48627142.9722857     
   48560226.8206337     
   48491489.0162910     
   48420854.7628624     
   48348248.5171903     
   48273593.9979226     
   48196814.1991226     
   48117831.4091812     
   48036567.2353030     
   47952942.6338494     
   47866877.9468451     
   47778292.9449586     
   47687106.8772915     
   47593238.5283191     
   47496606.2823422     
   47397128.1958210     
   47294722.0779767     
   47189305.5800554     
   47080796.2936604     
   46969111.8585690     
   46854170.0804575     
   46735889.0589650     
   46614187.3265301     
   46488983.9984394     
   46360198.9345268     
   46227752.9129600     
   46091567.8165478     
   45951566.8319908     
   45807674.6624909     
   45659817.7541158     
   45507924.5362950     
   45351925.6768013     
   45191754.3515371     
   45027346.5294094     
   44858641.2725329     
   44685581.0519460     
   44508112.0789685     
   44326184.6522499     
   44139753.5204848     
   43948778.2606716     
   43753223.6716856     
   43553060.1828116     
   43348264.2767459     
   43138818.9264112     
   42924714.0447495     
   42705946.9464461     
   42482522.8202998     
   42254455.2106765     
   42021766.5061689     
   41784488.4332100     
   41542662.5519647     
   41296340.7513185     
   41045585.7391928     
   40790471.5237269     
   40531083.8800448     
   40267520.7963640     
   39999892.8920610     
   39728323.7989709     
   39452950.4956193     
   39173923.5822520     
   38891407.4824000     
   38605580.5542870     
   38316635.0926565     
   38024777.1986077     
   37730226.4919043     
   37433215.6372069     
   37133989.6532894     
   36832804.9735008     
   36529928.2283339     
   36225634.7313227     
   35920206.6738249     
   35613931.1103368     
   35307098.1163376     
   35000000.0000000     
   50000000.0000000     
   49956391.0114146     
   49912743.0307414     
   49868997.8000844     
   49825096.3920858     
   49780978.9831904     
   49736584.8825296     
   49691852.6461784     
   49646720.1921813     
   49601124.8934447     
   49555003.6445775     
   49508292.9043517     
   49460928.7174702     
   49412846.7197299     
   49363982.1304239     
   49314269.7353386     
   49263643.8631602     
   49212038.3575952     
   49159386.5470474     
   49105621.2133164     
   49050674.5604630     
   48994478.1847401     
   48936963.0462814     
   48878059.4431002     
   48817696.9878288     
   48755804.5875542     
   48692310.4270443     
   48627141.9556253     
   48560225.8779462     
   48491488.1488562     
   48420853.9726193     
   48348247.8066899     
   48273593.3702878     
   48196813.6580136     
   48117830.9587656     
   48036566.8802279     
   47952942.3792175     
   47866877.7981901     
   47778292.9082232     
   47687106.9588045     
   47593238.7347721     
   47496606.6207655     
   47397128.6735584     
   47294722.7026583     
   47189306.3595680     
   47080797.2361157     
   46969112.9722688     
   46854171.3738553     
   46735890.5406241     
   46614189.0050774     
   46488985.8825147     
   46360201.0327271     
   46227755.2337783     
   46091570.3683055     
   45951569.6227643     
   45807677.7000309     
   45659821.0457585     
   45507928.0888659     
   45351929.4965096     
   45191758.4438611     
   45027350.8989704     
   44858645.9229589     
   44685585.9857229     
   44508117.2972769     
   44326190.1547881     
   44139759.3052738     
   43948784.3238424     
   43753230.0072441     
   43553066.7823799     
   43348271.1292749     
   43138826.0178616     
   42924721.3577345     
   42705954.4598321     
   42482530.5087573     
   42254463.0441755     
   42021774.4494121     
   41784496.4449985     
   41542670.5844932     
   41296348.7493993     
   41045593.6394180     
   40790479.2535835     
   40531091.3570176     
   40267527.9270780     
   39999899.5715513     
   39728329.9102055     
   39452955.9094620     
   39173928.1581305     
   38891411.0700443     
   38605582.9970395     
   38316636.2330268     
   38024776.8869513     
   37730224.5993597     
   37433212.0743043     
   37133984.3959535     
   36832798.0985143     
   36529919.9610319     
   36225625.5099116     
   35920197.2403895     
   35613922.6582185     
   35307092.5214329     
   35000000.0000000     
   50000000.0000000     
   49956389.0476888     
   49912739.8686897     
   49868993.9763887     
   49825092.2621943     
   49780974.7786422     
   49736580.7508243     
   49691848.6766084     
   49646716.4338395     
   49601121.3682300     
   49555000.3565969     
   49508289.8466368     
   49460925.8766812     
   49412844.0793687     
   49363979.6729631     
   49314267.4435773     
   49263641.7210381     
   49212036.3506369     
   49159384.6625609     
   49105619.4404334     
   49050672.8900846     
   48994476.6094281     
   48936961.5601257     
   48878058.0415783     
   48817695.6676713     
   48755803.3466185     
   48692309.2642042     
   48627140.8706730     
   48560224.8715088     
   48491487.2223252     
   48420853.1280901     
   48348247.0469112     
   48273592.6986187     
   48196813.0783860     
   48117830.4756523     
   48036566.4986137     
   47952942.1045721     
   47866877.6364440     
   47778292.8657434     
   47687107.0423699     
   47593238.9515499     
   47496606.9782853     
   47397129.1796855     
   47294723.3655647     
   47189307.1877014     
   47080798.2381662     
   46969114.1571309     
   46854172.7505882     
   46735892.1184068     
   46614190.7931598     
   46488987.8901636     
   46360203.2691672     
   46227757.7081269     
   46091573.0895010     
   45951572.5994879     
   45807680.9406206     
   45659824.5581151     
   45507931.8803503     
   45351933.5738306     
   45191762.8129528     
   45027355.5648587     
   44858650.8896163     
   44685591.2559090     
   44508122.8723655     
   44326196.0345773     
   44139765.4877790     
   43948790.8050681     
   43753236.7809328     
   43553073.8397347     
   43348278.4586521     
   43138833.6044267     
   42924729.1830790     
   42705962.5015417     
   42482538.7399274     
   42254471.4328641     
   42021782.9580247     
   41784505.0295980     
   41542679.1940305     
   41296357.3248659     
   41045602.1129263     
   40790487.5473953     
   40531099.3825540     
   40267535.5839711     
   39999906.7468296     
   39728336.4777541     
   39452961.7299623     
   39173933.0797685     
   38891414.9303939     
   38605585.6266726     
   38316637.4615928     
   38024776.5527028     
   37730222.5633824     
   37433208.2410220     
   37133978.7418148     
   36832790.7111298     
   36529911.0916456     
   36225615.6434592     
   35920187.1926016     
   35613913.7224400     
   35307086.6697325     
   35000000.0000000     
   50000000.0000000     
   49956386.9994469     
   49912736.5472775     
   49868989.9411781     
   49825087.8922741     
   49780970.3237565     
   49736576.3707372     
   49691844.4681846     
   49646712.4503475     
   49601117.6334202     
   49554996.8749202     
   49508286.6105487     
   49460922.8717539     
   49412841.2877789     
   49363977.0757995     
   49314265.0223050     
   49263639.4583758     
   49212034.2310319     
   49159382.6723977     
   49105617.5680729     
   49050671.1257995     
   48994474.9452816     
   48936959.9898247     
   48878056.5603193     
   48817694.2719916     
   48755802.0342603     
   48692308.0339925     
   48627139.7224105     
   48560223.8058850     
   48491486.2408406     
   48420852.2329907     
   48348246.2411349     
   48273591.9857487     
   48196812.4626118     
   48117829.9617352     
   48036566.0918560     
   47952941.8107900     
   47866877.4619407     
   47778292.8172840     
   47687107.1271567     
   47593239.1771964     
   47496607.3527894     
   47397129.7114017     
   47294724.0631741     
   47189308.0601785     
   47080799.2947434     
   46969115.4072603     
   46854174.2038984     
   46735893.7846561     
   46614192.6821848     
   46488990.0118222     
   46360205.6332764     
   46227760.3243942     
   46091575.9674488     
   45951575.7483711     
   45807684.3693358     
   45659828.2751014     
   45507935.8934809     
   45351937.8902944     
   45191767.4391251     
   45027360.5061603     
   44858656.1503592     
   44685596.8391293     
   44508128.7796393     
   44326202.2658208     
   44139772.0410283     
   43948797.6762381     
   43753243.9635510     
   43553081.3246463     
   43348286.2336924     
   43138841.6540559     
   42924737.4879722     
   42705971.0381282     
   42482547.4798701     
   42254480.3424737     
   42021791.9975965     
   41784514.1526681     
   41542688.3465437     
   41296366.4442571     
   41045611.1271225     
   40790496.3737564     
   40531107.9267917     
   40267543.7391084     
   39999914.3923025     
   39728343.4788066     
   39452967.9375582     
   39173938.3313359     
   38891419.0518441     
   38605588.4362976     
   38316638.7766538     
   38024776.1997809     
   37730220.3938711     
   37433204.1534906     
   37133972.7133296     
   36832782.8399914     
   36529901.6544974     
   36225605.1707958     
   35920176.5708718     
   35613904.3376791     
   35307080.5795531     
   35000000.0000000     
   50000000.0000000     
   49956384.8734207     
   49912733.0792033     
   49868985.7106278     
   49825083.3000024     
   49780965.6366525     
   49736571.7602565     
   49691840.0384211     
   49646708.2585399     
   49601113.7050554     
   49554993.2147382     
   49508283.2104148     
   49460919.7161658     
   49412838.3576184     
   49363974.3508108     
   49314262.4826638     
   49263637.0856255     
   49212032.0085870     
   49159380.5857618     
   49105615.6048740     
   49050669.2757162     
   48994473.1999084     
   48936958.3425109     
   48878055.0060005     
   48817692.8070290     
   48755800.6562922     
   48692306.7418036     
   48627138.5158182     
   48560222.6856423     
   48491485.2085535     
   48420851.2910502     
   48348245.3926587     
   48273591.2345325     
   48196811.8130880     
   48117829.4189361     
   48036565.6613826     
   47952941.4987823     
   47866877.2750508     
   47778292.7626498     
   47687107.2123755     
   47593239.4102985     
   47496607.7422105     
   47397130.2659532     
   47294724.7920120     
   47189308.9727693     
   47080800.4008274     
   46969116.7168103     
   46854175.7270758     
   46735895.5317618     
   46614194.6636051     
   46488992.2379701     
   46360208.1145252     
   46227763.0710067     
   46091578.9894981     
   45951579.0556539     
   45807687.9712777     
   45659832.1806527     
   45507940.1110034     
   45351942.4274369     
   45191772.3026881     
   45027365.7019482     
   44858661.6830188     
   44685602.7119736     
   44508134.9944554     
   44326208.8226589     
   44139778.9379710     
   43948804.9091464     
   43753251.5257837     
   43553089.2067495     
   43348294.4230539     
   43138850.1345183     
   42924746.2393988     
   42705980.0359137     
   42482556.6943882     
   42254489.7384509     
   42021801.5334054     
   41784523.7795299     
   41542698.0076367     
   41296376.0737285     
   41045620.6490122     
   40790505.7008532     
   40531116.9594615     
   40267552.3641627     
   39999922.4820144     
   39728350.8902399     
   39452974.5124472     
   39173943.8968597     
   38891423.4227716     
   38605591.4191580     
   38316640.1768134     
   38024775.8325895     
   37730218.1013785     
   37433199.8286142     
   37133966.3337409     
   36832774.5143533     
   36529891.6840452     
   36225594.1299678     
   35920165.4133726     
   35613894.5351822     
   35307074.2666613     
   35000000.0000000     
   50000000.0000000     
   49956382.6757770     
   49912729.4763692     
   49868981.3003045     
   49825078.5027370     
   49780960.7353397     
   49736566.9373828     
   49691835.4049043     
   49646703.8753428     
   49601109.5992617     
   49554989.3913101     
   49508279.6606093     
   49460916.4234187     
   49412835.3015494     
   49363971.5098631     
   49314259.8357724     
   49263634.6132077     
   49212029.6930727     
   49159378.4118183     
   49105613.5594374     
   49050667.3479069     
   48994471.3808836     
   48936956.6252879     
   48878053.3852760     
   48817691.2790041     
   48755799.2185141     
   48692305.3930249     
   48627137.2558749     
   48560221.5153507     
   48491484.1296229     
   48420850.3060102     
   48348244.5047976     
   48273590.4478462     
   48196811.1322365     
   48117828.8492058     
   48036565.2086527     
   47952941.1694949     
   47866877.0761829     
   47778292.7016854     
   47687107.2972792     
   47593239.6494878     
   47496608.1445271     
   47397130.8406329     
   47294725.5486521     
   47189309.9212935     
   47080801.5514472     
   46969118.0799833     
   46854177.3134590     
   46735897.3521614     
   46614196.7289203     
   46488994.5591312     
   46360210.7024261     
   46227765.9364300     
   46091582.1430333     
   45951582.5076071     
   45807691.7315729     
   45659836.2587239     
   45507944.5156759     
   45351947.1667986     
   45191777.3839478     
   45027371.1312817     
   44858667.4654011     
   44685608.8509948     
   44508141.4921200     
   44326215.6791665     
   44139786.1514744     
   43948812.4754866     
   43753259.4381961     
   43553097.4555390     
   43348302.9952314     
   43138859.0133952     
   42924755.4041294     
   42705989.4609802     
   42482566.3490154     
   42254499.5859451     
   42021811.5304032     
   41784533.8751512     
   41542708.1425344     
   41296386.1790332     
   41045630.6451807     
   40790515.4964412     
   40531126.4498627     
   40267561.4303863     
   39999930.9896167     
   39728358.6885842     
   39452981.4345492     
   39173949.7601837     
   38891428.0314911     
   38605594.5685825     
   38316641.6609285     
   38024775.4559636     
   37730215.6970532     
   37433195.2840104     
   37133959.6270199     
   36832765.7640278     
   36529881.2148485     
   36225582.5582557     
   35920153.7562505     
   35613884.3432997     
   35307067.7447811     
   35000000.0000000     
   50000000.0000000     
   49956380.4122221     
   49912725.7500021     
   49868976.7252334     
   49825073.5175405     
   49780955.6377250     
   49736561.9201287     
   49691830.5852883     
   49646699.3177668     
   49601105.3322439     
   49554985.4199561     
   49508275.9755453     
   49460913.0070321     
   49412832.1322327     
   49363968.5648056     
   49314257.0927205     
   49263632.0515065     
   49212027.2942187     
   49159376.1596900     
   49105611.4403220     
   49050665.3504048     
   48994469.4957465     
   48936954.8452289     
   48878051.7047740     
   48817689.6941178     
   48755797.7267118     
   48692303.9930348     
   48627135.9475560     
   48560220.2995831     
   48491483.0082157     
   48420849.2816248     
   48348243.5808833     
   48273589.6285868     
   48196810.4225046     
   48117828.2545237     
   48036564.7351580     
   47952940.8239096     
   47866876.8657837     
   47778292.6342764     
   47687107.3811639     
   47593239.8934407     
   47496608.5577646     
   47397131.4327822     
   47294726.3297175     
   47189310.9016204     
   47080802.7416822     
   46969119.4910316     
   46854178.9564362     
   46735899.2383412     
   46614198.8696767     
   46488996.9658748     
   46360213.3865342     
   46227768.9091690     
   46091585.4154743     
   45951586.0905324     
   45807695.6353739     
   45659840.4932894     
   45507949.0902695     
   45351952.0899246     
   45191782.6632054     
   45027376.7732054     
   44858673.4752859     
   44685615.2327065     
   44508148.2478865     
   44326222.8093498     
   44139793.6543202     
   43948820.3468482     
   43753267.6712292     
   43553106.0403627     
   43348311.9185496     
   43138868.2580725     
   42924764.9487130     
   42705999.2791587     
   42482576.4090060     
   42254509.8497956     
   42021821.9532017     
   41784544.4041301     
   41542718.7160640     
   41296396.7255024     
   41045641.0817719     
   40790525.7278216     
   40531136.3668364     
   40267570.9085823     
   39999939.8883355     
   39728366.8499879     
   39452988.6834675     
   39173955.9049259     
   38891432.8662092     
   38605597.8779350     
   38316643.2280556     
   38024775.0751119     
   37730213.1925822     
   37433190.5379540     
   37133952.6178135     
   36832756.6193458     
   36529870.2815571     
   36225570.4922323     
   35920141.6338655     
   35613873.7879622     
   35307061.0259988     
   35000000.0000000     
   50000000.0000000     
   49956378.0880874     
   49912721.9107630     
   49868971.9999682     
   49825068.3612121     
   49780950.3616246     
   49736556.7265211     
   49691825.5972923     
   49646694.6029015     
   49601100.9202786     
   49554981.3160505     
   49508272.1696680     
   49460909.4805361     
   49412828.8623208     
   49363965.5274643     
   49314254.2645640     
   49263629.4108646     
   49212024.8217092     
   49159373.8384537     
   49105609.2560422     
   49050663.2912010     
   48994467.5519988     
   48936953.0093738     
   48878049.9710958     
   48817688.0585495     
   48755796.1866554     
   48692302.5472022     
   48627134.5958331     
   48560219.0429137     
   48491481.8485055     
   48420848.2216599     
   48348242.6242643     
   48273588.7796724     
   48196809.6863645     
   48117827.6368983     
   48036564.2424229     
   47952940.4630434     
   47866876.6443388     
   47778292.5603499     
   47687107.4633694     
   47593240.1408795     
   47496608.9799962     
   47397132.0397913     
   47294727.1318811     
   47189311.9096698     
   47080803.9666630     
   46969120.9442589     
   46854180.6494462     
   46735901.1828369     
   46614201.0774688     
   46488999.4488164     
   46360216.1564480     
   46227771.9777689     
   46091588.7942772     
   45951589.7907629     
   45807699.6678591     
   45659844.8683433     
   45507953.8175671     
   45351957.1783638     
   45191788.1207569     
   45027382.6067475     
   44858679.6904253     
   44685621.8335815     
   44508155.2369525     
   44326230.1871435     
   44139801.4192010     
   43948828.4947124     
   43753276.1951944     
   43553114.9304164     
   43348321.1611566     
   43138877.8357335     
   42924774.8394676     
   42706009.4560208     
   42482586.8393233     
   42254520.4945200     
   42021832.7660590     
   41784555.3306798     
   41542729.6926385     
   41296407.6780263     
   41045651.9244661     
   40790536.3618163     
   40531146.6787380     
   40267580.7690737     
   39999949.1509380     
   39728375.3501800     
   39452996.2384481     
   39173962.3144336     
   38891437.9149749     
   38605601.3405613     
   38316644.8773941     
   38024774.6955588     
   37730210.6001318     
   37433185.6093212     
   37133945.3313992     
   36832747.1111315     
   36529858.9189221     
   36225557.9678513     
   35920129.0790465     
   35613862.8931047     
   35307054.1210921     
   35000000.0000000     
   50000000.0000000     
   49956375.7084006     
   49912717.9688440     
   49868967.1386615     
   49825063.0503234     
   49780944.9247802     
   49736551.3746064     
   49691820.4586986     
   49646689.7479104     
   49601096.3797067     
   49554977.0950131     
   49508268.2574464     
   49460905.8574633     
   49412825.5044511     
   49363962.4096355     
   49314251.3623190     
   49263626.7015785     
   49212022.2851794     
   49159371.4571359     
   49105607.0150636     
   49050661.1782414     
   48994465.5571016     
   48936951.1247278     
   48878048.1908133     
   48817686.3784555     
   48755794.6040982     
   48692301.0608855     
   48627133.2056730     
   48560217.7499181     
   48491480.6546721     
   48420847.1298933     
   48348241.6383058     
   48273587.9040425     
   48196808.9263141     
   48117826.9983676     
   48036563.7320045     
   47952940.0879501     
   47866876.4123730     
   47778292.4798747     
   47687107.5432800     
   47593240.3905735     
   47496609.4093430     
   47397132.6591005     
   47294727.9518669     
   47189312.9414136     
   47080805.2215721     
   46969122.4340209     
   46854182.3859793     
   46735903.1782350     
   46614203.3439404     
   46489001.9986180     
   46360219.0018104     
   46227775.1308155     
   46091592.2669350     
   45951593.5946641     
   45807703.8142332     
   45659849.3678992     
   45507958.6803638     
   45351962.4136689     
   45191793.7368920     
   45027388.6109196     
   44858686.0885420     
   44685628.6300498     
   44508162.4344580     
   44326237.7864080     
   44139809.4187167     
   43948836.8904477     
   43753284.9802690     
   43553124.0947385     
   43348330.6910174     
   43138887.7133513     
   42924785.0424720     
   42706019.9568680     
   42482597.6046293     
   42254531.4843011     
   42021843.9328657     
   41784566.6186129     
   41542741.0362386     
   41296419.0010337     
   41045663.1384579     
   40790547.3647436     
   40531157.3534101     
   40267590.9816729     
   39999958.7496980     
   39728384.1644319     
   39453004.0783366     
   39173968.9717359     
   38891443.1656280     
   38605604.9497333     
   38316646.6082278     
   38024774.3230839     
   37730207.9322885     
   37433180.5175363     
   37133937.7936450     
   36832737.2706889     
   36529847.1618266     
   36225545.0205642     
   35920116.1233546     
   35613851.6810473     
   35307047.0398023     
   35000000.0000000     
   50000000.0000000     
   49956373.2779457     
   49912713.9340565     
   49868962.1551347     
   49825057.6012596     
   49780939.3448785     
   49736545.8824576     
   49691815.1873529     
   49646684.7700258     
   49601091.7269265     
   49554972.7723010     
   49508264.2533651     
   49460902.1513415     
   49412822.0712380     
   49363959.2230795     
   49314248.3969555     
   49263623.9338928     
   49212019.6942099     
   49159369.0247091     
   49105604.7257999     
   49050659.0194238     
   48994463.5184730     
   48936949.1982586     
   48878046.3704671     
   48817684.6599674     
   48755792.9847753     
   48692299.5394311     
   48627131.7820373     
   48560216.4251720     
   48491479.4309020     
   48420846.0101140     
   48348240.6263893     
   48273587.0046574     
   48196808.1448768     
   48117826.3409990     
   48036563.2054935     
   47952939.6997200     
   47866876.1704512     
   47778292.3928629     
   47687107.6203253     
   47593240.6413389     
   47496609.8439760     
   47397133.2882010     
   47294728.7864512     
   47189313.9928767     
   47080806.5016454     
   46969123.9547264     
   46854184.1595786     
   46735905.2171733     
   46614205.6607851     
   46489004.6059900     
   46360221.9123093     
   46227778.3569366     
   46091595.8209780     
   45951597.4886335     
   45807708.0597274     
   45659853.9759907     
   45507963.6614670     
   45351967.7773956     
   45191799.4918937     
   45027394.7647148     
   44858692.6473282     
   44685635.5984970     
   44508169.8154830     
   44326245.5809266     
   44139817.6253714     
   43948845.5053068     
   43753293.9964919     
   43553133.5022043     
   43348340.4759081     
   43138897.8576816     
   42924795.5235580     
   42706030.7467229     
   42482608.6692738     
   42254542.7829756     
   42021855.4171308     
   41784578.2313257     
   41542752.7103951     
   41296430.6584725     
   41045674.6884338     
   40790558.7023923     
   40531168.3581531     
   40267601.5156493     
   39999968.6563594     
   39728393.2675162     
   39453012.1815332     
   39173975.8594943     
   38891448.6057449     
   38605608.6985909     
   38316648.4198629     
   38024773.9636588     
   37730205.2019986     
   37433175.2825209     
   37133930.0309761     
   36832727.1297985     
   36529835.0453356     
   36225531.6854593     
   35920102.7973491     
   35613840.1728384     
   35307039.7910650     
   35000000.0000000     
   50000000.0000000     
   49956370.8013160     
   49912709.8159114     
   49868957.0629476     
   49825052.0302628     
   49780933.6395744     
   49736540.2681833     
   49691809.8011640     
   49646679.6865447     
   49601086.9783867     
   49554968.3634006     
   49508260.1719154     
   49460898.3756845     
   49412818.5752656     
   49363955.9795126     
   49314245.3793912     
   49263621.1179948     
   49212017.0583217     
   49159366.5500870     
   49105602.3966093     
   49050656.8225949     
   48994461.4434850     
   48936947.2368940     
   48878044.5165649     
   48817682.9091906     
   48755791.3344021     
   48692297.9881725     
   48627130.3298808     
   48560215.0732509     
   48491478.1813868     
   48420844.8661224     
   48348239.5919125     
   48273586.0844990     
   48196807.3446017     
   48117825.6668900     
   48036562.6645142     
   47952939.2994809     
   47866875.9191787     
   47778292.2993698     
   47687107.6939813     
   47593240.8920406     
   47496610.2821163     
   47397133.9246356     
   47294729.6324631     
   47189315.0601376     
   47080807.8021732     
   46969125.5008385     
   46854185.9638407     
   46735907.2923425     
   46614208.0197475     
   46489007.2616913     
   46360224.8776786     
   46227781.6448021     
   46091599.4439750     
   45951601.4591017     
   45807712.3896001     
   45659858.6766715     
   45507968.7436961     
   45351973.2511028     
   45191805.3660376     
   45027401.0471080     
   44858699.3444445     
   44685642.7152624     
   44508177.3550454     
   44326253.5444032     
   44139826.0115708     
   43948854.3104218     
   43753303.2137586     
   43553143.1215211     
   43348350.4834093     
   43138908.2352557     
   42924806.2483019     
   42706041.7903199     
   42482619.9972837     
   42254554.3540211     
   42021867.1819681     
   41784590.1317830     
   41542764.6781712     
   41296442.6137895     
   41045686.5385492     
   40790570.3399960     
   40531179.6596965     
   40267612.3396958     
   39999978.8420993     
   39728402.6336658     
   39453020.5259456     
   39173982.9599501     
   38891454.2225815     
   38605612.5800798     
   38316650.3115635     
   38024773.6233825     
   37730202.4225077     
   37433169.9246426     
   37133922.0703455     
   36832716.7207251     
   36529822.6047616     
   36225517.9974176     
   35920089.1308555     
   35613828.3885695     
   35307032.3832085     
   35000000.0000000     
   50000000.0000000     
   49956368.2829596     
   49912705.6236934     
   49868951.8754668     
   49825046.3534792     
   49780927.8265169     
   49736534.5499398     
   49691804.3181065     
   49646674.5148240     
   49601082.1505783     
   49554963.8838184     
   49508256.0275860     
   49460894.5439835     
   49412815.0290786     
   49363952.6906003     
   49314242.3204846     
   49263618.2640084     
   49212014.3869718     
   49159364.0421209     
   49105600.0357904     
   49050654.5955469     
   48994459.3394614     
   48936945.2475203     
   48878042.6355795     
   48817681.1322026     
   48755789.6586736     
   48692296.4124295     
   48627128.8541512     
   48560213.6987296     
   48491476.9103235     
   48420843.7017298     
   48348238.5382898     
   48273585.1465703     
   48196806.5280638     
   48117824.9781683     
   48036562.1107254     
   47952938.8883986     
   47866875.6592023     
   47778292.1994951     
   47687107.7637704     
   47593241.1415929     
   47496610.7220363     
   47397134.5660003     
   47294730.4867861     
   47189316.1393300     
   47080809.1185008     
   46969127.0668755     
   46854187.7924171     
   46735909.3964870     
   46614210.4126245     
   46489009.9565307     
   46360227.8876990     
   46227784.9831255     
   46091603.1235331     
   45951605.4925331     
   45807716.7891369     
   45659863.4540155     
   45507973.9098826     
   45351978.8163520     
   45191811.3395919     
   45027407.4370540     
   44858706.1575187     
   44685649.9566381     
   44508185.0280995     
   44326261.6504596     
   44139834.5496182     
   43948863.2768015     
   43753312.6018171     
   43553152.9212227     
   43348360.6809006     
   43138918.8123738     
   42924817.1820164     
   42706053.0520958     
   42482631.5523524     
   42254566.1605450     
   42021879.1900824     
   41784602.2825018     
   41542776.9021451     
   41296454.8299099     
   41045698.6524055     
   40790582.2422071     
   40531191.2241686     
   40267623.4218953     
   39999989.2774887     
   39728412.2365292     
   39453029.0889407     
   39173990.2548707     
   38891460.0030136     
   38605616.5868882     
   38316652.2824850     
   38024773.3084143     
   37730199.6072980     
   37433164.4646659     
   37133913.9392089     
   36832706.0762342     
   36529809.8757459     
   36225503.9912850     
   35920075.1532335     
   35613816.3476675     
   35307024.8241308     
   35000000.0000000     
   50000000.0000000     
   49956365.7272221     
   49912701.3665307     
   49868946.6059336     
   49825040.5870074     
   49780921.9233774     
   49736528.7459428     
   49691798.7562223     
   49646669.2722770     
   49601077.2600276     
   49554959.3490720     
   49508251.8348532     
   49460890.6696975     
   49412811.4451738     
   49363949.3679488     
   49314239.2310282     
   49263615.3819881     
   49212011.6895476     
   49159361.5095941     
   49105597.6515786     
   49050652.3460140     
   48994457.2136746     
   48936943.2369794     
   48878040.7339467     
   48817679.3350514     
   48755787.9632627     
   48692294.8175069     
   48627127.3597883     
   48560212.3061814     
   48491475.6219142     
   48420842.5207579     
   48348237.4689515     
   48273584.1938956     
   48196805.6978641     
   48117824.2769922     
   48036561.5458204     
   47952938.4676770     
   47866875.3912105     
   47778292.0933832     
   47687107.8292633     
   47593241.3889599     
   47496611.1620605     
   47397135.2099449     
   47294731.3463585     
   47189317.2266433     
   47080810.4460305     
   46969128.6474123     
   46854189.6390150     
   46735911.5224059     
   46614212.8312660     
   46489012.6813679     
   46360230.9321993     
   46227788.3606643     
   46091606.8472995     
   45951609.5754263     
   45807721.2436516     
   45659868.2921172     
   45507979.1428701     
   45351984.4547076     
   45191817.3928163     
   45027413.9134877     
   44858713.0641446     
   44685657.2988669     
   44508192.8095334     
   44326269.8726330     
   44139843.2117124     
   43948872.3753274     
   43753322.1302641     
   43553162.8696648     
   43348371.0355543     
   43138929.5550981     
   42924828.2897432     
   42706064.4961808     
   42482643.2978298     
   42254578.1652718     
   42021891.4037561     
   41784614.6455361     
   41542789.3443911     
   41296467.2692171     
   41045710.9930263     
   40790594.3730694     
   40531203.0170657     
   40267634.7296853     
   39999999.9324534     
   39728422.0491264     
   39453037.8472932     
   39173997.7254930     
   38891465.9334747     
   38605620.7113797     
   38316654.3316037     
   38024773.0249042     
   37730196.7700246     
   37433158.9237029     
   37133905.6655031     
   36832695.2296158     
   36529796.8943506     
   36225489.7020560     
   35920060.8936445     
   35613804.0691703     
   35307017.1214591     
   35000000.0000000     
   50000000.0000000     
   49956363.1383844     
   49912697.0534613     
   49868941.2675320     
   49825034.7469496     
   49780915.9478800     
   49736522.8744823     
   49691793.1336241     
   49646663.9763692     
   49601072.3232879     
   49554954.7746799     
   49508247.6081710     
   49460886.7662433     
   49412807.8359911     
   49363946.0230969     
   49314236.1217410     
   49263612.4819124     
   49212008.9753608     
   49159358.9612182     
   49105595.2521421     
   49050650.0816696     
   48994455.0733430     
   48936941.2120666     
   48878038.8180639     
   48817677.5237544     
   48755786.2538190     
   48692293.2086940     
   48627125.8517233     
   48560210.9001780     
   48491474.3203653     
   48420841.3270395     
   48348236.3873444     
   48273583.2295209     
   48196804.8566305     
   48117823.5655512     
   48036560.9715278     
   47952938.0385596     
   47866875.1159344     
   47778291.9812246     
   47687107.8900788     
   47593241.6331571     
   47496611.6005666     
   47397135.8541739     
   47294732.2081752     
   47189318.3183245     
   47080811.7802217     
   46969130.2370813     
   46854191.4973992     
   46735913.6629543     
   46614215.2675761     
   46489015.4271146     
   46360234.0010571     
   46227791.7662210     
   46091610.6029617     
   45951613.6943147     
   45807725.7384864     
   45659873.1750923     
   45507984.4255150     
   45351990.1477364     
   45191823.5059623     
   45027420.4553228     
   44858720.0418812     
   44685664.7181411     
   44508200.6741676     
   44326278.1843744     
   44139851.9699443     
   43948881.5767504     
   43753331.7685403     
   43553172.9350202     
   43348381.5143306     
   43138940.4292460     
   42924839.5362452     
   42706076.0863901     
   42482655.1967120     
   42254590.3305321     
   42021903.7848357     
   41784627.1824615     
   41542801.9664630     
   41296479.8935319     
   41045723.5228342     
   40790606.6959916     
   40531215.0032215     
   40267646.2298223     
   40000010.7762329     
   39728432.0438016     
   39453046.7771336     
   39174005.3524643     
   38891471.9998917     
   38605624.9455234     
   38316656.4576443     
   38024772.7789202     
   37730193.9244494     
   37433153.3231632     
   37133897.2776261     
   36832684.2147144     
   36529783.6971627     
   36225475.1650684     
   35920046.3813225     
   35613791.5719921     
   35307009.2826992     
   35000000.0000000     
   50000000.0000000     
   49956360.5207002     
   49912692.6934975     
   49868935.8734559     
   49825028.8494634     
   49780909.9178334     
   49736516.9539368     
   49691787.4684978     
   49646658.6446137     
   49601067.3569316     
   49554950.1761515     
   49508243.3619604     
   49460882.8469852     
   49412804.2139035     
   49363942.6675074     
   49314233.0032609     
   49263609.5736775     
   49212006.2536429     
   49159356.4056278     
   49105592.8455780     
   49050647.8101226     
   48994452.9256283     
   48936939.1795287     
   48878036.8942878     
   48817675.7042963     
   48755784.5359675     
   48692291.5912632     
   48627124.3348780     
   48560209.4852885     
   48491473.0098876     
   48420840.1244177     
   48348235.2969314     
   48273582.2565140     
   48196804.0070174     
   48117822.8460658     
   48036560.3896121     
   47952937.6023292     
   47866874.8341486     
   47778291.8632562     
   47687107.9458855     
   47593241.8732518     
   47496612.0359866     
   47397136.4964480     
   47294733.0692882     
   47189319.4106784     
   47080813.1165930     
   46969131.8305737     
   46854193.3613920     
   46735915.8110445     
   46614217.7135145     
   46489018.1847354     
   46360237.0841998     
   46227795.1886443     
   46091614.3782485     
   45951617.8357676     
   45807730.2590127     
   45659878.0870779     
   45507989.7406862     
   45351995.8770081     
   45191829.6592728     
   45027427.0414519     
   44858727.0682518     
   44685672.1906019     
   44508208.5967537     
   44326286.5590457     
   44139860.7962949     
   43948890.8516877     
   43753341.4859270     
   43553183.0852737     
   43348392.0839710     
   43138951.4003843     
   42924850.8859990     
   42706087.7862148     
   42482667.2116310     
   42254602.6182504     
   42021916.2947180     
   41784639.8543594     
   41542814.7293755     
   41296492.6640923     
   41045736.2036267     
   40790619.1737191     
   40531227.1467748     
   40267657.8883455     
   40000021.7773384     
   39728442.1921760     
   39453055.8538940     
   39174013.1157820     
   38891478.1876175     
   38605629.2808213     
   38316658.6590043     
   38024772.5763738     
   37730191.0843737     
   37433147.6847030     
   37133888.8044188     
   36832673.0659638     
   36529770.3214056     
   36225460.4162074     
   35920031.6458472     
   35613778.8751834     
   35307001.3153785     
   35000000.0000000     
   50000000.0000000     
   49956357.8784316     
   49912688.2956897     
   49868930.4369774     
   49825022.9108156     
   49780903.8511643     
   49736511.0027895     
   49691781.7791066     
   49646653.2945673     
   49601062.3775408     
   49554945.5689769     
   49508239.1105974     
   49460878.9252240     
   49412800.5912073     
   49363939.3125577     
   49314229.8861366     
   49263606.6670903     
   49212003.5335383     
   49159353.8513756     
   49105590.4399076     
   49050645.5389143     
   48994450.7776323     
   48936937.1460614     
   48878034.9689326     
   48817673.8826281     
   48755782.8153079     
   48692289.9704694     
   48627122.8141644     
   48560208.0660795     
   48491471.6946958     
   48420838.9167458     
   48348234.2011920     
   48273581.2779644     
   48196803.1517063     
   48117822.1207888     
   48036559.8018736     
   47952937.1603093     
   47866874.5466717     
   47778291.7397624     
   47687107.9964022     
   47593242.1083643     
   47496612.4668076     
   47397137.1345849     
   47294733.9268083     
   47189320.5000697     
   47080814.4507228     
   46969133.4226408     
   46854195.2248759     
   46735917.9596472     
   46614220.1610975     
   46489020.9452493     
   46360240.1716061     
   46227798.6168301     
   46091618.1609312     
   45951621.9863908     
   45807734.7906317     
   45659883.0122332     
   45507995.0712656     
   45352001.6240953     
   45191835.8329819     
   45027433.6507457     
   44858734.1207435     
   44685679.6923373     
   44508216.5519724     
   44326294.9699183     
   44139869.6626323     
   43948900.1706195     
   43753351.2515422     
   43553193.2882183     
   43348402.7109940     
   43138962.4338223     
   42924862.3031877     
   42706099.5588136     
   42482679.3048454     
   42254614.9899342     
   42021928.8943375     
   41784652.6218019     
   41542827.5935863     
   41296505.5415324     
   41045748.9965526     
   40790631.7683068     
   40531239.4111375     
   40267669.6705391     
   40000032.9035096     
   39728452.4650981     
   39453065.0522511     
   39174020.9947302     
   38891484.4813616     
   38605633.7082337     
   38316660.9336746     
   38024772.4229414     
   37730188.2635666     
   37433142.0301732     
   37133880.2751467     
   36832661.8184248     
   36529756.8050579     
   36225445.4921177     
   35920016.7174225     
   35613765.9981908     
   35306993.2271874     
   35000000.0000000     
   50000000.0000000     
   49956355.2158844     
   49912683.8691905     
   49868924.9715163     
   49825016.9474372     
   49780897.7659510     
   49736505.0396435     
   49691776.0837928     
   49646647.9438251     
   49601057.4016987     
   49554940.9686146     
   49508234.8684023     
   49460875.0141856     
   49412796.9801112     
   49363935.9695307     
   49314226.7808196     
   49263603.7718611     
   49212000.8240991     
   49159351.3069276     
   49105588.0430731     
   49050643.2755143     
   48994448.6363948     
   48936935.1183069     
   48878033.0482683     
   48817672.0646655     
   48755781.0974132     
   48692288.3515489     
   48627121.2944837     
   48560206.6471141     
   48491470.3790085     
   48420837.7078877     
   48348233.1036220     
   48273580.2969839     
   48196802.2934062     
   48117821.3920053     
   48036559.2101502     
   47952936.7138640     
   47866874.2543668     
   47778291.6110758     
   47687108.0413993     
   47593242.3376693     
   47496612.8915732     
   47397137.7664607     
   47294734.7779056     
   47189321.5829238     
   47080815.7782505     
   46969135.0080951     
   46854197.0817936     
   46735920.1017926     
   46614222.6023992     
   46489023.6997304     
   46360243.2533066     
   46227802.0397222     
   46091621.9388242     
   45951626.1328278     
   45807739.3187752     
   45659887.9347399     
   45508000.4001485     
   45352007.3705734     
   45191842.0073148     
   45027440.2620527     
   44858741.1768062     
   44685687.1993820     
   44508224.5144323     
   44326303.3901709     
   44139878.5407096     
   43948909.5038862     
   43753361.0343369     
   43553203.5114505     
   43348413.3616896     
   43138973.4946062     
   42924873.7516935     
   42706111.3670044     
   42482691.4382300     
   42254627.4066622     
   42021941.5441528     
   41784665.4448364     
   41542840.5189788     
   41296518.4858618     
   41045761.8620873     
   40790644.4410906     
   40531251.7589619     
   40267681.5408942     
   40000044.1216711     
   39728462.8325931     
   39453074.3460702     
   39174028.9678150     
   38891490.8651173     
   38605638.2181000     
   38316663.2791584     
   38024772.3239830     
   37730185.4756915     
   37433136.3815633     
   37133871.7194800     
   36832650.5078244     
   36529743.1869761     
   36225430.4304235     
   35920001.6271634     
   35613752.9611218     
   35306985.0261226     
   35000000.0000000     
   50000000.0000000     
   49956352.5374452     
   49912679.4233201     
   49868919.4907104     
   49825010.9759794     
   49780891.6804584     
   49736499.0832378     
   49691770.4009815     
   49646642.6100150     
   49601052.4459791     
   49554936.3904803     
   49508230.6496260     
   49460871.1270090     
   49412793.3927253     
   49363932.6496051     
   49314223.6976556     
   49263600.8975967     
   49211998.1342782     
   49159348.7806577     
   49105585.6629329     
   49050641.0273180     
   48994446.5088901     
   48936933.1028520     
   48878031.1385187     
   48817670.2562873     
   48755779.3878284     
   48692286.7397188     
   48627119.7807260     
   48560205.2329521     
   48491469.0670480     
   48420836.5017174     
   48348232.0077335     
   48273579.3167064     
   48196801.4348537     
   48117820.6620330     
   48036558.6163166     
   47952936.2643995     
   47866873.9581430     
   47778291.4775782     
   47687108.0806992     
   47593242.5603960     
   47496613.3088842     
   47397138.3900105     
   47294735.6198113     
   47189322.6557276     
   47080817.0948786     
   46969136.5818116     
   46854198.9261500     
   46735922.2305719     
   46614225.0295528     
   46489026.4393096     
   46360246.3193858     
   46227805.4463140     
   46091625.6997862     
   45951630.2617601     
   45807743.8289065     
   45659892.8388031     
   45508005.7102445     
   45352013.0980214     
   45191848.1624880     
   45027446.8541992     
   44858748.2138522     
   44685694.6877161     
   44508232.4586685     
   44326311.7928880     
   44139887.4021625     
   43948918.8216856     
   43753370.8030917     
   43553213.7223662     
   43348424.0021140     
   43138984.5475131     
   42924885.1950916     
   42706123.1732562     
   42482703.5732669     
   42254639.8290737     
   42021954.2041336     
   41784678.2829707     
   41542853.4648443     
   41296531.4564452     
   41045774.7600090     
   40790657.1526591     
   40531264.1521073     
   40267693.4630709     
   40000055.3978875     
   39728473.2638116     
   39453083.7083443     
   39174037.0126972     
   38891497.3220880     
   38605642.8000584     
   38316665.6923849     
   38024772.2844565     
   37730182.7342284     
   37433130.7609432     
   37133863.1674722     
   36832639.1705940     
   36529729.5070211     
   36225415.2699552     
   35919986.4073920     
   35613739.7850191     
   35306976.7206355     
   35000000.0000000     
   50000000.0000000     
   49956349.8476193     
   49912674.9676349     
   49868914.0084892     
   49825005.0133704     
   49780885.6131719     
   49736493.1524624     
   49691764.7491815     
   49646637.3107915     
   49601047.5269357     
   49554931.8499338     
   49508226.4684383     
   49460867.2767342     
   49412789.8410504     
   49363929.3638448     
   49314220.6468757     
   49263598.0537931     
   49211995.4729239     
   49159346.2808431     
   49105583.3072572     
   49050638.8016423     
   48994444.4020245     
   48936931.1062254     
   48878029.2458601     
   48817668.4633340     
   48755777.6920697     
   48692285.1401762     
   48627118.2777697     
   48560203.8281493     
   48491467.7630398     
   48420835.3021195     
   48348230.9170558     
   48273578.3402890     
   48196800.5788140     
   48117819.9332229     
   48036558.0222861     
   47952935.8133643     
   47866873.6589557     
   47778291.3397013     
   47687108.1141777     
   47593242.7758301     
   47496613.7174002     
   47397139.0032303     
   47294736.4498188     
   47189323.7150317     
   47080818.3963728     
   46969138.1387291     
   46854200.7520135     
   46735924.3391384     
   46614227.4347521     
   46489029.1551759     
   46360249.3599822     
   46227808.8256491     
   46091629.4317217     
   45951634.3599088     
   45807748.3065209     
   45659897.7086519     
   45508010.9844774     
   45352018.7880215     
   45191854.2787093     
   45027453.4059888     
   44858755.2092557     
   44685702.1332640     
   44508240.3591415     
   44326320.1510582     
   44139896.2185074     
   43948928.0940703     
   43753380.5264139     
   43553223.8881568     
   43348434.5980855     
   43138995.5570455     
   42924896.5966423     
   42706134.9396817     
   42482715.6710361     
   42254652.2173575     
   42021966.8337486     
   41784691.0951574     
   41542866.3898642     
   41296544.4119814     
   41045787.6493742     
   40790669.8628255     
   40531276.5516070     
   40267705.3998584     
   40000066.6973176     
   39728483.7269758     
   39453093.1111342     
   39174045.1061233     
   38891503.8346095     
   38605647.4429612     
   38316668.1696213     
   38024772.3088293     
   37730180.0523920     
   37433125.1904013     
   37133854.6495337     
   36832627.8439063     
   36529715.8061847     
   36225400.0509827     
   35919971.0919474     
   35613726.4921506     
   35306968.3197914     
   35000000.0000000     
   50000000.0000000     
   49956347.1510719     
   49912670.5119997     
   49868908.5391499     
   49824999.0768739     
   49780879.5828322     
   49736487.2663725     
   49691759.1469865     
   49646632.0638281     
   49601042.6610905     
   49554927.3622657     
   49508222.3389131     
   49460863.4762883     
   49412786.3369654     
   49363926.1231892     
   49314217.6385876     
   49263595.2498271     
   49211992.8487728     
   49159343.8156582     
   49105580.9837242     
   49050636.6057225     
   48994442.3226334     
   48936929.1348960     
   48878027.3764188     
   48817666.6916069     
   48755776.0156234     
   48692283.5580974     
   48627116.7904808     
   48560202.4372571     
   48491466.4712128     
   48420834.1129886     
   48348229.8351348     
   48273577.3709112     
   48196799.7280806     
   48117819.2079603     
   48036557.4300104     
   47952935.3622500     
   47866873.3578077     
   47778291.1979279     
   47687108.1417649     
   47593242.9833141     
   47496614.1158402     
   47397139.6041776     
   47294737.2652846     
   47189324.7574510     
   47080819.6785644     
   46969139.6738518     
   46854202.5535171     
   46735926.4207091     
   46614229.8102524     
   46489031.8385771     
   46360252.3652905     
   46227812.1668229     
   46091633.1225812     
   45951638.4140355     
   45807752.7371472     
   45659902.5285400     
   45508016.2057863     
   45352024.4221604     
   45191860.3361782     
   45027459.8962027     
   44858762.1403527     
   44685709.5118945     
   44508248.1902361     
   44326328.4375725     
   44139904.9611392     
   43948937.2909451     
   43753390.1727340     
   43553233.9758054     
   43348445.1151797     
   43139006.4874253     
   42924907.9192857     
   42706146.6280288     
   42482727.6922063     
   42254664.5312412     
   42021979.3919520     
   41784703.8397802     
   41542879.2520924     
   41296557.3104828     
   41045800.4884936     
   40790682.5305980     
   40531288.9176341     
   40267717.3131356     
   40000077.9841676     
   39728494.1893266     
   39453102.5255060     
   39174053.2238549     
   38891510.3840705     
   38605652.1347880     
   38316670.7063802     
   38024772.4009850     
   37730177.4430452     
   37433119.6919753     
   37133846.1964022     
   36832616.5657069     
   36529702.1267155     
   36225384.8154542     
   35919955.7165101     
   35613713.1063198     
   35306959.8334416     
   35000000.0000000     
   50000000.0000000     
   49956344.4526722     
   49912666.0666650     
   49868903.0974367     
   49824993.1841479     
   49780873.6084679     
   49736481.4442016     
   49691753.6130748     
   49646626.8868088     
   49601037.8649212     
   49554922.9426830     
   49508218.2750145     
   49460859.7384731     
   49412782.8922155     
   49363922.9384419     
   49314214.6827663     
   49263592.4949494     
   49211990.2704440     
   49159341.3931699     
   49105578.6999153     
   49050634.4467089     
   48994440.2774788     
   48936927.1952700     
   48878025.5362702     
   48817664.9468664     
   48755774.3639450     
   48692281.9986371     
   48627115.3237129     
   48560201.0648231     
   48491465.1957995     
   48420832.9382300     
   48348228.7655337     
   48273576.4117764     
   48196798.8854764     
   48117818.4886648     
   48036556.8414809     
   47952934.9125926     
   47866873.0557498     
   47778291.0527929     
   47687108.1634461     
   47593243.1822492     
   47496614.5029841     
   47397140.1909730     
   47294738.0636301     
   47189325.7796661     
   47080820.9373509     
   46969141.1822505     
   46854204.3248599     
   46735928.4685661     
   46614232.1483725     
   46489034.4808221     
   46360255.3255627     
   46227815.4589840     
   46091636.7603635     
   45951642.4109431     
   45807757.1063484     
   45659907.2827472     
   45508021.3571259     
   45352029.9820293     
   45191866.3150859     
   45027466.3035996     
   44858768.9844407     
   44685716.7994196     
   44508255.9262607     
   44326336.6252235     
   44139913.6013297     
   43948946.3820649     
   43753399.7103027     
   43553243.9520833     
   43348455.5187248     
   43139017.3025894     
   42924919.1256348     
   42706158.1996736     
   42482739.5970262     
   42254676.7299810     
   42021991.8371720     
   41784716.4746382     
   41542892.0089388     
   41296570.1092552     
   41045813.2349078     
   40790695.1141522     
   40531301.2094676     
   40267729.1638309     
   40000089.2216448     
   39728504.6170674     
   39453111.9214673     
   39174061.3405952     
   38891516.9508312     
   38605656.8625555     
   38316673.2973234     
   38024772.5641254     
   37730174.9186077     
   37433114.2875800     
   37133837.8391045     
   36832605.3747408     
   36529688.5122411     
   36225369.6072399     
   35919940.3189450     
   35613699.6532035     
   35306951.2724149     
   35000000.0000000     
   50000000.0000000     
   49956341.7575439     
   49912661.6423521     
   49868897.6986245     
   49824987.3533040     
   49780867.7094284     
   49736475.7053725     
   49691748.1662063     
   49646621.7974185     
   49601033.1548473     
   49554918.6062941     
   49508214.2905817     
   49460856.0759499     
   49412779.5183992     
   49363919.8202599     
   49314211.7892444     
   49263589.7982761     
   49211987.7464318     
   49159339.0213320     
   49105576.4633109     
   49050632.3316630     
   48994438.2732461     
   48936925.2936896     
   48878023.7314362     
   48817663.2348308     
   48755772.7424581     
   48692280.4669281     
   48627113.8823063     
   48560199.7153897     
   48491463.9410352     
   48420831.7817594     
   48348227.7118329     
   48273575.4661115     
   48196798.0538537     
   48117817.7777911     
   48036556.2587290     
   47952934.4659724     
   47866872.7538820     
   47778290.9048837     
   47687108.1792630     
   47593243.3720958     
   47496614.8776740     
   47397140.7618013     
   47294738.8423425     
   47189326.7784250     
   47080822.1686979     
   46969142.6590638     
   46854206.0603086     
   46735930.4760578     
   46614234.4414954     
   46489037.0732815     
   46360258.2311093     
   46227818.6913351     
   46091640.3331160     
   45951646.3374777     
   45807761.3997226     
   45659911.9555797     
   45508026.4214680     
   45352035.4492245     
   45191872.1956161     
   45027472.6069158     
   44858775.7187782     
   44685723.9715945     
   44508263.5414464     
   44326344.6867038     
   44139922.1102261     
   43948955.3370321     
   43753409.1071888     
   43553253.7835463     
   43348465.7737978     
   43139027.9661839     
   42924930.1779694     
   42706169.6156135     
   42482751.3453161     
   42254688.7723512     
   42022004.1272983     
   41784728.9569322     
   41542904.6171515     
   41296582.7648770     
   41045825.8453632     
   40790707.5708016     
   40531313.3854584     
   40267740.9118817     
   40000100.3719089     
   39728514.9753088     
   39453121.2679021     
   39174069.4299149     
   38891523.5141380     
   38605661.6122245     
   38316675.9361622     
   38024772.8006690     
   37730172.4909583     
   37433108.9989262     
   37133829.6089124     
   36832594.3105697     
   36529675.0078840     
   36225354.4723780     
   35919924.9396646     
   35613686.1607231     
   35306942.6487328     
   35000000.0000000     
   50000000.0000000     
   49956339.0711207     
   49912657.2503451     
   49868892.3586068     
   49824981.6029663     
   49780861.9054133     
   49736470.0695070     
   49691742.8252196     
   49646616.8133317     
   49601028.5472151     
   49554914.3680923     
   49508210.3993133     
   49460852.5012258     
   49412776.2269556     
   49363916.7791419     
   49314208.9677028     
   49263587.1687810     
   49211985.2850996     
   49159336.7079797     
   49105574.2812860     
   49050630.2675540     
   48994436.3165417     
   48936923.4364302     
   48878021.9678846     
   48817661.5611749     
   48755771.1565538     
   48692278.9680802     
   48627112.4710881     
   48560198.3934946     
   48491462.7111587     
   48420830.6475035     
   48348226.6776308     
   48273574.5371675     
   48196797.2360953     
   48117817.0778296     
   48036555.6838271     
   47952934.0240158     
   47866872.4533542     
   47778290.7548419     
   47687108.1893148     
   47593243.5523749     
   47496615.2388152     
   47397141.3149127     
   47294739.5989764     
   47189327.7505443     
   47080823.3686399     
   46969144.0995001     
   46854207.7541988     
   46735932.4366005     
   46614236.6820708     
   46489039.6073896     
   46360261.0723009     
   46227821.8531348     
   46091643.8289372     
   45951650.1805289     
   45807765.6029046     
   45659916.5313713     
   45508031.3818015     
   45352040.8053486     
   45191877.9579452     
   45027478.7848658     
   44858782.3205854     
   44685731.0041170     
   44508271.0099461     
   44326352.5946050     
   44139930.4588490     
   43948964.1252951     
   43753418.3312760     
   43553263.4365319     
   43348475.8452207     
   43139038.4415598     
   42924941.0382308     
   42706180.8364600     
   42482762.8964592     
   42254700.6166346     
   42022016.2196703     
   41784741.2432506     
   41542917.0328002     
   41296595.2331794     
   41045838.2757875     
   40790719.8569690     
   40531325.4029948     
   40267752.5161935     
   40000111.3960243     
   39728525.2280115     
   39453130.5325047     
   39174077.4641751     
   38891530.0520379     
   38605666.3686033     
   38316678.6155537     
   38024773.1121428     
   37730170.1713320     
   37433103.8474330     
   37133821.5372887     
   36832583.4135798     
   36529661.6603688     
   36225339.4593226     
   35919909.6220157     
   35613672.6594569     
   35306933.9758573     
   35000000.0000000     
   50000000.0000000     
   49956336.3992111     
   49912652.9025949     
   49868887.0939891     
   49824975.9523313     
   49780856.2165007     
   49736464.5564320     
   49691737.6090254     
   49646611.9521989     
   49601024.0582820     
   49554910.2429390     
   49508206.6147503     
   49460849.0266376     
   49412773.0291502     
   49363913.8254170     
   49314206.2276605     
   49263584.6152869     
   49211982.8946731     
   49159334.4608245     
   49105572.1611060     
   49050628.2612559     
   48994434.4138903     
   48936921.6296986     
   48878020.2515266     
   48817659.9315294     
   48755769.6115894     
   48692277.5071801     
   48627111.0948713     
   48560197.1036707     
   48491461.5104121     
   48420829.5393997     
   48348225.6665435     
   48273573.6282203     
   48196796.4351144     
   48117816.3913071     
   48036555.1188891     
   47952933.5883954     
   47866872.1553672     
   47778290.6033641     
   47687108.1937592     
   47593243.7226693     
   47496615.5853773     
   47397141.8486245     
   47294740.3311548     
   47189328.6929102     
   47080824.5332828     
   46969145.4988384     
   46854209.4009372     
   46735934.3436801     
   46614238.8626155     
   46489042.0746458     
   46360263.8395699     
   46227824.9336987     
   46091647.2359767     
   45951653.9270321     
   45807769.7015668     
   45659920.9944848     
   45508036.2211341     
   45352046.0320105     
   45191883.5822430     
   45027484.8161422     
   44858788.7670436     
   44685737.8726276     
   44508278.3058344     
   44326360.3214172     
   44139938.6180917     
   43948972.7161463     
   43753427.3502608     
   43553272.8771562     
   43348485.6975562     
   43139048.6917683     
   42924951.6680157     
   42706191.8224314     
   42482774.2093940     
   42254712.2206128     
   42022028.0710657     
   41784753.2895551     
   41542929.2112597     
   41296607.4692268     
   41045850.4812664     
   40790731.9281577     
   40531337.2184681     
   40267763.9345990     
   40000122.2539108     
   39728535.3379287     
   39453139.6817117     
   39174085.4144502     
   38891536.5412887     
   38605671.1152484     
   38316681.3269930     
   38024773.4990707     
   37730167.9702093     
   37433098.8541314     
   37133813.6558222     
   36832572.7249768     
   36529648.5181177     
   36225324.6191896     
   35919894.4126901     
   35613659.1831032     
   35306925.2689769     
   35000000.0000000     
   50000000.0000000     
   49956333.7480730     
   49912648.6118344     
   49868881.9221871     
   49824970.4212252     
   49780850.6631710     
   49736459.1861833     
   49691732.5365982     
   49646607.2316325     
   49601019.7041977     
   49554906.2455456     
   49508202.9502591     
   49460845.6643365     
   49412769.9360619     
   49363910.9692325     
   49314203.5784648     
   49263582.1464577     
   49211980.5832331     
   49159332.2874483     
   49105570.1099223     
   49050626.3195436     
   48994432.5717317     
   48936919.8796310     
   48878018.5882159     
   48817658.3514791     
   48755768.1128883     
   48692276.0892908     
   48627109.7584550     
   48560195.8504460     
   48491460.3430407     
   48420828.4613967     
   48348224.6822058     
   48273572.7425705     
   48196795.6538559     
   48117815.7207879     
   48036554.5660718     
   47952933.1608314     
   47866871.8611739     
   47778290.4512027     
   47687108.1928138     
   47593243.8826247     
   47496615.9163961     
   47397142.3613219     
   47294741.0365711     
   47189329.6024807     
   47080825.6588043     
   46969146.8524306     
   46854210.9950019     
   46735936.1908533     
   46614240.9757160     
   46489044.4666159     
   46360266.5234115     
   46227827.9224012     
   46091650.5424377     
   45951657.5639691     
   45807773.6814205     
   45659925.3293127     
   45508040.9224930     
   45352051.1108272     
   45191889.0486736     
   45027490.6794166     
   44858795.0352961     
   44685744.5527090     
   44508285.4031072     
   44326367.8395278     
   44139946.5587189     
   43948981.0787206     
   43753436.1316502     
   43553282.0713109     
   43348495.2951051     
   43139058.6795564     
   42924962.0285715     
   42706202.5333476     
   42482785.2426064     
   42254723.5415568     
   42022039.6376895     
   41784765.0511678     
   41542941.1071933     
   41296619.4272963     
   41045862.4160196     
   40790743.7389235     
   40531348.7872386     
   40267775.1238170     
   40000132.9042946     
   39728545.2665472     
   39453148.6806339     
   39174093.2504471     
   38891542.9572678     
   38605675.8343626     
   38316684.0607009     
   38024773.9608555     
   37730165.8971995     
   37433094.0395589     
   37133805.9961523     
   36832562.2867659     
   36529635.6313298     
   36225310.0059962     
   35919879.3621609     
   35613645.7690032     
   35306916.5453432     
   35000000.0000000     
   50000000.0000000     
   49956331.1245024     
   49912644.3917093     
   49868876.8615303     
   49824965.0301592     
   49780845.2663280     
   49736453.9790058     
   49691727.6269652     
   49646602.6691891     
   49601015.5009863     
   49554902.3904537     
   49508199.4190130     
   49460842.4262715     
   49412766.9585678     
   49363908.2205419     
   49314201.0292809     
   49263579.7707898     
   49211978.3587092     
   49159330.1952982     
   49105568.1347678     
   49050624.4490897     
   48994430.7964191     
   48936918.1922909     
   48878016.9837472     
   48817656.8265624     
   48755766.6657387     
   48692274.7194508     
   48627108.4666244     
   48560194.6383434     
   48491459.2132936     
   48420827.4174546     
   48348223.7282713     
   48273571.8835447     
   48196794.8952965     
   48117815.0688737     
   48036554.0275747     
   47952932.7430922     
   47866871.5720798     
   47778290.2991674     
   47687108.1867570     
   47593244.0319513     
   47496616.2309744     
   47397142.8514598     
   47294741.7129901     
   47189330.4762868     
   47080826.7414559     
   46969148.1557026     
   46854212.5309452     
   46735937.9717501     
   46614243.0140292     
   46489046.7749340     
   46360269.1143859     
   46227830.8086771     
   46091653.7365781     
   45951661.0783700     
   45807777.5282177     
   45659929.5202792     
   45508045.4689260     
   45352056.0234240     
   45191894.3373957     
   45027496.3533402     
   44858801.1024481     
   44685751.0198870     
   44508292.2756811     
   44326375.1212209     
   44139954.2513652     
   43948989.1819937     
   43753444.6427601     
   43553290.9846609     
   43348504.6019018     
   43139068.3673629     
   42924972.0807908     
   42706212.9286230     
   42482795.9541222     
   42254734.5362180     
   42022050.8751624     
   41784776.4827574     
   41542952.6745375     
   41296631.0608594     
   41045874.0333774     
   40790755.2428458     
   40531360.0636008     
   40267786.0394106     
   40000143.3046590     
   39728554.9740296     
   39453157.4929864     
   39174100.9404244     
   38891549.2738792     
   38605680.5066885     
   38316686.8055078     
   38024774.4956547     
   37730163.9609154     
   37433089.4236435     
   37133798.5898786     
   36832552.1417161     
   36529623.0520422     
   36225295.6768906     
   35919864.5251445     
   35613632.4587360     
   35306907.8246710     
   35000000.0000000     
   50000000.0000000     
   49956328.5359389     
   49912640.2569268     
   49868871.9313703     
   49824959.8003821     
   49780840.0473143     
   49736448.9553498     
   49691722.8991919     
   49646598.2823512     
   49601011.4645247     
   49554898.6920152     
   49508196.0339737     
   49460839.3241726     
   49412764.1073290     
   49363905.5890920     
   49314198.5890814     
   49263577.4966037     
   49211976.2288727     
   49159328.1916811     
   49105566.2425531     
   49050622.6564610     
   48994429.0942160     
   48936916.5736672     
   48878015.4438545     
   48817655.3622702     
   48755765.2753933     
   48692273.4026744     
   48627107.2241497     
   48560193.4718805     
   48491458.1254235     
   48420826.4115454     
   48348222.8084126     
   48273571.0544958     
   48196794.1624455     
   48117814.4382051     
   48036553.5056422     
   47952932.3369956     
   47866871.2894448     
   47778290.1481262     
   47687108.1759292     
   47593244.1704244     
   47496616.5282833     
   47397143.3175640     
   47294742.3582495     
   47189331.3114338     
   47080827.7775649     
   46969149.4041559     
   46854214.0033945     
   46735939.6800740     
   46614244.9702849     
   46489048.9913043     
   46360271.6031195     
   46227833.5820230     
   46091656.8067123     
   45951664.4573146     
   45807781.2277518     
   45659933.5518406     
   45508049.8435029     
   45352060.7514362     
   45191899.4285642     
   45027501.8165442     
   44858806.9455673     
   44685757.2496298     
   44508298.8973937     
   44326382.1386774     
   44139961.6665349     
   43948996.9947811     
   43753452.8507129     
   43553299.5826418     
   43348513.5817124     
   43139077.7173146     
   42924981.7852068     
   42706222.9672615     
   42482806.3015000     
   42254745.1608196     
   42022061.7385111     
   41784787.5383271     
   41542963.8664858     
   41296642.3225623     
   41045885.2857577     
   40790766.3924996     
   40531371.0007499     
   40267796.6357465     
   40000153.4111946     
   39728564.4191536     
   39453166.0810179     
   39174108.4511095     
   38891555.4634572     
   38605685.1114007     
   38316689.5487338     
   38024775.1002521     
   37730162.1688412     
   37433085.0255779     
   37133791.4684576     
   36832542.3333049     
   36529610.8341677     
   36225281.6923643     
   35919849.9610845     
   35613619.2987979     
   35306899.1296188     
   35000000.0000000     
   50000000.0000000     
   49956325.9905924     
   49912636.2234242     
   49868867.1521927     
   49824954.7539267     
   49780835.0279219     
   49736444.1358632     
   49691718.3723654     
   49646594.0885055     
   49601007.6105209     
   49554895.1643703     
   49508192.8078707     
   49460836.3695328     
   49412761.3927750     
   49363903.0844106     
   49314196.2666363     
   49263575.3320354     
   49211974.2013298     
   49159326.2837580     
   49105564.4400615     
   49050620.9481158     
   48994427.4712940     
   48936915.0296726     
   48878013.9742101     
   48817653.9640446     
   48755763.9470686     
   48692272.1439509     
   48627106.0357873     
   48560192.3555704     
   48491457.0836869     
   48420825.4476530     
   48348221.9263222     
   48273570.2588031     
   48196793.4583458     
   48117813.8314620     
   48036553.0025632     
   47952931.9444096     
   47866871.0146837     
   47778289.9990064     
   47687108.1607342     
   47593244.2978864     
   47496616.8075640     
   47397143.7582330     
   47294742.9702617     
   47189332.1051030     
   47080828.7635352     
   46969150.5933693     
   46854215.4070545     
   46735941.3096051     
   46614246.8372869     
   46489051.1075023     
   46360273.9803068     
   46227836.2319991     
   46091659.7412125     
   45951667.6879341     
   45807784.7658599     
   45659937.4084876     
   45508054.0293167     
   45352065.2765099     
   45191904.3023307     
   45027507.0476407     
   44858812.5416848     
   44685763.2173491     
   44508305.2420035     
   44326388.8639744     
   44139968.7746012     
   43949004.4857366     
   43753460.7224367     
   43553307.8304579     
   43348522.1980315     
   43139086.6912226     
   42924991.1019892     
   42706232.6078499     
   42482816.2418246     
   42254755.3710485     
   42022072.1821574     
   41784798.1712016     
   41542974.6354737     
   41296653.1642077     
   41045896.1246434     
   40790777.1394280     
   40531381.5507477     
   40267806.8659538     
   40000163.1787494     
   39728573.5592529     
   39453174.4054399     
   39174115.7476150     
   38891561.4966689     
   38605689.6259938     
   38316692.2760631     
   38024775.7699218     
   37730160.5271911     
   37433080.8636815     
   37133784.6630835     
   36832532.9056426     
   36529599.0335062     
   36225268.1164385     
   35919835.7346542     
   35613606.3413810     
   35306890.4863736     
   35000000.0000000     
   50000000.0000000     
   49956323.4976000     
   49912632.3085636     
   49868862.5457316     
   49824949.9136500     
   49780830.2303962     
   49736439.5413790     
   49691714.0655733     
   49646590.1049191     
   49601003.9544891     
   49554891.8214251     
   49508189.7531816     
   49460833.5735906     
   49412758.8250890     
   49363900.7157931     
   49314194.0705016     
   49263573.2850278     
   49211972.2835146     
   49159324.4785393     
   49105562.7339457     
   49050619.3304000     
   48994425.9337301     
   48936913.5661418     
   48878012.5804230     
   48817652.6372788     
   48755762.6859441     
   48692270.9482441     
   48627104.9062784     
   48560191.2939214     
   48491456.0923449     
   48420824.5297744     
   48348221.0857131     
   48273569.4998739     
   48196792.7860742     
   48117813.2513649     
   48036552.5206728     
   47952931.5672535     
   47866870.7492673     
   47778289.8527960     
   47687108.1416405     
   47593244.4142480     
   47496617.0681288     
   47397144.1721390     
   47294743.5470149     
   47189332.8545535     
   47080829.6958496     
   46969151.7190007     
   46854216.7367085     
   46735942.8542009     
   46614248.6079151     
   46489053.1153772     
   46360276.2367124     
   46227838.7482308     
   46091662.5285110     
   45951670.7574124     
   45807788.1284237     
   45659941.0747461     
   45508058.0094855     
   45352069.5803034     
   45191908.9388450     
   45027512.0252238     
   44858817.8677954     
   44685768.8983999     
   44508311.2831900     
   44326395.2690848     
   44139975.5458056     
   43949011.6233520     
   43753468.2246632     
   43553315.6930804     
   43348530.4140794     
   43139095.2505792     
   42924999.9909394     
   42706241.8085539     
   42482825.7317002     
   42254765.1220468     
   42022082.1599090     
   41784808.3340153     
   41542984.9331643     
   41296663.5367363     
   41045906.5005600     
   40790787.4341149     
   40531391.6644889     
   40267816.6818828     
   40000172.5607790     
   39728582.3501570     
   39453182.4253544     
   39174122.7933526     
   38891567.3424149     
   38605694.0261675     
   38316694.9714153     
   38024776.4982866     
   37730159.0407599     
   37433076.9552506     
   37133778.2045517     
   36832523.9033745     
   36529587.7077252     
   36225255.0168170     
   35919821.9162662     
   35613593.6452688     
   35306881.9253693     
   35000000.0000000     
   50000000.0000000     
   49956321.0672180     
   49912628.5313521     
   49868858.1350820     
   49824945.3032638     
   49780825.6774333     
   49736435.1928974     
   49691709.9978798     
   49646586.3487132     
   49601000.5117247     
   49554888.6768270     
   49508186.8821095     
   49460830.9473107     
   49412756.4141910     
   49363898.4922900     
   49314192.0090092     
   49263571.3633224     
   49211970.4826828     
   49159322.7828787     
   49105561.1307235     
   49050617.8095446     
   48994424.4875051     
   48936912.1888298     
   48878011.2680384     
   48817651.3873158     
   48755761.4971629     
   48692269.8204930     
   48627103.8403502     
   48560190.2914371     
   48491455.1556629     
   48420823.6619189     
   48348220.2903190     
   48273568.7811430     
   48196792.1487426     
   48117812.7006752     
   48036552.0623531     
   47952931.2074991     
   47866870.4947238     
   47778289.7105446     
   47687108.1191823     
   47593244.5194892     
   47496617.3093628     
   47397144.5580296     
   47294744.0865751     
   47189333.5571235     
   47080830.5710711     
   46969152.7767891     
   46854217.9872205     
   46735944.3077988     
   46614250.2751274     
   46489055.0068532     
   46360278.3631725     
   46227841.1204110     
   46091665.1571012     
   45951673.6529886     
   45807791.3013718     
   45659944.5351795     
   45508061.7671529     
   45352073.6444885     
   45191913.3182557     
   45027516.7278708     
   44858822.9008586     
   44685774.2680819     
   44508316.9945545     
   44326401.3258778     
   44139981.9502575     
   43949018.3759558     
   43753475.3239269     
   43553323.1352454     
   43348538.1928000     
   43139103.3565547     
   42925008.4114873     
   42706250.5271124     
   42482834.7272451     
   42254774.3684050     
   42022091.6249502     
   41784817.9787010     
   41542994.7104334     
   41296673.3902100     
   41045916.3630538     
   40790797.2259579     
   40531401.2916684     
   40267826.0340648     
   40000181.5092974     
   39728590.7461308     
   39453190.0981810     
   39174129.5499474     
   38891572.9677267     
   38605698.2857094     
   38316697.6168121     
   38024777.2771706     
   37730157.7127648     
   37433073.3163967     
   37133772.1231050     
   36832515.3715579     
   36529576.9163077     
   36225242.4649931     
   35919808.5825755     
   35613581.2768612     
   35306873.4821805     
   35000000.0000000     
   50000000.0000000     
   49956318.7110651     
   49912624.9126949     
   49868853.9448063     
   49824940.9473540     
   49780821.3921702     
   49736431.1115635     
   49691706.1882973     
   49646582.8368346     
   49600997.2972759     
   49554885.7439400     
   49508184.2065617     
   49460828.5013652     
   49412754.1697226     
   49363896.4226927     
   49314190.0902559     
   49263569.5744499     
   49211968.8059044     
   49159321.2034686     
   49105559.6367735     
   49050616.3916628     
   48994423.1385007     
   48936910.9034103     
   48878010.0425360     
   48817650.2194478     
   48755760.3858298     
   48692268.7656109     
   48627102.8427151     
   48560189.3526168     
   48491454.2779113     
   48420822.8481099     
   48348219.5438950     
   48273568.1060747     
   48196791.5494983     
   48117812.1821963     
   48036551.6300343     
   47952930.8671713     
   47866870.2526399     
   47778289.5733650     
   47687108.0939613     
   47593244.6136607     
   47496617.5307254     
   47397144.9147294     
   47294744.5870874     
   47189334.2102321     
   47080831.3858448     
   46969153.7625554     
   46854219.1535365     
   46735945.6644176     
   46614251.8319613     
   46489056.7739318     
   46360280.3505968     
   46227843.3383013     
   46091667.6155404     
   45951676.3619579     
   45807794.2706812     
   45659947.7743899     
   45508065.2854908     
   45352077.4507523     
   45191917.4207125     
   45027521.1341431     
   44858827.6177997     
   44685779.3016397     
   44508322.3496201     
   44326407.0061191     
   44139987.9579343     
   43949024.7117135     
   43753481.9865644     
   43553330.1214526     
   43348545.4968589     
   43139110.9699949     
   42925016.3226873     
   42706258.7208334     
   42482843.1840849     
   42254783.0641542     
   42022100.5298325     
   41784827.0564785     
   41543003.9173564     
   41296682.6737939     
   41045925.6606709     
   40790806.4632421     
   40531410.3807486     
   40267834.8716715     
   40000189.9748272     
   39728598.6998145     
   39453197.3795849     
   39174135.9771502     
   38891578.3376643     
   38605702.3763744     
   38316700.1922390     
   38024778.0964448     
   37730156.5446776     
   37433069.9618714     
   37133766.4482620     
   36832507.3555136     
   36529566.7204642     
   36225230.5363013     
   35919795.8169508     
   35613569.3113485     
   35306865.1986499     
   35000000.0000000     
   50000000.0000000     
   49956316.4424305     
   49912621.4756811     
   49868850.0010286     
   49824936.8713866     
   49780817.3981667     
   49736427.3186384     
   49691702.6557551     
   49646579.5860237     
   49600994.3259148     
   49554883.0358175     
   49508181.7381255     
   49460826.2461137     
   49412752.1010300     
   49363894.5155210     
   49314188.3220926     
   49263567.9257226     
   49211967.2600575     
   49159319.7468347     
   49105558.2583316     
   49050615.0827468     
   48994421.8924978     
   48936909.7154745     
   48878008.9093294     
   48817649.1389159     
   48755759.3570124     
   48692267.7884857     
   48627101.9180715     
   48560188.4819558     
   48491453.4633659     
   48420822.0923849     
   48348218.8502184     
   48273567.4781624     
   48196790.9915255     
   48117811.6987748     
   48036551.2261954     
   47952930.5483499     
   47866870.0246619     
   47778289.4424341     
   47687108.0666475     
   47593244.6968861     
   47496617.7317516     
   47397145.2411415     
   47294745.0467779     
   47189334.8113812     
   47080832.1368995     
   46969154.6722055     
   46854220.2306871     
   46735946.9181593     
   46614253.2715357     
   46489058.4086934     
   46360282.1899705     
   46227845.3917346     
   46091669.8924508     
   45951678.8716742     
   45807797.0223790     
   45659950.7770199     
   45508068.5477003     
   45352080.9807984     
   45191921.2263668     
   45027525.2225874     
   44858831.9955110     
   44685783.9742638     
   44508327.3218325     
   44326412.2814709     
   44139993.5386815     
   43949030.5986263     
   43753488.1787129     
   43553336.6159641     
   43348552.2886414     
   43139118.0514186     
   42925023.6832150     
   42706266.3465894     
   42482851.0573480     
   42254791.1627598     
   42022108.8264665     
   41784835.5178443     
   41543012.5031948     
   41296691.3357403     
   41045934.3409364     
   40790815.0931142     
   40531418.8789273     
   40267843.1424755     
   40000197.9063506     
   39728606.1621631     
   39453204.2234028     
   39174142.0327493     
   38891583.4152108     
   38605706.2677613     
   38316702.6755036     
   38024778.9438665     
   37730155.5360479     
   37433066.9048784     
   37133761.2086248     
   36832499.9006491     
   36529557.1830074     
   36225219.3099030     
   35919783.7098811     
   35613557.8340405     
   35306857.1243269     
   35000000.0000000     
   50000000.0000000     
   49956314.2766726     
   49912618.2459014     
   49868846.3315052     
   49824933.1016991     
   49780813.7193803     
   49736423.8354637     
   49691699.4190626     
   49646576.6127804     
   49600991.6121053     
   49554880.5651751     
   49508179.4880449     
   49460824.1915829     
   49412750.2171473     
   49363892.7790089     
   49314186.7121135     
   49263566.4242254     
   49211965.8518214     
   49159318.4193312     
   49105557.0014873     
   49050613.8886653     
   48994420.7551750     
   48936908.6305298     
   48878007.8737653     
   48817648.1509095     
   48755758.4157401     
   48692266.8939798     
   48627101.0711037     
   48560187.6839457     
   48491452.7163087     
   48420821.3987956     
   48348218.2130894     
   48273566.9009302     
   48196790.4780453     
   48117811.2533011     
   48036550.8533652     
   47952930.2531701     
   47866869.8124969     
   47778289.3189949     
   47687108.0379807     
   47593244.7693624     
   47496617.9120535     
   47397145.5362493     
   47294745.4639550     
   47189335.3581570     
   47080832.8210498     
   46969155.5017310     
   46854221.2137888     
   46735948.0632113     
   46614254.5870534     
   46489059.9032997     
   46360283.8723565     
   46227847.2706166     
   46091671.9765219     
   45951681.1695516     
   45807799.5425446     
   45659953.5277549     
   45508071.5370140     
   45352084.2163488     
   45191924.7153738     
   45027528.9717377     
   44858836.0108529     
   44685788.2610920     
   44508331.8845611     
   44326417.1234930     
   44139998.6622130     
   43949036.0045319     
   43753493.8663105     
   43553342.5828034     
   43348558.5302511     
   43139124.5610151     
   42925030.4513649     
   42706273.3608143     
   42482858.3016606     
   42254798.6171153     
   42022116.4661142     
   41784843.3125613     
   41543020.4163834     
   41296699.3233729     
   41045942.3503344     
   40790823.0615583     
   40531426.7321063     
   40267850.7928112     
   40000205.2512611     
   39728613.0823871     
   39453210.5815698     
   39174147.6724817     
   38891588.1611657     
   38605709.9271873     
   38316705.0420891     
   38024779.8049131     
   37730154.6843174     
   37433064.1568718     
   37133756.4316688     
   36832493.0522510     
   36529548.3681885     
   36225208.8687018     
   35919772.3592695     
   35613546.9418484     
   35306849.3183325     
   35000000.0000000     
   50000000.0000000     
   49956312.2317429     
   49912615.2517926     
   49868842.9656608     
   49824929.6654787     
   49780810.3801316     
   49736420.6834209     
   49691696.4968702     
   49646573.9333272     
   49600989.1699703     
   49554878.3443609     
   49508177.4671955     
   49460822.3474459     
   49412748.5267797     
   49363891.2210908     
   49314185.2676451     
   49263565.0768075     
   49211964.5876705     
   49159317.2271357     
   49105555.8721801     
   49050612.8151609     
   48994419.7321058     
   48936907.6539982     
   48878006.9411227     
   48817647.2605658     
   48755757.5670046     
   48692266.0869303     
   48627100.3064822     
   48560186.9630749     
   48491452.0410276     
   48420820.7714095     
   48348217.6363316     
   48273566.3779333     
   48196790.0123177     
   48117810.8487105     
   48036550.5141239     
   47952929.9838239     
   47866869.6179139     
   47778289.2043569     
   47687108.0087724     
   47593244.8313621     
   47496618.0713219     
   47397145.7991177     
   47294745.8370117     
   47189335.8482318     
   47080833.4351976     
   46969156.2472120     
   46854222.0980464     
   46735949.0938480     
   46614255.7718028     
   46489061.2499952     
   46360285.3888973     
   46227848.9649281     
   46091673.8565130     
   45951683.2430669     
   45807801.8173114     
   45659956.0113245     
   45508074.2366973     
   45352087.1391455     
   45191927.8678940     
   45027532.3601163     
   44858839.6406551     
   44685792.1372101     
   44508336.0110998     
   44326421.5036430     
   44140003.2981109     
   43949040.8971037     
   43753499.0150955     
   43553347.9857549     
   43348564.1835087     
   43139130.4586428     
   42925036.5850470     
   42706279.7194992     
   42482864.8711418     
   42254805.3795360     
   42022123.3993810     
   41784850.3896498     
   41543027.6045190     
   41296706.5830715     
   41045949.6342894     
   40790830.3133703     
   40531433.8848614     
   40267857.7675363     
   40000211.9553154     
   39728619.4078922     
   39453216.4040466     
   39174152.8499436     
   38891592.5340376     
   38605713.3195596     
   38316707.2650046     
   38024780.6626085     
   37730153.9846240     
   37433061.7273413     
   37133752.1435129     
   36832486.8552454     
   36529540.3414916     
   36225199.2991923     
   35919761.8705527     
   35613536.7448883     
   35306841.8518142     
   35000000.0000000     
   50000000.0000000     
   49956310.3288844     
   49912612.5249912     
   49868839.9345743     
   49824926.5907287     
   49780807.4050601     
   49736417.8838826     
   49691693.9076255     
   49646571.5635686     
   49600987.0132563     
   49554876.3853257     
   49508175.6860590     
   49460820.7230015     
   49412747.0382859     
   49363889.8493883     
   49314183.9957358     
   49263563.8900741     
   49211963.4738678     
   49159316.1762453     
   49105554.8761958     
   49050611.8678478     
   48994418.8287580     
   48936906.7912158     
   48878006.1166122     
   48817646.4729697     
   48755756.8157590     
   48692265.3721492     
   48627099.6288639     
   48560186.3238288     
   48491451.4418176     
   48420820.2143098     
   48348217.1237933     
   48273565.9127589     
   48196789.5976417     
   48117810.4879844     
   48036550.2111040     
   47952929.7425613     
   47866869.4427459     
   47778289.0998979     
   47687107.9799066     
   47593244.8832344     
   47496618.2093283     
   47397146.0288952     
   47294746.1644263     
   47189336.2793659     
   47080833.9763341     
   46969156.9048182     
   46854222.8787544     
   46735950.0044333     
   46614256.8191598     
   46489062.4411099     
   46360286.7308169     
   46227850.4647271     
   46091675.5212546     
   45951685.0797615     
   45807803.8328693     
   45659958.2125049     
   45508076.6300511     
   45352089.7309527     
   45191930.6640950     
   45027535.3662355     
   44858842.8617186     
   44685795.5776536     
   44508339.6746679     
   44326425.3932775     
   44140007.4158271     
   43949045.2438522     
   43753503.5906066     
   43553352.7883628     
   43348569.2099507     
   43139135.7038275     
   42925042.0417854     
   42706285.3781899     
   42482870.7193999     
   42254811.4017543     
   42022129.5762096     
   41784856.6973784     
   41543034.0143485     
   41296713.0602573     
   41045956.1371471     
   40790836.7921356     
   40531440.2804118     
   40267864.0099943     
   40000217.9625860     
   39728625.0842212     
   39453221.6387455     
   39174157.5165007     
   38891596.4899348     
   38605716.4072448     
   38316709.3146299     
   38024781.4973443     
   37730153.4295976     
   37433059.6235813     
   37133748.3686713     
   36832481.3539257     
   36529533.1693810     
   36225190.6912575     
   35919752.3565772     
   35613527.3681177     
   35306834.8112304     
   35000000.0000000     
   50000000.0000000     
   49956308.5935812     
   49912610.1006557     
   49868837.2709028     
   49824923.9062327     
   49780804.8190668     
   49736415.4581581     
   49691691.6695258     
   49646569.5190488     
   49600985.1552966     
   49554874.6995910     
   49508174.1546964     
   49460819.3271517     
   49412745.7596613     
   49363888.6711961     
   49314182.9031448     
   49263562.8703784     
   49211962.5164586     
   49159315.2724708     
   49105554.0191640     
   49050611.0522093     
   48994418.0504918     
   48936906.0474316     
   48878005.4053756     
   48817645.7931534     
   48755756.1669190     
   48692264.7544236     
   48627099.0428928     
   48560185.7706910     
   48491450.9229817     
   48420819.7315967     
   48348216.6793475     
   48273565.5090271     
   48196789.2373565     
   48117810.1741512     
   48036549.9469911     
   47952929.5316917     
   47866869.2888898     
   47778289.0070656     
   47687107.9523418     
   47593244.9254069     
   47496618.3259260     
   47397146.2248153     
   47294746.4447656     
   47189336.6494092     
   47080834.4415419     
   46969157.4708117     
   46854223.5512996     
   46735950.7894225     
   46614257.7225902     
   46489063.4690609     
   46360287.8894237     
   46227851.7601511     
   46091676.9596510     
   45951686.6672431     
   45807805.5754664     
   45659960.1161210     
   45508078.7004134     
   45352091.9735588     
   45191933.0841532     
   45027537.9685996     
   44858845.6508169     
   44685798.5574090     
   44508342.8484117     
   44326428.7636531     
   44140010.9846835     
   43949049.0121244     
   43753507.5581828     
   43553356.9539317     
   43348573.5708293     
   43139140.2557610     
   42925046.7787157     
   42706290.2919838     
   42482875.7995287     
   42254816.6349146     
   42022134.9458729     
   41784862.1832558     
   41543039.5917582     
   41296718.6993797     
   41045961.8021571     
   40790842.4402063     
   40531445.8605920     
   40267869.4619782     
   40000223.2154153     
   39728630.0549949     
   39453226.2314586     
   39174161.6211985     
   38891599.9824555     
   38605719.1499363     
   38316711.1585580     
   38024782.2866941     
   37730153.0091471     
   37433057.8504476     
   37133745.1297871     
   36832476.5916521     
   36529526.9189811     
   36225183.1379488     
   35919743.9371687     
   35613518.9528154     
   35306828.3028224     
   35000000.0000000     
   50000000.0000000     
   49956307.0568723     
   49912608.0176781     
   49868835.0087423     
   49824921.6415208     
   49780802.6472367     
   49736413.4274366     
   49691689.8004655     
   49646567.8149050     
   49600983.6089725     
   49554873.2982165     
   49508172.8827218     
   49460818.1683804     
   49412744.6985199     
   49363887.6934684     
   49314181.9963318     
   49263562.0238133     
   49211961.7212652     
   49159314.5214338     
   49105553.3065545     
   49050610.3735962     
   48994417.4025584     
   48936905.4278067     
   48878004.8124857     
   48817645.2260969     
   48755755.6253622     
   48692264.2385160     
   48627098.5532003     
   48560185.3081432     
   48491450.4888310     
   48420819.3273877     
   48348216.3068936     
   48273565.1703923     
   48196788.9348427     
   48117809.9102875     
   48036549.7245256     
   47952929.3535850     
   47866869.1583090     
   47778288.9273787     
   47687107.9271121     
   47593244.9583871     
   47496618.4210520     
   47397146.3861987     
   47294746.6766855     
   47189336.9563036     
   47080834.8279965     
   46969157.9415485     
   46854224.1111630     
   46735951.4433641     
   46614258.4756520     
   46489064.3263553     
   46360288.8561119     
   46227852.8414192     
   46091678.1606826     
   45951687.9931890     
   45807807.0314119     
   45659961.7070483     
   45508080.4311614     
   45352093.8487780     
   45191935.1082563     
   45027540.1457073     
   44858847.9846982     
   44685801.0514158     
   44508345.5054061     
   44326431.5859278     
   44140013.9738728     
   43949052.1691056     
   43753510.8829637     
   43553360.4455260     
   43348577.2271114     
   43139144.0733003     
   42925050.7525839     
   42706294.4155278     
   42482880.0641042     
   42254821.0295688     
   42022139.4569686     
   41784866.7940233     
   41543044.2817647     
   41296723.4439035     
   41045966.5714569     
   40790847.1986796     
   40531450.5658242     
   40267874.0636945     
   40000227.6543700     
   39728634.2618555     
   39453230.1257851     
   39174165.1106720     
   38891602.9625776     
   38605721.5045195     
   38316712.7614341     
   38024783.0052214     
   37730152.7102385     
   37433056.4100985     
   37133742.4473407     
   36832472.6105367     
   36529521.6576623     
   36225176.7352878     
   35919736.7383941     
   35613511.6575116     
   35306822.4588096     
   35000000.0000000     
   50000000.0000000     
   49956305.7571968     
   49912606.3186307     
   49868833.1834604     
   49824919.8268403     
   49780800.9147358     
   49736411.8127322     
   49691688.3179764     
   49646566.4658211     
   49600982.3866725     
   49554872.1917658     
   49508171.8792738     
   49460817.2547307     
   49412743.8620771     
   49363886.9228049     
   49314181.2814465     
   49263561.3562037     
   49211961.0938807     
   49159313.9285618     
   49105552.7436747     
   49050609.8372248     
   48994416.8900991     
   48936904.9374139     
   48878004.3429459     
   48817644.7767275     
   48755755.1959289     
   48692263.8291651     
   48627098.1644061     
   48560184.9406660     
   48491450.1436857     
   48420819.0058188     
   48348216.0103575     
   48273564.9005437     
   48196788.6935232     
   48117809.6995191     
   48036549.5465035     
   47952929.2106728     
   47866869.0530342     
   47778288.8624284     
   47687107.9053289     
   47593244.9827642     
   47496618.4947286     
   47397146.5124544     
   47294746.8589337     
   47189337.1980845     
   47080835.1329691     
   46969158.3134808     
   46854224.5539217     
   46735951.9609028     
   46614259.0719972     
   46489065.0055915     
   46360289.6223644     
   46227853.6988344     
   46091679.1134079     
   45951689.0453477     
   45807808.1870776     
   45659962.9702159     
   45508081.8057143     
   45352095.3384532     
   45191936.7166051     
   45027541.8760525     
   44858849.8400869     
   44685803.0345676     
   44508347.6186557     
   44326433.8311622     
   44140016.3524606     
   43949054.6818192     
   43753513.5298908     
   43553363.2259704     
   43348580.1394788     
   43139147.1149673     
   42925053.9197451     
   42706297.7030168     
   42482883.4651818     
   42254824.5356729     
   42022143.0574144     
   41784870.4756482     
   41543048.0285051     
   41296727.2362964     
   41045970.3860552     
   40790851.0073774     
   40531454.3350911     
   40267877.7537295     
   40000231.2181973     
   39728637.6444094     
   39453233.2630604     
   39174167.9290569     
   38891605.3785471     
   38605723.4249354     
   38316714.0847908     
   38024783.6242830     
   37730152.5166625     
   37433055.3017313     
   37133740.3393212     
   36832469.4511422     
   36529517.4524971     
   36225171.5820872     
   35919730.8916929     
   35613505.6576176     
   35306817.4461069     
   35000000.0000000     
   50000000.0000000     
   49956304.7430196     
   49912605.0491591     
   49868831.8316297     
   49824918.4930869     
   49780799.6466893     
   49736410.6348340     
   49691687.2391554     
   49646565.4859816     
   49600981.5002477     
   49554871.3902726     
   49508171.1529878     
   49460816.5937826     
   49412743.2571316     
   49363886.3654379     
   49314180.7643186     
   49263560.8730994     
   49211960.6396637     
   49159313.4990850     
   49105552.3356669     
   49050609.4481749     
   48994416.5181442     
   48936904.5812373     
   48878004.0016901     
   48817644.4499203     
   48755754.8834221     
   48692263.5310860     
   48627097.8811183     
   48560184.6727402     
   48491449.8918758     
   48420818.7710453     
   48348215.7936936     
   48273564.7032060     
   48196788.5168644     
   48117809.5450222     
   48036549.4157778     
   47952929.1054498     
   47866868.9751647     
   47778288.8138802     
   47687107.8881825     
   47593244.9992106     
   47496618.5470654     
   47397146.6030821     
   47294746.9903508     
   47189337.3728828     
   47080835.3538275     
   46969158.5831587     
   46854224.8752515     
   46735952.3367809     
   46614259.5053746     
   46489065.4994627     
   46360290.1797548     
   46227854.3227867     
   46091679.8069665     
   45951689.8115416     
   45807809.0289014     
   45659963.8906083     
   45508082.8075353     
   45352096.4244581     
   45191937.8894160     
   45027543.1381277     
   44858851.1936861     
   44685804.4817148     
   44508349.1610973     
   44326435.4703212     
   44140018.0893860     
   43949056.5171287     
   43753515.4637076     
   43553365.2578504     
   43348582.2683284     
   43139149.3389478     
   42925056.2361624     
   42706300.1081913     
   42482885.9542944     
   42254827.1025832     
   42022145.6944429     
   41784873.1733169     
   41543050.7752291     
   41296730.0180187     
   41045973.1858183     
   40790853.8048271     
   40531457.1059116     
   40267880.4690158     
   40000233.8437818     
   39728640.1401732     
   39453235.5822852     
   39174170.0179001     
   38891607.1757674     
   38605724.8620438     
   38316715.0868781     
   38024784.1118316     
   37730152.4087822     
   37433054.5213267     
   37133738.8208403     
   36832467.1522058     
   36529514.3696313     
   36225167.7795783     
   35919726.5335081     
   35613501.1423511     
   35306813.4787348     
   35000000.0000000     
   50000000.0000000     
   49956304.0765722     
   49912604.2563074     
   49868830.9913971     
   49824917.6715182     
   49780798.8681260     
   49736409.9142282     
   49691686.5805936     
   49646564.8890253     
   49600980.9609629     
   49554870.9032077     
   49508170.7119646     
   49460816.1926310     
   49412742.8900480     
   49363886.0272183     
   49314180.4504474     
   49263560.5797673     
   49211960.3637336     
   49159313.2380319     
   49105552.0875065     
   49050609.2113893     
   48994416.2916123     
   48936904.3641717     
   48878003.7935831     
   48817644.2504984     
   48755754.6926083     
   48692263.3489706     
   48627097.7079347     
   48560184.5088468     
   48491449.7377425     
   48420818.6272425     
   48348215.6608847     
   48273564.5821414     
   48196788.4083772     
   48117809.4500249     
   48036549.3352597     
   47952929.0404752     
   47866868.9268705     
   47778288.7834747     
   47687107.8769435     
   47593245.0084834     
   47496618.5782607     
   47397146.6576736     
   47294747.0698729     
   47189337.4789270     
   47080835.4880392     
   46969158.7472330     
   46854225.0709286     
   46735952.5658409     
   46614259.7696318     
   46489065.8007583     
   46360290.5199501     
   46227854.7037544     
   46091680.2305812     
   45951690.2796695     
   45807809.5433886     
   45659964.4532683     
   45508083.4201342     
   45352097.0886993     
   45191938.6069233     
   45027543.9104256     
   44858852.0221796     
   44685805.3676661     
   44508350.1056010     
   44326436.4742758     
   44140019.1534632     
   43949057.6417390     
   43753516.6489612     
   43553366.5035133     
   43348583.5737723     
   43139150.7030923     
   42925057.6574073     
   42706301.5843373     
   42482887.4824505     
   42254828.6790545     
   42022147.3145982     
   41784874.8314305     
   41543052.4642914     
   41296731.7295127     
   41045974.9094560     
   40790855.5282437     
   40531458.8143161     
   40267882.1448012     
   40000235.4661042     
   39728641.6845194     
   39453237.0200566     
   39174171.3160726     
   38891608.2966854     
   38605725.7634883     
   38316715.7224858     
   38024784.4322214     
   37730152.3632628     
   37433054.0613872     
   37133737.9037482     
   36832465.7502234     
   36529512.4739786     
   36225165.4299652     
   35919723.8070804     
   35613498.3064674     
   35306810.8354888     
   35000000.0000000     
   50000000.0000000     
   49956303.8390576     
   49912603.9849303     
   49868830.7040693     
   49824917.3926952     
   49780798.6043381     
   49736409.6707867     
   49691686.3584178     
   49646564.6879371     
   49600980.7794754     
   49554870.7394298     
   49508170.5637470     
   49460816.0578602     
   49412742.7667394     
   49363885.9136025     
   49314180.3449924     
   49263560.4811848     
   49211960.2709650     
   49159313.1502273     
   49105552.0039995     
   49050609.1316718     
   48994416.2153099     
   48936904.2910229     
   48878003.7234206     
   48817644.1832334     
   48755754.6282183     
   48692263.2874890     
   48627097.6494430     
   48560184.4534684     
   48491449.6856383     
   48420818.5786069     
   48348215.6159438     
   48273564.5411500     
   48196788.3716181     
   48117809.4178078     
   48036549.3079202     
   47952929.0183738     
   47866868.9103929     
   47778288.7730301     
   47687107.8729649     
   47593245.0114264     
   47496618.5886033     
   47397146.6759152     
   47294747.0965332     
   47189337.5145453     
   47080835.5331731     
   46969158.8024569     
   46854225.1368325     
   46735952.6430280     
   46614259.8587175     
   46489065.9023671     
   46360290.6347133     
   46227854.8323076     
   46091680.3735607     
   45951690.4377092     
   45807809.7171157     
   45659964.6432992     
   45508083.6270698     
   45352097.3131196     
   45191938.8493814     
   45027544.1714419     
   44858852.3022343     
   44685805.6671915     
   44508350.4249731     
   44326436.8138050     
   44140019.5133838     
   43949058.0221976     
   43753517.0500033     
   43553366.9250690     
   43348584.0156392     
   43139151.1649159     
   42925058.1386584     
   42706302.0842856     
   42482888.0001326     
   42254829.2132369     
   42022147.8637324     
   41784875.3935993     
   41543053.0371453     
   41296732.3101940     
   41045975.4945096     
   40790856.1135131     
   40531459.3948244     
   40267882.7146184     
   40000236.0182023     
   39728642.2106239     
   39453237.5105012     
   39174171.7596802     
   38891608.6806863     
   38605726.0735448     
   38316715.9427965     
   38024784.5459400     
   37730152.3529366     
   37433053.9103705     
   37133737.5968159     
   36832465.2778749     
   36529511.8309939     
   36225164.6311460     
   35919722.8702441     
   35613497.3326972     
   35306809.8844434     
   35000000.0000000     
VECTORS u double 
    0.00000E+00         0.00000E+00         0.00000E+00
    0.00000E+00         0.00000E+00         0.00000E+00
    0.00000E+00         0.00000E+00         0.00000E+00
    0.00000E+00         0.00000E+00         0.00000E+00
    0.00000E+00         0.00000E+00         0.00000E+00
    0.00000E+00         0.00000E+00         0.00000E+00
    0.00000E+00         0.00000E+00         0.00000E+00
    0.00000E+00         0.00000E+00         0.00000E+00
    0.00000E+00         0.00000E+00         0.00000E+00
    0.00000E+00         0.00000E+00         0.00000E+00
    0.00000E+00         0.00000E+00         0.00000E+00
    0.00000E+00         0.00000E+00         0.00000E+00
    0.00000E+00         0.00000E+00         0.00000E+00
    0.00000E+00         0.00000E+00         0.00000E+00
    0.00000E+00         0.00000E+00         0.00000E+00
    0.00000E+00         0.00000E+00         0.00000E+00
    0.00000E+00         0.00000E+00         0.00000E+00
    0.00000E+00         0.00000E+00         0.00000E+00
    0.00000E+00         0.00000E+00         0.00000E+00
    0.00000E+00         0.00000E+00         0.00000E+00
    0.00000E+00         0.00000E+00         0.00000E+00
    0.00000E+00         0.00000E+00         0.00000E+00
    0.00000E+00         0.00000E+00         0.00000E+00
    0.00000E+00         0.00000E+00         0.00000E+00
    0.00000E+00         0.00000E+00         0.00000E+00
    0.00000E+00         0.00000E+00         0.00000E+00
    0.00000E+00         0.00000E+00         0.00000E+00
    0.00000E+00         0.00000E+00         0.00000E+00
    0.00000E+00         0.00000E+00         0.00000E+00
    0.00000E+00         0.00000E+00         0.00000E+00
    0.00000E+00         0.00000E+00         0.00000E+00
    0.00000E+00         0.00000E+00         0.00000E+00
    0.00000E+00         0.00000E+00         0.00000E+00
    0.00000E+00         0.00000E+00         0.00000E+00
    0.00000E+00         0.00000E+00         0.00000E+00
    0.00000E+00         0.00000E+00         0.00000E+00
    0.00000E+00         0.00000E+00         0.00000E+00
    0.00000E+00         0.00000E+00         0.00000E+00
    0.00000E+00         0.00000E+00         0.00000E+00
    0.00000E+00         0.00000E+00         0.00000E+00
    0.00000E+00         0.00000E+00         0.00000E+00
    0.00000E+00         0.00000E+00         0.00000E+00
    0.00000E+00         0.00000E+00         0.00000E+00
    0.00000E+00         0.00000E+00         0.00000E+00
    0.00000E+00         0.00000E+00         0.00000E+00
    0.00000E+00         0.00000E+00         0.00000E+00
    0.00000E+00         0.00000E+00         0.00000E+00
    0.00000E+00         0.00000E+00         0.00000E+00
    0.00000E+00         0.00000E+00         0.00000E+00
    0.00000E+00         0.00000E+00         0.00000E+00
    0.00000E+00         0.00000E+00         0.00000E+00
    0.00000E+00         0.00000E+00         0.00000E+00
    0.00000E+00         0.00000E+00         0.00000E+00
    0.00000E+00         0.00000E+00         0.00000E+00
    0.00000E+00         0.00000E+00         0.00000E+00
    0.00000E+00         0.00000E+00         0.00000E+00
    0.00000E+00         0.00000E+00         0.00000E+00
    0.00000E+00         0.00000E+00         0.00000E+00
    0.00000E+00         0.00000E+00         0.00000E+00
    0.00000E+00         0.00000E+00         0.00000E+00
    0.00000E+00         0.00000E+00         0.00000E+00
    0.00000E+00         0.00000E+00         0.00000E+00
    0.00000E+00         0.00000E+00         0.00000E+00
    0.00000E+00         0.00000E+00         0.00000E+00
    0.00000E+00         0.00000E+00         0.00000E+00
    0.00000E+00         0.00000E+00         0.00000E+00
    0.00000E+00         0.00000E+00         0.00000E+00
    0.00000E+00         0.00000E+00         0.00000E+00
    0.00000E+00         0.00000E+00         0.00000E+00
    0.00000E+00         0.00000E+00         0.00000E+00
    0.00000E+00         0.00000E+00         0.00000E+00
    0.00000E+00         0.00000E+00         0.00000E+00
    0.00000E+00         0.00000E+00         0.00000E+00
    0.00000E+00         0.00000E+00         0.00000E+00
    0.00000E+00         0.00000E+00         0.00000E+00
    0.00000E+00         0.00000E+00         0.00000E+00
    0.00000E+00         0.00000E+00         0.00000E+00
    0.00000E+00         0.00000E+00         0.00000E+00
    0.00000E+00         0.00000E+00         0.00000E+00
    0.00000E+00         0.00000E+00         0.00000E+00
    0.00000E+00         0.00000E+00         0.00000E+00
    0.00000E+00         0.00000E+00         0.00000E+00
    0.00000E+00         0.00000E+00         0.00000E+00
    0.00000E+00         0.00000E+00         0.00000E+00
    0.00000E+00         0.00000E+00         0.00000E+00
    0.00000E+00         0.00000E+00         0.00000E+00
    0.00000E+00         0.00000E+00         0.00000E+00
    0.00000E+00         0.00000E+00         0.00000E+00
    0.00000E+00         0.00000E+00         0.00000E+00
    0.00000E+00         0.00000E+00         0.00000E+00
    0.00000E+00         0.00000E+00         0.00000E+00
    0.00000E+00         0.00000E+00         0.00000E+00
    0.00000E+00         0.00000E+00         0.00000E+00
    0.00000E+00         0.00000E+00         0.00000E+00
    0.00000E+00         0.00000E+00         0.00000E+00
    0.00000E+00         0.00000E+00         0.00000E+00
    0.00000E+00         0.00000E+00         0.00000E+00
    0.00000E+00         0.00000E+00         0.00000E+00
    0.00000E+00         0.00000E+00         0.00000E+00
    0.00000E+00         0.00000E+00         0.00000E+00
    0.00000E+00         0.00000E+00         0.00000E+00
    0.00000E+00         0.10209E-05         0.00000E+00
    0.58351E-05         0.39275E-06         0.00000E+00
    0.94120E-05        -0.81761E-06         0.00000E+00
    0.12315E-04        -0.21194E-05         0.00000E+00
    0.14776E-04        -0.36064E-05         0.00000E+00
    0.16985E-04        -0.52072E-05         0.00000E+00
    0.19038E-04        -0.69170E-05         0.00000E+00
    0.20996E-04        -0.87078E-05         0.00000E+00
    0.22893E-04        -0.10565E-04         0.00000E+00
    0.24749E-04        -0.12474E-04         0.00000E+00
    0.26575E-04        -0.14424E-04         0.00000E+00
    0.28377E-04        -0.16407E-04         0.00000E+00
    0.30156E-04        -0.18419E-04         0.00000E+00
    0.31915E-04        -0.20455E-04         0.00000E+00
    0.33654E-04        -0.22516E-04         0.00000E+00
    0.35375E-04        -0.24601E-04         0.00000E+00
    0.37079E-04        -0.26711E-04         0.00000E+00
    0.38768E-04        -0.28849E-04         0.00000E+00
    0.40445E-04        -0.31018E-04         0.00000E+00
    0.42113E-04        -0.33219E-04         0.00000E+00
    0.43776E-04        -0.35457E-04         0.00000E+00
    0.45437E-04        -0.37734E-04         0.00000E+00
    0.47099E-04        -0.40055E-04         0.00000E+00
    0.48767E-04        -0.42423E-04         0.00000E+00
    0.50444E-04        -0.44841E-04         0.00000E+00
    0.52133E-04        -0.47314E-04         0.00000E+00
    0.53838E-04        -0.49844E-04         0.00000E+00
    0.55561E-04        -0.52436E-04         0.00000E+00
    0.57306E-04        -0.55093E-04         0.00000E+00
    0.59076E-04        -0.57818E-04         0.00000E+00
    0.60871E-04        -0.60616E-04         0.00000E+00
    0.62696E-04        -0.63488E-04         0.00000E+00
    0.64551E-04        -0.66440E-04         0.00000E+00
    0.66439E-04        -0.69475E-04         0.00000E+00
    0.68360E-04        -0.72596E-04         0.00000E+00
    0.70316E-04        -0.75806E-04         0.00000E+00
    0.72307E-04        -0.79110E-04         0.00000E+00
    0.74335E-04        -0.82511E-04         0.00000E+00
    0.76400E-04        -0.86012E-04         0.00000E+00
    0.78502E-04        -0.89617E-04         0.00000E+00
    0.80642E-04        -0.93330E-04         0.00000E+00
    0.82818E-04        -0.97153E-04         0.00000E+00
    0.85031E-04        -0.10109E-03         0.00000E+00
    0.87280E-04        -0.10515E-03         0.00000E+00
    0.89564E-04        -0.10933E-03         0.00000E+00
    0.91881E-04        -0.11363E-03         0.00000E+00
    0.94231E-04        -0.11807E-03         0.00000E+00
    0.96611E-04        -0.12264E-03         0.00000E+00
    0.99020E-04        -0.12734E-03         0.00000E+00
    0.10146E-03        -0.13219E-03         0.00000E+00
    0.10391E-03        -0.13718E-03         0.00000E+00
    0.10639E-03        -0.14232E-03         0.00000E+00
    0.10889E-03        -0.14761E-03         0.00000E+00
    0.11140E-03        -0.15306E-03         0.00000E+00
    0.11392E-03        -0.15867E-03         0.00000E+00
    0.11645E-03        -0.16444E-03         0.00000E+00
    0.11898E-03        -0.17037E-03         0.00000E+00
    0.12150E-03        -0.17648E-03         0.00000E+00
    0.12401E-03        -0.18276E-03         0.00000E+00
    0.12651E-03        -0.18922E-03         0.00000E+00
    0.12898E-03        -0.19585E-03         0.00000E+00
    0.13142E-03        -0.20268E-03         0.00000E+00
    0.13381E-03        -0.20969E-03         0.00000E+00
    0.13616E-03        -0.21689E-03         0.00000E+00
    0.13846E-03        -0.22428E-03         0.00000E+00
    0.14068E-03        -0.23188E-03         0.00000E+00
    0.14282E-03        -0.23967E-03         0.00000E+00
    0.14487E-03        -0.24766E-03         0.00000E+00
    0.14681E-03        -0.25587E-03         0.00000E+00
    0.14863E-03        -0.26428E-03         0.00000E+00
    0.15031E-03        -0.27290E-03         0.00000E+00
    0.15184E-03        -0.28174E-03         0.00000E+00
    0.15320E-03        -0.29079E-03         0.00000E+00
    0.15437E-03        -0.30007E-03         0.00000E+00
    0.15533E-03        -0.30957E-03         0.00000E+00
    0.15606E-03        -0.31929E-03         0.00000E+00
    0.15653E-03        -0.32924E-03         0.00000E+00
    0.15673E-03        -0.33941E-03         0.00000E+00
    0.15662E-03        -0.34983E-03         0.00000E+00
    0.15619E-03        -0.36047E-03         0.00000E+00
    0.15541E-03        -0.37135E-03         0.00000E+00
    0.15426E-03        -0.38246E-03         0.00000E+00
    0.15271E-03        -0.39381E-03         0.00000E+00
    0.15075E-03        -0.40539E-03         0.00000E+00
    0.14836E-03        -0.41719E-03         0.00000E+00
    0.14553E-03        -0.42922E-03         0.00000E+00
    0.14224E-03        -0.44145E-03         0.00000E+00
    0.13850E-03        -0.45387E-03         0.00000E+00
    0.13430E-03        -0.46644E-03         0.00000E+00
    0.12964E-03        -0.47915E-03         0.00000E+00
    0.12453E-03        -0.49192E-03         0.00000E+00
    0.11896E-03        -0.50471E-03         0.00000E+00
    0.11290E-03        -0.51742E-03         0.00000E+00
    0.10630E-03        -0.52995E-03         0.00000E+00
    0.99020E-04        -0.54217E-03         0.00000E+00
    0.90839E-04        -0.55394E-03         0.00000E+00
    0.81347E-04        -0.56505E-03         0.00000E+00
    0.69900E-04        -0.57543E-03         0.00000E+00
    0.55174E-04        -0.58456E-03         0.00000E+00
    0.35580E-04        -0.59308E-03         0.00000E+00
    0.00000E+00        -0.59750E-03         0.00000E+00
    0.00000E+00         0.11699E-05         0.00000E+00
    0.11008E-04         0.14058E-06         0.00000E+00
    0.18318E-04        -0.20653E-05         0.00000E+00
    0.24142E-04        -0.46265E-05         0.00000E+00
    0.29120E-04        -0.75399E-05         0.00000E+00
    0.33576E-04        -0.10720E-04         0.00000E+00
    0.37715E-04        -0.14119E-04         0.00000E+00
    0.41653E-04        -0.17691E-04         0.00000E+00
    0.45462E-04        -0.21398E-04         0.00000E+00
    0.49182E-04        -0.25211E-04         0.00000E+00
    0.52837E-04        -0.29107E-04         0.00000E+00
    0.56438E-04        -0.33070E-04         0.00000E+00
    0.59991E-04        -0.37089E-04         0.00000E+00
    0.63500E-04        -0.41159E-04         0.00000E+00
    0.66967E-04        -0.45278E-04         0.00000E+00
    0.70396E-04        -0.49445E-04         0.00000E+00
    0.73790E-04        -0.53664E-04         0.00000E+00
    0.77154E-04        -0.57938E-04         0.00000E+00
    0.80493E-04        -0.62273E-04         0.00000E+00
    0.83815E-04        -0.66674E-04         0.00000E+00
    0.87125E-04        -0.71149E-04         0.00000E+00
    0.90431E-04        -0.75704E-04         0.00000E+00
    0.93740E-04        -0.80346E-04         0.00000E+00
    0.97060E-04        -0.85083E-04         0.00000E+00
    0.10040E-03        -0.89921E-04         0.00000E+00
    0.10376E-03        -0.94869E-04         0.00000E+00
    0.10715E-03        -0.99932E-04         0.00000E+00
    0.11058E-03        -0.10512E-03         0.00000E+00
    0.11406E-03        -0.11043E-03         0.00000E+00
    0.11758E-03        -0.11589E-03         0.00000E+00
    0.12115E-03        -0.12149E-03         0.00000E+00
    0.12478E-03        -0.12724E-03         0.00000E+00
    0.12848E-03        -0.13315E-03         0.00000E+00
    0.13223E-03        -0.13922E-03         0.00000E+00
    0.13606E-03        -0.14547E-03         0.00000E+00
    0.13995E-03        -0.15189E-03         0.00000E+00
    0.14391E-03        -0.15850E-03         0.00000E+00
    0.14795E-03        -0.16531E-03         0.00000E+00
    0.15206E-03        -0.17232E-03         0.00000E+00
    0.15624E-03        -0.17953E-03         0.00000E+00
    0.16050E-03        -0.18696E-03         0.00000E+00
    0.16483E-03        -0.19462E-03         0.00000E+00
    0.16923E-03        -0.20250E-03         0.00000E+00
    0.17371E-03        -0.21062E-03         0.00000E+00
    0.17825E-03        -0.21898E-03         0.00000E+00
    0.18286E-03        -0.22760E-03         0.00000E+00
    0.18754E-03        -0.23647E-03         0.00000E+00
    0.19227E-03        -0.24562E-03         0.00000E+00
    0.19707E-03        -0.25503E-03         0.00000E+00
    0.20191E-03        -0.26473E-03         0.00000E+00
    0.20680E-03        -0.27471E-03         0.00000E+00
    0.21174E-03        -0.28499E-03         0.00000E+00
    0.21671E-03        -0.29558E-03         0.00000E+00
    0.22170E-03        -0.30647E-03         0.00000E+00
    0.22672E-03        -0.31769E-03         0.00000E+00
    0.23174E-03        -0.32923E-03         0.00000E+00
    0.23677E-03        -0.34110E-03         0.00000E+00
    0.24179E-03        -0.35331E-03         0.00000E+00
    0.24679E-03        -0.36587E-03         0.00000E+00
    0.25175E-03        -0.37878E-03         0.00000E+00
    0.25666E-03        -0.39206E-03         0.00000E+00
    0.26151E-03        -0.40570E-03         0.00000E+00
    0.26628E-03        -0.41971E-03         0.00000E+00
    0.27095E-03        -0.43410E-03         0.00000E+00
    0.27551E-03        -0.44889E-03         0.00000E+00
    0.27993E-03        -0.46406E-03         0.00000E+00
    0.28418E-03        -0.47963E-03         0.00000E+00
    0.28825E-03        -0.49561E-03         0.00000E+00
    0.29211E-03        -0.51200E-03         0.00000E+00
    0.29573E-03        -0.52880E-03         0.00000E+00
    0.29907E-03        -0.54603E-03         0.00000E+00
    0.30211E-03        -0.56368E-03         0.00000E+00
    0.30481E-03        -0.58176E-03         0.00000E+00
    0.30713E-03        -0.60029E-03         0.00000E+00
    0.30904E-03        -0.61925E-03         0.00000E+00
    0.31048E-03        -0.63866E-03         0.00000E+00
    0.31141E-03        -0.65852E-03         0.00000E+00
    0.31180E-03        -0.67883E-03         0.00000E+00
    0.31158E-03        -0.69961E-03         0.00000E+00
    0.31071E-03        -0.72085E-03         0.00000E+00
    0.30916E-03        -0.74255E-03         0.00000E+00
    0.30685E-03        -0.76473E-03         0.00000E+00
    0.30377E-03        -0.78736E-03         0.00000E+00
    0.29985E-03        -0.81046E-03         0.00000E+00
    0.29508E-03        -0.83401E-03         0.00000E+00
    0.28941E-03        -0.85800E-03         0.00000E+00
    0.28284E-03        -0.88239E-03         0.00000E+00
    0.27534E-03        -0.90716E-03         0.00000E+00
    0.26692E-03        -0.93225E-03         0.00000E+00
    0.25758E-03        -0.95759E-03         0.00000E+00
    0.24730E-03        -0.98308E-03         0.00000E+00
    0.23607E-03        -0.10086E-02         0.00000E+00
    0.22384E-03        -0.10339E-02         0.00000E+00
    0.21046E-03        -0.10589E-02         0.00000E+00
    0.19569E-03        -0.10832E-02         0.00000E+00
    0.17904E-03        -0.11066E-02         0.00000E+00
    0.15975E-03        -0.11286E-02         0.00000E+00
    0.13642E-03        -0.11490E-02         0.00000E+00
    0.10682E-03        -0.11669E-02         0.00000E+00
    0.66506E-04        -0.11824E-02         0.00000E+00
    0.00000E+00        -0.11896E-02         0.00000E+00
    0.00000E+00         0.58650E-06         0.00000E+00
    0.15697E-04        -0.72704E-06         0.00000E+00
    0.26735E-04        -0.37651E-05         0.00000E+00
    0.35519E-04        -0.75148E-05         0.00000E+00
    0.43046E-04        -0.11810E-04         0.00000E+00
    0.49786E-04        -0.16539E-04         0.00000E+00
    0.56038E-04        -0.21611E-04         0.00000E+00
    0.61977E-04        -0.26951E-04         0.00000E+00
    0.67712E-04        -0.32500E-04         0.00000E+00
    0.73304E-04        -0.38211E-04         0.00000E+00
    0.78788E-04        -0.44048E-04         0.00000E+00
    0.84186E-04        -0.49986E-04         0.00000E+00
    0.89506E-04        -0.56010E-04         0.00000E+00
    0.94756E-04        -0.62111E-04         0.00000E+00
    0.99940E-04        -0.68284E-04         0.00000E+00
    0.10506E-03        -0.74531E-04         0.00000E+00
    0.11013E-03        -0.80855E-04         0.00000E+00
    0.11516E-03        -0.87263E-04         0.00000E+00
    0.12015E-03        -0.93763E-04         0.00000E+00
    0.12511E-03        -0.10036E-03         0.00000E+00
    0.13005E-03        -0.10707E-03         0.00000E+00
    0.13498E-03        -0.11391E-03         0.00000E+00
    0.13992E-03        -0.12087E-03         0.00000E+00
    0.14488E-03        -0.12798E-03         0.00000E+00
    0.14986E-03        -0.13524E-03         0.00000E+00
    0.15488E-03        -0.14266E-03         0.00000E+00
    0.15994E-03        -0.15026E-03         0.00000E+00
    0.16506E-03        -0.15804E-03         0.00000E+00
    0.17025E-03        -0.16602E-03         0.00000E+00
    0.17550E-03        -0.17421E-03         0.00000E+00
    0.18084E-03        -0.18261E-03         0.00000E+00
    0.18626E-03        -0.19124E-03         0.00000E+00
    0.19177E-03        -0.20011E-03         0.00000E+00
    0.19738E-03        -0.20923E-03         0.00000E+00
    0.20308E-03        -0.21861E-03         0.00000E+00
    0.20889E-03        -0.22825E-03         0.00000E+00
    0.21481E-03        -0.23818E-03         0.00000E+00
    0.22083E-03        -0.24840E-03         0.00000E+00
    0.22697E-03        -0.25892E-03         0.00000E+00
    0.23321E-03        -0.26975E-03         0.00000E+00
    0.23956E-03        -0.28090E-03         0.00000E+00
    0.24603E-03        -0.29239E-03         0.00000E+00
    0.25260E-03        -0.30422E-03         0.00000E+00
    0.25928E-03        -0.31641E-03         0.00000E+00
    0.26606E-03        -0.32896E-03         0.00000E+00
    0.27294E-03        -0.34189E-03         0.00000E+00
    0.27992E-03        -0.35521E-03         0.00000E+00
    0.28698E-03        -0.36893E-03         0.00000E+00
    0.29414E-03        -0.38306E-03         0.00000E+00
    0.30137E-03        -0.39761E-03         0.00000E+00
    0.30867E-03        -0.41259E-03         0.00000E+00
    0.31603E-03        -0.42801E-03         0.00000E+00
    0.32344E-03        -0.44389E-03         0.00000E+00
    0.33090E-03        -0.46024E-03         0.00000E+00
    0.33838E-03        -0.47706E-03         0.00000E+00
    0.34588E-03        -0.49437E-03         0.00000E+00
    0.35338E-03        -0.51218E-03         0.00000E+00
    0.36087E-03        -0.53049E-03         0.00000E+00
    0.36832E-03        -0.54933E-03         0.00000E+00
    0.37572E-03        -0.56869E-03         0.00000E+00
    0.38305E-03        -0.58860E-03         0.00000E+00
    0.39028E-03        -0.60905E-03         0.00000E+00
    0.39740E-03        -0.63006E-03         0.00000E+00
    0.40437E-03        -0.65164E-03         0.00000E+00
    0.41116E-03        -0.67380E-03         0.00000E+00
    0.41775E-03        -0.69655E-03         0.00000E+00
    0.42410E-03        -0.71989E-03         0.00000E+00
    0.43017E-03        -0.74383E-03         0.00000E+00
    0.43592E-03        -0.76839E-03         0.00000E+00
    0.44131E-03        -0.79357E-03         0.00000E+00
    0.44630E-03        -0.81938E-03         0.00000E+00
    0.45083E-03        -0.84582E-03         0.00000E+00
    0.45485E-03        -0.87291E-03         0.00000E+00
    0.45831E-03        -0.90065E-03         0.00000E+00
    0.46114E-03        -0.92904E-03         0.00000E+00
    0.46328E-03        -0.95811E-03         0.00000E+00
    0.46467E-03        -0.98784E-03         0.00000E+00
    0.46523E-03        -0.10183E-02         0.00000E+00
    0.46490E-03        -0.10494E-02         0.00000E+00
    0.46360E-03        -0.10811E-02         0.00000E+00
    0.46126E-03        -0.11136E-02         0.00000E+00
    0.45781E-03        -0.11468E-02         0.00000E+00
    0.45318E-03        -0.11807E-02         0.00000E+00
    0.44732E-03        -0.12152E-02         0.00000E+00
    0.44017E-03        -0.12505E-02         0.00000E+00
    0.43167E-03        -0.12863E-02         0.00000E+00
    0.42181E-03        -0.13228E-02         0.00000E+00
    0.41056E-03        -0.13599E-02         0.00000E+00
    0.39790E-03        -0.13974E-02         0.00000E+00
    0.38383E-03        -0.14353E-02         0.00000E+00
    0.36833E-03        -0.14735E-02         0.00000E+00
    0.35137E-03        -0.15116E-02         0.00000E+00
    0.33284E-03        -0.15495E-02         0.00000E+00
    0.31253E-03        -0.15868E-02         0.00000E+00
    0.29006E-03        -0.16232E-02         0.00000E+00
    0.26472E-03        -0.16580E-02         0.00000E+00
    0.23532E-03        -0.16907E-02         0.00000E+00
    0.19984E-03        -0.17206E-02         0.00000E+00
    0.15505E-03        -0.17469E-02         0.00000E+00
    0.94043E-04        -0.17682E-02         0.00000E+00
    0.00000E+00        -0.17774E-02         0.00000E+00
    0.00000E+00        -0.63841E-06         0.00000E+00
    0.20016E-04        -0.21724E-05         0.00000E+00
    0.34704E-04        -0.59233E-05         0.00000E+00
    0.46473E-04        -0.10784E-04         0.00000E+00
    0.56573E-04        -0.16419E-04         0.00000E+00
    0.65625E-04        -0.22668E-04         0.00000E+00
    0.74014E-04        -0.29393E-04         0.00000E+00
    0.81973E-04        -0.36490E-04         0.00000E+00
    0.89645E-04        -0.43872E-04         0.00000E+00
    0.97115E-04        -0.51474E-04         0.00000E+00
    0.10443E-03        -0.59247E-04         0.00000E+00
    0.11162E-03        -0.67156E-04         0.00000E+00
    0.11870E-03        -0.75181E-04         0.00000E+00
    0.12568E-03        -0.83307E-04         0.00000E+00
    0.13257E-03        -0.91532E-04         0.00000E+00
    0.13938E-03        -0.99855E-04         0.00000E+00
    0.14611E-03        -0.10828E-03         0.00000E+00
    0.15278E-03        -0.11682E-03         0.00000E+00
    0.15940E-03        -0.12548E-03         0.00000E+00
    0.16598E-03        -0.13428E-03         0.00000E+00
    0.17254E-03        -0.14323E-03         0.00000E+00
    0.17909E-03        -0.15234E-03         0.00000E+00
    0.18565E-03        -0.16163E-03         0.00000E+00
    0.19222E-03        -0.17110E-03         0.00000E+00
    0.19883E-03        -0.18079E-03         0.00000E+00
    0.20549E-03        -0.19069E-03         0.00000E+00
    0.21221E-03        -0.20082E-03         0.00000E+00
    0.21900E-03        -0.21121E-03         0.00000E+00
    0.22588E-03        -0.22185E-03         0.00000E+00
    0.23286E-03        -0.23277E-03         0.00000E+00
    0.23993E-03        -0.24399E-03         0.00000E+00
    0.24712E-03        -0.25550E-03         0.00000E+00
    0.25444E-03        -0.26734E-03         0.00000E+00
    0.26187E-03        -0.27950E-03         0.00000E+00
    0.26944E-03        -0.29202E-03         0.00000E+00
    0.27715E-03        -0.30489E-03         0.00000E+00
    0.28500E-03        -0.31813E-03         0.00000E+00
    0.29299E-03        -0.33177E-03         0.00000E+00
    0.30113E-03        -0.34580E-03         0.00000E+00
    0.30941E-03        -0.36025E-03         0.00000E+00
    0.31784E-03        -0.37513E-03         0.00000E+00
    0.32641E-03        -0.39046E-03         0.00000E+00
    0.33513E-03        -0.40624E-03         0.00000E+00
    0.34399E-03        -0.42250E-03         0.00000E+00
    0.35298E-03        -0.43925E-03         0.00000E+00
    0.36211E-03        -0.45650E-03         0.00000E+00
    0.37137E-03        -0.47427E-03         0.00000E+00
    0.38074E-03        -0.49257E-03         0.00000E+00
    0.39023E-03        -0.51141E-03         0.00000E+00
    0.39982E-03        -0.53082E-03         0.00000E+00
    0.40950E-03        -0.55080E-03         0.00000E+00
    0.41927E-03        -0.57137E-03         0.00000E+00
    0.42910E-03        -0.59255E-03         0.00000E+00
    0.43899E-03        -0.61435E-03         0.00000E+00
    0.44891E-03        -0.63678E-03         0.00000E+00
    0.45886E-03        -0.65986E-03         0.00000E+00
    0.46880E-03        -0.68360E-03         0.00000E+00
    0.47873E-03        -0.70802E-03         0.00000E+00
    0.48861E-03        -0.73313E-03         0.00000E+00
    0.49843E-03        -0.75894E-03         0.00000E+00
    0.50815E-03        -0.78547E-03         0.00000E+00
    0.51774E-03        -0.81273E-03         0.00000E+00
    0.52718E-03        -0.84074E-03         0.00000E+00
    0.53642E-03        -0.86950E-03         0.00000E+00
    0.54542E-03        -0.89902E-03         0.00000E+00
    0.55416E-03        -0.92933E-03         0.00000E+00
    0.56257E-03        -0.96043E-03         0.00000E+00
    0.57061E-03        -0.99232E-03         0.00000E+00
    0.57824E-03        -0.10250E-02         0.00000E+00
    0.58539E-03        -0.10586E-02         0.00000E+00
    0.59199E-03        -0.10929E-02         0.00000E+00
    0.59800E-03        -0.11282E-02         0.00000E+00
    0.60332E-03        -0.11642E-02         0.00000E+00
    0.60790E-03        -0.12011E-02         0.00000E+00
    0.61165E-03        -0.12389E-02         0.00000E+00
    0.61448E-03        -0.12776E-02         0.00000E+00
    0.61631E-03        -0.13172E-02         0.00000E+00
    0.61705E-03        -0.13577E-02         0.00000E+00
    0.61660E-03        -0.13990E-02         0.00000E+00
    0.61486E-03        -0.14413E-02         0.00000E+00
    0.61175E-03        -0.14845E-02         0.00000E+00
    0.60715E-03        -0.15287E-02         0.00000E+00
    0.60100E-03        -0.15737E-02         0.00000E+00
    0.59319E-03        -0.16197E-02         0.00000E+00
    0.58366E-03        -0.16665E-02         0.00000E+00
    0.57235E-03        -0.17142E-02         0.00000E+00
    0.55920E-03        -0.17628E-02         0.00000E+00
    0.54419E-03        -0.18120E-02         0.00000E+00
    0.52727E-03        -0.18619E-02         0.00000E+00
    0.50845E-03        -0.19123E-02         0.00000E+00
    0.48767E-03        -0.19630E-02         0.00000E+00
    0.46489E-03        -0.20138E-02         0.00000E+00
    0.43995E-03        -0.20641E-02         0.00000E+00
    0.41257E-03        -0.21137E-02         0.00000E+00
    0.38222E-03        -0.21619E-02         0.00000E+00
    0.34795E-03        -0.22081E-02         0.00000E+00
    0.30820E-03        -0.22512E-02         0.00000E+00
    0.26037E-03        -0.22904E-02         0.00000E+00
    0.20018E-03        -0.23244E-02         0.00000E+00
    0.11899E-03        -0.23507E-02         0.00000E+00
    0.00000E+00        -0.23614E-02         0.00000E+00
    0.00000E+00        -0.24401E-05         0.00000E+00
    0.24040E-04        -0.41584E-05         0.00000E+00
    0.42274E-04        -0.85362E-05         0.00000E+00
    0.57028E-04        -0.14436E-04         0.00000E+00
    0.69719E-04        -0.21370E-04         0.00000E+00
    0.81106E-04        -0.29108E-04         0.00000E+00
    0.91652E-04        -0.37468E-04         0.00000E+00
    0.10165E-03        -0.46308E-04         0.00000E+00
    0.11127E-03        -0.55513E-04         0.00000E+00
    0.12062E-03        -0.64999E-04         0.00000E+00
    0.12977E-03        -0.74702E-04         0.00000E+00
    0.13875E-03        -0.84578E-04         0.00000E+00
    0.14758E-03        -0.94598E-04         0.00000E+00
    0.15629E-03        -0.10475E-03         0.00000E+00
    0.16487E-03        -0.11502E-03         0.00000E+00
    0.17335E-03        -0.12542E-03         0.00000E+00
    0.18173E-03        -0.13594E-03         0.00000E+00
    0.19003E-03        -0.14661E-03         0.00000E+00
    0.19827E-03        -0.15744E-03         0.00000E+00
    0.20645E-03        -0.16843E-03         0.00000E+00
    0.21461E-03        -0.17961E-03         0.00000E+00
    0.22276E-03        -0.19100E-03         0.00000E+00
    0.23091E-03        -0.20261E-03         0.00000E+00
    0.23909E-03        -0.21446E-03         0.00000E+00
    0.24731E-03        -0.22656E-03         0.00000E+00
    0.25559E-03        -0.23895E-03         0.00000E+00
    0.26395E-03        -0.25162E-03         0.00000E+00
    0.27240E-03        -0.26461E-03         0.00000E+00
    0.28095E-03        -0.27792E-03         0.00000E+00
    0.28963E-03        -0.29158E-03         0.00000E+00
    0.29843E-03        -0.30561E-03         0.00000E+00
    0.30737E-03        -0.32001E-03         0.00000E+00
    0.31647E-03        -0.33482E-03         0.00000E+00
    0.32572E-03        -0.35004E-03         0.00000E+00
    0.33513E-03        -0.36569E-03         0.00000E+00
    0.34472E-03        -0.38179E-03         0.00000E+00
    0.35448E-03        -0.39836E-03         0.00000E+00
    0.36442E-03        -0.41541E-03         0.00000E+00
    0.37454E-03        -0.43297E-03         0.00000E+00
    0.38484E-03        -0.45104E-03         0.00000E+00
    0.39532E-03        -0.46966E-03         0.00000E+00
    0.40598E-03        -0.48883E-03         0.00000E+00
    0.41682E-03        -0.50857E-03         0.00000E+00
    0.42784E-03        -0.52891E-03         0.00000E+00
    0.43902E-03        -0.54985E-03         0.00000E+00
    0.45038E-03        -0.57143E-03         0.00000E+00
    0.46188E-03        -0.59365E-03         0.00000E+00
    0.47354E-03        -0.61653E-03         0.00000E+00
    0.48534E-03        -0.64010E-03         0.00000E+00
    0.49727E-03        -0.66436E-03         0.00000E+00
    0.50931E-03        -0.68935E-03         0.00000E+00
    0.52145E-03        -0.71507E-03         0.00000E+00
    0.53368E-03        -0.74155E-03         0.00000E+00
    0.54597E-03        -0.76880E-03         0.00000E+00
    0.55831E-03        -0.79684E-03         0.00000E+00
    0.57068E-03        -0.82569E-03         0.00000E+00
    0.58304E-03        -0.85537E-03         0.00000E+00
    0.59539E-03        -0.88589E-03         0.00000E+00
    0.60767E-03        -0.91727E-03         0.00000E+00
    0.61988E-03        -0.94953E-03         0.00000E+00
    0.63196E-03        -0.98268E-03         0.00000E+00
    0.64388E-03        -0.10167E-02         0.00000E+00
    0.65561E-03        -0.10517E-02         0.00000E+00
    0.66710E-03        -0.10877E-02         0.00000E+00
    0.67830E-03        -0.11245E-02         0.00000E+00
    0.68915E-03        -0.11624E-02         0.00000E+00
    0.69961E-03        -0.12012E-02         0.00000E+00
    0.70961E-03        -0.12411E-02         0.00000E+00
    0.71908E-03        -0.12819E-02         0.00000E+00
    0.72796E-03        -0.13238E-02         0.00000E+00
    0.73617E-03        -0.13667E-02         0.00000E+00
    0.74363E-03        -0.14107E-02         0.00000E+00
    0.75025E-03        -0.14557E-02         0.00000E+00
    0.75593E-03        -0.15018E-02         0.00000E+00
    0.76058E-03        -0.15490E-02         0.00000E+00
    0.76410E-03        -0.15972E-02         0.00000E+00
    0.76637E-03        -0.16466E-02         0.00000E+00
    0.76727E-03        -0.16971E-02         0.00000E+00
    0.76670E-03        -0.17487E-02         0.00000E+00
    0.76453E-03        -0.18014E-02         0.00000E+00
    0.76064E-03        -0.18553E-02         0.00000E+00
    0.75491E-03        -0.19103E-02         0.00000E+00
    0.74723E-03        -0.19665E-02         0.00000E+00
    0.73750E-03        -0.20238E-02         0.00000E+00
    0.72560E-03        -0.20822E-02         0.00000E+00
    0.71147E-03        -0.21417E-02         0.00000E+00
    0.69504E-03        -0.22022E-02         0.00000E+00
    0.67625E-03        -0.22636E-02         0.00000E+00
    0.65507E-03        -0.23258E-02         0.00000E+00
    0.63145E-03        -0.23886E-02         0.00000E+00
    0.60536E-03        -0.24518E-02         0.00000E+00
    0.57668E-03        -0.25150E-02         0.00000E+00
    0.54523E-03        -0.25778E-02         0.00000E+00
    0.51064E-03        -0.26396E-02         0.00000E+00
    0.47222E-03        -0.26995E-02         0.00000E+00
    0.42883E-03        -0.27568E-02         0.00000E+00
    0.37853E-03        -0.28102E-02         0.00000E+00
    0.31818E-03        -0.28583E-02         0.00000E+00
    0.24256E-03        -0.28995E-02         0.00000E+00
    0.14189E-03        -0.29301E-02         0.00000E+00
    0.00000E+00        -0.29422E-02         0.00000E+00
    0.00000E+00        -0.47696E-05         0.00000E+00
    0.27823E-04        -0.66508E-05         0.00000E+00
    0.49489E-04        -0.11594E-04         0.00000E+00
    0.67212E-04        -0.18468E-04         0.00000E+00
    0.82503E-04        -0.26661E-04         0.00000E+00
    0.96240E-04        -0.35862E-04         0.00000E+00
    0.10896E-03        -0.45837E-04         0.00000E+00
    0.12100E-03        -0.56406E-04         0.00000E+00
    0.13258E-03        -0.67426E-04         0.00000E+00
    0.14382E-03        -0.78788E-04         0.00000E+00
    0.15480E-03        -0.90415E-04         0.00000E+00
    0.16557E-03        -0.10225E-03         0.00000E+00
    0.17615E-03        -0.11426E-03         0.00000E+00
    0.18657E-03        -0.12643E-03         0.00000E+00
    0.19683E-03        -0.13875E-03         0.00000E+00
    0.20697E-03        -0.15121E-03         0.00000E+00
    0.21698E-03        -0.16384E-03         0.00000E+00
    0.22690E-03        -0.17663E-03         0.00000E+00
    0.23673E-03        -0.18962E-03         0.00000E+00
    0.24651E-03        -0.20281E-03         0.00000E+00
    0.25625E-03        -0.21622E-03         0.00000E+00
    0.26598E-03        -0.22988E-03         0.00000E+00
    0.27571E-03        -0.24382E-03         0.00000E+00
    0.28548E-03        -0.25804E-03         0.00000E+00
    0.29529E-03        -0.27257E-03         0.00000E+00
    0.30518E-03        -0.28743E-03         0.00000E+00
    0.31516E-03        -0.30265E-03         0.00000E+00
    0.32525E-03        -0.31824E-03         0.00000E+00
    0.33546E-03        -0.33423E-03         0.00000E+00
    0.34582E-03        -0.35063E-03         0.00000E+00
    0.35633E-03        -0.36747E-03         0.00000E+00
    0.36701E-03        -0.38477E-03         0.00000E+00
    0.37786E-03        -0.40255E-03         0.00000E+00
    0.38891E-03        -0.42082E-03         0.00000E+00
    0.40015E-03        -0.43962E-03         0.00000E+00
    0.41159E-03        -0.45895E-03         0.00000E+00
    0.42324E-03        -0.47885E-03         0.00000E+00
    0.43511E-03        -0.49933E-03         0.00000E+00
    0.44719E-03        -0.52041E-03         0.00000E+00
    0.45949E-03        -0.54212E-03         0.00000E+00
    0.47200E-03        -0.56447E-03         0.00000E+00
    0.48473E-03        -0.58749E-03         0.00000E+00
    0.49767E-03        -0.61120E-03         0.00000E+00
    0.51082E-03        -0.63561E-03         0.00000E+00
    0.52418E-03        -0.66076E-03         0.00000E+00
    0.53773E-03        -0.68666E-03         0.00000E+00
    0.55147E-03        -0.71334E-03         0.00000E+00
    0.56539E-03        -0.74081E-03         0.00000E+00
    0.57947E-03        -0.76910E-03         0.00000E+00
    0.59371E-03        -0.79823E-03         0.00000E+00
    0.60808E-03        -0.82822E-03         0.00000E+00
    0.62257E-03        -0.85910E-03         0.00000E+00
    0.63717E-03        -0.89088E-03         0.00000E+00
    0.65184E-03        -0.92358E-03         0.00000E+00
    0.66658E-03        -0.95723E-03         0.00000E+00
    0.68134E-03        -0.99186E-03         0.00000E+00
    0.69610E-03        -0.10275E-02         0.00000E+00
    0.71083E-03        -0.10641E-02         0.00000E+00
    0.72550E-03        -0.11017E-02         0.00000E+00
    0.74006E-03        -0.11404E-02         0.00000E+00
    0.75448E-03        -0.11802E-02         0.00000E+00
    0.76872E-03        -0.12211E-02         0.00000E+00
    0.78271E-03        -0.12630E-02         0.00000E+00
    0.79642E-03        -0.13061E-02         0.00000E+00
    0.80978E-03        -0.13504E-02         0.00000E+00
    0.82274E-03        -0.13958E-02         0.00000E+00
    0.83521E-03        -0.14423E-02         0.00000E+00
    0.84715E-03        -0.14901E-02         0.00000E+00
    0.85845E-03        -0.15391E-02         0.00000E+00
    0.86905E-03        -0.15893E-02         0.00000E+00
    0.87884E-03        -0.16407E-02         0.00000E+00
    0.88774E-03        -0.16934E-02         0.00000E+00
    0.89563E-03        -0.17473E-02         0.00000E+00
    0.90241E-03        -0.18025E-02         0.00000E+00
    0.90796E-03        -0.18591E-02         0.00000E+00
    0.91215E-03        -0.19169E-02         0.00000E+00
    0.91485E-03        -0.19760E-02         0.00000E+00
    0.91592E-03        -0.20365E-02         0.00000E+00
    0.91523E-03        -0.20983E-02         0.00000E+00
    0.91263E-03        -0.21614E-02         0.00000E+00
    0.90797E-03        -0.22259E-02         0.00000E+00
    0.90112E-03        -0.22918E-02         0.00000E+00
    0.89192E-03        -0.23590E-02         0.00000E+00
    0.88026E-03        -0.24276E-02         0.00000E+00
    0.86601E-03        -0.24975E-02         0.00000E+00
    0.84908E-03        -0.25687E-02         0.00000E+00
    0.82936E-03        -0.26411E-02         0.00000E+00
    0.80680E-03        -0.27146E-02         0.00000E+00
    0.78133E-03        -0.27890E-02         0.00000E+00
    0.75290E-03        -0.28642E-02         0.00000E+00
    0.72142E-03        -0.29398E-02         0.00000E+00
    0.68678E-03        -0.30154E-02         0.00000E+00
    0.64872E-03        -0.30905E-02         0.00000E+00
    0.60678E-03        -0.31643E-02         0.00000E+00
    0.56016E-03        -0.32359E-02         0.00000E+00
    0.50748E-03        -0.33041E-02         0.00000E+00
    0.44646E-03        -0.33675E-02         0.00000E+00
    0.37347E-03        -0.34244E-02         0.00000E+00
    0.28249E-03        -0.34723E-02         0.00000E+00
    0.16311E-03        -0.35068E-02         0.00000E+00
    0.00000E+00        -0.35200E-02         0.00000E+00
    0.00000E+00        -0.75876E-05         0.00000E+00
    0.31405E-04        -0.96193E-05         0.00000E+00
    0.56389E-04        -0.15085E-04         0.00000E+00
    0.77050E-04        -0.22879E-04         0.00000E+00
    0.94943E-04        -0.32292E-04         0.00000E+00
    0.11104E-03        -0.42929E-04         0.00000E+00
    0.12595E-03        -0.54501E-04         0.00000E+00
    0.14005E-03        -0.66786E-04         0.00000E+00
    0.15359E-03        -0.79609E-04         0.00000E+00
    0.16673E-03        -0.92839E-04         0.00000E+00
    0.17954E-03        -0.10638E-03         0.00000E+00
    0.19208E-03        -0.12017E-03         0.00000E+00
    0.20441E-03        -0.13417E-03         0.00000E+00
    0.21652E-03        -0.14835E-03         0.00000E+00
    0.22846E-03        -0.16271E-03         0.00000E+00
    0.24024E-03        -0.17724E-03         0.00000E+00
    0.25187E-03        -0.19196E-03         0.00000E+00
    0.26339E-03        -0.20688E-03         0.00000E+00
    0.27481E-03        -0.22202E-03         0.00000E+00
    0.28616E-03        -0.23740E-03         0.00000E+00
    0.29747E-03        -0.25305E-03         0.00000E+00
    0.30876E-03        -0.26899E-03         0.00000E+00
    0.32006E-03        -0.28524E-03         0.00000E+00
    0.33139E-03        -0.30184E-03         0.00000E+00
    0.34278E-03        -0.31880E-03         0.00000E+00
    0.35426E-03        -0.33614E-03         0.00000E+00
    0.36584E-03        -0.35390E-03         0.00000E+00
    0.37755E-03        -0.37210E-03         0.00000E+00
    0.38941E-03        -0.39076E-03         0.00000E+00
    0.40143E-03        -0.40991E-03         0.00000E+00
    0.41363E-03        -0.42957E-03         0.00000E+00
    0.42602E-03        -0.44977E-03         0.00000E+00
    0.43862E-03        -0.47052E-03         0.00000E+00
    0.45144E-03        -0.49186E-03         0.00000E+00
    0.46449E-03        -0.51380E-03         0.00000E+00
    0.47777E-03        -0.53638E-03         0.00000E+00
    0.49130E-03        -0.55961E-03         0.00000E+00
    0.50507E-03        -0.58352E-03         0.00000E+00
    0.51909E-03        -0.60813E-03         0.00000E+00
    0.53336E-03        -0.63347E-03         0.00000E+00
    0.54789E-03        -0.65957E-03         0.00000E+00
    0.56266E-03        -0.68644E-03         0.00000E+00
    0.57768E-03        -0.71412E-03         0.00000E+00
    0.59295E-03        -0.74262E-03         0.00000E+00
    0.60845E-03        -0.77197E-03         0.00000E+00
    0.62417E-03        -0.80221E-03         0.00000E+00
    0.64012E-03        -0.83334E-03         0.00000E+00
    0.65627E-03        -0.86541E-03         0.00000E+00
    0.67262E-03        -0.89842E-03         0.00000E+00
    0.68914E-03        -0.93242E-03         0.00000E+00
    0.70582E-03        -0.96742E-03         0.00000E+00
    0.72264E-03        -0.10034E-02         0.00000E+00
    0.73958E-03        -0.10405E-02         0.00000E+00
    0.75661E-03        -0.10787E-02         0.00000E+00
    0.77371E-03        -0.11180E-02         0.00000E+00
    0.79084E-03        -0.11583E-02         0.00000E+00
    0.80797E-03        -0.11999E-02         0.00000E+00
    0.82507E-03        -0.12426E-02         0.00000E+00
    0.84209E-03        -0.12865E-02         0.00000E+00
    0.85899E-03        -0.13317E-02         0.00000E+00
    0.87572E-03        -0.13781E-02         0.00000E+00
    0.89224E-03        -0.14257E-02         0.00000E+00
    0.90848E-03        -0.14746E-02         0.00000E+00
    0.92439E-03        -0.15249E-02         0.00000E+00
    0.93989E-03        -0.15765E-02         0.00000E+00
    0.95492E-03        -0.16294E-02         0.00000E+00
    0.96940E-03        -0.16837E-02         0.00000E+00
    0.98324E-03        -0.17394E-02         0.00000E+00
    0.99636E-03        -0.17964E-02         0.00000E+00
    0.10086E-02        -0.18549E-02         0.00000E+00
    0.10200E-02        -0.19149E-02         0.00000E+00
    0.10303E-02        -0.19763E-02         0.00000E+00
    0.10395E-02        -0.20391E-02         0.00000E+00
    0.10474E-02        -0.21034E-02         0.00000E+00
    0.10538E-02        -0.21693E-02         0.00000E+00
    0.10586E-02        -0.22366E-02         0.00000E+00
    0.10618E-02        -0.23055E-02         0.00000E+00
    0.10630E-02        -0.23759E-02         0.00000E+00
    0.10622E-02        -0.24478E-02         0.00000E+00
    0.10592E-02        -0.25213E-02         0.00000E+00
    0.10538E-02        -0.25964E-02         0.00000E+00
    0.10458E-02        -0.26731E-02         0.00000E+00
    0.10351E-02        -0.27513E-02         0.00000E+00
    0.10215E-02        -0.28311E-02         0.00000E+00
    0.10049E-02        -0.29124E-02         0.00000E+00
    0.98519E-03        -0.29952E-02         0.00000E+00
    0.96220E-03        -0.30795E-02         0.00000E+00
    0.93586E-03        -0.31650E-02         0.00000E+00
    0.90609E-03        -0.32516E-02         0.00000E+00
    0.87281E-03        -0.33390E-02         0.00000E+00
    0.83592E-03        -0.34270E-02         0.00000E+00
    0.79524E-03        -0.35150E-02         0.00000E+00
    0.75047E-03        -0.36022E-02         0.00000E+00
    0.70108E-03        -0.36880E-02         0.00000E+00
    0.64611E-03        -0.37711E-02         0.00000E+00
    0.58398E-03        -0.38501E-02         0.00000E+00
    0.51212E-03        -0.39233E-02         0.00000E+00
    0.42644E-03        -0.39885E-02         0.00000E+00
    0.32028E-03        -0.40428E-02         0.00000E+00
    0.18295E-03        -0.40809E-02         0.00000E+00
    0.00000E+00        -0.40951E-02         0.00000E+00
    0.00000E+00        -0.10862E-04         0.00000E+00
    0.34814E-04        -0.13037E-04         0.00000E+00
    0.63008E-04        -0.18993E-04         0.00000E+00
    0.86567E-04        -0.27663E-04         0.00000E+00
    0.10706E-03        -0.38262E-04         0.00000E+00
    0.12552E-03        -0.50309E-04         0.00000E+00
    0.14262E-03        -0.63460E-04         0.00000E+00
    0.15880E-03        -0.77446E-04         0.00000E+00
    0.17431E-03        -0.92062E-04         0.00000E+00
    0.18933E-03        -0.10715E-03         0.00000E+00
    0.20398E-03        -0.12261E-03         0.00000E+00
    0.21830E-03        -0.13834E-03         0.00000E+00
    0.23235E-03        -0.15432E-03         0.00000E+00
    0.24616E-03        -0.17051E-03         0.00000E+00
    0.25976E-03        -0.18690E-03         0.00000E+00
    0.27316E-03        -0.20350E-03         0.00000E+00
    0.28640E-03        -0.22031E-03         0.00000E+00
    0.29950E-03        -0.23735E-03         0.00000E+00
    0.31249E-03        -0.25464E-03         0.00000E+00
    0.32540E-03        -0.27222E-03         0.00000E+00
    0.33826E-03        -0.29010E-03         0.00000E+00
    0.35110E-03        -0.30832E-03         0.00000E+00
    0.36394E-03        -0.32689E-03         0.00000E+00
    0.37683E-03        -0.34586E-03         0.00000E+00
    0.38978E-03        -0.36524E-03         0.00000E+00
    0.40283E-03        -0.38508E-03         0.00000E+00
    0.41599E-03        -0.40538E-03         0.00000E+00
    0.42931E-03        -0.42619E-03         0.00000E+00
    0.44279E-03        -0.44753E-03         0.00000E+00
    0.45645E-03        -0.46943E-03         0.00000E+00
    0.47032E-03        -0.49191E-03         0.00000E+00
    0.48441E-03        -0.51501E-03         0.00000E+00
    0.49874E-03        -0.53874E-03         0.00000E+00
    0.51331E-03        -0.56314E-03         0.00000E+00
    0.52815E-03        -0.58824E-03         0.00000E+00
    0.54325E-03        -0.61406E-03         0.00000E+00
    0.55863E-03        -0.64063E-03         0.00000E+00
    0.57429E-03        -0.66797E-03         0.00000E+00
    0.59023E-03        -0.69612E-03         0.00000E+00
    0.60645E-03        -0.72510E-03         0.00000E+00
    0.62297E-03        -0.75494E-03         0.00000E+00
    0.63977E-03        -0.78567E-03         0.00000E+00
    0.65685E-03        -0.81732E-03         0.00000E+00
    0.67420E-03        -0.84992E-03         0.00000E+00
    0.69182E-03        -0.88348E-03         0.00000E+00
    0.70970E-03        -0.91805E-03         0.00000E+00
    0.72783E-03        -0.95365E-03         0.00000E+00
    0.74620E-03        -0.99031E-03         0.00000E+00
    0.76478E-03        -0.10281E-02         0.00000E+00
    0.78356E-03        -0.10669E-02         0.00000E+00
    0.80253E-03        -0.11069E-02         0.00000E+00
    0.82165E-03        -0.11481E-02         0.00000E+00
    0.84091E-03        -0.11905E-02         0.00000E+00
    0.86027E-03        -0.12341E-02         0.00000E+00
    0.87971E-03        -0.12790E-02         0.00000E+00
    0.89918E-03        -0.13252E-02         0.00000E+00
    0.91866E-03        -0.13726E-02         0.00000E+00
    0.93809E-03        -0.14215E-02         0.00000E+00
    0.95744E-03        -0.14716E-02         0.00000E+00
    0.97666E-03        -0.15232E-02         0.00000E+00
    0.99568E-03        -0.15762E-02         0.00000E+00
    0.10145E-02        -0.16307E-02         0.00000E+00
    0.10329E-02        -0.16866E-02         0.00000E+00
    0.10510E-02        -0.17440E-02         0.00000E+00
    0.10686E-02        -0.18029E-02         0.00000E+00
    0.10857E-02        -0.18633E-02         0.00000E+00
    0.11022E-02        -0.19253E-02         0.00000E+00
    0.11179E-02        -0.19889E-02         0.00000E+00
    0.11328E-02        -0.20541E-02         0.00000E+00
    0.11468E-02        -0.21208E-02         0.00000E+00
    0.11597E-02        -0.21893E-02         0.00000E+00
    0.11714E-02        -0.22593E-02         0.00000E+00
    0.11818E-02        -0.23310E-02         0.00000E+00
    0.11908E-02        -0.24045E-02         0.00000E+00
    0.11981E-02        -0.24796E-02         0.00000E+00
    0.12036E-02        -0.25564E-02         0.00000E+00
    0.12072E-02        -0.26350E-02         0.00000E+00
    0.12086E-02        -0.27152E-02         0.00000E+00
    0.12077E-02        -0.27973E-02         0.00000E+00
    0.12042E-02        -0.28811E-02         0.00000E+00
    0.11980E-02        -0.29667E-02         0.00000E+00
    0.11890E-02        -0.30541E-02         0.00000E+00
    0.11768E-02        -0.31433E-02         0.00000E+00
    0.11613E-02        -0.32343E-02         0.00000E+00
    0.11424E-02        -0.33270E-02         0.00000E+00
    0.11198E-02        -0.34213E-02         0.00000E+00
    0.10936E-02        -0.35173E-02         0.00000E+00
    0.10635E-02        -0.36148E-02         0.00000E+00
    0.10294E-02        -0.37135E-02         0.00000E+00
    0.99124E-03        -0.38131E-02         0.00000E+00
    0.94888E-03        -0.39134E-02         0.00000E+00
    0.90211E-03        -0.40136E-02         0.00000E+00
    0.85055E-03        -0.41130E-02         0.00000E+00
    0.79359E-03        -0.42106E-02         0.00000E+00
    0.73014E-03        -0.43050E-02         0.00000E+00
    0.65845E-03        -0.43947E-02         0.00000E+00
    0.57565E-03        -0.44775E-02         0.00000E+00
    0.47726E-03        -0.45508E-02         0.00000E+00
    0.35617E-03        -0.46111E-02         0.00000E+00
    0.20162E-03        -0.46526E-02         0.00000E+00
    0.00000E+00        -0.46678E-02         0.00000E+00
    0.00000E+00        -0.14565E-04         0.00000E+00
    0.38076E-04        -0.16878E-04         0.00000E+00
    0.69377E-04        -0.23305E-04         0.00000E+00
    0.95786E-04        -0.32815E-04         0.00000E+00
    0.11886E-03        -0.44567E-04         0.00000E+00
    0.13969E-03        -0.58002E-04         0.00000E+00
    0.15900E-03        -0.72714E-04         0.00000E+00
    0.17725E-03        -0.88388E-04         0.00000E+00
    0.19474E-03        -0.10479E-03         0.00000E+00
    0.21165E-03        -0.12173E-03         0.00000E+00
    0.22812E-03        -0.13908E-03         0.00000E+00
    0.24422E-03        -0.15676E-03         0.00000E+00
    0.25999E-03        -0.17472E-03         0.00000E+00
    0.27548E-03        -0.19291E-03         0.00000E+00
    0.29072E-03        -0.21133E-03         0.00000E+00
    0.30574E-03        -0.22998E-03         0.00000E+00
    0.32057E-03        -0.24888E-03         0.00000E+00
    0.33524E-03        -0.26804E-03         0.00000E+00
    0.34978E-03        -0.28749E-03         0.00000E+00
    0.36423E-03        -0.30725E-03         0.00000E+00
    0.37862E-03        -0.32737E-03         0.00000E+00
    0.39299E-03        -0.34786E-03         0.00000E+00
    0.40736E-03        -0.36876E-03         0.00000E+00
    0.42178E-03        -0.39010E-03         0.00000E+00
    0.43628E-03        -0.41191E-03         0.00000E+00
    0.45088E-03        -0.43423E-03         0.00000E+00
    0.46561E-03        -0.45708E-03         0.00000E+00
    0.48051E-03        -0.48050E-03         0.00000E+00
    0.49560E-03        -0.50452E-03         0.00000E+00
    0.51089E-03        -0.52917E-03         0.00000E+00
    0.52641E-03        -0.55448E-03         0.00000E+00
    0.54218E-03        -0.58048E-03         0.00000E+00
    0.55821E-03        -0.60720E-03         0.00000E+00
    0.57453E-03        -0.63467E-03         0.00000E+00
    0.59113E-03        -0.66293E-03         0.00000E+00
    0.60803E-03        -0.69199E-03         0.00000E+00
    0.62524E-03        -0.72190E-03         0.00000E+00
    0.64276E-03        -0.75269E-03         0.00000E+00
    0.66060E-03        -0.78438E-03         0.00000E+00
    0.67877E-03        -0.81700E-03         0.00000E+00
    0.69725E-03        -0.85059E-03         0.00000E+00
    0.71605E-03        -0.88519E-03         0.00000E+00
    0.73516E-03        -0.92081E-03         0.00000E+00
    0.75458E-03        -0.95750E-03         0.00000E+00
    0.77430E-03        -0.99528E-03         0.00000E+00
    0.79432E-03        -0.10342E-02         0.00000E+00
    0.81460E-03        -0.10743E-02         0.00000E+00
    0.83516E-03        -0.11155E-02         0.00000E+00
    0.85595E-03        -0.11580E-02         0.00000E+00
    0.87698E-03        -0.12017E-02         0.00000E+00
    0.89820E-03        -0.12468E-02         0.00000E+00
    0.91960E-03        -0.12931E-02         0.00000E+00
    0.94115E-03        -0.13408E-02         0.00000E+00
    0.96282E-03        -0.13899E-02         0.00000E+00
    0.98457E-03        -0.14404E-02         0.00000E+00
    0.10064E-02        -0.14923E-02         0.00000E+00
    0.10282E-02        -0.15457E-02         0.00000E+00
    0.10499E-02        -0.16006E-02         0.00000E+00
    0.10716E-02        -0.16571E-02         0.00000E+00
    0.10931E-02        -0.17151E-02         0.00000E+00
    0.11144E-02        -0.17747E-02         0.00000E+00
    0.11354E-02        -0.18359E-02         0.00000E+00
    0.11560E-02        -0.18988E-02         0.00000E+00
    0.11763E-02        -0.19633E-02         0.00000E+00
    0.11960E-02        -0.20295E-02         0.00000E+00
    0.12151E-02        -0.20975E-02         0.00000E+00
    0.12335E-02        -0.21672E-02         0.00000E+00
    0.12511E-02        -0.22386E-02         0.00000E+00
    0.12678E-02        -0.23119E-02         0.00000E+00
    0.12834E-02        -0.23869E-02         0.00000E+00
    0.12979E-02        -0.24638E-02         0.00000E+00
    0.13110E-02        -0.25425E-02         0.00000E+00
    0.13227E-02        -0.26231E-02         0.00000E+00
    0.13327E-02        -0.27056E-02         0.00000E+00
    0.13409E-02        -0.27900E-02         0.00000E+00
    0.13471E-02        -0.28762E-02         0.00000E+00
    0.13510E-02        -0.29645E-02         0.00000E+00
    0.13526E-02        -0.30546E-02         0.00000E+00
    0.13516E-02        -0.31467E-02         0.00000E+00
    0.13477E-02        -0.32408E-02         0.00000E+00
    0.13408E-02        -0.33369E-02         0.00000E+00
    0.13306E-02        -0.34350E-02         0.00000E+00
    0.13170E-02        -0.35351E-02         0.00000E+00
    0.12996E-02        -0.36371E-02         0.00000E+00
    0.12784E-02        -0.37411E-02         0.00000E+00
    0.12531E-02        -0.38470E-02         0.00000E+00
    0.12236E-02        -0.39547E-02         0.00000E+00
    0.11897E-02        -0.40640E-02         0.00000E+00
    0.11513E-02        -0.41747E-02         0.00000E+00
    0.11082E-02        -0.42865E-02         0.00000E+00
    0.10604E-02        -0.43989E-02         0.00000E+00
    0.10074E-02        -0.45112E-02         0.00000E+00
    0.94901E-03        -0.46227E-02         0.00000E+00
    0.88438E-03        -0.47320E-02         0.00000E+00
    0.81235E-03        -0.48377E-02         0.00000E+00
    0.73098E-03        -0.49379E-02         0.00000E+00
    0.63718E-03        -0.50302E-02         0.00000E+00
    0.52612E-03        -0.51113E-02         0.00000E+00
    0.39038E-03        -0.51773E-02         0.00000E+00
    0.21929E-03        -0.52221E-02         0.00000E+00
    0.00000E+00        -0.52382E-02         0.00000E+00
    0.00000E+00        -0.18672E-04         0.00000E+00
    0.41208E-04        -0.21123E-04         0.00000E+00
    0.75521E-04        -0.28005E-04         0.00000E+00
    0.10473E-03        -0.38328E-04         0.00000E+00
    0.13037E-03        -0.51206E-04         0.00000E+00
    0.15357E-03        -0.66006E-04         0.00000E+00
    0.17509E-03        -0.82261E-04         0.00000E+00
    0.19541E-03        -0.99611E-04         0.00000E+00
    0.21488E-03        -0.11778E-03         0.00000E+00
    0.23369E-03        -0.13656E-03         0.00000E+00
    0.25198E-03        -0.15581E-03         0.00000E+00
    0.26984E-03        -0.17543E-03         0.00000E+00
    0.28733E-03        -0.19535E-03         0.00000E+00
    0.30449E-03        -0.21554E-03         0.00000E+00
    0.32136E-03        -0.23599E-03         0.00000E+00
    0.33798E-03        -0.25669E-03         0.00000E+00
    0.35438E-03        -0.27767E-03         0.00000E+00
    0.37061E-03        -0.29895E-03         0.00000E+00
    0.38668E-03        -0.32055E-03         0.00000E+00
    0.40265E-03        -0.34250E-03         0.00000E+00
    0.41856E-03        -0.36484E-03         0.00000E+00
    0.43444E-03        -0.38761E-03         0.00000E+00
    0.45032E-03        -0.41083E-03         0.00000E+00
    0.46626E-03        -0.43455E-03         0.00000E+00
    0.48228E-03        -0.45879E-03         0.00000E+00
    0.49842E-03        -0.48360E-03         0.00000E+00
    0.51470E-03        -0.50900E-03         0.00000E+00
    0.53117E-03        -0.53504E-03         0.00000E+00
    0.54784E-03        -0.56174E-03         0.00000E+00
    0.56474E-03        -0.58914E-03         0.00000E+00
    0.58189E-03        -0.61728E-03         0.00000E+00
    0.59932E-03        -0.64619E-03         0.00000E+00
    0.61705E-03        -0.67590E-03         0.00000E+00
    0.63507E-03        -0.70644E-03         0.00000E+00
    0.65342E-03        -0.73786E-03         0.00000E+00
    0.67211E-03        -0.77018E-03         0.00000E+00
    0.69113E-03        -0.80343E-03         0.00000E+00
    0.71050E-03        -0.83766E-03         0.00000E+00
    0.73022E-03        -0.87289E-03         0.00000E+00
    0.75029E-03        -0.90917E-03         0.00000E+00
    0.77072E-03        -0.94652E-03         0.00000E+00
    0.79150E-03        -0.98498E-03         0.00000E+00
    0.81262E-03        -0.10246E-02         0.00000E+00
    0.83409E-03        -0.10654E-02         0.00000E+00
    0.85589E-03        -0.11074E-02         0.00000E+00
    0.87801E-03        -0.11506E-02         0.00000E+00
    0.90044E-03        -0.11952E-02         0.00000E+00
    0.92315E-03        -0.12410E-02         0.00000E+00
    0.94614E-03        -0.12882E-02         0.00000E+00
    0.96938E-03        -0.13369E-02         0.00000E+00
    0.99284E-03        -0.13869E-02         0.00000E+00
    0.10165E-02        -0.14384E-02         0.00000E+00
    0.10403E-02        -0.14914E-02         0.00000E+00
    0.10643E-02        -0.15459E-02         0.00000E+00
    0.10883E-02        -0.16020E-02         0.00000E+00
    0.11124E-02        -0.16598E-02         0.00000E+00
    0.11365E-02        -0.17191E-02         0.00000E+00
    0.11605E-02        -0.17801E-02         0.00000E+00
    0.11845E-02        -0.18428E-02         0.00000E+00
    0.12082E-02        -0.19072E-02         0.00000E+00
    0.12318E-02        -0.19734E-02         0.00000E+00
    0.12550E-02        -0.20414E-02         0.00000E+00
    0.12778E-02        -0.21113E-02         0.00000E+00
    0.13002E-02        -0.21829E-02         0.00000E+00
    0.13220E-02        -0.22565E-02         0.00000E+00
    0.13431E-02        -0.23319E-02         0.00000E+00
    0.13635E-02        -0.24093E-02         0.00000E+00
    0.13829E-02        -0.24886E-02         0.00000E+00
    0.14014E-02        -0.25699E-02         0.00000E+00
    0.14187E-02        -0.26533E-02         0.00000E+00
    0.14346E-02        -0.27386E-02         0.00000E+00
    0.14492E-02        -0.28259E-02         0.00000E+00
    0.14620E-02        -0.29154E-02         0.00000E+00
    0.14731E-02        -0.30069E-02         0.00000E+00
    0.14822E-02        -0.31004E-02         0.00000E+00
    0.14890E-02        -0.31961E-02         0.00000E+00
    0.14934E-02        -0.32940E-02         0.00000E+00
    0.14952E-02        -0.33940E-02         0.00000E+00
    0.14940E-02        -0.34961E-02         0.00000E+00
    0.14898E-02        -0.36004E-02         0.00000E+00
    0.14821E-02        -0.37069E-02         0.00000E+00
    0.14709E-02        -0.38156E-02         0.00000E+00
    0.14557E-02        -0.39266E-02         0.00000E+00
    0.14365E-02        -0.40396E-02         0.00000E+00
    0.14130E-02        -0.41549E-02         0.00000E+00
    0.13849E-02        -0.42722E-02         0.00000E+00
    0.13522E-02        -0.43915E-02         0.00000E+00
    0.13145E-02        -0.45126E-02         0.00000E+00
    0.12718E-02        -0.46353E-02         0.00000E+00
    0.12238E-02        -0.47591E-02         0.00000E+00
    0.11704E-02        -0.48836E-02         0.00000E+00
    0.11113E-02        -0.50080E-02         0.00000E+00
    0.10459E-02        -0.51314E-02         0.00000E+00
    0.97353E-03        -0.52523E-02         0.00000E+00
    0.89282E-03        -0.53692E-02         0.00000E+00
    0.80169E-03        -0.54798E-02         0.00000E+00
    0.69684E-03        -0.55812E-02         0.00000E+00
    0.57318E-03        -0.56701E-02         0.00000E+00
    0.42308E-03        -0.57416E-02         0.00000E+00
    0.23608E-03        -0.57895E-02         0.00000E+00
    0.00000E+00        -0.58066E-02         0.00000E+00
    0.00000E+00        -0.23163E-04         0.00000E+00
    0.44225E-04        -0.25750E-04         0.00000E+00
    0.81461E-04        -0.33078E-04         0.00000E+00
    0.11342E-03        -0.44192E-04         0.00000E+00
    0.14161E-03        -0.58173E-04         0.00000E+00
    0.16717E-03        -0.74319E-04         0.00000E+00
    0.19089E-03        -0.92102E-04         0.00000E+00
    0.21330E-03        -0.11111E-03         0.00000E+00
    0.23474E-03        -0.13104E-03         0.00000E+00
    0.25545E-03        -0.15166E-03         0.00000E+00
    0.27556E-03        -0.17279E-03         0.00000E+00
    0.29517E-03        -0.19434E-03         0.00000E+00
    0.31436E-03        -0.21622E-03         0.00000E+00
    0.33318E-03        -0.23840E-03         0.00000E+00
    0.35167E-03        -0.26087E-03         0.00000E+00
    0.36988E-03        -0.28362E-03         0.00000E+00
    0.38784E-03        -0.30668E-03         0.00000E+00
    0.40560E-03        -0.33007E-03         0.00000E+00
    0.42319E-03        -0.35382E-03         0.00000E+00
    0.44067E-03        -0.37796E-03         0.00000E+00
    0.45807E-03        -0.40253E-03         0.00000E+00
    0.47544E-03        -0.42757E-03         0.00000E+00
    0.49282E-03        -0.45312E-03         0.00000E+00
    0.51026E-03        -0.47921E-03         0.00000E+00
    0.52778E-03        -0.50588E-03         0.00000E+00
    0.54544E-03        -0.53317E-03         0.00000E+00
    0.56325E-03        -0.56113E-03         0.00000E+00
    0.58127E-03        -0.58978E-03         0.00000E+00
    0.59951E-03        -0.61917E-03         0.00000E+00
    0.61800E-03        -0.64934E-03         0.00000E+00
    0.63677E-03        -0.68031E-03         0.00000E+00
    0.65584E-03        -0.71212E-03         0.00000E+00
    0.67523E-03        -0.74483E-03         0.00000E+00
    0.69496E-03        -0.77845E-03         0.00000E+00
    0.71504E-03        -0.81303E-03         0.00000E+00
    0.73548E-03        -0.84860E-03         0.00000E+00
    0.75629E-03        -0.88521E-03         0.00000E+00
    0.77748E-03        -0.92288E-03         0.00000E+00
    0.79906E-03        -0.96167E-03         0.00000E+00
    0.82103E-03        -0.10016E-02         0.00000E+00
    0.84338E-03        -0.10427E-02         0.00000E+00
    0.86612E-03        -0.10850E-02         0.00000E+00
    0.88924E-03        -0.11286E-02         0.00000E+00
    0.91273E-03        -0.11735E-02         0.00000E+00
    0.93658E-03        -0.12197E-02         0.00000E+00
    0.96078E-03        -0.12673E-02         0.00000E+00
    0.98532E-03        -0.13164E-02         0.00000E+00
    0.10102E-02        -0.13668E-02         0.00000E+00
    0.10353E-02        -0.14188E-02         0.00000E+00
    0.10608E-02        -0.14723E-02         0.00000E+00
    0.10864E-02        -0.15273E-02         0.00000E+00
    0.11123E-02        -0.15840E-02         0.00000E+00
    0.11384E-02        -0.16423E-02         0.00000E+00
    0.11646E-02        -0.17023E-02         0.00000E+00
    0.11909E-02        -0.17640E-02         0.00000E+00
    0.12173E-02        -0.18275E-02         0.00000E+00
    0.12436E-02        -0.18928E-02         0.00000E+00
    0.12699E-02        -0.19599E-02         0.00000E+00
    0.12961E-02        -0.20288E-02         0.00000E+00
    0.13221E-02        -0.20997E-02         0.00000E+00
    0.13479E-02        -0.21725E-02         0.00000E+00
    0.13733E-02        -0.22473E-02         0.00000E+00
    0.13983E-02        -0.23240E-02         0.00000E+00
    0.14228E-02        -0.24028E-02         0.00000E+00
    0.14466E-02        -0.24837E-02         0.00000E+00
    0.14697E-02        -0.25666E-02         0.00000E+00
    0.14920E-02        -0.26517E-02         0.00000E+00
    0.15133E-02        -0.27389E-02         0.00000E+00
    0.15335E-02        -0.28282E-02         0.00000E+00
    0.15524E-02        -0.29198E-02         0.00000E+00
    0.15699E-02        -0.30135E-02         0.00000E+00
    0.15858E-02        -0.31095E-02         0.00000E+00
    0.15999E-02        -0.32077E-02         0.00000E+00
    0.16120E-02        -0.33082E-02         0.00000E+00
    0.16220E-02        -0.34110E-02         0.00000E+00
    0.16295E-02        -0.35161E-02         0.00000E+00
    0.16343E-02        -0.36235E-02         0.00000E+00
    0.16362E-02        -0.37333E-02         0.00000E+00
    0.16350E-02        -0.38454E-02         0.00000E+00
    0.16303E-02        -0.39599E-02         0.00000E+00
    0.16220E-02        -0.40768E-02         0.00000E+00
    0.16097E-02        -0.41961E-02         0.00000E+00
    0.15931E-02        -0.43178E-02         0.00000E+00
    0.15721E-02        -0.44419E-02         0.00000E+00
    0.15462E-02        -0.45683E-02         0.00000E+00
    0.15154E-02        -0.46970E-02         0.00000E+00
    0.14794E-02        -0.48278E-02         0.00000E+00
    0.14380E-02        -0.49606E-02         0.00000E+00
    0.13909E-02        -0.50951E-02         0.00000E+00
    0.13380E-02        -0.52309E-02         0.00000E+00
    0.12791E-02        -0.53674E-02         0.00000E+00
    0.12137E-02        -0.55038E-02         0.00000E+00
    0.11413E-02        -0.56390E-02         0.00000E+00
    0.10611E-02        -0.57715E-02         0.00000E+00
    0.97163E-03        -0.58994E-02         0.00000E+00
    0.87068E-03        -0.60202E-02         0.00000E+00
    0.75476E-03        -0.61308E-02         0.00000E+00
    0.61859E-03        -0.62271E-02         0.00000E+00
    0.45445E-03        -0.63040E-02         0.00000E+00
    0.25212E-03        -0.63549E-02         0.00000E+00
    0.00000E+00        -0.63729E-02         0.00000E+00
    0.00000E+00        -0.28019E-04         0.00000E+00
    0.47141E-04        -0.30743E-04         0.00000E+00
    0.87217E-04        -0.38511E-04         0.00000E+00
    0.12187E-03        -0.50401E-04         0.00000E+00
    0.15258E-03        -0.65464E-04         0.00000E+00
    0.18050E-03        -0.82939E-04         0.00000E+00
    0.20642E-03        -0.10224E-03         0.00000E+00
    0.23091E-03        -0.12290E-03         0.00000E+00
    0.25433E-03        -0.14458E-03         0.00000E+00
    0.27693E-03        -0.16701E-03         0.00000E+00
    0.29885E-03        -0.19002E-03         0.00000E+00
    0.32022E-03        -0.21349E-03         0.00000E+00
    0.34110E-03        -0.23732E-03         0.00000E+00
    0.36157E-03        -0.26149E-03         0.00000E+00
    0.38166E-03        -0.28598E-03         0.00000E+00
    0.40144E-03        -0.31078E-03         0.00000E+00
    0.42094E-03        -0.33591E-03         0.00000E+00
    0.44021E-03        -0.36141E-03         0.00000E+00
    0.45931E-03        -0.38730E-03         0.00000E+00
    0.47827E-03        -0.41363E-03         0.00000E+00
    0.49716E-03        -0.44043E-03         0.00000E+00
    0.51600E-03        -0.46774E-03         0.00000E+00
    0.53486E-03        -0.49561E-03         0.00000E+00
    0.55377E-03        -0.52407E-03         0.00000E+00
    0.57279E-03        -0.55318E-03         0.00000E+00
    0.59194E-03        -0.58296E-03         0.00000E+00
    0.61127E-03        -0.61347E-03         0.00000E+00
    0.63081E-03        -0.64475E-03         0.00000E+00
    0.65060E-03        -0.67682E-03         0.00000E+00
    0.67067E-03        -0.70975E-03         0.00000E+00
    0.69103E-03        -0.74355E-03         0.00000E+00
    0.71173E-03        -0.77829E-03         0.00000E+00
    0.73277E-03        -0.81398E-03         0.00000E+00
    0.75417E-03        -0.85069E-03         0.00000E+00
    0.77596E-03        -0.88843E-03         0.00000E+00
    0.79814E-03        -0.92727E-03         0.00000E+00
    0.82073E-03        -0.96723E-03         0.00000E+00
    0.84372E-03        -0.10084E-02         0.00000E+00
    0.86714E-03        -0.10507E-02         0.00000E+00
    0.89098E-03        -0.10943E-02         0.00000E+00
    0.91523E-03        -0.11392E-02         0.00000E+00
    0.93991E-03        -0.11854E-02         0.00000E+00
    0.96499E-03        -0.12329E-02         0.00000E+00
    0.99048E-03        -0.12819E-02         0.00000E+00
    0.10164E-02        -0.13324E-02         0.00000E+00
    0.10426E-02        -0.13843E-02         0.00000E+00
    0.10693E-02        -0.14378E-02         0.00000E+00
    0.10962E-02        -0.14929E-02         0.00000E+00
    0.11235E-02        -0.15496E-02         0.00000E+00
    0.11511E-02        -0.16080E-02         0.00000E+00
    0.11790E-02        -0.16681E-02         0.00000E+00
    0.12071E-02        -0.17299E-02         0.00000E+00
    0.12354E-02        -0.17935E-02         0.00000E+00
    0.12638E-02        -0.18590E-02         0.00000E+00
    0.12924E-02        -0.19263E-02         0.00000E+00
    0.13210E-02        -0.19956E-02         0.00000E+00
    0.13496E-02        -0.20668E-02         0.00000E+00
    0.13781E-02        -0.21400E-02         0.00000E+00
    0.14065E-02        -0.22152E-02         0.00000E+00
    0.14348E-02        -0.22925E-02         0.00000E+00
    0.14627E-02        -0.23719E-02         0.00000E+00
    0.14903E-02        -0.24534E-02         0.00000E+00
    0.15174E-02        -0.25371E-02         0.00000E+00
    0.15440E-02        -0.26230E-02         0.00000E+00
    0.15699E-02        -0.27112E-02         0.00000E+00
    0.15950E-02        -0.28016E-02         0.00000E+00
    0.16192E-02        -0.28943E-02         0.00000E+00
    0.16423E-02        -0.29893E-02         0.00000E+00
    0.16642E-02        -0.30867E-02         0.00000E+00
    0.16847E-02        -0.31865E-02         0.00000E+00
    0.17037E-02        -0.32886E-02         0.00000E+00
    0.17210E-02        -0.33932E-02         0.00000E+00
    0.17363E-02        -0.35002E-02         0.00000E+00
    0.17495E-02        -0.36097E-02         0.00000E+00
    0.17603E-02        -0.37217E-02         0.00000E+00
    0.17684E-02        -0.38361E-02         0.00000E+00
    0.17737E-02        -0.39531E-02         0.00000E+00
    0.17758E-02        -0.40726E-02         0.00000E+00
    0.17745E-02        -0.41947E-02         0.00000E+00
    0.17695E-02        -0.43193E-02         0.00000E+00
    0.17604E-02        -0.44465E-02         0.00000E+00
    0.17471E-02        -0.45763E-02         0.00000E+00
    0.17291E-02        -0.47087E-02         0.00000E+00
    0.17062E-02        -0.48437E-02         0.00000E+00
    0.16781E-02        -0.49813E-02         0.00000E+00
    0.16446E-02        -0.51213E-02         0.00000E+00
    0.16054E-02        -0.52636E-02         0.00000E+00
    0.15602E-02        -0.54081E-02         0.00000E+00
    0.15088E-02        -0.55543E-02         0.00000E+00
    0.14510E-02        -0.57020E-02         0.00000E+00
    0.13864E-02        -0.58504E-02         0.00000E+00
    0.13147E-02        -0.59987E-02         0.00000E+00
    0.12353E-02        -0.61457E-02         0.00000E+00
    0.11472E-02        -0.62896E-02         0.00000E+00
    0.10489E-02        -0.64284E-02         0.00000E+00
    0.93805E-03        -0.65593E-02         0.00000E+00
    0.81106E-03        -0.66788E-02         0.00000E+00
    0.66250E-03        -0.67825E-02         0.00000E+00
    0.48463E-03        -0.68647E-02         0.00000E+00
    0.26748E-03        -0.69185E-02         0.00000E+00
    0.00000E+00        -0.69375E-02         0.00000E+00
    0.00000E+00        -0.33221E-04         0.00000E+00
    0.49964E-04        -0.36083E-04         0.00000E+00
    0.92806E-04        -0.44289E-04         0.00000E+00
    0.13011E-03        -0.56944E-04         0.00000E+00
    0.16332E-03        -0.73075E-04         0.00000E+00
    0.19357E-03        -0.91863E-04         0.00000E+00
    0.22170E-03        -0.11266E-03         0.00000E+00
    0.24827E-03        -0.13496E-03         0.00000E+00
    0.27366E-03        -0.15837E-03         0.00000E+00
    0.29814E-03        -0.18262E-03         0.00000E+00
    0.32188E-03        -0.20750E-03         0.00000E+00
    0.34498E-03        -0.23288E-03         0.00000E+00
    0.36755E-03        -0.25866E-03         0.00000E+00
    0.38965E-03        -0.28481E-03         0.00000E+00
    0.41133E-03        -0.31130E-03         0.00000E+00
    0.43266E-03        -0.33815E-03         0.00000E+00
    0.45369E-03        -0.36535E-03         0.00000E+00
    0.47446E-03        -0.39296E-03         0.00000E+00
    0.49504E-03        -0.42099E-03         0.00000E+00
    0.51547E-03        -0.44950E-03         0.00000E+00
    0.53581E-03        -0.47853E-03         0.00000E+00
    0.55612E-03        -0.50811E-03         0.00000E+00
    0.57643E-03        -0.53830E-03         0.00000E+00
    0.59681E-03        -0.56914E-03         0.00000E+00
    0.61729E-03        -0.60068E-03         0.00000E+00
    0.63792E-03        -0.63296E-03         0.00000E+00
    0.65875E-03        -0.66602E-03         0.00000E+00
    0.67980E-03        -0.69992E-03         0.00000E+00
    0.70112E-03        -0.73468E-03         0.00000E+00
    0.72274E-03        -0.77037E-03         0.00000E+00
    0.74469E-03        -0.80702E-03         0.00000E+00
    0.76698E-03        -0.84467E-03         0.00000E+00
    0.78965E-03        -0.88336E-03         0.00000E+00
    0.81272E-03        -0.92315E-03         0.00000E+00
    0.83619E-03        -0.96407E-03         0.00000E+00
    0.86009E-03        -0.10062E-02         0.00000E+00
    0.88443E-03        -0.10495E-02         0.00000E+00
    0.90921E-03        -0.10941E-02         0.00000E+00
    0.93445E-03        -0.11400E-02         0.00000E+00
    0.96013E-03        -0.11872E-02         0.00000E+00
    0.98627E-03        -0.12359E-02         0.00000E+00
    0.10129E-02        -0.12859E-02         0.00000E+00
    0.10399E-02        -0.13375E-02         0.00000E+00
    0.10674E-02        -0.13906E-02         0.00000E+00
    0.10953E-02        -0.14453E-02         0.00000E+00
    0.11236E-02        -0.15016E-02         0.00000E+00
    0.11523E-02        -0.15596E-02         0.00000E+00
    0.11813E-02        -0.16193E-02         0.00000E+00
    0.12107E-02        -0.16807E-02         0.00000E+00
    0.12405E-02        -0.17440E-02         0.00000E+00
    0.12705E-02        -0.18091E-02         0.00000E+00
    0.13008E-02        -0.18761E-02         0.00000E+00
    0.13313E-02        -0.19450E-02         0.00000E+00
    0.13619E-02        -0.20160E-02         0.00000E+00
    0.13927E-02        -0.20889E-02         0.00000E+00
    0.14235E-02        -0.21639E-02         0.00000E+00
    0.14543E-02        -0.22410E-02         0.00000E+00
    0.14851E-02        -0.23203E-02         0.00000E+00
    0.15158E-02        -0.24018E-02         0.00000E+00
    0.15462E-02        -0.24855E-02         0.00000E+00
    0.15763E-02        -0.25715E-02         0.00000E+00
    0.16060E-02        -0.26598E-02         0.00000E+00
    0.16353E-02        -0.27504E-02         0.00000E+00
    0.16639E-02        -0.28435E-02         0.00000E+00
    0.16918E-02        -0.29389E-02         0.00000E+00
    0.17189E-02        -0.30368E-02         0.00000E+00
    0.17449E-02        -0.31372E-02         0.00000E+00
    0.17699E-02        -0.32400E-02         0.00000E+00
    0.17935E-02        -0.33454E-02         0.00000E+00
    0.18156E-02        -0.34534E-02         0.00000E+00
    0.18361E-02        -0.35639E-02         0.00000E+00
    0.18547E-02        -0.36771E-02         0.00000E+00
    0.18713E-02        -0.37929E-02         0.00000E+00
    0.18855E-02        -0.39113E-02         0.00000E+00
    0.18971E-02        -0.40324E-02         0.00000E+00
    0.19060E-02        -0.41562E-02         0.00000E+00
    0.19117E-02        -0.42827E-02         0.00000E+00
    0.19140E-02        -0.44119E-02         0.00000E+00
    0.19126E-02        -0.45438E-02         0.00000E+00
    0.19072E-02        -0.46786E-02         0.00000E+00
    0.18975E-02        -0.48161E-02         0.00000E+00
    0.18831E-02        -0.49564E-02         0.00000E+00
    0.18637E-02        -0.50995E-02         0.00000E+00
    0.18390E-02        -0.52453E-02         0.00000E+00
    0.18087E-02        -0.53939E-02         0.00000E+00
    0.17725E-02        -0.55451E-02         0.00000E+00
    0.17300E-02        -0.56989E-02         0.00000E+00
    0.16811E-02        -0.58549E-02         0.00000E+00
    0.16254E-02        -0.60129E-02         0.00000E+00
    0.15626E-02        -0.61723E-02         0.00000E+00
    0.14925E-02        -0.63326E-02         0.00000E+00
    0.14144E-02        -0.64927E-02         0.00000E+00
    0.13279E-02        -0.66512E-02         0.00000E+00
    0.12318E-02        -0.68065E-02         0.00000E+00
    0.11246E-02        -0.69561E-02         0.00000E+00
    0.10039E-02        -0.70970E-02         0.00000E+00
    0.86587E-03        -0.72254E-02         0.00000E+00
    0.70504E-03        -0.73362E-02         0.00000E+00
    0.51373E-03        -0.74236E-02         0.00000E+00
    0.28226E-03        -0.74804E-02         0.00000E+00
    0.00000E+00        -0.75003E-02         0.00000E+00
    0.00000E+00        -0.38755E-04         0.00000E+00
    0.52705E-04        -0.41757E-04         0.00000E+00
    0.98242E-04        -0.50402E-04         0.00000E+00
    0.13815E-03        -0.63813E-04         0.00000E+00
    0.17382E-03        -0.81000E-04         0.00000E+00
    0.20640E-03        -0.10109E-03         0.00000E+00
    0.23672E-03        -0.12337E-03         0.00000E+00
    0.26537E-03        -0.14729E-03         0.00000E+00
    0.29274E-03        -0.17244E-03         0.00000E+00
    0.31910E-03        -0.19849E-03         0.00000E+00
    0.34463E-03        -0.22523E-03         0.00000E+00
    0.36947E-03        -0.25251E-03         0.00000E+00
    0.39371E-03        -0.28024E-03         0.00000E+00
    0.41742E-03        -0.30836E-03         0.00000E+00
    0.44068E-03        -0.33685E-03         0.00000E+00
    0.46355E-03        -0.36573E-03         0.00000E+00
    0.48608E-03        -0.39500E-03         0.00000E+00
    0.50834E-03        -0.42471E-03         0.00000E+00
    0.53038E-03        -0.45489E-03         0.00000E+00
    0.55226E-03        -0.48558E-03         0.00000E+00
    0.57405E-03        -0.51683E-03         0.00000E+00
    0.59579E-03        -0.54868E-03         0.00000E+00
    0.61754E-03        -0.58119E-03         0.00000E+00
    0.63936E-03        -0.61441E-03         0.00000E+00
    0.66129E-03        -0.64838E-03         0.00000E+00
    0.68339E-03        -0.68315E-03         0.00000E+00
    0.70569E-03        -0.71878E-03         0.00000E+00
    0.72824E-03        -0.75529E-03         0.00000E+00
    0.75107E-03        -0.79275E-03         0.00000E+00
    0.77422E-03        -0.83121E-03         0.00000E+00
    0.79772E-03        -0.87069E-03         0.00000E+00
    0.82160E-03        -0.91127E-03         0.00000E+00
    0.84588E-03        -0.95297E-03         0.00000E+00
    0.87059E-03        -0.99584E-03         0.00000E+00
    0.89573E-03        -0.10399E-02         0.00000E+00
    0.92133E-03        -0.10853E-02         0.00000E+00
    0.94740E-03        -0.11320E-02         0.00000E+00
    0.97395E-03        -0.11800E-02         0.00000E+00
    0.10010E-02        -0.12295E-02         0.00000E+00
    0.10285E-02        -0.12804E-02         0.00000E+00
    0.10565E-02        -0.13328E-02         0.00000E+00
    0.10850E-02        -0.13868E-02         0.00000E+00
    0.11139E-02        -0.14424E-02         0.00000E+00
    0.11434E-02        -0.14996E-02         0.00000E+00
    0.11732E-02        -0.15585E-02         0.00000E+00
    0.12036E-02        -0.16192E-02         0.00000E+00
    0.12343E-02        -0.16816E-02         0.00000E+00
    0.12654E-02        -0.17459E-02         0.00000E+00
    0.12970E-02        -0.18121E-02         0.00000E+00
    0.13288E-02        -0.18803E-02         0.00000E+00
    0.13610E-02        -0.19504E-02         0.00000E+00
    0.13934E-02        -0.20226E-02         0.00000E+00
    0.14261E-02        -0.20968E-02         0.00000E+00
    0.14589E-02        -0.21732E-02         0.00000E+00
    0.14919E-02        -0.22518E-02         0.00000E+00
    0.15249E-02        -0.23326E-02         0.00000E+00
    0.15579E-02        -0.24156E-02         0.00000E+00
    0.15909E-02        -0.25010E-02         0.00000E+00
    0.16237E-02        -0.25887E-02         0.00000E+00
    0.16563E-02        -0.26789E-02         0.00000E+00
    0.16886E-02        -0.27714E-02         0.00000E+00
    0.17204E-02        -0.28665E-02         0.00000E+00
    0.17518E-02        -0.29641E-02         0.00000E+00
    0.17825E-02        -0.30642E-02         0.00000E+00
    0.18124E-02        -0.31669E-02         0.00000E+00
    0.18414E-02        -0.32723E-02         0.00000E+00
    0.18693E-02        -0.33803E-02         0.00000E+00
    0.18960E-02        -0.34909E-02         0.00000E+00
    0.19214E-02        -0.36043E-02         0.00000E+00
    0.19451E-02        -0.37205E-02         0.00000E+00
    0.19671E-02        -0.38394E-02         0.00000E+00
    0.19870E-02        -0.39611E-02         0.00000E+00
    0.20048E-02        -0.40856E-02         0.00000E+00
    0.20200E-02        -0.42130E-02         0.00000E+00
    0.20326E-02        -0.43432E-02         0.00000E+00
    0.20420E-02        -0.44763E-02         0.00000E+00
    0.20482E-02        -0.46122E-02         0.00000E+00
    0.20507E-02        -0.47511E-02         0.00000E+00
    0.20493E-02        -0.48930E-02         0.00000E+00
    0.20436E-02        -0.50377E-02         0.00000E+00
    0.20332E-02        -0.51855E-02         0.00000E+00
    0.20178E-02        -0.53362E-02         0.00000E+00
    0.19970E-02        -0.54899E-02         0.00000E+00
    0.19706E-02        -0.56466E-02         0.00000E+00
    0.19381E-02        -0.58061E-02         0.00000E+00
    0.18991E-02        -0.59685E-02         0.00000E+00
    0.18535E-02        -0.61336E-02         0.00000E+00
    0.18008E-02        -0.63011E-02         0.00000E+00
    0.17408E-02        -0.64707E-02         0.00000E+00
    0.16731E-02        -0.66419E-02         0.00000E+00
    0.15973E-02        -0.68139E-02         0.00000E+00
    0.15129E-02        -0.69857E-02         0.00000E+00
    0.14192E-02        -0.71558E-02         0.00000E+00
    0.13151E-02        -0.73223E-02         0.00000E+00
    0.11990E-02        -0.74826E-02         0.00000E+00
    0.10683E-02        -0.76334E-02         0.00000E+00
    0.91928E-03        -0.77704E-02         0.00000E+00
    0.74632E-03        -0.78884E-02         0.00000E+00
    0.54186E-03        -0.79809E-02         0.00000E+00
    0.29650E-03        -0.80407E-02         0.00000E+00
    0.00000E+00        -0.80615E-02         0.00000E+00
    0.00000E+00        -0.44606E-04         0.00000E+00
    0.55372E-04        -0.47750E-04         0.00000E+00
    0.10354E-03        -0.56835E-04         0.00000E+00
    0.14599E-03        -0.71000E-04         0.00000E+00
    0.18411E-03        -0.89233E-04         0.00000E+00
    0.21900E-03        -0.11061E-03         0.00000E+00
    0.25151E-03        -0.13437E-03         0.00000E+00
    0.28223E-03        -0.15991E-03         0.00000E+00
    0.31156E-03        -0.18677E-03         0.00000E+00
    0.33980E-03        -0.21461E-03         0.00000E+00
    0.36712E-03        -0.24320E-03         0.00000E+00
    0.39368E-03        -0.27238E-03         0.00000E+00
    0.41958E-03        -0.30204E-03         0.00000E+00
    0.44490E-03        -0.33212E-03         0.00000E+00
    0.46972E-03        -0.36262E-03         0.00000E+00
    0.49410E-03        -0.39352E-03         0.00000E+00
    0.51812E-03        -0.42486E-03         0.00000E+00
    0.54184E-03        -0.45667E-03         0.00000E+00
    0.56533E-03        -0.48898E-03         0.00000E+00
    0.58865E-03        -0.52185E-03         0.00000E+00
    0.61185E-03        -0.55532E-03         0.00000E+00
    0.63501E-03        -0.58945E-03         0.00000E+00
    0.65819E-03        -0.62428E-03         0.00000E+00
    0.68143E-03        -0.65988E-03         0.00000E+00
    0.70479E-03        -0.69628E-03         0.00000E+00
    0.72833E-03        -0.73355E-03         0.00000E+00
    0.75209E-03        -0.77173E-03         0.00000E+00
    0.77611E-03        -0.81087E-03         0.00000E+00
    0.80044E-03        -0.85103E-03         0.00000E+00
    0.82510E-03        -0.89225E-03         0.00000E+00
    0.85014E-03        -0.93458E-03         0.00000E+00
    0.87559E-03        -0.97808E-03         0.00000E+00
    0.90146E-03        -0.10228E-02         0.00000E+00
    0.92779E-03        -0.10688E-02         0.00000E+00
    0.95458E-03        -0.11160E-02         0.00000E+00
    0.98186E-03        -0.11647E-02         0.00000E+00
    0.10096E-02        -0.12147E-02         0.00000E+00
    0.10379E-02        -0.12662E-02         0.00000E+00
    0.10667E-02        -0.13193E-02         0.00000E+00
    0.10961E-02        -0.13738E-02         0.00000E+00
    0.11259E-02        -0.14300E-02         0.00000E+00
    0.11562E-02        -0.14879E-02         0.00000E+00
    0.11871E-02        -0.15475E-02         0.00000E+00
    0.12185E-02        -0.16088E-02         0.00000E+00
    0.12503E-02        -0.16720E-02         0.00000E+00
    0.12826E-02        -0.17370E-02         0.00000E+00
    0.13154E-02        -0.18039E-02         0.00000E+00
    0.13486E-02        -0.18729E-02         0.00000E+00
    0.13822E-02        -0.19438E-02         0.00000E+00
    0.14161E-02        -0.20169E-02         0.00000E+00
    0.14504E-02        -0.20920E-02         0.00000E+00
    0.14850E-02        -0.21693E-02         0.00000E+00
    0.15198E-02        -0.22489E-02         0.00000E+00
    0.15548E-02        -0.23308E-02         0.00000E+00
    0.15899E-02        -0.24149E-02         0.00000E+00
    0.16251E-02        -0.25015E-02         0.00000E+00
    0.16603E-02        -0.25905E-02         0.00000E+00
    0.16955E-02        -0.26819E-02         0.00000E+00
    0.17305E-02        -0.27759E-02         0.00000E+00
    0.17652E-02        -0.28725E-02         0.00000E+00
    0.17996E-02        -0.29716E-02         0.00000E+00
    0.18336E-02        -0.30734E-02         0.00000E+00
    0.18670E-02        -0.31779E-02         0.00000E+00
    0.18997E-02        -0.32852E-02         0.00000E+00
    0.19316E-02        -0.33951E-02         0.00000E+00
    0.19625E-02        -0.35079E-02         0.00000E+00
    0.19923E-02        -0.36236E-02         0.00000E+00
    0.20208E-02        -0.37421E-02         0.00000E+00
    0.20478E-02        -0.38635E-02         0.00000E+00
    0.20732E-02        -0.39878E-02         0.00000E+00
    0.20966E-02        -0.41151E-02         0.00000E+00
    0.21179E-02        -0.42453E-02         0.00000E+00
    0.21369E-02        -0.43785E-02         0.00000E+00
    0.21532E-02        -0.45148E-02         0.00000E+00
    0.21665E-02        -0.46541E-02         0.00000E+00
    0.21767E-02        -0.47964E-02         0.00000E+00
    0.21833E-02        -0.49418E-02         0.00000E+00
    0.21861E-02        -0.50904E-02         0.00000E+00
    0.21846E-02        -0.52420E-02         0.00000E+00
    0.21785E-02        -0.53968E-02         0.00000E+00
    0.21675E-02        -0.55547E-02         0.00000E+00
    0.21511E-02        -0.57158E-02         0.00000E+00
    0.21291E-02        -0.58801E-02         0.00000E+00
    0.21008E-02        -0.60475E-02         0.00000E+00
    0.20661E-02        -0.62180E-02         0.00000E+00
    0.20246E-02        -0.63915E-02         0.00000E+00
    0.19758E-02        -0.65678E-02         0.00000E+00
    0.19194E-02        -0.67467E-02         0.00000E+00
    0.18551E-02        -0.69279E-02         0.00000E+00
    0.17824E-02        -0.71107E-02         0.00000E+00
    0.17010E-02        -0.72944E-02         0.00000E+00
    0.16102E-02        -0.74778E-02         0.00000E+00
    0.15093E-02        -0.76593E-02         0.00000E+00
    0.13972E-02        -0.78370E-02         0.00000E+00
    0.12721E-02        -0.80079E-02         0.00000E+00
    0.11315E-02        -0.81684E-02         0.00000E+00
    0.97143E-03        -0.83141E-02         0.00000E+00
    0.78647E-03        -0.84391E-02         0.00000E+00
    0.56913E-03        -0.85366E-02         0.00000E+00
    0.31028E-03        -0.85994E-02         0.00000E+00
    0.00000E+00        -0.86211E-02         0.00000E+00
    0.00000E+00        -0.50760E-04         0.00000E+00
    0.57970E-04        -0.54048E-04         0.00000E+00
    0.10871E-03        -0.63577E-04         0.00000E+00
    0.15367E-03        -0.78496E-04         0.00000E+00
    0.19419E-03        -0.97769E-04         0.00000E+00
    0.23138E-03        -0.12043E-03         0.00000E+00
    0.26607E-03        -0.14565E-03         0.00000E+00
    0.29885E-03        -0.17279E-03         0.00000E+00
    0.33015E-03        -0.20136E-03         0.00000E+00
    0.36025E-03        -0.23099E-03         0.00000E+00
    0.38936E-03        -0.26142E-03         0.00000E+00
    0.41763E-03        -0.29248E-03         0.00000E+00
    0.44517E-03        -0.32406E-03         0.00000E+00
    0.47207E-03        -0.35611E-03         0.00000E+00
    0.49844E-03        -0.38860E-03         0.00000E+00
    0.52432E-03        -0.42153E-03         0.00000E+00
    0.54982E-03        -0.45493E-03         0.00000E+00
    0.57498E-03        -0.48883E-03         0.00000E+00
    0.59990E-03        -0.52327E-03         0.00000E+00
    0.62462E-03        -0.55832E-03         0.00000E+00
    0.64923E-03        -0.59401E-03         0.00000E+00
    0.67379E-03        -0.63041E-03         0.00000E+00
    0.69837E-03        -0.66757E-03         0.00000E+00
    0.72301E-03        -0.70554E-03         0.00000E+00
    0.74779E-03        -0.74438E-03         0.00000E+00
    0.77275E-03        -0.78414E-03         0.00000E+00
    0.79795E-03        -0.82488E-03         0.00000E+00
    0.82342E-03        -0.86665E-03         0.00000E+00
    0.84922E-03        -0.90951E-03         0.00000E+00
    0.87539E-03        -0.95350E-03         0.00000E+00
    0.90195E-03        -0.99868E-03         0.00000E+00
    0.92894E-03        -0.10451E-02         0.00000E+00
    0.95638E-03        -0.10928E-02         0.00000E+00
    0.98430E-03        -0.11419E-02         0.00000E+00
    0.10127E-02        -0.11923E-02         0.00000E+00
    0.10417E-02        -0.12443E-02         0.00000E+00
    0.10711E-02        -0.12977E-02         0.00000E+00
    0.11011E-02        -0.13527E-02         0.00000E+00
    0.11317E-02        -0.14093E-02         0.00000E+00
    0.11628E-02        -0.14675E-02         0.00000E+00
    0.11945E-02        -0.15275E-02         0.00000E+00
    0.12267E-02        -0.15892E-02         0.00000E+00
    0.12594E-02        -0.16528E-02         0.00000E+00
    0.12927E-02        -0.17183E-02         0.00000E+00
    0.13265E-02        -0.17857E-02         0.00000E+00
    0.13608E-02        -0.18551E-02         0.00000E+00
    0.13955E-02        -0.19265E-02         0.00000E+00
    0.14307E-02        -0.20001E-02         0.00000E+00
    0.14664E-02        -0.20758E-02         0.00000E+00
    0.15024E-02        -0.21537E-02         0.00000E+00
    0.15388E-02        -0.22339E-02         0.00000E+00
    0.15755E-02        -0.23164E-02         0.00000E+00
    0.16124E-02        -0.24013E-02         0.00000E+00
    0.16496E-02        -0.24886E-02         0.00000E+00
    0.16868E-02        -0.25784E-02         0.00000E+00
    0.17242E-02        -0.26707E-02         0.00000E+00
    0.17616E-02        -0.27656E-02         0.00000E+00
    0.17989E-02        -0.28632E-02         0.00000E+00
    0.18360E-02        -0.29634E-02         0.00000E+00
    0.18729E-02        -0.30664E-02         0.00000E+00
    0.19094E-02        -0.31721E-02         0.00000E+00
    0.19454E-02        -0.32806E-02         0.00000E+00
    0.19809E-02        -0.33921E-02         0.00000E+00
    0.20156E-02        -0.35064E-02         0.00000E+00
    0.20495E-02        -0.36236E-02         0.00000E+00
    0.20823E-02        -0.37439E-02         0.00000E+00
    0.21139E-02        -0.38671E-02         0.00000E+00
    0.21442E-02        -0.39934E-02         0.00000E+00
    0.21729E-02        -0.41228E-02         0.00000E+00
    0.21998E-02        -0.42553E-02         0.00000E+00
    0.22247E-02        -0.43909E-02         0.00000E+00
    0.22474E-02        -0.45296E-02         0.00000E+00
    0.22675E-02        -0.46715E-02         0.00000E+00
    0.22849E-02        -0.48167E-02         0.00000E+00
    0.22991E-02        -0.49650E-02         0.00000E+00
    0.23100E-02        -0.51166E-02         0.00000E+00
    0.23170E-02        -0.52715E-02         0.00000E+00
    0.23200E-02        -0.54296E-02         0.00000E+00
    0.23185E-02        -0.55910E-02         0.00000E+00
    0.23122E-02        -0.57558E-02         0.00000E+00
    0.23005E-02        -0.59239E-02         0.00000E+00
    0.22832E-02        -0.60953E-02         0.00000E+00
    0.22598E-02        -0.62700E-02         0.00000E+00
    0.22299E-02        -0.64481E-02         0.00000E+00
    0.21930E-02        -0.66295E-02         0.00000E+00
    0.21488E-02        -0.68140E-02         0.00000E+00
    0.20969E-02        -0.70015E-02         0.00000E+00
    0.20368E-02        -0.71918E-02         0.00000E+00
    0.19682E-02        -0.73844E-02         0.00000E+00
    0.18906E-02        -0.75787E-02         0.00000E+00
    0.18035E-02        -0.77740E-02         0.00000E+00
    0.17064E-02        -0.79689E-02         0.00000E+00
    0.15983E-02        -0.81618E-02         0.00000E+00
    0.14781E-02        -0.83505E-02         0.00000E+00
    0.13440E-02        -0.85319E-02         0.00000E+00
    0.11934E-02        -0.87021E-02         0.00000E+00
    0.10224E-02        -0.88563E-02         0.00000E+00
    0.82559E-03        -0.89883E-02         0.00000E+00
    0.59562E-03        -0.90909E-02         0.00000E+00
    0.32364E-03        -0.91567E-02         0.00000E+00
    0.00000E+00        -0.91794E-02         0.00000E+00
    0.00000E+00        -0.57204E-04         0.00000E+00
    0.60505E-04        -0.60640E-04         0.00000E+00
    0.11376E-03        -0.70619E-04         0.00000E+00
    0.16118E-03        -0.86291E-04         0.00000E+00
    0.20409E-03        -0.10660E-03         0.00000E+00
    0.24355E-03        -0.13053E-03         0.00000E+00
    0.28041E-03        -0.15721E-03         0.00000E+00
    0.31525E-03        -0.18595E-03         0.00000E+00
    0.34850E-03        -0.21621E-03         0.00000E+00
    0.38046E-03        -0.24762E-03         0.00000E+00
    0.41134E-03        -0.27988E-03         0.00000E+00
    0.44131E-03        -0.31282E-03         0.00000E+00
    0.47048E-03        -0.34632E-03         0.00000E+00
    0.49896E-03        -0.38031E-03         0.00000E+00
    0.52684E-03        -0.41479E-03         0.00000E+00
    0.55422E-03        -0.44974E-03         0.00000E+00
    0.58116E-03        -0.48519E-03         0.00000E+00
    0.60775E-03        -0.52118E-03         0.00000E+00
    0.63407E-03        -0.55776E-03         0.00000E+00
    0.66019E-03        -0.59498E-03         0.00000E+00
    0.68619E-03        -0.63289E-03         0.00000E+00
    0.71213E-03        -0.67156E-03         0.00000E+00
    0.73808E-03        -0.71104E-03         0.00000E+00
    0.76411E-03        -0.75139E-03         0.00000E+00
    0.79028E-03        -0.79266E-03         0.00000E+00
    0.81665E-03        -0.83492E-03         0.00000E+00
    0.84326E-03        -0.87822E-03         0.00000E+00
    0.87017E-03        -0.92262E-03         0.00000E+00
    0.89743E-03        -0.96818E-03         0.00000E+00
    0.92507E-03        -0.10149E-02         0.00000E+00
    0.95313E-03        -0.10630E-02         0.00000E+00
    0.98164E-03        -0.11123E-02         0.00000E+00
    0.10106E-02        -0.11631E-02         0.00000E+00
    0.10401E-02        -0.12152E-02         0.00000E+00
    0.10702E-02        -0.12689E-02         0.00000E+00
    0.11008E-02        -0.13241E-02         0.00000E+00
    0.11319E-02        -0.13809E-02         0.00000E+00
    0.11636E-02        -0.14393E-02         0.00000E+00
    0.11959E-02        -0.14995E-02         0.00000E+00
    0.12288E-02        -0.15614E-02         0.00000E+00
    0.12622E-02        -0.16252E-02         0.00000E+00
    0.12963E-02        -0.16908E-02         0.00000E+00
    0.13309E-02        -0.17584E-02         0.00000E+00
    0.13660E-02        -0.18280E-02         0.00000E+00
    0.14017E-02        -0.18997E-02         0.00000E+00
    0.14380E-02        -0.19734E-02         0.00000E+00
    0.14747E-02        -0.20494E-02         0.00000E+00
    0.15119E-02        -0.21275E-02         0.00000E+00
    0.15496E-02        -0.22080E-02         0.00000E+00
    0.15877E-02        -0.22908E-02         0.00000E+00
    0.16261E-02        -0.23760E-02         0.00000E+00
    0.16649E-02        -0.24637E-02         0.00000E+00
    0.17039E-02        -0.25539E-02         0.00000E+00
    0.17432E-02        -0.26467E-02         0.00000E+00
    0.17826E-02        -0.27421E-02         0.00000E+00
    0.18221E-02        -0.28402E-02         0.00000E+00
    0.18616E-02        -0.29410E-02         0.00000E+00
    0.19010E-02        -0.30447E-02         0.00000E+00
    0.19403E-02        -0.31512E-02         0.00000E+00
    0.19793E-02        -0.32605E-02         0.00000E+00
    0.20179E-02        -0.33728E-02         0.00000E+00
    0.20560E-02        -0.34881E-02         0.00000E+00
    0.20935E-02        -0.36065E-02         0.00000E+00
    0.21302E-02        -0.37279E-02         0.00000E+00
    0.21660E-02        -0.38524E-02         0.00000E+00
    0.22007E-02        -0.39800E-02         0.00000E+00
    0.22342E-02        -0.41109E-02         0.00000E+00
    0.22662E-02        -0.42450E-02         0.00000E+00
    0.22966E-02        -0.43823E-02         0.00000E+00
    0.23251E-02        -0.45229E-02         0.00000E+00
    0.23514E-02        -0.46668E-02         0.00000E+00
    0.23754E-02        -0.48141E-02         0.00000E+00
    0.23968E-02        -0.49647E-02         0.00000E+00
    0.24152E-02        -0.51187E-02         0.00000E+00
    0.24303E-02        -0.52761E-02         0.00000E+00
    0.24418E-02        -0.54369E-02         0.00000E+00
    0.24494E-02        -0.56011E-02         0.00000E+00
    0.24526E-02        -0.57688E-02         0.00000E+00
    0.24511E-02        -0.59400E-02         0.00000E+00
    0.24444E-02        -0.61146E-02         0.00000E+00
    0.24322E-02        -0.62928E-02         0.00000E+00
    0.24140E-02        -0.64745E-02         0.00000E+00
    0.23893E-02        -0.66597E-02         0.00000E+00
    0.23577E-02        -0.68484E-02         0.00000E+00
    0.23187E-02        -0.70406E-02         0.00000E+00
    0.22720E-02        -0.72361E-02         0.00000E+00
    0.22169E-02        -0.74347E-02         0.00000E+00
    0.21532E-02        -0.76362E-02         0.00000E+00
    0.20803E-02        -0.78402E-02         0.00000E+00
    0.19978E-02        -0.80460E-02         0.00000E+00
    0.19051E-02        -0.82527E-02         0.00000E+00
    0.18015E-02        -0.84590E-02         0.00000E+00
    0.16862E-02        -0.86632E-02         0.00000E+00
    0.15578E-02        -0.88628E-02         0.00000E+00
    0.14147E-02        -0.90547E-02         0.00000E+00
    0.12541E-02        -0.92345E-02         0.00000E+00
    0.10723E-02        -0.93972E-02         0.00000E+00
    0.86377E-03        -0.95361E-02         0.00000E+00
    0.62141E-03        -0.96438E-02         0.00000E+00
    0.33662E-03        -0.97126E-02         0.00000E+00
    0.00000E+00        -0.97363E-02         0.00000E+00
    0.00000E+00        -0.63926E-04         0.00000E+00
    0.62984E-04        -0.67513E-04         0.00000E+00
    0.11870E-03        -0.77948E-04         0.00000E+00
    0.16855E-03        -0.94379E-04         0.00000E+00
    0.21381E-03        -0.11573E-03         0.00000E+00
    0.25553E-03        -0.14092E-03         0.00000E+00
    0.29454E-03        -0.16905E-03         0.00000E+00
    0.33143E-03        -0.19937E-03         0.00000E+00
    0.36663E-03        -0.23133E-03         0.00000E+00
    0.40044E-03        -0.26449E-03         0.00000E+00
    0.43308E-03        -0.29858E-03         0.00000E+00
    0.46473E-03        -0.33338E-03         0.00000E+00
    0.49551E-03        -0.36879E-03         0.00000E+00
    0.52555E-03        -0.40473E-03         0.00000E+00
    0.55494E-03        -0.44119E-03         0.00000E+00
    0.58378E-03        -0.47815E-03         0.00000E+00
    0.61216E-03        -0.51565E-03         0.00000E+00
    0.64016E-03        -0.55373E-03         0.00000E+00
    0.66786E-03        -0.59244E-03         0.00000E+00
    0.69536E-03        -0.63183E-03         0.00000E+00
    0.72272E-03        -0.67196E-03         0.00000E+00
    0.75002E-03        -0.71290E-03         0.00000E+00
    0.77733E-03        -0.75470E-03         0.00000E+00
    0.80472E-03        -0.79742E-03         0.00000E+00
    0.83227E-03        -0.84113E-03         0.00000E+00
    0.86002E-03        -0.88589E-03         0.00000E+00
    0.88803E-03        -0.93176E-03         0.00000E+00
    0.91636E-03        -0.97879E-03         0.00000E+00
    0.94505E-03        -0.10270E-02         0.00000E+00
    0.97415E-03        -0.10766E-02         0.00000E+00
    0.10037E-02        -0.11275E-02         0.00000E+00
    0.10337E-02        -0.11798E-02         0.00000E+00
    0.10642E-02        -0.12335E-02         0.00000E+00
    0.10953E-02        -0.12888E-02         0.00000E+00
    0.11269E-02        -0.13456E-02         0.00000E+00
    0.11591E-02        -0.14041E-02         0.00000E+00
    0.11919E-02        -0.14643E-02         0.00000E+00
    0.12253E-02        -0.15262E-02         0.00000E+00
    0.12593E-02        -0.15899E-02         0.00000E+00
    0.12939E-02        -0.16556E-02         0.00000E+00
    0.13292E-02        -0.17231E-02         0.00000E+00
    0.13650E-02        -0.17927E-02         0.00000E+00
    0.14014E-02        -0.18643E-02         0.00000E+00
    0.14385E-02        -0.19380E-02         0.00000E+00
    0.14761E-02        -0.20139E-02         0.00000E+00
    0.15142E-02        -0.20920E-02         0.00000E+00
    0.15529E-02        -0.21725E-02         0.00000E+00
    0.15921E-02        -0.22553E-02         0.00000E+00
    0.16318E-02        -0.23405E-02         0.00000E+00
    0.16719E-02        -0.24282E-02         0.00000E+00
    0.17124E-02        -0.25184E-02         0.00000E+00
    0.17532E-02        -0.26113E-02         0.00000E+00
    0.17944E-02        -0.27068E-02         0.00000E+00
    0.18357E-02        -0.28051E-02         0.00000E+00
    0.18772E-02        -0.29061E-02         0.00000E+00
    0.19189E-02        -0.30100E-02         0.00000E+00
    0.19605E-02        -0.31167E-02         0.00000E+00
    0.20020E-02        -0.32265E-02         0.00000E+00
    0.20434E-02        -0.33392E-02         0.00000E+00
    0.20844E-02        -0.34549E-02         0.00000E+00
    0.21251E-02        -0.35738E-02         0.00000E+00
    0.21653E-02        -0.36959E-02         0.00000E+00
    0.22048E-02        -0.38211E-02         0.00000E+00
    0.22435E-02        -0.39496E-02         0.00000E+00
    0.22812E-02        -0.40813E-02         0.00000E+00
    0.23178E-02        -0.42164E-02         0.00000E+00
    0.23531E-02        -0.43549E-02         0.00000E+00
    0.23868E-02        -0.44967E-02         0.00000E+00
    0.24189E-02        -0.46420E-02         0.00000E+00
    0.24489E-02        -0.47907E-02         0.00000E+00
    0.24767E-02        -0.49430E-02         0.00000E+00
    0.25021E-02        -0.50987E-02         0.00000E+00
    0.25246E-02        -0.52580E-02         0.00000E+00
    0.25441E-02        -0.54208E-02         0.00000E+00
    0.25601E-02        -0.55872E-02         0.00000E+00
    0.25723E-02        -0.57571E-02         0.00000E+00
    0.25803E-02        -0.59307E-02         0.00000E+00
    0.25838E-02        -0.61080E-02         0.00000E+00
    0.25823E-02        -0.62889E-02         0.00000E+00
    0.25754E-02        -0.64734E-02         0.00000E+00
    0.25626E-02        -0.66616E-02         0.00000E+00
    0.25435E-02        -0.68536E-02         0.00000E+00
    0.25176E-02        -0.70492E-02         0.00000E+00
    0.24843E-02        -0.72485E-02         0.00000E+00
    0.24433E-02        -0.74513E-02         0.00000E+00
    0.23940E-02        -0.76577E-02         0.00000E+00
    0.23359E-02        -0.78674E-02         0.00000E+00
    0.22685E-02        -0.80801E-02         0.00000E+00
    0.21914E-02        -0.82953E-02         0.00000E+00
    0.21039E-02        -0.85125E-02         0.00000E+00
    0.20056E-02        -0.87306E-02         0.00000E+00
    0.18956E-02        -0.89482E-02         0.00000E+00
    0.17730E-02        -0.91636E-02         0.00000E+00
    0.16366E-02        -0.93740E-02         0.00000E+00
    0.14844E-02        -0.95762E-02         0.00000E+00
    0.13139E-02        -0.97656E-02         0.00000E+00
    0.11212E-02        -0.99367E-02         0.00000E+00
    0.90110E-03        -0.10083E-01         0.00000E+00
    0.64657E-03        -0.10195E-01         0.00000E+00
    0.34926E-03        -0.10267E-01         0.00000E+00
    0.00000E+00        -0.10292E-01         0.00000E+00
    0.00000E+00        -0.70915E-04         0.00000E+00
    0.65411E-04        -0.74657E-04         0.00000E+00
    0.12354E-03        -0.85555E-04         0.00000E+00
    0.17578E-03        -0.10275E-03         0.00000E+00
    0.22336E-03        -0.12513E-03         0.00000E+00
    0.26733E-03        -0.15160E-03         0.00000E+00
    0.30848E-03        -0.18117E-03         0.00000E+00
    0.34741E-03        -0.21306E-03         0.00000E+00
    0.38454E-03        -0.24669E-03         0.00000E+00
    0.42019E-03        -0.28161E-03         0.00000E+00
    0.45458E-03        -0.31751E-03         0.00000E+00
    0.48789E-03        -0.35418E-03         0.00000E+00
    0.52028E-03        -0.39149E-03         0.00000E+00
    0.55186E-03        -0.42936E-03         0.00000E+00
    0.58274E-03        -0.46779E-03         0.00000E+00
    0.61302E-03        -0.50676E-03         0.00000E+00
    0.64281E-03        -0.54631E-03         0.00000E+00
    0.67220E-03        -0.58647E-03         0.00000E+00
    0.70127E-03        -0.62731E-03         0.00000E+00
    0.73012E-03        -0.66887E-03         0.00000E+00
    0.75882E-03        -0.71122E-03         0.00000E+00
    0.78746E-03        -0.75442E-03         0.00000E+00
    0.81611E-03        -0.79854E-03         0.00000E+00
    0.84485E-03        -0.84364E-03         0.00000E+00
    0.87375E-03        -0.88979E-03         0.00000E+00
    0.90286E-03        -0.93705E-03         0.00000E+00
    0.93225E-03        -0.98548E-03         0.00000E+00
    0.96198E-03        -0.10351E-02         0.00000E+00
    0.99209E-03        -0.10861E-02         0.00000E+00
    0.10226E-02        -0.11384E-02         0.00000E+00
    0.10536E-02        -0.11922E-02         0.00000E+00
    0.10851E-02        -0.12474E-02         0.00000E+00
    0.11172E-02        -0.13042E-02         0.00000E+00
    0.11498E-02        -0.13625E-02         0.00000E+00
    0.11830E-02        -0.14226E-02         0.00000E+00
    0.12168E-02        -0.14843E-02         0.00000E+00
    0.12512E-02        -0.15479E-02         0.00000E+00
    0.12862E-02        -0.16133E-02         0.00000E+00
    0.13219E-02        -0.16806E-02         0.00000E+00
    0.13583E-02        -0.17499E-02         0.00000E+00
    0.13953E-02        -0.18213E-02         0.00000E+00
    0.14329E-02        -0.18947E-02         0.00000E+00
    0.14711E-02        -0.19703E-02         0.00000E+00
    0.15100E-02        -0.20482E-02         0.00000E+00
    0.15495E-02        -0.21283E-02         0.00000E+00
    0.15896E-02        -0.22109E-02         0.00000E+00
    0.16302E-02        -0.22958E-02         0.00000E+00
    0.16714E-02        -0.23832E-02         0.00000E+00
    0.17130E-02        -0.24732E-02         0.00000E+00
    0.17551E-02        -0.25658E-02         0.00000E+00
    0.17976E-02        -0.26611E-02         0.00000E+00
    0.18405E-02        -0.27592E-02         0.00000E+00
    0.18837E-02        -0.28600E-02         0.00000E+00
    0.19271E-02        -0.29637E-02         0.00000E+00
    0.19707E-02        -0.30704E-02         0.00000E+00
    0.20144E-02        -0.31800E-02         0.00000E+00
    0.20581E-02        -0.32927E-02         0.00000E+00
    0.21018E-02        -0.34085E-02         0.00000E+00
    0.21452E-02        -0.35274E-02         0.00000E+00
    0.21883E-02        -0.36496E-02         0.00000E+00
    0.22311E-02        -0.37751E-02         0.00000E+00
    0.22733E-02        -0.39038E-02         0.00000E+00
    0.23148E-02        -0.40360E-02         0.00000E+00
    0.23554E-02        -0.41715E-02         0.00000E+00
    0.23951E-02        -0.43105E-02         0.00000E+00
    0.24335E-02        -0.44530E-02         0.00000E+00
    0.24706E-02        -0.45991E-02         0.00000E+00
    0.25061E-02        -0.47487E-02         0.00000E+00
    0.25398E-02        -0.49019E-02         0.00000E+00
    0.25714E-02        -0.50588E-02         0.00000E+00
    0.26007E-02        -0.52193E-02         0.00000E+00
    0.26273E-02        -0.53835E-02         0.00000E+00
    0.26511E-02        -0.55513E-02         0.00000E+00
    0.26716E-02        -0.57230E-02         0.00000E+00
    0.26884E-02        -0.58983E-02         0.00000E+00
    0.27014E-02        -0.60775E-02         0.00000E+00
    0.27099E-02        -0.62604E-02         0.00000E+00
    0.27137E-02        -0.64471E-02         0.00000E+00
    0.27123E-02        -0.66377E-02         0.00000E+00
    0.27051E-02        -0.68321E-02         0.00000E+00
    0.26918E-02        -0.70303E-02         0.00000E+00
    0.26718E-02        -0.72324E-02         0.00000E+00
    0.26447E-02        -0.74384E-02         0.00000E+00
    0.26098E-02        -0.76482E-02         0.00000E+00
    0.25667E-02        -0.78617E-02         0.00000E+00
    0.25149E-02        -0.80789E-02         0.00000E+00
    0.24538E-02        -0.82996E-02         0.00000E+00
    0.23828E-02        -0.85234E-02         0.00000E+00
    0.23015E-02        -0.87498E-02         0.00000E+00
    0.22092E-02        -0.89782E-02         0.00000E+00
    0.21052E-02        -0.92076E-02         0.00000E+00
    0.19888E-02        -0.94365E-02         0.00000E+00
    0.18590E-02        -0.96629E-02         0.00000E+00
    0.17144E-02        -0.98841E-02         0.00000E+00
    0.15532E-02        -0.10097E-01         0.00000E+00
    0.13727E-02        -0.10295E-01         0.00000E+00
    0.11693E-02        -0.10475E-01         0.00000E+00
    0.93769E-03        -0.10628E-01         0.00000E+00
    0.67117E-03        -0.10746E-01         0.00000E+00
    0.36161E-03        -0.10821E-01         0.00000E+00
    0.00000E+00        -0.10846E-01         0.00000E+00
    0.00000E+00        -0.78160E-04         0.00000E+00
    0.67790E-04        -0.82060E-04         0.00000E+00
    0.12830E-03        -0.93430E-04         0.00000E+00
    0.18288E-03        -0.11140E-03         0.00000E+00
    0.23277E-03        -0.13482E-03         0.00000E+00
    0.27896E-03        -0.16255E-03         0.00000E+00
    0.32224E-03        -0.19355E-03         0.00000E+00
    0.36319E-03        -0.22702E-03         0.00000E+00
    0.40225E-03        -0.26232E-03         0.00000E+00
    0.43972E-03        -0.29898E-03         0.00000E+00
    0.47584E-03        -0.33668E-03         0.00000E+00
    0.51081E-03        -0.37519E-03         0.00000E+00
    0.54478E-03        -0.41440E-03         0.00000E+00
    0.57788E-03        -0.45420E-03         0.00000E+00
    0.61023E-03        -0.49459E-03         0.00000E+00
    0.64194E-03        -0.53557E-03         0.00000E+00
    0.67312E-03        -0.57716E-03         0.00000E+00
    0.70388E-03        -0.61940E-03         0.00000E+00
    0.73429E-03        -0.66236E-03         0.00000E+00
    0.76447E-03        -0.70608E-03         0.00000E+00
    0.79449E-03        -0.75065E-03         0.00000E+00
    0.82445E-03        -0.79612E-03         0.00000E+00
    0.85443E-03        -0.84256E-03         0.00000E+00
    0.88449E-03        -0.89004E-03         0.00000E+00
    0.91472E-03        -0.93862E-03         0.00000E+00
    0.94518E-03        -0.98838E-03         0.00000E+00
    0.97593E-03        -0.10394E-02         0.00000E+00
    0.10070E-02        -0.10917E-02         0.00000E+00
    0.10385E-02        -0.11454E-02         0.00000E+00
    0.10705E-02        -0.12005E-02         0.00000E+00
    0.11029E-02        -0.12571E-02         0.00000E+00
    0.11359E-02        -0.13152E-02         0.00000E+00
    0.11694E-02        -0.13750E-02         0.00000E+00
    0.12036E-02        -0.14365E-02         0.00000E+00
    0.12383E-02        -0.14997E-02         0.00000E+00
    0.12737E-02        -0.15648E-02         0.00000E+00
    0.13097E-02        -0.16317E-02         0.00000E+00
    0.13464E-02        -0.17006E-02         0.00000E+00
    0.13838E-02        -0.17715E-02         0.00000E+00
    0.14218E-02        -0.18445E-02         0.00000E+00
    0.14605E-02        -0.19197E-02         0.00000E+00
    0.14999E-02        -0.19970E-02         0.00000E+00
    0.15400E-02        -0.20767E-02         0.00000E+00
    0.15807E-02        -0.21586E-02         0.00000E+00
    0.16220E-02        -0.22431E-02         0.00000E+00
    0.16640E-02        -0.23299E-02         0.00000E+00
    0.17065E-02        -0.24194E-02         0.00000E+00
    0.17496E-02        -0.25115E-02         0.00000E+00
    0.17932E-02        -0.26062E-02         0.00000E+00
    0.18373E-02        -0.27037E-02         0.00000E+00
    0.18818E-02        -0.28040E-02         0.00000E+00
    0.19267E-02        -0.29073E-02         0.00000E+00
    0.19720E-02        -0.30134E-02         0.00000E+00
    0.20174E-02        -0.31226E-02         0.00000E+00
    0.20631E-02        -0.32349E-02         0.00000E+00
    0.21089E-02        -0.33503E-02         0.00000E+00
    0.21546E-02        -0.34689E-02         0.00000E+00
    0.22003E-02        -0.35908E-02         0.00000E+00
    0.22458E-02        -0.37160E-02         0.00000E+00
    0.22910E-02        -0.38446E-02         0.00000E+00
    0.23358E-02        -0.39766E-02         0.00000E+00
    0.23800E-02        -0.41121E-02         0.00000E+00
    0.24235E-02        -0.42511E-02         0.00000E+00
    0.24661E-02        -0.43937E-02         0.00000E+00
    0.25076E-02        -0.45400E-02         0.00000E+00
    0.25479E-02        -0.46899E-02         0.00000E+00
    0.25868E-02        -0.48435E-02         0.00000E+00
    0.26240E-02        -0.50009E-02         0.00000E+00
    0.26593E-02        -0.51620E-02         0.00000E+00
    0.26925E-02        -0.53269E-02         0.00000E+00
    0.27232E-02        -0.54957E-02         0.00000E+00
    0.27512E-02        -0.56683E-02         0.00000E+00
    0.27761E-02        -0.58449E-02         0.00000E+00
    0.27977E-02        -0.60253E-02         0.00000E+00
    0.28155E-02        -0.62096E-02         0.00000E+00
    0.28291E-02        -0.63979E-02         0.00000E+00
    0.28382E-02        -0.65901E-02         0.00000E+00
    0.28423E-02        -0.67863E-02         0.00000E+00
    0.28409E-02        -0.69865E-02         0.00000E+00
    0.28335E-02        -0.71907E-02         0.00000E+00
    0.28197E-02        -0.73989E-02         0.00000E+00
    0.27989E-02        -0.76111E-02         0.00000E+00
    0.27706E-02        -0.78273E-02         0.00000E+00
    0.27342E-02        -0.80476E-02         0.00000E+00
    0.26891E-02        -0.82717E-02         0.00000E+00
    0.26348E-02        -0.84997E-02         0.00000E+00
    0.25707E-02        -0.87312E-02         0.00000E+00
    0.24962E-02        -0.89660E-02         0.00000E+00
    0.24107E-02        -0.92036E-02         0.00000E+00
    0.23135E-02        -0.94432E-02         0.00000E+00
    0.22039E-02        -0.96838E-02         0.00000E+00
    0.20811E-02        -0.99238E-02         0.00000E+00
    0.19441E-02        -0.10161E-01         0.00000E+00
    0.17914E-02        -0.10393E-01         0.00000E+00
    0.16211E-02        -0.10616E-01         0.00000E+00
    0.14308E-02        -0.10824E-01         0.00000E+00
    0.12166E-02        -0.11012E-01         0.00000E+00
    0.97360E-03        -0.11172E-01         0.00000E+00
    0.69528E-03        -0.11295E-01         0.00000E+00
    0.37370E-03        -0.11373E-01         0.00000E+00
    0.00000E+00        -0.11400E-01         0.00000E+00
    0.00000E+00        -0.85651E-04         0.00000E+00
    0.70126E-04        -0.89714E-04         0.00000E+00
    0.13297E-03        -0.10157E-03         0.00000E+00
    0.18987E-03        -0.12032E-03         0.00000E+00
    0.24203E-03        -0.14478E-03         0.00000E+00
    0.29043E-03        -0.17377E-03         0.00000E+00
    0.33582E-03        -0.20621E-03         0.00000E+00
    0.37879E-03        -0.24124E-03         0.00000E+00
    0.41976E-03        -0.27819E-03         0.00000E+00
    0.45904E-03        -0.31658E-03         0.00000E+00
    0.49688E-03        -0.35608E-03         0.00000E+00
    0.53349E-03        -0.39644E-03         0.00000E+00
    0.56902E-03        -0.43752E-03         0.00000E+00
    0.60362E-03        -0.47925E-03         0.00000E+00
    0.63742E-03        -0.52160E-03         0.00000E+00
    0.67054E-03        -0.56457E-03         0.00000E+00
    0.70309E-03        -0.60819E-03         0.00000E+00
    0.73519E-03        -0.65251E-03         0.00000E+00
    0.76693E-03        -0.69759E-03         0.00000E+00
    0.79842E-03        -0.74348E-03         0.00000E+00
    0.82974E-03        -0.79026E-03         0.00000E+00
    0.86100E-03        -0.83799E-03         0.00000E+00
    0.89227E-03        -0.88675E-03         0.00000E+00
    0.92364E-03        -0.93661E-03         0.00000E+00
    0.95518E-03        -0.98764E-03         0.00000E+00
    0.98697E-03        -0.10399E-02         0.00000E+00
    0.10191E-02        -0.10935E-02         0.00000E+00
    0.10515E-02        -0.11484E-02         0.00000E+00
    0.10844E-02        -0.12048E-02         0.00000E+00
    0.11177E-02        -0.12627E-02         0.00000E+00
    0.11516E-02        -0.13221E-02         0.00000E+00
    0.11860E-02        -0.13832E-02         0.00000E+00
    0.12210E-02        -0.14461E-02         0.00000E+00
    0.12567E-02        -0.15106E-02         0.00000E+00
    0.12929E-02        -0.15771E-02         0.00000E+00
    0.13299E-02        -0.16454E-02         0.00000E+00
    0.13675E-02        -0.17158E-02         0.00000E+00
    0.14058E-02        -0.17881E-02         0.00000E+00
    0.14448E-02        -0.18626E-02         0.00000E+00
    0.14845E-02        -0.19393E-02         0.00000E+00
    0.15250E-02        -0.20183E-02         0.00000E+00
    0.15661E-02        -0.20995E-02         0.00000E+00
    0.16079E-02        -0.21832E-02         0.00000E+00
    0.16504E-02        -0.22693E-02         0.00000E+00
    0.16936E-02        -0.23580E-02         0.00000E+00
    0.17374E-02        -0.24493E-02         0.00000E+00
    0.17818E-02        -0.25432E-02         0.00000E+00
    0.18268E-02        -0.26399E-02         0.00000E+00
    0.18724E-02        -0.27395E-02         0.00000E+00
    0.19185E-02        -0.28419E-02         0.00000E+00
    0.19650E-02        -0.29472E-02         0.00000E+00
    0.20119E-02        -0.30556E-02         0.00000E+00
    0.20591E-02        -0.31671E-02         0.00000E+00
    0.21066E-02        -0.32818E-02         0.00000E+00
    0.21543E-02        -0.33997E-02         0.00000E+00
    0.22021E-02        -0.35208E-02         0.00000E+00
    0.22499E-02        -0.36454E-02         0.00000E+00
    0.22977E-02        -0.37733E-02         0.00000E+00
    0.23452E-02        -0.39048E-02         0.00000E+00
    0.23924E-02        -0.40398E-02         0.00000E+00
    0.24392E-02        -0.41783E-02         0.00000E+00
    0.24854E-02        -0.43206E-02         0.00000E+00
    0.25309E-02        -0.44665E-02         0.00000E+00
    0.25754E-02        -0.46162E-02         0.00000E+00
    0.26188E-02        -0.47696E-02         0.00000E+00
    0.26610E-02        -0.49269E-02         0.00000E+00
    0.27016E-02        -0.50881E-02         0.00000E+00
    0.27406E-02        -0.52532E-02         0.00000E+00
    0.27775E-02        -0.54223E-02         0.00000E+00
    0.28122E-02        -0.55953E-02         0.00000E+00
    0.28444E-02        -0.57723E-02         0.00000E+00
    0.28737E-02        -0.59534E-02         0.00000E+00
    0.28998E-02        -0.61385E-02         0.00000E+00
    0.29224E-02        -0.63277E-02         0.00000E+00
    0.29411E-02        -0.65209E-02         0.00000E+00
    0.29555E-02        -0.67183E-02         0.00000E+00
    0.29651E-02        -0.69198E-02         0.00000E+00
    0.29695E-02        -0.71254E-02         0.00000E+00
    0.29682E-02        -0.73352E-02         0.00000E+00
    0.29607E-02        -0.75491E-02         0.00000E+00
    0.29464E-02        -0.77673E-02         0.00000E+00
    0.29249E-02        -0.79896E-02         0.00000E+00
    0.28954E-02        -0.82161E-02         0.00000E+00
    0.28575E-02        -0.84467E-02         0.00000E+00
    0.28105E-02        -0.86814E-02         0.00000E+00
    0.27538E-02        -0.89200E-02         0.00000E+00
    0.26867E-02        -0.91624E-02         0.00000E+00
    0.26087E-02        -0.94081E-02         0.00000E+00
    0.25190E-02        -0.96567E-02         0.00000E+00
    0.24170E-02        -0.99075E-02         0.00000E+00
    0.23019E-02        -0.10159E-01         0.00000E+00
    0.21727E-02        -0.10410E-01         0.00000E+00
    0.20284E-02        -0.10658E-01         0.00000E+00
    0.18676E-02        -0.10901E-01         0.00000E+00
    0.16883E-02        -0.11134E-01         0.00000E+00
    0.14880E-02        -0.11351E-01         0.00000E+00
    0.12632E-02        -0.11547E-01         0.00000E+00
    0.10089E-02        -0.11714E-01         0.00000E+00
    0.71895E-03        -0.11842E-01         0.00000E+00
    0.38555E-03        -0.11924E-01         0.00000E+00
    0.00000E+00        -0.11952E-01         0.00000E+00
    0.00000E+00        -0.93379E-04         0.00000E+00
    0.72423E-04        -0.97608E-04         0.00000E+00
    0.13756E-03        -0.10995E-03         0.00000E+00
    0.19675E-03        -0.12950E-03         0.00000E+00
    0.25116E-03        -0.15502E-03         0.00000E+00
    0.30175E-03        -0.18526E-03         0.00000E+00
    0.34925E-03        -0.21913E-03         0.00000E+00
    0.39422E-03        -0.25571E-03         0.00000E+00
    0.43708E-03        -0.29431E-03         0.00000E+00
    0.47815E-03        -0.33443E-03         0.00000E+00
    0.51770E-03        -0.37570E-03         0.00000E+00
    0.55592E-03        -0.41789E-03         0.00000E+00
    0.59300E-03        -0.46085E-03         0.00000E+00
    0.62908E-03        -0.50450E-03         0.00000E+00
    0.66431E-03        -0.54880E-03         0.00000E+00
    0.69882E-03        -0.59376E-03         0.00000E+00
    0.73272E-03        -0.63941E-03         0.00000E+00
    0.76614E-03        -0.68580E-03         0.00000E+00
    0.79918E-03        -0.73299E-03         0.00000E+00
    0.83196E-03        -0.78105E-03         0.00000E+00
    0.86456E-03        -0.83004E-03         0.00000E+00
    0.89710E-03        -0.88004E-03         0.00000E+00
    0.92965E-03        -0.93112E-03         0.00000E+00
    0.96230E-03        -0.98336E-03         0.00000E+00
    0.99514E-03        -0.10368E-02         0.00000E+00
    0.10282E-02        -0.10916E-02         0.00000E+00
    0.10616E-02        -0.11477E-02         0.00000E+00
    0.10954E-02        -0.12053E-02         0.00000E+00
    0.11297E-02        -0.12644E-02         0.00000E+00
    0.11644E-02        -0.13251E-02         0.00000E+00
    0.11997E-02        -0.13874E-02         0.00000E+00
    0.12355E-02        -0.14514E-02         0.00000E+00
    0.12720E-02        -0.15173E-02         0.00000E+00
    0.13091E-02        -0.15850E-02         0.00000E+00
    0.13468E-02        -0.16546E-02         0.00000E+00
    0.13853E-02        -0.17263E-02         0.00000E+00
    0.14245E-02        -0.18000E-02         0.00000E+00
    0.14644E-02        -0.18759E-02         0.00000E+00
    0.15050E-02        -0.19540E-02         0.00000E+00
    0.15464E-02        -0.20344E-02         0.00000E+00
    0.15885E-02        -0.21171E-02         0.00000E+00
    0.16314E-02        -0.22023E-02         0.00000E+00
    0.16750E-02        -0.22900E-02         0.00000E+00
    0.17193E-02        -0.23802E-02         0.00000E+00
    0.17643E-02        -0.24732E-02         0.00000E+00
    0.18099E-02        -0.25688E-02         0.00000E+00
    0.18562E-02        -0.26673E-02         0.00000E+00
    0.19031E-02        -0.27686E-02         0.00000E+00
    0.19506E-02        -0.28729E-02         0.00000E+00
    0.19986E-02        -0.29803E-02         0.00000E+00
    0.20470E-02        -0.30907E-02         0.00000E+00
    0.20959E-02        -0.32042E-02         0.00000E+00
    0.21452E-02        -0.33211E-02         0.00000E+00
    0.21947E-02        -0.34412E-02         0.00000E+00
    0.22444E-02        -0.35647E-02         0.00000E+00
    0.22942E-02        -0.36916E-02         0.00000E+00
    0.23441E-02        -0.38221E-02         0.00000E+00
    0.23938E-02        -0.39561E-02         0.00000E+00
    0.24434E-02        -0.40938E-02         0.00000E+00
    0.24926E-02        -0.42352E-02         0.00000E+00
    0.25414E-02        -0.43803E-02         0.00000E+00
    0.25896E-02        -0.45293E-02         0.00000E+00
    0.26370E-02        -0.46821E-02         0.00000E+00
    0.26834E-02        -0.48388E-02         0.00000E+00
    0.27287E-02        -0.49995E-02         0.00000E+00
    0.27727E-02        -0.51642E-02         0.00000E+00
    0.28151E-02        -0.53329E-02         0.00000E+00
    0.28558E-02        -0.55058E-02         0.00000E+00
    0.28943E-02        -0.56827E-02         0.00000E+00
    0.29306E-02        -0.58638E-02         0.00000E+00
    0.29642E-02        -0.60491E-02         0.00000E+00
    0.29948E-02        -0.62385E-02         0.00000E+00
    0.30222E-02        -0.64322E-02         0.00000E+00
    0.30459E-02        -0.66301E-02         0.00000E+00
    0.30655E-02        -0.68323E-02         0.00000E+00
    0.30806E-02        -0.70387E-02         0.00000E+00
    0.30908E-02        -0.72495E-02         0.00000E+00
    0.30955E-02        -0.74645E-02         0.00000E+00
    0.30943E-02        -0.76838E-02         0.00000E+00
    0.30867E-02        -0.79075E-02         0.00000E+00
    0.30720E-02        -0.81355E-02         0.00000E+00
    0.30497E-02        -0.83679E-02         0.00000E+00
    0.30191E-02        -0.86045E-02         0.00000E+00
    0.29797E-02        -0.88455E-02         0.00000E+00
    0.29308E-02        -0.90907E-02         0.00000E+00
    0.28717E-02        -0.93399E-02         0.00000E+00
    0.28018E-02        -0.95930E-02         0.00000E+00
    0.27203E-02        -0.98497E-02         0.00000E+00
    0.26266E-02        -0.10109E-01         0.00000E+00
    0.25198E-02        -0.10371E-01         0.00000E+00
    0.23991E-02        -0.10634E-01         0.00000E+00
    0.22636E-02        -0.10896E-01         0.00000E+00
    0.21121E-02        -0.11155E-01         0.00000E+00
    0.19431E-02        -0.11408E-01         0.00000E+00
    0.17548E-02        -0.11650E-01         0.00000E+00
    0.15447E-02        -0.11877E-01         0.00000E+00
    0.13092E-02        -0.12082E-01         0.00000E+00
    0.10437E-02        -0.12256E-01         0.00000E+00
    0.74224E-03        -0.12389E-01         0.00000E+00
    0.39721E-03        -0.12474E-01         0.00000E+00
    0.00000E+00        -0.12503E-01         0.00000E+00
    0.00000E+00        -0.10133E-03         0.00000E+00
    0.74683E-04        -0.10573E-03         0.00000E+00
    0.14208E-03        -0.11858E-03         0.00000E+00
    0.20354E-03        -0.13893E-03         0.00000E+00
    0.26018E-03        -0.16551E-03         0.00000E+00
    0.31294E-03        -0.19702E-03         0.00000E+00
    0.36252E-03        -0.23231E-03         0.00000E+00
    0.40947E-03        -0.27044E-03         0.00000E+00
    0.45422E-03        -0.31068E-03         0.00000E+00
    0.49707E-03        -0.35251E-03         0.00000E+00
    0.53830E-03        -0.39556E-03         0.00000E+00
    0.57813E-03        -0.43957E-03         0.00000E+00
    0.61673E-03        -0.48439E-03         0.00000E+00
    0.65427E-03        -0.52994E-03         0.00000E+00
    0.69091E-03        -0.57619E-03         0.00000E+00
    0.72678E-03        -0.62313E-03         0.00000E+00
    0.76201E-03        -0.67081E-03         0.00000E+00
    0.79673E-03        -0.71927E-03         0.00000E+00
    0.83105E-03        -0.76858E-03         0.00000E+00
    0.86509E-03        -0.81879E-03         0.00000E+00
    0.89896E-03        -0.86999E-03         0.00000E+00
    0.93275E-03        -0.92226E-03         0.00000E+00
    0.96656E-03        -0.97566E-03         0.00000E+00
    0.10005E-02        -0.10303E-02         0.00000E+00
    0.10346E-02        -0.10862E-02         0.00000E+00
    0.10689E-02        -0.11434E-02         0.00000E+00
    0.11037E-02        -0.12021E-02         0.00000E+00
    0.11388E-02        -0.12624E-02         0.00000E+00
    0.11743E-02        -0.13242E-02         0.00000E+00
    0.12104E-02        -0.13876E-02         0.00000E+00
    0.12471E-02        -0.14528E-02         0.00000E+00
    0.12843E-02        -0.15198E-02         0.00000E+00
    0.13222E-02        -0.15887E-02         0.00000E+00
    0.13608E-02        -0.16595E-02         0.00000E+00
    0.14000E-02        -0.17324E-02         0.00000E+00
    0.14400E-02        -0.18073E-02         0.00000E+00
    0.14808E-02        -0.18845E-02         0.00000E+00
    0.15222E-02        -0.19638E-02         0.00000E+00
    0.15645E-02        -0.20455E-02         0.00000E+00
    0.16075E-02        -0.21296E-02         0.00000E+00
    0.16513E-02        -0.22161E-02         0.00000E+00
    0.16959E-02        -0.23052E-02         0.00000E+00
    0.17412E-02        -0.23970E-02         0.00000E+00
    0.17872E-02        -0.24914E-02         0.00000E+00
    0.18340E-02        -0.25886E-02         0.00000E+00
    0.18815E-02        -0.26886E-02         0.00000E+00
    0.19296E-02        -0.27916E-02         0.00000E+00
    0.19784E-02        -0.28976E-02         0.00000E+00
    0.20277E-02        -0.30067E-02         0.00000E+00
    0.20776E-02        -0.31189E-02         0.00000E+00
    0.21280E-02        -0.32343E-02         0.00000E+00
    0.21789E-02        -0.33531E-02         0.00000E+00
    0.22301E-02        -0.34753E-02         0.00000E+00
    0.22816E-02        -0.36009E-02         0.00000E+00
    0.23333E-02        -0.37300E-02         0.00000E+00
    0.23851E-02        -0.38627E-02         0.00000E+00
    0.24370E-02        -0.39991E-02         0.00000E+00
    0.24888E-02        -0.41392E-02         0.00000E+00
    0.25403E-02        -0.42831E-02         0.00000E+00
    0.25916E-02        -0.44309E-02         0.00000E+00
    0.26423E-02        -0.45826E-02         0.00000E+00
    0.26924E-02        -0.47382E-02         0.00000E+00
    0.27418E-02        -0.48979E-02         0.00000E+00
    0.27901E-02        -0.50617E-02         0.00000E+00
    0.28373E-02        -0.52296E-02         0.00000E+00
    0.28831E-02        -0.54017E-02         0.00000E+00
    0.29273E-02        -0.55780E-02         0.00000E+00
    0.29696E-02        -0.57585E-02         0.00000E+00
    0.30098E-02        -0.59433E-02         0.00000E+00
    0.30476E-02        -0.61325E-02         0.00000E+00
    0.30826E-02        -0.63260E-02         0.00000E+00
    0.31146E-02        -0.65238E-02         0.00000E+00
    0.31432E-02        -0.67261E-02         0.00000E+00
    0.31679E-02        -0.69327E-02         0.00000E+00
    0.31885E-02        -0.71438E-02         0.00000E+00
    0.32043E-02        -0.73593E-02         0.00000E+00
    0.32151E-02        -0.75792E-02         0.00000E+00
    0.32202E-02        -0.78036E-02         0.00000E+00
    0.32192E-02        -0.80325E-02         0.00000E+00
    0.32114E-02        -0.82658E-02         0.00000E+00
    0.31963E-02        -0.85037E-02         0.00000E+00
    0.31733E-02        -0.87460E-02         0.00000E+00
    0.31417E-02        -0.89928E-02         0.00000E+00
    0.31009E-02        -0.92440E-02         0.00000E+00
    0.30502E-02        -0.94996E-02         0.00000E+00
    0.29888E-02        -0.97594E-02         0.00000E+00
    0.29160E-02        -0.10023E-01         0.00000E+00
    0.28311E-02        -0.10291E-01         0.00000E+00
    0.27333E-02        -0.10561E-01         0.00000E+00
    0.26218E-02        -0.10834E-01         0.00000E+00
    0.24957E-02        -0.11107E-01         0.00000E+00
    0.23538E-02        -0.11380E-01         0.00000E+00
    0.21951E-02        -0.11650E-01         0.00000E+00
    0.20180E-02        -0.11913E-01         0.00000E+00
    0.18207E-02        -0.12166E-01         0.00000E+00
    0.16007E-02        -0.12402E-01         0.00000E+00
    0.13547E-02        -0.12615E-01         0.00000E+00
    0.10781E-02        -0.12796E-01         0.00000E+00
    0.76521E-03        -0.12935E-01         0.00000E+00
    0.40868E-03        -0.13023E-01         0.00000E+00
    0.00000E+00        -0.13053E-01         0.00000E+00
    0.00000E+00        -0.10950E-03         0.00000E+00
    0.76911E-04        -0.11408E-03         0.00000E+00
    0.14655E-03        -0.12745E-03         0.00000E+00
    0.21024E-03        -0.14861E-03         0.00000E+00
    0.26909E-03        -0.17626E-03         0.00000E+00
    0.32400E-03        -0.20904E-03         0.00000E+00
    0.37566E-03        -0.24575E-03         0.00000E+00
    0.42458E-03        -0.28542E-03         0.00000E+00
    0.47119E-03        -0.32729E-03         0.00000E+00
    0.51581E-03        -0.37083E-03         0.00000E+00
    0.55870E-03        -0.41563E-03         0.00000E+00
    0.60011E-03        -0.46146E-03         0.00000E+00
    0.64021E-03        -0.50814E-03         0.00000E+00
    0.67920E-03        -0.55558E-03         0.00000E+00
    0.71722E-03        -0.60377E-03         0.00000E+00
    0.75443E-03        -0.65269E-03         0.00000E+00
    0.79096E-03        -0.70239E-03         0.00000E+00
    0.82696E-03        -0.75291E-03         0.00000E+00
    0.86254E-03        -0.80433E-03         0.00000E+00
    0.89783E-03        -0.85670E-03         0.00000E+00
    0.93293E-03        -0.91011E-03         0.00000E+00
    0.96795E-03        -0.96464E-03         0.00000E+00
    0.10030E-02        -0.10204E-02         0.00000E+00
    0.10382E-02        -0.10774E-02         0.00000E+00
    0.10735E-02        -0.11357E-02         0.00000E+00
    0.11091E-02        -0.11955E-02         0.00000E+00
    0.11451E-02        -0.12567E-02         0.00000E+00
    0.11815E-02        -0.13196E-02         0.00000E+00
    0.12184E-02        -0.13841E-02         0.00000E+00
    0.12558E-02        -0.14504E-02         0.00000E+00
    0.12939E-02        -0.15185E-02         0.00000E+00
    0.13325E-02        -0.15884E-02         0.00000E+00
    0.13718E-02        -0.16603E-02         0.00000E+00
    0.14118E-02        -0.17343E-02         0.00000E+00
    0.14525E-02        -0.18103E-02         0.00000E+00
    0.14940E-02        -0.18886E-02         0.00000E+00
    0.15363E-02        -0.19691E-02         0.00000E+00
    0.15793E-02        -0.20520E-02         0.00000E+00
    0.16231E-02        -0.21372E-02         0.00000E+00
    0.16678E-02        -0.22250E-02         0.00000E+00
    0.17132E-02        -0.23154E-02         0.00000E+00
    0.17595E-02        -0.24084E-02         0.00000E+00
    0.18065E-02        -0.25042E-02         0.00000E+00
    0.18543E-02        -0.26027E-02         0.00000E+00
    0.19028E-02        -0.27042E-02         0.00000E+00
    0.19521E-02        -0.28087E-02         0.00000E+00
    0.20020E-02        -0.29162E-02         0.00000E+00
    0.20526E-02        -0.30268E-02         0.00000E+00
    0.21039E-02        -0.31406E-02         0.00000E+00
    0.21557E-02        -0.32578E-02         0.00000E+00
    0.22080E-02        -0.33783E-02         0.00000E+00
    0.22608E-02        -0.35022E-02         0.00000E+00
    0.23139E-02        -0.36297E-02         0.00000E+00
    0.23674E-02        -0.37608E-02         0.00000E+00
    0.24211E-02        -0.38955E-02         0.00000E+00
    0.24749E-02        -0.40340E-02         0.00000E+00
    0.25288E-02        -0.41763E-02         0.00000E+00
    0.25825E-02        -0.43225E-02         0.00000E+00
    0.26361E-02        -0.44726E-02         0.00000E+00
    0.26893E-02        -0.46268E-02         0.00000E+00
    0.27420E-02        -0.47850E-02         0.00000E+00
    0.27940E-02        -0.49474E-02         0.00000E+00
    0.28453E-02        -0.51140E-02         0.00000E+00
    0.28955E-02        -0.52848E-02         0.00000E+00
    0.29446E-02        -0.54599E-02         0.00000E+00
    0.29922E-02        -0.56394E-02         0.00000E+00
    0.30381E-02        -0.58232E-02         0.00000E+00
    0.30821E-02        -0.60114E-02         0.00000E+00
    0.31239E-02        -0.62041E-02         0.00000E+00
    0.31632E-02        -0.64013E-02         0.00000E+00
    0.31997E-02        -0.66030E-02         0.00000E+00
    0.32330E-02        -0.68093E-02         0.00000E+00
    0.32628E-02        -0.70200E-02         0.00000E+00
    0.32887E-02        -0.72354E-02         0.00000E+00
    0.33101E-02        -0.74553E-02         0.00000E+00
    0.33268E-02        -0.76798E-02         0.00000E+00
    0.33381E-02        -0.79089E-02         0.00000E+00
    0.33437E-02        -0.81427E-02         0.00000E+00
    0.33428E-02        -0.83810E-02         0.00000E+00
    0.33350E-02        -0.86240E-02         0.00000E+00
    0.33195E-02        -0.88717E-02         0.00000E+00
    0.32959E-02        -0.91239E-02         0.00000E+00
    0.32633E-02        -0.93808E-02         0.00000E+00
    0.32211E-02        -0.96423E-02         0.00000E+00
    0.31686E-02        -0.99083E-02         0.00000E+00
    0.31049E-02        -0.10179E-01         0.00000E+00
    0.30294E-02        -0.10453E-01         0.00000E+00
    0.29412E-02        -0.10731E-01         0.00000E+00
    0.28394E-02        -0.11012E-01         0.00000E+00
    0.27232E-02        -0.11296E-01         0.00000E+00
    0.25916E-02        -0.11580E-01         0.00000E+00
    0.24435E-02        -0.11864E-01         0.00000E+00
    0.22776E-02        -0.12144E-01         0.00000E+00
    0.20925E-02        -0.12418E-01         0.00000E+00
    0.18862E-02        -0.12680E-01         0.00000E+00
    0.16564E-02        -0.12926E-01         0.00000E+00
    0.13997E-02        -0.13147E-01         0.00000E+00
    0.11121E-02        -0.13335E-01         0.00000E+00
    0.78791E-03        -0.13479E-01         0.00000E+00
    0.42002E-03        -0.13571E-01         0.00000E+00
    0.00000E+00        -0.13602E-01         0.00000E+00
    0.00000E+00        -0.11788E-03         0.00000E+00
    0.79111E-04        -0.12265E-03         0.00000E+00
    0.15096E-03        -0.13654E-03         0.00000E+00
    0.21686E-03        -0.15854E-03         0.00000E+00
    0.27791E-03        -0.18727E-03         0.00000E+00
    0.33496E-03        -0.22132E-03         0.00000E+00
    0.38866E-03        -0.25945E-03         0.00000E+00
    0.43954E-03        -0.30065E-03         0.00000E+00
    0.48800E-03        -0.34414E-03         0.00000E+00
    0.53436E-03        -0.38937E-03         0.00000E+00
    0.57890E-03        -0.43593E-03         0.00000E+00
    0.62187E-03        -0.48355E-03         0.00000E+00
    0.66345E-03        -0.53208E-03         0.00000E+00
    0.70385E-03        -0.58142E-03         0.00000E+00
    0.74324E-03        -0.63153E-03         0.00000E+00
    0.78176E-03        -0.68243E-03         0.00000E+00
    0.81958E-03        -0.73414E-03         0.00000E+00
    0.85683E-03        -0.78673E-03         0.00000E+00
    0.89365E-03        -0.84025E-03         0.00000E+00
    0.93015E-03        -0.89478E-03         0.00000E+00
    0.96647E-03        -0.95039E-03         0.00000E+00
    0.10027E-02        -0.10072E-02         0.00000E+00
    0.10390E-02        -0.10652E-02         0.00000E+00
    0.10753E-02        -0.11246E-02         0.00000E+00
    0.11119E-02        -0.11854E-02         0.00000E+00
    0.11488E-02        -0.12477E-02         0.00000E+00
    0.11860E-02        -0.13115E-02         0.00000E+00
    0.12237E-02        -0.13770E-02         0.00000E+00
    0.12619E-02        -0.14443E-02         0.00000E+00
    0.13006E-02        -0.15133E-02         0.00000E+00
    0.13400E-02        -0.15842E-02         0.00000E+00
    0.13800E-02        -0.16571E-02         0.00000E+00
    0.14207E-02        -0.17321E-02         0.00000E+00
    0.14621E-02        -0.18092E-02         0.00000E+00
    0.15043E-02        -0.18885E-02         0.00000E+00
    0.15473E-02        -0.19700E-02         0.00000E+00
    0.15910E-02        -0.20539E-02         0.00000E+00
    0.16356E-02        -0.21403E-02         0.00000E+00
    0.16810E-02        -0.22292E-02         0.00000E+00
    0.17272E-02        -0.23207E-02         0.00000E+00
    0.17743E-02        -0.24149E-02         0.00000E+00
    0.18222E-02        -0.25118E-02         0.00000E+00
    0.18709E-02        -0.26116E-02         0.00000E+00
    0.19204E-02        -0.27143E-02         0.00000E+00
    0.19707E-02        -0.28201E-02         0.00000E+00
    0.20217E-02        -0.29289E-02         0.00000E+00
    0.20735E-02        -0.30409E-02         0.00000E+00
    0.21259E-02        -0.31562E-02         0.00000E+00
    0.21790E-02        -0.32748E-02         0.00000E+00
    0.22327E-02        -0.33969E-02         0.00000E+00
    0.22869E-02        -0.35224E-02         0.00000E+00
    0.23416E-02        -0.36516E-02         0.00000E+00
    0.23967E-02        -0.37844E-02         0.00000E+00
    0.24521E-02        -0.39209E-02         0.00000E+00
    0.25077E-02        -0.40613E-02         0.00000E+00
    0.25635E-02        -0.42055E-02         0.00000E+00
    0.26193E-02        -0.43537E-02         0.00000E+00
    0.26751E-02        -0.45060E-02         0.00000E+00
    0.27306E-02        -0.46624E-02         0.00000E+00
    0.27857E-02        -0.48229E-02         0.00000E+00
    0.28404E-02        -0.49877E-02         0.00000E+00
    0.28944E-02        -0.51568E-02         0.00000E+00
    0.29475E-02        -0.53303E-02         0.00000E+00
    0.29996E-02        -0.55081E-02         0.00000E+00
    0.30505E-02        -0.56904E-02         0.00000E+00
    0.30999E-02        -0.58772E-02         0.00000E+00
    0.31476E-02        -0.60686E-02         0.00000E+00
    0.31932E-02        -0.62646E-02         0.00000E+00
    0.32367E-02        -0.64651E-02         0.00000E+00
    0.32775E-02        -0.66703E-02         0.00000E+00
    0.33154E-02        -0.68802E-02         0.00000E+00
    0.33501E-02        -0.70948E-02         0.00000E+00
    0.33811E-02        -0.73141E-02         0.00000E+00
    0.34081E-02        -0.75381E-02         0.00000E+00
    0.34305E-02        -0.77669E-02         0.00000E+00
    0.34480E-02        -0.80004E-02         0.00000E+00
    0.34599E-02        -0.82387E-02         0.00000E+00
    0.34659E-02        -0.84817E-02         0.00000E+00
    0.34652E-02        -0.87296E-02         0.00000E+00
    0.34573E-02        -0.89822E-02         0.00000E+00
    0.34416E-02        -0.92396E-02         0.00000E+00
    0.34173E-02        -0.95017E-02         0.00000E+00
    0.33838E-02        -0.97687E-02         0.00000E+00
    0.33403E-02        -0.10040E-01         0.00000E+00
    0.32861E-02        -0.10317E-01         0.00000E+00
    0.32202E-02        -0.10597E-01         0.00000E+00
    0.31420E-02        -0.10882E-01         0.00000E+00
    0.30505E-02        -0.11171E-01         0.00000E+00
    0.29449E-02        -0.11463E-01         0.00000E+00
    0.28240E-02        -0.11757E-01         0.00000E+00
    0.26870E-02        -0.12052E-01         0.00000E+00
    0.25327E-02        -0.12346E-01         0.00000E+00
    0.23597E-02        -0.12637E-01         0.00000E+00
    0.21665E-02        -0.12921E-01         0.00000E+00
    0.19513E-02        -0.13194E-01         0.00000E+00
    0.17116E-02        -0.13448E-01         0.00000E+00
    0.14445E-02        -0.13678E-01         0.00000E+00
    0.11459E-02        -0.13873E-01         0.00000E+00
    0.81040E-03        -0.14023E-01         0.00000E+00
    0.43124E-03        -0.14118E-01         0.00000E+00
    0.00000E+00        -0.14151E-01         0.00000E+00
    0.00000E+00        -0.12647E-03         0.00000E+00
    0.81285E-04        -0.13142E-03         0.00000E+00
    0.15532E-03        -0.14586E-03         0.00000E+00
    0.22342E-03        -0.16871E-03         0.00000E+00
    0.28664E-03        -0.19852E-03         0.00000E+00
    0.34581E-03        -0.23385E-03         0.00000E+00
    0.40156E-03        -0.27339E-03         0.00000E+00
    0.45437E-03        -0.31612E-03         0.00000E+00
    0.50466E-03        -0.36123E-03         0.00000E+00
    0.55274E-03        -0.40814E-03         0.00000E+00
    0.59891E-03        -0.45644E-03         0.00000E+00
    0.64341E-03        -0.50586E-03         0.00000E+00
    0.68646E-03        -0.55622E-03         0.00000E+00
    0.72825E-03        -0.60744E-03         0.00000E+00
    0.76897E-03        -0.65948E-03         0.00000E+00
    0.80879E-03        -0.71234E-03         0.00000E+00
    0.84786E-03        -0.76606E-03         0.00000E+00
    0.88634E-03        -0.82070E-03         0.00000E+00
    0.92437E-03        -0.87632E-03         0.00000E+00
    0.96208E-03        -0.93301E-03         0.00000E+00
    0.99958E-03        -0.99083E-03         0.00000E+00
    0.10370E-02        -0.10499E-02         0.00000E+00
    0.10745E-02        -0.11102E-02         0.00000E+00
    0.11120E-02        -0.11720E-02         0.00000E+00
    0.11498E-02        -0.12352E-02         0.00000E+00
    0.11879E-02        -0.13000E-02         0.00000E+00
    0.12264E-02        -0.13664E-02         0.00000E+00
    0.12653E-02        -0.14346E-02         0.00000E+00
    0.13048E-02        -0.15045E-02         0.00000E+00
    0.13448E-02        -0.15764E-02         0.00000E+00
    0.13855E-02        -0.16502E-02         0.00000E+00
    0.14268E-02        -0.17261E-02         0.00000E+00
    0.14689E-02        -0.18041E-02         0.00000E+00
    0.15117E-02        -0.18843E-02         0.00000E+00
    0.15553E-02        -0.19668E-02         0.00000E+00
    0.15998E-02        -0.20516E-02         0.00000E+00
    0.16450E-02        -0.21390E-02         0.00000E+00
    0.16911E-02        -0.22288E-02         0.00000E+00
    0.17380E-02        -0.23213E-02         0.00000E+00
    0.17859E-02        -0.24165E-02         0.00000E+00
    0.18345E-02        -0.25145E-02         0.00000E+00
    0.18840E-02        -0.26154E-02         0.00000E+00
    0.19344E-02        -0.27192E-02         0.00000E+00
    0.19856E-02        -0.28261E-02         0.00000E+00
    0.20376E-02        -0.29361E-02         0.00000E+00
    0.20904E-02        -0.30494E-02         0.00000E+00
    0.21440E-02        -0.31659E-02         0.00000E+00
    0.21982E-02        -0.32858E-02         0.00000E+00
    0.22531E-02        -0.34092E-02         0.00000E+00
    0.23087E-02        -0.35362E-02         0.00000E+00
    0.23647E-02        -0.36668E-02         0.00000E+00
    0.24213E-02        -0.38011E-02         0.00000E+00
    0.24783E-02        -0.39393E-02         0.00000E+00
    0.25356E-02        -0.40813E-02         0.00000E+00
    0.25932E-02        -0.42273E-02         0.00000E+00
    0.26510E-02        -0.43773E-02         0.00000E+00
    0.27087E-02        -0.45314E-02         0.00000E+00
    0.27664E-02        -0.46898E-02         0.00000E+00
    0.28238E-02        -0.48524E-02         0.00000E+00
    0.28809E-02        -0.50193E-02         0.00000E+00
    0.29375E-02        -0.51906E-02         0.00000E+00
    0.29934E-02        -0.53664E-02         0.00000E+00
    0.30485E-02        -0.55468E-02         0.00000E+00
    0.31024E-02        -0.57316E-02         0.00000E+00
    0.31551E-02        -0.59211E-02         0.00000E+00
    0.32063E-02        -0.61153E-02         0.00000E+00
    0.32557E-02        -0.63142E-02         0.00000E+00
    0.33031E-02        -0.65178E-02         0.00000E+00
    0.33481E-02        -0.67263E-02         0.00000E+00
    0.33905E-02        -0.69395E-02         0.00000E+00
    0.34298E-02        -0.71576E-02         0.00000E+00
    0.34658E-02        -0.73805E-02         0.00000E+00
    0.34981E-02        -0.76083E-02         0.00000E+00
    0.35262E-02        -0.78410E-02         0.00000E+00
    0.35496E-02        -0.80786E-02         0.00000E+00
    0.35678E-02        -0.83211E-02         0.00000E+00
    0.35805E-02        -0.85685E-02         0.00000E+00
    0.35869E-02        -0.88208E-02         0.00000E+00
    0.35864E-02        -0.90781E-02         0.00000E+00
    0.35786E-02        -0.93402E-02         0.00000E+00
    0.35626E-02        -0.96073E-02         0.00000E+00
    0.35378E-02        -0.98794E-02         0.00000E+00
    0.35034E-02        -0.10156E-01         0.00000E+00
    0.34586E-02        -0.10438E-01         0.00000E+00
    0.34027E-02        -0.10724E-01         0.00000E+00
    0.33348E-02        -0.11016E-01         0.00000E+00
    0.32539E-02        -0.11311E-01         0.00000E+00
    0.31592E-02        -0.11610E-01         0.00000E+00
    0.30497E-02        -0.11913E-01         0.00000E+00
    0.29243E-02        -0.12217E-01         0.00000E+00
    0.27820E-02        -0.12523E-01         0.00000E+00
    0.26215E-02        -0.12828E-01         0.00000E+00
    0.24414E-02        -0.13129E-01         0.00000E+00
    0.22403E-02        -0.13424E-01         0.00000E+00
    0.20161E-02        -0.13706E-01         0.00000E+00
    0.17667E-02        -0.13970E-01         0.00000E+00
    0.14890E-02        -0.14208E-01         0.00000E+00
    0.11794E-02        -0.14410E-01         0.00000E+00
    0.83272E-03        -0.14566E-01         0.00000E+00
    0.44236E-03        -0.14664E-01         0.00000E+00
    0.00000E+00        -0.14698E-01         0.00000E+00
    0.00000E+00        -0.13524E-03         0.00000E+00
    0.83438E-04        -0.14039E-03         0.00000E+00
    0.15964E-03        -0.15539E-03         0.00000E+00
    0.22992E-03        -0.17910E-03         0.00000E+00
    0.29530E-03        -0.21002E-03         0.00000E+00
    0.35658E-03        -0.24663E-03         0.00000E+00
    0.41435E-03        -0.28759E-03         0.00000E+00
    0.46908E-03        -0.33183E-03         0.00000E+00
    0.52118E-03        -0.37855E-03         0.00000E+00
    0.57096E-03        -0.42713E-03         0.00000E+00
    0.61873E-03        -0.47716E-03         0.00000E+00
    0.66475E-03        -0.52836E-03         0.00000E+00
    0.70923E-03        -0.58055E-03         0.00000E+00
    0.75239E-03        -0.63364E-03         0.00000E+00
    0.79442E-03        -0.68760E-03         0.00000E+00
    0.83551E-03        -0.74242E-03         0.00000E+00
    0.87581E-03        -0.79815E-03         0.00000E+00
    0.91550E-03        -0.85484E-03         0.00000E+00
    0.95471E-03        -0.91256E-03         0.00000E+00
    0.99359E-03        -0.97140E-03         0.00000E+00
    0.10323E-02        -0.10314E-02         0.00000E+00
    0.10709E-02        -0.10927E-02         0.00000E+00
    0.11095E-02        -0.11554E-02         0.00000E+00
    0.11482E-02        -0.12195E-02         0.00000E+00
    0.11872E-02        -0.12852E-02         0.00000E+00
    0.12265E-02        -0.13525E-02         0.00000E+00
    0.12662E-02        -0.14215E-02         0.00000E+00
    0.13064E-02        -0.14923E-02         0.00000E+00
    0.13471E-02        -0.15650E-02         0.00000E+00
    0.13884E-02        -0.16396E-02         0.00000E+00
    0.14304E-02        -0.17163E-02         0.00000E+00
    0.14730E-02        -0.17951E-02         0.00000E+00
    0.15164E-02        -0.18762E-02         0.00000E+00
    0.15606E-02        -0.19595E-02         0.00000E+00
    0.16057E-02        -0.20452E-02         0.00000E+00
    0.16515E-02        -0.21334E-02         0.00000E+00
    0.16982E-02        -0.22242E-02         0.00000E+00
    0.17458E-02        -0.23175E-02         0.00000E+00
    0.17943E-02        -0.24136E-02         0.00000E+00
    0.18436E-02        -0.25126E-02         0.00000E+00
    0.18939E-02        -0.26144E-02         0.00000E+00
    0.19450E-02        -0.27192E-02         0.00000E+00
    0.19971E-02        -0.28271E-02         0.00000E+00
    0.20499E-02        -0.29381E-02         0.00000E+00
    0.21036E-02        -0.30524E-02         0.00000E+00
    0.21582E-02        -0.31700E-02         0.00000E+00
    0.22135E-02        -0.32911E-02         0.00000E+00
    0.22695E-02        -0.34157E-02         0.00000E+00
    0.23262E-02        -0.35439E-02         0.00000E+00
    0.23836E-02        -0.36757E-02         0.00000E+00
    0.24415E-02        -0.38114E-02         0.00000E+00
    0.25000E-02        -0.39509E-02         0.00000E+00
    0.25588E-02        -0.40944E-02         0.00000E+00
    0.26181E-02        -0.42419E-02         0.00000E+00
    0.26776E-02        -0.43935E-02         0.00000E+00
    0.27372E-02        -0.45493E-02         0.00000E+00
    0.27969E-02        -0.47094E-02         0.00000E+00
    0.28565E-02        -0.48738E-02         0.00000E+00
    0.29159E-02        -0.50426E-02         0.00000E+00
    0.29749E-02        -0.52159E-02         0.00000E+00
    0.30334E-02        -0.53938E-02         0.00000E+00
    0.30912E-02        -0.55763E-02         0.00000E+00
    0.31481E-02        -0.57635E-02         0.00000E+00
    0.32040E-02        -0.59554E-02         0.00000E+00
    0.32585E-02        -0.61521E-02         0.00000E+00
    0.33114E-02        -0.63536E-02         0.00000E+00
    0.33625E-02        -0.65600E-02         0.00000E+00
    0.34116E-02        -0.67713E-02         0.00000E+00
    0.34582E-02        -0.69876E-02         0.00000E+00
    0.35021E-02        -0.72088E-02         0.00000E+00
    0.35429E-02        -0.74351E-02         0.00000E+00
    0.35803E-02        -0.76663E-02         0.00000E+00
    0.36138E-02        -0.79026E-02         0.00000E+00
    0.36429E-02        -0.81440E-02         0.00000E+00
    0.36673E-02        -0.83903E-02         0.00000E+00
    0.36865E-02        -0.86418E-02         0.00000E+00
    0.36997E-02        -0.88983E-02         0.00000E+00
    0.37066E-02        -0.91599E-02         0.00000E+00
    0.37065E-02        -0.94265E-02         0.00000E+00
    0.36987E-02        -0.96982E-02         0.00000E+00
    0.36825E-02        -0.99750E-02         0.00000E+00
    0.36571E-02        -0.10257E-01         0.00000E+00
    0.36219E-02        -0.10544E-01         0.00000E+00
    0.35760E-02        -0.10835E-01         0.00000E+00
    0.35185E-02        -0.11132E-01         0.00000E+00
    0.34485E-02        -0.11433E-01         0.00000E+00
    0.33651E-02        -0.11739E-01         0.00000E+00
    0.32673E-02        -0.12049E-01         0.00000E+00
    0.31540E-02        -0.12362E-01         0.00000E+00
    0.30242E-02        -0.12677E-01         0.00000E+00
    0.28766E-02        -0.12994E-01         0.00000E+00
    0.27100E-02        -0.13309E-01         0.00000E+00
    0.25229E-02        -0.13621E-01         0.00000E+00
    0.23138E-02        -0.13925E-01         0.00000E+00
    0.20807E-02        -0.14217E-01         0.00000E+00
    0.18215E-02        -0.14490E-01         0.00000E+00
    0.15334E-02        -0.14736E-01         0.00000E+00
    0.12128E-02        -0.14946E-01         0.00000E+00
    0.85494E-03        -0.15107E-01         0.00000E+00
    0.45343E-03        -0.15210E-01         0.00000E+00
    0.00000E+00        -0.15245E-01         0.00000E+00
    0.00000E+00        -0.14420E-03         0.00000E+00
    0.85573E-04        -0.14955E-03         0.00000E+00
    0.16393E-03        -0.16513E-03         0.00000E+00
    0.23637E-03        -0.18973E-03         0.00000E+00
    0.30391E-03        -0.22176E-03         0.00000E+00
    0.36728E-03        -0.25965E-03         0.00000E+00
    0.42705E-03        -0.30203E-03         0.00000E+00
    0.48368E-03        -0.34779E-03         0.00000E+00
    0.53756E-03        -0.39609E-03         0.00000E+00
    0.58903E-03        -0.44634E-03         0.00000E+00
    0.63838E-03        -0.49809E-03         0.00000E+00
    0.68588E-03        -0.55106E-03         0.00000E+00
    0.73177E-03        -0.60507E-03         0.00000E+00
    0.77627E-03        -0.66003E-03         0.00000E+00
    0.81959E-03        -0.71589E-03         0.00000E+00
    0.86192E-03        -0.77267E-03         0.00000E+00
    0.90343E-03        -0.83040E-03         0.00000E+00
    0.94430E-03        -0.88913E-03         0.00000E+00
    0.98468E-03        -0.94895E-03         0.00000E+00
    0.10247E-02        -0.10099E-02         0.00000E+00
    0.10645E-02        -0.10722E-02         0.00000E+00
    0.11043E-02        -0.11357E-02         0.00000E+00
    0.11440E-02        -0.12007E-02         0.00000E+00
    0.11839E-02        -0.12672E-02         0.00000E+00
    0.12241E-02        -0.13354E-02         0.00000E+00
    0.12645E-02        -0.14052E-02         0.00000E+00
    0.13054E-02        -0.14767E-02         0.00000E+00
    0.13468E-02        -0.15502E-02         0.00000E+00
    0.13888E-02        -0.16256E-02         0.00000E+00
    0.14313E-02        -0.17030E-02         0.00000E+00
    0.14746E-02        -0.17826E-02         0.00000E+00
    0.15186E-02        -0.18644E-02         0.00000E+00
    0.15633E-02        -0.19485E-02         0.00000E+00
    0.16089E-02        -0.20350E-02         0.00000E+00
    0.16553E-02        -0.21239E-02         0.00000E+00
    0.17025E-02        -0.22154E-02         0.00000E+00
    0.17507E-02        -0.23095E-02         0.00000E+00
    0.17997E-02        -0.24064E-02         0.00000E+00
    0.18497E-02        -0.25062E-02         0.00000E+00
    0.19006E-02        -0.26088E-02         0.00000E+00
    0.19524E-02        -0.27144E-02         0.00000E+00
    0.20052E-02        -0.28232E-02         0.00000E+00
    0.20588E-02        -0.29351E-02         0.00000E+00
    0.21133E-02        -0.30503E-02         0.00000E+00
    0.21687E-02        -0.31689E-02         0.00000E+00
    0.22249E-02        -0.32909E-02         0.00000E+00
    0.22820E-02        -0.34165E-02         0.00000E+00
    0.23398E-02        -0.35458E-02         0.00000E+00
    0.23983E-02        -0.36787E-02         0.00000E+00
    0.24574E-02        -0.38155E-02         0.00000E+00
    0.25172E-02        -0.39562E-02         0.00000E+00
    0.25775E-02        -0.41009E-02         0.00000E+00
    0.26383E-02        -0.42497E-02         0.00000E+00
    0.26994E-02        -0.44027E-02         0.00000E+00
    0.27608E-02        -0.45599E-02         0.00000E+00
    0.28223E-02        -0.47215E-02         0.00000E+00
    0.28839E-02        -0.48875E-02         0.00000E+00
    0.29454E-02        -0.50580E-02         0.00000E+00
    0.30067E-02        -0.52330E-02         0.00000E+00
    0.30677E-02        -0.54127E-02         0.00000E+00
    0.31281E-02        -0.55972E-02         0.00000E+00
    0.31877E-02        -0.57864E-02         0.00000E+00
    0.32465E-02        -0.59804E-02         0.00000E+00
    0.33042E-02        -0.61793E-02         0.00000E+00
    0.33605E-02        -0.63832E-02         0.00000E+00
    0.34152E-02        -0.65921E-02         0.00000E+00
    0.34680E-02        -0.68060E-02         0.00000E+00
    0.35187E-02        -0.70250E-02         0.00000E+00
    0.35670E-02        -0.72491E-02         0.00000E+00
    0.36124E-02        -0.74783E-02         0.00000E+00
    0.36547E-02        -0.77127E-02         0.00000E+00
    0.36934E-02        -0.79523E-02         0.00000E+00
    0.37281E-02        -0.81970E-02         0.00000E+00
    0.37584E-02        -0.84470E-02         0.00000E+00
    0.37838E-02        -0.87022E-02         0.00000E+00
    0.38038E-02        -0.89625E-02         0.00000E+00
    0.38178E-02        -0.92281E-02         0.00000E+00
    0.38252E-02        -0.94989E-02         0.00000E+00
    0.38254E-02        -0.97749E-02         0.00000E+00
    0.38176E-02        -0.10056E-01         0.00000E+00
    0.38013E-02        -0.10343E-01         0.00000E+00
    0.37755E-02        -0.10634E-01         0.00000E+00
    0.37395E-02        -0.10931E-01         0.00000E+00
    0.36925E-02        -0.11233E-01         0.00000E+00
    0.36335E-02        -0.11539E-01         0.00000E+00
    0.35615E-02        -0.11851E-01         0.00000E+00
    0.34756E-02        -0.12167E-01         0.00000E+00
    0.33748E-02        -0.12487E-01         0.00000E+00
    0.32578E-02        -0.12811E-01         0.00000E+00
    0.31236E-02        -0.13136E-01         0.00000E+00
    0.29708E-02        -0.13463E-01         0.00000E+00
    0.27982E-02        -0.13789E-01         0.00000E+00
    0.26042E-02        -0.14111E-01         0.00000E+00
    0.23872E-02        -0.14425E-01         0.00000E+00
    0.21453E-02        -0.14727E-01         0.00000E+00
    0.18763E-02        -0.15009E-01         0.00000E+00
    0.15777E-02        -0.15264E-01         0.00000E+00
    0.12461E-02        -0.15481E-01         0.00000E+00
    0.87711E-03        -0.15648E-01         0.00000E+00
    0.46446E-03        -0.15754E-01         0.00000E+00
    0.00000E+00        -0.15791E-01         0.00000E+00
    0.00000E+00        -0.15334E-03         0.00000E+00
    0.87694E-04        -0.15890E-03         0.00000E+00
    0.16819E-03        -0.17508E-03         0.00000E+00
    0.24279E-03        -0.20058E-03         0.00000E+00
    0.31246E-03        -0.23374E-03         0.00000E+00
    0.37791E-03        -0.27292E-03         0.00000E+00
    0.43967E-03        -0.31671E-03         0.00000E+00
    0.49819E-03        -0.36397E-03         0.00000E+00
    0.55383E-03        -0.41387E-03         0.00000E+00
    0.60696E-03        -0.46576E-03         0.00000E+00
    0.65786E-03        -0.51922E-03         0.00000E+00
    0.70681E-03        -0.57395E-03         0.00000E+00
    0.75409E-03        -0.62977E-03         0.00000E+00
    0.79990E-03        -0.68659E-03         0.00000E+00
    0.84448E-03        -0.74435E-03         0.00000E+00
    0.88803E-03        -0.80308E-03         0.00000E+00
    0.93072E-03        -0.86280E-03         0.00000E+00
    0.97274E-03        -0.92358E-03         0.00000E+00
    0.10143E-02        -0.98550E-03         0.00000E+00
    0.10554E-02        -0.10486E-02         0.00000E+00
    0.10964E-02        -0.11131E-02         0.00000E+00
    0.11372E-02        -0.11789E-02         0.00000E+00
    0.11781E-02        -0.12462E-02         0.00000E+00
    0.12191E-02        -0.13151E-02         0.00000E+00
    0.12604E-02        -0.13856E-02         0.00000E+00
    0.13020E-02        -0.14580E-02         0.00000E+00
    0.13441E-02        -0.15321E-02         0.00000E+00
    0.13867E-02        -0.16082E-02         0.00000E+00
    0.14298E-02        -0.16864E-02         0.00000E+00
    0.14736E-02        -0.17666E-02         0.00000E+00
    0.15181E-02        -0.18491E-02         0.00000E+00
    0.15634E-02        -0.19338E-02         0.00000E+00
    0.16095E-02        -0.20209E-02         0.00000E+00
    0.16564E-02        -0.21105E-02         0.00000E+00
    0.17041E-02        -0.22027E-02         0.00000E+00
    0.17528E-02        -0.22975E-02         0.00000E+00
    0.18024E-02        -0.23951E-02         0.00000E+00
    0.18529E-02        -0.24955E-02         0.00000E+00
    0.19043E-02        -0.25988E-02         0.00000E+00
    0.19567E-02        -0.27052E-02         0.00000E+00
    0.20101E-02        -0.28147E-02         0.00000E+00
    0.20644E-02        -0.29273E-02         0.00000E+00
    0.21196E-02        -0.30433E-02         0.00000E+00
    0.21758E-02        -0.31627E-02         0.00000E+00
    0.22328E-02        -0.32856E-02         0.00000E+00
    0.22908E-02        -0.34120E-02         0.00000E+00
    0.23495E-02        -0.35421E-02         0.00000E+00
    0.24090E-02        -0.36760E-02         0.00000E+00
    0.24693E-02        -0.38138E-02         0.00000E+00
    0.25303E-02        -0.39555E-02         0.00000E+00
    0.25919E-02        -0.41013E-02         0.00000E+00
    0.26540E-02        -0.42512E-02         0.00000E+00
    0.27166E-02        -0.44053E-02         0.00000E+00
    0.27796E-02        -0.45638E-02         0.00000E+00
    0.28428E-02        -0.47266E-02         0.00000E+00
    0.29063E-02        -0.48939E-02         0.00000E+00
    0.29697E-02        -0.50659E-02         0.00000E+00
    0.30332E-02        -0.52424E-02         0.00000E+00
    0.30964E-02        -0.54237E-02         0.00000E+00
    0.31592E-02        -0.56098E-02         0.00000E+00
    0.32215E-02        -0.58007E-02         0.00000E+00
    0.32830E-02        -0.59966E-02         0.00000E+00
    0.33436E-02        -0.61975E-02         0.00000E+00
    0.34031E-02        -0.64035E-02         0.00000E+00
    0.34612E-02        -0.66145E-02         0.00000E+00
    0.35177E-02        -0.68307E-02         0.00000E+00
    0.35722E-02        -0.70522E-02         0.00000E+00
    0.36246E-02        -0.72788E-02         0.00000E+00
    0.36744E-02        -0.75107E-02         0.00000E+00
    0.37214E-02        -0.77479E-02         0.00000E+00
    0.37651E-02        -0.79905E-02         0.00000E+00
    0.38052E-02        -0.82384E-02         0.00000E+00
    0.38412E-02        -0.84916E-02         0.00000E+00
    0.38726E-02        -0.87501E-02         0.00000E+00
    0.38991E-02        -0.90141E-02         0.00000E+00
    0.39199E-02        -0.92834E-02         0.00000E+00
    0.39346E-02        -0.95580E-02         0.00000E+00
    0.39426E-02        -0.98380E-02         0.00000E+00
    0.39431E-02        -0.10123E-01         0.00000E+00
    0.39355E-02        -0.10414E-01         0.00000E+00
    0.39190E-02        -0.10710E-01         0.00000E+00
    0.38929E-02        -0.11011E-01         0.00000E+00
    0.38562E-02        -0.11318E-01         0.00000E+00
    0.38081E-02        -0.11630E-01         0.00000E+00
    0.37476E-02        -0.11947E-01         0.00000E+00
    0.36738E-02        -0.12268E-01         0.00000E+00
    0.35855E-02        -0.12595E-01         0.00000E+00
    0.34817E-02        -0.12925E-01         0.00000E+00
    0.33612E-02        -0.13259E-01         0.00000E+00
    0.32227E-02        -0.13595E-01         0.00000E+00
    0.30649E-02        -0.13932E-01         0.00000E+00
    0.28863E-02        -0.14268E-01         0.00000E+00
    0.26854E-02        -0.14600E-01         0.00000E+00
    0.24606E-02        -0.14924E-01         0.00000E+00
    0.22099E-02        -0.15235E-01         0.00000E+00
    0.19312E-02        -0.15527E-01         0.00000E+00
    0.16221E-02        -0.15790E-01         0.00000E+00
    0.12795E-02        -0.16014E-01         0.00000E+00
    0.89928E-03        -0.16188E-01         0.00000E+00
    0.47549E-03        -0.16298E-01         0.00000E+00
    0.00000E+00        -0.16336E-01         0.00000E+00
    0.00000E+00        -0.16265E-03         0.00000E+00
    0.89804E-04        -0.16843E-03         0.00000E+00
    0.17244E-03        -0.18522E-03         0.00000E+00
    0.24919E-03        -0.21165E-03         0.00000E+00
    0.32099E-03        -0.24595E-03         0.00000E+00
    0.38850E-03        -0.28643E-03         0.00000E+00
    0.45223E-03        -0.33162E-03         0.00000E+00
    0.51260E-03        -0.38039E-03         0.00000E+00
    0.56999E-03        -0.43186E-03         0.00000E+00
    0.62474E-03        -0.48539E-03         0.00000E+00
    0.67717E-03        -0.54055E-03         0.00000E+00
    0.72756E-03        -0.59704E-03         0.00000E+00
    0.77619E-03        -0.65466E-03         0.00000E+00
    0.82329E-03        -0.71332E-03         0.00000E+00
    0.86910E-03        -0.77298E-03         0.00000E+00
    0.91383E-03        -0.83364E-03         0.00000E+00
    0.95768E-03        -0.89536E-03         0.00000E+00
    0.10008E-02        -0.95818E-03         0.00000E+00
    0.10435E-02        -0.10222E-02         0.00000E+00
    0.10857E-02        -0.10875E-02         0.00000E+00
    0.11277E-02        -0.11541E-02         0.00000E+00
    0.11697E-02        -0.12222E-02         0.00000E+00
    0.12117E-02        -0.12918E-02         0.00000E+00
    0.12538E-02        -0.13631E-02         0.00000E+00
    0.12962E-02        -0.14361E-02         0.00000E+00
    0.13390E-02        -0.15109E-02         0.00000E+00
    0.13822E-02        -0.15876E-02         0.00000E+00
    0.14260E-02        -0.16664E-02         0.00000E+00
    0.14703E-02        -0.17473E-02         0.00000E+00
    0.15153E-02        -0.18303E-02         0.00000E+00
    0.15611E-02        -0.19157E-02         0.00000E+00
    0.16076E-02        -0.20034E-02         0.00000E+00
    0.16549E-02        -0.20936E-02         0.00000E+00
    0.17031E-02        -0.21863E-02         0.00000E+00
    0.17523E-02        -0.22817E-02         0.00000E+00
    0.18023E-02        -0.23799E-02         0.00000E+00
    0.18533E-02        -0.24808E-02         0.00000E+00
    0.19052E-02        -0.25848E-02         0.00000E+00
    0.19581E-02        -0.26917E-02         0.00000E+00
    0.20120E-02        -0.28018E-02         0.00000E+00
    0.20669E-02        -0.29151E-02         0.00000E+00
    0.21228E-02        -0.30317E-02         0.00000E+00
    0.21796E-02        -0.31517E-02         0.00000E+00
    0.22373E-02        -0.32753E-02         0.00000E+00
    0.22960E-02        -0.34024E-02         0.00000E+00
    0.23556E-02        -0.35333E-02         0.00000E+00
    0.24161E-02        -0.36680E-02         0.00000E+00
    0.24773E-02        -0.38065E-02         0.00000E+00
    0.25393E-02        -0.39491E-02         0.00000E+00
    0.26021E-02        -0.40957E-02         0.00000E+00
    0.26654E-02        -0.42465E-02         0.00000E+00
    0.27294E-02        -0.44016E-02         0.00000E+00
    0.27938E-02        -0.45611E-02         0.00000E+00
    0.28586E-02        -0.47250E-02         0.00000E+00
    0.29237E-02        -0.48935E-02         0.00000E+00
    0.29890E-02        -0.50666E-02         0.00000E+00
    0.30544E-02        -0.52444E-02         0.00000E+00
    0.31197E-02        -0.54271E-02         0.00000E+00
    0.31847E-02        -0.56146E-02         0.00000E+00
    0.32494E-02        -0.58070E-02         0.00000E+00
    0.33136E-02        -0.60045E-02         0.00000E+00
    0.33770E-02        -0.62071E-02         0.00000E+00
    0.34394E-02        -0.64149E-02         0.00000E+00
    0.35007E-02        -0.66278E-02         0.00000E+00
    0.35606E-02        -0.68460E-02         0.00000E+00
    0.36188E-02        -0.70696E-02         0.00000E+00
    0.36751E-02        -0.72985E-02         0.00000E+00
    0.37291E-02        -0.75328E-02         0.00000E+00
    0.37805E-02        -0.77725E-02         0.00000E+00
    0.38290E-02        -0.80177E-02         0.00000E+00
    0.38742E-02        -0.82684E-02         0.00000E+00
    0.39157E-02        -0.85246E-02         0.00000E+00
    0.39529E-02        -0.87862E-02         0.00000E+00
    0.39856E-02        -0.90534E-02         0.00000E+00
    0.40130E-02        -0.93260E-02         0.00000E+00
    0.40348E-02        -0.96042E-02         0.00000E+00
    0.40503E-02        -0.98879E-02         0.00000E+00
    0.40588E-02        -0.10177E-01         0.00000E+00
    0.40597E-02        -0.10472E-01         0.00000E+00
    0.40523E-02        -0.10772E-01         0.00000E+00
    0.40358E-02        -0.11077E-01         0.00000E+00
    0.40093E-02        -0.11388E-01         0.00000E+00
    0.39720E-02        -0.11705E-01         0.00000E+00
    0.39229E-02        -0.12026E-01         0.00000E+00
    0.38611E-02        -0.12353E-01         0.00000E+00
    0.37855E-02        -0.12685E-01         0.00000E+00
    0.36949E-02        -0.13022E-01         0.00000E+00
    0.35882E-02        -0.13362E-01         0.00000E+00
    0.34642E-02        -0.13706E-01         0.00000E+00
    0.33215E-02        -0.14053E-01         0.00000E+00
    0.31587E-02        -0.14400E-01         0.00000E+00
    0.29743E-02        -0.14746E-01         0.00000E+00
    0.27667E-02        -0.15088E-01         0.00000E+00
    0.25340E-02        -0.15422E-01         0.00000E+00
    0.22746E-02        -0.15743E-01         0.00000E+00
    0.19862E-02        -0.16044E-01         0.00000E+00
    0.16666E-02        -0.16315E-01         0.00000E+00
    0.13130E-02        -0.16547E-01         0.00000E+00
    0.92153E-03        -0.16727E-01         0.00000E+00
    0.48654E-03        -0.16841E-01         0.00000E+00
    0.00000E+00        -0.16881E-01         0.00000E+00
    0.00000E+00        -0.17213E-03         0.00000E+00
    0.91908E-04        -0.17813E-03         0.00000E+00
    0.17667E-03        -0.19556E-03         0.00000E+00
    0.25557E-03        -0.22294E-03         0.00000E+00
    0.32949E-03        -0.25840E-03         0.00000E+00
    0.39906E-03        -0.30017E-03         0.00000E+00
    0.46474E-03        -0.34677E-03         0.00000E+00
    0.52695E-03        -0.39703E-03         0.00000E+00
    0.58606E-03        -0.45006E-03         0.00000E+00
    0.64241E-03        -0.50523E-03         0.00000E+00
    0.69633E-03        -0.56208E-03         0.00000E+00
    0.74812E-03        -0.62030E-03         0.00000E+00
    0.79807E-03        -0.67971E-03         0.00000E+00
    0.84643E-03        -0.74021E-03         0.00000E+00
    0.89345E-03        -0.80176E-03         0.00000E+00
    0.93934E-03        -0.86436E-03         0.00000E+00
    0.98431E-03        -0.92806E-03         0.00000E+00
    0.10286E-02        -0.99292E-03         0.00000E+00
    0.10723E-02        -0.10590E-02         0.00000E+00
    0.11156E-02        -0.11264E-02         0.00000E+00
    0.11587E-02        -0.11953E-02         0.00000E+00
    0.12017E-02        -0.12656E-02         0.00000E+00
    0.12448E-02        -0.13375E-02         0.00000E+00
    0.12880E-02        -0.14112E-02         0.00000E+00
    0.13315E-02        -0.14866E-02         0.00000E+00
    0.13754E-02        -0.15640E-02         0.00000E+00
    0.14198E-02        -0.16433E-02         0.00000E+00
    0.14647E-02        -0.17247E-02         0.00000E+00
    0.15102E-02        -0.18083E-02         0.00000E+00
    0.15564E-02        -0.18942E-02         0.00000E+00
    0.16033E-02        -0.19824E-02         0.00000E+00
    0.16511E-02        -0.20731E-02         0.00000E+00
    0.16997E-02        -0.21663E-02         0.00000E+00
    0.17492E-02        -0.22622E-02         0.00000E+00
    0.17997E-02        -0.23609E-02         0.00000E+00
    0.18510E-02        -0.24623E-02         0.00000E+00
    0.19034E-02        -0.25667E-02         0.00000E+00
    0.19567E-02        -0.26742E-02         0.00000E+00
    0.20111E-02        -0.27848E-02         0.00000E+00
    0.20665E-02        -0.28986E-02         0.00000E+00
    0.21229E-02        -0.30157E-02         0.00000E+00
    0.21802E-02        -0.31363E-02         0.00000E+00
    0.22386E-02        -0.32603E-02         0.00000E+00
    0.22980E-02        -0.33881E-02         0.00000E+00
    0.23583E-02        -0.35195E-02         0.00000E+00
    0.24195E-02        -0.36548E-02         0.00000E+00
    0.24816E-02        -0.37940E-02         0.00000E+00
    0.25446E-02        -0.39372E-02         0.00000E+00
    0.26083E-02        -0.40845E-02         0.00000E+00
    0.26728E-02        -0.42361E-02         0.00000E+00
    0.27379E-02        -0.43920E-02         0.00000E+00
    0.28036E-02        -0.45523E-02         0.00000E+00
    0.28699E-02        -0.47171E-02         0.00000E+00
    0.29365E-02        -0.48865E-02         0.00000E+00
    0.30035E-02        -0.50606E-02         0.00000E+00
    0.30706E-02        -0.52395E-02         0.00000E+00
    0.31378E-02        -0.54232E-02         0.00000E+00
    0.32050E-02        -0.56119E-02         0.00000E+00
    0.32719E-02        -0.58057E-02         0.00000E+00
    0.33385E-02        -0.60045E-02         0.00000E+00
    0.34045E-02        -0.62085E-02         0.00000E+00
    0.34697E-02        -0.64178E-02         0.00000E+00
    0.35340E-02        -0.66324E-02         0.00000E+00
    0.35971E-02        -0.68524E-02         0.00000E+00
    0.36587E-02        -0.70778E-02         0.00000E+00
    0.37187E-02        -0.73086E-02         0.00000E+00
    0.37767E-02        -0.75450E-02         0.00000E+00
    0.38323E-02        -0.77870E-02         0.00000E+00
    0.38853E-02        -0.80345E-02         0.00000E+00
    0.39354E-02        -0.82877E-02         0.00000E+00
    0.39820E-02        -0.85465E-02         0.00000E+00
    0.40248E-02        -0.88109E-02         0.00000E+00
    0.40634E-02        -0.90810E-02         0.00000E+00
    0.40972E-02        -0.93567E-02         0.00000E+00
    0.41258E-02        -0.96381E-02         0.00000E+00
    0.41485E-02        -0.99251E-02         0.00000E+00
    0.41647E-02        -0.10218E-01         0.00000E+00
    0.41739E-02        -0.10516E-01         0.00000E+00
    0.41752E-02        -0.10820E-01         0.00000E+00
    0.41680E-02        -0.11130E-01         0.00000E+00
    0.41515E-02        -0.11445E-01         0.00000E+00
    0.41247E-02        -0.11765E-01         0.00000E+00
    0.40869E-02        -0.12091E-01         0.00000E+00
    0.40369E-02        -0.12423E-01         0.00000E+00
    0.39738E-02        -0.12760E-01         0.00000E+00
    0.38965E-02        -0.13102E-01         0.00000E+00
    0.38037E-02        -0.13448E-01         0.00000E+00
    0.36943E-02        -0.13799E-01         0.00000E+00
    0.35669E-02        -0.14153E-01         0.00000E+00
    0.34201E-02        -0.14510E-01         0.00000E+00
    0.32524E-02        -0.14867E-01         0.00000E+00
    0.30623E-02        -0.15224E-01         0.00000E+00
    0.28480E-02        -0.15576E-01         0.00000E+00
    0.26077E-02        -0.15919E-01         0.00000E+00
    0.23396E-02        -0.16250E-01         0.00000E+00
    0.20415E-02        -0.16559E-01         0.00000E+00
    0.17114E-02        -0.16839E-01         0.00000E+00
    0.13467E-02        -0.17079E-01         0.00000E+00
    0.94390E-03        -0.17265E-01         0.00000E+00
    0.49764E-03        -0.17384E-01         0.00000E+00
    0.00000E+00        -0.17425E-01         0.00000E+00
    0.00000E+00        -0.18176E-03         0.00000E+00
    0.94011E-04        -0.18800E-03         0.00000E+00
    0.18090E-03        -0.20610E-03         0.00000E+00
    0.26195E-03        -0.23444E-03         0.00000E+00
    0.33799E-03        -0.27107E-03         0.00000E+00
    0.40960E-03        -0.31414E-03         0.00000E+00
    0.47722E-03        -0.36215E-03         0.00000E+00
    0.54124E-03        -0.41389E-03         0.00000E+00
    0.60203E-03        -0.46848E-03         0.00000E+00
    0.65995E-03        -0.52527E-03         0.00000E+00
    0.71534E-03        -0.58379E-03         0.00000E+00
    0.76851E-03        -0.64375E-03         0.00000E+00
    0.81975E-03        -0.70494E-03         0.00000E+00
    0.86934E-03        -0.76727E-03         0.00000E+00
    0.91753E-03        -0.83070E-03         0.00000E+00
    0.96455E-03        -0.89523E-03         0.00000E+00
    0.10106E-02        -0.96091E-03         0.00000E+00
    0.10560E-02        -0.10278E-02         0.00000E+00
    0.11007E-02        -0.10960E-02         0.00000E+00
    0.11451E-02        -0.11655E-02         0.00000E+00
    0.11893E-02        -0.12366E-02         0.00000E+00
    0.12333E-02        -0.13092E-02         0.00000E+00
    0.12774E-02        -0.13834E-02         0.00000E+00
    0.13217E-02        -0.14595E-02         0.00000E+00
    0.13663E-02        -0.15373E-02         0.00000E+00
    0.14113E-02        -0.16172E-02         0.00000E+00
    0.14567E-02        -0.16991E-02         0.00000E+00
    0.15028E-02        -0.17832E-02         0.00000E+00
    0.15494E-02        -0.18695E-02         0.00000E+00
    0.15968E-02        -0.19582E-02         0.00000E+00
    0.16450E-02        -0.20493E-02         0.00000E+00
    0.16939E-02        -0.21430E-02         0.00000E+00
    0.17438E-02        -0.22393E-02         0.00000E+00
    0.17946E-02        -0.23383E-02         0.00000E+00
    0.18463E-02        -0.24402E-02         0.00000E+00
    0.18990E-02        -0.25450E-02         0.00000E+00
    0.19527E-02        -0.26528E-02         0.00000E+00
    0.20075E-02        -0.27638E-02         0.00000E+00
    0.20633E-02        -0.28780E-02         0.00000E+00
    0.21201E-02        -0.29955E-02         0.00000E+00
    0.21779E-02        -0.31165E-02         0.00000E+00
    0.22368E-02        -0.32410E-02         0.00000E+00
    0.22968E-02        -0.33691E-02         0.00000E+00
    0.23577E-02        -0.35010E-02         0.00000E+00
    0.24196E-02        -0.36368E-02         0.00000E+00
    0.24824E-02        -0.37764E-02         0.00000E+00
    0.25462E-02        -0.39202E-02         0.00000E+00
    0.26108E-02        -0.40681E-02         0.00000E+00
    0.26763E-02        -0.42202E-02         0.00000E+00
    0.27425E-02        -0.43767E-02         0.00000E+00
    0.28093E-02        -0.45376E-02         0.00000E+00
    0.28768E-02        -0.47031E-02         0.00000E+00
    0.29449E-02        -0.48733E-02         0.00000E+00
    0.30133E-02        -0.50482E-02         0.00000E+00
    0.30821E-02        -0.52279E-02         0.00000E+00
    0.31510E-02        -0.54125E-02         0.00000E+00
    0.32201E-02        -0.56022E-02         0.00000E+00
    0.32891E-02        -0.57970E-02         0.00000E+00
    0.33579E-02        -0.59969E-02         0.00000E+00
    0.34263E-02        -0.62022E-02         0.00000E+00
    0.34941E-02        -0.64127E-02         0.00000E+00
    0.35612E-02        -0.66287E-02         0.00000E+00
    0.36272E-02        -0.68501E-02         0.00000E+00
    0.36921E-02        -0.70771E-02         0.00000E+00
    0.37556E-02        -0.73096E-02         0.00000E+00
    0.38172E-02        -0.75478E-02         0.00000E+00
    0.38769E-02        -0.77917E-02         0.00000E+00
    0.39342E-02        -0.80413E-02         0.00000E+00
    0.39888E-02        -0.82966E-02         0.00000E+00
    0.40404E-02        -0.85578E-02         0.00000E+00
    0.40885E-02        -0.88246E-02         0.00000E+00
    0.41327E-02        -0.90973E-02         0.00000E+00
    0.41726E-02        -0.93758E-02         0.00000E+00
    0.42076E-02        -0.96601E-02         0.00000E+00
    0.42373E-02        -0.99502E-02         0.00000E+00
    0.42609E-02        -0.10246E-01         0.00000E+00
    0.42780E-02        -0.10548E-01         0.00000E+00
    0.42878E-02        -0.10855E-01         0.00000E+00
    0.42896E-02        -0.11168E-01         0.00000E+00
    0.42827E-02        -0.11487E-01         0.00000E+00
    0.42662E-02        -0.11812E-01         0.00000E+00
    0.42393E-02        -0.12142E-01         0.00000E+00
    0.42009E-02        -0.12478E-01         0.00000E+00
    0.41501E-02        -0.12819E-01         0.00000E+00
    0.40858E-02        -0.13166E-01         0.00000E+00
    0.40069E-02        -0.13518E-01         0.00000E+00
    0.39120E-02        -0.13874E-01         0.00000E+00
    0.38000E-02        -0.14235E-01         0.00000E+00
    0.36693E-02        -0.14600E-01         0.00000E+00
    0.35186E-02        -0.14966E-01         0.00000E+00
    0.33462E-02        -0.15334E-01         0.00000E+00
    0.31504E-02        -0.15700E-01         0.00000E+00
    0.29295E-02        -0.16062E-01         0.00000E+00
    0.26816E-02        -0.16415E-01         0.00000E+00
    0.24049E-02        -0.16755E-01         0.00000E+00
    0.20972E-02        -0.17074E-01         0.00000E+00
    0.17566E-02        -0.17362E-01         0.00000E+00
    0.13807E-02        -0.17610E-01         0.00000E+00
    0.96647E-03        -0.17802E-01         0.00000E+00
    0.50884E-03        -0.17926E-01         0.00000E+00
    0.00000E+00        -0.17968E-01         0.00000E+00
    0.00000E+00        -0.19155E-03         0.00000E+00
    0.96116E-04        -0.19804E-03         0.00000E+00
    0.18514E-03        -0.21682E-03         0.00000E+00
    0.26834E-03        -0.24615E-03         0.00000E+00
    0.34650E-03        -0.28396E-03         0.00000E+00
    0.42014E-03        -0.32834E-03         0.00000E+00
    0.48967E-03        -0.37775E-03         0.00000E+00
    0.55547E-03        -0.43097E-03         0.00000E+00
    0.61793E-03        -0.48710E-03         0.00000E+00
    0.67739E-03        -0.54550E-03         0.00000E+00
    0.73421E-03        -0.60569E-03         0.00000E+00
    0.78872E-03        -0.66737E-03         0.00000E+00
    0.84123E-03        -0.73033E-03         0.00000E+00
    0.89201E-03        -0.79449E-03         0.00000E+00
    0.94134E-03        -0.85979E-03         0.00000E+00
    0.98946E-03        -0.92624E-03         0.00000E+00
    0.10366E-02        -0.99390E-03         0.00000E+00
    0.10830E-02        -0.10628E-02         0.00000E+00
    0.11288E-02        -0.11331E-02         0.00000E+00
    0.11742E-02        -0.12048E-02         0.00000E+00
    0.12194E-02        -0.12780E-02         0.00000E+00
    0.12645E-02        -0.13529E-02         0.00000E+00
    0.13096E-02        -0.14294E-02         0.00000E+00
    0.13549E-02        -0.15078E-02         0.00000E+00
    0.14006E-02        -0.15882E-02         0.00000E+00
    0.14466E-02        -0.16706E-02         0.00000E+00
    0.14932E-02        -0.17551E-02         0.00000E+00
    0.15403E-02        -0.18418E-02         0.00000E+00
    0.15881E-02        -0.19308E-02         0.00000E+00
    0.16366E-02        -0.20223E-02         0.00000E+00
    0.16859E-02        -0.21163E-02         0.00000E+00
    0.17361E-02        -0.22130E-02         0.00000E+00
    0.17872E-02        -0.23123E-02         0.00000E+00
    0.18392E-02        -0.24145E-02         0.00000E+00
    0.18922E-02        -0.25196E-02         0.00000E+00
    0.19463E-02        -0.26278E-02         0.00000E+00
    0.20013E-02        -0.27390E-02         0.00000E+00
    0.20574E-02        -0.28535E-02         0.00000E+00
    0.21146E-02        -0.29714E-02         0.00000E+00
    0.21729E-02        -0.30926E-02         0.00000E+00
    0.22322E-02        -0.32174E-02         0.00000E+00
    0.22926E-02        -0.33459E-02         0.00000E+00
    0.23540E-02        -0.34781E-02         0.00000E+00
    0.24165E-02        -0.36142E-02         0.00000E+00
    0.24799E-02        -0.37542E-02         0.00000E+00
    0.25444E-02        -0.38983E-02         0.00000E+00
    0.26098E-02        -0.40466E-02         0.00000E+00
    0.26761E-02        -0.41991E-02         0.00000E+00
    0.27432E-02        -0.43561E-02         0.00000E+00
    0.28111E-02        -0.45175E-02         0.00000E+00
    0.28797E-02        -0.46835E-02         0.00000E+00
    0.29489E-02        -0.48542E-02         0.00000E+00
    0.30187E-02        -0.50297E-02         0.00000E+00
    0.30889E-02        -0.52100E-02         0.00000E+00
    0.31595E-02        -0.53954E-02         0.00000E+00
    0.32303E-02        -0.55858E-02         0.00000E+00
    0.33012E-02        -0.57814E-02         0.00000E+00
    0.33720E-02        -0.59823E-02         0.00000E+00
    0.34426E-02        -0.61884E-02         0.00000E+00
    0.35128E-02        -0.64000E-02         0.00000E+00
    0.35825E-02        -0.66171E-02         0.00000E+00
    0.36513E-02        -0.68398E-02         0.00000E+00
    0.37192E-02        -0.70680E-02         0.00000E+00
    0.37859E-02        -0.73020E-02         0.00000E+00
    0.38511E-02        -0.75417E-02         0.00000E+00
    0.39145E-02        -0.77872E-02         0.00000E+00
    0.39758E-02        -0.80386E-02         0.00000E+00
    0.40348E-02        -0.82958E-02         0.00000E+00
    0.40910E-02        -0.85589E-02         0.00000E+00
    0.41441E-02        -0.88280E-02         0.00000E+00
    0.41937E-02        -0.91030E-02         0.00000E+00
    0.42394E-02        -0.93839E-02         0.00000E+00
    0.42805E-02        -0.96708E-02         0.00000E+00
    0.43168E-02        -0.99637E-02         0.00000E+00
    0.43475E-02        -0.10262E-01         0.00000E+00
    0.43722E-02        -0.10567E-01         0.00000E+00
    0.43901E-02        -0.10878E-01         0.00000E+00
    0.44006E-02        -0.11194E-01         0.00000E+00
    0.44029E-02        -0.11517E-01         0.00000E+00
    0.43964E-02        -0.11845E-01         0.00000E+00
    0.43800E-02        -0.12179E-01         0.00000E+00
    0.43529E-02        -0.12519E-01         0.00000E+00
    0.43141E-02        -0.12864E-01         0.00000E+00
    0.42626E-02        -0.13215E-01         0.00000E+00
    0.41972E-02        -0.13572E-01         0.00000E+00
    0.41168E-02        -0.13934E-01         0.00000E+00
    0.40199E-02        -0.14300E-01         0.00000E+00
    0.39054E-02        -0.14671E-01         0.00000E+00
    0.37716E-02        -0.15045E-01         0.00000E+00
    0.36170E-02        -0.15422E-01         0.00000E+00
    0.34399E-02        -0.15800E-01         0.00000E+00
    0.32386E-02        -0.16176E-01         0.00000E+00
    0.30113E-02        -0.16547E-01         0.00000E+00
    0.27560E-02        -0.16910E-01         0.00000E+00
    0.24707E-02        -0.17259E-01         0.00000E+00
    0.21534E-02        -0.17587E-01         0.00000E+00
    0.18023E-02        -0.17884E-01         0.00000E+00
    0.14151E-02        -0.18140E-01         0.00000E+00
    0.98931E-03        -0.18339E-01         0.00000E+00
    0.52017E-03        -0.18467E-01         0.00000E+00
    0.00000E+00        -0.18511E-01         0.00000E+00
    0.00000E+00        -0.20148E-03         0.00000E+00
    0.98230E-04        -0.20824E-03         0.00000E+00
    0.18940E-03        -0.22773E-03         0.00000E+00
    0.27476E-03        -0.25808E-03         0.00000E+00
    0.35503E-03        -0.29708E-03         0.00000E+00
    0.43069E-03        -0.34277E-03         0.00000E+00
    0.50211E-03        -0.39357E-03         0.00000E+00
    0.56968E-03        -0.44826E-03         0.00000E+00
    0.63376E-03        -0.50593E-03         0.00000E+00
    0.69473E-03        -0.56592E-03         0.00000E+00
    0.75296E-03        -0.62777E-03         0.00000E+00
    0.80877E-03        -0.69115E-03         0.00000E+00
    0.86250E-03        -0.75588E-03         0.00000E+00
    0.91445E-03        -0.82185E-03         0.00000E+00
    0.96489E-03        -0.88902E-03         0.00000E+00
    0.10141E-02        -0.95740E-03         0.00000E+00
    0.10623E-02        -0.10270E-02         0.00000E+00
    0.11097E-02        -0.10980E-02         0.00000E+00
    0.11565E-02        -0.11703E-02         0.00000E+00
    0.12029E-02        -0.12441E-02         0.00000E+00
    0.12490E-02        -0.13196E-02         0.00000E+00
    0.12951E-02        -0.13967E-02         0.00000E+00
    0.13413E-02        -0.14756E-02         0.00000E+00
    0.13876E-02        -0.15564E-02         0.00000E+00
    0.14343E-02        -0.16391E-02         0.00000E+00
    0.14814E-02        -0.17240E-02         0.00000E+00
    0.15290E-02        -0.18111E-02         0.00000E+00
    0.15772E-02        -0.19005E-02         0.00000E+00
    0.16261E-02        -0.19923E-02         0.00000E+00
    0.16758E-02        -0.20866E-02         0.00000E+00
    0.17262E-02        -0.21835E-02         0.00000E+00
    0.17776E-02        -0.22831E-02         0.00000E+00
    0.18299E-02        -0.23855E-02         0.00000E+00
    0.18832E-02        -0.24909E-02         0.00000E+00
    0.19374E-02        -0.25992E-02         0.00000E+00
    0.19927E-02        -0.27107E-02         0.00000E+00
    0.20491E-02        -0.28254E-02         0.00000E+00
    0.21066E-02        -0.29434E-02         0.00000E+00
    0.21651E-02        -0.30649E-02         0.00000E+00
    0.22248E-02        -0.31899E-02         0.00000E+00
    0.22855E-02        -0.33186E-02         0.00000E+00
    0.23474E-02        -0.34510E-02         0.00000E+00
    0.24103E-02        -0.35872E-02         0.00000E+00
    0.24743E-02        -0.37275E-02         0.00000E+00
    0.25393E-02        -0.38718E-02         0.00000E+00
    0.26054E-02        -0.40203E-02         0.00000E+00
    0.26724E-02        -0.41732E-02         0.00000E+00
    0.27403E-02        -0.43304E-02         0.00000E+00
    0.28091E-02        -0.44921E-02         0.00000E+00
    0.28786E-02        -0.46585E-02         0.00000E+00
    0.29490E-02        -0.48295E-02         0.00000E+00
    0.30199E-02        -0.50054E-02         0.00000E+00
    0.30915E-02        -0.51863E-02         0.00000E+00
    0.31635E-02        -0.53721E-02         0.00000E+00
    0.32358E-02        -0.55631E-02         0.00000E+00
    0.33084E-02        -0.57593E-02         0.00000E+00
    0.33810E-02        -0.59608E-02         0.00000E+00
    0.34537E-02        -0.61677E-02         0.00000E+00
    0.35261E-02        -0.63801E-02         0.00000E+00
    0.35981E-02        -0.65981E-02         0.00000E+00
    0.36696E-02        -0.68217E-02         0.00000E+00
    0.37403E-02        -0.70510E-02         0.00000E+00
    0.38099E-02        -0.72862E-02         0.00000E+00
    0.38784E-02        -0.75271E-02         0.00000E+00
    0.39453E-02        -0.77740E-02         0.00000E+00
    0.40105E-02        -0.80268E-02         0.00000E+00
    0.40735E-02        -0.82856E-02         0.00000E+00
    0.41341E-02        -0.85505E-02         0.00000E+00
    0.41919E-02        -0.88214E-02         0.00000E+00
    0.42466E-02        -0.90984E-02         0.00000E+00
    0.42977E-02        -0.93814E-02         0.00000E+00
    0.43447E-02        -0.96706E-02         0.00000E+00
    0.43872E-02        -0.99659E-02         0.00000E+00
    0.44247E-02        -0.10267E-01         0.00000E+00
    0.44565E-02        -0.10575E-01         0.00000E+00
    0.44822E-02        -0.10888E-01         0.00000E+00
    0.45010E-02        -0.11208E-01         0.00000E+00
    0.45123E-02        -0.11533E-01         0.00000E+00
    0.45152E-02        -0.11865E-01         0.00000E+00
    0.45090E-02        -0.12203E-01         0.00000E+00
    0.44928E-02        -0.12546E-01         0.00000E+00
    0.44656E-02        -0.12895E-01         0.00000E+00
    0.44265E-02        -0.13251E-01         0.00000E+00
    0.43744E-02        -0.13611E-01         0.00000E+00
    0.43080E-02        -0.13978E-01         0.00000E+00
    0.42261E-02        -0.14349E-01         0.00000E+00
    0.41274E-02        -0.14726E-01         0.00000E+00
    0.40104E-02        -0.15106E-01         0.00000E+00
    0.38736E-02        -0.15491E-01         0.00000E+00
    0.37153E-02        -0.15877E-01         0.00000E+00
    0.35338E-02        -0.16265E-01         0.00000E+00
    0.33272E-02        -0.16651E-01         0.00000E+00
    0.30935E-02        -0.17032E-01         0.00000E+00
    0.28308E-02        -0.17405E-01         0.00000E+00
    0.25370E-02        -0.17763E-01         0.00000E+00
    0.22102E-02        -0.18099E-01         0.00000E+00
    0.18485E-02        -0.18405E-01         0.00000E+00
    0.14501E-02        -0.18668E-01         0.00000E+00
    0.10125E-02        -0.18874E-01         0.00000E+00
    0.53167E-03        -0.19007E-01         0.00000E+00
    0.00000E+00        -0.19053E-01         0.00000E+00
    0.00000E+00        -0.21156E-03         0.00000E+00
    0.10036E-03        -0.21859E-03         0.00000E+00
    0.19369E-03        -0.23883E-03         0.00000E+00
    0.28122E-03        -0.27021E-03         0.00000E+00
    0.36360E-03        -0.31042E-03         0.00000E+00
    0.44127E-03        -0.35742E-03         0.00000E+00
    0.51456E-03        -0.40960E-03         0.00000E+00
    0.58386E-03        -0.46575E-03         0.00000E+00
    0.64954E-03        -0.52495E-03         0.00000E+00
    0.71199E-03        -0.58653E-03         0.00000E+00
    0.77157E-03        -0.65002E-03         0.00000E+00
    0.82866E-03        -0.71510E-03         0.00000E+00
    0.88358E-03        -0.78159E-03         0.00000E+00
    0.93666E-03        -0.84936E-03         0.00000E+00
    0.98818E-03        -0.91839E-03         0.00000E+00
    0.10384E-02        -0.98868E-03         0.00000E+00
    0.10876E-02        -0.10603E-02         0.00000E+00
    0.11360E-02        -0.11332E-02         0.00000E+00
    0.11838E-02        -0.12077E-02         0.00000E+00
    0.12311E-02        -0.12836E-02         0.00000E+00
    0.12783E-02        -0.13612E-02         0.00000E+00
    0.13253E-02        -0.14406E-02         0.00000E+00
    0.13725E-02        -0.15218E-02         0.00000E+00
    0.14198E-02        -0.16050E-02         0.00000E+00
    0.14675E-02        -0.16902E-02         0.00000E+00
    0.15156E-02        -0.17776E-02         0.00000E+00
    0.15643E-02        -0.18673E-02         0.00000E+00
    0.16135E-02        -0.19594E-02         0.00000E+00
    0.16635E-02        -0.20539E-02         0.00000E+00
    0.17143E-02        -0.21510E-02         0.00000E+00
    0.17659E-02        -0.22508E-02         0.00000E+00
    0.18184E-02        -0.23534E-02         0.00000E+00
    0.18719E-02        -0.24589E-02         0.00000E+00
    0.19264E-02        -0.25674E-02         0.00000E+00
    0.19819E-02        -0.26790E-02         0.00000E+00
    0.20384E-02        -0.27938E-02         0.00000E+00
    0.20961E-02        -0.29119E-02         0.00000E+00
    0.21549E-02        -0.30335E-02         0.00000E+00
    0.22148E-02        -0.31586E-02         0.00000E+00
    0.22759E-02        -0.32873E-02         0.00000E+00
    0.23380E-02        -0.34198E-02         0.00000E+00
    0.24013E-02        -0.35562E-02         0.00000E+00
    0.24657E-02        -0.36965E-02         0.00000E+00
    0.25312E-02        -0.38410E-02         0.00000E+00
    0.25978E-02        -0.39896E-02         0.00000E+00
    0.26654E-02        -0.41426E-02         0.00000E+00
    0.27339E-02        -0.42999E-02         0.00000E+00
    0.28035E-02        -0.44618E-02         0.00000E+00
    0.28739E-02        -0.46284E-02         0.00000E+00
    0.29452E-02        -0.47996E-02         0.00000E+00
    0.30172E-02        -0.49758E-02         0.00000E+00
    0.30898E-02        -0.51569E-02         0.00000E+00
    0.31631E-02        -0.53431E-02         0.00000E+00
    0.32368E-02        -0.55344E-02         0.00000E+00
    0.33109E-02        -0.57310E-02         0.00000E+00
    0.33853E-02        -0.59330E-02         0.00000E+00
    0.34597E-02        -0.61404E-02         0.00000E+00
    0.35342E-02        -0.63534E-02         0.00000E+00
    0.36084E-02        -0.65720E-02         0.00000E+00
    0.36822E-02        -0.67964E-02         0.00000E+00
    0.37555E-02        -0.70265E-02         0.00000E+00
    0.38279E-02        -0.72625E-02         0.00000E+00
    0.38994E-02        -0.75045E-02         0.00000E+00
    0.39696E-02        -0.77524E-02         0.00000E+00
    0.40383E-02        -0.80064E-02         0.00000E+00
    0.41051E-02        -0.82666E-02         0.00000E+00
    0.41698E-02        -0.85328E-02         0.00000E+00
    0.42321E-02        -0.88053E-02         0.00000E+00
    0.42915E-02        -0.90840E-02         0.00000E+00
    0.43477E-02        -0.93689E-02         0.00000E+00
    0.44003E-02        -0.96601E-02         0.00000E+00
    0.44487E-02        -0.99575E-02         0.00000E+00
    0.44926E-02        -0.10261E-01         0.00000E+00
    0.45313E-02        -0.10571E-01         0.00000E+00
    0.45644E-02        -0.10887E-01         0.00000E+00
    0.45911E-02        -0.11209E-01         0.00000E+00
    0.46108E-02        -0.11538E-01         0.00000E+00
    0.46228E-02        -0.11873E-01         0.00000E+00
    0.46264E-02        -0.12213E-01         0.00000E+00
    0.46206E-02        -0.12560E-01         0.00000E+00
    0.46046E-02        -0.12913E-01         0.00000E+00
    0.45775E-02        -0.13272E-01         0.00000E+00
    0.45381E-02        -0.13637E-01         0.00000E+00
    0.44854E-02        -0.14007E-01         0.00000E+00
    0.44181E-02        -0.14383E-01         0.00000E+00
    0.43350E-02        -0.14765E-01         0.00000E+00
    0.42345E-02        -0.15151E-01         0.00000E+00
    0.41153E-02        -0.15541E-01         0.00000E+00
    0.39756E-02        -0.15936E-01         0.00000E+00
    0.38138E-02        -0.16332E-01         0.00000E+00
    0.36279E-02        -0.16729E-01         0.00000E+00
    0.34160E-02        -0.17125E-01         0.00000E+00
    0.31762E-02        -0.17516E-01         0.00000E+00
    0.29062E-02        -0.17898E-01         0.00000E+00
    0.26041E-02        -0.18265E-01         0.00000E+00
    0.22678E-02        -0.18611E-01         0.00000E+00
    0.18955E-02        -0.18925E-01         0.00000E+00
    0.14856E-02        -0.19196E-01         0.00000E+00
    0.10361E-02        -0.19409E-01         0.00000E+00
    0.54337E-03        -0.19547E-01         0.00000E+00
    0.00000E+00        -0.19595E-01         0.00000E+00
    0.00000E+00        -0.22177E-03         0.00000E+00
    0.10251E-03        -0.22910E-03         0.00000E+00
    0.19803E-03        -0.25011E-03         0.00000E+00
    0.28774E-03        -0.28256E-03         0.00000E+00
    0.37224E-03        -0.32398E-03         0.00000E+00
    0.45189E-03        -0.37228E-03         0.00000E+00
    0.52704E-03        -0.42585E-03         0.00000E+00
    0.59803E-03        -0.48345E-03         0.00000E+00
    0.66528E-03        -0.54416E-03         0.00000E+00
    0.72916E-03        -0.60731E-03         0.00000E+00
    0.79008E-03        -0.67244E-03         0.00000E+00
    0.84840E-03        -0.73921E-03         0.00000E+00
    0.90448E-03        -0.80744E-03         0.00000E+00
    0.95864E-03        -0.87702E-03         0.00000E+00
    0.10112E-02        -0.94790E-03         0.00000E+00
    0.10624E-02        -0.10201E-02         0.00000E+00
    0.11126E-02        -0.10937E-02         0.00000E+00
    0.11620E-02        -0.11686E-02         0.00000E+00
    0.12107E-02        -0.12451E-02         0.00000E+00
    0.12590E-02        -0.13232E-02         0.00000E+00
    0.13071E-02        -0.14030E-02         0.00000E+00
    0.13551E-02        -0.14847E-02         0.00000E+00
    0.14032E-02        -0.15682E-02         0.00000E+00
    0.14515E-02        -0.16537E-02         0.00000E+00
    0.15002E-02        -0.17414E-02         0.00000E+00
    0.15493E-02        -0.18314E-02         0.00000E+00
    0.15989E-02        -0.19236E-02         0.00000E+00
    0.16493E-02        -0.20184E-02         0.00000E+00
    0.17003E-02        -0.21156E-02         0.00000E+00
    0.17521E-02        -0.22156E-02         0.00000E+00
    0.18049E-02        -0.23183E-02         0.00000E+00
    0.18585E-02        -0.24238E-02         0.00000E+00
    0.19132E-02        -0.25324E-02         0.00000E+00
    0.19688E-02        -0.26440E-02         0.00000E+00
    0.20256E-02        -0.27589E-02         0.00000E+00
    0.20834E-02        -0.28770E-02         0.00000E+00
    0.21423E-02        -0.29986E-02         0.00000E+00
    0.22024E-02        -0.31237E-02         0.00000E+00
    0.22637E-02        -0.32524E-02         0.00000E+00
    0.23261E-02        -0.33849E-02         0.00000E+00
    0.23896E-02        -0.35213E-02         0.00000E+00
    0.24544E-02        -0.36616E-02         0.00000E+00
    0.25202E-02        -0.38060E-02         0.00000E+00
    0.25872E-02        -0.39546E-02         0.00000E+00
    0.26553E-02        -0.41076E-02         0.00000E+00
    0.27244E-02        -0.42649E-02         0.00000E+00
    0.27945E-02        -0.44269E-02         0.00000E+00
    0.28657E-02        -0.45934E-02         0.00000E+00
    0.29377E-02        -0.47648E-02         0.00000E+00
    0.30106E-02        -0.49410E-02         0.00000E+00
    0.30843E-02        -0.51222E-02         0.00000E+00
    0.31586E-02        -0.53085E-02         0.00000E+00
    0.32336E-02        -0.55000E-02         0.00000E+00
    0.33091E-02        -0.56969E-02         0.00000E+00
    0.33849E-02        -0.58991E-02         0.00000E+00
    0.34610E-02        -0.61068E-02         0.00000E+00
    0.35372E-02        -0.63202E-02         0.00000E+00
    0.36134E-02        -0.65392E-02         0.00000E+00
    0.36894E-02        -0.67641E-02         0.00000E+00
    0.37650E-02        -0.69948E-02         0.00000E+00
    0.38401E-02        -0.72315E-02         0.00000E+00
    0.39143E-02        -0.74742E-02         0.00000E+00
    0.39875E-02        -0.77229E-02         0.00000E+00
    0.40595E-02        -0.79779E-02         0.00000E+00
    0.41299E-02        -0.82391E-02         0.00000E+00
    0.41985E-02        -0.85065E-02         0.00000E+00
    0.42649E-02        -0.87802E-02         0.00000E+00
    0.43288E-02        -0.90603E-02         0.00000E+00
    0.43898E-02        -0.93467E-02         0.00000E+00
    0.44476E-02        -0.96396E-02         0.00000E+00
    0.45016E-02        -0.99388E-02         0.00000E+00
    0.45515E-02        -0.10244E-01         0.00000E+00
    0.45967E-02        -0.10556E-01         0.00000E+00
    0.46368E-02        -0.10875E-01         0.00000E+00
    0.46710E-02        -0.11200E-01         0.00000E+00
    0.46987E-02        -0.11531E-01         0.00000E+00
    0.47194E-02        -0.11868E-01         0.00000E+00
    0.47323E-02        -0.12212E-01         0.00000E+00
    0.47365E-02        -0.12562E-01         0.00000E+00
    0.47312E-02        -0.12918E-01         0.00000E+00
    0.47156E-02        -0.13280E-01         0.00000E+00
    0.46885E-02        -0.13648E-01         0.00000E+00
    0.46490E-02        -0.14023E-01         0.00000E+00
    0.45958E-02        -0.14403E-01         0.00000E+00
    0.45277E-02        -0.14788E-01         0.00000E+00
    0.44434E-02        -0.15180E-01         0.00000E+00
    0.43413E-02        -0.15576E-01         0.00000E+00
    0.42199E-02        -0.15976E-01         0.00000E+00
    0.40775E-02        -0.16380E-01         0.00000E+00
    0.39123E-02        -0.16786E-01         0.00000E+00
    0.37222E-02        -0.17193E-01         0.00000E+00
    0.35053E-02        -0.17598E-01         0.00000E+00
    0.32595E-02        -0.17999E-01         0.00000E+00
    0.29824E-02        -0.18390E-01         0.00000E+00
    0.26720E-02        -0.18766E-01         0.00000E+00
    0.23263E-02        -0.19121E-01         0.00000E+00
    0.19434E-02        -0.19444E-01         0.00000E+00
    0.15220E-02        -0.19723E-01         0.00000E+00
    0.10603E-02        -0.19943E-01         0.00000E+00
    0.55534E-03        -0.20086E-01         0.00000E+00
    0.00000E+00        -0.20136E-01         0.00000E+00
    0.00000E+00        -0.23212E-03         0.00000E+00
    0.10468E-03        -0.23976E-03         0.00000E+00
    0.20242E-03        -0.26158E-03         0.00000E+00
    0.29434E-03        -0.29511E-03         0.00000E+00
    0.38096E-03        -0.33775E-03         0.00000E+00
    0.46259E-03        -0.38736E-03         0.00000E+00
    0.53955E-03        -0.44230E-03         0.00000E+00
    0.61222E-03        -0.50134E-03         0.00000E+00
    0.68098E-03        -0.56355E-03         0.00000E+00
    0.74627E-03        -0.62827E-03         0.00000E+00
    0.80847E-03        -0.69502E-03         0.00000E+00
    0.86799E-03        -0.76347E-03         0.00000E+00
    0.92519E-03        -0.83344E-03         0.00000E+00
    0.98041E-03        -0.90481E-03         0.00000E+00
    0.10340E-02        -0.97753E-03         0.00000E+00
    0.10862E-02        -0.10516E-02         0.00000E+00
    0.11373E-02        -0.11272E-02         0.00000E+00
    0.11876E-02        -0.12041E-02         0.00000E+00
    0.12372E-02        -0.12827E-02         0.00000E+00
    0.12865E-02        -0.13629E-02         0.00000E+00
    0.13355E-02        -0.14449E-02         0.00000E+00
    0.13844E-02        -0.15288E-02         0.00000E+00
    0.14334E-02        -0.16147E-02         0.00000E+00
    0.14827E-02        -0.17026E-02         0.00000E+00
    0.15323E-02        -0.17928E-02         0.00000E+00
    0.15824E-02        -0.18852E-02         0.00000E+00
    0.16330E-02        -0.19801E-02         0.00000E+00
    0.16844E-02        -0.20774E-02         0.00000E+00
    0.17365E-02        -0.21775E-02         0.00000E+00
    0.17894E-02        -0.22802E-02         0.00000E+00
    0.18432E-02        -0.23858E-02         0.00000E+00
    0.18980E-02        -0.24944E-02         0.00000E+00
    0.19537E-02        -0.26060E-02         0.00000E+00
    0.20106E-02        -0.27208E-02         0.00000E+00
    0.20685E-02        -0.28389E-02         0.00000E+00
    0.21276E-02        -0.29604E-02         0.00000E+00
    0.21878E-02        -0.30854E-02         0.00000E+00
    0.22491E-02        -0.32141E-02         0.00000E+00
    0.23117E-02        -0.33464E-02         0.00000E+00
    0.23754E-02        -0.34827E-02         0.00000E+00
    0.24404E-02        -0.36229E-02         0.00000E+00
    0.25065E-02        -0.37672E-02         0.00000E+00
    0.25738E-02        -0.39156E-02         0.00000E+00
    0.26422E-02        -0.40685E-02         0.00000E+00
    0.27118E-02        -0.42257E-02         0.00000E+00
    0.27824E-02        -0.43875E-02         0.00000E+00
    0.28541E-02        -0.45540E-02         0.00000E+00
    0.29268E-02        -0.47252E-02         0.00000E+00
    0.30005E-02        -0.49014E-02         0.00000E+00
    0.30750E-02        -0.50825E-02         0.00000E+00
    0.31503E-02        -0.52688E-02         0.00000E+00
    0.32263E-02        -0.54603E-02         0.00000E+00
    0.33030E-02        -0.56572E-02         0.00000E+00
    0.33801E-02        -0.58595E-02         0.00000E+00
    0.34577E-02        -0.60674E-02         0.00000E+00
    0.35356E-02        -0.62809E-02         0.00000E+00
    0.36135E-02        -0.65002E-02         0.00000E+00
    0.36915E-02        -0.67253E-02         0.00000E+00
    0.37692E-02        -0.69563E-02         0.00000E+00
    0.38466E-02        -0.71934E-02         0.00000E+00
    0.39234E-02        -0.74366E-02         0.00000E+00
    0.39995E-02        -0.76860E-02         0.00000E+00
    0.40744E-02        -0.79416E-02         0.00000E+00
    0.41481E-02        -0.82035E-02         0.00000E+00
    0.42203E-02        -0.84719E-02         0.00000E+00
    0.42905E-02        -0.87466E-02         0.00000E+00
    0.43586E-02        -0.90278E-02         0.00000E+00
    0.44242E-02        -0.93155E-02         0.00000E+00
    0.44868E-02        -0.96097E-02         0.00000E+00
    0.45462E-02        -0.99104E-02         0.00000E+00
    0.46017E-02        -0.10218E-01         0.00000E+00
    0.46531E-02        -0.10532E-01         0.00000E+00
    0.46996E-02        -0.10852E-01         0.00000E+00
    0.47409E-02        -0.11179E-01         0.00000E+00
    0.47764E-02        -0.11512E-01         0.00000E+00
    0.48053E-02        -0.11852E-01         0.00000E+00
    0.48269E-02        -0.12198E-01         0.00000E+00
    0.48406E-02        -0.12551E-01         0.00000E+00
    0.48456E-02        -0.12910E-01         0.00000E+00
    0.48409E-02        -0.13275E-01         0.00000E+00
    0.48256E-02        -0.13647E-01         0.00000E+00
    0.47987E-02        -0.14025E-01         0.00000E+00
    0.47591E-02        -0.14409E-01         0.00000E+00
    0.47056E-02        -0.14798E-01         0.00000E+00
    0.46368E-02        -0.15194E-01         0.00000E+00
    0.45514E-02        -0.15594E-01         0.00000E+00
    0.44478E-02        -0.16000E-01         0.00000E+00
    0.43245E-02        -0.16410E-01         0.00000E+00
    0.41795E-02        -0.16824E-01         0.00000E+00
    0.40110E-02        -0.17240E-01         0.00000E+00
    0.38169E-02        -0.17656E-01         0.00000E+00
    0.35952E-02        -0.18071E-01         0.00000E+00
    0.33434E-02        -0.18481E-01         0.00000E+00
    0.30594E-02        -0.18881E-01         0.00000E+00
    0.27409E-02        -0.19267E-01         0.00000E+00
    0.23858E-02        -0.19630E-01         0.00000E+00
    0.19924E-02        -0.19961E-01         0.00000E+00
    0.15592E-02        -0.20248E-01         0.00000E+00
    0.10851E-02        -0.20476E-01         0.00000E+00
    0.56763E-03        -0.20624E-01         0.00000E+00
    0.00000E+00        -0.20676E-01         0.00000E+00
    0.00000E+00        -0.24260E-03         0.00000E+00
    0.10690E-03        -0.25056E-03         0.00000E+00
    0.20689E-03        -0.27324E-03         0.00000E+00
    0.30103E-03        -0.30788E-03         0.00000E+00
    0.38977E-03        -0.35174E-03         0.00000E+00
    0.47337E-03        -0.40265E-03         0.00000E+00
    0.55212E-03        -0.45896E-03         0.00000E+00
    0.62642E-03        -0.51942E-03         0.00000E+00
    0.69667E-03        -0.58312E-03         0.00000E+00
    0.76331E-03        -0.64939E-03         0.00000E+00
    0.82676E-03        -0.71775E-03         0.00000E+00
    0.88744E-03        -0.78788E-03         0.00000E+00
    0.94571E-03        -0.85957E-03         0.00000E+00
    0.10020E-02        -0.93272E-03         0.00000E+00
    0.10565E-02        -0.10073E-02         0.00000E+00
    0.11097E-02        -0.10833E-02         0.00000E+00
    0.11617E-02        -0.11608E-02         0.00000E+00
    0.12129E-02        -0.12398E-02         0.00000E+00
    0.12634E-02        -0.13204E-02         0.00000E+00
    0.13135E-02        -0.14028E-02         0.00000E+00
    0.13634E-02        -0.14870E-02         0.00000E+00
    0.14132E-02        -0.15731E-02         0.00000E+00
    0.14632E-02        -0.16613E-02         0.00000E+00
    0.15133E-02        -0.17516E-02         0.00000E+00
    0.15639E-02        -0.18442E-02         0.00000E+00
    0.16149E-02        -0.19392E-02         0.00000E+00
    0.16666E-02        -0.20366E-02         0.00000E+00
    0.17189E-02        -0.21367E-02         0.00000E+00
    0.17720E-02        -0.22394E-02         0.00000E+00
    0.18260E-02        -0.23450E-02         0.00000E+00
    0.18808E-02        -0.24535E-02         0.00000E+00
    0.19367E-02        -0.25651E-02         0.00000E+00
    0.19936E-02        -0.26798E-02         0.00000E+00
    0.20516E-02        -0.27977E-02         0.00000E+00
    0.21107E-02        -0.29191E-02         0.00000E+00
    0.21710E-02        -0.30439E-02         0.00000E+00
    0.22324E-02        -0.31724E-02         0.00000E+00
    0.22950E-02        -0.33046E-02         0.00000E+00
    0.23589E-02        -0.34406E-02         0.00000E+00
    0.24240E-02        -0.35806E-02         0.00000E+00
    0.24902E-02        -0.37246E-02         0.00000E+00
    0.25577E-02        -0.38729E-02         0.00000E+00
    0.26264E-02        -0.40254E-02         0.00000E+00
    0.26963E-02        -0.41824E-02         0.00000E+00
    0.27673E-02        -0.43440E-02         0.00000E+00
    0.28395E-02        -0.45102E-02         0.00000E+00
    0.29127E-02        -0.46813E-02         0.00000E+00
    0.29870E-02        -0.48572E-02         0.00000E+00
    0.30622E-02        -0.50381E-02         0.00000E+00
    0.31383E-02        -0.52242E-02         0.00000E+00
    0.32152E-02        -0.54156E-02         0.00000E+00
    0.32929E-02        -0.56123E-02         0.00000E+00
    0.33712E-02        -0.58145E-02         0.00000E+00
    0.34501E-02        -0.60223E-02         0.00000E+00
    0.35294E-02        -0.62358E-02         0.00000E+00
    0.36089E-02        -0.64551E-02         0.00000E+00
    0.36886E-02        -0.66803E-02         0.00000E+00
    0.37683E-02        -0.69115E-02         0.00000E+00
    0.38478E-02        -0.71488E-02         0.00000E+00
    0.39270E-02        -0.73922E-02         0.00000E+00
    0.40056E-02        -0.76420E-02         0.00000E+00
    0.40833E-02        -0.78980E-02         0.00000E+00
    0.41601E-02        -0.81605E-02         0.00000E+00
    0.42355E-02        -0.84294E-02         0.00000E+00
    0.43093E-02        -0.87048E-02         0.00000E+00
    0.43813E-02        -0.89868E-02         0.00000E+00
    0.44511E-02        -0.92755E-02         0.00000E+00
    0.45183E-02        -0.95708E-02         0.00000E+00
    0.45825E-02        -0.98727E-02         0.00000E+00
    0.46434E-02        -0.10181E-01         0.00000E+00
    0.47005E-02        -0.10497E-01         0.00000E+00
    0.47533E-02        -0.10819E-01         0.00000E+00
    0.48013E-02        -0.11147E-01         0.00000E+00
    0.48439E-02        -0.11483E-01         0.00000E+00
    0.48806E-02        -0.11825E-01         0.00000E+00
    0.49106E-02        -0.12173E-01         0.00000E+00
    0.49333E-02        -0.12529E-01         0.00000E+00
    0.49479E-02        -0.12890E-01         0.00000E+00
    0.49537E-02        -0.13259E-01         0.00000E+00
    0.49496E-02        -0.13633E-01         0.00000E+00
    0.49347E-02        -0.14014E-01         0.00000E+00
    0.49081E-02        -0.14401E-01         0.00000E+00
    0.48685E-02        -0.14794E-01         0.00000E+00
    0.48147E-02        -0.15194E-01         0.00000E+00
    0.47453E-02        -0.15598E-01         0.00000E+00
    0.46590E-02        -0.16009E-01         0.00000E+00
    0.45541E-02        -0.16424E-01         0.00000E+00
    0.44289E-02        -0.16844E-01         0.00000E+00
    0.42815E-02        -0.17267E-01         0.00000E+00
    0.41099E-02        -0.17693E-01         0.00000E+00
    0.39120E-02        -0.18119E-01         0.00000E+00
    0.36856E-02        -0.18543E-01         0.00000E+00
    0.34282E-02        -0.18962E-01         0.00000E+00
    0.31374E-02        -0.19372E-01         0.00000E+00
    0.28109E-02        -0.19766E-01         0.00000E+00
    0.24466E-02        -0.20138E-01         0.00000E+00
    0.20425E-02        -0.20478E-01         0.00000E+00
    0.15975E-02        -0.20773E-01         0.00000E+00
    0.11107E-02        -0.21008E-01         0.00000E+00
    0.58029E-03        -0.21162E-01         0.00000E+00
    0.00000E+00        -0.21216E-01         0.00000E+00
    0.00000E+00        -0.25320E-03         0.00000E+00
    0.10916E-03        -0.26152E-03         0.00000E+00
    0.21144E-03        -0.28508E-03         0.00000E+00
    0.30785E-03        -0.32085E-03         0.00000E+00
    0.39872E-03        -0.36594E-03         0.00000E+00
    0.48425E-03        -0.41814E-03         0.00000E+00
    0.56477E-03        -0.47580E-03         0.00000E+00
    0.64066E-03        -0.53769E-03         0.00000E+00
    0.71235E-03        -0.60287E-03         0.00000E+00
    0.78031E-03        -0.67067E-03         0.00000E+00
    0.84496E-03        -0.74063E-03         0.00000E+00
    0.90675E-03        -0.81242E-03         0.00000E+00
    0.96607E-03        -0.88583E-03         0.00000E+00
    0.10233E-02        -0.96076E-03         0.00000E+00
    0.10788E-02        -0.10372E-02         0.00000E+00
    0.11328E-02        -0.11151E-02         0.00000E+00
    0.11857E-02        -0.11945E-02         0.00000E+00
    0.12378E-02        -0.12755E-02         0.00000E+00
    0.12892E-02        -0.13582E-02         0.00000E+00
    0.13401E-02        -0.14427E-02         0.00000E+00
    0.13909E-02        -0.15291E-02         0.00000E+00
    0.14416E-02        -0.16175E-02         0.00000E+00
    0.14924E-02        -0.17080E-02         0.00000E+00
    0.15435E-02        -0.18007E-02         0.00000E+00
    0.15950E-02        -0.18957E-02         0.00000E+00
    0.16469E-02        -0.19932E-02         0.00000E+00
    0.16995E-02        -0.20933E-02         0.00000E+00
    0.17528E-02        -0.21960E-02         0.00000E+00
    0.18069E-02        -0.23015E-02         0.00000E+00
    0.18619E-02        -0.24099E-02         0.00000E+00
    0.19178E-02        -0.25213E-02         0.00000E+00
    0.19748E-02        -0.26359E-02         0.00000E+00
    0.20328E-02        -0.27536E-02         0.00000E+00
    0.20919E-02        -0.28748E-02         0.00000E+00
    0.21521E-02        -0.29994E-02         0.00000E+00
    0.22136E-02        -0.31276E-02         0.00000E+00
    0.22762E-02        -0.32595E-02         0.00000E+00
    0.23401E-02        -0.33952E-02         0.00000E+00
    0.24052E-02        -0.35349E-02         0.00000E+00
    0.24716E-02        -0.36786E-02         0.00000E+00
    0.25392E-02        -0.38265E-02         0.00000E+00
    0.26081E-02        -0.39787E-02         0.00000E+00
    0.26782E-02        -0.41354E-02         0.00000E+00
    0.27495E-02        -0.42966E-02         0.00000E+00
    0.28219E-02        -0.44624E-02         0.00000E+00
    0.28956E-02        -0.46331E-02         0.00000E+00
    0.29703E-02        -0.48087E-02         0.00000E+00
    0.30461E-02        -0.49893E-02         0.00000E+00
    0.31228E-02        -0.51751E-02         0.00000E+00
    0.32005E-02        -0.53661E-02         0.00000E+00
    0.32791E-02        -0.55625E-02         0.00000E+00
    0.33584E-02        -0.57645E-02         0.00000E+00
    0.34384E-02        -0.59720E-02         0.00000E+00
    0.35189E-02        -0.61853E-02         0.00000E+00
    0.35999E-02        -0.64045E-02         0.00000E+00
    0.36811E-02        -0.66295E-02         0.00000E+00
    0.37626E-02        -0.68606E-02         0.00000E+00
    0.38440E-02        -0.70979E-02         0.00000E+00
    0.39252E-02        -0.73414E-02         0.00000E+00
    0.40061E-02        -0.75912E-02         0.00000E+00
    0.40864E-02        -0.78475E-02         0.00000E+00
    0.41659E-02        -0.81102E-02         0.00000E+00
    0.42444E-02        -0.83795E-02         0.00000E+00
    0.43216E-02        -0.86554E-02         0.00000E+00
    0.43971E-02        -0.89380E-02         0.00000E+00
    0.44708E-02        -0.92273E-02         0.00000E+00
    0.45423E-02        -0.95233E-02         0.00000E+00
    0.46111E-02        -0.98262E-02         0.00000E+00
    0.46770E-02        -0.10136E-01         0.00000E+00
    0.47394E-02        -0.10452E-01         0.00000E+00
    0.47981E-02        -0.10776E-01         0.00000E+00
    0.48523E-02        -0.11106E-01         0.00000E+00
    0.49017E-02        -0.11443E-01         0.00000E+00
    0.49457E-02        -0.11787E-01         0.00000E+00
    0.49836E-02        -0.12138E-01         0.00000E+00
    0.50148E-02        -0.12495E-01         0.00000E+00
    0.50386E-02        -0.12859E-01         0.00000E+00
    0.50542E-02        -0.13230E-01         0.00000E+00
    0.50607E-02        -0.13607E-01         0.00000E+00
    0.50573E-02        -0.13991E-01         0.00000E+00
    0.50430E-02        -0.14381E-01         0.00000E+00
    0.50166E-02        -0.14777E-01         0.00000E+00
    0.49771E-02        -0.15180E-01         0.00000E+00
    0.49232E-02        -0.15589E-01         0.00000E+00
    0.48534E-02        -0.16003E-01         0.00000E+00
    0.47663E-02        -0.16423E-01         0.00000E+00
    0.46601E-02        -0.16848E-01         0.00000E+00
    0.45332E-02        -0.17278E-01         0.00000E+00
    0.43836E-02        -0.17710E-01         0.00000E+00
    0.42092E-02        -0.18145E-01         0.00000E+00
    0.40077E-02        -0.18581E-01         0.00000E+00
    0.37767E-02        -0.19014E-01         0.00000E+00
    0.35138E-02        -0.19442E-01         0.00000E+00
    0.32165E-02        -0.19861E-01         0.00000E+00
    0.28822E-02        -0.20264E-01         0.00000E+00
    0.25086E-02        -0.20645E-01         0.00000E+00
    0.20940E-02        -0.20993E-01         0.00000E+00
    0.16370E-02        -0.21296E-01         0.00000E+00
    0.11372E-02        -0.21539E-01         0.00000E+00
    0.59340E-03        -0.21699E-01         0.00000E+00
    0.00000E+00        -0.21756E-01         0.00000E+00
    0.00000E+00        -0.26393E-03         0.00000E+00
    0.11147E-03        -0.27264E-03         0.00000E+00
    0.21612E-03        -0.29712E-03         0.00000E+00
    0.31482E-03        -0.33404E-03         0.00000E+00
    0.40780E-03        -0.38036E-03         0.00000E+00
    0.49526E-03        -0.43384E-03         0.00000E+00
    0.57750E-03        -0.49284E-03         0.00000E+00
    0.65494E-03        -0.55613E-03         0.00000E+00
    0.72804E-03        -0.62277E-03         0.00000E+00
    0.79727E-03        -0.69211E-03         0.00000E+00
    0.86308E-03        -0.76366E-03         0.00000E+00
    0.92594E-03        -0.83709E-03         0.00000E+00
    0.98625E-03        -0.91222E-03         0.00000E+00
    0.10444E-02        -0.98892E-03         0.00000E+00
    0.11008E-02        -0.10672E-02         0.00000E+00
    0.11557E-02        -0.11469E-02         0.00000E+00
    0.12095E-02        -0.12283E-02         0.00000E+00
    0.12623E-02        -0.13113E-02         0.00000E+00
    0.13146E-02        -0.13961E-02         0.00000E+00
    0.13664E-02        -0.14827E-02         0.00000E+00
    0.14180E-02        -0.15713E-02         0.00000E+00
    0.14695E-02        -0.16619E-02         0.00000E+00
    0.15212E-02        -0.17548E-02         0.00000E+00
    0.15731E-02        -0.18499E-02         0.00000E+00
    0.16255E-02        -0.19474E-02         0.00000E+00
    0.16784E-02        -0.20474E-02         0.00000E+00
    0.17319E-02        -0.21500E-02         0.00000E+00
    0.17861E-02        -0.22554E-02         0.00000E+00
    0.18412E-02        -0.23637E-02         0.00000E+00
    0.18972E-02        -0.24749E-02         0.00000E+00
    0.19542E-02        -0.25892E-02         0.00000E+00
    0.20121E-02        -0.27068E-02         0.00000E+00
    0.20712E-02        -0.28276E-02         0.00000E+00
    0.21314E-02        -0.29519E-02         0.00000E+00
    0.21928E-02        -0.30798E-02         0.00000E+00
    0.22554E-02        -0.32113E-02         0.00000E+00
    0.23193E-02        -0.33467E-02         0.00000E+00
    0.23844E-02        -0.34860E-02         0.00000E+00
    0.24507E-02        -0.36293E-02         0.00000E+00
    0.25184E-02        -0.37768E-02         0.00000E+00
    0.25873E-02        -0.39285E-02         0.00000E+00
    0.26575E-02        -0.40847E-02         0.00000E+00
    0.27290E-02        -0.42455E-02         0.00000E+00
    0.28017E-02        -0.44109E-02         0.00000E+00
    0.28756E-02        -0.45810E-02         0.00000E+00
    0.29506E-02        -0.47561E-02         0.00000E+00
    0.30269E-02        -0.49363E-02         0.00000E+00
    0.31041E-02        -0.51216E-02         0.00000E+00
    0.31825E-02        -0.53122E-02         0.00000E+00
    0.32617E-02        -0.55082E-02         0.00000E+00
    0.33418E-02        -0.57097E-02         0.00000E+00
    0.34228E-02        -0.59168E-02         0.00000E+00
    0.35044E-02        -0.61297E-02         0.00000E+00
    0.35865E-02        -0.63485E-02         0.00000E+00
    0.36692E-02        -0.65733E-02         0.00000E+00
    0.37521E-02        -0.68041E-02         0.00000E+00
    0.38353E-02        -0.70412E-02         0.00000E+00
    0.39184E-02        -0.72845E-02         0.00000E+00
    0.40014E-02        -0.75342E-02         0.00000E+00
    0.40840E-02        -0.77904E-02         0.00000E+00
    0.41660E-02        -0.80532E-02         0.00000E+00
    0.42473E-02        -0.83226E-02         0.00000E+00
    0.43275E-02        -0.85987E-02         0.00000E+00
    0.44064E-02        -0.88815E-02         0.00000E+00
    0.44836E-02        -0.91713E-02         0.00000E+00
    0.45590E-02        -0.94679E-02         0.00000E+00
    0.46321E-02        -0.97714E-02         0.00000E+00
    0.47026E-02        -0.10082E-01         0.00000E+00
    0.47701E-02        -0.10399E-01         0.00000E+00
    0.48342E-02        -0.10724E-01         0.00000E+00
    0.48943E-02        -0.11055E-01         0.00000E+00
    0.49501E-02        -0.11394E-01         0.00000E+00
    0.50009E-02        -0.11739E-01         0.00000E+00
    0.50463E-02        -0.12091E-01         0.00000E+00
    0.50855E-02        -0.12450E-01         0.00000E+00
    0.51179E-02        -0.12817E-01         0.00000E+00
    0.51428E-02        -0.13189E-01         0.00000E+00
    0.51594E-02        -0.13569E-01         0.00000E+00
    0.51668E-02        -0.13955E-01         0.00000E+00
    0.51641E-02        -0.14348E-01         0.00000E+00
    0.51504E-02        -0.14748E-01         0.00000E+00
    0.51244E-02        -0.15154E-01         0.00000E+00
    0.50851E-02        -0.15566E-01         0.00000E+00
    0.50311E-02        -0.15984E-01         0.00000E+00
    0.49610E-02        -0.16408E-01         0.00000E+00
    0.48732E-02        -0.16837E-01         0.00000E+00
    0.47660E-02        -0.17272E-01         0.00000E+00
    0.46376E-02        -0.17711E-01         0.00000E+00
    0.44859E-02        -0.18153E-01         0.00000E+00
    0.43088E-02        -0.18598E-01         0.00000E+00
    0.41038E-02        -0.19042E-01         0.00000E+00
    0.38686E-02        -0.19485E-01         0.00000E+00
    0.36005E-02        -0.19922E-01         0.00000E+00
    0.32967E-02        -0.20350E-01         0.00000E+00
    0.29548E-02        -0.20762E-01         0.00000E+00
    0.25722E-02        -0.21151E-01         0.00000E+00
    0.21470E-02        -0.21507E-01         0.00000E+00
    0.16779E-02        -0.21819E-01         0.00000E+00
    0.11647E-02        -0.22069E-01         0.00000E+00
    0.60706E-03        -0.22235E-01         0.00000E+00
    0.00000E+00        -0.22295E-01         0.00000E+00
    0.00000E+00        -0.27478E-03         0.00000E+00
    0.11386E-03        -0.28391E-03         0.00000E+00
    0.22093E-03        -0.30936E-03         0.00000E+00
    0.32196E-03        -0.34744E-03         0.00000E+00
    0.41706E-03        -0.39497E-03         0.00000E+00
    0.50641E-03        -0.44973E-03         0.00000E+00
    0.59035E-03        -0.51006E-03         0.00000E+00
    0.66930E-03        -0.57474E-03         0.00000E+00
    0.74375E-03        -0.64283E-03         0.00000E+00
    0.81419E-03        -0.71369E-03         0.00000E+00
    0.88112E-03        -0.78681E-03         0.00000E+00
    0.94500E-03        -0.86189E-03         0.00000E+00
    0.10063E-02        -0.93872E-03         0.00000E+00
    0.10653E-02        -0.10172E-02         0.00000E+00
    0.11226E-02        -0.10973E-02         0.00000E+00
    0.11783E-02        -0.11789E-02         0.00000E+00
    0.12329E-02        -0.12622E-02         0.00000E+00
    0.12866E-02        -0.13473E-02         0.00000E+00
    0.13396E-02        -0.14341E-02         0.00000E+00
    0.13922E-02        -0.15229E-02         0.00000E+00
    0.14446E-02        -0.16136E-02         0.00000E+00
    0.14970E-02        -0.17065E-02         0.00000E+00
    0.15495E-02        -0.18016E-02         0.00000E+00
    0.16023E-02        -0.18991E-02         0.00000E+00
    0.16555E-02        -0.19991E-02         0.00000E+00
    0.17092E-02        -0.21016E-02         0.00000E+00
    0.17637E-02        -0.22069E-02         0.00000E+00
    0.18188E-02        -0.23150E-02         0.00000E+00
    0.18749E-02        -0.24260E-02         0.00000E+00
    0.19318E-02        -0.25400E-02         0.00000E+00
    0.19898E-02        -0.26573E-02         0.00000E+00
    0.20488E-02        -0.27778E-02         0.00000E+00
    0.21089E-02        -0.29017E-02         0.00000E+00
    0.21702E-02        -0.30292E-02         0.00000E+00
    0.22328E-02        -0.31603E-02         0.00000E+00
    0.22965E-02        -0.32952E-02         0.00000E+00
    0.23615E-02        -0.34340E-02         0.00000E+00
    0.24278E-02        -0.35769E-02         0.00000E+00
    0.24954E-02        -0.37238E-02         0.00000E+00
    0.25643E-02        -0.38751E-02         0.00000E+00
    0.26345E-02        -0.40307E-02         0.00000E+00
    0.27060E-02        -0.41909E-02         0.00000E+00
    0.27789E-02        -0.43557E-02         0.00000E+00
    0.28529E-02        -0.45253E-02         0.00000E+00
    0.29282E-02        -0.46998E-02         0.00000E+00
    0.30047E-02        -0.48793E-02         0.00000E+00
    0.30824E-02        -0.50640E-02         0.00000E+00
    0.31612E-02        -0.52540E-02         0.00000E+00
    0.32410E-02        -0.54494E-02         0.00000E+00
    0.33218E-02        -0.56504E-02         0.00000E+00
    0.34035E-02        -0.58569E-02         0.00000E+00
    0.34860E-02        -0.60693E-02         0.00000E+00
    0.35692E-02        -0.62876E-02         0.00000E+00
    0.36531E-02        -0.65118E-02         0.00000E+00
    0.37373E-02        -0.67422E-02         0.00000E+00
    0.38220E-02        -0.69789E-02         0.00000E+00
    0.39068E-02        -0.72218E-02         0.00000E+00
    0.39916E-02        -0.74712E-02         0.00000E+00
    0.40763E-02        -0.77272E-02         0.00000E+00
    0.41606E-02        -0.79897E-02         0.00000E+00
    0.42444E-02        -0.82590E-02         0.00000E+00
    0.43273E-02        -0.85351E-02         0.00000E+00
    0.44093E-02        -0.88180E-02         0.00000E+00
    0.44899E-02        -0.91079E-02         0.00000E+00
    0.45689E-02        -0.94047E-02         0.00000E+00
    0.46459E-02        -0.97086E-02         0.00000E+00
    0.47207E-02        -0.10020E-01         0.00000E+00
    0.47929E-02        -0.10338E-01         0.00000E+00
    0.48620E-02        -0.10663E-01         0.00000E+00
    0.49276E-02        -0.10995E-01         0.00000E+00
    0.49893E-02        -0.11335E-01         0.00000E+00
    0.50466E-02        -0.11681E-01         0.00000E+00
    0.50989E-02        -0.12035E-01         0.00000E+00
    0.51456E-02        -0.12396E-01         0.00000E+00
    0.51861E-02        -0.12763E-01         0.00000E+00
    0.52198E-02        -0.13138E-01         0.00000E+00
    0.52458E-02        -0.13520E-01         0.00000E+00
    0.52635E-02        -0.13909E-01         0.00000E+00
    0.52718E-02        -0.14304E-01         0.00000E+00
    0.52700E-02        -0.14706E-01         0.00000E+00
    0.52569E-02        -0.15115E-01         0.00000E+00
    0.52315E-02        -0.15530E-01         0.00000E+00
    0.51924E-02        -0.15951E-01         0.00000E+00
    0.51385E-02        -0.16379E-01         0.00000E+00
    0.50681E-02        -0.16812E-01         0.00000E+00
    0.49798E-02        -0.17251E-01         0.00000E+00
    0.48717E-02        -0.17695E-01         0.00000E+00
    0.47420E-02        -0.18144E-01         0.00000E+00
    0.45884E-02        -0.18596E-01         0.00000E+00
    0.44088E-02        -0.19049E-01         0.00000E+00
    0.42007E-02        -0.19503E-01         0.00000E+00
    0.39614E-02        -0.19955E-01         0.00000E+00
    0.36882E-02        -0.20401E-01         0.00000E+00
    0.33783E-02        -0.20838E-01         0.00000E+00
    0.30289E-02        -0.21258E-01         0.00000E+00
    0.26374E-02        -0.21656E-01         0.00000E+00
    0.22017E-02        -0.22020E-01         0.00000E+00
    0.17204E-02        -0.22340E-01         0.00000E+00
    0.11935E-02        -0.22597E-01         0.00000E+00
    0.62135E-03        -0.22771E-01         0.00000E+00
    0.00000E+00        -0.22833E-01         0.00000E+00
    0.00000E+00        -0.28575E-03         0.00000E+00
    0.11634E-03        -0.29534E-03         0.00000E+00
    0.22591E-03        -0.32181E-03         0.00000E+00
    0.32930E-03        -0.36105E-03         0.00000E+00
    0.42652E-03        -0.40980E-03         0.00000E+00
    0.51773E-03        -0.46581E-03         0.00000E+00
    0.60332E-03        -0.52746E-03         0.00000E+00
    0.68373E-03        -0.59351E-03         0.00000E+00
    0.75948E-03        -0.66305E-03         0.00000E+00
    0.83110E-03        -0.73540E-03         0.00000E+00
    0.89909E-03        -0.81010E-03         0.00000E+00
    0.96394E-03        -0.88681E-03         0.00000E+00
    0.10261E-02        -0.96534E-03         0.00000E+00
    0.10860E-02        -0.10456E-02         0.00000E+00
    0.11441E-02        -0.11274E-02         0.00000E+00
    0.12006E-02        -0.12110E-02         0.00000E+00
    0.12560E-02        -0.12962E-02         0.00000E+00
    0.13104E-02        -0.13833E-02         0.00000E+00
    0.13642E-02        -0.14722E-02         0.00000E+00
    0.14176E-02        -0.15631E-02         0.00000E+00
    0.14708E-02        -0.16560E-02         0.00000E+00
    0.15239E-02        -0.17512E-02         0.00000E+00
    0.15772E-02        -0.18486E-02         0.00000E+00
    0.16309E-02        -0.19485E-02         0.00000E+00
    0.16849E-02        -0.20509E-02         0.00000E+00
    0.17395E-02        -0.21560E-02         0.00000E+00
    0.17949E-02        -0.22638E-02         0.00000E+00
    0.18509E-02        -0.23746E-02         0.00000E+00
    0.19079E-02        -0.24884E-02         0.00000E+00
    0.19658E-02        -0.26053E-02         0.00000E+00
    0.20248E-02        -0.27254E-02         0.00000E+00
    0.20848E-02        -0.28489E-02         0.00000E+00
    0.21460E-02        -0.29760E-02         0.00000E+00
    0.22083E-02        -0.31066E-02         0.00000E+00
    0.22719E-02        -0.32410E-02         0.00000E+00
    0.23368E-02        -0.33792E-02         0.00000E+00
    0.24029E-02        -0.35215E-02         0.00000E+00
    0.24704E-02        -0.36679E-02         0.00000E+00
    0.25392E-02        -0.38185E-02         0.00000E+00
    0.26094E-02        -0.39735E-02         0.00000E+00
    0.26809E-02        -0.41330E-02         0.00000E+00
    0.27537E-02        -0.42971E-02         0.00000E+00
    0.28278E-02        -0.44661E-02         0.00000E+00
    0.29032E-02        -0.46399E-02         0.00000E+00
    0.29799E-02        -0.48187E-02         0.00000E+00
    0.30578E-02        -0.50027E-02         0.00000E+00
    0.31370E-02        -0.51919E-02         0.00000E+00
    0.32172E-02        -0.53866E-02         0.00000E+00
    0.32985E-02        -0.55868E-02         0.00000E+00
    0.33808E-02        -0.57927E-02         0.00000E+00
    0.34641E-02        -0.60044E-02         0.00000E+00
    0.35482E-02        -0.62220E-02         0.00000E+00
    0.36330E-02        -0.64456E-02         0.00000E+00
    0.37184E-02        -0.66753E-02         0.00000E+00
    0.38043E-02        -0.69114E-02         0.00000E+00
    0.38906E-02        -0.71538E-02         0.00000E+00
    0.39771E-02        -0.74027E-02         0.00000E+00
    0.40636E-02        -0.76581E-02         0.00000E+00
    0.41500E-02        -0.79203E-02         0.00000E+00
    0.42360E-02        -0.81892E-02         0.00000E+00
    0.43215E-02        -0.84650E-02         0.00000E+00
    0.44062E-02        -0.87478E-02         0.00000E+00
    0.44898E-02        -0.90375E-02         0.00000E+00
    0.45721E-02        -0.93344E-02         0.00000E+00
    0.46528E-02        -0.96384E-02         0.00000E+00
    0.47316E-02        -0.99495E-02         0.00000E+00
    0.48080E-02        -0.10268E-01         0.00000E+00
    0.48818E-02        -0.10594E-01         0.00000E+00
    0.49526E-02        -0.10926E-01         0.00000E+00
    0.50198E-02        -0.11267E-01         0.00000E+00
    0.50831E-02        -0.11614E-01         0.00000E+00
    0.51419E-02        -0.11969E-01         0.00000E+00
    0.51956E-02        -0.12331E-01         0.00000E+00
    0.52438E-02        -0.12700E-01         0.00000E+00
    0.52856E-02        -0.13076E-01         0.00000E+00
    0.53206E-02        -0.13460E-01         0.00000E+00
    0.53478E-02        -0.13851E-01         0.00000E+00
    0.53666E-02        -0.14248E-01         0.00000E+00
    0.53759E-02        -0.14652E-01         0.00000E+00
    0.53749E-02        -0.15064E-01         0.00000E+00
    0.53626E-02        -0.15482E-01         0.00000E+00
    0.53377E-02        -0.15906E-01         0.00000E+00
    0.52991E-02        -0.16337E-01         0.00000E+00
    0.52453E-02        -0.16774E-01         0.00000E+00
    0.51749E-02        -0.17217E-01         0.00000E+00
    0.50862E-02        -0.17665E-01         0.00000E+00
    0.49773E-02        -0.18119E-01         0.00000E+00
    0.48464E-02        -0.18576E-01         0.00000E+00
    0.46912E-02        -0.19038E-01         0.00000E+00
    0.45093E-02        -0.19501E-01         0.00000E+00
    0.42982E-02        -0.19964E-01         0.00000E+00
    0.40551E-02        -0.20425E-01         0.00000E+00
    0.37771E-02        -0.20880E-01         0.00000E+00
    0.34613E-02        -0.21325E-01         0.00000E+00
    0.31047E-02        -0.21754E-01         0.00000E+00
    0.27045E-02        -0.22159E-01         0.00000E+00
    0.22584E-02        -0.22532E-01         0.00000E+00
    0.17648E-02        -0.22860E-01         0.00000E+00
    0.12237E-02        -0.23125E-01         0.00000E+00
    0.63641E-03        -0.23305E-01         0.00000E+00
    0.00000E+00        -0.23371E-01         0.00000E+00
    0.00000E+00        -0.29684E-03         0.00000E+00
    0.11893E-03        -0.30694E-03         0.00000E+00
    0.23109E-03        -0.33448E-03         0.00000E+00
    0.33688E-03        -0.37488E-03         0.00000E+00
    0.43620E-03        -0.42482E-03         0.00000E+00
    0.52925E-03        -0.48208E-03         0.00000E+00
    0.61643E-03        -0.54502E-03         0.00000E+00
    0.69826E-03        -0.61243E-03         0.00000E+00
    0.77526E-03        -0.68340E-03         0.00000E+00
    0.84799E-03        -0.75725E-03         0.00000E+00
    0.91700E-03        -0.83350E-03         0.00000E+00
    0.98278E-03        -0.91184E-03         0.00000E+00
    0.10458E-02        -0.99205E-03         0.00000E+00
    0.11065E-02        -0.10740E-02         0.00000E+00
    0.11654E-02        -0.11577E-02         0.00000E+00
    0.12227E-02        -0.12432E-02         0.00000E+00
    0.12788E-02        -0.13304E-02         0.00000E+00
    0.13339E-02        -0.14194E-02         0.00000E+00
    0.13885E-02        -0.15104E-02         0.00000E+00
    0.14426E-02        -0.16034E-02         0.00000E+00
    0.14965E-02        -0.16985E-02         0.00000E+00
    0.15504E-02        -0.17959E-02         0.00000E+00
    0.16045E-02        -0.18957E-02         0.00000E+00
    0.16589E-02        -0.19980E-02         0.00000E+00
    0.17138E-02        -0.21028E-02         0.00000E+00
    0.17693E-02        -0.22104E-02         0.00000E+00
    0.18254E-02        -0.23209E-02         0.00000E+00
    0.18824E-02        -0.24343E-02         0.00000E+00
    0.19403E-02        -0.25508E-02         0.00000E+00
    0.19991E-02        -0.26706E-02         0.00000E+00
    0.20590E-02        -0.27936E-02         0.00000E+00
    0.21201E-02        -0.29202E-02         0.00000E+00
    0.21822E-02        -0.30503E-02         0.00000E+00
    0.22456E-02        -0.31841E-02         0.00000E+00
    0.23103E-02        -0.33218E-02         0.00000E+00
    0.23763E-02        -0.34634E-02         0.00000E+00
    0.24436E-02        -0.36091E-02         0.00000E+00
    0.25122E-02        -0.37590E-02         0.00000E+00
    0.25822E-02        -0.39133E-02         0.00000E+00
    0.26536E-02        -0.40721E-02         0.00000E+00
    0.27263E-02        -0.42354E-02         0.00000E+00
    0.28004E-02        -0.44036E-02         0.00000E+00
    0.28758E-02        -0.45766E-02         0.00000E+00
    0.29526E-02        -0.47546E-02         0.00000E+00
    0.30306E-02        -0.49377E-02         0.00000E+00
    0.31099E-02        -0.51261E-02         0.00000E+00
    0.31905E-02        -0.53200E-02         0.00000E+00
    0.32722E-02        -0.55193E-02         0.00000E+00
    0.33550E-02        -0.57244E-02         0.00000E+00
    0.34388E-02        -0.59352E-02         0.00000E+00
    0.35236E-02        -0.61520E-02         0.00000E+00
    0.36092E-02        -0.63748E-02         0.00000E+00
    0.36956E-02        -0.66037E-02         0.00000E+00
    0.37826E-02        -0.68390E-02         0.00000E+00
    0.38702E-02        -0.70807E-02         0.00000E+00
    0.39581E-02        -0.73289E-02         0.00000E+00
    0.40462E-02        -0.75837E-02         0.00000E+00
    0.41344E-02        -0.78452E-02         0.00000E+00
    0.42224E-02        -0.81136E-02         0.00000E+00
    0.43102E-02        -0.83889E-02         0.00000E+00
    0.43973E-02        -0.86712E-02         0.00000E+00
    0.44837E-02        -0.89606E-02         0.00000E+00
    0.45690E-02        -0.92572E-02         0.00000E+00
    0.46531E-02        -0.95610E-02         0.00000E+00
    0.47355E-02        -0.98721E-02         0.00000E+00
    0.48159E-02        -0.10191E-01         0.00000E+00
    0.48941E-02        -0.10516E-01         0.00000E+00
    0.49695E-02        -0.10850E-01         0.00000E+00
    0.50419E-02        -0.11190E-01         0.00000E+00
    0.51107E-02        -0.11538E-01         0.00000E+00
    0.51756E-02        -0.11894E-01         0.00000E+00
    0.52359E-02        -0.12257E-01         0.00000E+00
    0.52912E-02        -0.12627E-01         0.00000E+00
    0.53407E-02        -0.13005E-01         0.00000E+00
    0.53840E-02        -0.13390E-01         0.00000E+00
    0.54202E-02        -0.13782E-01         0.00000E+00
    0.54487E-02        -0.14181E-01         0.00000E+00
    0.54686E-02        -0.14588E-01         0.00000E+00
    0.54790E-02        -0.15001E-01         0.00000E+00
    0.54790E-02        -0.15421E-01         0.00000E+00
    0.54675E-02        -0.15848E-01         0.00000E+00
    0.54432E-02        -0.16282E-01         0.00000E+00
    0.54051E-02        -0.16722E-01         0.00000E+00
    0.53516E-02        -0.17169E-01         0.00000E+00
    0.52812E-02        -0.17621E-01         0.00000E+00
    0.51923E-02        -0.18079E-01         0.00000E+00
    0.50829E-02        -0.18542E-01         0.00000E+00
    0.49510E-02        -0.19009E-01         0.00000E+00
    0.47943E-02        -0.19479E-01         0.00000E+00
    0.46104E-02        -0.19952E-01         0.00000E+00
    0.43966E-02        -0.20424E-01         0.00000E+00
    0.41499E-02        -0.20894E-01         0.00000E+00
    0.38674E-02        -0.21357E-01         0.00000E+00
    0.35459E-02        -0.21811E-01         0.00000E+00
    0.31823E-02        -0.22248E-01         0.00000E+00
    0.27736E-02        -0.22662E-01         0.00000E+00
    0.23171E-02        -0.23043E-01         0.00000E+00
    0.18113E-02        -0.23378E-01         0.00000E+00
    0.12557E-02        -0.23652E-01         0.00000E+00
    0.65237E-03        -0.23839E-01         0.00000E+00
    0.00000E+00        -0.23908E-01         0.00000E+00
    0.00000E+00        -0.30806E-03         0.00000E+00
    0.12166E-03        -0.31873E-03         0.00000E+00
    0.23652E-03        -0.34737E-03         0.00000E+00
    0.34473E-03        -0.38892E-03         0.00000E+00
    0.44613E-03        -0.44004E-03         0.00000E+00
    0.54097E-03        -0.49852E-03         0.00000E+00
    0.62972E-03        -0.56275E-03         0.00000E+00
    0.71290E-03        -0.63150E-03         0.00000E+00
    0.79109E-03        -0.70388E-03         0.00000E+00
    0.86489E-03        -0.77921E-03         0.00000E+00
    0.93485E-03        -0.85701E-03         0.00000E+00
    0.10015E-02        -0.93697E-03         0.00000E+00
    0.10654E-02        -0.10189E-02         0.00000E+00
    0.11269E-02        -0.11026E-02         0.00000E+00
    0.11864E-02        -0.11881E-02         0.00000E+00
    0.12444E-02        -0.12754E-02         0.00000E+00
    0.13012E-02        -0.13645E-02         0.00000E+00
    0.13571E-02        -0.14556E-02         0.00000E+00
    0.14123E-02        -0.15486E-02         0.00000E+00
    0.14672E-02        -0.16438E-02         0.00000E+00
    0.15218E-02        -0.17411E-02         0.00000E+00
    0.15765E-02        -0.18408E-02         0.00000E+00
    0.16313E-02        -0.19429E-02         0.00000E+00
    0.16865E-02        -0.20475E-02         0.00000E+00
    0.17422E-02        -0.21548E-02         0.00000E+00
    0.17984E-02        -0.22650E-02         0.00000E+00
    0.18555E-02        -0.23780E-02         0.00000E+00
    0.19133E-02        -0.24941E-02         0.00000E+00
    0.19720E-02        -0.26134E-02         0.00000E+00
    0.20318E-02        -0.27360E-02         0.00000E+00
    0.20926E-02        -0.28620E-02         0.00000E+00
    0.21546E-02        -0.29915E-02         0.00000E+00
    0.22178E-02        -0.31247E-02         0.00000E+00
    0.22822E-02        -0.32617E-02         0.00000E+00
    0.23479E-02        -0.34026E-02         0.00000E+00
    0.24150E-02        -0.35476E-02         0.00000E+00
    0.24834E-02        -0.36968E-02         0.00000E+00
    0.25532E-02        -0.38503E-02         0.00000E+00
    0.26243E-02        -0.40082E-02         0.00000E+00
    0.26969E-02        -0.41707E-02         0.00000E+00
    0.27708E-02        -0.43380E-02         0.00000E+00
    0.28462E-02        -0.45101E-02         0.00000E+00
    0.29229E-02        -0.46872E-02         0.00000E+00
    0.30010E-02        -0.48694E-02         0.00000E+00
    0.30804E-02        -0.50569E-02         0.00000E+00
    0.31611E-02        -0.52498E-02         0.00000E+00
    0.32430E-02        -0.54482E-02         0.00000E+00
    0.33261E-02        -0.56522E-02         0.00000E+00
    0.34104E-02        -0.58621E-02         0.00000E+00
    0.34957E-02        -0.60779E-02         0.00000E+00
    0.35820E-02        -0.62997E-02         0.00000E+00
    0.36691E-02        -0.65277E-02         0.00000E+00
    0.37571E-02        -0.67621E-02         0.00000E+00
    0.38457E-02        -0.70028E-02         0.00000E+00
    0.39348E-02        -0.72501E-02         0.00000E+00
    0.40243E-02        -0.75041E-02         0.00000E+00
    0.41141E-02        -0.77648E-02         0.00000E+00
    0.42039E-02        -0.80325E-02         0.00000E+00
    0.42937E-02        -0.83071E-02         0.00000E+00
    0.43831E-02        -0.85887E-02         0.00000E+00
    0.44719E-02        -0.88776E-02         0.00000E+00
    0.45600E-02        -0.91737E-02         0.00000E+00
    0.46470E-02        -0.94771E-02         0.00000E+00
    0.47327E-02        -0.97879E-02         0.00000E+00
    0.48168E-02        -0.10106E-01         0.00000E+00
    0.48990E-02        -0.10432E-01         0.00000E+00
    0.49788E-02        -0.10765E-01         0.00000E+00
    0.50559E-02        -0.11106E-01         0.00000E+00
    0.51299E-02        -0.11454E-01         0.00000E+00
    0.52004E-02        -0.11810E-01         0.00000E+00
    0.52668E-02        -0.12174E-01         0.00000E+00
    0.53287E-02        -0.12545E-01         0.00000E+00
    0.53855E-02        -0.12923E-01         0.00000E+00
    0.54365E-02        -0.13309E-01         0.00000E+00
    0.54812E-02        -0.13703E-01         0.00000E+00
    0.55188E-02        -0.14104E-01         0.00000E+00
    0.55485E-02        -0.14512E-01         0.00000E+00
    0.55696E-02        -0.14927E-01         0.00000E+00
    0.55812E-02        -0.15350E-01         0.00000E+00
    0.55821E-02        -0.15779E-01         0.00000E+00
    0.55715E-02        -0.16215E-01         0.00000E+00
    0.55480E-02        -0.16658E-01         0.00000E+00
    0.55105E-02        -0.17108E-01         0.00000E+00
    0.54574E-02        -0.17564E-01         0.00000E+00
    0.53872E-02        -0.18025E-01         0.00000E+00
    0.52982E-02        -0.18493E-01         0.00000E+00
    0.51884E-02        -0.18965E-01         0.00000E+00
    0.50557E-02        -0.19441E-01         0.00000E+00
    0.48978E-02        -0.19921E-01         0.00000E+00
    0.47121E-02        -0.20402E-01         0.00000E+00
    0.44958E-02        -0.20884E-01         0.00000E+00
    0.42458E-02        -0.21362E-01         0.00000E+00
    0.39591E-02        -0.21835E-01         0.00000E+00
    0.36322E-02        -0.22297E-01         0.00000E+00
    0.32619E-02        -0.22742E-01         0.00000E+00
    0.28448E-02        -0.23164E-01         0.00000E+00
    0.23783E-02        -0.23553E-01         0.00000E+00
    0.18601E-02        -0.23896E-01         0.00000E+00
    0.12897E-02        -0.24177E-01         0.00000E+00
    0.66945E-03        -0.24372E-01         0.00000E+00
    0.00000E+00        -0.24445E-01         0.00000E+00
    0.00000E+00        -0.31939E-03         0.00000E+00
    0.12455E-03        -0.33072E-03         0.00000E+00
    0.24224E-03        -0.36050E-03         0.00000E+00
    0.35289E-03        -0.40318E-03         0.00000E+00
    0.45635E-03        -0.45545E-03         0.00000E+00
    0.55294E-03        -0.51513E-03         0.00000E+00
    0.64318E-03        -0.58062E-03         0.00000E+00
    0.72766E-03        -0.65071E-03         0.00000E+00
    0.80699E-03        -0.72449E-03         0.00000E+00
    0.88179E-03        -0.80129E-03         0.00000E+00
    0.95265E-03        -0.88063E-03         0.00000E+00
    0.10201E-02        -0.96219E-03         0.00000E+00
    0.10847E-02        -0.10458E-02         0.00000E+00
    0.11470E-02        -0.11312E-02         0.00000E+00
    0.12072E-02        -0.12186E-02         0.00000E+00
    0.12659E-02        -0.13077E-02         0.00000E+00
    0.13234E-02        -0.13988E-02         0.00000E+00
    0.13799E-02        -0.14918E-02         0.00000E+00
    0.14358E-02        -0.15869E-02         0.00000E+00
    0.14913E-02        -0.16842E-02         0.00000E+00
    0.15467E-02        -0.17837E-02         0.00000E+00
    0.16020E-02        -0.18857E-02         0.00000E+00
    0.16576E-02        -0.19901E-02         0.00000E+00
    0.17135E-02        -0.20971E-02         0.00000E+00
    0.17700E-02        -0.22069E-02         0.00000E+00
    0.18270E-02        -0.23196E-02         0.00000E+00
    0.18849E-02        -0.24353E-02         0.00000E+00
    0.19435E-02        -0.25541E-02         0.00000E+00
    0.20032E-02        -0.26761E-02         0.00000E+00
    0.20638E-02        -0.28015E-02         0.00000E+00
    0.21256E-02        -0.29304E-02         0.00000E+00
    0.21885E-02        -0.30629E-02         0.00000E+00
    0.22526E-02        -0.31992E-02         0.00000E+00
    0.23181E-02        -0.33394E-02         0.00000E+00
    0.23848E-02        -0.34836E-02         0.00000E+00
    0.24529E-02        -0.36320E-02         0.00000E+00
    0.25224E-02        -0.37846E-02         0.00000E+00
    0.25933E-02        -0.39416E-02         0.00000E+00
    0.26656E-02        -0.41032E-02         0.00000E+00
    0.27393E-02        -0.42695E-02         0.00000E+00
    0.28145E-02        -0.44407E-02         0.00000E+00
    0.28910E-02        -0.46168E-02         0.00000E+00
    0.29690E-02        -0.47979E-02         0.00000E+00
    0.30484E-02        -0.49844E-02         0.00000E+00
    0.31291E-02        -0.51762E-02         0.00000E+00
    0.32112E-02        -0.53735E-02         0.00000E+00
    0.32945E-02        -0.55765E-02         0.00000E+00
    0.33790E-02        -0.57852E-02         0.00000E+00
    0.34647E-02        -0.59999E-02         0.00000E+00
    0.35515E-02        -0.62207E-02         0.00000E+00
    0.36392E-02        -0.64476E-02         0.00000E+00
    0.37279E-02        -0.66808E-02         0.00000E+00
    0.38174E-02        -0.69205E-02         0.00000E+00
    0.39076E-02        -0.71668E-02         0.00000E+00
    0.39983E-02        -0.74197E-02         0.00000E+00
    0.40894E-02        -0.76795E-02         0.00000E+00
    0.41808E-02        -0.79462E-02         0.00000E+00
    0.42723E-02        -0.82199E-02         0.00000E+00
    0.43637E-02        -0.85007E-02         0.00000E+00
    0.44547E-02        -0.87887E-02         0.00000E+00
    0.45453E-02        -0.90841E-02         0.00000E+00
    0.46350E-02        -0.93868E-02         0.00000E+00
    0.47237E-02        -0.96971E-02         0.00000E+00
    0.48111E-02        -0.10015E-01         0.00000E+00
    0.48969E-02        -0.10340E-01         0.00000E+00
    0.49807E-02        -0.10673E-01         0.00000E+00
    0.50622E-02        -0.11014E-01         0.00000E+00
    0.51410E-02        -0.11362E-01         0.00000E+00
    0.52167E-02        -0.11718E-01         0.00000E+00
    0.52888E-02        -0.12082E-01         0.00000E+00
    0.53568E-02        -0.12454E-01         0.00000E+00
    0.54203E-02        -0.12833E-01         0.00000E+00
    0.54786E-02        -0.13220E-01         0.00000E+00
    0.55311E-02        -0.13614E-01         0.00000E+00
    0.55772E-02        -0.14016E-01         0.00000E+00
    0.56162E-02        -0.14426E-01         0.00000E+00
    0.56473E-02        -0.14843E-01         0.00000E+00
    0.56697E-02        -0.15267E-01         0.00000E+00
    0.56824E-02        -0.15699E-01         0.00000E+00
    0.56844E-02        -0.16137E-01         0.00000E+00
    0.56747E-02        -0.16582E-01         0.00000E+00
    0.56521E-02        -0.17035E-01         0.00000E+00
    0.56153E-02        -0.17493E-01         0.00000E+00
    0.55627E-02        -0.17959E-01         0.00000E+00
    0.54929E-02        -0.18430E-01         0.00000E+00
    0.54039E-02        -0.18906E-01         0.00000E+00
    0.52939E-02        -0.19388E-01         0.00000E+00
    0.51606E-02        -0.19873E-01         0.00000E+00
    0.50017E-02        -0.20362E-01         0.00000E+00
    0.48144E-02        -0.20853E-01         0.00000E+00
    0.45959E-02        -0.21343E-01         0.00000E+00
    0.43430E-02        -0.21830E-01         0.00000E+00
    0.40523E-02        -0.22311E-01         0.00000E+00
    0.37204E-02        -0.22782E-01         0.00000E+00
    0.33436E-02        -0.23235E-01         0.00000E+00
    0.29185E-02        -0.23665E-01         0.00000E+00
    0.24419E-02        -0.24062E-01         0.00000E+00
    0.19115E-02        -0.24412E-01         0.00000E+00
    0.13260E-02        -0.24701E-01         0.00000E+00
    0.68788E-03        -0.24904E-01         0.00000E+00
    0.00000E+00        -0.24981E-01         0.00000E+00
    0.00000E+00        -0.33085E-03         0.00000E+00
    0.12767E-03        -0.34294E-03         0.00000E+00
    0.24831E-03        -0.37388E-03         0.00000E+00
    0.36141E-03        -0.41764E-03         0.00000E+00
    0.46688E-03        -0.47104E-03         0.00000E+00
    0.56517E-03        -0.53191E-03         0.00000E+00
    0.65686E-03        -0.59864E-03         0.00000E+00
    0.74257E-03        -0.67004E-03         0.00000E+00
    0.82297E-03        -0.74521E-03         0.00000E+00
    0.89871E-03        -0.82346E-03         0.00000E+00
    0.97041E-03        -0.90434E-03         0.00000E+00
    0.10387E-02        -0.98750E-03         0.00000E+00
    0.11040E-02        -0.10727E-02         0.00000E+00
    0.11669E-02        -0.11600E-02         0.00000E+00
    0.12278E-02        -0.12491E-02         0.00000E+00
    0.12871E-02        -0.13401E-02         0.00000E+00
    0.13452E-02        -0.14331E-02         0.00000E+00
    0.14024E-02        -0.15282E-02         0.00000E+00
    0.14589E-02        -0.16253E-02         0.00000E+00
    0.15151E-02        -0.17247E-02         0.00000E+00
    0.15711E-02        -0.18265E-02         0.00000E+00
    0.16271E-02        -0.19306E-02         0.00000E+00
    0.16834E-02        -0.20374E-02         0.00000E+00
    0.17400E-02        -0.21468E-02         0.00000E+00
    0.17972E-02        -0.22591E-02         0.00000E+00
    0.18551E-02        -0.23743E-02         0.00000E+00
    0.19137E-02        -0.24926E-02         0.00000E+00
    0.19732E-02        -0.26141E-02         0.00000E+00
    0.20336E-02        -0.27388E-02         0.00000E+00
    0.20951E-02        -0.28671E-02         0.00000E+00
    0.21578E-02        -0.29989E-02         0.00000E+00
    0.22216E-02        -0.31345E-02         0.00000E+00
    0.22867E-02        -0.32739E-02         0.00000E+00
    0.23531E-02        -0.34172E-02         0.00000E+00
    0.24209E-02        -0.35647E-02         0.00000E+00
    0.24900E-02        -0.37164E-02         0.00000E+00
    0.25606E-02        -0.38725E-02         0.00000E+00
    0.26326E-02        -0.40331E-02         0.00000E+00
    0.27060E-02        -0.41984E-02         0.00000E+00
    0.27809E-02        -0.43685E-02         0.00000E+00
    0.28572E-02        -0.45435E-02         0.00000E+00
    0.29350E-02        -0.47235E-02         0.00000E+00
    0.30142E-02        -0.49088E-02         0.00000E+00
    0.30949E-02        -0.50995E-02         0.00000E+00
    0.31769E-02        -0.52956E-02         0.00000E+00
    0.32603E-02        -0.54974E-02         0.00000E+00
    0.33449E-02        -0.57049E-02         0.00000E+00
    0.34308E-02        -0.59184E-02         0.00000E+00
    0.35180E-02        -0.61379E-02         0.00000E+00
    0.36062E-02        -0.63636E-02         0.00000E+00
    0.36954E-02        -0.65956E-02         0.00000E+00
    0.37856E-02        -0.68341E-02         0.00000E+00
    0.38766E-02        -0.70791E-02         0.00000E+00
    0.39683E-02        -0.73309E-02         0.00000E+00
    0.40606E-02        -0.75895E-02         0.00000E+00
    0.41533E-02        -0.78550E-02         0.00000E+00
    0.42463E-02        -0.81276E-02         0.00000E+00
    0.43394E-02        -0.84074E-02         0.00000E+00
    0.44324E-02        -0.86945E-02         0.00000E+00
    0.45251E-02        -0.89889E-02         0.00000E+00
    0.46173E-02        -0.92908E-02         0.00000E+00
    0.47088E-02        -0.96002E-02         0.00000E+00
    0.47992E-02        -0.99172E-02         0.00000E+00
    0.48883E-02        -0.10242E-01         0.00000E+00
    0.49757E-02        -0.10574E-01         0.00000E+00
    0.50612E-02        -0.10915E-01         0.00000E+00
    0.51444E-02        -0.11263E-01         0.00000E+00
    0.52249E-02        -0.11619E-01         0.00000E+00
    0.53022E-02        -0.11983E-01         0.00000E+00
    0.53759E-02        -0.12354E-01         0.00000E+00
    0.54456E-02        -0.12734E-01         0.00000E+00
    0.55106E-02        -0.13121E-01         0.00000E+00
    0.55704E-02        -0.13516E-01         0.00000E+00
    0.56245E-02        -0.13919E-01         0.00000E+00
    0.56721E-02        -0.14330E-01         0.00000E+00
    0.57125E-02        -0.14748E-01         0.00000E+00
    0.57450E-02        -0.15174E-01         0.00000E+00
    0.57686E-02        -0.15607E-01         0.00000E+00
    0.57826E-02        -0.16047E-01         0.00000E+00
    0.57858E-02        -0.16495E-01         0.00000E+00
    0.57772E-02        -0.16950E-01         0.00000E+00
    0.57555E-02        -0.17411E-01         0.00000E+00
    0.57195E-02        -0.17879E-01         0.00000E+00
    0.56676E-02        -0.18353E-01         0.00000E+00
    0.55982E-02        -0.18834E-01         0.00000E+00
    0.55095E-02        -0.19320E-01         0.00000E+00
    0.53994E-02        -0.19810E-01         0.00000E+00
    0.52658E-02        -0.20305E-01         0.00000E+00
    0.51061E-02        -0.20803E-01         0.00000E+00
    0.49175E-02        -0.21303E-01         0.00000E+00
    0.46971E-02        -0.21802E-01         0.00000E+00
    0.44415E-02        -0.22298E-01         0.00000E+00
    0.41472E-02        -0.22787E-01         0.00000E+00
    0.38105E-02        -0.23266E-01         0.00000E+00
    0.34276E-02        -0.23728E-01         0.00000E+00
    0.29947E-02        -0.24165E-01         0.00000E+00
    0.25084E-02        -0.24569E-01         0.00000E+00
    0.19658E-02        -0.24927E-01         0.00000E+00
    0.13650E-02        -0.25223E-01         0.00000E+00
    0.70801E-03        -0.25434E-01         0.00000E+00
    0.00000E+00        -0.25517E-01         0.00000E+00
    0.00000E+00        -0.34243E-03         0.00000E+00
    0.13107E-03        -0.35543E-03         0.00000E+00
    0.25479E-03        -0.38750E-03         0.00000E+00
    0.37031E-03        -0.43230E-03         0.00000E+00
    0.47776E-03        -0.48681E-03         0.00000E+00
    0.57769E-03        -0.54883E-03         0.00000E+00
    0.67075E-03        -0.61679E-03         0.00000E+00
    0.75763E-03        -0.68949E-03         0.00000E+00
    0.83904E-03        -0.76603E-03         0.00000E+00
    0.91566E-03        -0.84573E-03         0.00000E+00
    0.98814E-03        -0.92813E-03         0.00000E+00
    0.10571E-02        -0.10129E-02         0.00000E+00
    0.11231E-02        -0.10998E-02         0.00000E+00
    0.11866E-02        -0.11887E-02         0.00000E+00
    0.12481E-02        -0.12797E-02         0.00000E+00
    0.13080E-02        -0.13726E-02         0.00000E+00
    0.13667E-02        -0.14675E-02         0.00000E+00
    0.14245E-02        -0.15646E-02         0.00000E+00
    0.14816E-02        -0.16638E-02         0.00000E+00
    0.15384E-02        -0.17653E-02         0.00000E+00
    0.15950E-02        -0.18692E-02         0.00000E+00
    0.16517E-02        -0.19757E-02         0.00000E+00
    0.17087E-02        -0.20848E-02         0.00000E+00
    0.17660E-02        -0.21966E-02         0.00000E+00
    0.18239E-02        -0.23113E-02         0.00000E+00
    0.18825E-02        -0.24291E-02         0.00000E+00
    0.19419E-02        -0.25500E-02         0.00000E+00
    0.20022E-02        -0.26741E-02         0.00000E+00
    0.20635E-02        -0.28017E-02         0.00000E+00
    0.21258E-02        -0.29328E-02         0.00000E+00
    0.21893E-02        -0.30675E-02         0.00000E+00
    0.22541E-02        -0.32061E-02         0.00000E+00
    0.23201E-02        -0.33486E-02         0.00000E+00
    0.23875E-02        -0.34951E-02         0.00000E+00
    0.24562E-02        -0.36459E-02         0.00000E+00
    0.25264E-02        -0.38010E-02         0.00000E+00
    0.25979E-02        -0.39605E-02         0.00000E+00
    0.26710E-02        -0.41247E-02         0.00000E+00
    0.27455E-02        -0.42936E-02         0.00000E+00
    0.28215E-02        -0.44675E-02         0.00000E+00
    0.28990E-02        -0.46464E-02         0.00000E+00
    0.29780E-02        -0.48304E-02         0.00000E+00
    0.30585E-02        -0.50198E-02         0.00000E+00
    0.31404E-02        -0.52147E-02         0.00000E+00
    0.32237E-02        -0.54151E-02         0.00000E+00
    0.33083E-02        -0.56214E-02         0.00000E+00
    0.33944E-02        -0.58335E-02         0.00000E+00
    0.34816E-02        -0.60517E-02         0.00000E+00
    0.35701E-02        -0.62760E-02         0.00000E+00
    0.36598E-02        -0.65067E-02         0.00000E+00
    0.37505E-02        -0.67438E-02         0.00000E+00
    0.38421E-02        -0.69875E-02         0.00000E+00
    0.39346E-02        -0.72379E-02         0.00000E+00
    0.40279E-02        -0.74952E-02         0.00000E+00
    0.41217E-02        -0.77594E-02         0.00000E+00
    0.42160E-02        -0.80307E-02         0.00000E+00
    0.43106E-02        -0.83093E-02         0.00000E+00
    0.44053E-02        -0.85951E-02         0.00000E+00
    0.44999E-02        -0.88884E-02         0.00000E+00
    0.45943E-02        -0.91892E-02         0.00000E+00
    0.46882E-02        -0.94976E-02         0.00000E+00
    0.47813E-02        -0.98137E-02         0.00000E+00
    0.48733E-02        -0.10138E-01         0.00000E+00
    0.49641E-02        -0.10469E-01         0.00000E+00
    0.50533E-02        -0.10809E-01         0.00000E+00
    0.51404E-02        -0.11156E-01         0.00000E+00
    0.52253E-02        -0.11512E-01         0.00000E+00
    0.53074E-02        -0.11875E-01         0.00000E+00
    0.53864E-02        -0.12247E-01         0.00000E+00
    0.54618E-02        -0.12627E-01         0.00000E+00
    0.55331E-02        -0.13014E-01         0.00000E+00
    0.55997E-02        -0.13410E-01         0.00000E+00
    0.56611E-02        -0.13813E-01         0.00000E+00
    0.57167E-02        -0.14224E-01         0.00000E+00
    0.57658E-02        -0.14643E-01         0.00000E+00
    0.58077E-02        -0.15070E-01         0.00000E+00
    0.58416E-02        -0.15505E-01         0.00000E+00
    0.58666E-02        -0.15947E-01         0.00000E+00
    0.58819E-02        -0.16396E-01         0.00000E+00
    0.58863E-02        -0.16853E-01         0.00000E+00
    0.58788E-02        -0.17317E-01         0.00000E+00
    0.58582E-02        -0.17787E-01         0.00000E+00
    0.58231E-02        -0.18265E-01         0.00000E+00
    0.57720E-02        -0.18748E-01         0.00000E+00
    0.57032E-02        -0.19238E-01         0.00000E+00
    0.56149E-02        -0.19733E-01         0.00000E+00
    0.55050E-02        -0.20233E-01         0.00000E+00
    0.53712E-02        -0.20737E-01         0.00000E+00
    0.52109E-02        -0.21244E-01         0.00000E+00
    0.50214E-02        -0.21753E-01         0.00000E+00
    0.47993E-02        -0.22260E-01         0.00000E+00
    0.45413E-02        -0.22765E-01         0.00000E+00
    0.42437E-02        -0.23263E-01         0.00000E+00
    0.39027E-02        -0.23750E-01         0.00000E+00
    0.35140E-02        -0.24219E-01         0.00000E+00
    0.30737E-02        -0.24665E-01         0.00000E+00
    0.25780E-02        -0.25076E-01         0.00000E+00
    0.20233E-02        -0.25441E-01         0.00000E+00
    0.14073E-02        -0.25744E-01         0.00000E+00
    0.73032E-03        -0.25962E-01         0.00000E+00
    0.00000E+00        -0.26051E-01         0.00000E+00
    0.00000E+00        -0.35414E-03         0.00000E+00
    0.13486E-03        -0.36825E-03         0.00000E+00
    0.26176E-03        -0.40136E-03         0.00000E+00
    0.37964E-03        -0.44716E-03         0.00000E+00
    0.48902E-03        -0.50274E-03         0.00000E+00
    0.59053E-03        -0.56590E-03         0.00000E+00
    0.68489E-03        -0.63507E-03         0.00000E+00
    0.77287E-03        -0.70905E-03         0.00000E+00
    0.85521E-03        -0.78694E-03         0.00000E+00
    0.93264E-03        -0.86809E-03         0.00000E+00
    0.10058E-02        -0.95200E-03         0.00000E+00
    0.10754E-02        -0.10383E-02         0.00000E+00
    0.11420E-02        -0.11269E-02         0.00000E+00
    0.12061E-02        -0.12176E-02         0.00000E+00
    0.12682E-02        -0.13103E-02         0.00000E+00
    0.13286E-02        -0.14051E-02         0.00000E+00
    0.13879E-02        -0.15020E-02         0.00000E+00
    0.14462E-02        -0.16010E-02         0.00000E+00
    0.15039E-02        -0.17023E-02         0.00000E+00
    0.15613E-02        -0.18060E-02         0.00000E+00
    0.16185E-02        -0.19121E-02         0.00000E+00
    0.16759E-02        -0.20208E-02         0.00000E+00
    0.17335E-02        -0.21322E-02         0.00000E+00
    0.17915E-02        -0.22464E-02         0.00000E+00
    0.18501E-02        -0.23636E-02         0.00000E+00
    0.19094E-02        -0.24839E-02         0.00000E+00
    0.19695E-02        -0.26074E-02         0.00000E+00
    0.20306E-02        -0.27343E-02         0.00000E+00
    0.20926E-02        -0.28646E-02         0.00000E+00
    0.21558E-02        -0.29985E-02         0.00000E+00
    0.22202E-02        -0.31362E-02         0.00000E+00
    0.22858E-02        -0.32778E-02         0.00000E+00
    0.23527E-02        -0.34234E-02         0.00000E+00
    0.24210E-02        -0.35731E-02         0.00000E+00
    0.24907E-02        -0.37271E-02         0.00000E+00
    0.25619E-02        -0.38856E-02         0.00000E+00
    0.26345E-02        -0.40486E-02         0.00000E+00
    0.27086E-02        -0.42164E-02         0.00000E+00
    0.27842E-02        -0.43890E-02         0.00000E+00
    0.28613E-02        -0.45666E-02         0.00000E+00
    0.29400E-02        -0.47494E-02         0.00000E+00
    0.30201E-02        -0.49374E-02         0.00000E+00
    0.31018E-02        -0.51309E-02         0.00000E+00
    0.31849E-02        -0.53300E-02         0.00000E+00
    0.32695E-02        -0.55348E-02         0.00000E+00
    0.33554E-02        -0.57455E-02         0.00000E+00
    0.34428E-02        -0.59622E-02         0.00000E+00
    0.35314E-02        -0.61851E-02         0.00000E+00
    0.36213E-02        -0.64143E-02         0.00000E+00
    0.37123E-02        -0.66499E-02         0.00000E+00
    0.38044E-02        -0.68921E-02         0.00000E+00
    0.38975E-02        -0.71410E-02         0.00000E+00
    0.39915E-02        -0.73968E-02         0.00000E+00
    0.40863E-02        -0.76596E-02         0.00000E+00
    0.41816E-02        -0.79294E-02         0.00000E+00
    0.42775E-02        -0.82066E-02         0.00000E+00
    0.43737E-02        -0.84910E-02         0.00000E+00
    0.44700E-02        -0.87829E-02         0.00000E+00
    0.45662E-02        -0.90824E-02         0.00000E+00
    0.46622E-02        -0.93896E-02         0.00000E+00
    0.47577E-02        -0.97045E-02         0.00000E+00
    0.48525E-02        -0.10027E-01         0.00000E+00
    0.49462E-02        -0.10358E-01         0.00000E+00
    0.50387E-02        -0.10697E-01         0.00000E+00
    0.51295E-02        -0.11043E-01         0.00000E+00
    0.52184E-02        -0.11398E-01         0.00000E+00
    0.53049E-02        -0.11761E-01         0.00000E+00
    0.53887E-02        -0.12132E-01         0.00000E+00
    0.54694E-02        -0.12512E-01         0.00000E+00
    0.55464E-02        -0.12899E-01         0.00000E+00
    0.56193E-02        -0.13294E-01         0.00000E+00
    0.56876E-02        -0.13698E-01         0.00000E+00
    0.57506E-02        -0.14110E-01         0.00000E+00
    0.58078E-02        -0.14530E-01         0.00000E+00
    0.58584E-02        -0.14957E-01         0.00000E+00
    0.59018E-02        -0.15393E-01         0.00000E+00
    0.59372E-02        -0.15836E-01         0.00000E+00
    0.59636E-02        -0.16287E-01         0.00000E+00
    0.59802E-02        -0.16745E-01         0.00000E+00
    0.59859E-02        -0.17211E-01         0.00000E+00
    0.59797E-02        -0.17684E-01         0.00000E+00
    0.59602E-02        -0.18164E-01         0.00000E+00
    0.59261E-02        -0.18650E-01         0.00000E+00
    0.58759E-02        -0.19143E-01         0.00000E+00
    0.58079E-02        -0.19642E-01         0.00000E+00
    0.57202E-02        -0.20147E-01         0.00000E+00
    0.56106E-02        -0.20656E-01         0.00000E+00
    0.54769E-02        -0.21169E-01         0.00000E+00
    0.53164E-02        -0.21685E-01         0.00000E+00
    0.51260E-02        -0.22202E-01         0.00000E+00
    0.49026E-02        -0.22719E-01         0.00000E+00
    0.46426E-02        -0.23232E-01         0.00000E+00
    0.43422E-02        -0.23738E-01         0.00000E+00
    0.39971E-02        -0.24233E-01         0.00000E+00
    0.36030E-02        -0.24711E-01         0.00000E+00
    0.31557E-02        -0.25163E-01         0.00000E+00
    0.26508E-02        -0.25582E-01         0.00000E+00
    0.20844E-02        -0.25954E-01         0.00000E+00
    0.14533E-02        -0.26263E-01         0.00000E+00
    0.75550E-03        -0.26489E-01         0.00000E+00
    0.00000E+00        -0.26585E-01         0.00000E+00
    0.00000E+00        -0.36601E-03         0.00000E+00
    0.13919E-03        -0.38145E-03         0.00000E+00
    0.26926E-03        -0.41544E-03         0.00000E+00
    0.38944E-03        -0.46222E-03         0.00000E+00
    0.50070E-03        -0.51884E-03         0.00000E+00
    0.60370E-03        -0.58310E-03         0.00000E+00
    0.69930E-03        -0.65345E-03         0.00000E+00
    0.78829E-03        -0.72870E-03         0.00000E+00
    0.87149E-03        -0.80794E-03         0.00000E+00
    0.94966E-03        -0.89051E-03         0.00000E+00
    0.10235E-02        -0.97593E-03         0.00000E+00
    0.10937E-02        -0.10639E-02         0.00000E+00
    0.11608E-02        -0.11541E-02         0.00000E+00
    0.12254E-02        -0.12465E-02         0.00000E+00
    0.12880E-02        -0.13410E-02         0.00000E+00
    0.13490E-02        -0.14377E-02         0.00000E+00
    0.14087E-02        -0.15365E-02         0.00000E+00
    0.14676E-02        -0.16375E-02         0.00000E+00
    0.15258E-02        -0.17409E-02         0.00000E+00
    0.15838E-02        -0.18467E-02         0.00000E+00
    0.16416E-02        -0.19550E-02         0.00000E+00
    0.16995E-02        -0.20659E-02         0.00000E+00
    0.17577E-02        -0.21797E-02         0.00000E+00
    0.18164E-02        -0.22963E-02         0.00000E+00
    0.18757E-02        -0.24160E-02         0.00000E+00
    0.19357E-02        -0.25388E-02         0.00000E+00
    0.19965E-02        -0.26649E-02         0.00000E+00
    0.20583E-02        -0.27945E-02         0.00000E+00
    0.21212E-02        -0.29276E-02         0.00000E+00
    0.21851E-02        -0.30644E-02         0.00000E+00
    0.22503E-02        -0.32050E-02         0.00000E+00
    0.23168E-02        -0.33496E-02         0.00000E+00
    0.23846E-02        -0.34982E-02         0.00000E+00
    0.24539E-02        -0.36512E-02         0.00000E+00
    0.25245E-02        -0.38085E-02         0.00000E+00
    0.25966E-02        -0.39703E-02         0.00000E+00
    0.26702E-02        -0.41368E-02         0.00000E+00
    0.27453E-02        -0.43082E-02         0.00000E+00
    0.28220E-02        -0.44844E-02         0.00000E+00
    0.29002E-02        -0.46658E-02         0.00000E+00
    0.29800E-02        -0.48525E-02         0.00000E+00
    0.30613E-02        -0.50445E-02         0.00000E+00
    0.31441E-02        -0.52421E-02         0.00000E+00
    0.32284E-02        -0.54454E-02         0.00000E+00
    0.33143E-02        -0.56546E-02         0.00000E+00
    0.34015E-02        -0.58697E-02         0.00000E+00
    0.34901E-02        -0.60910E-02         0.00000E+00
    0.35801E-02        -0.63186E-02         0.00000E+00
    0.36713E-02        -0.65526E-02         0.00000E+00
    0.37637E-02        -0.67932E-02         0.00000E+00
    0.38573E-02        -0.70405E-02         0.00000E+00
    0.39518E-02        -0.72947E-02         0.00000E+00
    0.40473E-02        -0.75558E-02         0.00000E+00
    0.41435E-02        -0.78241E-02         0.00000E+00
    0.42404E-02        -0.80996E-02         0.00000E+00
    0.43378E-02        -0.83825E-02         0.00000E+00
    0.44355E-02        -0.86729E-02         0.00000E+00
    0.45334E-02        -0.89709E-02         0.00000E+00
    0.46313E-02        -0.92767E-02         0.00000E+00
    0.47289E-02        -0.95902E-02         0.00000E+00
    0.48260E-02        -0.99116E-02         0.00000E+00
    0.49224E-02        -0.10241E-01         0.00000E+00
    0.50178E-02        -0.10579E-01         0.00000E+00
    0.51119E-02        -0.10924E-01         0.00000E+00
    0.52045E-02        -0.11278E-01         0.00000E+00
    0.52950E-02        -0.11640E-01         0.00000E+00
    0.53832E-02        -0.12011E-01         0.00000E+00
    0.54687E-02        -0.12389E-01         0.00000E+00
    0.55510E-02        -0.12776E-01         0.00000E+00
    0.56297E-02        -0.13171E-01         0.00000E+00
    0.57043E-02        -0.13575E-01         0.00000E+00
    0.57742E-02        -0.13987E-01         0.00000E+00
    0.58389E-02        -0.14407E-01         0.00000E+00
    0.58977E-02        -0.14835E-01         0.00000E+00
    0.59499E-02        -0.15271E-01         0.00000E+00
    0.59948E-02        -0.15715E-01         0.00000E+00
    0.60317E-02        -0.16167E-01         0.00000E+00
    0.60596E-02        -0.16627E-01         0.00000E+00
    0.60776E-02        -0.17094E-01         0.00000E+00
    0.60847E-02        -0.17569E-01         0.00000E+00
    0.60798E-02        -0.18051E-01         0.00000E+00
    0.60615E-02        -0.18540E-01         0.00000E+00
    0.60286E-02        -0.19036E-01         0.00000E+00
    0.59794E-02        -0.19538E-01         0.00000E+00
    0.59123E-02        -0.20046E-01         0.00000E+00
    0.58254E-02        -0.20560E-01         0.00000E+00
    0.57164E-02        -0.21078E-01         0.00000E+00
    0.55830E-02        -0.21601E-01         0.00000E+00
    0.54224E-02        -0.22126E-01         0.00000E+00
    0.52316E-02        -0.22652E-01         0.00000E+00
    0.50072E-02        -0.23177E-01         0.00000E+00
    0.47456E-02        -0.23699E-01         0.00000E+00
    0.44425E-02        -0.24213E-01         0.00000E+00
    0.40938E-02        -0.24716E-01         0.00000E+00
    0.36948E-02        -0.25201E-01         0.00000E+00
    0.32408E-02        -0.25661E-01         0.00000E+00
    0.27272E-02        -0.26086E-01         0.00000E+00
    0.21492E-02        -0.26465E-01         0.00000E+00
    0.15034E-02        -0.26781E-01         0.00000E+00
    0.78468E-03        -0.27012E-01         0.00000E+00
    0.00000E+00        -0.27118E-01         0.00000E+00
    0.00000E+00        -0.37809E-03         0.00000E+00
    0.14434E-03        -0.39513E-03         0.00000E+00
    0.27728E-03        -0.42966E-03         0.00000E+00
    0.39979E-03        -0.47749E-03         0.00000E+00
    0.51282E-03        -0.53505E-03         0.00000E+00
    0.61724E-03        -0.60042E-03         0.00000E+00
    0.71398E-03        -0.67193E-03         0.00000E+00
    0.80392E-03        -0.74843E-03         0.00000E+00
    0.88790E-03        -0.82901E-03         0.00000E+00
    0.96674E-03        -0.91300E-03         0.00000E+00
    0.10412E-02        -0.99992E-03         0.00000E+00
    0.11119E-02        -0.10894E-02         0.00000E+00
    0.11795E-02        -0.11813E-02         0.00000E+00
    0.12446E-02        -0.12754E-02         0.00000E+00
    0.13076E-02        -0.13718E-02         0.00000E+00
    0.13691E-02        -0.14703E-02         0.00000E+00
    0.14293E-02        -0.15710E-02         0.00000E+00
    0.14886E-02        -0.16741E-02         0.00000E+00
    0.15474E-02        -0.17795E-02         0.00000E+00
    0.16058E-02        -0.18874E-02         0.00000E+00
    0.16642E-02        -0.19979E-02         0.00000E+00
    0.17227E-02        -0.21112E-02         0.00000E+00
    0.17815E-02        -0.22272E-02         0.00000E+00
    0.18408E-02        -0.23463E-02         0.00000E+00
    0.19007E-02        -0.24684E-02         0.00000E+00
    0.19614E-02        -0.25938E-02         0.00000E+00
    0.20229E-02        -0.27225E-02         0.00000E+00
    0.20854E-02        -0.28548E-02         0.00000E+00
    0.21490E-02        -0.29906E-02         0.00000E+00
    0.22138E-02        -0.31303E-02         0.00000E+00
    0.22798E-02        -0.32738E-02         0.00000E+00
    0.23471E-02        -0.34214E-02         0.00000E+00
    0.24158E-02        -0.35732E-02         0.00000E+00
    0.24859E-02        -0.37293E-02         0.00000E+00
    0.25575E-02        -0.38899E-02         0.00000E+00
    0.26305E-02        -0.40551E-02         0.00000E+00
    0.27051E-02        -0.42251E-02         0.00000E+00
    0.27813E-02        -0.44000E-02         0.00000E+00
    0.28590E-02        -0.45800E-02         0.00000E+00
    0.29382E-02        -0.47652E-02         0.00000E+00
    0.30191E-02        -0.49557E-02         0.00000E+00
    0.31015E-02        -0.51517E-02         0.00000E+00
    0.31855E-02        -0.53535E-02         0.00000E+00
    0.32710E-02        -0.55610E-02         0.00000E+00
    0.33581E-02        -0.57745E-02         0.00000E+00
    0.34465E-02        -0.59941E-02         0.00000E+00
    0.35365E-02        -0.62200E-02         0.00000E+00
    0.36277E-02        -0.64522E-02         0.00000E+00
    0.37203E-02        -0.66911E-02         0.00000E+00
    0.38141E-02        -0.69366E-02         0.00000E+00
    0.39090E-02        -0.71891E-02         0.00000E+00
    0.40050E-02        -0.74484E-02         0.00000E+00
    0.41019E-02        -0.77150E-02         0.00000E+00
    0.41996E-02        -0.79888E-02         0.00000E+00
    0.42980E-02        -0.82699E-02         0.00000E+00
    0.43969E-02        -0.85586E-02         0.00000E+00
    0.44962E-02        -0.88550E-02         0.00000E+00
    0.45956E-02        -0.91591E-02         0.00000E+00
    0.46951E-02        -0.94710E-02         0.00000E+00
    0.47943E-02        -0.97909E-02         0.00000E+00
    0.48931E-02        -0.10119E-01         0.00000E+00
    0.49911E-02        -0.10455E-01         0.00000E+00
    0.50882E-02        -0.10799E-01         0.00000E+00
    0.51839E-02        -0.11152E-01         0.00000E+00
    0.52781E-02        -0.11513E-01         0.00000E+00
    0.53704E-02        -0.11882E-01         0.00000E+00
    0.54603E-02        -0.12260E-01         0.00000E+00
    0.55474E-02        -0.12646E-01         0.00000E+00
    0.56315E-02        -0.13041E-01         0.00000E+00
    0.57118E-02        -0.13444E-01         0.00000E+00
    0.57881E-02        -0.13856E-01         0.00000E+00
    0.58597E-02        -0.14276E-01         0.00000E+00
    0.59260E-02        -0.14704E-01         0.00000E+00
    0.59864E-02        -0.15140E-01         0.00000E+00
    0.60402E-02        -0.15585E-01         0.00000E+00
    0.60868E-02        -0.16038E-01         0.00000E+00
    0.61252E-02        -0.16499E-01         0.00000E+00
    0.61546E-02        -0.16967E-01         0.00000E+00
    0.61741E-02        -0.17444E-01         0.00000E+00
    0.61827E-02        -0.17928E-01         0.00000E+00
    0.61791E-02        -0.18419E-01         0.00000E+00
    0.61622E-02        -0.18917E-01         0.00000E+00
    0.61305E-02        -0.19422E-01         0.00000E+00
    0.60825E-02        -0.19933E-01         0.00000E+00
    0.60165E-02        -0.20451E-01         0.00000E+00
    0.59305E-02        -0.20974E-01         0.00000E+00
    0.58223E-02        -0.21501E-01         0.00000E+00
    0.56894E-02        -0.22033E-01         0.00000E+00
    0.55290E-02        -0.22567E-01         0.00000E+00
    0.53381E-02        -0.23102E-01         0.00000E+00
    0.51131E-02        -0.23636E-01         0.00000E+00
    0.48501E-02        -0.24166E-01         0.00000E+00
    0.45450E-02        -0.24688E-01         0.00000E+00
    0.41931E-02        -0.25199E-01         0.00000E+00
    0.37896E-02        -0.25691E-01         0.00000E+00
    0.33294E-02        -0.26158E-01         0.00000E+00
    0.28074E-02        -0.26590E-01         0.00000E+00
    0.22184E-02        -0.26975E-01         0.00000E+00
    0.15576E-02        -0.27298E-01         0.00000E+00
    0.81978E-03        -0.27533E-01         0.00000E+00
    0.00000E+00        -0.27650E-01         0.00000E+00
CELL_DATA       5000
VECTORS vDarcy double 
    0.43596E-08         0.39592E-13         0.00000E+00
    0.43641E-08         0.89545E-13         0.00000E+00
    0.43742E-08         0.10605E-12         0.00000E+00
    0.43900E-08         0.11408E-12         0.00000E+00
    0.44117E-08         0.11587E-12         0.00000E+00
    0.44395E-08         0.11421E-12         0.00000E+00
    0.44733E-08         0.11032E-12         0.00000E+00
    0.45134E-08         0.10518E-12         0.00000E+00
    0.45597E-08         0.99387E-13         0.00000E+00
    0.46123E-08         0.93385E-13         0.00000E+00
    0.46712E-08         0.87443E-13         0.00000E+00
    0.47365E-08         0.81734E-13         0.00000E+00
    0.48083E-08         0.76356E-13         0.00000E+00
    0.48866E-08         0.71354E-13         0.00000E+00
    0.49713E-08         0.66739E-13         0.00000E+00
    0.50627E-08         0.62500E-13         0.00000E+00
    0.51606E-08         0.58612E-13         0.00000E+00
    0.52653E-08         0.55041E-13         0.00000E+00
    0.53766E-08         0.51751E-13         0.00000E+00
    0.54947E-08         0.48703E-13         0.00000E+00
    0.56197E-08         0.45859E-13         0.00000E+00
    0.57516E-08         0.43185E-13         0.00000E+00
    0.58904E-08         0.40646E-13         0.00000E+00
    0.60363E-08         0.38211E-13         0.00000E+00
    0.61893E-08         0.35850E-13         0.00000E+00
    0.63495E-08         0.33537E-13         0.00000E+00
    0.65169E-08         0.31247E-13         0.00000E+00
    0.66917E-08         0.28956E-13         0.00000E+00
    0.68738E-08         0.26644E-13         0.00000E+00
    0.70635E-08         0.24290E-13         0.00000E+00
    0.72607E-08         0.21876E-13         0.00000E+00
    0.74655E-08         0.19384E-13         0.00000E+00
    0.76780E-08         0.16798E-13         0.00000E+00
    0.78983E-08         0.14102E-13         0.00000E+00
    0.81265E-08         0.11282E-13         0.00000E+00
    0.83625E-08         0.83227E-14         0.00000E+00
    0.86065E-08         0.52122E-14         0.00000E+00
    0.88586E-08         0.19377E-14         0.00000E+00
    0.91187E-08        -0.15126E-14         0.00000E+00
    0.93869E-08        -0.51497E-14         0.00000E+00
    0.96633E-08        -0.89837E-14         0.00000E+00
    0.99479E-08        -0.13024E-13         0.00000E+00
    0.10241E-07        -0.17279E-13         0.00000E+00
    0.10542E-07        -0.21757E-13         0.00000E+00
    0.10851E-07        -0.26464E-13         0.00000E+00
    0.11169E-07        -0.31406E-13         0.00000E+00
    0.11494E-07        -0.36588E-13         0.00000E+00
    0.11828E-07        -0.42012E-13         0.00000E+00
    0.12170E-07        -0.47681E-13         0.00000E+00
    0.12520E-07        -0.53595E-13         0.00000E+00
    0.12879E-07        -0.59752E-13         0.00000E+00
    0.13245E-07        -0.66150E-13         0.00000E+00
    0.13619E-07        -0.72784E-13         0.00000E+00
    0.14000E-07        -0.79646E-13         0.00000E+00
    0.14389E-07        -0.86727E-13         0.00000E+00
    0.14786E-07        -0.94015E-13         0.00000E+00
    0.15189E-07        -0.10149E-12         0.00000E+00
    0.15600E-07        -0.10915E-12         0.00000E+00
    0.16017E-07        -0.11695E-12         0.00000E+00
    0.16441E-07        -0.12489E-12         0.00000E+00
    0.16871E-07        -0.13292E-12         0.00000E+00
    0.17306E-07        -0.14102E-12         0.00000E+00
    0.17747E-07        -0.14914E-12         0.00000E+00
    0.18193E-07        -0.15725E-12         0.00000E+00
    0.18643E-07        -0.16530E-12         0.00000E+00
    0.19098E-07        -0.17323E-12         0.00000E+00
    0.19556E-07        -0.18098E-12         0.00000E+00
    0.20016E-07        -0.18848E-12         0.00000E+00
    0.20480E-07        -0.19566E-12         0.00000E+00
    0.20945E-07        -0.20243E-12         0.00000E+00
    0.21411E-07        -0.20870E-12         0.00000E+00
    0.21877E-07        -0.21437E-12         0.00000E+00
    0.22342E-07        -0.21932E-12         0.00000E+00
    0.22807E-07        -0.22343E-12         0.00000E+00
    0.23269E-07        -0.22654E-12         0.00000E+00
    0.23728E-07        -0.22852E-12         0.00000E+00
    0.24183E-07        -0.22919E-12         0.00000E+00
    0.24632E-07        -0.22836E-12         0.00000E+00
    0.25075E-07        -0.22582E-12         0.00000E+00
    0.25511E-07        -0.22136E-12         0.00000E+00
    0.25939E-07        -0.21473E-12         0.00000E+00
    0.26356E-07        -0.20566E-12         0.00000E+00
    0.26763E-07        -0.19389E-12         0.00000E+00
    0.27157E-07        -0.17913E-12         0.00000E+00
    0.27537E-07        -0.16109E-12         0.00000E+00
    0.27902E-07        -0.13951E-12         0.00000E+00
    0.28251E-07        -0.11414E-12         0.00000E+00
    0.28582E-07        -0.84792E-13         0.00000E+00
    0.28894E-07        -0.51383E-13         0.00000E+00
    0.29185E-07        -0.13977E-13         0.00000E+00
    0.29454E-07         0.27148E-13         0.00000E+00
    0.29700E-07         0.71388E-13         0.00000E+00
    0.29922E-07         0.11774E-12         0.00000E+00
    0.30118E-07         0.16456E-12         0.00000E+00
    0.30287E-07         0.20958E-12         0.00000E+00
    0.30429E-07         0.24907E-12         0.00000E+00
    0.30543E-07         0.27887E-12         0.00000E+00
    0.30628E-07         0.28840E-12         0.00000E+00
    0.30685E-07         0.27183E-12         0.00000E+00
    0.30713E-07         0.12890E-12         0.00000E+00
    0.43597E-08         0.11249E-12         0.00000E+00
    0.43642E-08         0.25928E-12         0.00000E+00
    0.43742E-08         0.31195E-12         0.00000E+00
    0.43900E-08         0.33665E-12         0.00000E+00
    0.44117E-08         0.34283E-12         0.00000E+00
    0.44395E-08         0.33824E-12         0.00000E+00
    0.44733E-08         0.32688E-12         0.00000E+00
    0.45134E-08         0.31165E-12         0.00000E+00
    0.45597E-08         0.29445E-12         0.00000E+00
    0.46123E-08         0.27659E-12         0.00000E+00
    0.46712E-08         0.25890E-12         0.00000E+00
    0.47365E-08         0.24191E-12         0.00000E+00
    0.48083E-08         0.22592E-12         0.00000E+00
    0.48866E-08         0.21105E-12         0.00000E+00
    0.49713E-08         0.19735E-12         0.00000E+00
    0.50627E-08         0.18478E-12         0.00000E+00
    0.51606E-08         0.17326E-12         0.00000E+00
    0.52653E-08         0.16269E-12         0.00000E+00
    0.53766E-08         0.15296E-12         0.00000E+00
    0.54947E-08         0.14395E-12         0.00000E+00
    0.56197E-08         0.13556E-12         0.00000E+00
    0.57516E-08         0.12766E-12         0.00000E+00
    0.58904E-08         0.12017E-12         0.00000E+00
    0.60363E-08         0.11299E-12         0.00000E+00
    0.61893E-08         0.10603E-12         0.00000E+00
    0.63495E-08         0.99204E-13         0.00000E+00
    0.65169E-08         0.92449E-13         0.00000E+00
    0.66917E-08         0.85692E-13         0.00000E+00
    0.68738E-08         0.78870E-13         0.00000E+00
    0.70635E-08         0.71924E-13         0.00000E+00
    0.72607E-08         0.64799E-13         0.00000E+00
    0.74655E-08         0.57442E-13         0.00000E+00
    0.76780E-08         0.49805E-13         0.00000E+00
    0.78983E-08         0.41842E-13         0.00000E+00
    0.81265E-08         0.33510E-13         0.00000E+00
    0.83625E-08         0.24767E-13         0.00000E+00
    0.86065E-08         0.15574E-13         0.00000E+00
    0.88586E-08         0.58940E-14         0.00000E+00
    0.91187E-08        -0.43067E-14         0.00000E+00
    0.93869E-08        -0.15061E-13         0.00000E+00
    0.96633E-08        -0.26399E-13         0.00000E+00
    0.99479E-08        -0.38350E-13         0.00000E+00
    0.10241E-07        -0.50937E-13         0.00000E+00
    0.10542E-07        -0.64184E-13         0.00000E+00
    0.10851E-07        -0.78111E-13         0.00000E+00
    0.11169E-07        -0.92735E-13         0.00000E+00
    0.11494E-07        -0.10807E-12         0.00000E+00
    0.11828E-07        -0.12412E-12         0.00000E+00
    0.12170E-07        -0.14090E-12         0.00000E+00
    0.12520E-07        -0.15841E-12         0.00000E+00
    0.12879E-07        -0.17664E-12         0.00000E+00
    0.13245E-07        -0.19558E-12         0.00000E+00
    0.13619E-07        -0.21522E-12         0.00000E+00
    0.14000E-07        -0.23555E-12         0.00000E+00
    0.14389E-07        -0.25652E-12         0.00000E+00
    0.14786E-07        -0.27811E-12         0.00000E+00
    0.15189E-07        -0.30026E-12         0.00000E+00
    0.15600E-07        -0.32294E-12         0.00000E+00
    0.16017E-07        -0.34607E-12         0.00000E+00
    0.16441E-07        -0.36959E-12         0.00000E+00
    0.16871E-07        -0.39340E-12         0.00000E+00
    0.17306E-07        -0.41740E-12         0.00000E+00
    0.17747E-07        -0.44150E-12         0.00000E+00
    0.18193E-07        -0.46555E-12         0.00000E+00
    0.18643E-07        -0.48943E-12         0.00000E+00
    0.19098E-07        -0.51295E-12         0.00000E+00
    0.19556E-07        -0.53596E-12         0.00000E+00
    0.20016E-07        -0.55824E-12         0.00000E+00
    0.20480E-07        -0.57957E-12         0.00000E+00
    0.20945E-07        -0.59971E-12         0.00000E+00
    0.21411E-07        -0.61837E-12         0.00000E+00
    0.21877E-07        -0.63526E-12         0.00000E+00
    0.22342E-07        -0.65002E-12         0.00000E+00
    0.22807E-07        -0.66228E-12         0.00000E+00
    0.23269E-07        -0.67163E-12         0.00000E+00
    0.23728E-07        -0.67761E-12         0.00000E+00
    0.24183E-07        -0.67971E-12         0.00000E+00
    0.24632E-07        -0.67736E-12         0.00000E+00
    0.25075E-07        -0.66996E-12         0.00000E+00
    0.25511E-07        -0.65684E-12         0.00000E+00
    0.25939E-07        -0.63726E-12         0.00000E+00
    0.26356E-07        -0.61046E-12         0.00000E+00
    0.26763E-07        -0.57560E-12         0.00000E+00
    0.27157E-07        -0.53184E-12         0.00000E+00
    0.27537E-07        -0.47831E-12         0.00000E+00
    0.27902E-07        -0.41419E-12         0.00000E+00
    0.28251E-07        -0.33874E-12         0.00000E+00
    0.28582E-07        -0.25142E-12         0.00000E+00
    0.28894E-07        -0.15196E-12         0.00000E+00
    0.29185E-07        -0.40547E-13         0.00000E+00
    0.29454E-07         0.81944E-13         0.00000E+00
    0.29700E-07         0.21369E-12         0.00000E+00
    0.29922E-07         0.35157E-12         0.00000E+00
    0.30118E-07         0.49061E-12         0.00000E+00
    0.30287E-07         0.62364E-12         0.00000E+00
    0.30429E-07         0.73968E-12         0.00000E+00
    0.30543E-07         0.82440E-12         0.00000E+00
    0.30628E-07         0.84901E-12         0.00000E+00
    0.30685E-07         0.78326E-12         0.00000E+00
    0.30713E-07         0.36278E-12         0.00000E+00
    0.43597E-08         0.17430E-12         0.00000E+00
    0.43642E-08         0.41148E-12         0.00000E+00
    0.43742E-08         0.50538E-12         0.00000E+00
    0.43900E-08         0.54819E-12         0.00000E+00
    0.44117E-08         0.56018E-12         0.00000E+00
    0.44395E-08         0.55344E-12         0.00000E+00
    0.44733E-08         0.53520E-12         0.00000E+00
    0.45134E-08         0.51030E-12         0.00000E+00
    0.45597E-08         0.48204E-12         0.00000E+00
    0.46123E-08         0.45262E-12         0.00000E+00
    0.46712E-08         0.42348E-12         0.00000E+00
    0.47365E-08         0.39549E-12         0.00000E+00
    0.48083E-08         0.36917E-12         0.00000E+00
    0.48866E-08         0.34473E-12         0.00000E+00
    0.49713E-08         0.32224E-12         0.00000E+00
    0.50627E-08         0.30163E-12         0.00000E+00
    0.51606E-08         0.28276E-12         0.00000E+00
    0.52652E-08         0.26548E-12         0.00000E+00
    0.53766E-08         0.24959E-12         0.00000E+00
    0.54947E-08         0.23490E-12         0.00000E+00
    0.56197E-08         0.22121E-12         0.00000E+00
    0.57516E-08         0.20836E-12         0.00000E+00
    0.58904E-08         0.19617E-12         0.00000E+00
    0.60363E-08         0.18448E-12         0.00000E+00
    0.61893E-08         0.17315E-12         0.00000E+00
    0.63495E-08         0.16206E-12         0.00000E+00
    0.65169E-08         0.15107E-12         0.00000E+00
    0.66917E-08         0.14007E-12         0.00000E+00
    0.68738E-08         0.12897E-12         0.00000E+00
    0.70635E-08         0.11766E-12         0.00000E+00
    0.72607E-08         0.10606E-12         0.00000E+00
    0.74655E-08         0.94074E-13         0.00000E+00
    0.76780E-08         0.81629E-13         0.00000E+00
    0.78983E-08         0.68648E-13         0.00000E+00
    0.81265E-08         0.55061E-13         0.00000E+00
    0.83625E-08         0.40799E-13         0.00000E+00
    0.86065E-08         0.25801E-13         0.00000E+00
    0.88586E-08         0.10004E-13         0.00000E+00
    0.91187E-08        -0.66471E-14         0.00000E+00
    0.93869E-08        -0.24206E-13         0.00000E+00
    0.96633E-08        -0.42721E-13         0.00000E+00
    0.99479E-08        -0.62239E-13         0.00000E+00
    0.10241E-07        -0.82802E-13         0.00000E+00
    0.10542E-07        -0.10445E-12         0.00000E+00
    0.10851E-07        -0.12720E-12         0.00000E+00
    0.11169E-07        -0.15111E-12         0.00000E+00
    0.11494E-07        -0.17617E-12         0.00000E+00
    0.11828E-07        -0.20242E-12         0.00000E+00
    0.12170E-07        -0.22985E-12         0.00000E+00
    0.12520E-07        -0.25848E-12         0.00000E+00
    0.12879E-07        -0.28829E-12         0.00000E+00
    0.13245E-07        -0.31928E-12         0.00000E+00
    0.13619E-07        -0.35142E-12         0.00000E+00
    0.14000E-07        -0.38467E-12         0.00000E+00
    0.14389E-07        -0.41900E-12         0.00000E+00
    0.14786E-07        -0.45433E-12         0.00000E+00
    0.15189E-07        -0.49061E-12         0.00000E+00
    0.15600E-07        -0.52774E-12         0.00000E+00
    0.16017E-07        -0.56562E-12         0.00000E+00
    0.16441E-07        -0.60414E-12         0.00000E+00
    0.16871E-07        -0.64315E-12         0.00000E+00
    0.17306E-07        -0.68250E-12         0.00000E+00
    0.17747E-07        -0.72200E-12         0.00000E+00
    0.18193E-07        -0.76145E-12         0.00000E+00
    0.18643E-07        -0.80061E-12         0.00000E+00
    0.19098E-07        -0.83923E-12         0.00000E+00
    0.19556E-07        -0.87700E-12         0.00000E+00
    0.20016E-07        -0.91361E-12         0.00000E+00
    0.20480E-07        -0.94868E-12         0.00000E+00
    0.20945E-07        -0.98182E-12         0.00000E+00
    0.21411E-07        -0.10126E-11         0.00000E+00
    0.21877E-07        -0.10404E-11         0.00000E+00
    0.22342E-07        -0.10648E-11         0.00000E+00
    0.22807E-07        -0.10851E-11         0.00000E+00
    0.23269E-07        -0.11007E-11         0.00000E+00
    0.23728E-07        -0.11107E-11         0.00000E+00
    0.24183E-07        -0.11144E-11         0.00000E+00
    0.24632E-07        -0.11109E-11         0.00000E+00
    0.25075E-07        -0.10990E-11         0.00000E+00
    0.25511E-07        -0.10778E-11         0.00000E+00
    0.25939E-07        -0.10459E-11         0.00000E+00
    0.26356E-07        -0.10022E-11         0.00000E+00
    0.26763E-07        -0.94515E-12         0.00000E+00
    0.27157E-07        -0.87343E-12         0.00000E+00
    0.27537E-07        -0.78557E-12         0.00000E+00
    0.27902E-07        -0.68019E-12         0.00000E+00
    0.28251E-07        -0.55605E-12         0.00000E+00
    0.28582E-07        -0.41222E-12         0.00000E+00
    0.28894E-07        -0.24828E-12         0.00000E+00
    0.29185E-07        -0.64546E-13         0.00000E+00
    0.29454E-07         0.13748E-12         0.00000E+00
    0.29700E-07         0.35470E-12         0.00000E+00
    0.29922E-07         0.58170E-12         0.00000E+00
    0.30118E-07         0.81004E-12         0.00000E+00
    0.30287E-07         0.10271E-11         0.00000E+00
    0.30429E-07         0.12145E-11         0.00000E+00
    0.30543E-07         0.13457E-11         0.00000E+00
    0.30628E-07         0.13763E-11         0.00000E+00
    0.30685E-07         0.12346E-11         0.00000E+00
    0.30713E-07         0.55495E-12         0.00000E+00
    0.43598E-08         0.22759E-12         0.00000E+00
    0.43642E-08         0.54841E-12         0.00000E+00
    0.43742E-08         0.68637E-12         0.00000E+00
    0.43900E-08         0.74890E-12         0.00000E+00
    0.44117E-08         0.76781E-12         0.00000E+00
    0.44395E-08         0.75974E-12         0.00000E+00
    0.44733E-08         0.73517E-12         0.00000E+00
    0.45134E-08         0.70104E-12         0.00000E+00
    0.45596E-08         0.66207E-12         0.00000E+00
    0.46122E-08         0.62141E-12         0.00000E+00
    0.46712E-08         0.58111E-12         0.00000E+00
    0.47365E-08         0.54243E-12         0.00000E+00
    0.48083E-08         0.50608E-12         0.00000E+00
    0.48866E-08         0.47237E-12         0.00000E+00
    0.49713E-08         0.44138E-12         0.00000E+00
    0.50627E-08         0.41303E-12         0.00000E+00
    0.51606E-08         0.38712E-12         0.00000E+00
    0.52652E-08         0.36341E-12         0.00000E+00
    0.53766E-08         0.34165E-12         0.00000E+00
    0.54947E-08         0.32154E-12         0.00000E+00
    0.56197E-08         0.30283E-12         0.00000E+00
    0.57516E-08         0.28528E-12         0.00000E+00
    0.58904E-08         0.26863E-12         0.00000E+00
    0.60363E-08         0.25268E-12         0.00000E+00
    0.61893E-08         0.23723E-12         0.00000E+00
    0.63495E-08         0.22209E-12         0.00000E+00
    0.65169E-08         0.20710E-12         0.00000E+00
    0.66916E-08         0.19210E-12         0.00000E+00
    0.68738E-08         0.17694E-12         0.00000E+00
    0.70635E-08         0.16150E-12         0.00000E+00
    0.72607E-08         0.14565E-12         0.00000E+00
    0.74655E-08         0.12927E-12         0.00000E+00
    0.76780E-08         0.11226E-12         0.00000E+00
    0.78983E-08         0.94507E-13         0.00000E+00
    0.81265E-08         0.75921E-13         0.00000E+00
    0.83625E-08         0.56406E-13         0.00000E+00
    0.86065E-08         0.35877E-13         0.00000E+00
    0.88586E-08         0.14251E-13         0.00000E+00
    0.91187E-08        -0.85513E-14         0.00000E+00
    0.93869E-08        -0.32601E-13         0.00000E+00
    0.96633E-08        -0.57967E-13         0.00000E+00
    0.99479E-08        -0.84712E-13         0.00000E+00
    0.10241E-07        -0.11289E-12         0.00000E+00
    0.10542E-07        -0.14256E-12         0.00000E+00
    0.10851E-07        -0.17376E-12         0.00000E+00
    0.11169E-07        -0.20654E-12         0.00000E+00
    0.11494E-07        -0.24091E-12         0.00000E+00
    0.11828E-07        -0.27691E-12         0.00000E+00
    0.12170E-07        -0.31455E-12         0.00000E+00
    0.12520E-07        -0.35383E-12         0.00000E+00
    0.12879E-07        -0.39474E-12         0.00000E+00
    0.13245E-07        -0.43727E-12         0.00000E+00
    0.13619E-07        -0.48139E-12         0.00000E+00
    0.14000E-07        -0.52704E-12         0.00000E+00
    0.14389E-07        -0.57417E-12         0.00000E+00
    0.14786E-07        -0.62270E-12         0.00000E+00
    0.15189E-07        -0.67253E-12         0.00000E+00
    0.15600E-07        -0.72354E-12         0.00000E+00
    0.16017E-07        -0.77560E-12         0.00000E+00
    0.16441E-07        -0.82855E-12         0.00000E+00
    0.16871E-07        -0.88219E-12         0.00000E+00
    0.17306E-07        -0.93630E-12         0.00000E+00
    0.17747E-07        -0.99064E-12         0.00000E+00
    0.18193E-07        -0.10449E-11         0.00000E+00
    0.18643E-07        -0.10988E-11         0.00000E+00
    0.19098E-07        -0.11520E-11         0.00000E+00
    0.19556E-07        -0.12041E-11         0.00000E+00
    0.20016E-07        -0.12546E-11         0.00000E+00
    0.20480E-07        -0.13029E-11         0.00000E+00
    0.20945E-07        -0.13487E-11         0.00000E+00
    0.21411E-07        -0.13912E-11         0.00000E+00
    0.21877E-07        -0.14297E-11         0.00000E+00
    0.22342E-07        -0.14636E-11         0.00000E+00
    0.22807E-07        -0.14918E-11         0.00000E+00
    0.23269E-07        -0.15136E-11         0.00000E+00
    0.23728E-07        -0.15278E-11         0.00000E+00
    0.24183E-07        -0.15333E-11         0.00000E+00
    0.24632E-07        -0.15288E-11         0.00000E+00
    0.25075E-07        -0.15129E-11         0.00000E+00
    0.25511E-07        -0.14841E-11         0.00000E+00
    0.25939E-07        -0.14406E-11         0.00000E+00
    0.26356E-07        -0.13807E-11         0.00000E+00
    0.26763E-07        -0.13025E-11         0.00000E+00
    0.27157E-07        -0.12039E-11         0.00000E+00
    0.27537E-07        -0.10829E-11         0.00000E+00
    0.27902E-07        -0.93753E-12         0.00000E+00
    0.28251E-07        -0.76614E-12         0.00000E+00
    0.28582E-07        -0.56737E-12         0.00000E+00
    0.28894E-07        -0.34062E-12         0.00000E+00
    0.29185E-07        -0.86358E-13         0.00000E+00
    0.29454E-07         0.19326E-12         0.00000E+00
    0.29700E-07         0.49376E-12         0.00000E+00
    0.29922E-07         0.80737E-12         0.00000E+00
    0.30118E-07         0.11219E-11         0.00000E+00
    0.30287E-07         0.14191E-11         0.00000E+00
    0.30429E-07         0.16726E-11         0.00000E+00
    0.30543E-07         0.18429E-11         0.00000E+00
    0.30628E-07         0.18692E-11         0.00000E+00
    0.30684E-07         0.16345E-11         0.00000E+00
    0.30713E-07         0.71590E-12         0.00000E+00
    0.43599E-08         0.27418E-12         0.00000E+00
    0.43642E-08         0.67210E-12         0.00000E+00
    0.43742E-08         0.85523E-12         0.00000E+00
    0.43900E-08         0.93896E-12         0.00000E+00
    0.44117E-08         0.96572E-12         0.00000E+00
    0.44394E-08         0.95705E-12         0.00000E+00
    0.44733E-08         0.92670E-12         0.00000E+00
    0.45133E-08         0.88377E-12         0.00000E+00
    0.45596E-08         0.83446E-12         0.00000E+00
    0.46122E-08         0.78290E-12         0.00000E+00
    0.46712E-08         0.73176E-12         0.00000E+00
    0.47365E-08         0.68270E-12         0.00000E+00
    0.48083E-08         0.63662E-12         0.00000E+00
    0.48865E-08         0.59395E-12         0.00000E+00
    0.49713E-08         0.55478E-12         0.00000E+00
    0.50627E-08         0.51899E-12         0.00000E+00
    0.51606E-08         0.48634E-12         0.00000E+00
    0.52652E-08         0.45650E-12         0.00000E+00
    0.53766E-08         0.42913E-12         0.00000E+00
    0.54947E-08         0.40389E-12         0.00000E+00
    0.56197E-08         0.38042E-12         0.00000E+00
    0.57516E-08         0.35842E-12         0.00000E+00
    0.58904E-08         0.33757E-12         0.00000E+00
    0.60363E-08         0.31760E-12         0.00000E+00
    0.61893E-08         0.29826E-12         0.00000E+00
    0.63495E-08         0.27931E-12         0.00000E+00
    0.65169E-08         0.26054E-12         0.00000E+00
    0.66916E-08         0.24176E-12         0.00000E+00
    0.68738E-08         0.22277E-12         0.00000E+00
    0.70635E-08         0.20342E-12         0.00000E+00
    0.72607E-08         0.18356E-12         0.00000E+00
    0.74655E-08         0.16302E-12         0.00000E+00
    0.76780E-08         0.14168E-12         0.00000E+00
    0.78983E-08         0.11941E-12         0.00000E+00
    0.81265E-08         0.96075E-13         0.00000E+00
    0.83625E-08         0.71572E-13         0.00000E+00
    0.86065E-08         0.45787E-13         0.00000E+00
    0.88585E-08         0.18617E-13         0.00000E+00
    0.91187E-08        -0.10037E-13         0.00000E+00
    0.93869E-08        -0.40267E-13         0.00000E+00
    0.96633E-08        -0.72157E-13         0.00000E+00
    0.99479E-08        -0.10579E-12         0.00000E+00
    0.10241E-07        -0.14123E-12         0.00000E+00
    0.10542E-07        -0.17855E-12         0.00000E+00
    0.10851E-07        -0.21781E-12         0.00000E+00
    0.11169E-07        -0.25905E-12         0.00000E+00
    0.11494E-07        -0.30231E-12         0.00000E+00
    0.11828E-07        -0.34763E-12         0.00000E+00
    0.12170E-07        -0.39501E-12         0.00000E+00
    0.12520E-07        -0.44447E-12         0.00000E+00
    0.12879E-07        -0.49600E-12         0.00000E+00
    0.13245E-07        -0.54957E-12         0.00000E+00
    0.13619E-07        -0.60514E-12         0.00000E+00
    0.14000E-07        -0.66266E-12         0.00000E+00
    0.14389E-07        -0.72206E-12         0.00000E+00
    0.14786E-07        -0.78322E-12         0.00000E+00
    0.15189E-07        -0.84604E-12         0.00000E+00
    0.15600E-07        -0.91037E-12         0.00000E+00
    0.16017E-07        -0.97603E-12         0.00000E+00
    0.16441E-07        -0.10428E-11         0.00000E+00
    0.16871E-07        -0.11105E-11         0.00000E+00
    0.17306E-07        -0.11788E-11         0.00000E+00
    0.17747E-07        -0.12474E-11         0.00000E+00
    0.18193E-07        -0.13160E-11         0.00000E+00
    0.18643E-07        -0.13841E-11         0.00000E+00
    0.19098E-07        -0.14513E-11         0.00000E+00
    0.19556E-07        -0.15172E-11         0.00000E+00
    0.20016E-07        -0.15810E-11         0.00000E+00
    0.20480E-07        -0.16423E-11         0.00000E+00
    0.20945E-07        -0.17003E-11         0.00000E+00
    0.21411E-07        -0.17542E-11         0.00000E+00
    0.21877E-07        -0.18032E-11         0.00000E+00
    0.22342E-07        -0.18463E-11         0.00000E+00
    0.22807E-07        -0.18824E-11         0.00000E+00
    0.23269E-07        -0.19103E-11         0.00000E+00
    0.23728E-07        -0.19287E-11         0.00000E+00
    0.24183E-07        -0.19362E-11         0.00000E+00
    0.24632E-07        -0.19310E-11         0.00000E+00
    0.25075E-07        -0.19115E-11         0.00000E+00
    0.25511E-07        -0.18756E-11         0.00000E+00
    0.25939E-07        -0.18212E-11         0.00000E+00
    0.26356E-07        -0.17460E-11         0.00000E+00
    0.26763E-07        -0.16474E-11         0.00000E+00
    0.27157E-07        -0.15230E-11         0.00000E+00
    0.27537E-07        -0.13701E-11         0.00000E+00
    0.27902E-07        -0.11862E-11         0.00000E+00
    0.28251E-07        -0.96911E-12         0.00000E+00
    0.28582E-07        -0.71703E-12         0.00000E+00
    0.28894E-07        -0.42923E-12         0.00000E+00
    0.29185E-07        -0.10635E-12         0.00000E+00
    0.29454E-07         0.24877E-12         0.00000E+00
    0.29700E-07         0.63025E-12         0.00000E+00
    0.29922E-07         0.10278E-11         0.00000E+00
    0.30118E-07         0.14254E-11         0.00000E+00
    0.30287E-07         0.17988E-11         0.00000E+00
    0.30429E-07         0.21131E-11         0.00000E+00
    0.30543E-07         0.23161E-11         0.00000E+00
    0.30628E-07         0.23283E-11         0.00000E+00
    0.30684E-07         0.19905E-11         0.00000E+00
    0.30712E-07         0.85314E-12         0.00000E+00
    0.43600E-08         0.31541E-12         0.00000E+00
    0.43643E-08         0.78426E-12         0.00000E+00
    0.43743E-08         0.10125E-11         0.00000E+00
    0.43900E-08         0.11185E-11         0.00000E+00
    0.44117E-08         0.11539E-11         0.00000E+00
    0.44394E-08         0.11453E-11         0.00000E+00
    0.44733E-08         0.11097E-11         0.00000E+00
    0.45133E-08         0.10584E-11         0.00000E+00
    0.45596E-08         0.99912E-12         0.00000E+00
    0.46122E-08         0.93700E-12         0.00000E+00
    0.46712E-08         0.87537E-12         0.00000E+00
    0.47365E-08         0.81625E-12         0.00000E+00
    0.48083E-08         0.76078E-12         0.00000E+00
    0.48865E-08         0.70947E-12         0.00000E+00
    0.49713E-08         0.66243E-12         0.00000E+00
    0.50627E-08         0.61951E-12         0.00000E+00
    0.51606E-08         0.58041E-12         0.00000E+00
    0.52652E-08         0.54473E-12         0.00000E+00
    0.53766E-08         0.51206E-12         0.00000E+00
    0.54947E-08         0.48195E-12         0.00000E+00
    0.56197E-08         0.45399E-12         0.00000E+00
    0.57516E-08         0.42780E-12         0.00000E+00
    0.58904E-08         0.40299E-12         0.00000E+00
    0.60363E-08         0.37924E-12         0.00000E+00
    0.61893E-08         0.35624E-12         0.00000E+00
    0.63494E-08         0.33371E-12         0.00000E+00
    0.65169E-08         0.31139E-12         0.00000E+00
    0.66916E-08         0.28904E-12         0.00000E+00
    0.68738E-08         0.26646E-12         0.00000E+00
    0.70635E-08         0.24343E-12         0.00000E+00
    0.72607E-08         0.21977E-12         0.00000E+00
    0.74655E-08         0.19531E-12         0.00000E+00
    0.76780E-08         0.16988E-12         0.00000E+00
    0.78983E-08         0.14333E-12         0.00000E+00
    0.81265E-08         0.11551E-12         0.00000E+00
    0.83625E-08         0.86281E-13         0.00000E+00
    0.86065E-08         0.55515E-13         0.00000E+00
    0.88585E-08         0.23086E-13         0.00000E+00
    0.91186E-08        -0.11123E-13         0.00000E+00
    0.93869E-08        -0.47220E-13         0.00000E+00
    0.96633E-08        -0.85310E-13         0.00000E+00
    0.99479E-08        -0.12549E-12         0.00000E+00
    0.10241E-07        -0.16784E-12         0.00000E+00
    0.10542E-07        -0.21244E-12         0.00000E+00
    0.10851E-07        -0.25936E-12         0.00000E+00
    0.11169E-07        -0.30867E-12         0.00000E+00
    0.11494E-07        -0.36040E-12         0.00000E+00
    0.11828E-07        -0.41459E-12         0.00000E+00
    0.12170E-07        -0.47126E-12         0.00000E+00
    0.12520E-07        -0.53043E-12         0.00000E+00
    0.12879E-07        -0.59208E-12         0.00000E+00
    0.13245E-07        -0.65618E-12         0.00000E+00
    0.13619E-07        -0.72270E-12         0.00000E+00
    0.14000E-07        -0.79156E-12         0.00000E+00
    0.14389E-07        -0.86267E-12         0.00000E+00
    0.14786E-07        -0.93591E-12         0.00000E+00
    0.15189E-07        -0.10112E-11         0.00000E+00
    0.15600E-07        -0.10882E-11         0.00000E+00
    0.16017E-07        -0.11669E-11         0.00000E+00
    0.16441E-07        -0.12469E-11         0.00000E+00
    0.16871E-07        -0.13281E-11         0.00000E+00
    0.17306E-07        -0.14100E-11         0.00000E+00
    0.17747E-07        -0.14923E-11         0.00000E+00
    0.18193E-07        -0.15746E-11         0.00000E+00
    0.18643E-07        -0.16563E-11         0.00000E+00
    0.19098E-07        -0.17371E-11         0.00000E+00
    0.19556E-07        -0.18162E-11         0.00000E+00
    0.20016E-07        -0.18930E-11         0.00000E+00
    0.20480E-07        -0.19667E-11         0.00000E+00
    0.20945E-07        -0.20366E-11         0.00000E+00
    0.21411E-07        -0.21016E-11         0.00000E+00
    0.21877E-07        -0.21608E-11         0.00000E+00
    0.22342E-07        -0.22129E-11         0.00000E+00
    0.22807E-07        -0.22567E-11         0.00000E+00
    0.23269E-07        -0.22907E-11         0.00000E+00
    0.23728E-07        -0.23134E-11         0.00000E+00
    0.24183E-07        -0.23230E-11         0.00000E+00
    0.24632E-07        -0.23175E-11         0.00000E+00
    0.25075E-07        -0.22947E-11         0.00000E+00
    0.25511E-07        -0.22523E-11         0.00000E+00
    0.25939E-07        -0.21876E-11         0.00000E+00
    0.26356E-07        -0.20979E-11         0.00000E+00
    0.26763E-07        -0.19800E-11         0.00000E+00
    0.27157E-07        -0.18309E-11         0.00000E+00
    0.27537E-07        -0.16474E-11         0.00000E+00
    0.27902E-07        -0.14264E-11         0.00000E+00
    0.28251E-07        -0.11650E-11         0.00000E+00
    0.28582E-07        -0.86136E-12         0.00000E+00
    0.28894E-07        -0.51437E-12         0.00000E+00
    0.29185E-07        -0.12489E-12         0.00000E+00
    0.29455E-07         0.30355E-12         0.00000E+00
    0.29701E-07         0.76357E-12         0.00000E+00
    0.29922E-07         0.12424E-11         0.00000E+00
    0.30118E-07         0.17198E-11         0.00000E+00
    0.30287E-07         0.21656E-11         0.00000E+00
    0.30429E-07         0.25357E-11         0.00000E+00
    0.30543E-07         0.27652E-11         0.00000E+00
    0.30628E-07         0.27548E-11         0.00000E+00
    0.30684E-07         0.23093E-11         0.00000E+00
    0.30712E-07         0.97206E-12         0.00000E+00
    0.43601E-08         0.35224E-12         0.00000E+00
    0.43644E-08         0.88634E-12         0.00000E+00
    0.43743E-08         0.11587E-11         0.00000E+00
    0.43900E-08         0.12878E-11         0.00000E+00
    0.44117E-08         0.13325E-11         0.00000E+00
    0.44394E-08         0.13245E-11         0.00000E+00
    0.44733E-08         0.12841E-11         0.00000E+00
    0.45133E-08         0.12249E-11         0.00000E+00
    0.45596E-08         0.11560E-11         0.00000E+00
    0.46122E-08         0.10837E-11         0.00000E+00
    0.46712E-08         0.10119E-11         0.00000E+00
    0.47365E-08         0.94305E-12         0.00000E+00
    0.48083E-08         0.87852E-12         0.00000E+00
    0.48865E-08         0.81890E-12         0.00000E+00
    0.49713E-08         0.76432E-12         0.00000E+00
    0.50626E-08         0.71459E-12         0.00000E+00
    0.51606E-08         0.66935E-12         0.00000E+00
    0.52652E-08         0.62813E-12         0.00000E+00
    0.53766E-08         0.59043E-12         0.00000E+00
    0.54947E-08         0.55573E-12         0.00000E+00
    0.56197E-08         0.52354E-12         0.00000E+00
    0.57515E-08         0.49341E-12         0.00000E+00
    0.58904E-08         0.46489E-12         0.00000E+00
    0.60363E-08         0.43760E-12         0.00000E+00
    0.61893E-08         0.41118E-12         0.00000E+00
    0.63494E-08         0.38529E-12         0.00000E+00
    0.65169E-08         0.35964E-12         0.00000E+00
    0.66916E-08         0.33396E-12         0.00000E+00
    0.68738E-08         0.30799E-12         0.00000E+00
    0.70634E-08         0.28151E-12         0.00000E+00
    0.72606E-08         0.25429E-12         0.00000E+00
    0.74655E-08         0.22613E-12         0.00000E+00
    0.76780E-08         0.19685E-12         0.00000E+00
    0.78983E-08         0.16627E-12         0.00000E+00
    0.81264E-08         0.13421E-12         0.00000E+00
    0.83625E-08         0.10052E-12         0.00000E+00
    0.86065E-08         0.65042E-13         0.00000E+00
    0.88585E-08         0.27640E-13         0.00000E+00
    0.91186E-08        -0.11826E-13         0.00000E+00
    0.93869E-08        -0.53482E-13         0.00000E+00
    0.96633E-08        -0.97446E-13         0.00000E+00
    0.99478E-08        -0.14383E-12         0.00000E+00
    0.10241E-07        -0.19273E-12         0.00000E+00
    0.10542E-07        -0.24424E-12         0.00000E+00
    0.10851E-07        -0.29845E-12         0.00000E+00
    0.11168E-07        -0.35541E-12         0.00000E+00
    0.11494E-07        -0.41518E-12         0.00000E+00
    0.11828E-07        -0.47781E-12         0.00000E+00
    0.12170E-07        -0.54332E-12         0.00000E+00
    0.12520E-07        -0.61172E-12         0.00000E+00
    0.12879E-07        -0.68301E-12         0.00000E+00
    0.13245E-07        -0.75714E-12         0.00000E+00
    0.13619E-07        -0.83408E-12         0.00000E+00
    0.14000E-07        -0.91374E-12         0.00000E+00
    0.14389E-07        -0.99602E-12         0.00000E+00
    0.14786E-07        -0.10808E-11         0.00000E+00
    0.15189E-07        -0.11679E-11         0.00000E+00
    0.15600E-07        -0.12571E-11         0.00000E+00
    0.16017E-07        -0.13482E-11         0.00000E+00
    0.16441E-07        -0.14409E-11         0.00000E+00
    0.16871E-07        -0.15349E-11         0.00000E+00
    0.17306E-07        -0.16299E-11         0.00000E+00
    0.17747E-07        -0.17253E-11         0.00000E+00
    0.18193E-07        -0.18207E-11         0.00000E+00
    0.18643E-07        -0.19156E-11         0.00000E+00
    0.19098E-07        -0.20093E-11         0.00000E+00
    0.19556E-07        -0.21012E-11         0.00000E+00
    0.20016E-07        -0.21904E-11         0.00000E+00
    0.20480E-07        -0.22762E-11         0.00000E+00
    0.20945E-07        -0.23575E-11         0.00000E+00
    0.21411E-07        -0.24333E-11         0.00000E+00
    0.21877E-07        -0.25023E-11         0.00000E+00
    0.22342E-07        -0.25632E-11         0.00000E+00
    0.22807E-07        -0.26146E-11         0.00000E+00
    0.23269E-07        -0.26547E-11         0.00000E+00
    0.23728E-07        -0.26817E-11         0.00000E+00
    0.24183E-07        -0.26935E-11         0.00000E+00
    0.24632E-07        -0.26879E-11         0.00000E+00
    0.25075E-07        -0.26623E-11         0.00000E+00
    0.25511E-07        -0.26139E-11         0.00000E+00
    0.25939E-07        -0.25397E-11         0.00000E+00
    0.26356E-07        -0.24362E-11         0.00000E+00
    0.26763E-07        -0.23001E-11         0.00000E+00
    0.27157E-07        -0.21274E-11         0.00000E+00
    0.27537E-07        -0.19146E-11         0.00000E+00
    0.27902E-07        -0.16578E-11         0.00000E+00
    0.28251E-07        -0.13540E-11         0.00000E+00
    0.28582E-07        -0.10005E-11         0.00000E+00
    0.28894E-07        -0.59627E-12         0.00000E+00
    0.29185E-07        -0.14232E-12         0.00000E+00
    0.29455E-07         0.35712E-12         0.00000E+00
    0.29701E-07         0.89316E-12         0.00000E+00
    0.29922E-07         0.14504E-11         0.00000E+00
    0.30118E-07         0.20044E-11         0.00000E+00
    0.30287E-07         0.25187E-11         0.00000E+00
    0.30429E-07         0.29400E-11         0.00000E+00
    0.30543E-07         0.31905E-11         0.00000E+00
    0.30628E-07         0.31507E-11         0.00000E+00
    0.30684E-07         0.25966E-11         0.00000E+00
    0.30712E-07         0.10766E-11         0.00000E+00
    0.43603E-08         0.38542E-12         0.00000E+00
    0.43644E-08         0.97956E-12         0.00000E+00
    0.43743E-08         0.12946E-11         0.00000E+00
    0.43901E-08         0.14470E-11         0.00000E+00
    0.44117E-08         0.15015E-11         0.00000E+00
    0.44394E-08         0.14946E-11         0.00000E+00
    0.44733E-08         0.14499E-11         0.00000E+00
    0.45133E-08         0.13830E-11         0.00000E+00
    0.45596E-08         0.13050E-11         0.00000E+00
    0.46122E-08         0.12228E-11         0.00000E+00
    0.46711E-08         0.11413E-11         0.00000E+00
    0.47365E-08         0.10631E-11         0.00000E+00
    0.48083E-08         0.98983E-12         0.00000E+00
    0.48865E-08         0.92224E-12         0.00000E+00
    0.49713E-08         0.86045E-12         0.00000E+00
    0.50626E-08         0.80423E-12         0.00000E+00
    0.51606E-08         0.75316E-12         0.00000E+00
    0.52652E-08         0.70670E-12         0.00000E+00
    0.53766E-08         0.66425E-12         0.00000E+00
    0.54947E-08         0.62524E-12         0.00000E+00
    0.56197E-08         0.58909E-12         0.00000E+00
    0.57515E-08         0.55527E-12         0.00000E+00
    0.58904E-08         0.52329E-12         0.00000E+00
    0.60363E-08         0.49269E-12         0.00000E+00
    0.61893E-08         0.46307E-12         0.00000E+00
    0.63494E-08         0.43405E-12         0.00000E+00
    0.65169E-08         0.40530E-12         0.00000E+00
    0.66916E-08         0.37650E-12         0.00000E+00
    0.68738E-08         0.34737E-12         0.00000E+00
    0.70634E-08         0.31765E-12         0.00000E+00
    0.72606E-08         0.28710E-12         0.00000E+00
    0.74655E-08         0.25548E-12         0.00000E+00
    0.76780E-08         0.22258E-12         0.00000E+00
    0.78983E-08         0.18820E-12         0.00000E+00
    0.81264E-08         0.15216E-12         0.00000E+00
    0.83625E-08         0.11427E-12         0.00000E+00
    0.86065E-08         0.74354E-13         0.00000E+00
    0.88585E-08         0.32261E-13         0.00000E+00
    0.91186E-08        -0.12166E-13         0.00000E+00
    0.93869E-08        -0.59069E-13         0.00000E+00
    0.96633E-08        -0.10858E-12         0.00000E+00
    0.99478E-08        -0.16083E-12         0.00000E+00
    0.10241E-07        -0.21593E-12         0.00000E+00
    0.10542E-07        -0.27398E-12         0.00000E+00
    0.10851E-07        -0.33508E-12         0.00000E+00
    0.11168E-07        -0.39929E-12         0.00000E+00
    0.11494E-07        -0.46669E-12         0.00000E+00
    0.11828E-07        -0.53732E-12         0.00000E+00
    0.12170E-07        -0.61121E-12         0.00000E+00
    0.12520E-07        -0.68837E-12         0.00000E+00
    0.12879E-07        -0.76880E-12         0.00000E+00
    0.13245E-07        -0.85246E-12         0.00000E+00
    0.13619E-07        -0.93929E-12         0.00000E+00
    0.14000E-07        -0.10292E-11         0.00000E+00
    0.14389E-07        -0.11221E-11         0.00000E+00
    0.14786E-07        -0.12178E-11         0.00000E+00
    0.15189E-07        -0.13162E-11         0.00000E+00
    0.15600E-07        -0.14170E-11         0.00000E+00
    0.16017E-07        -0.15200E-11         0.00000E+00
    0.16441E-07        -0.16248E-11         0.00000E+00
    0.16871E-07        -0.17311E-11         0.00000E+00
    0.17306E-07        -0.18384E-11         0.00000E+00
    0.17747E-07        -0.19464E-11         0.00000E+00
    0.18193E-07        -0.20544E-11         0.00000E+00
    0.18643E-07        -0.21618E-11         0.00000E+00
    0.19098E-07        -0.22679E-11         0.00000E+00
    0.19556E-07        -0.23721E-11         0.00000E+00
    0.20016E-07        -0.24733E-11         0.00000E+00
    0.20480E-07        -0.25706E-11         0.00000E+00
    0.20945E-07        -0.26630E-11         0.00000E+00
    0.21411E-07        -0.27491E-11         0.00000E+00
    0.21877E-07        -0.28277E-11         0.00000E+00
    0.22342E-07        -0.28972E-11         0.00000E+00
    0.22807E-07        -0.29560E-11         0.00000E+00
    0.23269E-07        -0.30021E-11         0.00000E+00
    0.23728E-07        -0.30335E-11         0.00000E+00
    0.24183E-07        -0.30478E-11         0.00000E+00
    0.24632E-07        -0.30423E-11         0.00000E+00
    0.25075E-07        -0.30143E-11         0.00000E+00
    0.25511E-07        -0.29604E-11         0.00000E+00
    0.25939E-07        -0.28773E-11         0.00000E+00
    0.26356E-07        -0.27610E-11         0.00000E+00
    0.26763E-07        -0.26075E-11         0.00000E+00
    0.27157E-07        -0.24125E-11         0.00000E+00
    0.27537E-07        -0.21716E-11         0.00000E+00
    0.27903E-07        -0.18807E-11         0.00000E+00
    0.28251E-07        -0.15360E-11         0.00000E+00
    0.28582E-07        -0.11346E-11         0.00000E+00
    0.28894E-07        -0.67516E-12         0.00000E+00
    0.29185E-07        -0.15896E-12         0.00000E+00
    0.29455E-07         0.40906E-12         0.00000E+00
    0.29701E-07         0.10185E-11         0.00000E+00
    0.29922E-07         0.16512E-11         0.00000E+00
    0.30118E-07         0.22786E-11         0.00000E+00
    0.30287E-07         0.28576E-11         0.00000E+00
    0.30429E-07         0.33259E-11         0.00000E+00
    0.30543E-07         0.35924E-11         0.00000E+00
    0.30628E-07         0.35182E-11         0.00000E+00
    0.30684E-07         0.28569E-11         0.00000E+00
    0.30711E-07         0.11695E-11         0.00000E+00
    0.43605E-08         0.41549E-12         0.00000E+00
    0.43645E-08         0.10649E-11         0.00000E+00
    0.43744E-08         0.14207E-11         0.00000E+00
    0.43901E-08         0.15964E-11         0.00000E+00
    0.44117E-08         0.16610E-11         0.00000E+00
    0.44394E-08         0.16556E-11         0.00000E+00
    0.44733E-08         0.16069E-11         0.00000E+00
    0.45133E-08         0.15329E-11         0.00000E+00
    0.45596E-08         0.14460E-11         0.00000E+00
    0.46122E-08         0.13544E-11         0.00000E+00
    0.46711E-08         0.12634E-11         0.00000E+00
    0.47365E-08         0.11763E-11         0.00000E+00
    0.48082E-08         0.10947E-11         0.00000E+00
    0.48865E-08         0.10195E-11         0.00000E+00
    0.49713E-08         0.95081E-12         0.00000E+00
    0.50626E-08         0.88844E-12         0.00000E+00
    0.51606E-08         0.83185E-12         0.00000E+00
    0.52652E-08         0.78044E-12         0.00000E+00
    0.53766E-08         0.73354E-12         0.00000E+00
    0.54947E-08         0.69049E-12         0.00000E+00
    0.56197E-08         0.65064E-12         0.00000E+00
    0.57515E-08         0.61339E-12         0.00000E+00
    0.58904E-08         0.57818E-12         0.00000E+00
    0.60363E-08         0.54451E-12         0.00000E+00
    0.61893E-08         0.51192E-12         0.00000E+00
    0.63494E-08         0.48000E-12         0.00000E+00
    0.65169E-08         0.44836E-12         0.00000E+00
    0.66916E-08         0.41666E-12         0.00000E+00
    0.68738E-08         0.38459E-12         0.00000E+00
    0.70634E-08         0.35186E-12         0.00000E+00
    0.72606E-08         0.31819E-12         0.00000E+00
    0.74655E-08         0.28333E-12         0.00000E+00
    0.76780E-08         0.24705E-12         0.00000E+00
    0.78983E-08         0.20913E-12         0.00000E+00
    0.81264E-08         0.16935E-12         0.00000E+00
    0.83625E-08         0.12751E-12         0.00000E+00
    0.86065E-08         0.83432E-13         0.00000E+00
    0.88585E-08         0.36931E-13         0.00000E+00
    0.91186E-08        -0.12161E-13         0.00000E+00
    0.93869E-08        -0.64004E-13         0.00000E+00
    0.96632E-08        -0.11875E-12         0.00000E+00
    0.99478E-08        -0.17652E-12         0.00000E+00
    0.10241E-07        -0.23746E-12         0.00000E+00
    0.10542E-07        -0.30168E-12         0.00000E+00
    0.10851E-07        -0.36928E-12         0.00000E+00
    0.11168E-07        -0.44034E-12         0.00000E+00
    0.11494E-07        -0.51494E-12         0.00000E+00
    0.11828E-07        -0.59313E-12         0.00000E+00
    0.12170E-07        -0.67494E-12         0.00000E+00
    0.12520E-07        -0.76040E-12         0.00000E+00
    0.12879E-07        -0.84948E-12         0.00000E+00
    0.13245E-07        -0.94215E-12         0.00000E+00
    0.13619E-07        -0.10384E-11         0.00000E+00
    0.14000E-07        -0.11380E-11         0.00000E+00
    0.14389E-07        -0.12410E-11         0.00000E+00
    0.14786E-07        -0.13471E-11         0.00000E+00
    0.15189E-07        -0.14562E-11         0.00000E+00
    0.15600E-07        -0.15680E-11         0.00000E+00
    0.16017E-07        -0.16822E-11         0.00000E+00
    0.16441E-07        -0.17985E-11         0.00000E+00
    0.16871E-07        -0.19165E-11         0.00000E+00
    0.17306E-07        -0.20356E-11         0.00000E+00
    0.17747E-07        -0.21555E-11         0.00000E+00
    0.18193E-07        -0.22755E-11         0.00000E+00
    0.18643E-07        -0.23949E-11         0.00000E+00
    0.19098E-07        -0.25130E-11         0.00000E+00
    0.19555E-07        -0.26288E-11         0.00000E+00
    0.20016E-07        -0.27415E-11         0.00000E+00
    0.20480E-07        -0.28499E-11         0.00000E+00
    0.20945E-07        -0.29529E-11         0.00000E+00
    0.21411E-07        -0.30491E-11         0.00000E+00
    0.21877E-07        -0.31370E-11         0.00000E+00
    0.22342E-07        -0.32149E-11         0.00000E+00
    0.22807E-07        -0.32809E-11         0.00000E+00
    0.23269E-07        -0.33330E-11         0.00000E+00
    0.23728E-07        -0.33687E-11         0.00000E+00
    0.24183E-07        -0.33855E-11         0.00000E+00
    0.24632E-07        -0.33805E-11         0.00000E+00
    0.25075E-07        -0.33504E-11         0.00000E+00
    0.25511E-07        -0.32917E-11         0.00000E+00
    0.25939E-07        -0.32003E-11         0.00000E+00
    0.26356E-07        -0.30719E-11         0.00000E+00
    0.26763E-07        -0.29021E-11         0.00000E+00
    0.27157E-07        -0.26859E-11         0.00000E+00
    0.27537E-07        -0.24185E-11         0.00000E+00
    0.27903E-07        -0.20950E-11         0.00000E+00
    0.28251E-07        -0.17111E-11         0.00000E+00
    0.28583E-07        -0.12637E-11         0.00000E+00
    0.28894E-07        -0.75125E-12         0.00000E+00
    0.29186E-07        -0.17513E-12         0.00000E+00
    0.29455E-07         0.45895E-12         0.00000E+00
    0.29701E-07         0.11390E-11         0.00000E+00
    0.29922E-07         0.18443E-11         0.00000E+00
    0.30118E-07         0.25417E-11         0.00000E+00
    0.30287E-07         0.31820E-11         0.00000E+00
    0.30429E-07         0.36932E-11         0.00000E+00
    0.30543E-07         0.39714E-11         0.00000E+00
    0.30628E-07         0.38594E-11         0.00000E+00
    0.30684E-07         0.30942E-11         0.00000E+00
    0.30711E-07         0.12532E-11         0.00000E+00
    0.43606E-08         0.44289E-12         0.00000E+00
    0.43646E-08         0.11432E-11         0.00000E+00
    0.43744E-08         0.15377E-11         0.00000E+00
    0.43901E-08         0.17362E-11         0.00000E+00
    0.44117E-08         0.18111E-11         0.00000E+00
    0.44394E-08         0.18075E-11         0.00000E+00
    0.44732E-08         0.17552E-11         0.00000E+00
    0.45133E-08         0.16744E-11         0.00000E+00
    0.45596E-08         0.15791E-11         0.00000E+00
    0.46122E-08         0.14784E-11         0.00000E+00
    0.46711E-08         0.13784E-11         0.00000E+00
    0.47364E-08         0.12826E-11         0.00000E+00
    0.48082E-08         0.11930E-11         0.00000E+00
    0.48865E-08         0.11106E-11         0.00000E+00
    0.49713E-08         0.10354E-11         0.00000E+00
    0.50626E-08         0.96721E-12         0.00000E+00
    0.51606E-08         0.90542E-12         0.00000E+00
    0.52652E-08         0.84937E-12         0.00000E+00
    0.53765E-08         0.79831E-12         0.00000E+00
    0.54947E-08         0.75150E-12         0.00000E+00
    0.56197E-08         0.70820E-12         0.00000E+00
    0.57515E-08         0.66777E-12         0.00000E+00
    0.58904E-08         0.62957E-12         0.00000E+00
    0.60363E-08         0.59307E-12         0.00000E+00
    0.61893E-08         0.55773E-12         0.00000E+00
    0.63494E-08         0.52312E-12         0.00000E+00
    0.65169E-08         0.48882E-12         0.00000E+00
    0.66916E-08         0.45444E-12         0.00000E+00
    0.68738E-08         0.41965E-12         0.00000E+00
    0.70634E-08         0.38411E-12         0.00000E+00
    0.72606E-08         0.34755E-12         0.00000E+00
    0.74655E-08         0.30969E-12         0.00000E+00
    0.76780E-08         0.27026E-12         0.00000E+00
    0.78983E-08         0.22902E-12         0.00000E+00
    0.81264E-08         0.18576E-12         0.00000E+00
    0.83625E-08         0.14024E-12         0.00000E+00
    0.86065E-08         0.92261E-13         0.00000E+00
    0.88585E-08         0.41633E-13         0.00000E+00
    0.91186E-08        -0.11831E-13         0.00000E+00
    0.93868E-08        -0.68304E-13         0.00000E+00
    0.96632E-08        -0.12795E-12         0.00000E+00
    0.99478E-08        -0.19092E-12         0.00000E+00
    0.10241E-07        -0.25735E-12         0.00000E+00
    0.10542E-07        -0.32736E-12         0.00000E+00
    0.10851E-07        -0.40108E-12         0.00000E+00
    0.11168E-07        -0.47858E-12         0.00000E+00
    0.11494E-07        -0.55996E-12         0.00000E+00
    0.11828E-07        -0.64527E-12         0.00000E+00
    0.12170E-07        -0.73455E-12         0.00000E+00
    0.12520E-07        -0.82782E-12         0.00000E+00
    0.12879E-07        -0.92506E-12         0.00000E+00
    0.13245E-07        -0.10262E-11         0.00000E+00
    0.13619E-07        -0.11313E-11         0.00000E+00
    0.14000E-07        -0.12402E-11         0.00000E+00
    0.14389E-07        -0.13526E-11         0.00000E+00
    0.14786E-07        -0.14686E-11         0.00000E+00
    0.15189E-07        -0.15878E-11         0.00000E+00
    0.15600E-07        -0.17100E-11         0.00000E+00
    0.16017E-07        -0.18349E-11         0.00000E+00
    0.16441E-07        -0.19621E-11         0.00000E+00
    0.16871E-07        -0.20911E-11         0.00000E+00
    0.17306E-07        -0.22215E-11         0.00000E+00
    0.17747E-07        -0.23528E-11         0.00000E+00
    0.18193E-07        -0.24841E-11         0.00000E+00
    0.18643E-07        -0.26149E-11         0.00000E+00
    0.19098E-07        -0.27443E-11         0.00000E+00
    0.19555E-07        -0.28714E-11         0.00000E+00
    0.20016E-07        -0.29950E-11         0.00000E+00
    0.20480E-07        -0.31141E-11         0.00000E+00
    0.20945E-07        -0.32273E-11         0.00000E+00
    0.21410E-07        -0.33331E-11         0.00000E+00
    0.21877E-07        -0.34300E-11         0.00000E+00
    0.22342E-07        -0.35160E-11         0.00000E+00
    0.22807E-07        -0.35891E-11         0.00000E+00
    0.23269E-07        -0.36470E-11         0.00000E+00
    0.23728E-07        -0.36872E-11         0.00000E+00
    0.24183E-07        -0.37067E-11         0.00000E+00
    0.24632E-07        -0.37024E-11         0.00000E+00
    0.25075E-07        -0.36706E-11         0.00000E+00
    0.25511E-07        -0.36074E-11         0.00000E+00
    0.25939E-07        -0.35085E-11         0.00000E+00
    0.26356E-07        -0.33690E-11         0.00000E+00
    0.26763E-07        -0.31839E-11         0.00000E+00
    0.27157E-07        -0.29477E-11         0.00000E+00
    0.27537E-07        -0.26551E-11         0.00000E+00
    0.27903E-07        -0.23006E-11         0.00000E+00
    0.28252E-07        -0.18794E-11         0.00000E+00
    0.28583E-07        -0.13880E-11         0.00000E+00
    0.28894E-07        -0.82473E-12         0.00000E+00
    0.29186E-07        -0.19111E-12         0.00000E+00
    0.29455E-07         0.50640E-12         0.00000E+00
    0.29701E-07         0.12543E-11         0.00000E+00
    0.29923E-07         0.20290E-11         0.00000E+00
    0.30118E-07         0.27934E-11         0.00000E+00
    0.30288E-07         0.34914E-11         0.00000E+00
    0.30429E-07         0.40420E-11         0.00000E+00
    0.30543E-07         0.43283E-11         0.00000E+00
    0.30628E-07         0.41765E-11         0.00000E+00
    0.30683E-07         0.33116E-11         0.00000E+00
    0.30710E-07         0.13291E-11         0.00000E+00
    0.43608E-08         0.46795E-12         0.00000E+00
    0.43647E-08         0.12152E-11         0.00000E+00
    0.43745E-08         0.16461E-11         0.00000E+00
    0.43901E-08         0.18668E-11         0.00000E+00
    0.44117E-08         0.19520E-11         0.00000E+00
    0.44394E-08         0.19503E-11         0.00000E+00
    0.44732E-08         0.18947E-11         0.00000E+00
    0.45133E-08         0.18074E-11         0.00000E+00
    0.45595E-08         0.17040E-11         0.00000E+00
    0.46121E-08         0.15947E-11         0.00000E+00
    0.46711E-08         0.14861E-11         0.00000E+00
    0.47364E-08         0.13821E-11         0.00000E+00
    0.48082E-08         0.12849E-11         0.00000E+00
    0.48865E-08         0.11956E-11         0.00000E+00
    0.49712E-08         0.11142E-11         0.00000E+00
    0.50626E-08         0.10405E-11         0.00000E+00
    0.51606E-08         0.97389E-12         0.00000E+00
    0.52652E-08         0.91351E-12         0.00000E+00
    0.53765E-08         0.85858E-12         0.00000E+00
    0.54947E-08         0.80827E-12         0.00000E+00
    0.56196E-08         0.76179E-12         0.00000E+00
    0.57515E-08         0.71842E-12         0.00000E+00
    0.58904E-08         0.67748E-12         0.00000E+00
    0.60362E-08         0.63837E-12         0.00000E+00
    0.61892E-08         0.60052E-12         0.00000E+00
    0.63494E-08         0.56344E-12         0.00000E+00
    0.65169E-08         0.52668E-12         0.00000E+00
    0.66916E-08         0.48984E-12         0.00000E+00
    0.68738E-08         0.45253E-12         0.00000E+00
    0.70634E-08         0.41442E-12         0.00000E+00
    0.72606E-08         0.37519E-12         0.00000E+00
    0.74654E-08         0.33453E-12         0.00000E+00
    0.76780E-08         0.29219E-12         0.00000E+00
    0.78983E-08         0.24788E-12         0.00000E+00
    0.81264E-08         0.20137E-12         0.00000E+00
    0.83625E-08         0.15243E-12         0.00000E+00
    0.86065E-08         0.10082E-12         0.00000E+00
    0.88585E-08         0.46348E-13         0.00000E+00
    0.91186E-08        -0.11194E-13         0.00000E+00
    0.93868E-08        -0.71991E-13         0.00000E+00
    0.96632E-08        -0.13622E-12         0.00000E+00
    0.99478E-08        -0.20404E-12         0.00000E+00
    0.10241E-07        -0.27560E-12         0.00000E+00
    0.10542E-07        -0.35105E-12         0.00000E+00
    0.10851E-07        -0.43049E-12         0.00000E+00
    0.11168E-07        -0.51404E-12         0.00000E+00
    0.11494E-07        -0.60177E-12         0.00000E+00
    0.11828E-07        -0.69376E-12         0.00000E+00
    0.12170E-07        -0.79005E-12         0.00000E+00
    0.12520E-07        -0.89066E-12         0.00000E+00
    0.12878E-07        -0.99557E-12         0.00000E+00
    0.13245E-07        -0.11048E-11         0.00000E+00
    0.13618E-07        -0.12181E-11         0.00000E+00
    0.14000E-07        -0.13356E-11         0.00000E+00
    0.14389E-07        -0.14571E-11         0.00000E+00
    0.14786E-07        -0.15823E-11         0.00000E+00
    0.15189E-07        -0.17111E-11         0.00000E+00
    0.15600E-07        -0.18431E-11         0.00000E+00
    0.16017E-07        -0.19780E-11         0.00000E+00
    0.16441E-07        -0.21155E-11         0.00000E+00
    0.16871E-07        -0.22550E-11         0.00000E+00
    0.17306E-07        -0.23961E-11         0.00000E+00
    0.17747E-07        -0.25380E-11         0.00000E+00
    0.18193E-07        -0.26802E-11         0.00000E+00
    0.18643E-07        -0.28218E-11         0.00000E+00
    0.19098E-07        -0.29620E-11         0.00000E+00
    0.19555E-07        -0.30997E-11         0.00000E+00
    0.20016E-07        -0.32338E-11         0.00000E+00
    0.20480E-07        -0.33630E-11         0.00000E+00
    0.20945E-07        -0.34860E-11         0.00000E+00
    0.21410E-07        -0.36011E-11         0.00000E+00
    0.21877E-07        -0.37066E-11         0.00000E+00
    0.22342E-07        -0.38005E-11         0.00000E+00
    0.22807E-07        -0.38805E-11         0.00000E+00
    0.23269E-07        -0.39442E-11         0.00000E+00
    0.23728E-07        -0.39888E-11         0.00000E+00
    0.24183E-07        -0.40111E-11         0.00000E+00
    0.24632E-07        -0.40077E-11         0.00000E+00
    0.25076E-07        -0.39746E-11         0.00000E+00
    0.25511E-07        -0.39075E-11         0.00000E+00
    0.25939E-07        -0.38017E-11         0.00000E+00
    0.26356E-07        -0.36519E-11         0.00000E+00
    0.26763E-07        -0.34526E-11         0.00000E+00
    0.27157E-07        -0.31977E-11         0.00000E+00
    0.27537E-07        -0.28813E-11         0.00000E+00
    0.27903E-07        -0.24974E-11         0.00000E+00
    0.28252E-07        -0.20409E-11         0.00000E+00
    0.28583E-07        -0.15076E-11         0.00000E+00
    0.28895E-07        -0.89578E-12         0.00000E+00
    0.29186E-07        -0.20718E-12         0.00000E+00
    0.29455E-07         0.55105E-12         0.00000E+00
    0.29701E-07         0.13639E-11         0.00000E+00
    0.29923E-07         0.22051E-11         0.00000E+00
    0.30119E-07         0.30331E-11         0.00000E+00
    0.30288E-07         0.37856E-11         0.00000E+00
    0.30429E-07         0.43722E-11         0.00000E+00
    0.30543E-07         0.46637E-11         0.00000E+00
    0.30628E-07         0.44714E-11         0.00000E+00
    0.30683E-07         0.35118E-11         0.00000E+00
    0.30710E-07         0.13987E-11         0.00000E+00
    0.43610E-08         0.49093E-12         0.00000E+00
    0.43649E-08         0.12814E-11         0.00000E+00
    0.43746E-08         0.17464E-11         0.00000E+00
    0.43902E-08         0.19884E-11         0.00000E+00
    0.44117E-08         0.20836E-11         0.00000E+00
    0.44394E-08         0.20841E-11         0.00000E+00
    0.44732E-08         0.20253E-11         0.00000E+00
    0.45132E-08         0.19320E-11         0.00000E+00
    0.45595E-08         0.18209E-11         0.00000E+00
    0.46121E-08         0.17033E-11         0.00000E+00
    0.46711E-08         0.15864E-11         0.00000E+00
    0.47364E-08         0.14746E-11         0.00000E+00
    0.48082E-08         0.13703E-11         0.00000E+00
    0.48864E-08         0.12745E-11         0.00000E+00
    0.49712E-08         0.11873E-11         0.00000E+00
    0.50626E-08         0.11085E-11         0.00000E+00
    0.51605E-08         0.10373E-11         0.00000E+00
    0.52652E-08         0.97286E-12         0.00000E+00
    0.53765E-08         0.91434E-12         0.00000E+00
    0.54947E-08         0.86082E-12         0.00000E+00
    0.56196E-08         0.81142E-12         0.00000E+00
    0.57515E-08         0.76537E-12         0.00000E+00
    0.58904E-08         0.72192E-12         0.00000E+00
    0.60362E-08         0.68042E-12         0.00000E+00
    0.61892E-08         0.64027E-12         0.00000E+00
    0.63494E-08         0.60094E-12         0.00000E+00
    0.65168E-08         0.56195E-12         0.00000E+00
    0.66916E-08         0.52285E-12         0.00000E+00
    0.68738E-08         0.48324E-12         0.00000E+00
    0.70634E-08         0.44277E-12         0.00000E+00
    0.72606E-08         0.40108E-12         0.00000E+00
    0.74654E-08         0.35786E-12         0.00000E+00
    0.76780E-08         0.31282E-12         0.00000E+00
    0.78983E-08         0.26569E-12         0.00000E+00
    0.81264E-08         0.21618E-12         0.00000E+00
    0.83624E-08         0.16406E-12         0.00000E+00
    0.86065E-08         0.10910E-12         0.00000E+00
    0.88585E-08         0.51056E-13         0.00000E+00
    0.91186E-08        -0.10271E-13         0.00000E+00
    0.93868E-08        -0.75086E-13         0.00000E+00
    0.96632E-08        -0.14357E-12         0.00000E+00
    0.99478E-08        -0.21591E-12         0.00000E+00
    0.10241E-07        -0.29226E-12         0.00000E+00
    0.10542E-07        -0.37276E-12         0.00000E+00
    0.10851E-07        -0.45755E-12         0.00000E+00
    0.11168E-07        -0.54673E-12         0.00000E+00
    0.11494E-07        -0.64040E-12         0.00000E+00
    0.11828E-07        -0.73863E-12         0.00000E+00
    0.12170E-07        -0.84147E-12         0.00000E+00
    0.12520E-07        -0.94893E-12         0.00000E+00
    0.12878E-07        -0.10610E-11         0.00000E+00
    0.13245E-07        -0.11777E-11         0.00000E+00
    0.13618E-07        -0.12989E-11         0.00000E+00
    0.14000E-07        -0.14245E-11         0.00000E+00
    0.14389E-07        -0.15543E-11         0.00000E+00
    0.14786E-07        -0.16882E-11         0.00000E+00
    0.15189E-07        -0.18260E-11         0.00000E+00
    0.15600E-07        -0.19672E-11         0.00000E+00
    0.16017E-07        -0.21116E-11         0.00000E+00
    0.16441E-07        -0.22587E-11         0.00000E+00
    0.16870E-07        -0.24081E-11         0.00000E+00
    0.17306E-07        -0.25592E-11         0.00000E+00
    0.17747E-07        -0.27113E-11         0.00000E+00
    0.18193E-07        -0.28637E-11         0.00000E+00
    0.18643E-07        -0.30156E-11         0.00000E+00
    0.19097E-07        -0.31659E-11         0.00000E+00
    0.19555E-07        -0.33137E-11         0.00000E+00
    0.20016E-07        -0.34578E-11         0.00000E+00
    0.20480E-07        -0.35967E-11         0.00000E+00
    0.20944E-07        -0.37290E-11         0.00000E+00
    0.21410E-07        -0.38530E-11         0.00000E+00
    0.21877E-07        -0.39668E-11         0.00000E+00
    0.22342E-07        -0.40682E-11         0.00000E+00
    0.22807E-07        -0.41550E-11         0.00000E+00
    0.23269E-07        -0.42243E-11         0.00000E+00
    0.23728E-07        -0.42733E-11         0.00000E+00
    0.24183E-07        -0.42985E-11         0.00000E+00
    0.24632E-07        -0.42963E-11         0.00000E+00
    0.25076E-07        -0.42622E-11         0.00000E+00
    0.25511E-07        -0.41918E-11         0.00000E+00
    0.25939E-07        -0.40798E-11         0.00000E+00
    0.26356E-07        -0.39206E-11         0.00000E+00
    0.26763E-07        -0.37080E-11         0.00000E+00
    0.27157E-07        -0.34357E-11         0.00000E+00
    0.27537E-07        -0.30970E-11         0.00000E+00
    0.27903E-07        -0.26855E-11         0.00000E+00
    0.28252E-07        -0.21955E-11         0.00000E+00
    0.28583E-07        -0.16225E-11         0.00000E+00
    0.28895E-07        -0.96455E-12         0.00000E+00
    0.29186E-07        -0.22358E-12         0.00000E+00
    0.29455E-07         0.59256E-12         0.00000E+00
    0.29701E-07         0.14673E-11         0.00000E+00
    0.29923E-07         0.23719E-11         0.00000E+00
    0.30119E-07         0.32604E-11         0.00000E+00
    0.30288E-07         0.40642E-11         0.00000E+00
    0.30429E-07         0.46840E-11         0.00000E+00
    0.30543E-07         0.49786E-11         0.00000E+00
    0.30627E-07         0.47459E-11         0.00000E+00
    0.30683E-07         0.36969E-11         0.00000E+00
    0.30709E-07         0.14629E-11         0.00000E+00
    0.43612E-08         0.51206E-12         0.00000E+00
    0.43650E-08         0.13424E-11         0.00000E+00
    0.43746E-08         0.18392E-11         0.00000E+00
    0.43902E-08         0.21013E-11         0.00000E+00
    0.44118E-08         0.22062E-11         0.00000E+00
    0.44394E-08         0.22087E-11         0.00000E+00
    0.44732E-08         0.21471E-11         0.00000E+00
    0.45132E-08         0.20480E-11         0.00000E+00
    0.45595E-08         0.19296E-11         0.00000E+00
    0.46121E-08         0.18041E-11         0.00000E+00
    0.46710E-08         0.16794E-11         0.00000E+00
    0.47364E-08         0.15603E-11         0.00000E+00
    0.48082E-08         0.14491E-11         0.00000E+00
    0.48864E-08         0.13472E-11         0.00000E+00
    0.49712E-08         0.12546E-11         0.00000E+00
    0.50626E-08         0.11710E-11         0.00000E+00
    0.51605E-08         0.10956E-11         0.00000E+00
    0.52652E-08         0.10274E-11         0.00000E+00
    0.53765E-08         0.96563E-12         0.00000E+00
    0.54946E-08         0.90916E-12         0.00000E+00
    0.56196E-08         0.85711E-12         0.00000E+00
    0.57515E-08         0.80861E-12         0.00000E+00
    0.58903E-08         0.76289E-12         0.00000E+00
    0.60362E-08         0.71923E-12         0.00000E+00
    0.61892E-08         0.67701E-12         0.00000E+00
    0.63494E-08         0.63564E-12         0.00000E+00
    0.65168E-08         0.59462E-12         0.00000E+00
    0.66916E-08         0.55347E-12         0.00000E+00
    0.68738E-08         0.51178E-12         0.00000E+00
    0.70634E-08         0.46915E-12         0.00000E+00
    0.72606E-08         0.42522E-12         0.00000E+00
    0.74654E-08         0.37966E-12         0.00000E+00
    0.76780E-08         0.33216E-12         0.00000E+00
    0.78983E-08         0.28242E-12         0.00000E+00
    0.81264E-08         0.23017E-12         0.00000E+00
    0.83624E-08         0.17513E-12         0.00000E+00
    0.86064E-08         0.11707E-12         0.00000E+00
    0.88585E-08         0.55741E-13         0.00000E+00
    0.91186E-08        -0.90819E-14         0.00000E+00
    0.93868E-08        -0.77608E-13         0.00000E+00
    0.96632E-08        -0.15004E-12         0.00000E+00
    0.99478E-08        -0.22656E-12         0.00000E+00
    0.10241E-07        -0.30733E-12         0.00000E+00
    0.10542E-07        -0.39252E-12         0.00000E+00
    0.10851E-07        -0.48226E-12         0.00000E+00
    0.11168E-07        -0.57668E-12         0.00000E+00
    0.11494E-07        -0.67586E-12         0.00000E+00
    0.11828E-07        -0.77989E-12         0.00000E+00
    0.12170E-07        -0.88882E-12         0.00000E+00
    0.12520E-07        -0.10027E-11         0.00000E+00
    0.12878E-07        -0.11214E-11         0.00000E+00
    0.13245E-07        -0.12451E-11         0.00000E+00
    0.13618E-07        -0.13736E-11         0.00000E+00
    0.14000E-07        -0.15067E-11         0.00000E+00
    0.14389E-07        -0.16444E-11         0.00000E+00
    0.14786E-07        -0.17864E-11         0.00000E+00
    0.15189E-07        -0.19325E-11         0.00000E+00
    0.15600E-07        -0.20824E-11         0.00000E+00
    0.16017E-07        -0.22357E-11         0.00000E+00
    0.16441E-07        -0.23919E-11         0.00000E+00
    0.16870E-07        -0.25505E-11         0.00000E+00
    0.17306E-07        -0.27110E-11         0.00000E+00
    0.17747E-07        -0.28726E-11         0.00000E+00
    0.18193E-07        -0.30346E-11         0.00000E+00
    0.18643E-07        -0.31961E-11         0.00000E+00
    0.19097E-07        -0.33561E-11         0.00000E+00
    0.19555E-07        -0.35134E-11         0.00000E+00
    0.20016E-07        -0.36669E-11         0.00000E+00
    0.20480E-07        -0.38150E-11         0.00000E+00
    0.20944E-07        -0.39562E-11         0.00000E+00
    0.21410E-07        -0.40886E-11         0.00000E+00
    0.21877E-07        -0.42104E-11         0.00000E+00
    0.22342E-07        -0.43191E-11         0.00000E+00
    0.22807E-07        -0.44124E-11         0.00000E+00
    0.23269E-07        -0.44873E-11         0.00000E+00
    0.23728E-07        -0.45407E-11         0.00000E+00
    0.24183E-07        -0.45689E-11         0.00000E+00
    0.24632E-07        -0.45680E-11         0.00000E+00
    0.25076E-07        -0.45334E-11         0.00000E+00
    0.25511E-07        -0.44601E-11         0.00000E+00
    0.25939E-07        -0.43426E-11         0.00000E+00
    0.26356E-07        -0.41748E-11         0.00000E+00
    0.26763E-07        -0.39502E-11         0.00000E+00
    0.27157E-07        -0.36616E-11         0.00000E+00
    0.27538E-07        -0.33022E-11         0.00000E+00
    0.27903E-07        -0.28648E-11         0.00000E+00
    0.28252E-07        -0.23433E-11         0.00000E+00
    0.28583E-07        -0.17328E-11         0.00000E+00
    0.28895E-07        -0.10312E-11         0.00000E+00
    0.29186E-07        -0.24053E-12         0.00000E+00
    0.29455E-07         0.63061E-12         0.00000E+00
    0.29702E-07         0.15643E-11         0.00000E+00
    0.29923E-07         0.25290E-11         0.00000E+00
    0.30119E-07         0.34749E-11         0.00000E+00
    0.30288E-07         0.43271E-11         0.00000E+00
    0.30430E-07         0.49775E-11         0.00000E+00
    0.30543E-07         0.52736E-11         0.00000E+00
    0.30627E-07         0.50016E-11         0.00000E+00
    0.30683E-07         0.38687E-11         0.00000E+00
    0.30708E-07         0.15225E-11         0.00000E+00
    0.43614E-08         0.53151E-12         0.00000E+00
    0.43651E-08         0.13985E-11         0.00000E+00
    0.43747E-08         0.19247E-11         0.00000E+00
    0.43902E-08         0.22057E-11         0.00000E+00
    0.44118E-08         0.23198E-11         0.00000E+00
    0.44394E-08         0.23244E-11         0.00000E+00
    0.44732E-08         0.22601E-11         0.00000E+00
    0.45132E-08         0.21554E-11         0.00000E+00
    0.45595E-08         0.20300E-11         0.00000E+00
    0.46121E-08         0.18971E-11         0.00000E+00
    0.46710E-08         0.17651E-11         0.00000E+00
    0.47364E-08         0.16389E-11         0.00000E+00
    0.48081E-08         0.15214E-11         0.00000E+00
    0.48864E-08         0.14138E-11         0.00000E+00
    0.49712E-08         0.13162E-11         0.00000E+00
    0.50625E-08         0.12281E-11         0.00000E+00
    0.51605E-08         0.11488E-11         0.00000E+00
    0.52651E-08         0.10773E-11         0.00000E+00
    0.53765E-08         0.10125E-11         0.00000E+00
    0.54946E-08         0.95332E-12         0.00000E+00
    0.56196E-08         0.89886E-12         0.00000E+00
    0.57515E-08         0.84817E-12         0.00000E+00
    0.58903E-08         0.80041E-12         0.00000E+00
    0.60362E-08         0.75482E-12         0.00000E+00
    0.61892E-08         0.71073E-12         0.00000E+00
    0.63494E-08         0.66754E-12         0.00000E+00
    0.65168E-08         0.62470E-12         0.00000E+00
    0.66916E-08         0.58171E-12         0.00000E+00
    0.68738E-08         0.53813E-12         0.00000E+00
    0.70634E-08         0.49356E-12         0.00000E+00
    0.72606E-08         0.44760E-12         0.00000E+00
    0.74654E-08         0.39992E-12         0.00000E+00
    0.76779E-08         0.35018E-12         0.00000E+00
    0.78982E-08         0.29808E-12         0.00000E+00
    0.81264E-08         0.24332E-12         0.00000E+00
    0.83624E-08         0.18562E-12         0.00000E+00
    0.86064E-08         0.12472E-12         0.00000E+00
    0.88585E-08         0.60381E-13         0.00000E+00
    0.91186E-08        -0.76461E-14         0.00000E+00
    0.93868E-08        -0.79580E-13         0.00000E+00
    0.96632E-08        -0.15563E-12         0.00000E+00
    0.99478E-08        -0.23599E-12         0.00000E+00
    0.10241E-07        -0.32085E-12         0.00000E+00
    0.10542E-07        -0.41036E-12         0.00000E+00
    0.10851E-07        -0.50467E-12         0.00000E+00
    0.11168E-07        -0.60391E-12         0.00000E+00
    0.11494E-07        -0.70818E-12         0.00000E+00
    0.11828E-07        -0.81757E-12         0.00000E+00
    0.12170E-07        -0.93213E-12         0.00000E+00
    0.12520E-07        -0.10519E-11         0.00000E+00
    0.12878E-07        -0.11768E-11         0.00000E+00
    0.13245E-07        -0.13070E-11         0.00000E+00
    0.13618E-07        -0.14422E-11         0.00000E+00
    0.14000E-07        -0.15823E-11         0.00000E+00
    0.14389E-07        -0.17273E-11         0.00000E+00
    0.14786E-07        -0.18769E-11         0.00000E+00
    0.15189E-07        -0.20308E-11         0.00000E+00
    0.15600E-07        -0.21887E-11         0.00000E+00
    0.16017E-07        -0.23502E-11         0.00000E+00
    0.16441E-07        -0.25148E-11         0.00000E+00
    0.16870E-07        -0.26821E-11         0.00000E+00
    0.17306E-07        -0.28514E-11         0.00000E+00
    0.17747E-07        -0.30219E-11         0.00000E+00
    0.18193E-07        -0.31929E-11         0.00000E+00
    0.18643E-07        -0.33634E-11         0.00000E+00
    0.19097E-07        -0.35325E-11         0.00000E+00
    0.19555E-07        -0.36988E-11         0.00000E+00
    0.20016E-07        -0.38611E-11         0.00000E+00
    0.20479E-07        -0.40179E-11         0.00000E+00
    0.20944E-07        -0.41675E-11         0.00000E+00
    0.21410E-07        -0.43080E-11         0.00000E+00
    0.21877E-07        -0.44373E-11         0.00000E+00
    0.22342E-07        -0.45531E-11         0.00000E+00
    0.22807E-07        -0.46526E-11         0.00000E+00
    0.23269E-07        -0.47329E-11         0.00000E+00
    0.23728E-07        -0.47907E-11         0.00000E+00
    0.24183E-07        -0.48220E-11         0.00000E+00
    0.24632E-07        -0.48226E-11         0.00000E+00
    0.25076E-07        -0.47878E-11         0.00000E+00
    0.25511E-07        -0.47122E-11         0.00000E+00
    0.25939E-07        -0.45899E-11         0.00000E+00
    0.26356E-07        -0.44144E-11         0.00000E+00
    0.26763E-07        -0.41787E-11         0.00000E+00
    0.27157E-07        -0.38753E-11         0.00000E+00
    0.27538E-07        -0.34966E-11         0.00000E+00
    0.27903E-07        -0.30351E-11         0.00000E+00
    0.28252E-07        -0.24841E-11         0.00000E+00
    0.28583E-07        -0.18384E-11         0.00000E+00
    0.28895E-07        -0.10958E-11         0.00000E+00
    0.29186E-07        -0.25824E-12         0.00000E+00
    0.29456E-07         0.66492E-12         0.00000E+00
    0.29702E-07         0.16543E-11         0.00000E+00
    0.29923E-07         0.26761E-11         0.00000E+00
    0.30119E-07         0.36763E-11         0.00000E+00
    0.30288E-07         0.45740E-11         0.00000E+00
    0.30430E-07         0.52528E-11         0.00000E+00
    0.30543E-07         0.55496E-11         0.00000E+00
    0.30627E-07         0.52400E-11         0.00000E+00
    0.30682E-07         0.40288E-11         0.00000E+00
    0.30708E-07         0.15782E-11         0.00000E+00
    0.43616E-08         0.54941E-12         0.00000E+00
    0.43652E-08         0.14501E-11         0.00000E+00
    0.43748E-08         0.20033E-11         0.00000E+00
    0.43903E-08         0.23019E-11         0.00000E+00
    0.44118E-08         0.24246E-11         0.00000E+00
    0.44394E-08         0.24310E-11         0.00000E+00
    0.44732E-08         0.23641E-11         0.00000E+00
    0.45132E-08         0.22542E-11         0.00000E+00
    0.45594E-08         0.21222E-11         0.00000E+00
    0.46120E-08         0.19823E-11         0.00000E+00
    0.46710E-08         0.18433E-11         0.00000E+00
    0.47363E-08         0.17106E-11         0.00000E+00
    0.48081E-08         0.15872E-11         0.00000E+00
    0.48864E-08         0.14743E-11         0.00000E+00
    0.49712E-08         0.13720E-11         0.00000E+00
    0.50625E-08         0.12798E-11         0.00000E+00
    0.51605E-08         0.11970E-11         0.00000E+00
    0.52651E-08         0.11224E-11         0.00000E+00
    0.53765E-08         0.10548E-11         0.00000E+00
    0.54946E-08         0.99331E-12         0.00000E+00
    0.56196E-08         0.93671E-12         0.00000E+00
    0.57515E-08         0.88406E-12         0.00000E+00
    0.58903E-08         0.83449E-12         0.00000E+00
    0.60362E-08         0.78719E-12         0.00000E+00
    0.61892E-08         0.74145E-12         0.00000E+00
    0.63494E-08         0.69664E-12         0.00000E+00
    0.65168E-08         0.65218E-12         0.00000E+00
    0.66916E-08         0.60756E-12         0.00000E+00
    0.68737E-08         0.56231E-12         0.00000E+00
    0.70634E-08         0.51599E-12         0.00000E+00
    0.72606E-08         0.46823E-12         0.00000E+00
    0.74654E-08         0.41864E-12         0.00000E+00
    0.76779E-08         0.36688E-12         0.00000E+00
    0.78982E-08         0.31265E-12         0.00000E+00
    0.81264E-08         0.25562E-12         0.00000E+00
    0.83624E-08         0.19550E-12         0.00000E+00
    0.86064E-08         0.13204E-12         0.00000E+00
    0.88584E-08         0.64958E-13         0.00000E+00
    0.91185E-08        -0.59848E-14         0.00000E+00
    0.93868E-08        -0.81023E-13         0.00000E+00
    0.96632E-08        -0.16038E-12         0.00000E+00
    0.99477E-08        -0.24425E-12         0.00000E+00
    0.10241E-07        -0.33283E-12         0.00000E+00
    0.10542E-07        -0.42629E-12         0.00000E+00
    0.10851E-07        -0.52479E-12         0.00000E+00
    0.11168E-07        -0.62845E-12         0.00000E+00
    0.11494E-07        -0.73739E-12         0.00000E+00
    0.11828E-07        -0.85170E-12         0.00000E+00
    0.12170E-07        -0.97143E-12         0.00000E+00
    0.12520E-07        -0.10966E-11         0.00000E+00
    0.12878E-07        -0.12273E-11         0.00000E+00
    0.13244E-07        -0.13633E-11         0.00000E+00
    0.13618E-07        -0.15047E-11         0.00000E+00
    0.14000E-07        -0.16514E-11         0.00000E+00
    0.14389E-07        -0.18031E-11         0.00000E+00
    0.14786E-07        -0.19596E-11         0.00000E+00
    0.15189E-07        -0.21207E-11         0.00000E+00
    0.15600E-07        -0.22860E-11         0.00000E+00
    0.16017E-07        -0.24552E-11         0.00000E+00
    0.16441E-07        -0.26276E-11         0.00000E+00
    0.16870E-07        -0.28029E-11         0.00000E+00
    0.17306E-07        -0.29804E-11         0.00000E+00
    0.17747E-07        -0.31592E-11         0.00000E+00
    0.18193E-07        -0.33385E-11         0.00000E+00
    0.18643E-07        -0.35175E-11         0.00000E+00
    0.19097E-07        -0.36950E-11         0.00000E+00
    0.19555E-07        -0.38697E-11         0.00000E+00
    0.20016E-07        -0.40403E-11         0.00000E+00
    0.20479E-07        -0.42052E-11         0.00000E+00
    0.20944E-07        -0.43628E-11         0.00000E+00
    0.21410E-07        -0.45109E-11         0.00000E+00
    0.21877E-07        -0.46474E-11         0.00000E+00
    0.22342E-07        -0.47699E-11         0.00000E+00
    0.22807E-07        -0.48755E-11         0.00000E+00
    0.23269E-07        -0.49611E-11         0.00000E+00
    0.23728E-07        -0.50232E-11         0.00000E+00
    0.24183E-07        -0.50576E-11         0.00000E+00
    0.24632E-07        -0.50601E-11         0.00000E+00
    0.25076E-07        -0.50254E-11         0.00000E+00
    0.25512E-07        -0.49479E-11         0.00000E+00
    0.25939E-07        -0.48215E-11         0.00000E+00
    0.26356E-07        -0.46392E-11         0.00000E+00
    0.26763E-07        -0.43935E-11         0.00000E+00
    0.27157E-07        -0.40765E-11         0.00000E+00
    0.27538E-07        -0.36801E-11         0.00000E+00
    0.27903E-07        -0.31964E-11         0.00000E+00
    0.28252E-07        -0.26180E-11         0.00000E+00
    0.28583E-07        -0.19395E-11         0.00000E+00
    0.28895E-07        -0.11584E-11         0.00000E+00
    0.29187E-07        -0.27687E-12         0.00000E+00
    0.29456E-07         0.69524E-12         0.00000E+00
    0.29702E-07         0.17372E-11         0.00000E+00
    0.29923E-07         0.28128E-11         0.00000E+00
    0.30119E-07         0.38643E-11         0.00000E+00
    0.30288E-07         0.48049E-11         0.00000E+00
    0.30430E-07         0.55102E-11         0.00000E+00
    0.30543E-07         0.58072E-11         0.00000E+00
    0.30627E-07         0.54623E-11         0.00000E+00
    0.30682E-07         0.41784E-11         0.00000E+00
    0.30707E-07         0.16305E-11         0.00000E+00
    0.43618E-08         0.56589E-12         0.00000E+00
    0.43654E-08         0.14975E-11         0.00000E+00
    0.43749E-08         0.20754E-11         0.00000E+00
    0.43903E-08         0.23901E-11         0.00000E+00
    0.44118E-08         0.25207E-11         0.00000E+00
    0.44394E-08         0.25287E-11         0.00000E+00
    0.44731E-08         0.24592E-11         0.00000E+00
    0.45131E-08         0.23443E-11         0.00000E+00
    0.45594E-08         0.22061E-11         0.00000E+00
    0.46120E-08         0.20596E-11         0.00000E+00
    0.46710E-08         0.19141E-11         0.00000E+00
    0.47363E-08         0.17754E-11         0.00000E+00
    0.48081E-08         0.16464E-11         0.00000E+00
    0.48864E-08         0.15286E-11         0.00000E+00
    0.49712E-08         0.14220E-11         0.00000E+00
    0.50625E-08         0.13262E-11         0.00000E+00
    0.51605E-08         0.12401E-11         0.00000E+00
    0.52651E-08         0.11627E-11         0.00000E+00
    0.53765E-08         0.10928E-11         0.00000E+00
    0.54946E-08         0.10292E-11         0.00000E+00
    0.56196E-08         0.97066E-12         0.00000E+00
    0.57515E-08         0.91630E-12         0.00000E+00
    0.58903E-08         0.86514E-12         0.00000E+00
    0.60362E-08         0.81635E-12         0.00000E+00
    0.61892E-08         0.76917E-12         0.00000E+00
    0.63494E-08         0.72295E-12         0.00000E+00
    0.65168E-08         0.67708E-12         0.00000E+00
    0.66916E-08         0.63102E-12         0.00000E+00
    0.68737E-08         0.58429E-12         0.00000E+00
    0.70634E-08         0.53645E-12         0.00000E+00
    0.72606E-08         0.48707E-12         0.00000E+00
    0.74654E-08         0.43579E-12         0.00000E+00
    0.76779E-08         0.38225E-12         0.00000E+00
    0.78982E-08         0.32610E-12         0.00000E+00
    0.81264E-08         0.26704E-12         0.00000E+00
    0.83624E-08         0.20477E-12         0.00000E+00
    0.86064E-08         0.13900E-12         0.00000E+00
    0.88584E-08         0.69452E-13         0.00000E+00
    0.91185E-08        -0.41189E-14         0.00000E+00
    0.93868E-08        -0.81959E-13         0.00000E+00
    0.96631E-08        -0.16430E-12         0.00000E+00
    0.99477E-08        -0.25135E-12         0.00000E+00
    0.10241E-07        -0.34330E-12         0.00000E+00
    0.10542E-07        -0.44035E-12         0.00000E+00
    0.10851E-07        -0.54264E-12         0.00000E+00
    0.11168E-07        -0.65032E-12         0.00000E+00
    0.11494E-07        -0.76351E-12         0.00000E+00
    0.11828E-07        -0.88229E-12         0.00000E+00
    0.12170E-07        -0.10067E-11         0.00000E+00
    0.12520E-07        -0.11369E-11         0.00000E+00
    0.12878E-07        -0.12727E-11         0.00000E+00
    0.13244E-07        -0.14142E-11         0.00000E+00
    0.13618E-07        -0.15613E-11         0.00000E+00
    0.14000E-07        -0.17138E-11         0.00000E+00
    0.14389E-07        -0.18717E-11         0.00000E+00
    0.14786E-07        -0.20346E-11         0.00000E+00
    0.15189E-07        -0.22023E-11         0.00000E+00
    0.15600E-07        -0.23744E-11         0.00000E+00
    0.16017E-07        -0.25506E-11         0.00000E+00
    0.16441E-07        -0.27303E-11         0.00000E+00
    0.16870E-07        -0.29130E-11         0.00000E+00
    0.17306E-07        -0.30979E-11         0.00000E+00
    0.17747E-07        -0.32844E-11         0.00000E+00
    0.18193E-07        -0.34715E-11         0.00000E+00
    0.18643E-07        -0.36583E-11         0.00000E+00
    0.19097E-07        -0.38436E-11         0.00000E+00
    0.19555E-07        -0.40261E-11         0.00000E+00
    0.20016E-07        -0.42045E-11         0.00000E+00
    0.20479E-07        -0.43770E-11         0.00000E+00
    0.20944E-07        -0.45420E-11         0.00000E+00
    0.21410E-07        -0.46973E-11         0.00000E+00
    0.21877E-07        -0.48407E-11         0.00000E+00
    0.22342E-07        -0.49695E-11         0.00000E+00
    0.22807E-07        -0.50810E-11         0.00000E+00
    0.23269E-07        -0.51717E-11         0.00000E+00
    0.23728E-07        -0.52379E-11         0.00000E+00
    0.24183E-07        -0.52756E-11         0.00000E+00
    0.24632E-07        -0.52800E-11         0.00000E+00
    0.25076E-07        -0.52458E-11         0.00000E+00
    0.25512E-07        -0.51670E-11         0.00000E+00
    0.25939E-07        -0.50371E-11         0.00000E+00
    0.26357E-07        -0.48488E-11         0.00000E+00
    0.26763E-07        -0.45942E-11         0.00000E+00
    0.27157E-07        -0.42650E-11         0.00000E+00
    0.27538E-07        -0.38526E-11         0.00000E+00
    0.27903E-07        -0.33484E-11         0.00000E+00
    0.28252E-07        -0.27449E-11         0.00000E+00
    0.28583E-07        -0.20360E-11         0.00000E+00
    0.28895E-07        -0.12191E-11         0.00000E+00
    0.29187E-07        -0.29657E-12         0.00000E+00
    0.29456E-07         0.72133E-12         0.00000E+00
    0.29702E-07         0.18126E-11         0.00000E+00
    0.29924E-07         0.29388E-11         0.00000E+00
    0.30119E-07         0.40385E-11         0.00000E+00
    0.30289E-07         0.50195E-11         0.00000E+00
    0.30430E-07         0.57498E-11         0.00000E+00
    0.30543E-07         0.60471E-11         0.00000E+00
    0.30627E-07         0.56694E-11         0.00000E+00
    0.30681E-07         0.43185E-11         0.00000E+00
    0.30706E-07         0.16797E-11         0.00000E+00
    0.43621E-08         0.58103E-12         0.00000E+00
    0.43655E-08         0.15408E-11         0.00000E+00
    0.43749E-08         0.21411E-11         0.00000E+00
    0.43903E-08         0.24704E-11         0.00000E+00
    0.44118E-08         0.26081E-11         0.00000E+00
    0.44394E-08         0.26174E-11         0.00000E+00
    0.44731E-08         0.25454E-11         0.00000E+00
    0.45131E-08         0.24257E-11         0.00000E+00
    0.45594E-08         0.22817E-11         0.00000E+00
    0.46120E-08         0.21290E-11         0.00000E+00
    0.46709E-08         0.19774E-11         0.00000E+00
    0.47363E-08         0.18331E-11         0.00000E+00
    0.48081E-08         0.16991E-11         0.00000E+00
    0.48863E-08         0.15768E-11         0.00000E+00
    0.49711E-08         0.14664E-11         0.00000E+00
    0.50625E-08         0.13672E-11         0.00000E+00
    0.51605E-08         0.12783E-11         0.00000E+00
    0.52651E-08         0.11984E-11         0.00000E+00
    0.53765E-08         0.11264E-11         0.00000E+00
    0.54946E-08         0.10609E-11         0.00000E+00
    0.56196E-08         0.10007E-11         0.00000E+00
    0.57515E-08         0.94490E-12         0.00000E+00
    0.58903E-08         0.89238E-12         0.00000E+00
    0.60362E-08         0.84231E-12         0.00000E+00
    0.61892E-08         0.79391E-12         0.00000E+00
    0.63494E-08         0.74647E-12         0.00000E+00
    0.65168E-08         0.69939E-12         0.00000E+00
    0.66916E-08         0.65210E-12         0.00000E+00
    0.68737E-08         0.60409E-12         0.00000E+00
    0.70634E-08         0.55492E-12         0.00000E+00
    0.72606E-08         0.50415E-12         0.00000E+00
    0.74654E-08         0.45138E-12         0.00000E+00
    0.76779E-08         0.39626E-12         0.00000E+00
    0.78982E-08         0.33844E-12         0.00000E+00
    0.81263E-08         0.27759E-12         0.00000E+00
    0.83624E-08         0.21340E-12         0.00000E+00
    0.86064E-08         0.14558E-12         0.00000E+00
    0.88584E-08         0.73843E-13         0.00000E+00
    0.91185E-08        -0.20697E-14         0.00000E+00
    0.93867E-08        -0.82411E-13         0.00000E+00
    0.96631E-08        -0.16742E-12         0.00000E+00
    0.99477E-08        -0.25731E-12         0.00000E+00
    0.10241E-07        -0.35229E-12         0.00000E+00
    0.10542E-07        -0.45255E-12         0.00000E+00
    0.10851E-07        -0.55826E-12         0.00000E+00
    0.11168E-07        -0.66955E-12         0.00000E+00
    0.11494E-07        -0.78656E-12         0.00000E+00
    0.11828E-07        -0.90938E-12         0.00000E+00
    0.12170E-07        -0.10381E-11         0.00000E+00
    0.12520E-07        -0.11727E-11         0.00000E+00
    0.12878E-07        -0.13132E-11         0.00000E+00
    0.13244E-07        -0.14596E-11         0.00000E+00
    0.13618E-07        -0.16119E-11         0.00000E+00
    0.14000E-07        -0.17698E-11         0.00000E+00
    0.14389E-07        -0.19332E-11         0.00000E+00
    0.14785E-07        -0.21019E-11         0.00000E+00
    0.15189E-07        -0.22756E-11         0.00000E+00
    0.15600E-07        -0.24539E-11         0.00000E+00
    0.16017E-07        -0.26365E-11         0.00000E+00
    0.16441E-07        -0.28228E-11         0.00000E+00
    0.16870E-07        -0.30122E-11         0.00000E+00
    0.17306E-07        -0.32040E-11         0.00000E+00
    0.17747E-07        -0.33975E-11         0.00000E+00
    0.18193E-07        -0.35917E-11         0.00000E+00
    0.18643E-07        -0.37857E-11         0.00000E+00
    0.19097E-07        -0.39782E-11         0.00000E+00
    0.19555E-07        -0.41680E-11         0.00000E+00
    0.20016E-07        -0.43535E-11         0.00000E+00
    0.20479E-07        -0.45332E-11         0.00000E+00
    0.20944E-07        -0.47051E-11         0.00000E+00
    0.21410E-07        -0.48671E-11         0.00000E+00
    0.21877E-07        -0.50169E-11         0.00000E+00
    0.22342E-07        -0.51518E-11         0.00000E+00
    0.22807E-07        -0.52688E-11         0.00000E+00
    0.23269E-07        -0.53644E-11         0.00000E+00
    0.23728E-07        -0.54349E-11         0.00000E+00
    0.24183E-07        -0.54758E-11         0.00000E+00
    0.24632E-07        -0.54823E-11         0.00000E+00
    0.25076E-07        -0.54488E-11         0.00000E+00
    0.25512E-07        -0.53692E-11         0.00000E+00
    0.25939E-07        -0.52365E-11         0.00000E+00
    0.26357E-07        -0.50431E-11         0.00000E+00
    0.26763E-07        -0.47808E-11         0.00000E+00
    0.27157E-07        -0.44407E-11         0.00000E+00
    0.27538E-07        -0.40138E-11         0.00000E+00
    0.27903E-07        -0.34911E-11         0.00000E+00
    0.28252E-07        -0.28646E-11         0.00000E+00
    0.28584E-07        -0.21278E-11         0.00000E+00
    0.28896E-07        -0.12780E-11         0.00000E+00
    0.29187E-07        -0.31745E-12         0.00000E+00
    0.29456E-07         0.74300E-12         0.00000E+00
    0.29702E-07         0.18803E-11         0.00000E+00
    0.29924E-07         0.30538E-11         0.00000E+00
    0.30120E-07         0.41987E-11         0.00000E+00
    0.30289E-07         0.52177E-11         0.00000E+00
    0.30430E-07         0.59718E-11         0.00000E+00
    0.30543E-07         0.62698E-11         0.00000E+00
    0.30627E-07         0.58624E-11         0.00000E+00
    0.30681E-07         0.44499E-11         0.00000E+00
    0.30706E-07         0.17262E-11         0.00000E+00
    0.43623E-08         0.59492E-12         0.00000E+00
    0.43657E-08         0.15804E-11         0.00000E+00
    0.43750E-08         0.22008E-11         0.00000E+00
    0.43904E-08         0.25430E-11         0.00000E+00
    0.44118E-08         0.26869E-11         0.00000E+00
    0.44394E-08         0.26972E-11         0.00000E+00
    0.44731E-08         0.26226E-11         0.00000E+00
    0.45131E-08         0.24984E-11         0.00000E+00
    0.45594E-08         0.23489E-11         0.00000E+00
    0.46119E-08         0.21904E-11         0.00000E+00
    0.46709E-08         0.20333E-11         0.00000E+00
    0.47363E-08         0.18838E-11         0.00000E+00
    0.48080E-08         0.17452E-11         0.00000E+00
    0.48863E-08         0.16189E-11         0.00000E+00
    0.49711E-08         0.15050E-11         0.00000E+00
    0.50625E-08         0.14029E-11         0.00000E+00
    0.51605E-08         0.13115E-11         0.00000E+00
    0.52651E-08         0.12295E-11         0.00000E+00
    0.53765E-08         0.11556E-11         0.00000E+00
    0.54946E-08         0.10885E-11         0.00000E+00
    0.56196E-08         0.10270E-11         0.00000E+00
    0.57514E-08         0.96989E-12         0.00000E+00
    0.58903E-08         0.91623E-12         0.00000E+00
    0.60362E-08         0.86509E-12         0.00000E+00
    0.61892E-08         0.81566E-12         0.00000E+00
    0.63494E-08         0.76722E-12         0.00000E+00
    0.65168E-08         0.71912E-12         0.00000E+00
    0.66916E-08         0.67079E-12         0.00000E+00
    0.68737E-08         0.62171E-12         0.00000E+00
    0.70634E-08         0.57140E-12         0.00000E+00
    0.72606E-08         0.51943E-12         0.00000E+00
    0.74654E-08         0.46540E-12         0.00000E+00
    0.76779E-08         0.40892E-12         0.00000E+00
    0.78982E-08         0.34965E-12         0.00000E+00
    0.81263E-08         0.28724E-12         0.00000E+00
    0.83624E-08         0.22138E-12         0.00000E+00
    0.86064E-08         0.15176E-12         0.00000E+00
    0.88584E-08         0.78110E-13         0.00000E+00
    0.91185E-08         0.14115E-15         0.00000E+00
    0.93867E-08        -0.82401E-13         0.00000E+00
    0.96631E-08        -0.16976E-12         0.00000E+00
    0.99477E-08        -0.26216E-12         0.00000E+00
    0.10240E-07        -0.35982E-12         0.00000E+00
    0.10542E-07        -0.46293E-12         0.00000E+00
    0.10851E-07        -0.57166E-12         0.00000E+00
    0.11168E-07        -0.68617E-12         0.00000E+00
    0.11494E-07        -0.80657E-12         0.00000E+00
    0.11828E-07        -0.93298E-12         0.00000E+00
    0.12170E-07        -0.10655E-11         0.00000E+00
    0.12520E-07        -0.12041E-11         0.00000E+00
    0.12878E-07        -0.13488E-11         0.00000E+00
    0.13244E-07        -0.14996E-11         0.00000E+00
    0.13618E-07        -0.16564E-11         0.00000E+00
    0.14000E-07        -0.18191E-11         0.00000E+00
    0.14389E-07        -0.19876E-11         0.00000E+00
    0.14785E-07        -0.21615E-11         0.00000E+00
    0.15189E-07        -0.23406E-11         0.00000E+00
    0.15600E-07        -0.25245E-11         0.00000E+00
    0.16017E-07        -0.27129E-11         0.00000E+00
    0.16441E-07        -0.29051E-11         0.00000E+00
    0.16870E-07        -0.31006E-11         0.00000E+00
    0.17306E-07        -0.32986E-11         0.00000E+00
    0.17747E-07        -0.34985E-11         0.00000E+00
    0.18192E-07        -0.36992E-11         0.00000E+00
    0.18643E-07        -0.38997E-11         0.00000E+00
    0.19097E-07        -0.40988E-11         0.00000E+00
    0.19555E-07        -0.42952E-11         0.00000E+00
    0.20016E-07        -0.44873E-11         0.00000E+00
    0.20479E-07        -0.46735E-11         0.00000E+00
    0.20944E-07        -0.48519E-11         0.00000E+00
    0.21410E-07        -0.50202E-11         0.00000E+00
    0.21877E-07        -0.51760E-11         0.00000E+00
    0.22342E-07        -0.53165E-11         0.00000E+00
    0.22807E-07        -0.54388E-11         0.00000E+00
    0.23269E-07        -0.55391E-11         0.00000E+00
    0.23728E-07        -0.56137E-11         0.00000E+00
    0.24183E-07        -0.56579E-11         0.00000E+00
    0.24632E-07        -0.56667E-11         0.00000E+00
    0.25076E-07        -0.56342E-11         0.00000E+00
    0.25512E-07        -0.55542E-11         0.00000E+00
    0.25939E-07        -0.54194E-11         0.00000E+00
    0.26357E-07        -0.52218E-11         0.00000E+00
    0.26763E-07        -0.49528E-11         0.00000E+00
    0.27157E-07        -0.46033E-11         0.00000E+00
    0.27538E-07        -0.41635E-11         0.00000E+00
    0.27903E-07        -0.36243E-11         0.00000E+00
    0.28253E-07        -0.29770E-11         0.00000E+00
    0.28584E-07        -0.22150E-11         0.00000E+00
    0.28896E-07        -0.13350E-11         0.00000E+00
    0.29187E-07        -0.33959E-12         0.00000E+00
    0.29457E-07         0.76008E-12         0.00000E+00
    0.29703E-07         0.19399E-11         0.00000E+00
    0.29924E-07         0.31574E-11         0.00000E+00
    0.30120E-07         0.43445E-11         0.00000E+00
    0.30289E-07         0.53994E-11         0.00000E+00
    0.30430E-07         0.61761E-11         0.00000E+00
    0.30543E-07         0.64757E-11         0.00000E+00
    0.30627E-07         0.60419E-11         0.00000E+00
    0.30681E-07         0.45733E-11         0.00000E+00
    0.30705E-07         0.17703E-11         0.00000E+00
    0.43626E-08         0.60761E-12         0.00000E+00
    0.43659E-08         0.16163E-11         0.00000E+00
    0.43751E-08         0.22546E-11         0.00000E+00
    0.43904E-08         0.26081E-11         0.00000E+00
    0.44118E-08         0.27572E-11         0.00000E+00
    0.44394E-08         0.27680E-11         0.00000E+00
    0.44731E-08         0.26909E-11         0.00000E+00
    0.45131E-08         0.25623E-11         0.00000E+00
    0.45593E-08         0.24077E-11         0.00000E+00
    0.46119E-08         0.22439E-11         0.00000E+00
    0.46709E-08         0.20817E-11         0.00000E+00
    0.47362E-08         0.19276E-11         0.00000E+00
    0.48080E-08         0.17848E-11         0.00000E+00
    0.48863E-08         0.16549E-11         0.00000E+00
    0.49711E-08         0.15380E-11         0.00000E+00
    0.50625E-08         0.14333E-11         0.00000E+00
    0.51604E-08         0.13397E-11         0.00000E+00
    0.52651E-08         0.12558E-11         0.00000E+00
    0.53764E-08         0.11804E-11         0.00000E+00
    0.54946E-08         0.11120E-11         0.00000E+00
    0.56196E-08         0.10494E-11         0.00000E+00
    0.57514E-08         0.99127E-12         0.00000E+00
    0.58903E-08         0.93670E-12         0.00000E+00
    0.60362E-08         0.88471E-12         0.00000E+00
    0.61892E-08         0.83445E-12         0.00000E+00
    0.63493E-08         0.78519E-12         0.00000E+00
    0.65168E-08         0.73627E-12         0.00000E+00
    0.66915E-08         0.68710E-12         0.00000E+00
    0.68737E-08         0.63713E-12         0.00000E+00
    0.70633E-08         0.58589E-12         0.00000E+00
    0.72605E-08         0.53292E-12         0.00000E+00
    0.74654E-08         0.47783E-12         0.00000E+00
    0.76779E-08         0.42021E-12         0.00000E+00
    0.78982E-08         0.35970E-12         0.00000E+00
    0.81263E-08         0.29597E-12         0.00000E+00
    0.83624E-08         0.22869E-12         0.00000E+00
    0.86064E-08         0.15754E-12         0.00000E+00
    0.88584E-08         0.82233E-13         0.00000E+00
    0.91185E-08         0.24916E-14         0.00000E+00
    0.93867E-08        -0.81953E-13         0.00000E+00
    0.96631E-08        -0.17135E-12         0.00000E+00
    0.99477E-08        -0.26593E-12         0.00000E+00
    0.10240E-07        -0.36592E-12         0.00000E+00
    0.10541E-07        -0.47151E-12         0.00000E+00
    0.10851E-07        -0.58288E-12         0.00000E+00
    0.11168E-07        -0.70019E-12         0.00000E+00
    0.11494E-07        -0.82358E-12         0.00000E+00
    0.11828E-07        -0.95313E-12         0.00000E+00
    0.12170E-07        -0.10889E-11         0.00000E+00
    0.12520E-07        -0.12311E-11         0.00000E+00
    0.12878E-07        -0.13795E-11         0.00000E+00
    0.13244E-07        -0.15342E-11         0.00000E+00
    0.13618E-07        -0.16950E-11         0.00000E+00
    0.14000E-07        -0.18620E-11         0.00000E+00
    0.14389E-07        -0.20349E-11         0.00000E+00
    0.14785E-07        -0.22134E-11         0.00000E+00
    0.15189E-07        -0.23973E-11         0.00000E+00
    0.15600E-07        -0.25862E-11         0.00000E+00
    0.16017E-07        -0.27797E-11         0.00000E+00
    0.16440E-07        -0.29772E-11         0.00000E+00
    0.16870E-07        -0.31781E-11         0.00000E+00
    0.17306E-07        -0.33818E-11         0.00000E+00
    0.17747E-07        -0.35874E-11         0.00000E+00
    0.18192E-07        -0.37939E-11         0.00000E+00
    0.18643E-07        -0.40003E-11         0.00000E+00
    0.19097E-07        -0.42054E-11         0.00000E+00
    0.19555E-07        -0.44078E-11         0.00000E+00
    0.20016E-07        -0.46059E-11         0.00000E+00
    0.20479E-07        -0.47981E-11         0.00000E+00
    0.20944E-07        -0.49823E-11         0.00000E+00
    0.21410E-07        -0.51564E-11         0.00000E+00
    0.21876E-07        -0.53177E-11         0.00000E+00
    0.22342E-07        -0.54636E-11         0.00000E+00
    0.22807E-07        -0.55908E-11         0.00000E+00
    0.23269E-07        -0.56957E-11         0.00000E+00
    0.23728E-07        -0.57742E-11         0.00000E+00
    0.24183E-07        -0.58217E-11         0.00000E+00
    0.24632E-07        -0.58329E-11         0.00000E+00
    0.25076E-07        -0.58019E-11         0.00000E+00
    0.25512E-07        -0.57219E-11         0.00000E+00
    0.25939E-07        -0.55856E-11         0.00000E+00
    0.26357E-07        -0.53847E-11         0.00000E+00
    0.26763E-07        -0.51102E-11         0.00000E+00
    0.27157E-07        -0.47524E-11         0.00000E+00
    0.27538E-07        -0.43016E-11         0.00000E+00
    0.27904E-07        -0.37477E-11         0.00000E+00
    0.28253E-07        -0.30820E-11         0.00000E+00
    0.28584E-07        -0.22972E-11         0.00000E+00
    0.28896E-07        -0.13901E-11         0.00000E+00
    0.29187E-07        -0.36305E-12         0.00000E+00
    0.29457E-07         0.77243E-12         0.00000E+00
    0.29703E-07         0.19913E-11         0.00000E+00
    0.29924E-07         0.32494E-11         0.00000E+00
    0.30120E-07         0.44759E-11         0.00000E+00
    0.30289E-07         0.55643E-11         0.00000E+00
    0.30430E-07         0.63629E-11         0.00000E+00
    0.30543E-07         0.66653E-11         0.00000E+00
    0.30626E-07         0.62086E-11         0.00000E+00
    0.30680E-07         0.46892E-11         0.00000E+00
    0.30704E-07         0.18122E-11         0.00000E+00
    0.43628E-08         0.61916E-12         0.00000E+00
    0.43660E-08         0.16487E-11         0.00000E+00
    0.43752E-08         0.23026E-11         0.00000E+00
    0.43905E-08         0.26658E-11         0.00000E+00
    0.44118E-08         0.28191E-11         0.00000E+00
    0.44393E-08         0.28299E-11         0.00000E+00
    0.44731E-08         0.27501E-11         0.00000E+00
    0.45130E-08         0.26174E-11         0.00000E+00
    0.45593E-08         0.24580E-11         0.00000E+00
    0.46119E-08         0.22894E-11         0.00000E+00
    0.46708E-08         0.21226E-11         0.00000E+00
    0.47362E-08         0.19643E-11         0.00000E+00
    0.48080E-08         0.18179E-11         0.00000E+00
    0.48863E-08         0.16849E-11         0.00000E+00
    0.49711E-08         0.15653E-11         0.00000E+00
    0.50624E-08         0.14584E-11         0.00000E+00
    0.51604E-08         0.13629E-11         0.00000E+00
    0.52651E-08         0.12776E-11         0.00000E+00
    0.53764E-08         0.12010E-11         0.00000E+00
    0.54946E-08         0.11315E-11         0.00000E+00
    0.56195E-08         0.10680E-11         0.00000E+00
    0.57514E-08         0.10091E-11         0.00000E+00
    0.58903E-08         0.95382E-12         0.00000E+00
    0.60362E-08         0.90117E-12         0.00000E+00
    0.61892E-08         0.85029E-12         0.00000E+00
    0.63493E-08         0.80041E-12         0.00000E+00
    0.65168E-08         0.75085E-12         0.00000E+00
    0.66915E-08         0.70102E-12         0.00000E+00
    0.68737E-08         0.65036E-12         0.00000E+00
    0.70633E-08         0.59838E-12         0.00000E+00
    0.72605E-08         0.54462E-12         0.00000E+00
    0.74654E-08         0.48866E-12         0.00000E+00
    0.76779E-08         0.43011E-12         0.00000E+00
    0.78982E-08         0.36860E-12         0.00000E+00
    0.81263E-08         0.30377E-12         0.00000E+00
    0.83623E-08         0.23530E-12         0.00000E+00
    0.86063E-08         0.16288E-12         0.00000E+00
    0.88584E-08         0.86191E-13         0.00000E+00
    0.91185E-08         0.49593E-14         0.00000E+00
    0.93867E-08        -0.81089E-13         0.00000E+00
    0.96631E-08        -0.17221E-12         0.00000E+00
    0.99476E-08        -0.26864E-12         0.00000E+00
    0.10240E-07        -0.37061E-12         0.00000E+00
    0.10541E-07        -0.47832E-12         0.00000E+00
    0.10851E-07        -0.59195E-12         0.00000E+00
    0.11168E-07        -0.71166E-12         0.00000E+00
    0.11494E-07        -0.83759E-12         0.00000E+00
    0.11828E-07        -0.96986E-12         0.00000E+00
    0.12170E-07        -0.11085E-11         0.00000E+00
    0.12520E-07        -0.12537E-11         0.00000E+00
    0.12878E-07        -0.14053E-11         0.00000E+00
    0.13244E-07        -0.15633E-11         0.00000E+00
    0.13618E-07        -0.17277E-11         0.00000E+00
    0.14000E-07        -0.18984E-11         0.00000E+00
    0.14389E-07        -0.20751E-11         0.00000E+00
    0.14785E-07        -0.22576E-11         0.00000E+00
    0.15189E-07        -0.24457E-11         0.00000E+00
    0.15600E-07        -0.26390E-11         0.00000E+00
    0.16017E-07        -0.28370E-11         0.00000E+00
    0.16440E-07        -0.30391E-11         0.00000E+00
    0.16870E-07        -0.32449E-11         0.00000E+00
    0.17306E-07        -0.34535E-11         0.00000E+00
    0.17747E-07        -0.36641E-11         0.00000E+00
    0.18192E-07        -0.38758E-11         0.00000E+00
    0.18643E-07        -0.40874E-11         0.00000E+00
    0.19097E-07        -0.42978E-11         0.00000E+00
    0.19555E-07        -0.45056E-11         0.00000E+00
    0.20016E-07        -0.47091E-11         0.00000E+00
    0.20479E-07        -0.49067E-11         0.00000E+00
    0.20944E-07        -0.50963E-11         0.00000E+00
    0.21410E-07        -0.52756E-11         0.00000E+00
    0.21876E-07        -0.54421E-11         0.00000E+00
    0.22342E-07        -0.55929E-11         0.00000E+00
    0.22807E-07        -0.57248E-11         0.00000E+00
    0.23269E-07        -0.58340E-11         0.00000E+00
    0.23728E-07        -0.59163E-11         0.00000E+00
    0.24183E-07        -0.59671E-11         0.00000E+00
    0.24632E-07        -0.59808E-11         0.00000E+00
    0.25076E-07        -0.59514E-11         0.00000E+00
    0.25512E-07        -0.58719E-11         0.00000E+00
    0.25939E-07        -0.57348E-11         0.00000E+00
    0.26357E-07        -0.55314E-11         0.00000E+00
    0.26763E-07        -0.52524E-11         0.00000E+00
    0.27158E-07        -0.48880E-11         0.00000E+00
    0.27538E-07        -0.44276E-11         0.00000E+00
    0.27904E-07        -0.38612E-11         0.00000E+00
    0.28253E-07        -0.31793E-11         0.00000E+00
    0.28584E-07        -0.23746E-11         0.00000E+00
    0.28896E-07        -0.14433E-11         0.00000E+00
    0.29188E-07        -0.38786E-12         0.00000E+00
    0.29457E-07         0.77994E-12         0.00000E+00
    0.29703E-07         0.20343E-11         0.00000E+00
    0.29925E-07         0.33296E-11         0.00000E+00
    0.30120E-07         0.45924E-11         0.00000E+00
    0.30289E-07         0.57124E-11         0.00000E+00
    0.30430E-07         0.65322E-11         0.00000E+00
    0.30543E-07         0.68386E-11         0.00000E+00
    0.30626E-07         0.63627E-11         0.00000E+00
    0.30680E-07         0.47980E-11         0.00000E+00
    0.30704E-07         0.18520E-11         0.00000E+00
    0.43630E-08         0.62959E-12         0.00000E+00
    0.43662E-08         0.16776E-11         0.00000E+00
    0.43753E-08         0.23449E-11         0.00000E+00
    0.43905E-08         0.27161E-11         0.00000E+00
    0.44118E-08         0.28725E-11         0.00000E+00
    0.44393E-08         0.28828E-11         0.00000E+00
    0.44730E-08         0.28003E-11         0.00000E+00
    0.45130E-08         0.26637E-11         0.00000E+00
    0.45593E-08         0.24999E-11         0.00000E+00
    0.46118E-08         0.23268E-11         0.00000E+00
    0.46708E-08         0.21560E-11         0.00000E+00
    0.47362E-08         0.19940E-11         0.00000E+00
    0.48080E-08         0.18445E-11         0.00000E+00
    0.48862E-08         0.17088E-11         0.00000E+00
    0.49710E-08         0.15870E-11         0.00000E+00
    0.50624E-08         0.14782E-11         0.00000E+00
    0.51604E-08         0.13813E-11         0.00000E+00
    0.52650E-08         0.12948E-11         0.00000E+00
    0.53764E-08         0.12172E-11         0.00000E+00
    0.54946E-08         0.11470E-11         0.00000E+00
    0.56195E-08         0.10828E-11         0.00000E+00
    0.57514E-08         0.10233E-11         0.00000E+00
    0.58903E-08         0.96759E-12         0.00000E+00
    0.60362E-08         0.91449E-12         0.00000E+00
    0.61892E-08         0.86318E-12         0.00000E+00
    0.63493E-08         0.81287E-12         0.00000E+00
    0.65168E-08         0.76287E-12         0.00000E+00
    0.66915E-08         0.71256E-12         0.00000E+00
    0.68737E-08         0.66140E-12         0.00000E+00
    0.70633E-08         0.60886E-12         0.00000E+00
    0.72605E-08         0.55450E-12         0.00000E+00
    0.74653E-08         0.49789E-12         0.00000E+00
    0.76779E-08         0.43862E-12         0.00000E+00
    0.78982E-08         0.37631E-12         0.00000E+00
    0.81263E-08         0.31063E-12         0.00000E+00
    0.83623E-08         0.24122E-12         0.00000E+00
    0.86063E-08         0.16776E-12         0.00000E+00
    0.88584E-08         0.89963E-13         0.00000E+00
    0.91185E-08         0.75214E-14         0.00000E+00
    0.93867E-08        -0.79835E-13         0.00000E+00
    0.96631E-08        -0.17237E-12         0.00000E+00
    0.99476E-08        -0.27032E-12         0.00000E+00
    0.10240E-07        -0.37392E-12         0.00000E+00
    0.10541E-07        -0.48338E-12         0.00000E+00
    0.10851E-07        -0.59888E-12         0.00000E+00
    0.11168E-07        -0.72059E-12         0.00000E+00
    0.11494E-07        -0.84865E-12         0.00000E+00
    0.11828E-07        -0.98318E-12         0.00000E+00
    0.12170E-07        -0.11243E-11         0.00000E+00
    0.12520E-07        -0.12719E-11         0.00000E+00
    0.12878E-07        -0.14262E-11         0.00000E+00
    0.13244E-07        -0.15871E-11         0.00000E+00
    0.13618E-07        -0.17545E-11         0.00000E+00
    0.14000E-07        -0.19282E-11         0.00000E+00
    0.14389E-07        -0.21082E-11         0.00000E+00
    0.14785E-07        -0.22942E-11         0.00000E+00
    0.15189E-07        -0.24859E-11         0.00000E+00
    0.15600E-07        -0.26829E-11         0.00000E+00
    0.16017E-07        -0.28847E-11         0.00000E+00
    0.16440E-07        -0.30909E-11         0.00000E+00
    0.16870E-07        -0.33008E-11         0.00000E+00
    0.17306E-07        -0.35136E-11         0.00000E+00
    0.17747E-07        -0.37286E-11         0.00000E+00
    0.18192E-07        -0.39448E-11         0.00000E+00
    0.18643E-07        -0.41610E-11         0.00000E+00
    0.19097E-07        -0.43761E-11         0.00000E+00
    0.19555E-07        -0.45886E-11         0.00000E+00
    0.20016E-07        -0.47969E-11         0.00000E+00
    0.20479E-07        -0.49993E-11         0.00000E+00
    0.20944E-07        -0.51937E-11         0.00000E+00
    0.21410E-07        -0.53777E-11         0.00000E+00
    0.21876E-07        -0.55489E-11         0.00000E+00
    0.22342E-07        -0.57042E-11         0.00000E+00
    0.22807E-07        -0.58404E-11         0.00000E+00
    0.23269E-07        -0.59537E-11         0.00000E+00
    0.23728E-07        -0.60397E-11         0.00000E+00
    0.24183E-07        -0.60937E-11         0.00000E+00
    0.24632E-07        -0.61100E-11         0.00000E+00
    0.25076E-07        -0.60825E-11         0.00000E+00
    0.25512E-07        -0.60040E-11         0.00000E+00
    0.25939E-07        -0.58667E-11         0.00000E+00
    0.26357E-07        -0.56617E-11         0.00000E+00
    0.26763E-07        -0.53794E-11         0.00000E+00
    0.27158E-07        -0.50096E-11         0.00000E+00
    0.27538E-07        -0.45415E-11         0.00000E+00
    0.27904E-07        -0.39645E-11         0.00000E+00
    0.28253E-07        -0.32688E-11         0.00000E+00
    0.28584E-07        -0.24468E-11         0.00000E+00
    0.28896E-07        -0.14944E-11         0.00000E+00
    0.29188E-07        -0.41399E-12         0.00000E+00
    0.29457E-07         0.78254E-12         0.00000E+00
    0.29703E-07         0.20688E-11         0.00000E+00
    0.29925E-07         0.33978E-11         0.00000E+00
    0.30121E-07         0.46939E-11         0.00000E+00
    0.30290E-07         0.58434E-11         0.00000E+00
    0.30431E-07         0.66838E-11         0.00000E+00
    0.30543E-07         0.69959E-11         0.00000E+00
    0.30626E-07         0.65046E-11         0.00000E+00
    0.30679E-07         0.49000E-11         0.00000E+00
    0.30703E-07         0.18898E-11         0.00000E+00
    0.43633E-08         0.63893E-12         0.00000E+00
    0.43664E-08         0.17032E-11         0.00000E+00
    0.43754E-08         0.23817E-11         0.00000E+00
    0.43906E-08         0.27590E-11         0.00000E+00
    0.44119E-08         0.29174E-11         0.00000E+00
    0.44393E-08         0.29268E-11         0.00000E+00
    0.44730E-08         0.28415E-11         0.00000E+00
    0.45130E-08         0.27011E-11         0.00000E+00
    0.45592E-08         0.25333E-11         0.00000E+00
    0.46118E-08         0.23563E-11         0.00000E+00
    0.46708E-08         0.21819E-11         0.00000E+00
    0.47361E-08         0.20168E-11         0.00000E+00
    0.48079E-08         0.18645E-11         0.00000E+00
    0.48862E-08         0.17266E-11         0.00000E+00
    0.49710E-08         0.16030E-11         0.00000E+00
    0.50624E-08         0.14929E-11         0.00000E+00
    0.51604E-08         0.13949E-11         0.00000E+00
    0.52650E-08         0.13075E-11         0.00000E+00
    0.53764E-08         0.12292E-11         0.00000E+00
    0.54945E-08         0.11584E-11         0.00000E+00
    0.56195E-08         0.10938E-11         0.00000E+00
    0.57514E-08         0.10341E-11         0.00000E+00
    0.58903E-08         0.97804E-12         0.00000E+00
    0.60361E-08         0.92470E-12         0.00000E+00
    0.61891E-08         0.87314E-12         0.00000E+00
    0.63493E-08         0.82258E-12         0.00000E+00
    0.65168E-08         0.77232E-12         0.00000E+00
    0.66915E-08         0.72173E-12         0.00000E+00
    0.68737E-08         0.67024E-12         0.00000E+00
    0.70633E-08         0.61735E-12         0.00000E+00
    0.72605E-08         0.56258E-12         0.00000E+00
    0.74653E-08         0.50550E-12         0.00000E+00
    0.76779E-08         0.44572E-12         0.00000E+00
    0.78981E-08         0.38284E-12         0.00000E+00
    0.81263E-08         0.31652E-12         0.00000E+00
    0.83623E-08         0.24641E-12         0.00000E+00
    0.86063E-08         0.17218E-12         0.00000E+00
    0.88583E-08         0.93526E-13         0.00000E+00
    0.91184E-08         0.10155E-13         0.00000E+00
    0.93867E-08        -0.78215E-13         0.00000E+00
    0.96630E-08        -0.17185E-12         0.00000E+00
    0.99476E-08        -0.27099E-12         0.00000E+00
    0.10240E-07        -0.37588E-12         0.00000E+00
    0.10541E-07        -0.48672E-12         0.00000E+00
    0.10851E-07        -0.60371E-12         0.00000E+00
    0.11168E-07        -0.72702E-12         0.00000E+00
    0.11494E-07        -0.85678E-12         0.00000E+00
    0.11828E-07        -0.99313E-12         0.00000E+00
    0.12170E-07        -0.11361E-11         0.00000E+00
    0.12520E-07        -0.12859E-11         0.00000E+00
    0.12878E-07        -0.14423E-11         0.00000E+00
    0.13244E-07        -0.16055E-11         0.00000E+00
    0.13618E-07        -0.17753E-11         0.00000E+00
    0.14000E-07        -0.19517E-11         0.00000E+00
    0.14389E-07        -0.21344E-11         0.00000E+00
    0.14785E-07        -0.23232E-11         0.00000E+00
    0.15189E-07        -0.25178E-11         0.00000E+00
    0.15599E-07        -0.27178E-11         0.00000E+00
    0.16017E-07        -0.29229E-11         0.00000E+00
    0.16440E-07        -0.31324E-11         0.00000E+00
    0.16870E-07        -0.33458E-11         0.00000E+00
    0.17306E-07        -0.35622E-11         0.00000E+00
    0.17746E-07        -0.37809E-11         0.00000E+00
    0.18192E-07        -0.40009E-11         0.00000E+00
    0.18643E-07        -0.42211E-11         0.00000E+00
    0.19097E-07        -0.44402E-11         0.00000E+00
    0.19555E-07        -0.46567E-11         0.00000E+00
    0.20016E-07        -0.48692E-11         0.00000E+00
    0.20479E-07        -0.50758E-11         0.00000E+00
    0.20944E-07        -0.52743E-11         0.00000E+00
    0.21410E-07        -0.54626E-11         0.00000E+00
    0.21876E-07        -0.56380E-11         0.00000E+00
    0.22342E-07        -0.57974E-11         0.00000E+00
    0.22807E-07        -0.59376E-11         0.00000E+00
    0.23269E-07        -0.60546E-11         0.00000E+00
    0.23728E-07        -0.61442E-11         0.00000E+00
    0.24183E-07        -0.62013E-11         0.00000E+00
    0.24632E-07        -0.62204E-11         0.00000E+00
    0.25076E-07        -0.61950E-11         0.00000E+00
    0.25512E-07        -0.61179E-11         0.00000E+00
    0.25939E-07        -0.59809E-11         0.00000E+00
    0.26357E-07        -0.57752E-11         0.00000E+00
    0.26763E-07        -0.54907E-11         0.00000E+00
    0.27158E-07        -0.51169E-11         0.00000E+00
    0.27538E-07        -0.46427E-11         0.00000E+00
    0.27904E-07        -0.40572E-11         0.00000E+00
    0.28253E-07        -0.33503E-11         0.00000E+00
    0.28584E-07        -0.25137E-11         0.00000E+00
    0.28897E-07        -0.15434E-11         0.00000E+00
    0.29188E-07        -0.44140E-12         0.00000E+00
    0.29457E-07         0.78020E-12         0.00000E+00
    0.29704E-07         0.20946E-11         0.00000E+00
    0.29925E-07         0.34537E-11         0.00000E+00
    0.30121E-07         0.47801E-11         0.00000E+00
    0.30290E-07         0.59570E-11         0.00000E+00
    0.30431E-07         0.68177E-11         0.00000E+00
    0.30543E-07         0.71372E-11         0.00000E+00
    0.30626E-07         0.66345E-11         0.00000E+00
    0.30679E-07         0.49953E-11         0.00000E+00
    0.30702E-07         0.19257E-11         0.00000E+00
    0.43636E-08         0.64721E-12         0.00000E+00
    0.43665E-08         0.17255E-11         0.00000E+00
    0.43755E-08         0.24129E-11         0.00000E+00
    0.43906E-08         0.27946E-11         0.00000E+00
    0.44119E-08         0.29539E-11         0.00000E+00
    0.44393E-08         0.29617E-11         0.00000E+00
    0.44730E-08         0.28735E-11         0.00000E+00
    0.45129E-08         0.27296E-11         0.00000E+00
    0.45592E-08         0.25582E-11         0.00000E+00
    0.46118E-08         0.23778E-11         0.00000E+00
    0.46707E-08         0.22003E-11         0.00000E+00
    0.47361E-08         0.20325E-11         0.00000E+00
    0.48079E-08         0.18782E-11         0.00000E+00
    0.48862E-08         0.17385E-11         0.00000E+00
    0.49710E-08         0.16135E-11         0.00000E+00
    0.50624E-08         0.15023E-11         0.00000E+00
    0.51604E-08         0.14036E-11         0.00000E+00
    0.52650E-08         0.13156E-11         0.00000E+00
    0.53764E-08         0.12370E-11         0.00000E+00
    0.54945E-08         0.11659E-11         0.00000E+00
    0.56195E-08         0.11012E-11         0.00000E+00
    0.57514E-08         0.10413E-11         0.00000E+00
    0.58902E-08         0.98520E-12         0.00000E+00
    0.60361E-08         0.93179E-12         0.00000E+00
    0.61891E-08         0.88019E-12         0.00000E+00
    0.63493E-08         0.82956E-12         0.00000E+00
    0.65167E-08         0.77922E-12         0.00000E+00
    0.66915E-08         0.72852E-12         0.00000E+00
    0.68737E-08         0.67689E-12         0.00000E+00
    0.70633E-08         0.62382E-12         0.00000E+00
    0.72605E-08         0.56883E-12         0.00000E+00
    0.74653E-08         0.51150E-12         0.00000E+00
    0.76778E-08         0.45140E-12         0.00000E+00
    0.78981E-08         0.38817E-12         0.00000E+00
    0.81263E-08         0.32143E-12         0.00000E+00
    0.83623E-08         0.25085E-12         0.00000E+00
    0.86063E-08         0.17610E-12         0.00000E+00
    0.88583E-08         0.96859E-13         0.00000E+00
    0.91184E-08         0.12836E-13         0.00000E+00
    0.93866E-08        -0.76253E-13         0.00000E+00
    0.96630E-08        -0.17068E-12         0.00000E+00
    0.99476E-08        -0.27068E-12         0.00000E+00
    0.10240E-07        -0.37651E-12         0.00000E+00
    0.10541E-07        -0.48837E-12         0.00000E+00
    0.10851E-07        -0.60647E-12         0.00000E+00
    0.11168E-07        -0.73097E-12         0.00000E+00
    0.11494E-07        -0.86201E-12         0.00000E+00
    0.11828E-07        -0.99973E-12         0.00000E+00
    0.12170E-07        -0.11442E-11         0.00000E+00
    0.12520E-07        -0.12955E-11         0.00000E+00
    0.12878E-07        -0.14537E-11         0.00000E+00
    0.13244E-07        -0.16186E-11         0.00000E+00
    0.13618E-07        -0.17903E-11         0.00000E+00
    0.14000E-07        -0.19686E-11         0.00000E+00
    0.14389E-07        -0.21534E-11         0.00000E+00
    0.14785E-07        -0.23445E-11         0.00000E+00
    0.15189E-07        -0.25414E-11         0.00000E+00
    0.15599E-07        -0.27439E-11         0.00000E+00
    0.16017E-07        -0.29515E-11         0.00000E+00
    0.16440E-07        -0.31637E-11         0.00000E+00
    0.16870E-07        -0.33799E-11         0.00000E+00
    0.17306E-07        -0.35993E-11         0.00000E+00
    0.17746E-07        -0.38210E-11         0.00000E+00
    0.18192E-07        -0.40441E-11         0.00000E+00
    0.18643E-07        -0.42675E-11         0.00000E+00
    0.19097E-07        -0.44899E-11         0.00000E+00
    0.19555E-07        -0.47099E-11         0.00000E+00
    0.20016E-07        -0.49259E-11         0.00000E+00
    0.20479E-07        -0.51360E-11         0.00000E+00
    0.20944E-07        -0.53382E-11         0.00000E+00
    0.21410E-07        -0.55302E-11         0.00000E+00
    0.21876E-07        -0.57092E-11         0.00000E+00
    0.22342E-07        -0.58723E-11         0.00000E+00
    0.22806E-07        -0.60160E-11         0.00000E+00
    0.23269E-07        -0.61366E-11         0.00000E+00
    0.23728E-07        -0.62295E-11         0.00000E+00
    0.24183E-07        -0.62897E-11         0.00000E+00
    0.24632E-07        -0.63116E-11         0.00000E+00
    0.25076E-07        -0.62885E-11         0.00000E+00
    0.25512E-07        -0.62132E-11         0.00000E+00
    0.25939E-07        -0.60773E-11         0.00000E+00
    0.26357E-07        -0.58716E-11         0.00000E+00
    0.26764E-07        -0.55860E-11         0.00000E+00
    0.27158E-07        -0.52096E-11         0.00000E+00
    0.27538E-07        -0.47311E-11         0.00000E+00
    0.27904E-07        -0.41392E-11         0.00000E+00
    0.28253E-07        -0.34233E-11         0.00000E+00
    0.28585E-07        -0.25751E-11         0.00000E+00
    0.28897E-07        -0.15900E-11         0.00000E+00
    0.29188E-07        -0.47001E-12         0.00000E+00
    0.29458E-07         0.77289E-12         0.00000E+00
    0.29704E-07         0.21115E-11         0.00000E+00
    0.29925E-07         0.34971E-11         0.00000E+00
    0.30121E-07         0.48507E-11         0.00000E+00
    0.30290E-07         0.60530E-11         0.00000E+00
    0.30431E-07         0.69335E-11         0.00000E+00
    0.30543E-07         0.72623E-11         0.00000E+00
    0.30626E-07         0.67524E-11         0.00000E+00
    0.30678E-07         0.50840E-11         0.00000E+00
    0.30701E-07         0.19597E-11         0.00000E+00
    0.43638E-08         0.65442E-12         0.00000E+00
    0.43667E-08         0.17444E-11         0.00000E+00
    0.43756E-08         0.24385E-11         0.00000E+00
    0.43907E-08         0.28229E-11         0.00000E+00
    0.44119E-08         0.29819E-11         0.00000E+00
    0.44393E-08         0.29876E-11         0.00000E+00
    0.44730E-08         0.28964E-11         0.00000E+00
    0.45129E-08         0.27492E-11         0.00000E+00
    0.45591E-08         0.25745E-11         0.00000E+00
    0.46117E-08         0.23912E-11         0.00000E+00
    0.46707E-08         0.22112E-11         0.00000E+00
    0.47361E-08         0.20414E-11         0.00000E+00
    0.48079E-08         0.18853E-11         0.00000E+00
    0.48862E-08         0.17444E-11         0.00000E+00
    0.49710E-08         0.16185E-11         0.00000E+00
    0.50624E-08         0.15067E-11         0.00000E+00
    0.51603E-08         0.14075E-11         0.00000E+00
    0.52650E-08         0.13193E-11         0.00000E+00
    0.53764E-08         0.12405E-11         0.00000E+00
    0.54945E-08         0.11695E-11         0.00000E+00
    0.56195E-08         0.11048E-11         0.00000E+00
    0.57514E-08         0.10451E-11         0.00000E+00
    0.58902E-08         0.98908E-12         0.00000E+00
    0.60361E-08         0.93581E-12         0.00000E+00
    0.61891E-08         0.88433E-12         0.00000E+00
    0.63493E-08         0.83382E-12         0.00000E+00
    0.65167E-08         0.78357E-12         0.00000E+00
    0.66915E-08         0.73293E-12         0.00000E+00
    0.68737E-08         0.68134E-12         0.00000E+00
    0.70633E-08         0.62827E-12         0.00000E+00
    0.72605E-08         0.57326E-12         0.00000E+00
    0.74653E-08         0.51585E-12         0.00000E+00
    0.76778E-08         0.45565E-12         0.00000E+00
    0.78981E-08         0.39227E-12         0.00000E+00
    0.81263E-08         0.32535E-12         0.00000E+00
    0.83623E-08         0.25454E-12         0.00000E+00
    0.86063E-08         0.17950E-12         0.00000E+00
    0.88583E-08         0.99939E-13         0.00000E+00
    0.91184E-08         0.15540E-13         0.00000E+00
    0.93866E-08        -0.73975E-13         0.00000E+00
    0.96630E-08        -0.16888E-12         0.00000E+00
    0.99476E-08        -0.26942E-12         0.00000E+00
    0.10240E-07        -0.37585E-12         0.00000E+00
    0.10541E-07        -0.48837E-12         0.00000E+00
    0.10851E-07        -0.60718E-12         0.00000E+00
    0.11168E-07        -0.73247E-12         0.00000E+00
    0.11494E-07        -0.86437E-12         0.00000E+00
    0.11828E-07        -0.10030E-11         0.00000E+00
    0.12170E-07        -0.11485E-11         0.00000E+00
    0.12520E-07        -0.13009E-11         0.00000E+00
    0.12878E-07        -0.14602E-11         0.00000E+00
    0.13244E-07        -0.16264E-11         0.00000E+00
    0.13618E-07        -0.17994E-11         0.00000E+00
    0.14000E-07        -0.19792E-11         0.00000E+00
    0.14389E-07        -0.21655E-11         0.00000E+00
    0.14785E-07        -0.23581E-11         0.00000E+00
    0.15189E-07        -0.25568E-11         0.00000E+00
    0.15599E-07        -0.27611E-11         0.00000E+00
    0.16017E-07        -0.29706E-11         0.00000E+00
    0.16440E-07        -0.31849E-11         0.00000E+00
    0.16870E-07        -0.34031E-11         0.00000E+00
    0.17306E-07        -0.36247E-11         0.00000E+00
    0.17746E-07        -0.38488E-11         0.00000E+00
    0.18192E-07        -0.40743E-11         0.00000E+00
    0.18643E-07        -0.43003E-11         0.00000E+00
    0.19097E-07        -0.45253E-11         0.00000E+00
    0.19555E-07        -0.47481E-11         0.00000E+00
    0.20016E-07        -0.49669E-11         0.00000E+00
    0.20479E-07        -0.51800E-11         0.00000E+00
    0.20944E-07        -0.53852E-11         0.00000E+00
    0.21410E-07        -0.55802E-11         0.00000E+00
    0.21876E-07        -0.57624E-11         0.00000E+00
    0.22342E-07        -0.59287E-11         0.00000E+00
    0.22806E-07        -0.60757E-11         0.00000E+00
    0.23269E-07        -0.61994E-11         0.00000E+00
    0.23728E-07        -0.62954E-11         0.00000E+00
    0.24183E-07        -0.63587E-11         0.00000E+00
    0.24632E-07        -0.63834E-11         0.00000E+00
    0.25076E-07        -0.63628E-11         0.00000E+00
    0.25512E-07        -0.62896E-11         0.00000E+00
    0.25939E-07        -0.61553E-11         0.00000E+00
    0.26357E-07        -0.59505E-11         0.00000E+00
    0.26764E-07        -0.56649E-11         0.00000E+00
    0.27158E-07        -0.52874E-11         0.00000E+00
    0.27539E-07        -0.48063E-11         0.00000E+00
    0.27904E-07        -0.42100E-11         0.00000E+00
    0.28253E-07        -0.34878E-11         0.00000E+00
    0.28585E-07        -0.26308E-11         0.00000E+00
    0.28897E-07        -0.16342E-11         0.00000E+00
    0.29188E-07        -0.49970E-12         0.00000E+00
    0.29458E-07         0.76066E-12         0.00000E+00
    0.29704E-07         0.21196E-11         0.00000E+00
    0.29926E-07         0.35279E-11         0.00000E+00
    0.30121E-07         0.49055E-11         0.00000E+00
    0.30290E-07         0.61311E-11         0.00000E+00
    0.30431E-07         0.70312E-11         0.00000E+00
    0.30543E-07         0.73711E-11         0.00000E+00
    0.30625E-07         0.68581E-11         0.00000E+00
    0.30678E-07         0.51660E-11         0.00000E+00
    0.30701E-07         0.19918E-11         0.00000E+00
    0.43641E-08         0.66057E-12         0.00000E+00
    0.43669E-08         0.17600E-11         0.00000E+00
    0.43757E-08         0.24586E-11         0.00000E+00
    0.43907E-08         0.28438E-11         0.00000E+00
    0.44119E-08         0.30013E-11         0.00000E+00
    0.44393E-08         0.30045E-11         0.00000E+00
    0.44729E-08         0.29101E-11         0.00000E+00
    0.45129E-08         0.27599E-11         0.00000E+00
    0.45591E-08         0.25824E-11         0.00000E+00
    0.46117E-08         0.23966E-11         0.00000E+00
    0.46707E-08         0.22146E-11         0.00000E+00
    0.47360E-08         0.20433E-11         0.00000E+00
    0.48078E-08         0.18861E-11         0.00000E+00
    0.48861E-08         0.17444E-11         0.00000E+00
    0.49710E-08         0.16180E-11         0.00000E+00
    0.50623E-08         0.15059E-11         0.00000E+00
    0.51603E-08         0.14067E-11         0.00000E+00
    0.52650E-08         0.13186E-11         0.00000E+00
    0.53763E-08         0.12400E-11         0.00000E+00
    0.54945E-08         0.11692E-11         0.00000E+00
    0.56195E-08         0.11048E-11         0.00000E+00
    0.57514E-08         0.10454E-11         0.00000E+00
    0.58902E-08         0.98971E-12         0.00000E+00
    0.60361E-08         0.93676E-12         0.00000E+00
    0.61891E-08         0.88558E-12         0.00000E+00
    0.63493E-08         0.83536E-12         0.00000E+00
    0.65167E-08         0.78538E-12         0.00000E+00
    0.66915E-08         0.73498E-12         0.00000E+00
    0.68736E-08         0.68360E-12         0.00000E+00
    0.70633E-08         0.63072E-12         0.00000E+00
    0.72605E-08         0.57585E-12         0.00000E+00
    0.74653E-08         0.51857E-12         0.00000E+00
    0.76778E-08         0.45847E-12         0.00000E+00
    0.78981E-08         0.39515E-12         0.00000E+00
    0.81262E-08         0.32825E-12         0.00000E+00
    0.83623E-08         0.25744E-12         0.00000E+00
    0.86063E-08         0.18237E-12         0.00000E+00
    0.88583E-08         0.10274E-12         0.00000E+00
    0.91184E-08         0.18244E-13         0.00000E+00
    0.93866E-08        -0.71407E-13         0.00000E+00
    0.96630E-08        -0.16648E-12         0.00000E+00
    0.99475E-08        -0.26724E-12         0.00000E+00
    0.10240E-07        -0.37391E-12         0.00000E+00
    0.10541E-07        -0.48673E-12         0.00000E+00
    0.10851E-07        -0.60588E-12         0.00000E+00
    0.11168E-07        -0.73155E-12         0.00000E+00
    0.11494E-07        -0.86389E-12         0.00000E+00
    0.11828E-07        -0.10030E-11         0.00000E+00
    0.12170E-07        -0.11490E-11         0.00000E+00
    0.12520E-07        -0.13020E-11         0.00000E+00
    0.12878E-07        -0.14620E-11         0.00000E+00
    0.13244E-07        -0.16289E-11         0.00000E+00
    0.13618E-07        -0.18027E-11         0.00000E+00
    0.14000E-07        -0.19833E-11         0.00000E+00
    0.14389E-07        -0.21706E-11         0.00000E+00
    0.14785E-07        -0.23642E-11         0.00000E+00
    0.15189E-07        -0.25639E-11         0.00000E+00
    0.15599E-07        -0.27694E-11         0.00000E+00
    0.16017E-07        -0.29802E-11         0.00000E+00
    0.16440E-07        -0.31958E-11         0.00000E+00
    0.16870E-07        -0.34154E-11         0.00000E+00
    0.17305E-07        -0.36386E-11         0.00000E+00
    0.17746E-07        -0.38642E-11         0.00000E+00
    0.18192E-07        -0.40915E-11         0.00000E+00
    0.18643E-07        -0.43193E-11         0.00000E+00
    0.19097E-07        -0.45463E-11         0.00000E+00
    0.19555E-07        -0.47711E-11         0.00000E+00
    0.20016E-07        -0.49921E-11         0.00000E+00
    0.20479E-07        -0.52075E-11         0.00000E+00
    0.20944E-07        -0.54151E-11         0.00000E+00
    0.21410E-07        -0.56127E-11         0.00000E+00
    0.21876E-07        -0.57974E-11         0.00000E+00
    0.22342E-07        -0.59665E-11         0.00000E+00
    0.22806E-07        -0.61162E-11         0.00000E+00
    0.23269E-07        -0.62428E-11         0.00000E+00
    0.23728E-07        -0.63418E-11         0.00000E+00
    0.24183E-07        -0.64079E-11         0.00000E+00
    0.24632E-07        -0.64354E-11         0.00000E+00
    0.25076E-07        -0.64176E-11         0.00000E+00
    0.25512E-07        -0.63469E-11         0.00000E+00
    0.25939E-07        -0.62147E-11         0.00000E+00
    0.26357E-07        -0.60116E-11         0.00000E+00
    0.26764E-07        -0.57271E-11         0.00000E+00
    0.27158E-07        -0.53498E-11         0.00000E+00
    0.27539E-07        -0.48678E-11         0.00000E+00
    0.27904E-07        -0.42693E-11         0.00000E+00
    0.28254E-07        -0.35432E-11         0.00000E+00
    0.28585E-07        -0.26803E-11         0.00000E+00
    0.28897E-07        -0.16755E-11         0.00000E+00
    0.29189E-07        -0.53031E-12         0.00000E+00
    0.29458E-07         0.74356E-12         0.00000E+00
    0.29704E-07         0.21188E-11         0.00000E+00
    0.29926E-07         0.35460E-11         0.00000E+00
    0.30122E-07         0.49442E-11         0.00000E+00
    0.30290E-07         0.61910E-11         0.00000E+00
    0.30431E-07         0.71101E-11         0.00000E+00
    0.30543E-07         0.74631E-11         0.00000E+00
    0.30625E-07         0.69514E-11         0.00000E+00
    0.30678E-07         0.52413E-11         0.00000E+00
    0.30700E-07         0.20220E-11         0.00000E+00
    0.43643E-08         0.66564E-12         0.00000E+00
    0.43670E-08         0.17723E-11         0.00000E+00
    0.43758E-08         0.24730E-11         0.00000E+00
    0.43908E-08         0.28572E-11         0.00000E+00
    0.44119E-08         0.30121E-11         0.00000E+00
    0.44393E-08         0.30121E-11         0.00000E+00
    0.44729E-08         0.29146E-11         0.00000E+00
    0.45128E-08         0.27615E-11         0.00000E+00
    0.45591E-08         0.25816E-11         0.00000E+00
    0.46117E-08         0.23941E-11         0.00000E+00
    0.46706E-08         0.22106E-11         0.00000E+00
    0.47360E-08         0.20383E-11         0.00000E+00
    0.48078E-08         0.18805E-11         0.00000E+00
    0.48861E-08         0.17385E-11         0.00000E+00
    0.49709E-08         0.16121E-11         0.00000E+00
    0.50623E-08         0.15001E-11         0.00000E+00
    0.51603E-08         0.14012E-11         0.00000E+00
    0.52650E-08         0.13135E-11         0.00000E+00
    0.53763E-08         0.12353E-11         0.00000E+00
    0.54945E-08         0.11651E-11         0.00000E+00
    0.56195E-08         0.11012E-11         0.00000E+00
    0.57514E-08         0.10422E-11         0.00000E+00
    0.58902E-08         0.98710E-12         0.00000E+00
    0.60361E-08         0.93466E-12         0.00000E+00
    0.61891E-08         0.88396E-12         0.00000E+00
    0.63493E-08         0.83420E-12         0.00000E+00
    0.65167E-08         0.78465E-12         0.00000E+00
    0.66915E-08         0.73466E-12         0.00000E+00
    0.68736E-08         0.68366E-12         0.00000E+00
    0.70633E-08         0.63114E-12         0.00000E+00
    0.72605E-08         0.57661E-12         0.00000E+00
    0.74653E-08         0.51964E-12         0.00000E+00
    0.76778E-08         0.45982E-12         0.00000E+00
    0.78981E-08         0.39677E-12         0.00000E+00
    0.81262E-08         0.33013E-12         0.00000E+00
    0.83623E-08         0.25954E-12         0.00000E+00
    0.86063E-08         0.18469E-12         0.00000E+00
    0.88583E-08         0.10525E-12         0.00000E+00
    0.91184E-08         0.20922E-13         0.00000E+00
    0.93866E-08        -0.68576E-13         0.00000E+00
    0.96630E-08        -0.16352E-12         0.00000E+00
    0.99475E-08        -0.26416E-12         0.00000E+00
    0.10240E-07        -0.37074E-12         0.00000E+00
    0.10541E-07        -0.48349E-12         0.00000E+00
    0.10851E-07        -0.60260E-12         0.00000E+00
    0.11168E-07        -0.72825E-12         0.00000E+00
    0.11494E-07        -0.86059E-12         0.00000E+00
    0.11828E-07        -0.99977E-12         0.00000E+00
    0.12170E-07        -0.11459E-11         0.00000E+00
    0.12520E-07        -0.12989E-11         0.00000E+00
    0.12878E-07        -0.14590E-11         0.00000E+00
    0.13244E-07        -0.16261E-11         0.00000E+00
    0.13618E-07        -0.18002E-11         0.00000E+00
    0.14000E-07        -0.19811E-11         0.00000E+00
    0.14389E-07        -0.21686E-11         0.00000E+00
    0.14785E-07        -0.23627E-11         0.00000E+00
    0.15189E-07        -0.25628E-11         0.00000E+00
    0.15599E-07        -0.27688E-11         0.00000E+00
    0.16017E-07        -0.29802E-11         0.00000E+00
    0.16440E-07        -0.31964E-11         0.00000E+00
    0.16870E-07        -0.34168E-11         0.00000E+00
    0.17305E-07        -0.36408E-11         0.00000E+00
    0.17746E-07        -0.38674E-11         0.00000E+00
    0.18192E-07        -0.40957E-11         0.00000E+00
    0.18643E-07        -0.43246E-11         0.00000E+00
    0.19097E-07        -0.45528E-11         0.00000E+00
    0.19555E-07        -0.47790E-11         0.00000E+00
    0.20016E-07        -0.50015E-11         0.00000E+00
    0.20479E-07        -0.52185E-11         0.00000E+00
    0.20944E-07        -0.54279E-11         0.00000E+00
    0.21410E-07        -0.56273E-11         0.00000E+00
    0.21876E-07        -0.58142E-11         0.00000E+00
    0.22342E-07        -0.59854E-11         0.00000E+00
    0.22806E-07        -0.61375E-11         0.00000E+00
    0.23269E-07        -0.62666E-11         0.00000E+00
    0.23728E-07        -0.63682E-11         0.00000E+00
    0.24182E-07        -0.64371E-11         0.00000E+00
    0.24632E-07        -0.64674E-11         0.00000E+00
    0.25076E-07        -0.64525E-11         0.00000E+00
    0.25512E-07        -0.63846E-11         0.00000E+00
    0.25939E-07        -0.62552E-11         0.00000E+00
    0.26357E-07        -0.60545E-11         0.00000E+00
    0.26764E-07        -0.57721E-11         0.00000E+00
    0.27158E-07        -0.53964E-11         0.00000E+00
    0.27539E-07        -0.49153E-11         0.00000E+00
    0.27904E-07        -0.43167E-11         0.00000E+00
    0.28254E-07        -0.35892E-11         0.00000E+00
    0.28585E-07        -0.27234E-11         0.00000E+00
    0.28897E-07        -0.17138E-11         0.00000E+00
    0.29189E-07        -0.56163E-12         0.00000E+00
    0.29459E-07         0.72171E-12         0.00000E+00
    0.29705E-07         0.21091E-11         0.00000E+00
    0.29926E-07         0.35511E-11         0.00000E+00
    0.30122E-07         0.49666E-11         0.00000E+00
    0.30291E-07         0.62322E-11         0.00000E+00
    0.30431E-07         0.71699E-11         0.00000E+00
    0.30543E-07         0.75380E-11         0.00000E+00
    0.30625E-07         0.70318E-11         0.00000E+00
    0.30677E-07         0.53095E-11         0.00000E+00
    0.30699E-07         0.20503E-11         0.00000E+00
    0.43646E-08         0.66961E-12         0.00000E+00
    0.43672E-08         0.17811E-11         0.00000E+00
    0.43759E-08         0.24817E-11         0.00000E+00
    0.43908E-08         0.28631E-11         0.00000E+00
    0.44119E-08         0.30142E-11         0.00000E+00
    0.44393E-08         0.30105E-11         0.00000E+00
    0.44729E-08         0.29098E-11         0.00000E+00
    0.45128E-08         0.27542E-11         0.00000E+00
    0.45590E-08         0.25724E-11         0.00000E+00
    0.46116E-08         0.23835E-11         0.00000E+00
    0.46706E-08         0.21992E-11         0.00000E+00
    0.47360E-08         0.20265E-11         0.00000E+00
    0.48078E-08         0.18686E-11         0.00000E+00
    0.48861E-08         0.17268E-11         0.00000E+00
    0.49709E-08         0.16008E-11         0.00000E+00
    0.50623E-08         0.14894E-11         0.00000E+00
    0.51603E-08         0.13910E-11         0.00000E+00
    0.52649E-08         0.13040E-11         0.00000E+00
    0.53763E-08         0.12266E-11         0.00000E+00
    0.54945E-08         0.11571E-11         0.00000E+00
    0.56195E-08         0.10939E-11         0.00000E+00
    0.57513E-08         0.10357E-11         0.00000E+00
    0.58902E-08         0.98130E-12         0.00000E+00
    0.60361E-08         0.92953E-12         0.00000E+00
    0.61891E-08         0.87949E-12         0.00000E+00
    0.63493E-08         0.83035E-12         0.00000E+00
    0.65167E-08         0.78140E-12         0.00000E+00
    0.66915E-08         0.73198E-12         0.00000E+00
    0.68736E-08         0.68153E-12         0.00000E+00
    0.70633E-08         0.62953E-12         0.00000E+00
    0.72605E-08         0.57551E-12         0.00000E+00
    0.74653E-08         0.51904E-12         0.00000E+00
    0.76778E-08         0.45971E-12         0.00000E+00
    0.78981E-08         0.39713E-12         0.00000E+00
    0.81262E-08         0.33095E-12         0.00000E+00
    0.83622E-08         0.26082E-12         0.00000E+00
    0.86062E-08         0.18642E-12         0.00000E+00
    0.88583E-08         0.10743E-12         0.00000E+00
    0.91183E-08         0.23549E-13         0.00000E+00
    0.93866E-08        -0.65507E-13         0.00000E+00
    0.96629E-08        -0.16001E-12         0.00000E+00
    0.99475E-08        -0.26022E-12         0.00000E+00
    0.10240E-07        -0.36636E-12         0.00000E+00
    0.10541E-07        -0.47868E-12         0.00000E+00
    0.10851E-07        -0.59736E-12         0.00000E+00
    0.11168E-07        -0.72259E-12         0.00000E+00
    0.11494E-07        -0.85452E-12         0.00000E+00
    0.11828E-07        -0.99328E-12         0.00000E+00
    0.12170E-07        -0.11390E-11         0.00000E+00
    0.12520E-07        -0.12917E-11         0.00000E+00
    0.12878E-07        -0.14514E-11         0.00000E+00
    0.13244E-07        -0.16182E-11         0.00000E+00
    0.13618E-07        -0.17919E-11         0.00000E+00
    0.14000E-07        -0.19725E-11         0.00000E+00
    0.14389E-07        -0.21598E-11         0.00000E+00
    0.14785E-07        -0.23535E-11         0.00000E+00
    0.15189E-07        -0.25535E-11         0.00000E+00
    0.15599E-07        -0.27594E-11         0.00000E+00
    0.16017E-07        -0.29707E-11         0.00000E+00
    0.16440E-07        -0.31868E-11         0.00000E+00
    0.16870E-07        -0.34073E-11         0.00000E+00
    0.17305E-07        -0.36313E-11         0.00000E+00
    0.17746E-07        -0.38581E-11         0.00000E+00
    0.18192E-07        -0.40867E-11         0.00000E+00
    0.18642E-07        -0.43160E-11         0.00000E+00
    0.19097E-07        -0.45448E-11         0.00000E+00
    0.19555E-07        -0.47716E-11         0.00000E+00
    0.20016E-07        -0.49949E-11         0.00000E+00
    0.20479E-07        -0.52128E-11         0.00000E+00
    0.20944E-07        -0.54233E-11         0.00000E+00
    0.21410E-07        -0.56241E-11         0.00000E+00
    0.21876E-07        -0.58124E-11         0.00000E+00
    0.22342E-07        -0.59853E-11         0.00000E+00
    0.22806E-07        -0.61394E-11         0.00000E+00
    0.23269E-07        -0.62706E-11         0.00000E+00
    0.23728E-07        -0.63745E-11         0.00000E+00
    0.24182E-07        -0.64460E-11         0.00000E+00
    0.24632E-07        -0.64791E-11         0.00000E+00
    0.25076E-07        -0.64671E-11         0.00000E+00
    0.25512E-07        -0.64024E-11         0.00000E+00
    0.25939E-07        -0.62762E-11         0.00000E+00
    0.26357E-07        -0.60788E-11         0.00000E+00
    0.26764E-07        -0.57996E-11         0.00000E+00
    0.27158E-07        -0.54269E-11         0.00000E+00
    0.27539E-07        -0.49484E-11         0.00000E+00
    0.27905E-07        -0.43518E-11         0.00000E+00
    0.28254E-07        -0.36255E-11         0.00000E+00
    0.28585E-07        -0.27597E-11         0.00000E+00
    0.28898E-07        -0.17488E-11         0.00000E+00
    0.29189E-07        -0.59343E-12         0.00000E+00
    0.29459E-07         0.69525E-12         0.00000E+00
    0.29705E-07         0.20905E-11         0.00000E+00
    0.29927E-07         0.35432E-11         0.00000E+00
    0.30122E-07         0.49723E-11         0.00000E+00
    0.30291E-07         0.62543E-11         0.00000E+00
    0.30431E-07         0.72101E-11         0.00000E+00
    0.30543E-07         0.75951E-11         0.00000E+00
    0.30625E-07         0.70990E-11         0.00000E+00
    0.30677E-07         0.53704E-11         0.00000E+00
    0.30698E-07         0.20764E-11         0.00000E+00
    0.43649E-08         0.67246E-12         0.00000E+00
    0.43674E-08         0.17864E-11         0.00000E+00
    0.43760E-08         0.24845E-11         0.00000E+00
    0.43909E-08         0.28612E-11         0.00000E+00
    0.44119E-08         0.30075E-11         0.00000E+00
    0.44393E-08         0.29995E-11         0.00000E+00
    0.44729E-08         0.28956E-11         0.00000E+00
    0.45128E-08         0.27378E-11         0.00000E+00
    0.45590E-08         0.25546E-11         0.00000E+00
    0.46116E-08         0.23649E-11         0.00000E+00
    0.46706E-08         0.21804E-11         0.00000E+00
    0.47359E-08         0.20079E-11         0.00000E+00
    0.48078E-08         0.18505E-11         0.00000E+00
    0.48861E-08         0.17094E-11         0.00000E+00
    0.49709E-08         0.15841E-11         0.00000E+00
    0.50623E-08         0.14736E-11         0.00000E+00
    0.51603E-08         0.13763E-11         0.00000E+00
    0.52649E-08         0.12903E-11         0.00000E+00
    0.53763E-08         0.12139E-11         0.00000E+00
    0.54945E-08         0.11453E-11         0.00000E+00
    0.56194E-08         0.10831E-11         0.00000E+00
    0.57513E-08         0.10259E-11         0.00000E+00
    0.58902E-08         0.97232E-12         0.00000E+00
    0.60361E-08         0.92140E-12         0.00000E+00
    0.61891E-08         0.87218E-12         0.00000E+00
    0.63493E-08         0.82383E-12         0.00000E+00
    0.65167E-08         0.77562E-12         0.00000E+00
    0.66914E-08         0.72694E-12         0.00000E+00
    0.68736E-08         0.67720E-12         0.00000E+00
    0.70633E-08         0.62590E-12         0.00000E+00
    0.72604E-08         0.57257E-12         0.00000E+00
    0.74653E-08         0.51677E-12         0.00000E+00
    0.76778E-08         0.45811E-12         0.00000E+00
    0.78981E-08         0.39621E-12         0.00000E+00
    0.81262E-08         0.33071E-12         0.00000E+00
    0.83622E-08         0.26127E-12         0.00000E+00
    0.86062E-08         0.18756E-12         0.00000E+00
    0.88582E-08         0.10927E-12         0.00000E+00
    0.91183E-08         0.26100E-13         0.00000E+00
    0.93865E-08        -0.62228E-13         0.00000E+00
    0.96629E-08        -0.15599E-12         0.00000E+00
    0.99475E-08        -0.25543E-12         0.00000E+00
    0.10240E-07        -0.36081E-12         0.00000E+00
    0.10541E-07        -0.47233E-12         0.00000E+00
    0.10851E-07        -0.59020E-12         0.00000E+00
    0.11168E-07        -0.71460E-12         0.00000E+00
    0.11494E-07        -0.84570E-12         0.00000E+00
    0.11828E-07        -0.98361E-12         0.00000E+00
    0.12170E-07        -0.11284E-11         0.00000E+00
    0.12520E-07        -0.12803E-11         0.00000E+00
    0.12878E-07        -0.14391E-11         0.00000E+00
    0.13244E-07        -0.16050E-11         0.00000E+00
    0.13618E-07        -0.17778E-11         0.00000E+00
    0.14000E-07        -0.19575E-11         0.00000E+00
    0.14389E-07        -0.21439E-11         0.00000E+00
    0.14785E-07        -0.23369E-11         0.00000E+00
    0.15189E-07        -0.25360E-11         0.00000E+00
    0.15599E-07        -0.27411E-11         0.00000E+00
    0.16016E-07        -0.29516E-11         0.00000E+00
    0.16440E-07        -0.31670E-11         0.00000E+00
    0.16870E-07        -0.33868E-11         0.00000E+00
    0.17305E-07        -0.36102E-11         0.00000E+00
    0.17746E-07        -0.38365E-11         0.00000E+00
    0.18192E-07        -0.40647E-11         0.00000E+00
    0.18642E-07        -0.42936E-11         0.00000E+00
    0.19097E-07        -0.45222E-11         0.00000E+00
    0.19555E-07        -0.47489E-11         0.00000E+00
    0.20016E-07        -0.49723E-11         0.00000E+00
    0.20479E-07        -0.51904E-11         0.00000E+00
    0.20944E-07        -0.54014E-11         0.00000E+00
    0.21410E-07        -0.56028E-11         0.00000E+00
    0.21876E-07        -0.57920E-11         0.00000E+00
    0.22342E-07        -0.59660E-11         0.00000E+00
    0.22806E-07        -0.61215E-11         0.00000E+00
    0.23269E-07        -0.62545E-11         0.00000E+00
    0.23728E-07        -0.63605E-11         0.00000E+00
    0.24182E-07        -0.64343E-11         0.00000E+00
    0.24632E-07        -0.64701E-11         0.00000E+00
    0.25076E-07        -0.64612E-11         0.00000E+00
    0.25512E-07        -0.63999E-11         0.00000E+00
    0.25939E-07        -0.62774E-11         0.00000E+00
    0.26357E-07        -0.60841E-11         0.00000E+00
    0.26764E-07        -0.58091E-11         0.00000E+00
    0.27158E-07        -0.54406E-11         0.00000E+00
    0.27539E-07        -0.49665E-11         0.00000E+00
    0.27905E-07        -0.43741E-11         0.00000E+00
    0.28254E-07        -0.36515E-11         0.00000E+00
    0.28586E-07        -0.27889E-11         0.00000E+00
    0.28898E-07        -0.17800E-11         0.00000E+00
    0.29189E-07        -0.62540E-12         0.00000E+00
    0.29459E-07         0.66437E-12         0.00000E+00
    0.29705E-07         0.20631E-11         0.00000E+00
    0.29927E-07         0.35221E-11         0.00000E+00
    0.30123E-07         0.49612E-11         0.00000E+00
    0.30291E-07         0.62569E-11         0.00000E+00
    0.30431E-07         0.72300E-11         0.00000E+00
    0.30543E-07         0.76336E-11         0.00000E+00
    0.30625E-07         0.71521E-11         0.00000E+00
    0.30676E-07         0.54234E-11         0.00000E+00
    0.30697E-07         0.21002E-11         0.00000E+00
    0.43652E-08         0.67414E-12         0.00000E+00
    0.43676E-08         0.17880E-11         0.00000E+00
    0.43761E-08         0.24812E-11         0.00000E+00
    0.43909E-08         0.28515E-11         0.00000E+00
    0.44119E-08         0.29917E-11         0.00000E+00
    0.44392E-08         0.29791E-11         0.00000E+00
    0.44728E-08         0.28721E-11         0.00000E+00
    0.45127E-08         0.27123E-11         0.00000E+00
    0.45590E-08         0.25282E-11         0.00000E+00
    0.46115E-08         0.23384E-11         0.00000E+00
    0.46705E-08         0.21543E-11         0.00000E+00
    0.47359E-08         0.19825E-11         0.00000E+00
    0.48077E-08         0.18261E-11         0.00000E+00
    0.48860E-08         0.16862E-11         0.00000E+00
    0.49709E-08         0.15622E-11         0.00000E+00
    0.50622E-08         0.14531E-11         0.00000E+00
    0.51602E-08         0.13570E-11         0.00000E+00
    0.52649E-08         0.12723E-11         0.00000E+00
    0.53763E-08         0.11972E-11         0.00000E+00
    0.54944E-08         0.11299E-11         0.00000E+00
    0.56194E-08         0.10688E-11         0.00000E+00
    0.57513E-08         0.10127E-11         0.00000E+00
    0.58902E-08         0.96019E-12         0.00000E+00
    0.60361E-08         0.91029E-12         0.00000E+00
    0.61891E-08         0.86204E-12         0.00000E+00
    0.63493E-08         0.81463E-12         0.00000E+00
    0.65167E-08         0.76734E-12         0.00000E+00
    0.66914E-08         0.71955E-12         0.00000E+00
    0.68736E-08         0.67068E-12         0.00000E+00
    0.70632E-08         0.62024E-12         0.00000E+00
    0.72604E-08         0.56776E-12         0.00000E+00
    0.74653E-08         0.51282E-12         0.00000E+00
    0.76778E-08         0.45503E-12         0.00000E+00
    0.78981E-08         0.39400E-12         0.00000E+00
    0.81262E-08         0.32938E-12         0.00000E+00
    0.83622E-08         0.26085E-12         0.00000E+00
    0.86062E-08         0.18807E-12         0.00000E+00
    0.88582E-08         0.11073E-12         0.00000E+00
    0.91183E-08         0.28547E-13         0.00000E+00
    0.93865E-08        -0.58768E-13         0.00000E+00
    0.96629E-08        -0.15148E-12         0.00000E+00
    0.99475E-08        -0.24985E-12         0.00000E+00
    0.10240E-07        -0.35410E-12         0.00000E+00
    0.10541E-07        -0.46447E-12         0.00000E+00
    0.10851E-07        -0.58115E-12         0.00000E+00
    0.11168E-07        -0.70433E-12         0.00000E+00
    0.11494E-07        -0.83416E-12         0.00000E+00
    0.11828E-07        -0.97077E-12         0.00000E+00
    0.12170E-07        -0.11143E-11         0.00000E+00
    0.12520E-07        -0.12647E-11         0.00000E+00
    0.12878E-07        -0.14222E-11         0.00000E+00
    0.13244E-07        -0.15866E-11         0.00000E+00
    0.13618E-07        -0.17580E-11         0.00000E+00
    0.13999E-07        -0.19362E-11         0.00000E+00
    0.14389E-07        -0.21212E-11         0.00000E+00
    0.14785E-07        -0.23126E-11         0.00000E+00
    0.15189E-07        -0.25103E-11         0.00000E+00
    0.15599E-07        -0.27139E-11         0.00000E+00
    0.16016E-07        -0.29229E-11         0.00000E+00
    0.16440E-07        -0.31369E-11         0.00000E+00
    0.16870E-07        -0.33553E-11         0.00000E+00
    0.17305E-07        -0.35774E-11         0.00000E+00
    0.17746E-07        -0.38024E-11         0.00000E+00
    0.18192E-07        -0.40294E-11         0.00000E+00
    0.18642E-07        -0.42573E-11         0.00000E+00
    0.19097E-07        -0.44849E-11         0.00000E+00
    0.19555E-07        -0.47108E-11         0.00000E+00
    0.20016E-07        -0.49335E-11         0.00000E+00
    0.20479E-07        -0.51512E-11         0.00000E+00
    0.20944E-07        -0.53619E-11         0.00000E+00
    0.21410E-07        -0.55633E-11         0.00000E+00
    0.21876E-07        -0.57527E-11         0.00000E+00
    0.22342E-07        -0.59274E-11         0.00000E+00
    0.22806E-07        -0.60838E-11         0.00000E+00
    0.23269E-07        -0.62180E-11         0.00000E+00
    0.23728E-07        -0.63257E-11         0.00000E+00
    0.24182E-07        -0.64017E-11         0.00000E+00
    0.24632E-07        -0.64402E-11         0.00000E+00
    0.25076E-07        -0.64344E-11         0.00000E+00
    0.25512E-07        -0.63767E-11         0.00000E+00
    0.25939E-07        -0.62584E-11         0.00000E+00
    0.26357E-07        -0.60698E-11         0.00000E+00
    0.26764E-07        -0.58000E-11         0.00000E+00
    0.27158E-07        -0.54373E-11         0.00000E+00
    0.27539E-07        -0.49692E-11         0.00000E+00
    0.27905E-07        -0.43830E-11         0.00000E+00
    0.28254E-07        -0.36668E-11         0.00000E+00
    0.28586E-07        -0.28103E-11         0.00000E+00
    0.28898E-07        -0.18071E-11         0.00000E+00
    0.29190E-07        -0.65723E-12         0.00000E+00
    0.29459E-07         0.62930E-12         0.00000E+00
    0.29706E-07         0.20269E-11         0.00000E+00
    0.29927E-07         0.34879E-11         0.00000E+00
    0.30123E-07         0.49328E-11         0.00000E+00
    0.30291E-07         0.62394E-11         0.00000E+00
    0.30432E-07         0.72287E-11         0.00000E+00
    0.30543E-07         0.76527E-11         0.00000E+00
    0.30624E-07         0.71903E-11         0.00000E+00
    0.30676E-07         0.54680E-11         0.00000E+00
    0.30696E-07         0.21216E-11         0.00000E+00
    0.43654E-08         0.67460E-12         0.00000E+00
    0.43678E-08         0.17859E-11         0.00000E+00
    0.43762E-08         0.24718E-11         0.00000E+00
    0.43910E-08         0.28336E-11         0.00000E+00
    0.44120E-08         0.29668E-11         0.00000E+00
    0.44392E-08         0.29491E-11         0.00000E+00
    0.44728E-08         0.28390E-11         0.00000E+00
    0.45127E-08         0.26777E-11         0.00000E+00
    0.45589E-08         0.24933E-11         0.00000E+00
    0.46115E-08         0.23039E-11         0.00000E+00
    0.46705E-08         0.21209E-11         0.00000E+00
    0.47359E-08         0.19504E-11         0.00000E+00
    0.48077E-08         0.17956E-11         0.00000E+00
    0.48860E-08         0.16574E-11         0.00000E+00
    0.49708E-08         0.15351E-11         0.00000E+00
    0.50622E-08         0.14277E-11         0.00000E+00
    0.51602E-08         0.13333E-11         0.00000E+00
    0.52649E-08         0.12502E-11         0.00000E+00
    0.53763E-08         0.11766E-11         0.00000E+00
    0.54944E-08         0.11107E-11         0.00000E+00
    0.56194E-08         0.10510E-11         0.00000E+00
    0.57513E-08         0.99620E-12         0.00000E+00
    0.58902E-08         0.94494E-12         0.00000E+00
    0.60361E-08         0.89622E-12         0.00000E+00
    0.61891E-08         0.84910E-12         0.00000E+00
    0.63492E-08         0.80278E-12         0.00000E+00
    0.65167E-08         0.75656E-12         0.00000E+00
    0.66914E-08         0.70980E-12         0.00000E+00
    0.68736E-08         0.66196E-12         0.00000E+00
    0.70632E-08         0.61254E-12         0.00000E+00
    0.72604E-08         0.56109E-12         0.00000E+00
    0.74652E-08         0.50718E-12         0.00000E+00
    0.76778E-08         0.45043E-12         0.00000E+00
    0.78980E-08         0.39047E-12         0.00000E+00
    0.81262E-08         0.32696E-12         0.00000E+00
    0.83622E-08         0.25955E-12         0.00000E+00
    0.86062E-08         0.18793E-12         0.00000E+00
    0.88582E-08         0.11180E-12         0.00000E+00
    0.91183E-08         0.30863E-13         0.00000E+00
    0.93865E-08        -0.55154E-13         0.00000E+00
    0.96629E-08        -0.14652E-12         0.00000E+00
    0.99474E-08        -0.24348E-12         0.00000E+00
    0.10240E-07        -0.34629E-12         0.00000E+00
    0.10541E-07        -0.45514E-12         0.00000E+00
    0.10850E-07        -0.57025E-12         0.00000E+00
    0.11168E-07        -0.69180E-12         0.00000E+00
    0.11494E-07        -0.81994E-12         0.00000E+00
    0.11828E-07        -0.95480E-12         0.00000E+00
    0.12170E-07        -0.10965E-11         0.00000E+00
    0.12520E-07        -0.12451E-11         0.00000E+00
    0.12878E-07        -0.14006E-11         0.00000E+00
    0.13244E-07        -0.15631E-11         0.00000E+00
    0.13618E-07        -0.17325E-11         0.00000E+00
    0.13999E-07        -0.19087E-11         0.00000E+00
    0.14389E-07        -0.20915E-11         0.00000E+00
    0.14785E-07        -0.22809E-11         0.00000E+00
    0.15189E-07        -0.24764E-11         0.00000E+00
    0.15599E-07        -0.26778E-11         0.00000E+00
    0.16016E-07        -0.28847E-11         0.00000E+00
    0.16440E-07        -0.30966E-11         0.00000E+00
    0.16870E-07        -0.33129E-11         0.00000E+00
    0.17305E-07        -0.35329E-11         0.00000E+00
    0.17746E-07        -0.37559E-11         0.00000E+00
    0.18192E-07        -0.39809E-11         0.00000E+00
    0.18642E-07        -0.42070E-11         0.00000E+00
    0.19097E-07        -0.44328E-11         0.00000E+00
    0.19555E-07        -0.46572E-11         0.00000E+00
    0.20016E-07        -0.48785E-11         0.00000E+00
    0.20479E-07        -0.50950E-11         0.00000E+00
    0.20944E-07        -0.53047E-11         0.00000E+00
    0.21410E-07        -0.55054E-11         0.00000E+00
    0.21876E-07        -0.56945E-11         0.00000E+00
    0.22342E-07        -0.58691E-11         0.00000E+00
    0.22806E-07        -0.60259E-11         0.00000E+00
    0.23269E-07        -0.61610E-11         0.00000E+00
    0.23728E-07        -0.62700E-11         0.00000E+00
    0.24182E-07        -0.63479E-11         0.00000E+00
    0.24632E-07        -0.63889E-11         0.00000E+00
    0.25076E-07        -0.63863E-11         0.00000E+00
    0.25512E-07        -0.63325E-11         0.00000E+00
    0.25939E-07        -0.62188E-11         0.00000E+00
    0.26357E-07        -0.60356E-11         0.00000E+00
    0.26764E-07        -0.57720E-11         0.00000E+00
    0.27158E-07        -0.54163E-11         0.00000E+00
    0.27539E-07        -0.49559E-11         0.00000E+00
    0.27905E-07        -0.43782E-11         0.00000E+00
    0.28254E-07        -0.36709E-11         0.00000E+00
    0.28586E-07        -0.28236E-11         0.00000E+00
    0.28898E-07        -0.18297E-11         0.00000E+00
    0.29190E-07        -0.68852E-12         0.00000E+00
    0.29460E-07         0.59032E-12         0.00000E+00
    0.29706E-07         0.19822E-11         0.00000E+00
    0.29927E-07         0.34404E-11         0.00000E+00
    0.30123E-07         0.48871E-11         0.00000E+00
    0.30292E-07         0.62014E-11         0.00000E+00
    0.30432E-07         0.72057E-11         0.00000E+00
    0.30543E-07         0.76514E-11         0.00000E+00
    0.30624E-07         0.72127E-11         0.00000E+00
    0.30675E-07         0.55035E-11         0.00000E+00
    0.30696E-07         0.21403E-11         0.00000E+00
    0.43657E-08         0.67378E-12         0.00000E+00
    0.43679E-08         0.17799E-11         0.00000E+00
    0.43763E-08         0.24558E-11         0.00000E+00
    0.43910E-08         0.28074E-11         0.00000E+00
    0.44120E-08         0.29325E-11         0.00000E+00
    0.44392E-08         0.29095E-11         0.00000E+00
    0.44728E-08         0.27964E-11         0.00000E+00
    0.45127E-08         0.26341E-11         0.00000E+00
    0.45589E-08         0.24499E-11         0.00000E+00
    0.46115E-08         0.22616E-11         0.00000E+00
    0.46704E-08         0.20802E-11         0.00000E+00
    0.47358E-08         0.19117E-11         0.00000E+00
    0.48077E-08         0.17591E-11         0.00000E+00
    0.48860E-08         0.16230E-11         0.00000E+00
    0.49708E-08         0.15029E-11         0.00000E+00
    0.50622E-08         0.13975E-11         0.00000E+00
    0.51602E-08         0.13052E-11         0.00000E+00
    0.52649E-08         0.12240E-11         0.00000E+00
    0.53763E-08         0.11521E-11         0.00000E+00
    0.54944E-08         0.10879E-11         0.00000E+00
    0.56194E-08         0.10298E-11         0.00000E+00
    0.57513E-08         0.97645E-12         0.00000E+00
    0.58902E-08         0.92660E-12         0.00000E+00
    0.60361E-08         0.87922E-12         0.00000E+00
    0.61891E-08         0.83338E-12         0.00000E+00
    0.63492E-08         0.78830E-12         0.00000E+00
    0.65167E-08         0.74328E-12         0.00000E+00
    0.66914E-08         0.69771E-12         0.00000E+00
    0.68736E-08         0.65105E-12         0.00000E+00
    0.70632E-08         0.60281E-12         0.00000E+00
    0.72604E-08         0.55254E-12         0.00000E+00
    0.74652E-08         0.49984E-12         0.00000E+00
    0.76777E-08         0.44432E-12         0.00000E+00
    0.78980E-08         0.38562E-12         0.00000E+00
    0.81262E-08         0.32341E-12         0.00000E+00
    0.83622E-08         0.25734E-12         0.00000E+00
    0.86062E-08         0.18712E-12         0.00000E+00
    0.88582E-08         0.11244E-12         0.00000E+00
    0.91183E-08         0.33023E-13         0.00000E+00
    0.93865E-08        -0.51416E-13         0.00000E+00
    0.96629E-08        -0.14113E-12         0.00000E+00
    0.99474E-08        -0.23638E-12         0.00000E+00
    0.10240E-07        -0.33739E-12         0.00000E+00
    0.10541E-07        -0.44437E-12         0.00000E+00
    0.10850E-07        -0.55753E-12         0.00000E+00
    0.11168E-07        -0.67704E-12         0.00000E+00
    0.11494E-07        -0.80307E-12         0.00000E+00
    0.11828E-07        -0.93574E-12         0.00000E+00
    0.12170E-07        -0.10752E-11         0.00000E+00
    0.12520E-07        -0.12214E-11         0.00000E+00
    0.12878E-07        -0.13745E-11         0.00000E+00
    0.13244E-07        -0.15345E-11         0.00000E+00
    0.13618E-07        -0.17013E-11         0.00000E+00
    0.13999E-07        -0.18748E-11         0.00000E+00
    0.14389E-07        -0.20550E-11         0.00000E+00
    0.14785E-07        -0.22416E-11         0.00000E+00
    0.15189E-07        -0.24343E-11         0.00000E+00
    0.15599E-07        -0.26329E-11         0.00000E+00
    0.16016E-07        -0.28369E-11         0.00000E+00
    0.16440E-07        -0.30460E-11         0.00000E+00
    0.16870E-07        -0.32594E-11         0.00000E+00
    0.17305E-07        -0.34766E-11         0.00000E+00
    0.17746E-07        -0.36968E-11         0.00000E+00
    0.18192E-07        -0.39192E-11         0.00000E+00
    0.18642E-07        -0.41426E-11         0.00000E+00
    0.19097E-07        -0.43660E-11         0.00000E+00
    0.19555E-07        -0.45880E-11         0.00000E+00
    0.20016E-07        -0.48071E-11         0.00000E+00
    0.20479E-07        -0.50216E-11         0.00000E+00
    0.20944E-07        -0.52297E-11         0.00000E+00
    0.21410E-07        -0.54290E-11         0.00000E+00
    0.21876E-07        -0.56171E-11         0.00000E+00
    0.22342E-07        -0.57911E-11         0.00000E+00
    0.22806E-07        -0.59477E-11         0.00000E+00
    0.23268E-07        -0.60831E-11         0.00000E+00
    0.23728E-07        -0.61931E-11         0.00000E+00
    0.24182E-07        -0.62726E-11         0.00000E+00
    0.24632E-07        -0.63160E-11         0.00000E+00
    0.25076E-07        -0.63165E-11         0.00000E+00
    0.25512E-07        -0.62668E-11         0.00000E+00
    0.25939E-07        -0.61582E-11         0.00000E+00
    0.26357E-07        -0.59810E-11         0.00000E+00
    0.26764E-07        -0.57246E-11         0.00000E+00
    0.27159E-07        -0.53771E-11         0.00000E+00
    0.27539E-07        -0.49262E-11         0.00000E+00
    0.27905E-07        -0.43589E-11         0.00000E+00
    0.28255E-07        -0.36632E-11         0.00000E+00
    0.28586E-07        -0.28282E-11         0.00000E+00
    0.28898E-07        -0.18471E-11         0.00000E+00
    0.29190E-07        -0.71885E-12         0.00000E+00
    0.29460E-07         0.54778E-12         0.00000E+00
    0.29706E-07         0.19291E-11         0.00000E+00
    0.29928E-07         0.33797E-11         0.00000E+00
    0.30123E-07         0.48236E-11         0.00000E+00
    0.30292E-07         0.61421E-11         0.00000E+00
    0.30432E-07         0.71598E-11         0.00000E+00
    0.30543E-07         0.76285E-11         0.00000E+00
    0.30624E-07         0.72179E-11         0.00000E+00
    0.30675E-07         0.55290E-11         0.00000E+00
    0.30695E-07         0.21559E-11         0.00000E+00
    0.43660E-08         0.67161E-12         0.00000E+00
    0.43681E-08         0.17696E-11         0.00000E+00
    0.43764E-08         0.24330E-11         0.00000E+00
    0.43911E-08         0.27726E-11         0.00000E+00
    0.44120E-08         0.28886E-11         0.00000E+00
    0.44392E-08         0.28600E-11         0.00000E+00
    0.44727E-08         0.27442E-11         0.00000E+00
    0.45126E-08         0.25813E-11         0.00000E+00
    0.45588E-08         0.23979E-11         0.00000E+00
    0.46114E-08         0.22115E-11         0.00000E+00
    0.46704E-08         0.20324E-11         0.00000E+00
    0.47358E-08         0.18665E-11         0.00000E+00
    0.48076E-08         0.17165E-11         0.00000E+00
    0.48860E-08         0.15831E-11         0.00000E+00
    0.49708E-08         0.14657E-11         0.00000E+00
    0.50622E-08         0.13628E-11         0.00000E+00
    0.51602E-08         0.12727E-11         0.00000E+00
    0.52649E-08         0.11937E-11         0.00000E+00
    0.53762E-08         0.11238E-11         0.00000E+00
    0.54944E-08         0.10615E-11         0.00000E+00
    0.56194E-08         0.10052E-11         0.00000E+00
    0.57513E-08         0.95349E-12         0.00000E+00
    0.58902E-08         0.90520E-12         0.00000E+00
    0.60360E-08         0.85930E-12         0.00000E+00
    0.61890E-08         0.81489E-12         0.00000E+00
    0.63492E-08         0.77119E-12         0.00000E+00
    0.65167E-08         0.72752E-12         0.00000E+00
    0.66914E-08         0.68328E-12         0.00000E+00
    0.68736E-08         0.63794E-12         0.00000E+00
    0.70632E-08         0.59103E-12         0.00000E+00
    0.72604E-08         0.54211E-12         0.00000E+00
    0.74652E-08         0.49079E-12         0.00000E+00
    0.76777E-08         0.43668E-12         0.00000E+00
    0.78980E-08         0.37943E-12         0.00000E+00
    0.81261E-08         0.31872E-12         0.00000E+00
    0.83622E-08         0.25421E-12         0.00000E+00
    0.86062E-08         0.18562E-12         0.00000E+00
    0.88582E-08         0.11264E-12         0.00000E+00
    0.91183E-08         0.34998E-13         0.00000E+00
    0.93865E-08        -0.47583E-13         0.00000E+00
    0.96628E-08        -0.13536E-12         0.00000E+00
    0.99474E-08        -0.22856E-12         0.00000E+00
    0.10240E-07        -0.32744E-12         0.00000E+00
    0.10541E-07        -0.43219E-12         0.00000E+00
    0.10850E-07        -0.54302E-12         0.00000E+00
    0.11168E-07        -0.66009E-12         0.00000E+00
    0.11494E-07        -0.78358E-12         0.00000E+00
    0.11828E-07        -0.91361E-12         0.00000E+00
    0.12170E-07        -0.10503E-11         0.00000E+00
    0.12520E-07        -0.11937E-11         0.00000E+00
    0.12878E-07        -0.13438E-11         0.00000E+00
    0.13244E-07        -0.15007E-11         0.00000E+00
    0.13618E-07        -0.16644E-11         0.00000E+00
    0.13999E-07        -0.18347E-11         0.00000E+00
    0.14388E-07        -0.20116E-11         0.00000E+00
    0.14785E-07        -0.21947E-11         0.00000E+00
    0.15189E-07        -0.23840E-11         0.00000E+00
    0.15599E-07        -0.25791E-11         0.00000E+00
    0.16016E-07        -0.27796E-11         0.00000E+00
    0.16440E-07        -0.29851E-11         0.00000E+00
    0.16870E-07        -0.31949E-11         0.00000E+00
    0.17305E-07        -0.34086E-11         0.00000E+00
    0.17746E-07        -0.36253E-11         0.00000E+00
    0.18192E-07        -0.38441E-11         0.00000E+00
    0.18642E-07        -0.40641E-11         0.00000E+00
    0.19097E-07        -0.42842E-11         0.00000E+00
    0.19555E-07        -0.45031E-11         0.00000E+00
    0.20016E-07        -0.47193E-11         0.00000E+00
    0.20479E-07        -0.49311E-11         0.00000E+00
    0.20944E-07        -0.51367E-11         0.00000E+00
    0.21410E-07        -0.53339E-11         0.00000E+00
    0.21876E-07        -0.55203E-11         0.00000E+00
    0.22342E-07        -0.56930E-11         0.00000E+00
    0.22806E-07        -0.58489E-11         0.00000E+00
    0.23268E-07        -0.59842E-11         0.00000E+00
    0.23728E-07        -0.60947E-11         0.00000E+00
    0.24182E-07        -0.61755E-11         0.00000E+00
    0.24632E-07        -0.62210E-11         0.00000E+00
    0.25076E-07        -0.62247E-11         0.00000E+00
    0.25512E-07        -0.61791E-11         0.00000E+00
    0.25939E-07        -0.60759E-11         0.00000E+00
    0.26357E-07        -0.59055E-11         0.00000E+00
    0.26764E-07        -0.56571E-11         0.00000E+00
    0.27159E-07        -0.53192E-11         0.00000E+00
    0.27539E-07        -0.48793E-11         0.00000E+00
    0.27905E-07        -0.43247E-11         0.00000E+00
    0.28255E-07        -0.36430E-11         0.00000E+00
    0.28586E-07        -0.28236E-11         0.00000E+00
    0.28899E-07        -0.18589E-11         0.00000E+00
    0.29190E-07        -0.74772E-12         0.00000E+00
    0.29460E-07         0.50204E-12         0.00000E+00
    0.29706E-07         0.18678E-11         0.00000E+00
    0.29928E-07         0.33058E-11         0.00000E+00
    0.30124E-07         0.47422E-11         0.00000E+00
    0.30292E-07         0.60611E-11         0.00000E+00
    0.30432E-07         0.70901E-11         0.00000E+00
    0.30543E-07         0.75827E-11         0.00000E+00
    0.30624E-07         0.72047E-11         0.00000E+00
    0.30674E-07         0.55435E-11         0.00000E+00
    0.30694E-07         0.21682E-11         0.00000E+00
    0.43662E-08         0.66798E-12         0.00000E+00
    0.43683E-08         0.17549E-11         0.00000E+00
    0.43765E-08         0.24031E-11         0.00000E+00
    0.43911E-08         0.27288E-11         0.00000E+00
    0.44120E-08         0.28349E-11         0.00000E+00
    0.44392E-08         0.28005E-11         0.00000E+00
    0.44727E-08         0.26823E-11         0.00000E+00
    0.45126E-08         0.25193E-11         0.00000E+00
    0.45588E-08         0.23375E-11         0.00000E+00
    0.46114E-08         0.21535E-11         0.00000E+00
    0.46704E-08         0.19774E-11         0.00000E+00
    0.47358E-08         0.18148E-11         0.00000E+00
    0.48076E-08         0.16681E-11         0.00000E+00
    0.48859E-08         0.15379E-11         0.00000E+00
    0.49708E-08         0.14234E-11         0.00000E+00
    0.50622E-08         0.13234E-11         0.00000E+00
    0.51602E-08         0.12360E-11         0.00000E+00
    0.52649E-08         0.11594E-11         0.00000E+00
    0.53762E-08         0.10918E-11         0.00000E+00
    0.54944E-08         0.10316E-11         0.00000E+00
    0.56194E-08         0.97724E-12         0.00000E+00
    0.57513E-08         0.92735E-12         0.00000E+00
    0.58901E-08         0.88077E-12         0.00000E+00
    0.60360E-08         0.83650E-12         0.00000E+00
    0.61890E-08         0.79365E-12         0.00000E+00
    0.63492E-08         0.75147E-12         0.00000E+00
    0.65166E-08         0.70928E-12         0.00000E+00
    0.66914E-08         0.66651E-12         0.00000E+00
    0.68736E-08         0.62264E-12         0.00000E+00
    0.70632E-08         0.57721E-12         0.00000E+00
    0.72604E-08         0.52980E-12         0.00000E+00
    0.74652E-08         0.48001E-12         0.00000E+00
    0.76777E-08         0.42748E-12         0.00000E+00
    0.78980E-08         0.37188E-12         0.00000E+00
    0.81261E-08         0.31287E-12         0.00000E+00
    0.83622E-08         0.25014E-12         0.00000E+00
    0.86062E-08         0.18340E-12         0.00000E+00
    0.88582E-08         0.11237E-12         0.00000E+00
    0.91182E-08         0.36758E-13         0.00000E+00
    0.93865E-08        -0.43685E-13         0.00000E+00
    0.96628E-08        -0.12921E-12         0.00000E+00
    0.99474E-08        -0.22007E-12         0.00000E+00
    0.10240E-07        -0.31647E-12         0.00000E+00
    0.10541E-07        -0.41864E-12         0.00000E+00
    0.10850E-07        -0.52675E-12         0.00000E+00
    0.11168E-07        -0.64100E-12         0.00000E+00
    0.11494E-07        -0.76152E-12         0.00000E+00
    0.11828E-07        -0.88845E-12         0.00000E+00
    0.12170E-07        -0.10219E-11         0.00000E+00
    0.12520E-07        -0.11620E-11         0.00000E+00
    0.12878E-07        -0.13086E-11         0.00000E+00
    0.13244E-07        -0.14620E-11         0.00000E+00
    0.13618E-07        -0.16219E-11         0.00000E+00
    0.13999E-07        -0.17884E-11         0.00000E+00
    0.14388E-07        -0.19613E-11         0.00000E+00
    0.14785E-07        -0.21404E-11         0.00000E+00
    0.15188E-07        -0.23256E-11         0.00000E+00
    0.15599E-07        -0.25165E-11         0.00000E+00
    0.16016E-07        -0.27127E-11         0.00000E+00
    0.16440E-07        -0.29139E-11         0.00000E+00
    0.16870E-07        -0.31194E-11         0.00000E+00
    0.17305E-07        -0.33287E-11         0.00000E+00
    0.17746E-07        -0.35411E-11         0.00000E+00
    0.18192E-07        -0.37557E-11         0.00000E+00
    0.18642E-07        -0.39715E-11         0.00000E+00
    0.19097E-07        -0.41875E-11         0.00000E+00
    0.19555E-07        -0.44025E-11         0.00000E+00
    0.20015E-07        -0.46149E-11         0.00000E+00
    0.20479E-07        -0.48232E-11         0.00000E+00
    0.20944E-07        -0.50256E-11         0.00000E+00
    0.21410E-07        -0.52200E-11         0.00000E+00
    0.21876E-07        -0.54039E-11         0.00000E+00
    0.22342E-07        -0.55747E-11         0.00000E+00
    0.22806E-07        -0.57292E-11         0.00000E+00
    0.23268E-07        -0.58638E-11         0.00000E+00
    0.23727E-07        -0.59744E-11         0.00000E+00
    0.24182E-07        -0.60562E-11         0.00000E+00
    0.24632E-07        -0.61036E-11         0.00000E+00
    0.25076E-07        -0.61104E-11         0.00000E+00
    0.25512E-07        -0.60692E-11         0.00000E+00
    0.25939E-07        -0.59717E-11         0.00000E+00
    0.26357E-07        -0.58085E-11         0.00000E+00
    0.26764E-07        -0.55691E-11         0.00000E+00
    0.27159E-07        -0.52420E-11         0.00000E+00
    0.27540E-07        -0.48148E-11         0.00000E+00
    0.27905E-07        -0.42749E-11         0.00000E+00
    0.28255E-07        -0.36099E-11         0.00000E+00
    0.28586E-07        -0.28090E-11         0.00000E+00
    0.28899E-07        -0.18645E-11         0.00000E+00
    0.29191E-07        -0.77459E-12         0.00000E+00
    0.29460E-07         0.45355E-12         0.00000E+00
    0.29707E-07         0.17986E-11         0.00000E+00
    0.29928E-07         0.32187E-11         0.00000E+00
    0.30124E-07         0.46425E-11         0.00000E+00
    0.30292E-07         0.59577E-11         0.00000E+00
    0.30432E-07         0.69956E-11         0.00000E+00
    0.30543E-07         0.75124E-11         0.00000E+00
    0.30624E-07         0.71714E-11         0.00000E+00
    0.30674E-07         0.55458E-11         0.00000E+00
    0.30693E-07         0.21767E-11         0.00000E+00
    0.43665E-08         0.66278E-12         0.00000E+00
    0.43684E-08         0.17355E-11         0.00000E+00
    0.43766E-08         0.23656E-11         0.00000E+00
    0.43911E-08         0.26757E-11         0.00000E+00
    0.44120E-08         0.27711E-11         0.00000E+00
    0.44392E-08         0.27309E-11         0.00000E+00
    0.44727E-08         0.26107E-11         0.00000E+00
    0.45125E-08         0.24482E-11         0.00000E+00
    0.45588E-08         0.22687E-11         0.00000E+00
    0.46114E-08         0.20879E-11         0.00000E+00
    0.46703E-08         0.19155E-11         0.00000E+00
    0.47357E-08         0.17567E-11         0.00000E+00
    0.48076E-08         0.16138E-11         0.00000E+00
    0.48859E-08         0.14873E-11         0.00000E+00
    0.49707E-08         0.13763E-11         0.00000E+00
    0.50622E-08         0.12795E-11         0.00000E+00
    0.51602E-08         0.11951E-11         0.00000E+00
    0.52648E-08         0.11212E-11         0.00000E+00
    0.53762E-08         0.10561E-11         0.00000E+00
    0.54944E-08         0.99822E-12         0.00000E+00
    0.56194E-08         0.94597E-12         0.00000E+00
    0.57513E-08         0.89806E-12         0.00000E+00
    0.58901E-08         0.85334E-12         0.00000E+00
    0.60360E-08         0.81084E-12         0.00000E+00
    0.61890E-08         0.76969E-12         0.00000E+00
    0.63492E-08         0.72915E-12         0.00000E+00
    0.65166E-08         0.68858E-12         0.00000E+00
    0.66914E-08         0.64741E-12         0.00000E+00
    0.68736E-08         0.60515E-12         0.00000E+00
    0.70632E-08         0.56134E-12         0.00000E+00
    0.72604E-08         0.51559E-12         0.00000E+00
    0.74652E-08         0.46750E-12         0.00000E+00
    0.76777E-08         0.41673E-12         0.00000E+00
    0.78980E-08         0.36294E-12         0.00000E+00
    0.81261E-08         0.30583E-12         0.00000E+00
    0.83621E-08         0.24510E-12         0.00000E+00
    0.86061E-08         0.18044E-12         0.00000E+00
    0.88581E-08         0.11159E-12         0.00000E+00
    0.91182E-08         0.38277E-13         0.00000E+00
    0.93864E-08        -0.39753E-13         0.00000E+00
    0.96628E-08        -0.12274E-12         0.00000E+00
    0.99474E-08        -0.21093E-12         0.00000E+00
    0.10240E-07        -0.30453E-12         0.00000E+00
    0.10541E-07        -0.40375E-12         0.00000E+00
    0.10850E-07        -0.50877E-12         0.00000E+00
    0.11168E-07        -0.61978E-12         0.00000E+00
    0.11494E-07        -0.73691E-12         0.00000E+00
    0.11827E-07        -0.86031E-12         0.00000E+00
    0.12170E-07        -0.99007E-12         0.00000E+00
    0.12520E-07        -0.11263E-11         0.00000E+00
    0.12878E-07        -0.12690E-11         0.00000E+00
    0.13244E-07        -0.14181E-11         0.00000E+00
    0.13618E-07        -0.15738E-11         0.00000E+00
    0.13999E-07        -0.17358E-11         0.00000E+00
    0.14388E-07        -0.19042E-11         0.00000E+00
    0.14785E-07        -0.20787E-11         0.00000E+00
    0.15188E-07        -0.22590E-11         0.00000E+00
    0.15599E-07        -0.24450E-11         0.00000E+00
    0.16016E-07        -0.26363E-11         0.00000E+00
    0.16440E-07        -0.28324E-11         0.00000E+00
    0.16870E-07        -0.30329E-11         0.00000E+00
    0.17305E-07        -0.32371E-11         0.00000E+00
    0.17746E-07        -0.34443E-11         0.00000E+00
    0.18192E-07        -0.36538E-11         0.00000E+00
    0.18642E-07        -0.38647E-11         0.00000E+00
    0.19097E-07        -0.40758E-11         0.00000E+00
    0.19555E-07        -0.42860E-11         0.00000E+00
    0.20015E-07        -0.44939E-11         0.00000E+00
    0.20479E-07        -0.46979E-11         0.00000E+00
    0.20944E-07        -0.48963E-11         0.00000E+00
    0.21410E-07        -0.50871E-11         0.00000E+00
    0.21876E-07        -0.52679E-11         0.00000E+00
    0.22342E-07        -0.54360E-11         0.00000E+00
    0.22806E-07        -0.55885E-11         0.00000E+00
    0.23268E-07        -0.57219E-11         0.00000E+00
    0.23727E-07        -0.58321E-11         0.00000E+00
    0.24182E-07        -0.59144E-11         0.00000E+00
    0.24632E-07        -0.59635E-11         0.00000E+00
    0.25076E-07        -0.59732E-11         0.00000E+00
    0.25512E-07        -0.59364E-11         0.00000E+00
    0.25939E-07        -0.58449E-11         0.00000E+00
    0.26357E-07        -0.56895E-11         0.00000E+00
    0.26764E-07        -0.54599E-11         0.00000E+00
    0.27159E-07        -0.51448E-11         0.00000E+00
    0.27540E-07        -0.47319E-11         0.00000E+00
    0.27905E-07        -0.42087E-11         0.00000E+00
    0.28255E-07        -0.35630E-11         0.00000E+00
    0.28587E-07        -0.27838E-11         0.00000E+00
    0.28899E-07        -0.18632E-11         0.00000E+00
    0.29191E-07        -0.79887E-12         0.00000E+00
    0.29461E-07         0.40281E-12         0.00000E+00
    0.29707E-07         0.17219E-11         0.00000E+00
    0.29929E-07         0.31186E-11         0.00000E+00
    0.30124E-07         0.45245E-11         0.00000E+00
    0.30293E-07         0.58312E-11         0.00000E+00
    0.30432E-07         0.68750E-11         0.00000E+00
    0.30543E-07         0.74159E-11         0.00000E+00
    0.30623E-07         0.71162E-11         0.00000E+00
    0.30673E-07         0.55344E-11         0.00000E+00
    0.30692E-07         0.21809E-11         0.00000E+00
    0.43668E-08         0.65589E-12         0.00000E+00
    0.43686E-08         0.17109E-11         0.00000E+00
    0.43767E-08         0.23202E-11         0.00000E+00
    0.43912E-08         0.26129E-11         0.00000E+00
    0.44120E-08         0.26970E-11         0.00000E+00
    0.44391E-08         0.26510E-11         0.00000E+00
    0.44727E-08         0.25292E-11         0.00000E+00
    0.45125E-08         0.23680E-11         0.00000E+00
    0.45587E-08         0.21914E-11         0.00000E+00
    0.46113E-08         0.20146E-11         0.00000E+00
    0.46703E-08         0.18466E-11         0.00000E+00
    0.47357E-08         0.16923E-11         0.00000E+00
    0.48076E-08         0.15539E-11         0.00000E+00
    0.48859E-08         0.14315E-11         0.00000E+00
    0.49707E-08         0.13245E-11         0.00000E+00
    0.50621E-08         0.12312E-11         0.00000E+00
    0.51601E-08         0.11500E-11         0.00000E+00
    0.52648E-08         0.10792E-11         0.00000E+00
    0.53762E-08         0.10168E-11         0.00000E+00
    0.54944E-08         0.96140E-12         0.00000E+00
    0.56194E-08         0.91144E-12         0.00000E+00
    0.57513E-08         0.86566E-12         0.00000E+00
    0.58901E-08         0.82295E-12         0.00000E+00
    0.60360E-08         0.78235E-12         0.00000E+00
    0.61890E-08         0.74302E-12         0.00000E+00
    0.63492E-08         0.70425E-12         0.00000E+00
    0.65166E-08         0.66542E-12         0.00000E+00
    0.66914E-08         0.62598E-12         0.00000E+00
    0.68735E-08         0.58546E-12         0.00000E+00
    0.70632E-08         0.54342E-12         0.00000E+00
    0.72604E-08         0.49947E-12         0.00000E+00
    0.74652E-08         0.45324E-12         0.00000E+00
    0.76777E-08         0.40440E-12         0.00000E+00
    0.78980E-08         0.35262E-12         0.00000E+00
    0.81261E-08         0.29760E-12         0.00000E+00
    0.83621E-08         0.23906E-12         0.00000E+00
    0.86061E-08         0.17671E-12         0.00000E+00
    0.88581E-08         0.11028E-12         0.00000E+00
    0.91182E-08         0.39523E-13         0.00000E+00
    0.93864E-08        -0.35817E-13         0.00000E+00
    0.96628E-08        -0.11598E-12         0.00000E+00
    0.99473E-08        -0.20118E-12         0.00000E+00
    0.10240E-07        -0.29164E-12         0.00000E+00
    0.10541E-07        -0.38756E-12         0.00000E+00
    0.10850E-07        -0.48911E-12         0.00000E+00
    0.11168E-07        -0.59648E-12         0.00000E+00
    0.11494E-07        -0.70980E-12         0.00000E+00
    0.11827E-07        -0.82921E-12         0.00000E+00
    0.12170E-07        -0.95480E-12         0.00000E+00
    0.12520E-07        -0.10867E-11         0.00000E+00
    0.12878E-07        -0.12248E-11         0.00000E+00
    0.13244E-07        -0.13693E-11         0.00000E+00
    0.13618E-07        -0.15201E-11         0.00000E+00
    0.13999E-07        -0.16771E-11         0.00000E+00
    0.14388E-07        -0.18403E-11         0.00000E+00
    0.14785E-07        -0.20094E-11         0.00000E+00
    0.15188E-07        -0.21843E-11         0.00000E+00
    0.15599E-07        -0.23648E-11         0.00000E+00
    0.16016E-07        -0.25503E-11         0.00000E+00
    0.16440E-07        -0.27407E-11         0.00000E+00
    0.16870E-07        -0.29353E-11         0.00000E+00
    0.17305E-07        -0.31336E-11         0.00000E+00
    0.17746E-07        -0.33349E-11         0.00000E+00
    0.18192E-07        -0.35386E-11         0.00000E+00
    0.18642E-07        -0.37436E-11         0.00000E+00
    0.19097E-07        -0.39490E-11         0.00000E+00
    0.19554E-07        -0.41536E-11         0.00000E+00
    0.20015E-07        -0.43561E-11         0.00000E+00
    0.20479E-07        -0.45550E-11         0.00000E+00
    0.20944E-07        -0.47487E-11         0.00000E+00
    0.21410E-07        -0.49350E-11         0.00000E+00
    0.21876E-07        -0.51119E-11         0.00000E+00
    0.22342E-07        -0.52767E-11         0.00000E+00
    0.22806E-07        -0.54265E-11         0.00000E+00
    0.23268E-07        -0.55580E-11         0.00000E+00
    0.23727E-07        -0.56673E-11         0.00000E+00
    0.24182E-07        -0.57497E-11         0.00000E+00
    0.24632E-07        -0.58002E-11         0.00000E+00
    0.25076E-07        -0.58127E-11         0.00000E+00
    0.25512E-07        -0.57803E-11         0.00000E+00
    0.25940E-07        -0.56951E-11         0.00000E+00
    0.26357E-07        -0.55480E-11         0.00000E+00
    0.26764E-07        -0.53290E-11         0.00000E+00
    0.27159E-07        -0.50270E-11         0.00000E+00
    0.27540E-07        -0.46300E-11         0.00000E+00
    0.27906E-07        -0.41256E-11         0.00000E+00
    0.28255E-07        -0.35016E-11         0.00000E+00
    0.28587E-07        -0.27472E-11         0.00000E+00
    0.28899E-07        -0.18543E-11         0.00000E+00
    0.29191E-07        -0.81990E-12         0.00000E+00
    0.29461E-07         0.35037E-12         0.00000E+00
    0.29707E-07         0.16380E-11         0.00000E+00
    0.29929E-07         0.30055E-11         0.00000E+00
    0.30125E-07         0.43878E-11         0.00000E+00
    0.30293E-07         0.56811E-11         0.00000E+00
    0.30433E-07         0.67271E-11         0.00000E+00
    0.30543E-07         0.72915E-11         0.00000E+00
    0.30623E-07         0.70368E-11         0.00000E+00
    0.30673E-07         0.55077E-11         0.00000E+00
    0.30691E-07         0.21802E-11         0.00000E+00
    0.43670E-08         0.64714E-12         0.00000E+00
    0.43688E-08         0.16808E-11         0.00000E+00
    0.43768E-08         0.22662E-11         0.00000E+00
    0.43912E-08         0.25400E-11         0.00000E+00
    0.44120E-08         0.26122E-11         0.00000E+00
    0.44391E-08         0.25607E-11         0.00000E+00
    0.44726E-08         0.24379E-11         0.00000E+00
    0.45125E-08         0.22787E-11         0.00000E+00
    0.45587E-08         0.21058E-11         0.00000E+00
    0.46113E-08         0.19337E-11         0.00000E+00
    0.46703E-08         0.17709E-11         0.00000E+00
    0.47357E-08         0.16218E-11         0.00000E+00
    0.48075E-08         0.14883E-11         0.00000E+00
    0.48859E-08         0.13707E-11         0.00000E+00
    0.49707E-08         0.12679E-11         0.00000E+00
    0.50621E-08         0.11786E-11         0.00000E+00
    0.51601E-08         0.11010E-11         0.00000E+00
    0.52648E-08         0.10334E-11         0.00000E+00
    0.53762E-08         0.97396E-12         0.00000E+00
    0.54944E-08         0.92121E-12         0.00000E+00
    0.56194E-08         0.87371E-12         0.00000E+00
    0.57513E-08         0.83021E-12         0.00000E+00
    0.58901E-08         0.78963E-12         0.00000E+00
    0.60360E-08         0.75105E-12         0.00000E+00
    0.61890E-08         0.71366E-12         0.00000E+00
    0.63492E-08         0.67678E-12         0.00000E+00
    0.65166E-08         0.63981E-12         0.00000E+00
    0.66914E-08         0.60223E-12         0.00000E+00
    0.68735E-08         0.56358E-12         0.00000E+00
    0.70632E-08         0.52344E-12         0.00000E+00
    0.72604E-08         0.48144E-12         0.00000E+00
    0.74652E-08         0.43723E-12         0.00000E+00
    0.76777E-08         0.39047E-12         0.00000E+00
    0.78980E-08         0.34088E-12         0.00000E+00
    0.81261E-08         0.28815E-12         0.00000E+00
    0.83621E-08         0.23201E-12         0.00000E+00
    0.86061E-08         0.17218E-12         0.00000E+00
    0.88581E-08         0.10842E-12         0.00000E+00
    0.91182E-08         0.40467E-13         0.00000E+00
    0.93864E-08        -0.31911E-13         0.00000E+00
    0.96628E-08        -0.10895E-12         0.00000E+00
    0.99473E-08        -0.19085E-12         0.00000E+00
    0.10240E-07        -0.27784E-12         0.00000E+00
    0.10541E-07        -0.37010E-12         0.00000E+00
    0.10850E-07        -0.46781E-12         0.00000E+00
    0.11168E-07        -0.57114E-12         0.00000E+00
    0.11494E-07        -0.68023E-12         0.00000E+00
    0.11827E-07        -0.79519E-12         0.00000E+00
    0.12169E-07        -0.91614E-12         0.00000E+00
    0.12520E-07        -0.10432E-11         0.00000E+00
    0.12878E-07        -0.11763E-11         0.00000E+00
    0.13244E-07        -0.13155E-11         0.00000E+00
    0.13618E-07        -0.14609E-11         0.00000E+00
    0.13999E-07        -0.16123E-11         0.00000E+00
    0.14388E-07        -0.17696E-11         0.00000E+00
    0.14785E-07        -0.19328E-11         0.00000E+00
    0.15188E-07        -0.21015E-11         0.00000E+00
    0.15599E-07        -0.22756E-11         0.00000E+00
    0.16016E-07        -0.24548E-11         0.00000E+00
    0.16440E-07        -0.26386E-11         0.00000E+00
    0.16870E-07        -0.28266E-11         0.00000E+00
    0.17305E-07        -0.30182E-11         0.00000E+00
    0.17746E-07        -0.32129E-11         0.00000E+00
    0.18192E-07        -0.34098E-11         0.00000E+00
    0.18642E-07        -0.36082E-11         0.00000E+00
    0.19096E-07        -0.38070E-11         0.00000E+00
    0.19554E-07        -0.40052E-11         0.00000E+00
    0.20015E-07        -0.42015E-11         0.00000E+00
    0.20479E-07        -0.43944E-11         0.00000E+00
    0.20944E-07        -0.45824E-11         0.00000E+00
    0.21410E-07        -0.47636E-11         0.00000E+00
    0.21876E-07        -0.49358E-11         0.00000E+00
    0.22342E-07        -0.50965E-11         0.00000E+00
    0.22806E-07        -0.52430E-11         0.00000E+00
    0.23268E-07        -0.53720E-11         0.00000E+00
    0.23727E-07        -0.54797E-11         0.00000E+00
    0.24182E-07        -0.55619E-11         0.00000E+00
    0.24632E-07        -0.56134E-11         0.00000E+00
    0.25076E-07        -0.56285E-11         0.00000E+00
    0.25512E-07        -0.56005E-11         0.00000E+00
    0.25940E-07        -0.55217E-11         0.00000E+00
    0.26357E-07        -0.53834E-11         0.00000E+00
    0.26764E-07        -0.51757E-11         0.00000E+00
    0.27159E-07        -0.48879E-11         0.00000E+00
    0.27540E-07        -0.45083E-11         0.00000E+00
    0.27906E-07        -0.40247E-11         0.00000E+00
    0.28255E-07        -0.34251E-11         0.00000E+00
    0.28587E-07        -0.26986E-11         0.00000E+00
    0.28899E-07        -0.18370E-11         0.00000E+00
    0.29191E-07        -0.83696E-12         0.00000E+00
    0.29461E-07         0.29687E-12         0.00000E+00
    0.29708E-07         0.15475E-11         0.00000E+00
    0.29929E-07         0.28799E-11         0.00000E+00
    0.30125E-07         0.42325E-11         0.00000E+00
    0.30293E-07         0.55066E-11         0.00000E+00
    0.30433E-07         0.65506E-11         0.00000E+00
    0.30543E-07         0.71371E-11         0.00000E+00
    0.30623E-07         0.69310E-11         0.00000E+00
    0.30672E-07         0.54637E-11         0.00000E+00
    0.30690E-07         0.21738E-11         0.00000E+00
    0.43673E-08         0.63634E-12         0.00000E+00
    0.43689E-08         0.16447E-11         0.00000E+00
    0.43769E-08         0.22032E-11         0.00000E+00
    0.43912E-08         0.24564E-11         0.00000E+00
    0.44120E-08         0.25165E-11         0.00000E+00
    0.44391E-08         0.24597E-11         0.00000E+00
    0.44726E-08         0.23366E-11         0.00000E+00
    0.45124E-08         0.21802E-11         0.00000E+00
    0.45587E-08         0.20120E-11         0.00000E+00
    0.46113E-08         0.18454E-11         0.00000E+00
    0.46703E-08         0.16884E-11         0.00000E+00
    0.47357E-08         0.15452E-11         0.00000E+00
    0.48075E-08         0.14173E-11         0.00000E+00
    0.48858E-08         0.13048E-11         0.00000E+00
    0.49707E-08         0.12068E-11         0.00000E+00
    0.50621E-08         0.11218E-11         0.00000E+00
    0.51601E-08         0.10480E-11         0.00000E+00
    0.52648E-08         0.98387E-12         0.00000E+00
    0.53762E-08         0.92760E-12         0.00000E+00
    0.54944E-08         0.87771E-12         0.00000E+00
    0.56194E-08         0.83282E-12         0.00000E+00
    0.57512E-08         0.79173E-12         0.00000E+00
    0.58901E-08         0.75341E-12         0.00000E+00
    0.60360E-08         0.71697E-12         0.00000E+00
    0.61890E-08         0.68164E-12         0.00000E+00
    0.63492E-08         0.64676E-12         0.00000E+00
    0.65166E-08         0.61177E-12         0.00000E+00
    0.66914E-08         0.57617E-12         0.00000E+00
    0.68735E-08         0.53951E-12         0.00000E+00
    0.70632E-08         0.50141E-12         0.00000E+00
    0.72604E-08         0.46150E-12         0.00000E+00
    0.74652E-08         0.41945E-12         0.00000E+00
    0.76777E-08         0.37495E-12         0.00000E+00
    0.78980E-08         0.32771E-12         0.00000E+00
    0.81261E-08         0.27746E-12         0.00000E+00
    0.83621E-08         0.22392E-12         0.00000E+00
    0.86061E-08         0.16684E-12         0.00000E+00
    0.88581E-08         0.10597E-12         0.00000E+00
    0.91182E-08         0.41079E-13         0.00000E+00
    0.93864E-08        -0.28067E-13         0.00000E+00
    0.96628E-08        -0.10169E-12         0.00000E+00
    0.99473E-08        -0.17999E-12         0.00000E+00
    0.10240E-07        -0.26317E-12         0.00000E+00
    0.10541E-07        -0.35142E-12         0.00000E+00
    0.10850E-07        -0.44491E-12         0.00000E+00
    0.11168E-07        -0.54380E-12         0.00000E+00
    0.11494E-07        -0.64822E-12         0.00000E+00
    0.11827E-07        -0.75830E-12         0.00000E+00
    0.12169E-07        -0.87413E-12         0.00000E+00
    0.12520E-07        -0.99580E-12         0.00000E+00
    0.12878E-07        -0.11233E-11         0.00000E+00
    0.13244E-07        -0.12568E-11         0.00000E+00
    0.13618E-07        -0.13961E-11         0.00000E+00
    0.13999E-07        -0.15413E-11         0.00000E+00
    0.14388E-07        -0.16922E-11         0.00000E+00
    0.14785E-07        -0.18487E-11         0.00000E+00
    0.15188E-07        -0.20106E-11         0.00000E+00
    0.15599E-07        -0.21777E-11         0.00000E+00
    0.16016E-07        -0.23497E-11         0.00000E+00
    0.16440E-07        -0.25262E-11         0.00000E+00
    0.16869E-07        -0.27068E-11         0.00000E+00
    0.17305E-07        -0.28910E-11         0.00000E+00
    0.17746E-07        -0.30781E-11         0.00000E+00
    0.18192E-07        -0.32675E-11         0.00000E+00
    0.18642E-07        -0.34583E-11         0.00000E+00
    0.19096E-07        -0.36498E-11         0.00000E+00
    0.19554E-07        -0.38407E-11         0.00000E+00
    0.20015E-07        -0.40299E-11         0.00000E+00
    0.20479E-07        -0.42160E-11         0.00000E+00
    0.20944E-07        -0.43976E-11         0.00000E+00
    0.21410E-07        -0.45727E-11         0.00000E+00
    0.21876E-07        -0.47393E-11         0.00000E+00
    0.22342E-07        -0.48952E-11         0.00000E+00
    0.22806E-07        -0.50376E-11         0.00000E+00
    0.23268E-07        -0.51635E-11         0.00000E+00
    0.23727E-07        -0.52691E-11         0.00000E+00
    0.24182E-07        -0.53505E-11         0.00000E+00
    0.24632E-07        -0.54027E-11         0.00000E+00
    0.25076E-07        -0.54201E-11         0.00000E+00
    0.25512E-07        -0.53965E-11         0.00000E+00
    0.25940E-07        -0.53242E-11         0.00000E+00
    0.26357E-07        -0.51951E-11         0.00000E+00
    0.26764E-07        -0.49994E-11         0.00000E+00
    0.27159E-07        -0.47269E-11         0.00000E+00
    0.27540E-07        -0.43661E-11         0.00000E+00
    0.27906E-07        -0.39052E-11         0.00000E+00
    0.28255E-07        -0.33324E-11         0.00000E+00
    0.28587E-07        -0.26370E-11         0.00000E+00
    0.28900E-07        -0.18105E-11         0.00000E+00
    0.29192E-07        -0.84925E-12         0.00000E+00
    0.29461E-07         0.24300E-12         0.00000E+00
    0.29708E-07         0.14509E-11         0.00000E+00
    0.29929E-07         0.27418E-11         0.00000E+00
    0.30125E-07         0.40583E-11         0.00000E+00
    0.30293E-07         0.53071E-11         0.00000E+00
    0.30433E-07         0.63441E-11         0.00000E+00
    0.30543E-07         0.69506E-11         0.00000E+00
    0.30623E-07         0.67960E-11         0.00000E+00
    0.30672E-07         0.54002E-11         0.00000E+00
    0.30689E-07         0.21608E-11         0.00000E+00
    0.43675E-08         0.62325E-12         0.00000E+00
    0.43690E-08         0.16020E-11         0.00000E+00
    0.43769E-08         0.21303E-11         0.00000E+00
    0.43913E-08         0.23617E-11         0.00000E+00
    0.44120E-08         0.24095E-11         0.00000E+00
    0.44391E-08         0.23480E-11         0.00000E+00
    0.44726E-08         0.22253E-11         0.00000E+00
    0.45124E-08         0.20726E-11         0.00000E+00
    0.45586E-08         0.19099E-11         0.00000E+00
    0.46112E-08         0.17497E-11         0.00000E+00
    0.46702E-08         0.15994E-11         0.00000E+00
    0.47356E-08         0.14627E-11         0.00000E+00
    0.48075E-08         0.13409E-11         0.00000E+00
    0.48858E-08         0.12341E-11         0.00000E+00
    0.49707E-08         0.11412E-11         0.00000E+00
    0.50621E-08         0.10608E-11         0.00000E+00
    0.51601E-08         0.99121E-12         0.00000E+00
    0.52648E-08         0.93076E-12         0.00000E+00
    0.53762E-08         0.87783E-12         0.00000E+00
    0.54943E-08         0.83096E-12         0.00000E+00
    0.56193E-08         0.78882E-12         0.00000E+00
    0.57512E-08         0.75027E-12         0.00000E+00
    0.58901E-08         0.71433E-12         0.00000E+00
    0.60360E-08         0.68014E-12         0.00000E+00
    0.61890E-08         0.64697E-12         0.00000E+00
    0.63492E-08         0.61421E-12         0.00000E+00
    0.65166E-08         0.58130E-12         0.00000E+00
    0.66914E-08         0.54779E-12         0.00000E+00
    0.68735E-08         0.51325E-12         0.00000E+00
    0.70632E-08         0.47731E-12         0.00000E+00
    0.72603E-08         0.43962E-12         0.00000E+00
    0.74652E-08         0.39988E-12         0.00000E+00
    0.76777E-08         0.35780E-12         0.00000E+00
    0.78980E-08         0.31309E-12         0.00000E+00
    0.81261E-08         0.26550E-12         0.00000E+00
    0.83621E-08         0.21476E-12         0.00000E+00
    0.86061E-08         0.16064E-12         0.00000E+00
    0.88581E-08         0.10291E-12         0.00000E+00
    0.91182E-08         0.41326E-13         0.00000E+00
    0.93864E-08        -0.24317E-13         0.00000E+00
    0.96627E-08        -0.94232E-13         0.00000E+00
    0.99473E-08        -0.16862E-12         0.00000E+00
    0.10240E-07        -0.24766E-12         0.00000E+00
    0.10541E-07        -0.33155E-12         0.00000E+00
    0.10850E-07        -0.42044E-12         0.00000E+00
    0.11168E-07        -0.51449E-12         0.00000E+00
    0.11494E-07        -0.61382E-12         0.00000E+00
    0.11827E-07        -0.71856E-12         0.00000E+00
    0.12169E-07        -0.82881E-12         0.00000E+00
    0.12520E-07        -0.94463E-12         0.00000E+00
    0.12878E-07        -0.10661E-11         0.00000E+00
    0.13244E-07        -0.11932E-11         0.00000E+00
    0.13618E-07        -0.13259E-11         0.00000E+00
    0.13999E-07        -0.14642E-11         0.00000E+00
    0.14388E-07        -0.16080E-11         0.00000E+00
    0.14785E-07        -0.17572E-11         0.00000E+00
    0.15188E-07        -0.19116E-11         0.00000E+00
    0.15599E-07        -0.20710E-11         0.00000E+00
    0.16016E-07        -0.22351E-11         0.00000E+00
    0.16440E-07        -0.24035E-11         0.00000E+00
    0.16869E-07        -0.25759E-11         0.00000E+00
    0.17305E-07        -0.27518E-11         0.00000E+00
    0.17746E-07        -0.29306E-11         0.00000E+00
    0.18192E-07        -0.31116E-11         0.00000E+00
    0.18642E-07        -0.32941E-11         0.00000E+00
    0.19096E-07        -0.34772E-11         0.00000E+00
    0.19554E-07        -0.36600E-11         0.00000E+00
    0.20015E-07        -0.38412E-11         0.00000E+00
    0.20479E-07        -0.40197E-11         0.00000E+00
    0.20944E-07        -0.41939E-11         0.00000E+00
    0.21410E-07        -0.43621E-11         0.00000E+00
    0.21876E-07        -0.45224E-11         0.00000E+00
    0.22342E-07        -0.46726E-11         0.00000E+00
    0.22806E-07        -0.48102E-11         0.00000E+00
    0.23268E-07        -0.49322E-11         0.00000E+00
    0.23727E-07        -0.50351E-11         0.00000E+00
    0.24182E-07        -0.51151E-11         0.00000E+00
    0.24632E-07        -0.51676E-11         0.00000E+00
    0.25076E-07        -0.51871E-11         0.00000E+00
    0.25512E-07        -0.51677E-11         0.00000E+00
    0.25940E-07        -0.51021E-11         0.00000E+00
    0.26357E-07        -0.49824E-11         0.00000E+00
    0.26764E-07        -0.47995E-11         0.00000E+00
    0.27159E-07        -0.45432E-11         0.00000E+00
    0.27540E-07        -0.42027E-11         0.00000E+00
    0.27906E-07        -0.37664E-11         0.00000E+00
    0.28255E-07        -0.32229E-11         0.00000E+00
    0.28587E-07        -0.25615E-11         0.00000E+00
    0.28900E-07        -0.17739E-11         0.00000E+00
    0.29192E-07        -0.85593E-12         0.00000E+00
    0.29462E-07         0.18952E-12         0.00000E+00
    0.29708E-07         0.13487E-11         0.00000E+00
    0.29930E-07         0.25917E-11         0.00000E+00
    0.30125E-07         0.38652E-11         0.00000E+00
    0.30294E-07         0.50820E-11         0.00000E+00
    0.30433E-07         0.61064E-11         0.00000E+00
    0.30543E-07         0.67295E-11         0.00000E+00
    0.30623E-07         0.66286E-11         0.00000E+00
    0.30671E-07         0.53143E-11         0.00000E+00
    0.30689E-07         0.21403E-11         0.00000E+00
    0.43678E-08         0.60760E-12         0.00000E+00
    0.43692E-08         0.15519E-11         0.00000E+00
    0.43770E-08         0.20470E-11         0.00000E+00
    0.43913E-08         0.22553E-11         0.00000E+00
    0.44120E-08         0.22908E-11         0.00000E+00
    0.44391E-08         0.22254E-11         0.00000E+00
    0.44725E-08         0.21040E-11         0.00000E+00
    0.45124E-08         0.19560E-11         0.00000E+00
    0.45586E-08         0.17997E-11         0.00000E+00
    0.46112E-08         0.16468E-11         0.00000E+00
    0.46702E-08         0.15039E-11         0.00000E+00
    0.47356E-08         0.13743E-11         0.00000E+00
    0.48075E-08         0.12593E-11         0.00000E+00
    0.48858E-08         0.11586E-11         0.00000E+00
    0.49707E-08         0.10712E-11         0.00000E+00
    0.50621E-08         0.99580E-12         0.00000E+00
    0.51601E-08         0.93063E-12         0.00000E+00
    0.52648E-08         0.87412E-12         0.00000E+00
    0.53762E-08         0.82472E-12         0.00000E+00
    0.54943E-08         0.78102E-12         0.00000E+00
    0.56193E-08         0.74177E-12         0.00000E+00
    0.57512E-08         0.70588E-12         0.00000E+00
    0.58901E-08         0.67242E-12         0.00000E+00
    0.60360E-08         0.64059E-12         0.00000E+00
    0.61890E-08         0.60969E-12         0.00000E+00
    0.63492E-08         0.57913E-12         0.00000E+00
    0.65166E-08         0.54842E-12         0.00000E+00
    0.66914E-08         0.51710E-12         0.00000E+00
    0.68735E-08         0.48479E-12         0.00000E+00
    0.70632E-08         0.45113E-12         0.00000E+00
    0.72603E-08         0.41581E-12         0.00000E+00
    0.74652E-08         0.37853E-12         0.00000E+00
    0.76777E-08         0.33902E-12         0.00000E+00
    0.78979E-08         0.29701E-12         0.00000E+00
    0.81261E-08         0.25225E-12         0.00000E+00
    0.83621E-08         0.20452E-12         0.00000E+00
    0.86061E-08         0.15357E-12         0.00000E+00
    0.88581E-08         0.99199E-13         0.00000E+00
    0.91182E-08         0.41177E-13         0.00000E+00
    0.93864E-08        -0.20696E-13         0.00000E+00
    0.96627E-08        -0.86619E-13         0.00000E+00
    0.99473E-08        -0.15678E-12         0.00000E+00
    0.10240E-07        -0.23136E-12         0.00000E+00
    0.10541E-07        -0.31053E-12         0.00000E+00
    0.10850E-07        -0.39445E-12         0.00000E+00
    0.11168E-07        -0.48325E-12         0.00000E+00
    0.11493E-07        -0.57708E-12         0.00000E+00
    0.11827E-07        -0.67603E-12         0.00000E+00
    0.12169E-07        -0.78020E-12         0.00000E+00
    0.12520E-07        -0.88967E-12         0.00000E+00
    0.12878E-07        -0.10045E-11         0.00000E+00
    0.13244E-07        -0.11247E-11         0.00000E+00
    0.13618E-07        -0.12502E-11         0.00000E+00
    0.13999E-07        -0.13810E-11         0.00000E+00
    0.14388E-07        -0.15171E-11         0.00000E+00
    0.14785E-07        -0.16583E-11         0.00000E+00
    0.15188E-07        -0.18045E-11         0.00000E+00
    0.15599E-07        -0.19555E-11         0.00000E+00
    0.16016E-07        -0.21109E-11         0.00000E+00
    0.16440E-07        -0.22705E-11         0.00000E+00
    0.16869E-07        -0.24339E-11         0.00000E+00
    0.17305E-07        -0.26007E-11         0.00000E+00
    0.17746E-07        -0.27703E-11         0.00000E+00
    0.18192E-07        -0.29420E-11         0.00000E+00
    0.18642E-07        -0.31153E-11         0.00000E+00
    0.19096E-07        -0.32893E-11         0.00000E+00
    0.19554E-07        -0.34630E-11         0.00000E+00
    0.20015E-07        -0.36354E-11         0.00000E+00
    0.20479E-07        -0.38052E-11         0.00000E+00
    0.20943E-07        -0.39712E-11         0.00000E+00
    0.21410E-07        -0.41316E-11         0.00000E+00
    0.21876E-07        -0.42848E-11         0.00000E+00
    0.22342E-07        -0.44285E-11         0.00000E+00
    0.22806E-07        -0.45605E-11         0.00000E+00
    0.23268E-07        -0.46778E-11         0.00000E+00
    0.23727E-07        -0.47774E-11         0.00000E+00
    0.24182E-07        -0.48555E-11         0.00000E+00
    0.24632E-07        -0.49077E-11         0.00000E+00
    0.25076E-07        -0.49290E-11         0.00000E+00
    0.25512E-07        -0.49136E-11         0.00000E+00
    0.25940E-07        -0.48548E-11         0.00000E+00
    0.26358E-07        -0.47448E-11         0.00000E+00
    0.26764E-07        -0.45752E-11         0.00000E+00
    0.27159E-07        -0.43361E-11         0.00000E+00
    0.27540E-07        -0.40172E-11         0.00000E+00
    0.27906E-07        -0.36074E-11         0.00000E+00
    0.28256E-07        -0.30955E-11         0.00000E+00
    0.28587E-07        -0.24712E-11         0.00000E+00
    0.28900E-07        -0.17262E-11         0.00000E+00
    0.29192E-07        -0.85607E-12         0.00000E+00
    0.29462E-07         0.13728E-12         0.00000E+00
    0.29708E-07         0.12417E-11         0.00000E+00
    0.29930E-07         0.24301E-11         0.00000E+00
    0.30126E-07         0.36533E-11         0.00000E+00
    0.30294E-07         0.48308E-11         0.00000E+00
    0.30433E-07         0.58358E-11         0.00000E+00
    0.30543E-07         0.64714E-11         0.00000E+00
    0.30623E-07         0.64255E-11         0.00000E+00
    0.30671E-07         0.52029E-11         0.00000E+00
    0.30688E-07         0.21108E-11         0.00000E+00
    0.43680E-08         0.58904E-12         0.00000E+00
    0.43693E-08         0.14937E-11         0.00000E+00
    0.43771E-08         0.19522E-11         0.00000E+00
    0.43913E-08         0.21365E-11         0.00000E+00
    0.44120E-08         0.21603E-11         0.00000E+00
    0.44390E-08         0.20916E-11         0.00000E+00
    0.44725E-08         0.19727E-11         0.00000E+00
    0.45124E-08         0.18304E-11         0.00000E+00
    0.45586E-08         0.16816E-11         0.00000E+00
    0.46112E-08         0.15368E-11         0.00000E+00
    0.46702E-08         0.14021E-11         0.00000E+00
    0.47356E-08         0.12804E-11         0.00000E+00
    0.48074E-08         0.11726E-11         0.00000E+00
    0.48858E-08         0.10785E-11         0.00000E+00
    0.49706E-08         0.99709E-12         0.00000E+00
    0.50621E-08         0.92691E-12         0.00000E+00
    0.51601E-08         0.86641E-12         0.00000E+00
    0.52648E-08         0.81405E-12         0.00000E+00
    0.53762E-08         0.76834E-12         0.00000E+00
    0.54943E-08         0.72796E-12         0.00000E+00
    0.56193E-08         0.69172E-12         0.00000E+00
    0.57512E-08         0.65861E-12         0.00000E+00
    0.58901E-08         0.62773E-12         0.00000E+00
    0.60360E-08         0.59834E-12         0.00000E+00
    0.61890E-08         0.56980E-12         0.00000E+00
    0.63492E-08         0.54155E-12         0.00000E+00
    0.65166E-08         0.51313E-12         0.00000E+00
    0.66914E-08         0.48411E-12         0.00000E+00
    0.68735E-08         0.45414E-12         0.00000E+00
    0.70631E-08         0.42289E-12         0.00000E+00
    0.72603E-08         0.39006E-12         0.00000E+00
    0.74651E-08         0.35537E-12         0.00000E+00
    0.76777E-08         0.31858E-12         0.00000E+00
    0.78979E-08         0.27943E-12         0.00000E+00
    0.81261E-08         0.23770E-12         0.00000E+00
    0.83621E-08         0.19316E-12         0.00000E+00
    0.86061E-08         0.14560E-12         0.00000E+00
    0.88581E-08         0.94816E-13         0.00000E+00
    0.91182E-08         0.40600E-13         0.00000E+00
    0.93864E-08        -0.17238E-13         0.00000E+00
    0.96627E-08        -0.78884E-13         0.00000E+00
    0.99473E-08        -0.14452E-12         0.00000E+00
    0.10240E-07        -0.21430E-12         0.00000E+00
    0.10541E-07        -0.28841E-12         0.00000E+00
    0.10850E-07        -0.36697E-12         0.00000E+00
    0.11168E-07        -0.45014E-12         0.00000E+00
    0.11493E-07        -0.53802E-12         0.00000E+00
    0.11827E-07        -0.63073E-12         0.00000E+00
    0.12169E-07        -0.72836E-12         0.00000E+00
    0.12520E-07        -0.83098E-12         0.00000E+00
    0.12878E-07        -0.93863E-12         0.00000E+00
    0.13244E-07        -0.10513E-11         0.00000E+00
    0.13618E-07        -0.11691E-11         0.00000E+00
    0.13999E-07        -0.12919E-11         0.00000E+00
    0.14388E-07        -0.14196E-11         0.00000E+00
    0.14785E-07        -0.15521E-11         0.00000E+00
    0.15188E-07        -0.16894E-11         0.00000E+00
    0.15599E-07        -0.18312E-11         0.00000E+00
    0.16016E-07        -0.19772E-11         0.00000E+00
    0.16440E-07        -0.21272E-11         0.00000E+00
    0.16869E-07        -0.22808E-11         0.00000E+00
    0.17305E-07        -0.24376E-11         0.00000E+00
    0.17746E-07        -0.25972E-11         0.00000E+00
    0.18192E-07        -0.27588E-11         0.00000E+00
    0.18642E-07        -0.29220E-11         0.00000E+00
    0.19096E-07        -0.30859E-11         0.00000E+00
    0.19554E-07        -0.32496E-11         0.00000E+00
    0.20015E-07        -0.34122E-11         0.00000E+00
    0.20478E-07        -0.35726E-11         0.00000E+00
    0.20943E-07        -0.37294E-11         0.00000E+00
    0.21409E-07        -0.38812E-11         0.00000E+00
    0.21876E-07        -0.40262E-11         0.00000E+00
    0.22342E-07        -0.41626E-11         0.00000E+00
    0.22806E-07        -0.42881E-11         0.00000E+00
    0.23268E-07        -0.44002E-11         0.00000E+00
    0.23727E-07        -0.44957E-11         0.00000E+00
    0.24182E-07        -0.45712E-11         0.00000E+00
    0.24632E-07        -0.46226E-11         0.00000E+00
    0.25076E-07        -0.46453E-11         0.00000E+00
    0.25512E-07        -0.46337E-11         0.00000E+00
    0.25940E-07        -0.45816E-11         0.00000E+00
    0.26358E-07        -0.44817E-11         0.00000E+00
    0.26764E-07        -0.43258E-11         0.00000E+00
    0.27159E-07        -0.41048E-11         0.00000E+00
    0.27540E-07        -0.38088E-11         0.00000E+00
    0.27906E-07        -0.34272E-11         0.00000E+00
    0.28256E-07        -0.29493E-11         0.00000E+00
    0.28588E-07        -0.23652E-11         0.00000E+00
    0.28900E-07        -0.16665E-11         0.00000E+00
    0.29192E-07        -0.84868E-12         0.00000E+00
    0.29462E-07         0.87203E-13         0.00000E+00
    0.29709E-07         0.11307E-11         0.00000E+00
    0.29930E-07         0.22573E-11         0.00000E+00
    0.30126E-07         0.34227E-11         0.00000E+00
    0.30294E-07         0.45530E-11         0.00000E+00
    0.30434E-07         0.55311E-11         0.00000E+00
    0.30543E-07         0.61736E-11         0.00000E+00
    0.30623E-07         0.61828E-11         0.00000E+00
    0.30671E-07         0.50623E-11         0.00000E+00
    0.30687E-07         0.20709E-11         0.00000E+00
    0.43682E-08         0.56716E-12         0.00000E+00
    0.43694E-08         0.14264E-11         0.00000E+00
    0.43771E-08         0.18452E-11         0.00000E+00
    0.43913E-08         0.20049E-11         0.00000E+00
    0.44120E-08         0.20175E-11         0.00000E+00
    0.44390E-08         0.19467E-11         0.00000E+00
    0.44725E-08         0.18314E-11         0.00000E+00
    0.45123E-08         0.16958E-11         0.00000E+00
    0.45585E-08         0.15555E-11         0.00000E+00
    0.46111E-08         0.14199E-11         0.00000E+00
    0.46701E-08         0.12941E-11         0.00000E+00
    0.47356E-08         0.11809E-11         0.00000E+00
    0.48074E-08         0.10810E-11         0.00000E+00
    0.48858E-08         0.99397E-12         0.00000E+00
    0.49706E-08         0.91883E-12         0.00000E+00
    0.50620E-08         0.85422E-12         0.00000E+00
    0.51601E-08         0.79864E-12         0.00000E+00
    0.52648E-08         0.75062E-12         0.00000E+00
    0.53762E-08         0.70877E-12         0.00000E+00
    0.54943E-08         0.67184E-12         0.00000E+00
    0.56193E-08         0.63873E-12         0.00000E+00
    0.57512E-08         0.60848E-12         0.00000E+00
    0.58901E-08         0.58029E-12         0.00000E+00
    0.60360E-08         0.55343E-12         0.00000E+00
    0.61890E-08         0.52734E-12         0.00000E+00
    0.63492E-08         0.50149E-12         0.00000E+00
    0.65166E-08         0.47544E-12         0.00000E+00
    0.66913E-08         0.44883E-12         0.00000E+00
    0.68735E-08         0.42130E-12         0.00000E+00
    0.70631E-08         0.39257E-12         0.00000E+00
    0.72603E-08         0.36235E-12         0.00000E+00
    0.74651E-08         0.33040E-12         0.00000E+00
    0.76777E-08         0.29647E-12         0.00000E+00
    0.78979E-08         0.26035E-12         0.00000E+00
    0.81261E-08         0.22182E-12         0.00000E+00
    0.83621E-08         0.18067E-12         0.00000E+00
    0.86061E-08         0.13670E-12         0.00000E+00
    0.88581E-08         0.89727E-13         0.00000E+00
    0.91181E-08         0.39561E-13         0.00000E+00
    0.93863E-08        -0.13978E-13         0.00000E+00
    0.96627E-08        -0.71063E-13         0.00000E+00
    0.99473E-08        -0.13186E-12         0.00000E+00
    0.10240E-07        -0.19653E-12         0.00000E+00
    0.10541E-07        -0.26521E-12         0.00000E+00
    0.10850E-07        -0.33805E-12         0.00000E+00
    0.11168E-07        -0.41518E-12         0.00000E+00
    0.11493E-07        -0.49670E-12         0.00000E+00
    0.11827E-07        -0.58272E-12         0.00000E+00
    0.12169E-07        -0.67333E-12         0.00000E+00
    0.12519E-07        -0.76858E-12         0.00000E+00
    0.12878E-07        -0.86853E-12         0.00000E+00
    0.13244E-07        -0.97320E-12         0.00000E+00
    0.13618E-07        -0.10826E-11         0.00000E+00
    0.13999E-07        -0.11967E-11         0.00000E+00
    0.14388E-07        -0.13154E-11         0.00000E+00
    0.14785E-07        -0.14386E-11         0.00000E+00
    0.15188E-07        -0.15662E-11         0.00000E+00
    0.15599E-07        -0.16981E-11         0.00000E+00
    0.16016E-07        -0.18339E-11         0.00000E+00
    0.16440E-07        -0.19735E-11         0.00000E+00
    0.16869E-07        -0.21165E-11         0.00000E+00
    0.17305E-07        -0.22626E-11         0.00000E+00
    0.17746E-07        -0.24112E-11         0.00000E+00
    0.18192E-07        -0.25619E-11         0.00000E+00
    0.18642E-07        -0.27140E-11         0.00000E+00
    0.19096E-07        -0.28669E-11         0.00000E+00
    0.19554E-07        -0.30198E-11         0.00000E+00
    0.20015E-07        -0.31717E-11         0.00000E+00
    0.20478E-07        -0.33216E-11         0.00000E+00
    0.20943E-07        -0.34683E-11         0.00000E+00
    0.21409E-07        -0.36105E-11         0.00000E+00
    0.21876E-07        -0.37466E-11         0.00000E+00
    0.22342E-07        -0.38748E-11         0.00000E+00
    0.22806E-07        -0.39930E-11         0.00000E+00
    0.23268E-07        -0.40988E-11         0.00000E+00
    0.23727E-07        -0.41895E-11         0.00000E+00
    0.24182E-07        -0.42618E-11         0.00000E+00
    0.24632E-07        -0.43119E-11         0.00000E+00
    0.25076E-07        -0.43356E-11         0.00000E+00
    0.25512E-07        -0.43275E-11         0.00000E+00
    0.25940E-07        -0.42820E-11         0.00000E+00
    0.26358E-07        -0.41922E-11         0.00000E+00
    0.26765E-07        -0.40506E-11         0.00000E+00
    0.27159E-07        -0.38485E-11         0.00000E+00
    0.27540E-07        -0.35765E-11         0.00000E+00
    0.27906E-07        -0.32249E-11         0.00000E+00
    0.28256E-07        -0.27833E-11         0.00000E+00
    0.28588E-07        -0.22422E-11         0.00000E+00
    0.28900E-07        -0.15937E-11         0.00000E+00
    0.29192E-07        -0.83267E-12         0.00000E+00
    0.29462E-07         0.40302E-13         0.00000E+00
    0.29709E-07         0.10164E-11         0.00000E+00
    0.29930E-07         0.20742E-11         0.00000E+00
    0.30126E-07         0.31736E-11         0.00000E+00
    0.30294E-07         0.42481E-11         0.00000E+00
    0.30434E-07         0.51910E-11         0.00000E+00
    0.30544E-07         0.58334E-11         0.00000E+00
    0.30623E-07         0.58961E-11         0.00000E+00
    0.30670E-07         0.48879E-11         0.00000E+00
    0.30686E-07         0.20186E-11         0.00000E+00
    0.43685E-08         0.54144E-12         0.00000E+00
    0.43695E-08         0.13489E-11         0.00000E+00
    0.43772E-08         0.17248E-11         0.00000E+00
    0.43913E-08         0.18598E-11         0.00000E+00
    0.44119E-08         0.18621E-11         0.00000E+00
    0.44390E-08         0.17905E-11         0.00000E+00
    0.44725E-08         0.16800E-11         0.00000E+00
    0.45123E-08         0.15525E-11         0.00000E+00
    0.45585E-08         0.14218E-11         0.00000E+00
    0.46111E-08         0.12961E-11         0.00000E+00
    0.46701E-08         0.11802E-11         0.00000E+00
    0.47355E-08         0.10762E-11         0.00000E+00
    0.48074E-08         0.98460E-12         0.00000E+00
    0.48858E-08         0.90510E-12         0.00000E+00
    0.49706E-08         0.83662E-12         0.00000E+00
    0.50620E-08         0.77787E-12         0.00000E+00
    0.51601E-08         0.72743E-12         0.00000E+00
    0.52647E-08         0.68393E-12         0.00000E+00
    0.53761E-08         0.64609E-12         0.00000E+00
    0.54943E-08         0.61273E-12         0.00000E+00
    0.56193E-08         0.58285E-12         0.00000E+00
    0.57512E-08         0.55557E-12         0.00000E+00
    0.58901E-08         0.53013E-12         0.00000E+00
    0.60360E-08         0.50589E-12         0.00000E+00
    0.61890E-08         0.48232E-12         0.00000E+00
    0.63492E-08         0.45894E-12         0.00000E+00
    0.65166E-08         0.43537E-12         0.00000E+00
    0.66913E-08         0.41124E-12         0.00000E+00
    0.68735E-08         0.38627E-12         0.00000E+00
    0.70631E-08         0.36016E-12         0.00000E+00
    0.72603E-08         0.33268E-12         0.00000E+00
    0.74651E-08         0.30359E-12         0.00000E+00
    0.76776E-08         0.27268E-12         0.00000E+00
    0.78979E-08         0.23974E-12         0.00000E+00
    0.81260E-08         0.20458E-12         0.00000E+00
    0.83621E-08         0.16700E-12         0.00000E+00
    0.86060E-08         0.12684E-12         0.00000E+00
    0.88581E-08         0.83901E-13         0.00000E+00
    0.91181E-08         0.38026E-13         0.00000E+00
    0.93863E-08        -0.10952E-13         0.00000E+00
    0.96627E-08        -0.63195E-13         0.00000E+00
    0.99472E-08        -0.11885E-12         0.00000E+00
    0.10240E-07        -0.17807E-12         0.00000E+00
    0.10541E-07        -0.24099E-12         0.00000E+00
    0.10850E-07        -0.30773E-12         0.00000E+00
    0.11168E-07        -0.37842E-12         0.00000E+00
    0.11493E-07        -0.45316E-12         0.00000E+00
    0.11827E-07        -0.53204E-12         0.00000E+00
    0.12169E-07        -0.61514E-12         0.00000E+00
    0.12519E-07        -0.70253E-12         0.00000E+00
    0.12878E-07        -0.79425E-12         0.00000E+00
    0.13244E-07        -0.89032E-12         0.00000E+00
    0.13618E-07        -0.99074E-12         0.00000E+00
    0.13999E-07        -0.10955E-11         0.00000E+00
    0.14388E-07        -0.12045E-11         0.00000E+00
    0.14785E-07        -0.13177E-11         0.00000E+00
    0.15188E-07        -0.14350E-11         0.00000E+00
    0.15599E-07        -0.15562E-11         0.00000E+00
    0.16016E-07        -0.16811E-11         0.00000E+00
    0.16440E-07        -0.18095E-11         0.00000E+00
    0.16869E-07        -0.19411E-11         0.00000E+00
    0.17305E-07        -0.20755E-11         0.00000E+00
    0.17746E-07        -0.22124E-11         0.00000E+00
    0.18191E-07        -0.23512E-11         0.00000E+00
    0.18642E-07        -0.24914E-11         0.00000E+00
    0.19096E-07        -0.26324E-11         0.00000E+00
    0.19554E-07        -0.27734E-11         0.00000E+00
    0.20015E-07        -0.29136E-11         0.00000E+00
    0.20478E-07        -0.30521E-11         0.00000E+00
    0.20943E-07        -0.31878E-11         0.00000E+00
    0.21409E-07        -0.33194E-11         0.00000E+00
    0.21876E-07        -0.34456E-11         0.00000E+00
    0.22342E-07        -0.35646E-11         0.00000E+00
    0.22806E-07        -0.36747E-11         0.00000E+00
    0.23268E-07        -0.37735E-11         0.00000E+00
    0.23727E-07        -0.38586E-11         0.00000E+00
    0.24182E-07        -0.39270E-11         0.00000E+00
    0.24632E-07        -0.39752E-11         0.00000E+00
    0.25076E-07        -0.39993E-11         0.00000E+00
    0.25512E-07        -0.39945E-11         0.00000E+00
    0.25940E-07        -0.39554E-11         0.00000E+00
    0.26358E-07        -0.38759E-11         0.00000E+00
    0.26765E-07        -0.37488E-11         0.00000E+00
    0.27159E-07        -0.35663E-11         0.00000E+00
    0.27540E-07        -0.33196E-11         0.00000E+00
    0.27906E-07        -0.29995E-11         0.00000E+00
    0.28256E-07        -0.25964E-11         0.00000E+00
    0.28588E-07        -0.21013E-11         0.00000E+00
    0.28900E-07        -0.15065E-11         0.00000E+00
    0.29192E-07        -0.80691E-12         0.00000E+00
    0.29462E-07        -0.23290E-14         0.00000E+00
    0.29709E-07         0.89993E-12         0.00000E+00
    0.29931E-07         0.18812E-11         0.00000E+00
    0.30126E-07         0.29063E-11         0.00000E+00
    0.30294E-07         0.39158E-11         0.00000E+00
    0.30434E-07         0.48140E-11         0.00000E+00
    0.30544E-07         0.54480E-11         0.00000E+00
    0.30623E-07         0.55607E-11         0.00000E+00
    0.30670E-07         0.46745E-11         0.00000E+00
    0.30685E-07         0.19515E-11         0.00000E+00
    0.43687E-08         0.51123E-12         0.00000E+00
    0.43697E-08         0.12598E-11         0.00000E+00
    0.43772E-08         0.15900E-11         0.00000E+00
    0.43913E-08         0.17005E-11         0.00000E+00
    0.44119E-08         0.16939E-11         0.00000E+00
    0.44390E-08         0.16228E-11         0.00000E+00
    0.44724E-08         0.15186E-11         0.00000E+00
    0.45123E-08         0.14004E-11         0.00000E+00
    0.45585E-08         0.12804E-11         0.00000E+00
    0.46111E-08         0.11657E-11         0.00000E+00
    0.46701E-08         0.10604E-11         0.00000E+00
    0.47355E-08         0.96625E-12         0.00000E+00
    0.48074E-08         0.88363E-12         0.00000E+00
    0.48857E-08         0.81207E-12         0.00000E+00
    0.49706E-08         0.75060E-12         0.00000E+00
    0.50620E-08         0.69797E-12         0.00000E+00
    0.51601E-08         0.65289E-12         0.00000E+00
    0.52647E-08         0.61409E-12         0.00000E+00
    0.53761E-08         0.58038E-12         0.00000E+00
    0.54943E-08         0.55070E-12         0.00000E+00
    0.56193E-08         0.52414E-12         0.00000E+00
    0.57512E-08         0.49990E-12         0.00000E+00
    0.58901E-08         0.47729E-12         0.00000E+00
    0.60360E-08         0.45575E-12         0.00000E+00
    0.61890E-08         0.43477E-12         0.00000E+00
    0.63492E-08         0.41395E-12         0.00000E+00
    0.65166E-08         0.39292E-12         0.00000E+00
    0.66913E-08         0.37137E-12         0.00000E+00
    0.68735E-08         0.34904E-12         0.00000E+00
    0.70631E-08         0.32567E-12         0.00000E+00
    0.72603E-08         0.30104E-12         0.00000E+00
    0.74651E-08         0.27494E-12         0.00000E+00
    0.76776E-08         0.24718E-12         0.00000E+00
    0.78979E-08         0.21758E-12         0.00000E+00
    0.81260E-08         0.18596E-12         0.00000E+00
    0.83621E-08         0.15215E-12         0.00000E+00
    0.86060E-08         0.11598E-12         0.00000E+00
    0.88580E-08         0.77305E-13         0.00000E+00
    0.91181E-08         0.35962E-13         0.00000E+00
    0.93863E-08        -0.81978E-14         0.00000E+00
    0.96627E-08        -0.55317E-13         0.00000E+00
    0.99472E-08        -0.10553E-12         0.00000E+00
    0.10240E-07        -0.15898E-12         0.00000E+00
    0.10541E-07        -0.21578E-12         0.00000E+00
    0.10850E-07        -0.27606E-12         0.00000E+00
    0.11168E-07        -0.33991E-12         0.00000E+00
    0.11493E-07        -0.40743E-12         0.00000E+00
    0.11827E-07        -0.47872E-12         0.00000E+00
    0.12169E-07        -0.55385E-12         0.00000E+00
    0.12519E-07        -0.63286E-12         0.00000E+00
    0.12878E-07        -0.71581E-12         0.00000E+00
    0.13244E-07        -0.80271E-12         0.00000E+00
    0.13618E-07        -0.89358E-12         0.00000E+00
    0.13999E-07        -0.98838E-12         0.00000E+00
    0.14388E-07        -0.10871E-11         0.00000E+00
    0.14785E-07        -0.11896E-11         0.00000E+00
    0.15188E-07        -0.12958E-11         0.00000E+00
    0.15599E-07        -0.14056E-11         0.00000E+00
    0.16016E-07        -0.15188E-11         0.00000E+00
    0.16440E-07        -0.16352E-11         0.00000E+00
    0.16869E-07        -0.17545E-11         0.00000E+00
    0.17305E-07        -0.18765E-11         0.00000E+00
    0.17746E-07        -0.20007E-11         0.00000E+00
    0.18191E-07        -0.21267E-11         0.00000E+00
    0.18642E-07        -0.22540E-11         0.00000E+00
    0.19096E-07        -0.23821E-11         0.00000E+00
    0.19554E-07        -0.25103E-11         0.00000E+00
    0.20015E-07        -0.26379E-11         0.00000E+00
    0.20478E-07        -0.27641E-11         0.00000E+00
    0.20943E-07        -0.28877E-11         0.00000E+00
    0.21409E-07        -0.30078E-11         0.00000E+00
    0.21876E-07        -0.31231E-11         0.00000E+00
    0.22341E-07        -0.32320E-11         0.00000E+00
    0.22806E-07        -0.33330E-11         0.00000E+00
    0.23268E-07        -0.34239E-11         0.00000E+00
    0.23727E-07        -0.35026E-11         0.00000E+00
    0.24182E-07        -0.35663E-11         0.00000E+00
    0.24632E-07        -0.36120E-11         0.00000E+00
    0.25076E-07        -0.36359E-11         0.00000E+00
    0.25512E-07        -0.36339E-11         0.00000E+00
    0.25940E-07        -0.36011E-11         0.00000E+00
    0.26358E-07        -0.35319E-11         0.00000E+00
    0.26765E-07        -0.34197E-11         0.00000E+00
    0.27159E-07        -0.32574E-11         0.00000E+00
    0.27540E-07        -0.30370E-11         0.00000E+00
    0.27906E-07        -0.27500E-11         0.00000E+00
    0.28256E-07        -0.23876E-11         0.00000E+00
    0.28588E-07        -0.19413E-11         0.00000E+00
    0.28901E-07        -0.14038E-11         0.00000E+00
    0.29193E-07        -0.77015E-12         0.00000E+00
    0.29463E-07        -0.39501E-13         0.00000E+00
    0.29709E-07         0.78231E-12         0.00000E+00
    0.29931E-07         0.16794E-11         0.00000E+00
    0.30126E-07         0.26213E-11         0.00000E+00
    0.30295E-07         0.35559E-11         0.00000E+00
    0.30434E-07         0.43991E-11         0.00000E+00
    0.30544E-07         0.50146E-11         0.00000E+00
    0.30623E-07         0.51714E-11         0.00000E+00
    0.30670E-07         0.44159E-11         0.00000E+00
    0.30685E-07         0.18666E-11         0.00000E+00
    0.43689E-08         0.47571E-12         0.00000E+00
    0.43697E-08         0.11574E-11         0.00000E+00
    0.43772E-08         0.14395E-11         0.00000E+00
    0.43913E-08         0.15265E-11         0.00000E+00
    0.44119E-08         0.15125E-11         0.00000E+00
    0.44390E-08         0.14437E-11         0.00000E+00
    0.44724E-08         0.13472E-11         0.00000E+00
    0.45122E-08         0.12398E-11         0.00000E+00
    0.45585E-08         0.11316E-11         0.00000E+00
    0.46111E-08         0.10289E-11         0.00000E+00
    0.46701E-08         0.93504E-12         0.00000E+00
    0.47355E-08         0.85140E-12         0.00000E+00
    0.48074E-08         0.77823E-12         0.00000E+00
    0.48857E-08         0.71505E-12         0.00000E+00
    0.49706E-08         0.66090E-12         0.00000E+00
    0.50620E-08         0.61466E-12         0.00000E+00
    0.51600E-08         0.57513E-12         0.00000E+00
    0.52647E-08         0.54117E-12         0.00000E+00
    0.53761E-08         0.51172E-12         0.00000E+00
    0.54943E-08         0.48582E-12         0.00000E+00
    0.56193E-08         0.46267E-12         0.00000E+00
    0.57512E-08         0.44153E-12         0.00000E+00
    0.58901E-08         0.42182E-12         0.00000E+00
    0.60360E-08         0.40303E-12         0.00000E+00
    0.61890E-08         0.38471E-12         0.00000E+00
    0.63491E-08         0.36651E-12         0.00000E+00
    0.65166E-08         0.34810E-12         0.00000E+00
    0.66913E-08         0.32922E-12         0.00000E+00
    0.68735E-08         0.30961E-12         0.00000E+00
    0.70631E-08         0.28908E-12         0.00000E+00
    0.72603E-08         0.26741E-12         0.00000E+00
    0.74651E-08         0.24443E-12         0.00000E+00
    0.76776E-08         0.21996E-12         0.00000E+00
    0.78979E-08         0.19385E-12         0.00000E+00
    0.81260E-08         0.16594E-12         0.00000E+00
    0.83620E-08         0.13607E-12         0.00000E+00
    0.86060E-08         0.10411E-12         0.00000E+00
    0.88580E-08         0.69907E-13         0.00000E+00
    0.91181E-08         0.33331E-13         0.00000E+00
    0.93863E-08        -0.57516E-14         0.00000E+00
    0.96627E-08        -0.47470E-13         0.00000E+00
    0.99472E-08        -0.91946E-13         0.00000E+00
    0.10240E-07        -0.13930E-12         0.00000E+00
    0.10541E-07        -0.18964E-12         0.00000E+00
    0.10850E-07        -0.24307E-12         0.00000E+00
    0.11168E-07        -0.29969E-12         0.00000E+00
    0.11493E-07        -0.35958E-12         0.00000E+00
    0.11827E-07        -0.42282E-12         0.00000E+00
    0.12169E-07        -0.48949E-12         0.00000E+00
    0.12519E-07        -0.55962E-12         0.00000E+00
    0.12878E-07        -0.63326E-12         0.00000E+00
    0.13244E-07        -0.71043E-12         0.00000E+00
    0.13618E-07        -0.79114E-12         0.00000E+00
    0.13999E-07        -0.87536E-12         0.00000E+00
    0.14388E-07        -0.96306E-12         0.00000E+00
    0.14785E-07        -0.10542E-11         0.00000E+00
    0.15188E-07        -0.11486E-11         0.00000E+00
    0.15599E-07        -0.12463E-11         0.00000E+00
    0.16016E-07        -0.13470E-11         0.00000E+00
    0.16440E-07        -0.14506E-11         0.00000E+00
    0.16869E-07        -0.15568E-11         0.00000E+00
    0.17305E-07        -0.16654E-11         0.00000E+00
    0.17746E-07        -0.17760E-11         0.00000E+00
    0.18191E-07        -0.18883E-11         0.00000E+00
    0.18642E-07        -0.20018E-11         0.00000E+00
    0.19096E-07        -0.21161E-11         0.00000E+00
    0.19554E-07        -0.22306E-11         0.00000E+00
    0.20015E-07        -0.23445E-11         0.00000E+00
    0.20478E-07        -0.24573E-11         0.00000E+00
    0.20943E-07        -0.25679E-11         0.00000E+00
    0.21409E-07        -0.26755E-11         0.00000E+00
    0.21876E-07        -0.27789E-11         0.00000E+00
    0.22341E-07        -0.28767E-11         0.00000E+00
    0.22806E-07        -0.29676E-11         0.00000E+00
    0.23268E-07        -0.30498E-11         0.00000E+00
    0.23727E-07        -0.31211E-11         0.00000E+00
    0.24182E-07        -0.31794E-11         0.00000E+00
    0.24632E-07        -0.32218E-11         0.00000E+00
    0.25076E-07        -0.32450E-11         0.00000E+00
    0.25512E-07        -0.32454E-11         0.00000E+00
    0.25940E-07        -0.32186E-11         0.00000E+00
    0.26358E-07        -0.31595E-11         0.00000E+00
    0.26765E-07        -0.30624E-11         0.00000E+00
    0.27159E-07        -0.29209E-11         0.00000E+00
    0.27540E-07        -0.27278E-11         0.00000E+00
    0.27906E-07        -0.24753E-11         0.00000E+00
    0.28256E-07        -0.21556E-11         0.00000E+00
    0.28588E-07        -0.17609E-11         0.00000E+00
    0.28901E-07        -0.12843E-11         0.00000E+00
    0.29193E-07        -0.72109E-12         0.00000E+00
    0.29463E-07        -0.69927E-13         0.00000E+00
    0.29709E-07         0.66470E-12         0.00000E+00
    0.29931E-07         0.14697E-11         0.00000E+00
    0.30127E-07         0.23190E-11         0.00000E+00
    0.30295E-07         0.31684E-11         0.00000E+00
    0.30434E-07         0.39450E-11         0.00000E+00
    0.30544E-07         0.45305E-11         0.00000E+00
    0.30623E-07         0.47227E-11         0.00000E+00
    0.30669E-07         0.41043E-11         0.00000E+00
    0.30684E-07         0.17601E-11         0.00000E+00
    0.43691E-08         0.43383E-12         0.00000E+00
    0.43698E-08         0.10399E-11         0.00000E+00
    0.43773E-08         0.12720E-11         0.00000E+00
    0.43913E-08         0.13370E-11         0.00000E+00
    0.44119E-08         0.13176E-11         0.00000E+00
    0.44389E-08         0.12529E-11         0.00000E+00
    0.44724E-08         0.11660E-11         0.00000E+00
    0.45122E-08         0.10707E-11         0.00000E+00
    0.45584E-08         0.97562E-12         0.00000E+00
    0.46111E-08         0.88592E-12         0.00000E+00
    0.46701E-08         0.80427E-12         0.00000E+00
    0.47355E-08         0.73180E-12         0.00000E+00
    0.48074E-08         0.66862E-12         0.00000E+00
    0.48857E-08         0.61420E-12         0.00000E+00
    0.49706E-08         0.56770E-12         0.00000E+00
    0.50620E-08         0.52807E-12         0.00000E+00
    0.51600E-08         0.49428E-12         0.00000E+00
    0.52647E-08         0.46530E-12         0.00000E+00
    0.53761E-08         0.44020E-12         0.00000E+00
    0.54943E-08         0.41817E-12         0.00000E+00
    0.56193E-08         0.39848E-12         0.00000E+00
    0.57512E-08         0.38051E-12         0.00000E+00
    0.58901E-08         0.36376E-12         0.00000E+00
    0.60360E-08         0.34776E-12         0.00000E+00
    0.61890E-08         0.33216E-12         0.00000E+00
    0.63491E-08         0.31664E-12         0.00000E+00
    0.65166E-08         0.30092E-12         0.00000E+00
    0.66913E-08         0.28478E-12         0.00000E+00
    0.68735E-08         0.26799E-12         0.00000E+00
    0.70631E-08         0.25039E-12         0.00000E+00
    0.72603E-08         0.23179E-12         0.00000E+00
    0.74651E-08         0.21204E-12         0.00000E+00
    0.76776E-08         0.19100E-12         0.00000E+00
    0.78979E-08         0.16853E-12         0.00000E+00
    0.81260E-08         0.14449E-12         0.00000E+00
    0.83620E-08         0.11875E-12         0.00000E+00
    0.86060E-08         0.91181E-13         0.00000E+00
    0.88580E-08         0.61672E-13         0.00000E+00
    0.91181E-08         0.30099E-13         0.00000E+00
    0.93863E-08        -0.36519E-14         0.00000E+00
    0.96627E-08        -0.39693E-13         0.00000E+00
    0.99472E-08        -0.78129E-13         0.00000E+00
    0.10240E-07        -0.11906E-12         0.00000E+00
    0.10541E-07        -0.16260E-12         0.00000E+00
    0.10850E-07        -0.20881E-12         0.00000E+00
    0.11168E-07        -0.25780E-12         0.00000E+00
    0.11493E-07        -0.30963E-12         0.00000E+00
    0.11827E-07        -0.36438E-12         0.00000E+00
    0.12169E-07        -0.42210E-12         0.00000E+00
    0.12519E-07        -0.48285E-12         0.00000E+00
    0.12878E-07        -0.54664E-12         0.00000E+00
    0.13244E-07        -0.61351E-12         0.00000E+00
    0.13617E-07        -0.68346E-12         0.00000E+00
    0.13999E-07        -0.75647E-12         0.00000E+00
    0.14388E-07        -0.83252E-12         0.00000E+00
    0.14785E-07        -0.91155E-12         0.00000E+00
    0.15188E-07        -0.99349E-12         0.00000E+00
    0.15599E-07        -0.10782E-11         0.00000E+00
    0.16016E-07        -0.11657E-11         0.00000E+00
    0.16440E-07        -0.12556E-11         0.00000E+00
    0.16869E-07        -0.13479E-11         0.00000E+00
    0.17305E-07        -0.14422E-11         0.00000E+00
    0.17746E-07        -0.15384E-11         0.00000E+00
    0.18191E-07        -0.16360E-11         0.00000E+00
    0.18642E-07        -0.17348E-11         0.00000E+00
    0.19096E-07        -0.18343E-11         0.00000E+00
    0.19554E-07        -0.19340E-11         0.00000E+00
    0.20015E-07        -0.20333E-11         0.00000E+00
    0.20478E-07        -0.21316E-11         0.00000E+00
    0.20943E-07        -0.22282E-11         0.00000E+00
    0.21409E-07        -0.23222E-11         0.00000E+00
    0.21876E-07        -0.24127E-11         0.00000E+00
    0.22341E-07        -0.24985E-11         0.00000E+00
    0.22806E-07        -0.25783E-11         0.00000E+00
    0.23268E-07        -0.26507E-11         0.00000E+00
    0.23727E-07        -0.27139E-11         0.00000E+00
    0.24182E-07        -0.27658E-11         0.00000E+00
    0.24632E-07        -0.28041E-11         0.00000E+00
    0.25076E-07        -0.28260E-11         0.00000E+00
    0.25512E-07        -0.28283E-11         0.00000E+00
    0.25940E-07        -0.28071E-11         0.00000E+00
    0.26358E-07        -0.27580E-11         0.00000E+00
    0.26765E-07        -0.26762E-11         0.00000E+00
    0.27159E-07        -0.25559E-11         0.00000E+00
    0.27540E-07        -0.23909E-11         0.00000E+00
    0.27906E-07        -0.21744E-11         0.00000E+00
    0.28256E-07        -0.18993E-11         0.00000E+00
    0.28588E-07        -0.15588E-11         0.00000E+00
    0.28901E-07        -0.11467E-11         0.00000E+00
    0.29193E-07        -0.65832E-12         0.00000E+00
    0.29463E-07        -0.92225E-13         0.00000E+00
    0.29709E-07         0.54840E-12         0.00000E+00
    0.29931E-07         0.12530E-11         0.00000E+00
    0.30127E-07         0.20003E-11         0.00000E+00
    0.30295E-07         0.27532E-11         0.00000E+00
    0.30434E-07         0.34509E-11         0.00000E+00
    0.30544E-07         0.39932E-11         0.00000E+00
    0.30622E-07         0.42087E-11         0.00000E+00
    0.30669E-07         0.37309E-11         0.00000E+00
    0.30683E-07         0.16271E-11         0.00000E+00
    0.43692E-08         0.38418E-12         0.00000E+00
    0.43699E-08         0.90492E-12         0.00000E+00
    0.43773E-08         0.10863E-11         0.00000E+00
    0.43913E-08         0.11317E-11         0.00000E+00
    0.44119E-08         0.11091E-11         0.00000E+00
    0.44389E-08         0.10506E-11         0.00000E+00
    0.44724E-08         0.97495E-12         0.00000E+00
    0.45122E-08         0.89330E-12         0.00000E+00
    0.45584E-08         0.81262E-12         0.00000E+00
    0.46110E-08         0.73692E-12         0.00000E+00
    0.46700E-08         0.66834E-12         0.00000E+00
    0.47355E-08         0.60769E-12         0.00000E+00
    0.48074E-08         0.55498E-12         0.00000E+00
    0.48857E-08         0.50972E-12         0.00000E+00
    0.49706E-08         0.47114E-12         0.00000E+00
    0.50620E-08         0.43834E-12         0.00000E+00
    0.51600E-08         0.41044E-12         0.00000E+00
    0.52647E-08         0.38656E-12         0.00000E+00
    0.53761E-08         0.36591E-12         0.00000E+00
    0.54943E-08         0.34781E-12         0.00000E+00
    0.56193E-08         0.33164E-12         0.00000E+00
    0.57512E-08         0.31689E-12         0.00000E+00
    0.58901E-08         0.30313E-12         0.00000E+00
    0.60360E-08         0.28999E-12         0.00000E+00
    0.61890E-08         0.27715E-12         0.00000E+00
    0.63491E-08         0.26437E-12         0.00000E+00
    0.65166E-08         0.25140E-12         0.00000E+00
    0.66913E-08         0.23806E-12         0.00000E+00
    0.68735E-08         0.22417E-12         0.00000E+00
    0.70631E-08         0.20959E-12         0.00000E+00
    0.72603E-08         0.19417E-12         0.00000E+00
    0.74651E-08         0.17777E-12         0.00000E+00
    0.76776E-08         0.16029E-12         0.00000E+00
    0.78979E-08         0.14159E-12         0.00000E+00
    0.81260E-08         0.12158E-12         0.00000E+00
    0.83620E-08         0.10014E-12         0.00000E+00
    0.86060E-08         0.77172E-13         0.00000E+00
    0.88580E-08         0.52567E-13         0.00000E+00
    0.91181E-08         0.26229E-13         0.00000E+00
    0.93863E-08        -0.19376E-14         0.00000E+00
    0.96627E-08        -0.32027E-13         0.00000E+00
    0.99472E-08        -0.64127E-13         0.00000E+00
    0.10240E-07        -0.98326E-13         0.00000E+00
    0.10541E-07        -0.13470E-12         0.00000E+00
    0.10850E-07        -0.17334E-12         0.00000E+00
    0.11168E-07        -0.21430E-12         0.00000E+00
    0.11493E-07        -0.25765E-12         0.00000E+00
    0.11827E-07        -0.30345E-12         0.00000E+00
    0.12169E-07        -0.35175E-12         0.00000E+00
    0.12519E-07        -0.40259E-12         0.00000E+00
    0.12878E-07        -0.45600E-12         0.00000E+00
    0.13244E-07        -0.51199E-12         0.00000E+00
    0.13617E-07        -0.57057E-12         0.00000E+00
    0.13999E-07        -0.63174E-12         0.00000E+00
    0.14388E-07        -0.69547E-12         0.00000E+00
    0.14785E-07        -0.76172E-12         0.00000E+00
    0.15188E-07        -0.83042E-12         0.00000E+00
    0.15599E-07        -0.90149E-12         0.00000E+00
    0.16016E-07        -0.97483E-12         0.00000E+00
    0.16440E-07        -0.10503E-11         0.00000E+00
    0.16869E-07        -0.11277E-11         0.00000E+00
    0.17305E-07        -0.12070E-11         0.00000E+00
    0.17746E-07        -0.12878E-11         0.00000E+00
    0.18191E-07        -0.13698E-11         0.00000E+00
    0.18642E-07        -0.14529E-11         0.00000E+00
    0.19096E-07        -0.15365E-11         0.00000E+00
    0.19554E-07        -0.16204E-11         0.00000E+00
    0.20015E-07        -0.17041E-11         0.00000E+00
    0.20478E-07        -0.17870E-11         0.00000E+00
    0.20943E-07        -0.18685E-11         0.00000E+00
    0.21409E-07        -0.19479E-11         0.00000E+00
    0.21876E-07        -0.20244E-11         0.00000E+00
    0.22341E-07        -0.20970E-11         0.00000E+00
    0.22806E-07        -0.21648E-11         0.00000E+00
    0.23268E-07        -0.22264E-11         0.00000E+00
    0.23727E-07        -0.22805E-11         0.00000E+00
    0.24182E-07        -0.23252E-11         0.00000E+00
    0.24632E-07        -0.23586E-11         0.00000E+00
    0.25076E-07        -0.23785E-11         0.00000E+00
    0.25512E-07        -0.23819E-11         0.00000E+00
    0.25940E-07        -0.23659E-11         0.00000E+00
    0.26358E-07        -0.23267E-11         0.00000E+00
    0.26765E-07        -0.22602E-11         0.00000E+00
    0.27159E-07        -0.21615E-11         0.00000E+00
    0.27540E-07        -0.20253E-11         0.00000E+00
    0.27906E-07        -0.18460E-11         0.00000E+00
    0.28256E-07        -0.16174E-11         0.00000E+00
    0.28588E-07        -0.13337E-11         0.00000E+00
    0.28901E-07        -0.98936E-12         0.00000E+00
    0.29193E-07        -0.58035E-12         0.00000E+00
    0.29463E-07        -0.10490E-12         0.00000E+00
    0.29710E-07         0.43481E-12         0.00000E+00
    0.29931E-07         0.10307E-11         0.00000E+00
    0.30127E-07         0.16659E-11         0.00000E+00
    0.30295E-07         0.23106E-11         0.00000E+00
    0.30434E-07         0.29160E-11         0.00000E+00
    0.30544E-07         0.34004E-11         0.00000E+00
    0.30623E-07         0.36235E-11         0.00000E+00
    0.30669E-07         0.32848E-11         0.00000E+00
    0.30683E-07         0.14610E-11         0.00000E+00
    0.43694E-08         0.32492E-12         0.00000E+00
    0.43699E-08         0.74968E-12         0.00000E+00
    0.43773E-08         0.88108E-12         0.00000E+00
    0.43913E-08         0.90999E-12         0.00000E+00
    0.44119E-08         0.88680E-12         0.00000E+00
    0.44389E-08         0.83680E-12         0.00000E+00
    0.44724E-08         0.77430E-12         0.00000E+00
    0.45122E-08         0.70789E-12         0.00000E+00
    0.45584E-08         0.64285E-12         0.00000E+00
    0.46110E-08         0.58219E-12         0.00000E+00
    0.46700E-08         0.52747E-12         0.00000E+00
    0.47355E-08         0.47927E-12         0.00000E+00
    0.48073E-08         0.43752E-12         0.00000E+00
    0.48857E-08         0.40178E-12         0.00000E+00
    0.49706E-08         0.37139E-12         0.00000E+00
    0.50620E-08         0.34562E-12         0.00000E+00
    0.51600E-08         0.32375E-12         0.00000E+00
    0.52647E-08         0.30506E-12         0.00000E+00
    0.53761E-08         0.28894E-12         0.00000E+00
    0.54943E-08         0.27481E-12         0.00000E+00
    0.56193E-08         0.26221E-12         0.00000E+00
    0.57512E-08         0.25071E-12         0.00000E+00
    0.58901E-08         0.23998E-12         0.00000E+00
    0.60360E-08         0.22973E-12         0.00000E+00
    0.61890E-08         0.21970E-12         0.00000E+00
    0.63491E-08         0.20970E-12         0.00000E+00
    0.65166E-08         0.19954E-12         0.00000E+00
    0.66913E-08         0.18907E-12         0.00000E+00
    0.68735E-08         0.17816E-12         0.00000E+00
    0.70631E-08         0.16668E-12         0.00000E+00
    0.72603E-08         0.15453E-12         0.00000E+00
    0.74651E-08         0.14160E-12         0.00000E+00
    0.76776E-08         0.12779E-12         0.00000E+00
    0.78979E-08         0.11302E-12         0.00000E+00
    0.81260E-08         0.97198E-13         0.00000E+00
    0.83620E-08         0.80234E-13         0.00000E+00
    0.86060E-08         0.62047E-13         0.00000E+00
    0.88580E-08         0.42556E-13         0.00000E+00
    0.91181E-08         0.21683E-13         0.00000E+00
    0.93863E-08        -0.64849E-15         0.00000E+00
    0.96627E-08        -0.24513E-13         0.00000E+00
    0.99472E-08        -0.49983E-13         0.00000E+00
    0.10240E-07        -0.77126E-13         0.00000E+00
    0.10541E-07        -0.10601E-12         0.00000E+00
    0.10850E-07        -0.13669E-12         0.00000E+00
    0.11168E-07        -0.16923E-12         0.00000E+00
    0.11493E-07        -0.20367E-12         0.00000E+00
    0.11827E-07        -0.24007E-12         0.00000E+00
    0.12169E-07        -0.27847E-12         0.00000E+00
    0.12519E-07        -0.31890E-12         0.00000E+00
    0.12878E-07        -0.36137E-12         0.00000E+00
    0.13244E-07        -0.40592E-12         0.00000E+00
    0.13617E-07        -0.45254E-12         0.00000E+00
    0.13999E-07        -0.50122E-12         0.00000E+00
    0.14388E-07        -0.55196E-12         0.00000E+00
    0.14785E-07        -0.60471E-12         0.00000E+00
    0.15188E-07        -0.65943E-12         0.00000E+00
    0.15599E-07        -0.71606E-12         0.00000E+00
    0.16016E-07        -0.77451E-12         0.00000E+00
    0.16439E-07        -0.83467E-12         0.00000E+00
    0.16869E-07        -0.89643E-12         0.00000E+00
    0.17305E-07        -0.95964E-12         0.00000E+00
    0.17746E-07        -0.10241E-11         0.00000E+00
    0.18191E-07        -0.10896E-11         0.00000E+00
    0.18642E-07        -0.11560E-11         0.00000E+00
    0.19096E-07        -0.12228E-11         0.00000E+00
    0.19554E-07        -0.12899E-11         0.00000E+00
    0.20015E-07        -0.13568E-11         0.00000E+00
    0.20478E-07        -0.14232E-11         0.00000E+00
    0.20943E-07        -0.14885E-11         0.00000E+00
    0.21409E-07        -0.15522E-11         0.00000E+00
    0.21876E-07        -0.16137E-11         0.00000E+00
    0.22341E-07        -0.16721E-11         0.00000E+00
    0.22806E-07        -0.17268E-11         0.00000E+00
    0.23268E-07        -0.17766E-11         0.00000E+00
    0.23727E-07        -0.18205E-11         0.00000E+00
    0.24182E-07        -0.18571E-11         0.00000E+00
    0.24632E-07        -0.18848E-11         0.00000E+00
    0.25076E-07        -0.19017E-11         0.00000E+00
    0.25512E-07        -0.19058E-11         0.00000E+00
    0.25940E-07        -0.18945E-11         0.00000E+00
    0.26358E-07        -0.18648E-11         0.00000E+00
    0.26765E-07        -0.18135E-11         0.00000E+00
    0.27159E-07        -0.17366E-11         0.00000E+00
    0.27540E-07        -0.16300E-11         0.00000E+00
    0.27907E-07        -0.14889E-11         0.00000E+00
    0.28256E-07        -0.13086E-11         0.00000E+00
    0.28588E-07        -0.10841E-11         0.00000E+00
    0.28901E-07        -0.81094E-12         0.00000E+00
    0.29193E-07        -0.48560E-12         0.00000E+00
    0.29463E-07        -0.10637E-12         0.00000E+00
    0.29710E-07         0.32549E-12         0.00000E+00
    0.29931E-07         0.80410E-12         0.00000E+00
    0.30127E-07         0.13169E-11         0.00000E+00
    0.30295E-07         0.18411E-11         0.00000E+00
    0.30435E-07         0.23396E-11         0.00000E+00
    0.30544E-07         0.27500E-11         0.00000E+00
    0.30623E-07         0.29616E-11         0.00000E+00
    0.30669E-07         0.27531E-11         0.00000E+00
    0.30682E-07         0.12532E-11         0.00000E+00
    0.43695E-08         0.25354E-12         0.00000E+00
    0.43700E-08         0.57091E-12         0.00000E+00
    0.43773E-08         0.65533E-12         0.00000E+00
    0.43913E-08         0.67140E-12         0.00000E+00
    0.44119E-08         0.65045E-12         0.00000E+00
    0.44389E-08         0.61149E-12         0.00000E+00
    0.44723E-08         0.56418E-12         0.00000E+00
    0.45122E-08         0.51467E-12         0.00000E+00
    0.45584E-08         0.46657E-12         0.00000E+00
    0.46110E-08         0.42198E-12         0.00000E+00
    0.46700E-08         0.38194E-12         0.00000E+00
    0.47355E-08         0.34681E-12         0.00000E+00
    0.48073E-08         0.31647E-12         0.00000E+00
    0.48857E-08         0.29058E-12         0.00000E+00
    0.49706E-08         0.26862E-12         0.00000E+00
    0.50620E-08         0.25006E-12         0.00000E+00
    0.51600E-08         0.23433E-12         0.00000E+00
    0.52647E-08         0.22092E-12         0.00000E+00
    0.53761E-08         0.20937E-12         0.00000E+00
    0.54943E-08         0.19926E-12         0.00000E+00
    0.56193E-08         0.19025E-12         0.00000E+00
    0.57512E-08         0.18203E-12         0.00000E+00
    0.58901E-08         0.17436E-12         0.00000E+00
    0.60360E-08         0.16702E-12         0.00000E+00
    0.61890E-08         0.15983E-12         0.00000E+00
    0.63491E-08         0.15265E-12         0.00000E+00
    0.65166E-08         0.14534E-12         0.00000E+00
    0.66913E-08         0.13780E-12         0.00000E+00
    0.68735E-08         0.12993E-12         0.00000E+00
    0.70631E-08         0.12165E-12         0.00000E+00
    0.72603E-08         0.11286E-12         0.00000E+00
    0.74651E-08         0.10350E-12         0.00000E+00
    0.76776E-08         0.93499E-13         0.00000E+00
    0.78979E-08         0.82789E-13         0.00000E+00
    0.81260E-08         0.71306E-13         0.00000E+00
    0.83620E-08         0.58987E-13         0.00000E+00
    0.86060E-08         0.45773E-13         0.00000E+00
    0.88580E-08         0.31604E-13         0.00000E+00
    0.91181E-08         0.16424E-13         0.00000E+00
    0.93863E-08         0.17501E-15         0.00000E+00
    0.96626E-08        -0.17196E-13         0.00000E+00
    0.99472E-08        -0.35741E-13         0.00000E+00
    0.10240E-07        -0.55511E-13         0.00000E+00
    0.10541E-07        -0.76554E-13         0.00000E+00
    0.10850E-07        -0.98914E-13         0.00000E+00
    0.11168E-07        -0.12263E-12         0.00000E+00
    0.11493E-07        -0.14775E-12         0.00000E+00
    0.11827E-07        -0.17430E-12         0.00000E+00
    0.12169E-07        -0.20231E-12         0.00000E+00
    0.12519E-07        -0.23181E-12         0.00000E+00
    0.12878E-07        -0.26282E-12         0.00000E+00
    0.13244E-07        -0.29534E-12         0.00000E+00
    0.13617E-07        -0.32938E-12         0.00000E+00
    0.13999E-07        -0.36494E-12         0.00000E+00
    0.14388E-07        -0.40200E-12         0.00000E+00
    0.14785E-07        -0.44055E-12         0.00000E+00
    0.15188E-07        -0.48055E-12         0.00000E+00
    0.15599E-07        -0.52196E-12         0.00000E+00
    0.16016E-07        -0.56470E-12         0.00000E+00
    0.16439E-07        -0.60872E-12         0.00000E+00
    0.16869E-07        -0.65392E-12         0.00000E+00
    0.17305E-07        -0.70019E-12         0.00000E+00
    0.17746E-07        -0.74740E-12         0.00000E+00
    0.18191E-07        -0.79540E-12         0.00000E+00
    0.18642E-07        -0.84402E-12         0.00000E+00
    0.19096E-07        -0.89306E-12         0.00000E+00
    0.19554E-07        -0.94228E-12         0.00000E+00
    0.20015E-07        -0.99142E-12         0.00000E+00
    0.20478E-07        -0.10402E-11         0.00000E+00
    0.20943E-07        -0.10882E-11         0.00000E+00
    0.21409E-07        -0.11351E-11         0.00000E+00
    0.21876E-07        -0.11804E-11         0.00000E+00
    0.22341E-07        -0.12236E-11         0.00000E+00
    0.22806E-07        -0.12640E-11         0.00000E+00
    0.23268E-07        -0.13010E-11         0.00000E+00
    0.23727E-07        -0.13337E-11         0.00000E+00
    0.24182E-07        -0.13611E-11         0.00000E+00
    0.24632E-07        -0.13821E-11         0.00000E+00
    0.25076E-07        -0.13954E-11         0.00000E+00
    0.25512E-07        -0.13993E-11         0.00000E+00
    0.25940E-07        -0.13921E-11         0.00000E+00
    0.26358E-07        -0.13715E-11         0.00000E+00
    0.26765E-07        -0.13352E-11         0.00000E+00
    0.27159E-07        -0.12803E-11         0.00000E+00
    0.27540E-07        -0.12037E-11         0.00000E+00
    0.27907E-07        -0.11020E-11         0.00000E+00
    0.28256E-07        -0.97152E-12         0.00000E+00
    0.28588E-07        -0.80858E-12         0.00000E+00
    0.28901E-07        -0.60980E-12         0.00000E+00
    0.29193E-07        -0.37241E-12         0.00000E+00
    0.29463E-07        -0.94917E-13         0.00000E+00
    0.29710E-07         0.22207E-12         0.00000E+00
    0.29932E-07         0.57472E-12         0.00000E+00
    0.30127E-07         0.95435E-12         0.00000E+00
    0.30295E-07         0.13455E-11         0.00000E+00
    0.30435E-07         0.17213E-11         0.00000E+00
    0.30544E-07         0.20402E-11         0.00000E+00
    0.30623E-07         0.22184E-11         0.00000E+00
    0.30669E-07         0.21207E-11         0.00000E+00
    0.30682E-07         0.99184E-12         0.00000E+00
    0.43696E-08         0.16661E-12         0.00000E+00
    0.43700E-08         0.36482E-12         0.00000E+00
    0.43773E-08         0.40827E-12         0.00000E+00
    0.43913E-08         0.41545E-12         0.00000E+00
    0.44119E-08         0.40003E-12         0.00000E+00
    0.44389E-08         0.37479E-12         0.00000E+00
    0.44723E-08         0.34479E-12         0.00000E+00
    0.45122E-08         0.31388E-12         0.00000E+00
    0.45584E-08         0.28406E-12         0.00000E+00
    0.46110E-08         0.25659E-12         0.00000E+00
    0.46700E-08         0.23202E-12         0.00000E+00
    0.47355E-08         0.21054E-12         0.00000E+00
    0.48073E-08         0.19206E-12         0.00000E+00
    0.48857E-08         0.17633E-12         0.00000E+00
    0.49706E-08         0.16302E-12         0.00000E+00
    0.50620E-08         0.15180E-12         0.00000E+00
    0.51600E-08         0.14232E-12         0.00000E+00
    0.52647E-08         0.13425E-12         0.00000E+00
    0.53761E-08         0.12730E-12         0.00000E+00
    0.54943E-08         0.12124E-12         0.00000E+00
    0.56193E-08         0.11583E-12         0.00000E+00
    0.57512E-08         0.11090E-12         0.00000E+00
    0.58901E-08         0.10629E-12         0.00000E+00
    0.60360E-08         0.10188E-12         0.00000E+00
    0.61890E-08         0.97559E-13         0.00000E+00
    0.63491E-08         0.93232E-13         0.00000E+00
    0.65166E-08         0.88825E-13         0.00000E+00
    0.66913E-08         0.84269E-13         0.00000E+00
    0.68735E-08         0.79507E-13         0.00000E+00
    0.70631E-08         0.74484E-13         0.00000E+00
    0.72603E-08         0.69153E-13         0.00000E+00
    0.74651E-08         0.63468E-13         0.00000E+00
    0.76776E-08         0.57388E-13         0.00000E+00
    0.78979E-08         0.50871E-13         0.00000E+00
    0.81260E-08         0.43879E-13         0.00000E+00
    0.83620E-08         0.36373E-13         0.00000E+00
    0.86060E-08         0.28317E-13         0.00000E+00
    0.88580E-08         0.19675E-13         0.00000E+00
    0.91181E-08         0.10411E-13         0.00000E+00
    0.93863E-08         0.49155E-15         0.00000E+00
    0.96626E-08        -0.10117E-13         0.00000E+00
    0.99472E-08        -0.21447E-13         0.00000E+00
    0.10240E-07        -0.33528E-13         0.00000E+00
    0.10541E-07        -0.46392E-13         0.00000E+00
    0.10850E-07        -0.60064E-13         0.00000E+00
    0.11168E-07        -0.74572E-13         0.00000E+00
    0.11493E-07        -0.89938E-13         0.00000E+00
    0.11827E-07        -0.10618E-12         0.00000E+00
    0.12169E-07        -0.12333E-12         0.00000E+00
    0.12519E-07        -0.14139E-12         0.00000E+00
    0.12878E-07        -0.16037E-12         0.00000E+00
    0.13244E-07        -0.18029E-12         0.00000E+00
    0.13617E-07        -0.20115E-12         0.00000E+00
    0.13999E-07        -0.22294E-12         0.00000E+00
    0.14388E-07        -0.24565E-12         0.00000E+00
    0.14785E-07        -0.26929E-12         0.00000E+00
    0.15188E-07        -0.29381E-12         0.00000E+00
    0.15599E-07        -0.31921E-12         0.00000E+00
    0.16016E-07        -0.34544E-12         0.00000E+00
    0.16439E-07        -0.37245E-12         0.00000E+00
    0.16869E-07        -0.40020E-12         0.00000E+00
    0.17305E-07        -0.42861E-12         0.00000E+00
    0.17746E-07        -0.45761E-12         0.00000E+00
    0.18191E-07        -0.48711E-12         0.00000E+00
    0.18642E-07        -0.51701E-12         0.00000E+00
    0.19096E-07        -0.54717E-12         0.00000E+00
    0.19554E-07        -0.57747E-12         0.00000E+00
    0.20015E-07        -0.60773E-12         0.00000E+00
    0.20478E-07        -0.63778E-12         0.00000E+00
    0.20943E-07        -0.66740E-12         0.00000E+00
    0.21409E-07        -0.69635E-12         0.00000E+00
    0.21876E-07        -0.72435E-12         0.00000E+00
    0.22341E-07        -0.75108E-12         0.00000E+00
    0.22806E-07        -0.77616E-12         0.00000E+00
    0.23268E-07        -0.79916E-12         0.00000E+00
    0.23727E-07        -0.81957E-12         0.00000E+00
    0.24182E-07        -0.83679E-12         0.00000E+00
    0.24632E-07        -0.85014E-12         0.00000E+00
    0.25076E-07        -0.85878E-12         0.00000E+00
    0.25512E-07        -0.86176E-12         0.00000E+00
    0.25940E-07        -0.85796E-12         0.00000E+00
    0.26358E-07        -0.84605E-12         0.00000E+00
    0.26765E-07        -0.82453E-12         0.00000E+00
    0.27159E-07        -0.79167E-12         0.00000E+00
    0.27540E-07        -0.74553E-12         0.00000E+00
    0.27907E-07        -0.68399E-12         0.00000E+00
    0.28256E-07        -0.60477E-12         0.00000E+00
    0.28588E-07        -0.50559E-12         0.00000E+00
    0.28901E-07        -0.38426E-12         0.00000E+00
    0.29193E-07        -0.23900E-12         0.00000E+00
    0.29463E-07        -0.68718E-13         0.00000E+00
    0.29710E-07         0.12636E-12         0.00000E+00
    0.29932E-07         0.34426E-12         0.00000E+00
    0.30127E-07         0.57977E-12         0.00000E+00
    0.30295E-07         0.82441E-12         0.00000E+00
    0.30435E-07         0.10613E-11         0.00000E+00
    0.30544E-07         0.12690E-11         0.00000E+00
    0.30623E-07         0.13906E-11         0.00000E+00
    0.30669E-07         0.13698E-11         0.00000E+00
    0.30681E-07         0.66081E-12         0.00000E+00
    0.43696E-08         0.59379E-13         0.00000E+00
    0.43700E-08         0.12722E-12         0.00000E+00
    0.43773E-08         0.13968E-12         0.00000E+00
    0.43913E-08         0.14154E-12         0.00000E+00
    0.44119E-08         0.13565E-12         0.00000E+00
    0.44389E-08         0.12681E-12         0.00000E+00
    0.44723E-08         0.11640E-12         0.00000E+00
    0.45122E-08         0.10582E-12         0.00000E+00
    0.45584E-08         0.95644E-13         0.00000E+00
    0.46110E-08         0.86316E-13         0.00000E+00
    0.46700E-08         0.77999E-13         0.00000E+00
    0.47355E-08         0.70747E-13         0.00000E+00
    0.48073E-08         0.64520E-13         0.00000E+00
    0.48857E-08         0.59231E-13         0.00000E+00
    0.49706E-08         0.54768E-13         0.00000E+00
    0.50620E-08         0.51009E-13         0.00000E+00
    0.51600E-08         0.47838E-13         0.00000E+00
    0.52647E-08         0.45143E-13         0.00000E+00
    0.53761E-08         0.42828E-13         0.00000E+00
    0.54943E-08         0.40806E-13         0.00000E+00
    0.56193E-08         0.39005E-13         0.00000E+00
    0.57512E-08         0.37363E-13         0.00000E+00
    0.58901E-08         0.35828E-13         0.00000E+00
    0.60360E-08         0.34357E-13         0.00000E+00
    0.61890E-08         0.32914E-13         0.00000E+00
    0.63491E-08         0.31468E-13         0.00000E+00
    0.65166E-08         0.29993E-13         0.00000E+00
    0.66913E-08         0.28468E-13         0.00000E+00
    0.68735E-08         0.26871E-13         0.00000E+00
    0.70631E-08         0.25185E-13         0.00000E+00
    0.72603E-08         0.23394E-13         0.00000E+00
    0.74651E-08         0.21483E-13         0.00000E+00
    0.76776E-08         0.19438E-13         0.00000E+00
    0.78979E-08         0.17244E-13         0.00000E+00
    0.81260E-08         0.14889E-13         0.00000E+00
    0.83620E-08         0.12360E-13         0.00000E+00
    0.86060E-08         0.96447E-14         0.00000E+00
    0.88580E-08         0.67306E-14         0.00000E+00
    0.91181E-08         0.36058E-14         0.00000E+00
    0.93863E-08         0.25891E-15         0.00000E+00
    0.96626E-08        -0.33214E-14         0.00000E+00
    0.99472E-08        -0.71461E-14         0.00000E+00
    0.10240E-07        -0.11225E-13         0.00000E+00
    0.10541E-07        -0.15570E-13         0.00000E+00
    0.10850E-07        -0.20188E-13         0.00000E+00
    0.11168E-07        -0.25089E-13         0.00000E+00
    0.11493E-07        -0.30282E-13         0.00000E+00
    0.11827E-07        -0.35773E-13         0.00000E+00
    0.12169E-07        -0.41568E-13         0.00000E+00
    0.12519E-07        -0.47674E-13         0.00000E+00
    0.12878E-07        -0.54093E-13         0.00000E+00
    0.13244E-07        -0.60829E-13         0.00000E+00
    0.13617E-07        -0.67883E-13         0.00000E+00
    0.13999E-07        -0.75255E-13         0.00000E+00
    0.14388E-07        -0.82942E-13         0.00000E+00
    0.14785E-07        -0.90939E-13         0.00000E+00
    0.15188E-07        -0.99242E-13         0.00000E+00
    0.15599E-07        -0.10784E-12         0.00000E+00
    0.16016E-07        -0.11672E-12         0.00000E+00
    0.16439E-07        -0.12587E-12         0.00000E+00
    0.16869E-07        -0.13527E-12         0.00000E+00
    0.17305E-07        -0.14490E-12         0.00000E+00
    0.17746E-07        -0.15472E-12         0.00000E+00
    0.18191E-07        -0.16473E-12         0.00000E+00
    0.18642E-07        -0.17486E-12         0.00000E+00
    0.19096E-07        -0.18509E-12         0.00000E+00
    0.19554E-07        -0.19538E-12         0.00000E+00
    0.20015E-07        -0.20565E-12         0.00000E+00
    0.20478E-07        -0.21586E-12         0.00000E+00
    0.20943E-07        -0.22592E-12         0.00000E+00
    0.21409E-07        -0.23577E-12         0.00000E+00
    0.21876E-07        -0.24530E-12         0.00000E+00
    0.22341E-07        -0.25441E-12         0.00000E+00
    0.22806E-07        -0.26297E-12         0.00000E+00
    0.23268E-07        -0.27083E-12         0.00000E+00
    0.23727E-07        -0.27783E-12         0.00000E+00
    0.24182E-07        -0.28376E-12         0.00000E+00
    0.24632E-07        -0.28838E-12         0.00000E+00
    0.25076E-07        -0.29143E-12         0.00000E+00
    0.25512E-07        -0.29258E-12         0.00000E+00
    0.25940E-07        -0.29144E-12         0.00000E+00
    0.26358E-07        -0.28758E-12         0.00000E+00
    0.26765E-07        -0.28048E-12         0.00000E+00
    0.27159E-07        -0.26955E-12         0.00000E+00
    0.27540E-07        -0.25414E-12         0.00000E+00
    0.27907E-07        -0.23351E-12         0.00000E+00
    0.28256E-07        -0.20690E-12         0.00000E+00
    0.28588E-07        -0.17351E-12         0.00000E+00
    0.28901E-07        -0.13259E-12         0.00000E+00
    0.29193E-07        -0.83507E-13         0.00000E+00
    0.29463E-07        -0.25848E-13         0.00000E+00
    0.29710E-07         0.40336E-13         0.00000E+00
    0.29932E-07         0.11449E-12         0.00000E+00
    0.30127E-07         0.19482E-12         0.00000E+00
    0.30295E-07         0.27883E-12         0.00000E+00
    0.30435E-07         0.36045E-12         0.00000E+00
    0.30544E-07         0.43391E-12         0.00000E+00
    0.30623E-07         0.47765E-12         0.00000E+00
    0.30669E-07         0.48120E-12         0.00000E+00
    0.30681E-07         0.23776E-12         0.00000E+00
TENSORS stressef double 
    0.12674E+08         0.12846E+05         0.00000E+00
    0.12846E+05         0.29554E+08         0.00000E+00
    0.00000E+00         0.00000E+00         0.12668E+08
 
    0.12664E+08         0.33761E+05         0.00000E+00
    0.33761E+05         0.29538E+08         0.00000E+00
    0.00000E+00         0.00000E+00         0.12661E+08
 
    0.12654E+08         0.48300E+05         0.00000E+00
    0.48300E+05         0.29518E+08         0.00000E+00
    0.00000E+00         0.00000E+00         0.12652E+08
 
    0.12644E+08         0.60285E+05         0.00000E+00
    0.60285E+05         0.29496E+08         0.00000E+00
    0.00000E+00         0.00000E+00         0.12642E+08
 
    0.12633E+08         0.70741E+05         0.00000E+00
    0.70741E+05         0.29471E+08         0.00000E+00
    0.00000E+00         0.00000E+00         0.12631E+08
 
    0.12622E+08         0.80283E+05         0.00000E+00
    0.80283E+05         0.29445E+08         0.00000E+00
    0.00000E+00         0.00000E+00         0.12620E+08
 
    0.12610E+08         0.89270E+05         0.00000E+00
    0.89270E+05         0.29417E+08         0.00000E+00
    0.00000E+00         0.00000E+00         0.12608E+08
 
    0.12598E+08         0.97913E+05         0.00000E+00
    0.97913E+05         0.29389E+08         0.00000E+00
    0.00000E+00         0.00000E+00         0.12596E+08
 
    0.12585E+08         0.10633E+06         0.00000E+00
    0.10633E+06         0.29359E+08         0.00000E+00
    0.00000E+00         0.00000E+00         0.12583E+08
 
    0.12572E+08         0.11460E+06         0.00000E+00
    0.11460E+06         0.29328E+08         0.00000E+00
    0.00000E+00         0.00000E+00         0.12570E+08
 
    0.12558E+08         0.12275E+06         0.00000E+00
    0.12275E+06         0.29297E+08         0.00000E+00
    0.00000E+00         0.00000E+00         0.12557E+08
 
    0.12545E+08         0.13079E+06         0.00000E+00
    0.13079E+06         0.29266E+08         0.00000E+00
    0.00000E+00         0.00000E+00         0.12543E+08
 
    0.12531E+08         0.13874E+06         0.00000E+00
    0.13874E+06         0.29234E+08         0.00000E+00
    0.00000E+00         0.00000E+00         0.12530E+08
 
    0.12517E+08         0.14660E+06         0.00000E+00
    0.14660E+06         0.29202E+08         0.00000E+00
    0.00000E+00         0.00000E+00         0.12516E+08
 
    0.12503E+08         0.15438E+06         0.00000E+00
    0.15438E+06         0.29169E+08         0.00000E+00
    0.00000E+00         0.00000E+00         0.12502E+08
 
    0.12489E+08         0.16207E+06         0.00000E+00
    0.16207E+06         0.29136E+08         0.00000E+00
    0.00000E+00         0.00000E+00         0.12488E+08
 
    0.12475E+08         0.16969E+06         0.00000E+00
    0.16969E+06         0.29103E+08         0.00000E+00
    0.00000E+00         0.00000E+00         0.12473E+08
 
    0.12460E+08         0.17725E+06         0.00000E+00
    0.17725E+06         0.29069E+08         0.00000E+00
    0.00000E+00         0.00000E+00         0.12459E+08
 
    0.12445E+08         0.18476E+06         0.00000E+00
    0.18476E+06         0.29034E+08         0.00000E+00
    0.00000E+00         0.00000E+00         0.12444E+08
 
    0.12430E+08         0.19224E+06         0.00000E+00
    0.19224E+06         0.28999E+08         0.00000E+00
    0.00000E+00         0.00000E+00         0.12429E+08
 
    0.12415E+08         0.19970E+06         0.00000E+00
    0.19970E+06         0.28964E+08         0.00000E+00
    0.00000E+00         0.00000E+00         0.12414E+08
 
    0.12400E+08         0.20716E+06         0.00000E+00
    0.20716E+06         0.28928E+08         0.00000E+00
    0.00000E+00         0.00000E+00         0.12398E+08
 
    0.12384E+08         0.21463E+06         0.00000E+00
    0.21463E+06         0.28891E+08         0.00000E+00
    0.00000E+00         0.00000E+00         0.12382E+08
 
    0.12368E+08         0.22214E+06         0.00000E+00
    0.22214E+06         0.28853E+08         0.00000E+00
    0.00000E+00         0.00000E+00         0.12366E+08
 
    0.12351E+08         0.22968E+06         0.00000E+00
    0.22968E+06         0.28814E+08         0.00000E+00
    0.00000E+00         0.00000E+00         0.12350E+08
 
    0.12334E+08         0.23730E+06         0.00000E+00
    0.23730E+06         0.28775E+08         0.00000E+00
    0.00000E+00         0.00000E+00         0.12333E+08
 
    0.12317E+08         0.24498E+06         0.00000E+00
    0.24498E+06         0.28735E+08         0.00000E+00
    0.00000E+00         0.00000E+00         0.12316E+08
 
    0.12299E+08         0.25276E+06         0.00000E+00
    0.25276E+06         0.28693E+08         0.00000E+00
    0.00000E+00         0.00000E+00         0.12298E+08
 
    0.12281E+08         0.26063E+06         0.00000E+00
    0.26063E+06         0.28651E+08         0.00000E+00
    0.00000E+00         0.00000E+00         0.12280E+08
 
    0.12263E+08         0.26862E+06         0.00000E+00
    0.26862E+06         0.28608E+08         0.00000E+00
    0.00000E+00         0.00000E+00         0.12261E+08
 
    0.12244E+08         0.27673E+06         0.00000E+00
    0.27673E+06         0.28563E+08         0.00000E+00
    0.00000E+00         0.00000E+00         0.12242E+08
 
    0.12224E+08         0.28498E+06         0.00000E+00
    0.28498E+06         0.28517E+08         0.00000E+00
    0.00000E+00         0.00000E+00         0.12222E+08
 
    0.12204E+08         0.29336E+06         0.00000E+00
    0.29336E+06         0.28470E+08         0.00000E+00
    0.00000E+00         0.00000E+00         0.12202E+08
 
    0.12183E+08         0.30189E+06         0.00000E+00
    0.30189E+06         0.28422E+08         0.00000E+00
    0.00000E+00         0.00000E+00         0.12181E+08
 
    0.12162E+08         0.31057E+06         0.00000E+00
    0.31057E+06         0.28372E+08         0.00000E+00
    0.00000E+00         0.00000E+00         0.12160E+08
 
    0.12140E+08         0.31941E+06         0.00000E+00
    0.31941E+06         0.28320E+08         0.00000E+00
    0.00000E+00         0.00000E+00         0.12138E+08
 
    0.12117E+08         0.32842E+06         0.00000E+00
    0.32842E+06         0.28268E+08         0.00000E+00
    0.00000E+00         0.00000E+00         0.12115E+08
 
    0.12094E+08         0.33758E+06         0.00000E+00
    0.33758E+06         0.28213E+08         0.00000E+00
    0.00000E+00         0.00000E+00         0.12092E+08
 
    0.12070E+08         0.34691E+06         0.00000E+00
    0.34691E+06         0.28157E+08         0.00000E+00
    0.00000E+00         0.00000E+00         0.12068E+08
 
    0.12046E+08         0.35640E+06         0.00000E+00
    0.35640E+06         0.28100E+08         0.00000E+00
    0.00000E+00         0.00000E+00         0.12044E+08
 
    0.12020E+08         0.36606E+06         0.00000E+00
    0.36606E+06         0.28040E+08         0.00000E+00
    0.00000E+00         0.00000E+00         0.12018E+08
 
    0.11994E+08         0.37589E+06         0.00000E+00
    0.37589E+06         0.27979E+08         0.00000E+00
    0.00000E+00         0.00000E+00         0.11992E+08
 
    0.11967E+08         0.38587E+06         0.00000E+00
    0.38587E+06         0.27916E+08         0.00000E+00
    0.00000E+00         0.00000E+00         0.11965E+08
 
    0.11939E+08         0.39602E+06         0.00000E+00
    0.39602E+06         0.27852E+08         0.00000E+00
    0.00000E+00         0.00000E+00         0.11937E+08
 
    0.11911E+08         0.40631E+06         0.00000E+00
    0.40631E+06         0.27785E+08         0.00000E+00
    0.00000E+00         0.00000E+00         0.11909E+08
 
    0.11881E+08         0.41676E+06         0.00000E+00
    0.41676E+06         0.27716E+08         0.00000E+00
    0.00000E+00         0.00000E+00         0.11879E+08
 
    0.11851E+08         0.42734E+06         0.00000E+00
    0.42734E+06         0.27645E+08         0.00000E+00
    0.00000E+00         0.00000E+00         0.11849E+08
 
    0.11820E+08         0.43805E+06         0.00000E+00
    0.43805E+06         0.27572E+08         0.00000E+00
    0.00000E+00         0.00000E+00         0.11818E+08
 
    0.11787E+08         0.44889E+06         0.00000E+00
    0.44889E+06         0.27497E+08         0.00000E+00
    0.00000E+00         0.00000E+00         0.11785E+08
 
    0.11754E+08         0.45984E+06         0.00000E+00
    0.45984E+06         0.27419E+08         0.00000E+00
    0.00000E+00         0.00000E+00         0.11752E+08
 
    0.11720E+08         0.47088E+06         0.00000E+00
    0.47088E+06         0.27340E+08         0.00000E+00
    0.00000E+00         0.00000E+00         0.11718E+08
 
    0.11685E+08         0.48201E+06         0.00000E+00
    0.48201E+06         0.27258E+08         0.00000E+00
    0.00000E+00         0.00000E+00         0.11683E+08
 
    0.11649E+08         0.49321E+06         0.00000E+00
    0.49321E+06         0.27173E+08         0.00000E+00
    0.00000E+00         0.00000E+00         0.11647E+08
 
    0.11611E+08         0.50447E+06         0.00000E+00
    0.50447E+06         0.27086E+08         0.00000E+00
    0.00000E+00         0.00000E+00         0.11609E+08
 
    0.11573E+08         0.51575E+06         0.00000E+00
    0.51575E+06         0.26996E+08         0.00000E+00
    0.00000E+00         0.00000E+00         0.11571E+08
 
    0.11534E+08         0.52705E+06         0.00000E+00
    0.52705E+06         0.26904E+08         0.00000E+00
    0.00000E+00         0.00000E+00         0.11531E+08
 
    0.11493E+08         0.53833E+06         0.00000E+00
    0.53833E+06         0.26809E+08         0.00000E+00
    0.00000E+00         0.00000E+00         0.11491E+08
 
    0.11451E+08         0.54958E+06         0.00000E+00
    0.54958E+06         0.26712E+08         0.00000E+00
    0.00000E+00         0.00000E+00         0.11449E+08
 
    0.11408E+08         0.56076E+06         0.00000E+00
    0.56076E+06         0.26611E+08         0.00000E+00
    0.00000E+00         0.00000E+00         0.11406E+08
 
    0.11364E+08         0.57185E+06         0.00000E+00
    0.57185E+06         0.26508E+08         0.00000E+00
    0.00000E+00         0.00000E+00         0.11362E+08
 
    0.11318E+08         0.58282E+06         0.00000E+00
    0.58282E+06         0.26402E+08         0.00000E+00
    0.00000E+00         0.00000E+00         0.11316E+08
 
    0.11272E+08         0.59361E+06         0.00000E+00
    0.59361E+06         0.26293E+08         0.00000E+00
    0.00000E+00         0.00000E+00         0.11269E+08
 
    0.11224E+08         0.60421E+06         0.00000E+00
    0.60421E+06         0.26181E+08         0.00000E+00
    0.00000E+00         0.00000E+00         0.11221E+08
 
    0.11174E+08         0.61457E+06         0.00000E+00
    0.61457E+06         0.26066E+08         0.00000E+00
    0.00000E+00         0.00000E+00         0.11172E+08
 
    0.11124E+08         0.62463E+06         0.00000E+00
    0.62463E+06         0.25948E+08         0.00000E+00
    0.00000E+00         0.00000E+00         0.11122E+08
 
    0.11072E+08         0.63436E+06         0.00000E+00
    0.63436E+06         0.25827E+08         0.00000E+00
    0.00000E+00         0.00000E+00         0.11070E+08
 
    0.11018E+08         0.64369E+06         0.00000E+00
    0.64369E+06         0.25703E+08         0.00000E+00
    0.00000E+00         0.00000E+00         0.11016E+08
 
    0.10963E+08         0.65257E+06         0.00000E+00
    0.65257E+06         0.25575E+08         0.00000E+00
    0.00000E+00         0.00000E+00         0.10961E+08
 
    0.10907E+08         0.66094E+06         0.00000E+00
    0.66094E+06         0.25444E+08         0.00000E+00
    0.00000E+00         0.00000E+00         0.10905E+08
 
    0.10849E+08         0.66873E+06         0.00000E+00
    0.66873E+06         0.25310E+08         0.00000E+00
    0.00000E+00         0.00000E+00         0.10848E+08
 
    0.10790E+08         0.67587E+06         0.00000E+00
    0.67587E+06         0.25172E+08         0.00000E+00
    0.00000E+00         0.00000E+00         0.10789E+08
 
    0.10729E+08         0.68227E+06         0.00000E+00
    0.68227E+06         0.25031E+08         0.00000E+00
    0.00000E+00         0.00000E+00         0.10728E+08
 
    0.10667E+08         0.68786E+06         0.00000E+00
    0.68786E+06         0.24887E+08         0.00000E+00
    0.00000E+00         0.00000E+00         0.10666E+08
 
    0.10604E+08         0.69255E+06         0.00000E+00
    0.69255E+06         0.24739E+08         0.00000E+00
    0.00000E+00         0.00000E+00         0.10603E+08
 
    0.10538E+08         0.69624E+06         0.00000E+00
    0.69624E+06         0.24587E+08         0.00000E+00
    0.00000E+00         0.00000E+00         0.10538E+08
 
    0.10472E+08         0.69884E+06         0.00000E+00
    0.69884E+06         0.24432E+08         0.00000E+00
    0.00000E+00         0.00000E+00         0.10471E+08
 
    0.10403E+08         0.70024E+06         0.00000E+00
    0.70024E+06         0.24274E+08         0.00000E+00
    0.00000E+00         0.00000E+00         0.10403E+08
 
    0.10333E+08         0.70034E+06         0.00000E+00
    0.70034E+06         0.24111E+08         0.00000E+00
    0.00000E+00         0.00000E+00         0.10333E+08
 
    0.10262E+08         0.69903E+06         0.00000E+00
    0.69903E+06         0.23945E+08         0.00000E+00
    0.00000E+00         0.00000E+00         0.10262E+08
 
    0.10188E+08         0.69621E+06         0.00000E+00
    0.69621E+06         0.23775E+08         0.00000E+00
    0.00000E+00         0.00000E+00         0.10189E+08
 
    0.10114E+08         0.69176E+06         0.00000E+00
    0.69176E+06         0.23602E+08         0.00000E+00
    0.00000E+00         0.00000E+00         0.10115E+08
 
    0.10037E+08         0.68558E+06         0.00000E+00
    0.68558E+06         0.23425E+08         0.00000E+00
    0.00000E+00         0.00000E+00         0.10039E+08
 
    0.99592E+07         0.67759E+06         0.00000E+00
    0.67759E+06         0.23244E+08         0.00000E+00
    0.00000E+00         0.00000E+00         0.99610E+07
 
    0.98796E+07         0.66770E+06         0.00000E+00
    0.66770E+06         0.23060E+08         0.00000E+00
    0.00000E+00         0.00000E+00         0.98818E+07
 
    0.97985E+07         0.65585E+06         0.00000E+00
    0.65585E+06         0.22872E+08         0.00000E+00
    0.00000E+00         0.00000E+00         0.98010E+07
 
    0.97159E+07         0.64199E+06         0.00000E+00
    0.64199E+06         0.22680E+08         0.00000E+00
    0.00000E+00         0.00000E+00         0.97189E+07
 
    0.96320E+07         0.62609E+06         0.00000E+00
    0.62609E+06         0.22486E+08         0.00000E+00
    0.00000E+00         0.00000E+00         0.96354E+07
 
    0.95469E+07         0.60814E+06         0.00000E+00
    0.60814E+06         0.22289E+08         0.00000E+00
    0.00000E+00         0.00000E+00         0.95507E+07
 
    0.94609E+07         0.58815E+06         0.00000E+00
    0.58815E+06         0.22089E+08         0.00000E+00
    0.00000E+00         0.00000E+00         0.94651E+07
 
    0.93742E+07         0.56615E+06         0.00000E+00
    0.56615E+06         0.21888E+08         0.00000E+00
    0.00000E+00         0.00000E+00         0.93788E+07
 
    0.92872E+07         0.54211E+06         0.00000E+00
    0.54211E+06         0.21687E+08         0.00000E+00
    0.00000E+00         0.00000E+00         0.92922E+07
 
    0.92004E+07         0.51597E+06         0.00000E+00
    0.51597E+06         0.21486E+08         0.00000E+00
    0.00000E+00         0.00000E+00         0.92058E+07
 
    0.91143E+07         0.48756E+06         0.00000E+00
    0.48756E+06         0.21287E+08         0.00000E+00
    0.00000E+00         0.00000E+00         0.91203E+07
 
    0.90297E+07         0.45647E+06         0.00000E+00
    0.45647E+06         0.21091E+08         0.00000E+00
    0.00000E+00         0.00000E+00         0.90363E+07
 
    0.89473E+07         0.42188E+06         0.00000E+00
    0.42188E+06         0.20902E+08         0.00000E+00
    0.00000E+00         0.00000E+00         0.89547E+07
 
    0.88680E+07         0.38242E+06         0.00000E+00
    0.38242E+06         0.20721E+08         0.00000E+00
    0.00000E+00         0.00000E+00         0.88766E+07
 
    0.87924E+07         0.33563E+06         0.00000E+00
    0.33563E+06         0.20550E+08         0.00000E+00
    0.00000E+00         0.00000E+00         0.88027E+07
 
    0.87214E+07         0.27731E+06         0.00000E+00
    0.27731E+06         0.20394E+08         0.00000E+00
    0.00000E+00         0.00000E+00         0.87347E+07
 
    0.86542E+07         0.20036E+06         0.00000E+00
    0.20036E+06         0.20252E+08         0.00000E+00
    0.00000E+00         0.00000E+00         0.86718E+07
 
    0.85854E+07         0.78063E+05         0.00000E+00
    0.78063E+05         0.20139E+08         0.00000E+00
    0.00000E+00         0.00000E+00         0.86174E+07
 
    0.12686E+08         0.10893E+05         0.00000E+00
    0.10893E+05         0.29550E+08         0.00000E+00
    0.00000E+00         0.00000E+00         0.12671E+08
 
    0.12672E+08         0.30141E+05         0.00000E+00
    0.30141E+05         0.29535E+08         0.00000E+00
    0.00000E+00         0.00000E+00         0.12662E+08
 
    0.12661E+08         0.44911E+05         0.00000E+00
    0.44911E+05         0.29515E+08         0.00000E+00
    0.00000E+00         0.00000E+00         0.12653E+08
 
    0.12650E+08         0.56904E+05         0.00000E+00
    0.56904E+05         0.29493E+08         0.00000E+00
    0.00000E+00         0.00000E+00         0.12643E+08
 
    0.12638E+08         0.67453E+05         0.00000E+00
    0.67453E+05         0.29469E+08         0.00000E+00
    0.00000E+00         0.00000E+00         0.12632E+08
 
    0.12626E+08         0.77055E+05         0.00000E+00
    0.77055E+05         0.29443E+08         0.00000E+00
    0.00000E+00         0.00000E+00         0.12621E+08
 
    0.12614E+08         0.86090E+05         0.00000E+00
    0.86090E+05         0.29416E+08         0.00000E+00
    0.00000E+00         0.00000E+00         0.12609E+08
 
    0.12602E+08         0.94756E+05         0.00000E+00
    0.94756E+05         0.29387E+08         0.00000E+00
    0.00000E+00         0.00000E+00         0.12597E+08
 
    0.12589E+08         0.10318E+06         0.00000E+00
    0.10318E+06         0.29357E+08         0.00000E+00
    0.00000E+00         0.00000E+00         0.12584E+08
 
    0.12576E+08         0.11144E+06         0.00000E+00
    0.11144E+06         0.29327E+08         0.00000E+00
    0.00000E+00         0.00000E+00         0.12571E+08
 
    0.12562E+08         0.11955E+06         0.00000E+00
    0.11955E+06         0.29296E+08         0.00000E+00
    0.00000E+00         0.00000E+00         0.12557E+08
 
    0.12549E+08         0.12755E+06         0.00000E+00
    0.12755E+06         0.29264E+08         0.00000E+00
    0.00000E+00         0.00000E+00         0.12544E+08
 
    0.12535E+08         0.13545E+06         0.00000E+00
    0.13545E+06         0.29233E+08         0.00000E+00
    0.00000E+00         0.00000E+00         0.12530E+08
 
    0.12521E+08         0.14324E+06         0.00000E+00
    0.14324E+06         0.29200E+08         0.00000E+00
    0.00000E+00         0.00000E+00         0.12516E+08
 
    0.12507E+08         0.15094E+06         0.00000E+00
    0.15094E+06         0.29168E+08         0.00000E+00
    0.00000E+00         0.00000E+00         0.12502E+08
 
    0.12493E+08         0.15855E+06         0.00000E+00
    0.15855E+06         0.29135E+08         0.00000E+00
    0.00000E+00         0.00000E+00         0.12488E+08
 
    0.12478E+08         0.16608E+06         0.00000E+00
    0.16608E+06         0.29101E+08         0.00000E+00
    0.00000E+00         0.00000E+00         0.12474E+08
 
    0.12464E+08         0.17355E+06         0.00000E+00
    0.17355E+06         0.29067E+08         0.00000E+00
    0.00000E+00         0.00000E+00         0.12459E+08
 
    0.12449E+08         0.18097E+06         0.00000E+00
    0.18097E+06         0.29033E+08         0.00000E+00
    0.00000E+00         0.00000E+00         0.12445E+08
 
    0.12434E+08         0.18834E+06         0.00000E+00
    0.18834E+06         0.28998E+08         0.00000E+00
    0.00000E+00         0.00000E+00         0.12430E+08
 
    0.12419E+08         0.19570E+06         0.00000E+00
    0.19570E+06         0.28962E+08         0.00000E+00
    0.00000E+00         0.00000E+00         0.12414E+08
 
    0.12403E+08         0.20305E+06         0.00000E+00
    0.20305E+06         0.28926E+08         0.00000E+00
    0.00000E+00         0.00000E+00         0.12399E+08
 
    0.12387E+08         0.21040E+06         0.00000E+00
    0.21040E+06         0.28889E+08         0.00000E+00
    0.00000E+00         0.00000E+00         0.12383E+08
 
    0.12371E+08         0.21779E+06         0.00000E+00
    0.21779E+06         0.28851E+08         0.00000E+00
    0.00000E+00         0.00000E+00         0.12367E+08
 
    0.12355E+08         0.22522E+06         0.00000E+00
    0.22522E+06         0.28813E+08         0.00000E+00
    0.00000E+00         0.00000E+00         0.12350E+08
 
    0.12338E+08         0.23270E+06         0.00000E+00
    0.23270E+06         0.28774E+08         0.00000E+00
    0.00000E+00         0.00000E+00         0.12333E+08
 
    0.12321E+08         0.24026E+06         0.00000E+00
    0.24026E+06         0.28733E+08         0.00000E+00
    0.00000E+00         0.00000E+00         0.12316E+08
 
    0.12303E+08         0.24790E+06         0.00000E+00
    0.24790E+06         0.28692E+08         0.00000E+00
    0.00000E+00         0.00000E+00         0.12299E+08
 
    0.12285E+08         0.25564E+06         0.00000E+00
    0.25564E+06         0.28649E+08         0.00000E+00
    0.00000E+00         0.00000E+00         0.12280E+08
 
    0.12267E+08         0.26348E+06         0.00000E+00
    0.26348E+06         0.28606E+08         0.00000E+00
    0.00000E+00         0.00000E+00         0.12262E+08
 
    0.12248E+08         0.27145E+06         0.00000E+00
    0.27145E+06         0.28561E+08         0.00000E+00
    0.00000E+00         0.00000E+00         0.12243E+08
 
    0.12228E+08         0.27954E+06         0.00000E+00
    0.27954E+06         0.28515E+08         0.00000E+00
    0.00000E+00         0.00000E+00         0.12223E+08
 
    0.12208E+08         0.28777E+06         0.00000E+00
    0.28777E+06         0.28468E+08         0.00000E+00
    0.00000E+00         0.00000E+00         0.12203E+08
 
    0.12187E+08         0.29613E+06         0.00000E+00
    0.29613E+06         0.28420E+08         0.00000E+00
    0.00000E+00         0.00000E+00         0.12182E+08
 
    0.12166E+08         0.30465E+06         0.00000E+00
    0.30465E+06         0.28370E+08         0.00000E+00
    0.00000E+00         0.00000E+00         0.12161E+08
 
    0.12144E+08         0.31332E+06         0.00000E+00
    0.31332E+06         0.28319E+08         0.00000E+00
    0.00000E+00         0.00000E+00         0.12139E+08
 
    0.12122E+08         0.32214E+06         0.00000E+00
    0.32214E+06         0.28266E+08         0.00000E+00
    0.00000E+00         0.00000E+00         0.12116E+08
 
    0.12099E+08         0.33112E+06         0.00000E+00
    0.33112E+06         0.28211E+08         0.00000E+00
    0.00000E+00         0.00000E+00         0.12093E+08
 
    0.12075E+08         0.34027E+06         0.00000E+00
    0.34027E+06         0.28156E+08         0.00000E+00
    0.00000E+00         0.00000E+00         0.12069E+08
 
    0.12050E+08         0.34957E+06         0.00000E+00
    0.34957E+06         0.28098E+08         0.00000E+00
    0.00000E+00         0.00000E+00         0.12044E+08
 
    0.12025E+08         0.35903E+06         0.00000E+00
    0.35903E+06         0.28039E+08         0.00000E+00
    0.00000E+00         0.00000E+00         0.12019E+08
 
    0.11999E+08         0.36865E+06         0.00000E+00
    0.36865E+06         0.27977E+08         0.00000E+00
    0.00000E+00         0.00000E+00         0.11993E+08
 
    0.11972E+08         0.37843E+06         0.00000E+00
    0.37843E+06         0.27914E+08         0.00000E+00
    0.00000E+00         0.00000E+00         0.11966E+08
 
    0.11944E+08         0.38836E+06         0.00000E+00
    0.38836E+06         0.27850E+08         0.00000E+00
    0.00000E+00         0.00000E+00         0.11938E+08
 
    0.11916E+08         0.39844E+06         0.00000E+00
    0.39844E+06         0.27783E+08         0.00000E+00
    0.00000E+00         0.00000E+00         0.11910E+08
 
    0.11886E+08         0.40865E+06         0.00000E+00
    0.40865E+06         0.27714E+08         0.00000E+00
    0.00000E+00         0.00000E+00         0.11880E+08
 
    0.11856E+08         0.41901E+06         0.00000E+00
    0.41901E+06         0.27643E+08         0.00000E+00
    0.00000E+00         0.00000E+00         0.11850E+08
 
    0.11825E+08         0.42949E+06         0.00000E+00
    0.42949E+06         0.27570E+08         0.00000E+00
    0.00000E+00         0.00000E+00         0.11818E+08
 
    0.11793E+08         0.44008E+06         0.00000E+00
    0.44008E+06         0.27495E+08         0.00000E+00
    0.00000E+00         0.00000E+00         0.11786E+08
 
    0.11760E+08         0.45079E+06         0.00000E+00
    0.45079E+06         0.27417E+08         0.00000E+00
    0.00000E+00         0.00000E+00         0.11753E+08
 
    0.11726E+08         0.46158E+06         0.00000E+00
    0.46158E+06         0.27337E+08         0.00000E+00
    0.00000E+00         0.00000E+00         0.11719E+08
 
    0.11690E+08         0.47246E+06         0.00000E+00
    0.47246E+06         0.27255E+08         0.00000E+00
    0.00000E+00         0.00000E+00         0.11684E+08
 
    0.11654E+08         0.48340E+06         0.00000E+00
    0.48340E+06         0.27171E+08         0.00000E+00
    0.00000E+00         0.00000E+00         0.11647E+08
 
    0.11617E+08         0.49439E+06         0.00000E+00
    0.49439E+06         0.27084E+08         0.00000E+00
    0.00000E+00         0.00000E+00         0.11610E+08
 
    0.11579E+08         0.50541E+06         0.00000E+00
    0.50541E+06         0.26994E+08         0.00000E+00
    0.00000E+00         0.00000E+00         0.11572E+08
 
    0.11539E+08         0.51643E+06         0.00000E+00
    0.51643E+06         0.26902E+08         0.00000E+00
    0.00000E+00         0.00000E+00         0.11532E+08
 
    0.11498E+08         0.52744E+06         0.00000E+00
    0.52744E+06         0.26807E+08         0.00000E+00
    0.00000E+00         0.00000E+00         0.11492E+08
 
    0.11457E+08         0.53841E+06         0.00000E+00
    0.53841E+06         0.26710E+08         0.00000E+00
    0.00000E+00         0.00000E+00         0.11450E+08
 
    0.11414E+08         0.54931E+06         0.00000E+00
    0.54931E+06         0.26609E+08         0.00000E+00
    0.00000E+00         0.00000E+00         0.11407E+08
 
    0.11369E+08         0.56011E+06         0.00000E+00
    0.56011E+06         0.26506E+08         0.00000E+00
    0.00000E+00         0.00000E+00         0.11363E+08
 
    0.11324E+08         0.57079E+06         0.00000E+00
    0.57079E+06         0.26400E+08         0.00000E+00
    0.00000E+00         0.00000E+00         0.11317E+08
 
    0.11277E+08         0.58130E+06         0.00000E+00
    0.58130E+06         0.26291E+08         0.00000E+00
    0.00000E+00         0.00000E+00         0.11270E+08
 
    0.11229E+08         0.59160E+06         0.00000E+00
    0.59160E+06         0.26179E+08         0.00000E+00
    0.00000E+00         0.00000E+00         0.11222E+08
 
    0.11179E+08         0.60166E+06         0.00000E+00
    0.60166E+06         0.26064E+08         0.00000E+00
    0.00000E+00         0.00000E+00         0.11173E+08
 
    0.11128E+08         0.61143E+06         0.00000E+00
    0.61143E+06         0.25946E+08         0.00000E+00
    0.00000E+00         0.00000E+00         0.11122E+08
 
    0.11076E+08         0.62086E+06         0.00000E+00
    0.62086E+06         0.25825E+08         0.00000E+00
    0.00000E+00         0.00000E+00         0.11070E+08
 
    0.11023E+08         0.62990E+06         0.00000E+00
    0.62990E+06         0.25701E+08         0.00000E+00
    0.00000E+00         0.00000E+00         0.11017E+08
 
    0.10967E+08         0.63849E+06         0.00000E+00
    0.63849E+06         0.25573E+08         0.00000E+00
    0.00000E+00         0.00000E+00         0.10962E+08
 
    0.10911E+08         0.64656E+06         0.00000E+00
    0.64656E+06         0.25443E+08         0.00000E+00
    0.00000E+00         0.00000E+00         0.10906E+08
 
    0.10853E+08         0.65406E+06         0.00000E+00
    0.65406E+06         0.25308E+08         0.00000E+00
    0.00000E+00         0.00000E+00         0.10848E+08
 
    0.10793E+08         0.66091E+06         0.00000E+00
    0.66091E+06         0.25171E+08         0.00000E+00
    0.00000E+00         0.00000E+00         0.10789E+08
 
    0.10732E+08         0.66703E+06         0.00000E+00
    0.66703E+06         0.25030E+08         0.00000E+00
    0.00000E+00         0.00000E+00         0.10729E+08
 
    0.10670E+08         0.67234E+06         0.00000E+00
    0.67234E+06         0.24886E+08         0.00000E+00
    0.00000E+00         0.00000E+00         0.10667E+08
 
    0.10606E+08         0.67675E+06         0.00000E+00
    0.67675E+06         0.24738E+08         0.00000E+00
    0.00000E+00         0.00000E+00         0.10603E+08
 
    0.10540E+08         0.68018E+06         0.00000E+00
    0.68018E+06         0.24587E+08         0.00000E+00
    0.00000E+00         0.00000E+00         0.10538E+08
 
    0.10473E+08         0.68252E+06         0.00000E+00
    0.68252E+06         0.24432E+08         0.00000E+00
    0.00000E+00         0.00000E+00         0.10471E+08
 
    0.10404E+08         0.68367E+06         0.00000E+00
    0.68367E+06         0.24273E+08         0.00000E+00
    0.00000E+00         0.00000E+00         0.10403E+08
 
    0.10333E+08         0.68353E+06         0.00000E+00
    0.68353E+06         0.24111E+08         0.00000E+00
    0.00000E+00         0.00000E+00         0.10333E+08
 
    0.10261E+08         0.68199E+06         0.00000E+00
    0.68199E+06         0.23946E+08         0.00000E+00
    0.00000E+00         0.00000E+00         0.10262E+08
 
    0.10187E+08         0.67894E+06         0.00000E+00
    0.67894E+06         0.23776E+08         0.00000E+00
    0.00000E+00         0.00000E+00         0.10189E+08
 
    0.10111E+08         0.67428E+06         0.00000E+00
    0.67428E+06         0.23603E+08         0.00000E+00
    0.00000E+00         0.00000E+00         0.10114E+08
 
    0.10034E+08         0.66791E+06         0.00000E+00
    0.66791E+06         0.23426E+08         0.00000E+00
    0.00000E+00         0.00000E+00         0.10038E+08
 
    0.99550E+07         0.65973E+06         0.00000E+00
    0.65973E+06         0.23246E+08         0.00000E+00
    0.00000E+00         0.00000E+00         0.99602E+07
 
    0.98744E+07         0.64966E+06         0.00000E+00
    0.64966E+06         0.23062E+08         0.00000E+00
    0.00000E+00         0.00000E+00         0.98809E+07
 
    0.97923E+07         0.63763E+06         0.00000E+00
    0.63763E+06         0.22874E+08         0.00000E+00
    0.00000E+00         0.00000E+00         0.98000E+07
 
    0.97087E+07         0.62359E+06         0.00000E+00
    0.62359E+06         0.22683E+08         0.00000E+00
    0.00000E+00         0.00000E+00         0.97176E+07
 
    0.96238E+07         0.60750E+06         0.00000E+00
    0.60750E+06         0.22489E+08         0.00000E+00
    0.00000E+00         0.00000E+00         0.96339E+07
 
    0.95377E+07         0.58935E+06         0.00000E+00
    0.58935E+06         0.22293E+08         0.00000E+00
    0.00000E+00         0.00000E+00         0.95491E+07
 
    0.94507E+07         0.56913E+06         0.00000E+00
    0.56913E+06         0.22094E+08         0.00000E+00
    0.00000E+00         0.00000E+00         0.94633E+07
 
    0.93630E+07         0.54686E+06         0.00000E+00
    0.54686E+06         0.21893E+08         0.00000E+00
    0.00000E+00         0.00000E+00         0.93768E+07
 
    0.92749E+07         0.52249E+06         0.00000E+00
    0.52249E+06         0.21692E+08         0.00000E+00
    0.00000E+00         0.00000E+00         0.92900E+07
 
    0.91870E+07         0.49597E+06         0.00000E+00
    0.49597E+06         0.21491E+08         0.00000E+00
    0.00000E+00         0.00000E+00         0.92035E+07
 
    0.90997E+07         0.46708E+06         0.00000E+00
    0.46708E+06         0.21293E+08         0.00000E+00
    0.00000E+00         0.00000E+00         0.91177E+07
 
    0.90136E+07         0.43541E+06         0.00000E+00
    0.43541E+06         0.21098E+08         0.00000E+00
    0.00000E+00         0.00000E+00         0.90334E+07
 
    0.89291E+07         0.40014E+06         0.00000E+00
    0.40014E+06         0.20909E+08         0.00000E+00
    0.00000E+00         0.00000E+00         0.89515E+07
 
    0.88469E+07         0.35996E+06         0.00000E+00
    0.35996E+06         0.20729E+08         0.00000E+00
    0.00000E+00         0.00000E+00         0.88728E+07
 
    0.87670E+07         0.31227E+06         0.00000E+00
    0.31227E+06         0.20561E+08         0.00000E+00
    0.00000E+00         0.00000E+00         0.87983E+07
 
    0.86887E+07         0.25369E+06         0.00000E+00
    0.25369E+06         0.20407E+08         0.00000E+00
    0.00000E+00         0.00000E+00         0.87286E+07
 
    0.86109E+07         0.17498E+06         0.00000E+00
    0.17498E+06         0.20272E+08         0.00000E+00
    0.00000E+00         0.00000E+00         0.86648E+07
 
    0.85113E+07         0.64333E+05         0.00000E+00
    0.64333E+05         0.20166E+08         0.00000E+00
    0.00000E+00         0.00000E+00         0.86032E+07
 
    0.12697E+08         0.94968E+04         0.00000E+00
    0.94968E+04         0.29546E+08         0.00000E+00
    0.00000E+00         0.00000E+00         0.12673E+08
 
    0.12680E+08         0.27128E+05         0.00000E+00
    0.27128E+05         0.29531E+08         0.00000E+00
    0.00000E+00         0.00000E+00         0.12663E+08
 
    0.12667E+08         0.41695E+05         0.00000E+00
    0.41695E+05         0.29513E+08         0.00000E+00
    0.00000E+00         0.00000E+00         0.12654E+08
 
    0.12655E+08         0.53688E+05         0.00000E+00
    0.53688E+05         0.29491E+08         0.00000E+00
    0.00000E+00         0.00000E+00         0.12644E+08
 
    0.12643E+08         0.64246E+05         0.00000E+00
    0.64246E+05         0.29467E+08         0.00000E+00
    0.00000E+00         0.00000E+00         0.12633E+08
 
    0.12631E+08         0.73886E+05         0.00000E+00
    0.73886E+05         0.29441E+08         0.00000E+00
    0.00000E+00         0.00000E+00         0.12622E+08
 
    0.12619E+08         0.82944E+05         0.00000E+00
    0.82944E+05         0.29414E+08         0.00000E+00
    0.00000E+00         0.00000E+00         0.12610E+08
 
    0.12606E+08         0.91625E+05         0.00000E+00
    0.91625E+05         0.29385E+08         0.00000E+00
    0.00000E+00         0.00000E+00         0.12597E+08
 
    0.12593E+08         0.10005E+06         0.00000E+00
    0.10005E+06         0.29356E+08         0.00000E+00
    0.00000E+00         0.00000E+00         0.12585E+08
 
    0.12580E+08         0.10828E+06         0.00000E+00
    0.10828E+06         0.29325E+08         0.00000E+00
    0.00000E+00         0.00000E+00         0.12571E+08
 
    0.12566E+08         0.11637E+06         0.00000E+00
    0.11637E+06         0.29294E+08         0.00000E+00
    0.00000E+00         0.00000E+00         0.12558E+08
 
    0.12553E+08         0.12432E+06         0.00000E+00
    0.12432E+06         0.29263E+08         0.00000E+00
    0.00000E+00         0.00000E+00         0.12545E+08
 
    0.12539E+08         0.13216E+06         0.00000E+00
    0.13216E+06         0.29231E+08         0.00000E+00
    0.00000E+00         0.00000E+00         0.12531E+08
 
    0.12525E+08         0.13988E+06         0.00000E+00
    0.13988E+06         0.29199E+08         0.00000E+00
    0.00000E+00         0.00000E+00         0.12517E+08
 
    0.12511E+08         0.14751E+06         0.00000E+00
    0.14751E+06         0.29166E+08         0.00000E+00
    0.00000E+00         0.00000E+00         0.12503E+08
 
    0.12496E+08         0.15503E+06         0.00000E+00
    0.15503E+06         0.29133E+08         0.00000E+00
    0.00000E+00         0.00000E+00         0.12489E+08
 
    0.12482E+08         0.16248E+06         0.00000E+00
    0.16248E+06         0.29100E+08         0.00000E+00
    0.00000E+00         0.00000E+00         0.12475E+08
 
    0.12467E+08         0.16985E+06         0.00000E+00
    0.16985E+06         0.29066E+08         0.00000E+00
    0.00000E+00         0.00000E+00         0.12460E+08
 
    0.12453E+08         0.17717E+06         0.00000E+00
    0.17717E+06         0.29031E+08         0.00000E+00
    0.00000E+00         0.00000E+00         0.12445E+08
 
    0.12438E+08         0.18444E+06         0.00000E+00
    0.18444E+06         0.28996E+08         0.00000E+00
    0.00000E+00         0.00000E+00         0.12430E+08
 
    0.12422E+08         0.19169E+06         0.00000E+00
    0.19169E+06         0.28961E+08         0.00000E+00
    0.00000E+00         0.00000E+00         0.12415E+08
 
    0.12407E+08         0.19893E+06         0.00000E+00
    0.19893E+06         0.28925E+08         0.00000E+00
    0.00000E+00         0.00000E+00         0.12399E+08
 
    0.12391E+08         0.20617E+06         0.00000E+00
    0.20617E+06         0.28888E+08         0.00000E+00
    0.00000E+00         0.00000E+00         0.12384E+08
 
    0.12375E+08         0.21344E+06         0.00000E+00
    0.21344E+06         0.28850E+08         0.00000E+00
    0.00000E+00         0.00000E+00         0.12368E+08
 
    0.12359E+08         0.22074E+06         0.00000E+00
    0.22074E+06         0.28811E+08         0.00000E+00
    0.00000E+00         0.00000E+00         0.12351E+08
 
    0.12342E+08         0.22810E+06         0.00000E+00
    0.22810E+06         0.28772E+08         0.00000E+00
    0.00000E+00         0.00000E+00         0.12334E+08
 
    0.12325E+08         0.23553E+06         0.00000E+00
    0.23553E+06         0.28732E+08         0.00000E+00
    0.00000E+00         0.00000E+00         0.12317E+08
 
    0.12307E+08         0.24303E+06         0.00000E+00
    0.24303E+06         0.28690E+08         0.00000E+00
    0.00000E+00         0.00000E+00         0.12299E+08
 
    0.12289E+08         0.25063E+06         0.00000E+00
    0.25063E+06         0.28648E+08         0.00000E+00
    0.00000E+00         0.00000E+00         0.12281E+08
 
    0.12270E+08         0.25833E+06         0.00000E+00
    0.25833E+06         0.28604E+08         0.00000E+00
    0.00000E+00         0.00000E+00         0.12262E+08
 
    0.12252E+08         0.26615E+06         0.00000E+00
    0.26615E+06         0.28560E+08         0.00000E+00
    0.00000E+00         0.00000E+00         0.12243E+08
 
    0.12232E+08         0.27409E+06         0.00000E+00
    0.27409E+06         0.28514E+08         0.00000E+00
    0.00000E+00         0.00000E+00         0.12224E+08
 
    0.12212E+08         0.28216E+06         0.00000E+00
    0.28216E+06         0.28467E+08         0.00000E+00
    0.00000E+00         0.00000E+00         0.12204E+08
 
    0.12191E+08         0.29036E+06         0.00000E+00
    0.29036E+06         0.28418E+08         0.00000E+00
    0.00000E+00         0.00000E+00         0.12183E+08
 
    0.12170E+08         0.29871E+06         0.00000E+00
    0.29871E+06         0.28368E+08         0.00000E+00
    0.00000E+00         0.00000E+00         0.12162E+08
 
    0.12149E+08         0.30721E+06         0.00000E+00
    0.30721E+06         0.28317E+08         0.00000E+00
    0.00000E+00         0.00000E+00         0.12140E+08
 
    0.12126E+08         0.31585E+06         0.00000E+00
    0.31585E+06         0.28264E+08         0.00000E+00
    0.00000E+00         0.00000E+00         0.12117E+08
 
    0.12103E+08         0.32465E+06         0.00000E+00
    0.32465E+06         0.28210E+08         0.00000E+00
    0.00000E+00         0.00000E+00         0.12094E+08
 
    0.12079E+08         0.33361E+06         0.00000E+00
    0.33361E+06         0.28154E+08         0.00000E+00
    0.00000E+00         0.00000E+00         0.12070E+08
 
    0.12055E+08         0.34272E+06         0.00000E+00
    0.34272E+06         0.28096E+08         0.00000E+00
    0.00000E+00         0.00000E+00         0.12045E+08
 
    0.12030E+08         0.35198E+06         0.00000E+00
    0.35198E+06         0.28037E+08         0.00000E+00
    0.00000E+00         0.00000E+00         0.12020E+08
 
    0.12004E+08         0.36140E+06         0.00000E+00
    0.36140E+06         0.27975E+08         0.00000E+00
    0.00000E+00         0.00000E+00         0.11994E+08
 
    0.11977E+08         0.37097E+06         0.00000E+00
    0.37097E+06         0.27912E+08         0.00000E+00
    0.00000E+00         0.00000E+00         0.11967E+08
 
    0.11949E+08         0.38069E+06         0.00000E+00
    0.38069E+06         0.27848E+08         0.00000E+00
    0.00000E+00         0.00000E+00         0.11939E+08
 
    0.11921E+08         0.39054E+06         0.00000E+00
    0.39054E+06         0.27781E+08         0.00000E+00
    0.00000E+00         0.00000E+00         0.11910E+08
 
    0.11891E+08         0.40054E+06         0.00000E+00
    0.40054E+06         0.27712E+08         0.00000E+00
    0.00000E+00         0.00000E+00         0.11881E+08
 
    0.11861E+08         0.41066E+06         0.00000E+00
    0.41066E+06         0.27641E+08         0.00000E+00
    0.00000E+00         0.00000E+00         0.11851E+08
 
    0.11830E+08         0.42091E+06         0.00000E+00
    0.42091E+06         0.27568E+08         0.00000E+00
    0.00000E+00         0.00000E+00         0.11819E+08
 
    0.11798E+08         0.43127E+06         0.00000E+00
    0.43127E+06         0.27493E+08         0.00000E+00
    0.00000E+00         0.00000E+00         0.11787E+08
 
    0.11765E+08         0.44173E+06         0.00000E+00
    0.44173E+06         0.27415E+08         0.00000E+00
    0.00000E+00         0.00000E+00         0.11754E+08
 
    0.11731E+08         0.45228E+06         0.00000E+00
    0.45228E+06         0.27335E+08         0.00000E+00
    0.00000E+00         0.00000E+00         0.11720E+08
 
    0.11696E+08         0.46290E+06         0.00000E+00
    0.46290E+06         0.27253E+08         0.00000E+00
    0.00000E+00         0.00000E+00         0.11685E+08
 
    0.11660E+08         0.47358E+06         0.00000E+00
    0.47358E+06         0.27169E+08         0.00000E+00
    0.00000E+00         0.00000E+00         0.11648E+08
 
    0.11622E+08         0.48431E+06         0.00000E+00
    0.48431E+06         0.27082E+08         0.00000E+00
    0.00000E+00         0.00000E+00         0.11611E+08
 
    0.11584E+08         0.49506E+06         0.00000E+00
    0.49506E+06         0.26992E+08         0.00000E+00
    0.00000E+00         0.00000E+00         0.11573E+08
 
    0.11545E+08         0.50582E+06         0.00000E+00
    0.50582E+06         0.26900E+08         0.00000E+00
    0.00000E+00         0.00000E+00         0.11533E+08
 
    0.11504E+08         0.51655E+06         0.00000E+00
    0.51655E+06         0.26805E+08         0.00000E+00
    0.00000E+00         0.00000E+00         0.11493E+08
 
    0.11462E+08         0.52725E+06         0.00000E+00
    0.52725E+06         0.26707E+08         0.00000E+00
    0.00000E+00         0.00000E+00         0.11451E+08
 
    0.11419E+08         0.53787E+06         0.00000E+00
    0.53787E+06         0.26607E+08         0.00000E+00
    0.00000E+00         0.00000E+00         0.11408E+08
 
    0.11375E+08         0.54839E+06         0.00000E+00
    0.54839E+06         0.26504E+08         0.00000E+00
    0.00000E+00         0.00000E+00         0.11364E+08
 
    0.11329E+08         0.55878E+06         0.00000E+00
    0.55878E+06         0.26398E+08         0.00000E+00
    0.00000E+00         0.00000E+00         0.11318E+08
 
    0.11282E+08         0.56900E+06         0.00000E+00
    0.56900E+06         0.26289E+08         0.00000E+00
    0.00000E+00         0.00000E+00         0.11271E+08
 
    0.11234E+08         0.57902E+06         0.00000E+00
    0.57902E+06         0.26177E+08         0.00000E+00
    0.00000E+00         0.00000E+00         0.11223E+08
 
    0.11184E+08         0.58879E+06         0.00000E+00
    0.58879E+06         0.26062E+08         0.00000E+00
    0.00000E+00         0.00000E+00         0.11174E+08
 
    0.11133E+08         0.59826E+06         0.00000E+00
    0.59826E+06         0.25944E+08         0.00000E+00
    0.00000E+00         0.00000E+00         0.11123E+08
 
    0.11081E+08         0.60740E+06         0.00000E+00
    0.60740E+06         0.25823E+08         0.00000E+00
    0.00000E+00         0.00000E+00         0.11071E+08
 
    0.11027E+08         0.61615E+06         0.00000E+00
    0.61615E+06         0.25699E+08         0.00000E+00
    0.00000E+00         0.00000E+00         0.11018E+08
 
    0.10972E+08         0.62445E+06         0.00000E+00
    0.62445E+06         0.25572E+08         0.00000E+00
    0.00000E+00         0.00000E+00         0.10963E+08
 
    0.10915E+08         0.63224E+06         0.00000E+00
    0.63224E+06         0.25441E+08         0.00000E+00
    0.00000E+00         0.00000E+00         0.10907E+08
 
    0.10857E+08         0.63945E+06         0.00000E+00
    0.63945E+06         0.25307E+08         0.00000E+00
    0.00000E+00         0.00000E+00         0.10849E+08
 
    0.10797E+08         0.64602E+06         0.00000E+00
    0.64602E+06         0.25170E+08         0.00000E+00
    0.00000E+00         0.00000E+00         0.10790E+08
 
    0.10735E+08         0.65186E+06         0.00000E+00
    0.65186E+06         0.25029E+08         0.00000E+00
    0.00000E+00         0.00000E+00         0.10729E+08
 
    0.10672E+08         0.65690E+06         0.00000E+00
    0.65690E+06         0.24885E+08         0.00000E+00
    0.00000E+00         0.00000E+00         0.10667E+08
 
    0.10608E+08         0.66105E+06         0.00000E+00
    0.66105E+06         0.24737E+08         0.00000E+00
    0.00000E+00         0.00000E+00         0.10604E+08
 
    0.10542E+08         0.66422E+06         0.00000E+00
    0.66422E+06         0.24586E+08         0.00000E+00
    0.00000E+00         0.00000E+00         0.10538E+08
 
    0.10474E+08         0.66631E+06         0.00000E+00
    0.66631E+06         0.24432E+08         0.00000E+00
    0.00000E+00         0.00000E+00         0.10472E+08
 
    0.10404E+08         0.66722E+06         0.00000E+00
    0.66722E+06         0.24273E+08         0.00000E+00
    0.00000E+00         0.00000E+00         0.10403E+08
 
    0.10333E+08         0.66685E+06         0.00000E+00
    0.66685E+06         0.24112E+08         0.00000E+00
    0.00000E+00         0.00000E+00         0.10333E+08
 
    0.10260E+08         0.66509E+06         0.00000E+00
    0.66509E+06         0.23946E+08         0.00000E+00
    0.00000E+00         0.00000E+00         0.10262E+08
 
    0.10185E+08         0.66183E+06         0.00000E+00
    0.66183E+06         0.23777E+08         0.00000E+00
    0.00000E+00         0.00000E+00         0.10189E+08
 
    0.10109E+08         0.65698E+06         0.00000E+00
    0.65698E+06         0.23604E+08         0.00000E+00
    0.00000E+00         0.00000E+00         0.10114E+08
 
    0.10031E+08         0.65041E+06         0.00000E+00
    0.65041E+06         0.23428E+08         0.00000E+00
    0.00000E+00         0.00000E+00         0.10038E+08
 
    0.99507E+07         0.64205E+06         0.00000E+00
    0.64205E+06         0.23248E+08         0.00000E+00
    0.00000E+00         0.00000E+00         0.99595E+07
 
    0.98692E+07         0.63181E+06         0.00000E+00
    0.63181E+06         0.23064E+08         0.00000E+00
    0.00000E+00         0.00000E+00         0.98800E+07
 
    0.97862E+07         0.61960E+06         0.00000E+00
    0.61960E+06         0.22877E+08         0.00000E+00
    0.00000E+00         0.00000E+00         0.97989E+07
 
    0.97016E+07         0.60539E+06         0.00000E+00
    0.60539E+06         0.22686E+08         0.00000E+00
    0.00000E+00         0.00000E+00         0.97164E+07
 
    0.96157E+07         0.58911E+06         0.00000E+00
    0.58911E+06         0.22493E+08         0.00000E+00
    0.00000E+00         0.00000E+00         0.96325E+07
 
    0.95285E+07         0.57076E+06         0.00000E+00
    0.57076E+06         0.22296E+08         0.00000E+00
    0.00000E+00         0.00000E+00         0.95475E+07
 
    0.94404E+07         0.55032E+06         0.00000E+00
    0.55032E+06         0.22098E+08         0.00000E+00
    0.00000E+00         0.00000E+00         0.94615E+07
 
    0.93516E+07         0.52778E+06         0.00000E+00
    0.52778E+06         0.21898E+08         0.00000E+00
    0.00000E+00         0.00000E+00         0.93748E+07
 
    0.92625E+07         0.50310E+06         0.00000E+00
    0.50310E+06         0.21697E+08         0.00000E+00
    0.00000E+00         0.00000E+00         0.92878E+07
 
    0.91734E+07         0.47621E+06         0.00000E+00
    0.47621E+06         0.21497E+08         0.00000E+00
    0.00000E+00         0.00000E+00         0.92010E+07
 
    0.90847E+07         0.44688E+06         0.00000E+00
    0.44688E+06         0.21299E+08         0.00000E+00
    0.00000E+00         0.00000E+00         0.91150E+07
 
    0.89969E+07         0.41471E+06         0.00000E+00
    0.41471E+06         0.21104E+08         0.00000E+00
    0.00000E+00         0.00000E+00         0.90304E+07
 
    0.89103E+07         0.37891E+06         0.00000E+00
    0.37891E+06         0.20917E+08         0.00000E+00
    0.00000E+00         0.00000E+00         0.89481E+07
 
    0.88250E+07         0.33815E+06         0.00000E+00
    0.33815E+06         0.20738E+08         0.00000E+00
    0.00000E+00         0.00000E+00         0.88688E+07
 
    0.87406E+07         0.29013E+06         0.00000E+00
    0.29013E+06         0.20571E+08         0.00000E+00
    0.00000E+00         0.00000E+00         0.87935E+07
 
    0.86557E+07         0.23135E+06         0.00000E+00
    0.23135E+06         0.20420E+08         0.00000E+00
    0.00000E+00         0.00000E+00         0.87227E+07
 
    0.85657E+07         0.15391E+06         0.00000E+00
    0.15391E+06         0.20291E+08         0.00000E+00
    0.00000E+00         0.00000E+00         0.86568E+07
 
    0.84460E+07         0.54540E+05         0.00000E+00
    0.54540E+05         0.20189E+08         0.00000E+00
    0.00000E+00         0.00000E+00         0.85905E+07
 
    0.12707E+08         0.84357E+04         0.00000E+00
    0.84357E+04         0.29542E+08         0.00000E+00
    0.00000E+00         0.00000E+00         0.12675E+08
 
    0.12688E+08         0.24593E+05         0.00000E+00
    0.24593E+05         0.29528E+08         0.00000E+00
    0.00000E+00         0.00000E+00         0.12665E+08
 
    0.12674E+08         0.38702E+05         0.00000E+00
    0.38702E+05         0.29510E+08         0.00000E+00
    0.00000E+00         0.00000E+00         0.12655E+08
 
    0.12661E+08         0.50612E+05         0.00000E+00
    0.50612E+05         0.29489E+08         0.00000E+00
    0.00000E+00         0.00000E+00         0.12645E+08
 
    0.12648E+08         0.61133E+05         0.00000E+00
    0.61133E+05         0.29465E+08         0.00000E+00
    0.00000E+00         0.00000E+00         0.12634E+08
 
    0.12636E+08         0.70776E+05         0.00000E+00
    0.70776E+05         0.29439E+08         0.00000E+00
    0.00000E+00         0.00000E+00         0.12623E+08
 
    0.12623E+08         0.79840E+05         0.00000E+00
    0.79840E+05         0.29412E+08         0.00000E+00
    0.00000E+00         0.00000E+00         0.12611E+08
 
    0.12610E+08         0.88522E+05         0.00000E+00
    0.88522E+05         0.29383E+08         0.00000E+00
    0.00000E+00         0.00000E+00         0.12598E+08
 
    0.12597E+08         0.96935E+05         0.00000E+00
    0.96935E+05         0.29354E+08         0.00000E+00
    0.00000E+00         0.00000E+00         0.12585E+08
 
    0.12584E+08         0.10515E+06         0.00000E+00
    0.10515E+06         0.29324E+08         0.00000E+00
    0.00000E+00         0.00000E+00         0.12572E+08
 
    0.12570E+08         0.11320E+06         0.00000E+00
    0.11320E+06         0.29293E+08         0.00000E+00
    0.00000E+00         0.00000E+00         0.12559E+08
 
    0.12556E+08         0.12110E+06         0.00000E+00
    0.12110E+06         0.29261E+08         0.00000E+00
    0.00000E+00         0.00000E+00         0.12545E+08
 
    0.12543E+08         0.12888E+06         0.00000E+00
    0.12888E+06         0.29229E+08         0.00000E+00
    0.00000E+00         0.00000E+00         0.12532E+08
 
    0.12529E+08         0.13654E+06         0.00000E+00
    0.13654E+06         0.29197E+08         0.00000E+00
    0.00000E+00         0.00000E+00         0.12518E+08
 
    0.12514E+08         0.14408E+06         0.00000E+00
    0.14408E+06         0.29165E+08         0.00000E+00
    0.00000E+00         0.00000E+00         0.12504E+08
 
    0.12500E+08         0.15153E+06         0.00000E+00
    0.15153E+06         0.29132E+08         0.00000E+00
    0.00000E+00         0.00000E+00         0.12490E+08
 
    0.12486E+08         0.15888E+06         0.00000E+00
    0.15888E+06         0.29098E+08         0.00000E+00
    0.00000E+00         0.00000E+00         0.12475E+08
 
    0.12471E+08         0.16616E+06         0.00000E+00
    0.16616E+06         0.29064E+08         0.00000E+00
    0.00000E+00         0.00000E+00         0.12461E+08
 
    0.12456E+08         0.17338E+06         0.00000E+00
    0.17338E+06         0.29030E+08         0.00000E+00
    0.00000E+00         0.00000E+00         0.12446E+08
 
    0.12441E+08         0.18055E+06         0.00000E+00
    0.18055E+06         0.28995E+08         0.00000E+00
    0.00000E+00         0.00000E+00         0.12431E+08
 
    0.12426E+08         0.18769E+06         0.00000E+00
    0.18769E+06         0.28959E+08         0.00000E+00
    0.00000E+00         0.00000E+00         0.12416E+08
 
    0.12410E+08         0.19481E+06         0.00000E+00
    0.19481E+06         0.28923E+08         0.00000E+00
    0.00000E+00         0.00000E+00         0.12400E+08
 
    0.12395E+08         0.20194E+06         0.00000E+00
    0.20194E+06         0.28886E+08         0.00000E+00
    0.00000E+00         0.00000E+00         0.12384E+08
 
    0.12379E+08         0.20908E+06         0.00000E+00
    0.20908E+06         0.28849E+08         0.00000E+00
    0.00000E+00         0.00000E+00         0.12368E+08
 
    0.12362E+08         0.21626E+06         0.00000E+00
    0.21626E+06         0.28810E+08         0.00000E+00
    0.00000E+00         0.00000E+00         0.12352E+08
 
    0.12345E+08         0.22349E+06         0.00000E+00
    0.22349E+06         0.28771E+08         0.00000E+00
    0.00000E+00         0.00000E+00         0.12335E+08
 
    0.12328E+08         0.23079E+06         0.00000E+00
    0.23079E+06         0.28730E+08         0.00000E+00
    0.00000E+00         0.00000E+00         0.12318E+08
 
    0.12311E+08         0.23816E+06         0.00000E+00
    0.23816E+06         0.28689E+08         0.00000E+00
    0.00000E+00         0.00000E+00         0.12300E+08
 
    0.12293E+08         0.24561E+06         0.00000E+00
    0.24561E+06         0.28646E+08         0.00000E+00
    0.00000E+00         0.00000E+00         0.12282E+08
 
    0.12274E+08         0.25317E+06         0.00000E+00
    0.25317E+06         0.28603E+08         0.00000E+00
    0.00000E+00         0.00000E+00         0.12263E+08
 
    0.12255E+08         0.26084E+06         0.00000E+00
    0.26084E+06         0.28558E+08         0.00000E+00
    0.00000E+00         0.00000E+00         0.12244E+08
 
    0.12236E+08         0.26862E+06         0.00000E+00
    0.26862E+06         0.28512E+08         0.00000E+00
    0.00000E+00         0.00000E+00         0.12224E+08
 
    0.12216E+08         0.27653E+06         0.00000E+00
    0.27653E+06         0.28465E+08         0.00000E+00
    0.00000E+00         0.00000E+00         0.12204E+08
 
    0.12196E+08         0.28458E+06         0.00000E+00
    0.28458E+06         0.28417E+08         0.00000E+00
    0.00000E+00         0.00000E+00         0.12184E+08
 
    0.12174E+08         0.29276E+06         0.00000E+00
    0.29276E+06         0.28367E+08         0.00000E+00
    0.00000E+00         0.00000E+00         0.12162E+08
 
    0.12153E+08         0.30108E+06         0.00000E+00
    0.30108E+06         0.28315E+08         0.00000E+00
    0.00000E+00         0.00000E+00         0.12140E+08
 
    0.12130E+08         0.30955E+06         0.00000E+00
    0.30955E+06         0.28262E+08         0.00000E+00
    0.00000E+00         0.00000E+00         0.12118E+08
 
    0.12107E+08         0.31817E+06         0.00000E+00
    0.31817E+06         0.28208E+08         0.00000E+00
    0.00000E+00         0.00000E+00         0.12095E+08
 
    0.12084E+08         0.32693E+06         0.00000E+00
    0.32693E+06         0.28152E+08         0.00000E+00
    0.00000E+00         0.00000E+00         0.12071E+08
 
    0.12059E+08         0.33585E+06         0.00000E+00
    0.33585E+06         0.28094E+08         0.00000E+00
    0.00000E+00         0.00000E+00         0.12046E+08
 
    0.12034E+08         0.34492E+06         0.00000E+00
    0.34492E+06         0.28035E+08         0.00000E+00
    0.00000E+00         0.00000E+00         0.12021E+08
 
    0.12008E+08         0.35413E+06         0.00000E+00
    0.35413E+06         0.27974E+08         0.00000E+00
    0.00000E+00         0.00000E+00         0.11995E+08
 
    0.11982E+08         0.36349E+06         0.00000E+00
    0.36349E+06         0.27911E+08         0.00000E+00
    0.00000E+00         0.00000E+00         0.11968E+08
 
    0.11954E+08         0.37300E+06         0.00000E+00
    0.37300E+06         0.27846E+08         0.00000E+00
    0.00000E+00         0.00000E+00         0.11940E+08
 
    0.11926E+08         0.38264E+06         0.00000E+00
    0.38264E+06         0.27779E+08         0.00000E+00
    0.00000E+00         0.00000E+00         0.11911E+08
 
    0.11897E+08         0.39241E+06         0.00000E+00
    0.39241E+06         0.27710E+08         0.00000E+00
    0.00000E+00         0.00000E+00         0.11882E+08
 
    0.11866E+08         0.40231E+06         0.00000E+00
    0.40231E+06         0.27639E+08         0.00000E+00
    0.00000E+00         0.00000E+00         0.11852E+08
 
    0.11835E+08         0.41232E+06         0.00000E+00
    0.41232E+06         0.27566E+08         0.00000E+00
    0.00000E+00         0.00000E+00         0.11820E+08
 
    0.11803E+08         0.42244E+06         0.00000E+00
    0.42244E+06         0.27491E+08         0.00000E+00
    0.00000E+00         0.00000E+00         0.11788E+08
 
    0.11770E+08         0.43266E+06         0.00000E+00
    0.43266E+06         0.27413E+08         0.00000E+00
    0.00000E+00         0.00000E+00         0.11755E+08
 
    0.11736E+08         0.44296E+06         0.00000E+00
    0.44296E+06         0.27333E+08         0.00000E+00
    0.00000E+00         0.00000E+00         0.11721E+08
 
    0.11701E+08         0.45333E+06         0.00000E+00
    0.45333E+06         0.27251E+08         0.00000E+00
    0.00000E+00         0.00000E+00         0.11686E+08
 
    0.11665E+08         0.46376E+06         0.00000E+00
    0.46376E+06         0.27166E+08         0.00000E+00
    0.00000E+00         0.00000E+00         0.11649E+08
 
    0.11628E+08         0.47423E+06         0.00000E+00
    0.47423E+06         0.27079E+08         0.00000E+00
    0.00000E+00         0.00000E+00         0.11612E+08
 
    0.11589E+08         0.48472E+06         0.00000E+00
    0.48472E+06         0.26990E+08         0.00000E+00
    0.00000E+00         0.00000E+00         0.11574E+08
 
    0.11550E+08         0.49520E+06         0.00000E+00
    0.49520E+06         0.26898E+08         0.00000E+00
    0.00000E+00         0.00000E+00         0.11534E+08
 
    0.11509E+08         0.50567E+06         0.00000E+00
    0.50567E+06         0.26803E+08         0.00000E+00
    0.00000E+00         0.00000E+00         0.11494E+08
 
    0.11467E+08         0.51609E+06         0.00000E+00
    0.51609E+06         0.26705E+08         0.00000E+00
    0.00000E+00         0.00000E+00         0.11452E+08
 
    0.11424E+08         0.52643E+06         0.00000E+00
    0.52643E+06         0.26605E+08         0.00000E+00
    0.00000E+00         0.00000E+00         0.11409E+08
 
    0.11380E+08         0.53667E+06         0.00000E+00
    0.53667E+06         0.26502E+08         0.00000E+00
    0.00000E+00         0.00000E+00         0.11365E+08
 
    0.11334E+08         0.54678E+06         0.00000E+00
    0.54678E+06         0.26396E+08         0.00000E+00
    0.00000E+00         0.00000E+00         0.11319E+08
 
    0.11287E+08         0.55672E+06         0.00000E+00
    0.55672E+06         0.26287E+08         0.00000E+00
    0.00000E+00         0.00000E+00         0.11272E+08
 
    0.11239E+08         0.56645E+06         0.00000E+00
    0.56645E+06         0.26175E+08         0.00000E+00
    0.00000E+00         0.00000E+00         0.11224E+08
 
    0.11189E+08         0.57594E+06         0.00000E+00
    0.57594E+06         0.26061E+08         0.00000E+00
    0.00000E+00         0.00000E+00         0.11175E+08
 
    0.11138E+08         0.58513E+06         0.00000E+00
    0.58513E+06         0.25943E+08         0.00000E+00
    0.00000E+00         0.00000E+00         0.11124E+08
 
    0.11085E+08         0.59398E+06         0.00000E+00
    0.59398E+06         0.25822E+08         0.00000E+00
    0.00000E+00         0.00000E+00         0.11072E+08
 
    0.11031E+08         0.60244E+06         0.00000E+00
    0.60244E+06         0.25697E+08         0.00000E+00
    0.00000E+00         0.00000E+00         0.11019E+08
 
    0.10976E+08         0.61046E+06         0.00000E+00
    0.61046E+06         0.25570E+08         0.00000E+00
    0.00000E+00         0.00000E+00         0.10964E+08
 
    0.10919E+08         0.61797E+06         0.00000E+00
    0.61797E+06         0.25440E+08         0.00000E+00
    0.00000E+00         0.00000E+00         0.10907E+08
 
    0.10860E+08         0.62490E+06         0.00000E+00
    0.62490E+06         0.25306E+08         0.00000E+00
    0.00000E+00         0.00000E+00         0.10850E+08
 
    0.10800E+08         0.63120E+06         0.00000E+00
    0.63120E+06         0.25168E+08         0.00000E+00
    0.00000E+00         0.00000E+00         0.10791E+08
 
    0.10738E+08         0.63677E+06         0.00000E+00
    0.63677E+06         0.25028E+08         0.00000E+00
    0.00000E+00         0.00000E+00         0.10730E+08
 
    0.10675E+08         0.64155E+06         0.00000E+00
    0.64155E+06         0.24884E+08         0.00000E+00
    0.00000E+00         0.00000E+00         0.10668E+08
 
    0.10610E+08         0.64545E+06         0.00000E+00
    0.64545E+06         0.24737E+08         0.00000E+00
    0.00000E+00         0.00000E+00         0.10604E+08
 
    0.10543E+08         0.64837E+06         0.00000E+00
    0.64837E+06         0.24586E+08         0.00000E+00
    0.00000E+00         0.00000E+00         0.10539E+08
 
    0.10475E+08         0.65022E+06         0.00000E+00
    0.65022E+06         0.24431E+08         0.00000E+00
    0.00000E+00         0.00000E+00         0.10472E+08
 
    0.10405E+08         0.65090E+06         0.00000E+00
    0.65090E+06         0.24273E+08         0.00000E+00
    0.00000E+00         0.00000E+00         0.10403E+08
 
    0.10333E+08         0.65031E+06         0.00000E+00
    0.65031E+06         0.24112E+08         0.00000E+00
    0.00000E+00         0.00000E+00         0.10333E+08
 
    0.10259E+08         0.64834E+06         0.00000E+00
    0.64834E+06         0.23947E+08         0.00000E+00
    0.00000E+00         0.00000E+00         0.10262E+08
 
    0.10183E+08         0.64488E+06         0.00000E+00
    0.64488E+06         0.23778E+08         0.00000E+00
    0.00000E+00         0.00000E+00         0.10188E+08
 
    0.10106E+08         0.63984E+06         0.00000E+00
    0.63984E+06         0.23605E+08         0.00000E+00
    0.00000E+00         0.00000E+00         0.10113E+08
 
    0.10027E+08         0.63309E+06         0.00000E+00
    0.63309E+06         0.23429E+08         0.00000E+00
    0.00000E+00         0.00000E+00         0.10037E+08
 
    0.99465E+07         0.62456E+06         0.00000E+00
    0.62456E+06         0.23250E+08         0.00000E+00
    0.00000E+00         0.00000E+00         0.99588E+07
 
    0.98641E+07         0.61415E+06         0.00000E+00
    0.61415E+06         0.23066E+08         0.00000E+00
    0.00000E+00         0.00000E+00         0.98791E+07
 
    0.97800E+07         0.60178E+06         0.00000E+00
    0.60178E+06         0.22880E+08         0.00000E+00
    0.00000E+00         0.00000E+00         0.97979E+07
 
    0.96945E+07         0.58739E+06         0.00000E+00
    0.58739E+06         0.22689E+08         0.00000E+00
    0.00000E+00         0.00000E+00         0.97152E+07
 
    0.96075E+07         0.57094E+06         0.00000E+00
    0.57094E+06         0.22496E+08         0.00000E+00
    0.00000E+00         0.00000E+00         0.96311E+07
 
    0.95193E+07         0.55239E+06         0.00000E+00
    0.55239E+06         0.22300E+08         0.00000E+00
    0.00000E+00         0.00000E+00         0.95459E+07
 
    0.94301E+07         0.53172E+06         0.00000E+00
    0.53172E+06         0.22102E+08         0.00000E+00
    0.00000E+00         0.00000E+00         0.94597E+07
 
    0.93402E+07         0.50892E+06         0.00000E+00
    0.50892E+06         0.21903E+08         0.00000E+00
    0.00000E+00         0.00000E+00         0.93728E+07
 
    0.92498E+07         0.48395E+06         0.00000E+00
    0.48395E+06         0.21702E+08         0.00000E+00
    0.00000E+00         0.00000E+00         0.92856E+07
 
    0.91594E+07         0.45671E+06         0.00000E+00
    0.45671E+06         0.21502E+08         0.00000E+00
    0.00000E+00         0.00000E+00         0.91986E+07
 
    0.90693E+07         0.42699E+06         0.00000E+00
    0.42699E+06         0.21305E+08         0.00000E+00
    0.00000E+00         0.00000E+00         0.91122E+07
 
    0.89798E+07         0.39439E+06         0.00000E+00
    0.39439E+06         0.21111E+08         0.00000E+00
    0.00000E+00         0.00000E+00         0.90273E+07
 
    0.88909E+07         0.35819E+06         0.00000E+00
    0.35819E+06         0.20924E+08         0.00000E+00
    0.00000E+00         0.00000E+00         0.89446E+07
 
    0.88025E+07         0.31709E+06         0.00000E+00
    0.31709E+06         0.20747E+08         0.00000E+00
    0.00000E+00         0.00000E+00         0.88647E+07
 
    0.87136E+07         0.26906E+06         0.00000E+00
    0.26906E+06         0.20582E+08         0.00000E+00
    0.00000E+00         0.00000E+00         0.87886E+07
 
    0.86221E+07         0.21064E+06         0.00000E+00
    0.21064E+06         0.20433E+08         0.00000E+00
    0.00000E+00         0.00000E+00         0.87165E+07
 
    0.85206E+07         0.13625E+06         0.00000E+00
    0.13625E+06         0.20308E+08         0.00000E+00
    0.00000E+00         0.00000E+00         0.86485E+07
 
    0.83870E+07         0.47124E+05         0.00000E+00
    0.47124E+05         0.20209E+08         0.00000E+00
    0.00000E+00         0.00000E+00         0.85788E+07
 
    0.12716E+08         0.75904E+04         0.00000E+00
    0.75904E+04         0.29539E+08         0.00000E+00
    0.00000E+00         0.00000E+00         0.12677E+08
 
    0.12696E+08         0.22428E+05         0.00000E+00
    0.22428E+05         0.29525E+08         0.00000E+00
    0.00000E+00         0.00000E+00         0.12666E+08
 
    0.12680E+08         0.35940E+05         0.00000E+00
    0.35940E+05         0.29508E+08         0.00000E+00
    0.00000E+00         0.00000E+00         0.12656E+08
 
    0.12666E+08         0.47674E+05         0.00000E+00
    0.47674E+05         0.29487E+08         0.00000E+00
    0.00000E+00         0.00000E+00         0.12646E+08
 
    0.12653E+08         0.58116E+05         0.00000E+00
    0.58116E+05         0.29463E+08         0.00000E+00
    0.00000E+00         0.00000E+00         0.12635E+08
 
    0.12640E+08         0.67728E+05         0.00000E+00
    0.67728E+05         0.29438E+08         0.00000E+00
    0.00000E+00         0.00000E+00         0.12623E+08
 
    0.12627E+08         0.76779E+05         0.00000E+00
    0.76779E+05         0.29410E+08         0.00000E+00
    0.00000E+00         0.00000E+00         0.12611E+08
 
    0.12614E+08         0.85449E+05         0.00000E+00
    0.85449E+05         0.29382E+08         0.00000E+00
    0.00000E+00         0.00000E+00         0.12599E+08
 
    0.12601E+08         0.93845E+05         0.00000E+00
    0.93845E+05         0.29352E+08         0.00000E+00
    0.00000E+00         0.00000E+00         0.12586E+08
 
    0.12588E+08         0.10203E+06         0.00000E+00
    0.10203E+06         0.29322E+08         0.00000E+00
    0.00000E+00         0.00000E+00         0.12573E+08
 
    0.12574E+08         0.11004E+06         0.00000E+00
    0.11004E+06         0.29291E+08         0.00000E+00
    0.00000E+00         0.00000E+00         0.12560E+08
 
    0.12560E+08         0.11790E+06         0.00000E+00
    0.11790E+06         0.29260E+08         0.00000E+00
    0.00000E+00         0.00000E+00         0.12546E+08
 
    0.12546E+08         0.12561E+06         0.00000E+00
    0.12561E+06         0.29228E+08         0.00000E+00
    0.00000E+00         0.00000E+00         0.12532E+08
 
    0.12532E+08         0.13320E+06         0.00000E+00
    0.13320E+06         0.29196E+08         0.00000E+00
    0.00000E+00         0.00000E+00         0.12518E+08
 
    0.12518E+08         0.14067E+06         0.00000E+00
    0.14067E+06         0.29163E+08         0.00000E+00
    0.00000E+00         0.00000E+00         0.12504E+08
 
    0.12504E+08         0.14803E+06         0.00000E+00
    0.14803E+06         0.29130E+08         0.00000E+00
    0.00000E+00         0.00000E+00         0.12490E+08
 
    0.12489E+08         0.15529E+06         0.00000E+00
    0.15529E+06         0.29097E+08         0.00000E+00
    0.00000E+00         0.00000E+00         0.12476E+08
 
    0.12475E+08         0.16248E+06         0.00000E+00
    0.16248E+06         0.29063E+08         0.00000E+00
    0.00000E+00         0.00000E+00         0.12461E+08
 
    0.12460E+08         0.16959E+06         0.00000E+00
    0.16959E+06         0.29028E+08         0.00000E+00
    0.00000E+00         0.00000E+00         0.12446E+08
 
    0.12445E+08         0.17665E+06         0.00000E+00
    0.17665E+06         0.28994E+08         0.00000E+00
    0.00000E+00         0.00000E+00         0.12431E+08
 
    0.12429E+08         0.18368E+06         0.00000E+00
    0.18368E+06         0.28958E+08         0.00000E+00
    0.00000E+00         0.00000E+00         0.12416E+08
 
    0.12414E+08         0.19069E+06         0.00000E+00
    0.19069E+06         0.28922E+08         0.00000E+00
    0.00000E+00         0.00000E+00         0.12401E+08
 
    0.12398E+08         0.19770E+06         0.00000E+00
    0.19770E+06         0.28885E+08         0.00000E+00
    0.00000E+00         0.00000E+00         0.12385E+08
 
    0.12382E+08         0.20472E+06         0.00000E+00
    0.20472E+06         0.28847E+08         0.00000E+00
    0.00000E+00         0.00000E+00         0.12369E+08
 
    0.12366E+08         0.21178E+06         0.00000E+00
    0.21178E+06         0.28809E+08         0.00000E+00
    0.00000E+00         0.00000E+00         0.12352E+08
 
    0.12349E+08         0.21888E+06         0.00000E+00
    0.21888E+06         0.28769E+08         0.00000E+00
    0.00000E+00         0.00000E+00         0.12335E+08
 
    0.12332E+08         0.22604E+06         0.00000E+00
    0.22604E+06         0.28729E+08         0.00000E+00
    0.00000E+00         0.00000E+00         0.12318E+08
 
    0.12314E+08         0.23327E+06         0.00000E+00
    0.23327E+06         0.28687E+08         0.00000E+00
    0.00000E+00         0.00000E+00         0.12301E+08
 
    0.12297E+08         0.24058E+06         0.00000E+00
    0.24058E+06         0.28645E+08         0.00000E+00
    0.00000E+00         0.00000E+00         0.12282E+08
 
    0.12278E+08         0.24800E+06         0.00000E+00
    0.24800E+06         0.28601E+08         0.00000E+00
    0.00000E+00         0.00000E+00         0.12264E+08
 
    0.12259E+08         0.25551E+06         0.00000E+00
    0.25551E+06         0.28557E+08         0.00000E+00
    0.00000E+00         0.00000E+00         0.12245E+08
 
    0.12240E+08         0.26314E+06         0.00000E+00
    0.26314E+06         0.28511E+08         0.00000E+00
    0.00000E+00         0.00000E+00         0.12225E+08
 
    0.12220E+08         0.27090E+06         0.00000E+00
    0.27090E+06         0.28463E+08         0.00000E+00
    0.00000E+00         0.00000E+00         0.12205E+08
 
    0.12200E+08         0.27878E+06         0.00000E+00
    0.27878E+06         0.28415E+08         0.00000E+00
    0.00000E+00         0.00000E+00         0.12184E+08
 
    0.12179E+08         0.28679E+06         0.00000E+00
    0.28679E+06         0.28365E+08         0.00000E+00
    0.00000E+00         0.00000E+00         0.12163E+08
 
    0.12157E+08         0.29494E+06         0.00000E+00
    0.29494E+06         0.28314E+08         0.00000E+00
    0.00000E+00         0.00000E+00         0.12141E+08
 
    0.12135E+08         0.30323E+06         0.00000E+00
    0.30323E+06         0.28261E+08         0.00000E+00
    0.00000E+00         0.00000E+00         0.12119E+08
 
    0.12112E+08         0.31166E+06         0.00000E+00
    0.31166E+06         0.28206E+08         0.00000E+00
    0.00000E+00         0.00000E+00         0.12095E+08
 
    0.12088E+08         0.32024E+06         0.00000E+00
    0.32024E+06         0.28150E+08         0.00000E+00
    0.00000E+00         0.00000E+00         0.12072E+08
 
    0.12064E+08         0.32897E+06         0.00000E+00
    0.32897E+06         0.28092E+08         0.00000E+00
    0.00000E+00         0.00000E+00         0.12047E+08
 
    0.12039E+08         0.33784E+06         0.00000E+00
    0.33784E+06         0.28033E+08         0.00000E+00
    0.00000E+00         0.00000E+00         0.12022E+08
 
    0.12013E+08         0.34685E+06         0.00000E+00
    0.34685E+06         0.27972E+08         0.00000E+00
    0.00000E+00         0.00000E+00         0.11995E+08
 
    0.11986E+08         0.35600E+06         0.00000E+00
    0.35600E+06         0.27909E+08         0.00000E+00
    0.00000E+00         0.00000E+00         0.11969E+08
 
    0.11959E+08         0.36529E+06         0.00000E+00
    0.36529E+06         0.27844E+08         0.00000E+00
    0.00000E+00         0.00000E+00         0.11941E+08
 
    0.11931E+08         0.37472E+06         0.00000E+00
    0.37472E+06         0.27777E+08         0.00000E+00
    0.00000E+00         0.00000E+00         0.11912E+08
 
    0.11902E+08         0.38427E+06         0.00000E+00
    0.38427E+06         0.27708E+08         0.00000E+00
    0.00000E+00         0.00000E+00         0.11883E+08
 
    0.11871E+08         0.39394E+06         0.00000E+00
    0.39394E+06         0.27637E+08         0.00000E+00
    0.00000E+00         0.00000E+00         0.11853E+08
 
    0.11840E+08         0.40372E+06         0.00000E+00
    0.40372E+06         0.27564E+08         0.00000E+00
    0.00000E+00         0.00000E+00         0.11821E+08
 
    0.11808E+08         0.41361E+06         0.00000E+00
    0.41361E+06         0.27489E+08         0.00000E+00
    0.00000E+00         0.00000E+00         0.11789E+08
 
    0.11776E+08         0.42358E+06         0.00000E+00
    0.42358E+06         0.27411E+08         0.00000E+00
    0.00000E+00         0.00000E+00         0.11756E+08
 
    0.11742E+08         0.43364E+06         0.00000E+00
    0.43364E+06         0.27331E+08         0.00000E+00
    0.00000E+00         0.00000E+00         0.11722E+08
 
    0.11707E+08         0.44376E+06         0.00000E+00
    0.44376E+06         0.27249E+08         0.00000E+00
    0.00000E+00         0.00000E+00         0.11687E+08
 
    0.11670E+08         0.45394E+06         0.00000E+00
    0.45394E+06         0.27164E+08         0.00000E+00
    0.00000E+00         0.00000E+00         0.11650E+08
 
    0.11633E+08         0.46414E+06         0.00000E+00
    0.46414E+06         0.27077E+08         0.00000E+00
    0.00000E+00         0.00000E+00         0.11613E+08
 
    0.11595E+08         0.47437E+06         0.00000E+00
    0.47437E+06         0.26988E+08         0.00000E+00
    0.00000E+00         0.00000E+00         0.11575E+08
 
    0.11555E+08         0.48459E+06         0.00000E+00
    0.48459E+06         0.26896E+08         0.00000E+00
    0.00000E+00         0.00000E+00         0.11535E+08
 
    0.11515E+08         0.49479E+06         0.00000E+00
    0.49479E+06         0.26801E+08         0.00000E+00
    0.00000E+00         0.00000E+00         0.11495E+08
 
    0.11473E+08         0.50494E+06         0.00000E+00
    0.50494E+06         0.26703E+08         0.00000E+00
    0.00000E+00         0.00000E+00         0.11453E+08
 
    0.11430E+08         0.51501E+06         0.00000E+00
    0.51501E+06         0.26603E+08         0.00000E+00
    0.00000E+00         0.00000E+00         0.11410E+08
 
    0.11385E+08         0.52497E+06         0.00000E+00
    0.52497E+06         0.26500E+08         0.00000E+00
    0.00000E+00         0.00000E+00         0.11366E+08
 
    0.11339E+08         0.53480E+06         0.00000E+00
    0.53480E+06         0.26394E+08         0.00000E+00
    0.00000E+00         0.00000E+00         0.11320E+08
 
    0.11292E+08         0.54446E+06         0.00000E+00
    0.54446E+06         0.26285E+08         0.00000E+00
    0.00000E+00         0.00000E+00         0.11273E+08
 
    0.11244E+08         0.55391E+06         0.00000E+00
    0.55391E+06         0.26173E+08         0.00000E+00
    0.00000E+00         0.00000E+00         0.11225E+08
 
    0.11194E+08         0.56311E+06         0.00000E+00
    0.56311E+06         0.26059E+08         0.00000E+00
    0.00000E+00         0.00000E+00         0.11176E+08
 
    0.11143E+08         0.57202E+06         0.00000E+00
    0.57202E+06         0.25941E+08         0.00000E+00
    0.00000E+00         0.00000E+00         0.11125E+08
 
    0.11090E+08         0.58060E+06         0.00000E+00
    0.58060E+06         0.25820E+08         0.00000E+00
    0.00000E+00         0.00000E+00         0.11073E+08
 
    0.11036E+08         0.58878E+06         0.00000E+00
    0.58878E+06         0.25696E+08         0.00000E+00
    0.00000E+00         0.00000E+00         0.11019E+08
 
    0.10980E+08         0.59652E+06         0.00000E+00
    0.59652E+06         0.25569E+08         0.00000E+00
    0.00000E+00         0.00000E+00         0.10965E+08
 
    0.10923E+08         0.60375E+06         0.00000E+00
    0.60375E+06         0.25438E+08         0.00000E+00
    0.00000E+00         0.00000E+00         0.10908E+08
 
    0.10864E+08         0.61042E+06         0.00000E+00
    0.61042E+06         0.25304E+08         0.00000E+00
    0.00000E+00         0.00000E+00         0.10850E+08
 
    0.10803E+08         0.61645E+06         0.00000E+00
    0.61645E+06         0.25167E+08         0.00000E+00
    0.00000E+00         0.00000E+00         0.10791E+08
 
    0.10741E+08         0.62176E+06         0.00000E+00
    0.62176E+06         0.25027E+08         0.00000E+00
    0.00000E+00         0.00000E+00         0.10730E+08
 
    0.10677E+08         0.62629E+06         0.00000E+00
    0.62629E+06         0.24883E+08         0.00000E+00
    0.00000E+00         0.00000E+00         0.10668E+08
 
    0.10612E+08         0.62993E+06         0.00000E+00
    0.62993E+06         0.24736E+08         0.00000E+00
    0.00000E+00         0.00000E+00         0.10604E+08
 
    0.10545E+08         0.63262E+06         0.00000E+00
    0.63262E+06         0.24585E+08         0.00000E+00
    0.00000E+00         0.00000E+00         0.10539E+08
 
    0.10476E+08         0.63424E+06         0.00000E+00
    0.63424E+06         0.24431E+08         0.00000E+00
    0.00000E+00         0.00000E+00         0.10472E+08
 
    0.10405E+08         0.63470E+06         0.00000E+00
    0.63470E+06         0.24273E+08         0.00000E+00
    0.00000E+00         0.00000E+00         0.10403E+08
 
    0.10332E+08         0.63390E+06         0.00000E+00
    0.63390E+06         0.24112E+08         0.00000E+00
    0.00000E+00         0.00000E+00         0.10333E+08
 
    0.10258E+08         0.63173E+06         0.00000E+00
    0.63173E+06         0.23947E+08         0.00000E+00
    0.00000E+00         0.00000E+00         0.10262E+08
 
    0.10182E+08         0.62809E+06         0.00000E+00
    0.62809E+06         0.23779E+08         0.00000E+00
    0.00000E+00         0.00000E+00         0.10188E+08
 
    0.10104E+08         0.62286E+06         0.00000E+00
    0.62286E+06         0.23607E+08         0.00000E+00
    0.00000E+00         0.00000E+00         0.10113E+08
 
    0.10024E+08         0.61595E+06         0.00000E+00
    0.61595E+06         0.23431E+08         0.00000E+00
    0.00000E+00         0.00000E+00         0.10036E+08
 
    0.99424E+07         0.60725E+06         0.00000E+00
    0.60725E+06         0.23251E+08         0.00000E+00
    0.00000E+00         0.00000E+00         0.99582E+07
 
    0.98590E+07         0.59668E+06         0.00000E+00
    0.59668E+06         0.23069E+08         0.00000E+00
    0.00000E+00         0.00000E+00         0.98783E+07
 
    0.97739E+07         0.58415E+06         0.00000E+00
    0.58415E+06         0.22882E+08         0.00000E+00
    0.00000E+00         0.00000E+00         0.97968E+07
 
    0.96873E+07         0.56960E+06         0.00000E+00
    0.56960E+06         0.22693E+08         0.00000E+00
    0.00000E+00         0.00000E+00         0.97140E+07
 
    0.95993E+07         0.55298E+06         0.00000E+00
    0.55298E+06         0.22500E+08         0.00000E+00
    0.00000E+00         0.00000E+00         0.96297E+07
 
    0.95100E+07         0.53423E+06         0.00000E+00
    0.53423E+06         0.22304E+08         0.00000E+00
    0.00000E+00         0.00000E+00         0.95443E+07
 
    0.94197E+07         0.51335E+06         0.00000E+00
    0.51335E+06         0.22107E+08         0.00000E+00
    0.00000E+00         0.00000E+00         0.94579E+07
 
    0.93286E+07         0.49030E+06         0.00000E+00
    0.49030E+06         0.21907E+08         0.00000E+00
    0.00000E+00         0.00000E+00         0.93708E+07
 
    0.92370E+07         0.46504E+06         0.00000E+00
    0.46504E+06         0.21707E+08         0.00000E+00
    0.00000E+00         0.00000E+00         0.92833E+07
 
    0.91453E+07         0.43748E+06         0.00000E+00
    0.43748E+06         0.21508E+08         0.00000E+00
    0.00000E+00         0.00000E+00         0.91960E+07
 
    0.90536E+07         0.40742E+06         0.00000E+00
    0.40742E+06         0.21311E+08         0.00000E+00
    0.00000E+00         0.00000E+00         0.91094E+07
 
    0.89622E+07         0.37448E+06         0.00000E+00
    0.37448E+06         0.21118E+08         0.00000E+00
    0.00000E+00         0.00000E+00         0.90241E+07
 
    0.88710E+07         0.33799E+06         0.00000E+00
    0.33799E+06         0.20932E+08         0.00000E+00
    0.00000E+00         0.00000E+00         0.89409E+07
 
    0.87794E+07         0.29678E+06         0.00000E+00
    0.29678E+06         0.20755E+08         0.00000E+00
    0.00000E+00         0.00000E+00         0.88605E+07
 
    0.86861E+07         0.24903E+06         0.00000E+00
    0.24903E+06         0.20592E+08         0.00000E+00
    0.00000E+00         0.00000E+00         0.87834E+07
 
    0.85880E+07         0.19161E+06         0.00000E+00
    0.19161E+06         0.20446E+08         0.00000E+00
    0.00000E+00         0.00000E+00         0.87102E+07
 
    0.84764E+07         0.12123E+06         0.00000E+00
    0.12123E+06         0.20324E+08         0.00000E+00
    0.00000E+00         0.00000E+00         0.86401E+07
 
    0.83330E+07         0.41243E+05         0.00000E+00
    0.41243E+05         0.20226E+08         0.00000E+00
    0.00000E+00         0.00000E+00         0.85678E+07
 
    0.12725E+08         0.68919E+04         0.00000E+00
    0.68919E+04         0.29536E+08         0.00000E+00
    0.00000E+00         0.00000E+00         0.12678E+08
 
    0.12704E+08         0.20551E+05         0.00000E+00
    0.20551E+05         0.29522E+08         0.00000E+00
    0.00000E+00         0.00000E+00         0.12668E+08
 
    0.12687E+08         0.33400E+05         0.00000E+00
    0.33400E+05         0.29505E+08         0.00000E+00
    0.00000E+00         0.00000E+00         0.12658E+08
 
    0.12672E+08         0.44871E+05         0.00000E+00
    0.44871E+05         0.29485E+08         0.00000E+00
    0.00000E+00         0.00000E+00         0.12647E+08
 
    0.12659E+08         0.55194E+05         0.00000E+00
    0.55194E+05         0.29461E+08         0.00000E+00
    0.00000E+00         0.00000E+00         0.12636E+08
 
    0.12645E+08         0.64744E+05         0.00000E+00
    0.64744E+05         0.29436E+08         0.00000E+00
    0.00000E+00         0.00000E+00         0.12624E+08
 
    0.12632E+08         0.73764E+05         0.00000E+00
    0.73764E+05         0.29408E+08         0.00000E+00
    0.00000E+00         0.00000E+00         0.12612E+08
 
    0.12619E+08         0.82410E+05         0.00000E+00
    0.82410E+05         0.29380E+08         0.00000E+00
    0.00000E+00         0.00000E+00         0.12600E+08
 
    0.12605E+08         0.90781E+05         0.00000E+00
    0.90781E+05         0.29351E+08         0.00000E+00
    0.00000E+00         0.00000E+00         0.12587E+08
 
    0.12592E+08         0.98933E+05         0.00000E+00
    0.98933E+05         0.29320E+08         0.00000E+00
    0.00000E+00         0.00000E+00         0.12574E+08
 
    0.12578E+08         0.10690E+06         0.00000E+00
    0.10690E+06         0.29289E+08         0.00000E+00
    0.00000E+00         0.00000E+00         0.12560E+08
 
    0.12564E+08         0.11471E+06         0.00000E+00
    0.11471E+06         0.29258E+08         0.00000E+00
    0.00000E+00         0.00000E+00         0.12547E+08
 
    0.12550E+08         0.12236E+06         0.00000E+00
    0.12236E+06         0.29226E+08         0.00000E+00
    0.00000E+00         0.00000E+00         0.12533E+08
 
    0.12536E+08         0.12988E+06         0.00000E+00
    0.12988E+06         0.29194E+08         0.00000E+00
    0.00000E+00         0.00000E+00         0.12519E+08
 
    0.12522E+08         0.13727E+06         0.00000E+00
    0.13727E+06         0.29162E+08         0.00000E+00
    0.00000E+00         0.00000E+00         0.12505E+08
 
    0.12507E+08         0.14454E+06         0.00000E+00
    0.14454E+06         0.29129E+08         0.00000E+00
    0.00000E+00         0.00000E+00         0.12491E+08
 
    0.12493E+08         0.15171E+06         0.00000E+00
    0.15171E+06         0.29095E+08         0.00000E+00
    0.00000E+00         0.00000E+00         0.12476E+08
 
    0.12478E+08         0.15879E+06         0.00000E+00
    0.15879E+06         0.29061E+08         0.00000E+00
    0.00000E+00         0.00000E+00         0.12462E+08
 
    0.12463E+08         0.16580E+06         0.00000E+00
    0.16580E+06         0.29027E+08         0.00000E+00
    0.00000E+00         0.00000E+00         0.12447E+08
 
    0.12448E+08         0.17276E+06         0.00000E+00
    0.17276E+06         0.28992E+08         0.00000E+00
    0.00000E+00         0.00000E+00         0.12432E+08
 
    0.12433E+08         0.17967E+06         0.00000E+00
    0.17967E+06         0.28957E+08         0.00000E+00
    0.00000E+00         0.00000E+00         0.12417E+08
 
    0.12417E+08         0.18657E+06         0.00000E+00
    0.18657E+06         0.28920E+08         0.00000E+00
    0.00000E+00         0.00000E+00         0.12401E+08
 
    0.12402E+08         0.19346E+06         0.00000E+00
    0.19346E+06         0.28883E+08         0.00000E+00
    0.00000E+00         0.00000E+00         0.12386E+08
 
    0.12386E+08         0.20036E+06         0.00000E+00
    0.20036E+06         0.28846E+08         0.00000E+00
    0.00000E+00         0.00000E+00         0.12369E+08
 
    0.12369E+08         0.20728E+06         0.00000E+00
    0.20728E+06         0.28807E+08         0.00000E+00
    0.00000E+00         0.00000E+00         0.12353E+08
 
    0.12353E+08         0.21425E+06         0.00000E+00
    0.21425E+06         0.28768E+08         0.00000E+00
    0.00000E+00         0.00000E+00         0.12336E+08
 
    0.12336E+08         0.22128E+06         0.00000E+00
    0.22128E+06         0.28727E+08         0.00000E+00
    0.00000E+00         0.00000E+00         0.12319E+08
 
    0.12318E+08         0.22837E+06         0.00000E+00
    0.22837E+06         0.28686E+08         0.00000E+00
    0.00000E+00         0.00000E+00         0.12301E+08
 
    0.12300E+08         0.23555E+06         0.00000E+00
    0.23555E+06         0.28643E+08         0.00000E+00
    0.00000E+00         0.00000E+00         0.12283E+08
 
    0.12282E+08         0.24281E+06         0.00000E+00
    0.24281E+06         0.28600E+08         0.00000E+00
    0.00000E+00         0.00000E+00         0.12265E+08
 
    0.12263E+08         0.25018E+06         0.00000E+00
    0.25018E+06         0.28555E+08         0.00000E+00
    0.00000E+00         0.00000E+00         0.12245E+08
 
    0.12244E+08         0.25765E+06         0.00000E+00
    0.25765E+06         0.28509E+08         0.00000E+00
    0.00000E+00         0.00000E+00         0.12226E+08
 
    0.12224E+08         0.26524E+06         0.00000E+00
    0.26524E+06         0.28462E+08         0.00000E+00
    0.00000E+00         0.00000E+00         0.12206E+08
 
    0.12204E+08         0.27296E+06         0.00000E+00
    0.27296E+06         0.28413E+08         0.00000E+00
    0.00000E+00         0.00000E+00         0.12185E+08
 
    0.12183E+08         0.28080E+06         0.00000E+00
    0.28080E+06         0.28363E+08         0.00000E+00
    0.00000E+00         0.00000E+00         0.12164E+08
 
    0.12161E+08         0.28878E+06         0.00000E+00
    0.28878E+06         0.28312E+08         0.00000E+00
    0.00000E+00         0.00000E+00         0.12142E+08
 
    0.12139E+08         0.29689E+06         0.00000E+00
    0.29689E+06         0.28259E+08         0.00000E+00
    0.00000E+00         0.00000E+00         0.12119E+08
 
    0.12116E+08         0.30514E+06         0.00000E+00
    0.30514E+06         0.28205E+08         0.00000E+00
    0.00000E+00         0.00000E+00         0.12096E+08
 
    0.12093E+08         0.31354E+06         0.00000E+00
    0.31354E+06         0.28148E+08         0.00000E+00
    0.00000E+00         0.00000E+00         0.12072E+08
 
    0.12068E+08         0.32207E+06         0.00000E+00
    0.32207E+06         0.28091E+08         0.00000E+00
    0.00000E+00         0.00000E+00         0.12048E+08
 
    0.12043E+08         0.33074E+06         0.00000E+00
    0.33074E+06         0.28031E+08         0.00000E+00
    0.00000E+00         0.00000E+00         0.12022E+08
 
    0.12018E+08         0.33955E+06         0.00000E+00
    0.33955E+06         0.27970E+08         0.00000E+00
    0.00000E+00         0.00000E+00         0.11996E+08
 
    0.11991E+08         0.34850E+06         0.00000E+00
    0.34850E+06         0.27907E+08         0.00000E+00
    0.00000E+00         0.00000E+00         0.11969E+08
 
    0.11964E+08         0.35758E+06         0.00000E+00
    0.35758E+06         0.27842E+08         0.00000E+00
    0.00000E+00         0.00000E+00         0.11942E+08
 
    0.11936E+08         0.36678E+06         0.00000E+00
    0.36678E+06         0.27775E+08         0.00000E+00
    0.00000E+00         0.00000E+00         0.11913E+08
 
    0.11906E+08         0.37611E+06         0.00000E+00
    0.37611E+06         0.27706E+08         0.00000E+00
    0.00000E+00         0.00000E+00         0.11884E+08
 
    0.11876E+08         0.38556E+06         0.00000E+00
    0.38556E+06         0.27635E+08         0.00000E+00
    0.00000E+00         0.00000E+00         0.11853E+08
 
    0.11846E+08         0.39511E+06         0.00000E+00
    0.39511E+06         0.27562E+08         0.00000E+00
    0.00000E+00         0.00000E+00         0.11822E+08
 
    0.11814E+08         0.40476E+06         0.00000E+00
    0.40476E+06         0.27487E+08         0.00000E+00
    0.00000E+00         0.00000E+00         0.11790E+08
 
    0.11781E+08         0.41449E+06         0.00000E+00
    0.41449E+06         0.27409E+08         0.00000E+00
    0.00000E+00         0.00000E+00         0.11757E+08
 
    0.11747E+08         0.42431E+06         0.00000E+00
    0.42431E+06         0.27329E+08         0.00000E+00
    0.00000E+00         0.00000E+00         0.11723E+08
 
    0.11712E+08         0.43418E+06         0.00000E+00
    0.43418E+06         0.27247E+08         0.00000E+00
    0.00000E+00         0.00000E+00         0.11688E+08
 
    0.11676E+08         0.44410E+06         0.00000E+00
    0.44410E+06         0.27162E+08         0.00000E+00
    0.00000E+00         0.00000E+00         0.11651E+08
 
    0.11639E+08         0.45406E+06         0.00000E+00
    0.45406E+06         0.27075E+08         0.00000E+00
    0.00000E+00         0.00000E+00         0.11614E+08
 
    0.11600E+08         0.46402E+06         0.00000E+00
    0.46402E+06         0.26986E+08         0.00000E+00
    0.00000E+00         0.00000E+00         0.11576E+08
 
    0.11561E+08         0.47398E+06         0.00000E+00
    0.47398E+06         0.26894E+08         0.00000E+00
    0.00000E+00         0.00000E+00         0.11536E+08
 
    0.11520E+08         0.48391E+06         0.00000E+00
    0.48391E+06         0.26799E+08         0.00000E+00
    0.00000E+00         0.00000E+00         0.11496E+08
 
    0.11478E+08         0.49379E+06         0.00000E+00
    0.49379E+06         0.26701E+08         0.00000E+00
    0.00000E+00         0.00000E+00         0.11454E+08
 
    0.11435E+08         0.50359E+06         0.00000E+00
    0.50359E+06         0.26601E+08         0.00000E+00
    0.00000E+00         0.00000E+00         0.11411E+08
 
    0.11390E+08         0.51328E+06         0.00000E+00
    0.51328E+06         0.26498E+08         0.00000E+00
    0.00000E+00         0.00000E+00         0.11366E+08
 
    0.11345E+08         0.52284E+06         0.00000E+00
    0.52284E+06         0.26392E+08         0.00000E+00
    0.00000E+00         0.00000E+00         0.11321E+08
 
    0.11297E+08         0.53222E+06         0.00000E+00
    0.53222E+06         0.26283E+08         0.00000E+00
    0.00000E+00         0.00000E+00         0.11274E+08
 
    0.11249E+08         0.54139E+06         0.00000E+00
    0.54139E+06         0.26172E+08         0.00000E+00
    0.00000E+00         0.00000E+00         0.11226E+08
 
    0.11199E+08         0.55032E+06         0.00000E+00
    0.55032E+06         0.26057E+08         0.00000E+00
    0.00000E+00         0.00000E+00         0.11177E+08
 
    0.11147E+08         0.55895E+06         0.00000E+00
    0.55895E+06         0.25939E+08         0.00000E+00
    0.00000E+00         0.00000E+00         0.11126E+08
 
    0.11094E+08         0.56725E+06         0.00000E+00
    0.56725E+06         0.25818E+08         0.00000E+00
    0.00000E+00         0.00000E+00         0.11074E+08
 
    0.11040E+08         0.57516E+06         0.00000E+00
    0.57516E+06         0.25694E+08         0.00000E+00
    0.00000E+00         0.00000E+00         0.11020E+08
 
    0.10984E+08         0.58263E+06         0.00000E+00
    0.58263E+06         0.25567E+08         0.00000E+00
    0.00000E+00         0.00000E+00         0.10965E+08
 
    0.10927E+08         0.58959E+06         0.00000E+00
    0.58959E+06         0.25437E+08         0.00000E+00
    0.00000E+00         0.00000E+00         0.10909E+08
 
    0.10867E+08         0.59600E+06         0.00000E+00
    0.59600E+06         0.25303E+08         0.00000E+00
    0.00000E+00         0.00000E+00         0.10851E+08
 
    0.10807E+08         0.60176E+06         0.00000E+00
    0.60176E+06         0.25166E+08         0.00000E+00
    0.00000E+00         0.00000E+00         0.10792E+08
 
    0.10744E+08         0.60683E+06         0.00000E+00
    0.60683E+06         0.25026E+08         0.00000E+00
    0.00000E+00         0.00000E+00         0.10731E+08
 
    0.10680E+08         0.61110E+06         0.00000E+00
    0.61110E+06         0.24882E+08         0.00000E+00
    0.00000E+00         0.00000E+00         0.10669E+08
 
    0.10614E+08         0.61451E+06         0.00000E+00
    0.61451E+06         0.24735E+08         0.00000E+00
    0.00000E+00         0.00000E+00         0.10605E+08
 
    0.10546E+08         0.61697E+06         0.00000E+00
    0.61697E+06         0.24585E+08         0.00000E+00
    0.00000E+00         0.00000E+00         0.10539E+08
 
    0.10477E+08         0.61837E+06         0.00000E+00
    0.61837E+06         0.24431E+08         0.00000E+00
    0.00000E+00         0.00000E+00         0.10472E+08
 
    0.10405E+08         0.61862E+06         0.00000E+00
    0.61862E+06         0.24273E+08         0.00000E+00
    0.00000E+00         0.00000E+00         0.10404E+08
 
    0.10332E+08         0.61762E+06         0.00000E+00
    0.61762E+06         0.24112E+08         0.00000E+00
    0.00000E+00         0.00000E+00         0.10333E+08
 
    0.10257E+08         0.61526E+06         0.00000E+00
    0.61526E+06         0.23948E+08         0.00000E+00
    0.00000E+00         0.00000E+00         0.10261E+08
 
    0.10180E+08         0.61144E+06         0.00000E+00
    0.61144E+06         0.23780E+08         0.00000E+00
    0.00000E+00         0.00000E+00         0.10188E+08
 
    0.10101E+08         0.60605E+06         0.00000E+00
    0.60605E+06         0.23608E+08         0.00000E+00
    0.00000E+00         0.00000E+00         0.10113E+08
 
    0.10021E+08         0.59898E+06         0.00000E+00
    0.59898E+06         0.23432E+08         0.00000E+00
    0.00000E+00         0.00000E+00         0.10036E+08
 
    0.99382E+07         0.59013E+06         0.00000E+00
    0.59013E+06         0.23253E+08         0.00000E+00
    0.00000E+00         0.00000E+00         0.99575E+07
 
    0.98539E+07         0.57941E+06         0.00000E+00
    0.57941E+06         0.23071E+08         0.00000E+00
    0.00000E+00         0.00000E+00         0.98774E+07
 
    0.97679E+07         0.56673E+06         0.00000E+00
    0.56673E+06         0.22885E+08         0.00000E+00
    0.00000E+00         0.00000E+00         0.97958E+07
 
    0.96802E+07         0.55202E+06         0.00000E+00
    0.55202E+06         0.22696E+08         0.00000E+00
    0.00000E+00         0.00000E+00         0.97128E+07
 
    0.95911E+07         0.53523E+06         0.00000E+00
    0.53523E+06         0.22503E+08         0.00000E+00
    0.00000E+00         0.00000E+00         0.96283E+07
 
    0.95007E+07         0.51630E+06         0.00000E+00
    0.51630E+06         0.22308E+08         0.00000E+00
    0.00000E+00         0.00000E+00         0.95427E+07
 
    0.94092E+07         0.49522E+06         0.00000E+00
    0.49522E+06         0.22111E+08         0.00000E+00
    0.00000E+00         0.00000E+00         0.94561E+07
 
    0.93169E+07         0.47193E+06         0.00000E+00
    0.47193E+06         0.21912E+08         0.00000E+00
    0.00000E+00         0.00000E+00         0.93687E+07
 
    0.92240E+07         0.44640E+06         0.00000E+00
    0.44640E+06         0.21713E+08         0.00000E+00
    0.00000E+00         0.00000E+00         0.92810E+07
 
    0.91309E+07         0.41855E+06         0.00000E+00
    0.41855E+06         0.21514E+08         0.00000E+00
    0.00000E+00         0.00000E+00         0.91934E+07
 
    0.90376E+07         0.38819E+06         0.00000E+00
    0.38819E+06         0.21317E+08         0.00000E+00
    0.00000E+00         0.00000E+00         0.91065E+07
 
    0.89443E+07         0.35499E+06         0.00000E+00
    0.35499E+06         0.21125E+08         0.00000E+00
    0.00000E+00         0.00000E+00         0.90208E+07
 
    0.88506E+07         0.31834E+06         0.00000E+00
    0.31834E+06         0.20940E+08         0.00000E+00
    0.00000E+00         0.00000E+00         0.89371E+07
 
    0.87558E+07         0.27722E+06         0.00000E+00
    0.27722E+06         0.20764E+08         0.00000E+00
    0.00000E+00         0.00000E+00         0.88560E+07
 
    0.86581E+07         0.23001E+06         0.00000E+00
    0.23001E+06         0.20602E+08         0.00000E+00
    0.00000E+00         0.00000E+00         0.87781E+07
 
    0.85538E+07         0.17419E+06         0.00000E+00
    0.17419E+06         0.20459E+08         0.00000E+00
    0.00000E+00         0.00000E+00         0.87037E+07
 
    0.84336E+07         0.10827E+06         0.00000E+00
    0.10827E+06         0.20339E+08         0.00000E+00
    0.00000E+00         0.00000E+00         0.86317E+07
 
    0.82828E+07         0.36407E+05         0.00000E+00
    0.36407E+05         0.20242E+08         0.00000E+00
    0.00000E+00         0.00000E+00         0.85573E+07
 
    0.12733E+08         0.62973E+04         0.00000E+00
    0.62973E+04         0.29533E+08         0.00000E+00
    0.00000E+00         0.00000E+00         0.12680E+08
 
    0.12711E+08         0.18899E+05         0.00000E+00
    0.18899E+05         0.29520E+08         0.00000E+00
    0.00000E+00         0.00000E+00         0.12669E+08
 
    0.12693E+08         0.31059E+05         0.00000E+00
    0.31059E+05         0.29503E+08         0.00000E+00
    0.00000E+00         0.00000E+00         0.12659E+08
 
    0.12678E+08         0.42202E+05         0.00000E+00
    0.42202E+05         0.29482E+08         0.00000E+00
    0.00000E+00         0.00000E+00         0.12648E+08
 
    0.12664E+08         0.52365E+05         0.00000E+00
    0.52365E+05         0.29459E+08         0.00000E+00
    0.00000E+00         0.00000E+00         0.12637E+08
 
    0.12650E+08         0.61828E+05         0.00000E+00
    0.61828E+05         0.29434E+08         0.00000E+00
    0.00000E+00         0.00000E+00         0.12625E+08
 
    0.12637E+08         0.70797E+05         0.00000E+00
    0.70797E+05         0.29407E+08         0.00000E+00
    0.00000E+00         0.00000E+00         0.12613E+08
 
    0.12623E+08         0.79407E+05         0.00000E+00
    0.79407E+05         0.29378E+08         0.00000E+00
    0.00000E+00         0.00000E+00         0.12600E+08
 
    0.12609E+08         0.87744E+05         0.00000E+00
    0.87744E+05         0.29349E+08         0.00000E+00
    0.00000E+00         0.00000E+00         0.12588E+08
 
    0.12596E+08         0.95859E+05         0.00000E+00
    0.95859E+05         0.29319E+08         0.00000E+00
    0.00000E+00         0.00000E+00         0.12574E+08
 
    0.12582E+08         0.10378E+06         0.00000E+00
    0.10378E+06         0.29288E+08         0.00000E+00
    0.00000E+00         0.00000E+00         0.12561E+08
 
    0.12568E+08         0.11153E+06         0.00000E+00
    0.11153E+06         0.29257E+08         0.00000E+00
    0.00000E+00         0.00000E+00         0.12547E+08
 
    0.12554E+08         0.11912E+06         0.00000E+00
    0.11912E+06         0.29225E+08         0.00000E+00
    0.00000E+00         0.00000E+00         0.12534E+08
 
    0.12540E+08         0.12657E+06         0.00000E+00
    0.12657E+06         0.29193E+08         0.00000E+00
    0.00000E+00         0.00000E+00         0.12520E+08
 
    0.12525E+08         0.13387E+06         0.00000E+00
    0.13387E+06         0.29160E+08         0.00000E+00
    0.00000E+00         0.00000E+00         0.12506E+08
 
    0.12511E+08         0.14106E+06         0.00000E+00
    0.14106E+06         0.29127E+08         0.00000E+00
    0.00000E+00         0.00000E+00         0.12491E+08
 
    0.12496E+08         0.14813E+06         0.00000E+00
    0.14813E+06         0.29094E+08         0.00000E+00
    0.00000E+00         0.00000E+00         0.12477E+08
 
    0.12482E+08         0.15512E+06         0.00000E+00
    0.15512E+06         0.29060E+08         0.00000E+00
    0.00000E+00         0.00000E+00         0.12463E+08
 
    0.12467E+08         0.16202E+06         0.00000E+00
    0.16202E+06         0.29026E+08         0.00000E+00
    0.00000E+00         0.00000E+00         0.12448E+08
 
    0.12452E+08         0.16887E+06         0.00000E+00
    0.16887E+06         0.28991E+08         0.00000E+00
    0.00000E+00         0.00000E+00         0.12433E+08
 
    0.12436E+08         0.17567E+06         0.00000E+00
    0.17567E+06         0.28955E+08         0.00000E+00
    0.00000E+00         0.00000E+00         0.12417E+08
 
    0.12421E+08         0.18245E+06         0.00000E+00
    0.18245E+06         0.28919E+08         0.00000E+00
    0.00000E+00         0.00000E+00         0.12402E+08
 
    0.12405E+08         0.18921E+06         0.00000E+00
    0.18921E+06         0.28882E+08         0.00000E+00
    0.00000E+00         0.00000E+00         0.12386E+08
 
    0.12389E+08         0.19599E+06         0.00000E+00
    0.19599E+06         0.28844E+08         0.00000E+00
    0.00000E+00         0.00000E+00         0.12370E+08
 
    0.12373E+08         0.20279E+06         0.00000E+00
    0.20279E+06         0.28806E+08         0.00000E+00
    0.00000E+00         0.00000E+00         0.12354E+08
 
    0.12356E+08         0.20962E+06         0.00000E+00
    0.20962E+06         0.28766E+08         0.00000E+00
    0.00000E+00         0.00000E+00         0.12337E+08
 
    0.12339E+08         0.21651E+06         0.00000E+00
    0.21651E+06         0.28726E+08         0.00000E+00
    0.00000E+00         0.00000E+00         0.12320E+08
 
    0.12322E+08         0.22347E+06         0.00000E+00
    0.22347E+06         0.28685E+08         0.00000E+00
    0.00000E+00         0.00000E+00         0.12302E+08
 
    0.12304E+08         0.23050E+06         0.00000E+00
    0.23050E+06         0.28642E+08         0.00000E+00
    0.00000E+00         0.00000E+00         0.12284E+08
 
    0.12286E+08         0.23761E+06         0.00000E+00
    0.23761E+06         0.28598E+08         0.00000E+00
    0.00000E+00         0.00000E+00         0.12265E+08
 
    0.12267E+08         0.24483E+06         0.00000E+00
    0.24483E+06         0.28554E+08         0.00000E+00
    0.00000E+00         0.00000E+00         0.12246E+08
 
    0.12248E+08         0.25215E+06         0.00000E+00
    0.25215E+06         0.28508E+08         0.00000E+00
    0.00000E+00         0.00000E+00         0.12227E+08
 
    0.12228E+08         0.25958E+06         0.00000E+00
    0.25958E+06         0.28460E+08         0.00000E+00
    0.00000E+00         0.00000E+00         0.12207E+08
 
    0.12208E+08         0.26713E+06         0.00000E+00
    0.26713E+06         0.28412E+08         0.00000E+00
    0.00000E+00         0.00000E+00         0.12186E+08
 
    0.12187E+08         0.27480E+06         0.00000E+00
    0.27480E+06         0.28362E+08         0.00000E+00
    0.00000E+00         0.00000E+00         0.12165E+08
 
    0.12165E+08         0.28261E+06         0.00000E+00
    0.28261E+06         0.28310E+08         0.00000E+00
    0.00000E+00         0.00000E+00         0.12143E+08
 
    0.12143E+08         0.29054E+06         0.00000E+00
    0.29054E+06         0.28257E+08         0.00000E+00
    0.00000E+00         0.00000E+00         0.12120E+08
 
    0.12121E+08         0.29861E+06         0.00000E+00
    0.29861E+06         0.28203E+08         0.00000E+00
    0.00000E+00         0.00000E+00         0.12097E+08
 
    0.12097E+08         0.30681E+06         0.00000E+00
    0.30681E+06         0.28147E+08         0.00000E+00
    0.00000E+00         0.00000E+00         0.12073E+08
 
    0.12073E+08         0.31515E+06         0.00000E+00
    0.31515E+06         0.28089E+08         0.00000E+00
    0.00000E+00         0.00000E+00         0.12049E+08
 
    0.12048E+08         0.32363E+06         0.00000E+00
    0.32363E+06         0.28029E+08         0.00000E+00
    0.00000E+00         0.00000E+00         0.12023E+08
 
    0.12022E+08         0.33224E+06         0.00000E+00
    0.33224E+06         0.27968E+08         0.00000E+00
    0.00000E+00         0.00000E+00         0.11997E+08
 
    0.11996E+08         0.34098E+06         0.00000E+00
    0.34098E+06         0.27905E+08         0.00000E+00
    0.00000E+00         0.00000E+00         0.11970E+08
 
    0.11969E+08         0.34985E+06         0.00000E+00
    0.34985E+06         0.27840E+08         0.00000E+00
    0.00000E+00         0.00000E+00         0.11943E+08
 
    0.11940E+08         0.35884E+06         0.00000E+00
    0.35884E+06         0.27773E+08         0.00000E+00
    0.00000E+00         0.00000E+00         0.11914E+08
 
    0.11911E+08         0.36794E+06         0.00000E+00
    0.36794E+06         0.27704E+08         0.00000E+00
    0.00000E+00         0.00000E+00         0.11885E+08
 
    0.11881E+08         0.37716E+06         0.00000E+00
    0.37716E+06         0.27633E+08         0.00000E+00
    0.00000E+00         0.00000E+00         0.11854E+08
 
    0.11851E+08         0.38648E+06         0.00000E+00
    0.38648E+06         0.27560E+08         0.00000E+00
    0.00000E+00         0.00000E+00         0.11823E+08
 
    0.11819E+08         0.39590E+06         0.00000E+00
    0.39590E+06         0.27485E+08         0.00000E+00
    0.00000E+00         0.00000E+00         0.11791E+08
 
    0.11786E+08         0.40540E+06         0.00000E+00
    0.40540E+06         0.27407E+08         0.00000E+00
    0.00000E+00         0.00000E+00         0.11758E+08
 
    0.11752E+08         0.41497E+06         0.00000E+00
    0.41497E+06         0.27327E+08         0.00000E+00
    0.00000E+00         0.00000E+00         0.11724E+08
 
    0.11717E+08         0.42459E+06         0.00000E+00
    0.42459E+06         0.27245E+08         0.00000E+00
    0.00000E+00         0.00000E+00         0.11689E+08
 
    0.11681E+08         0.43427E+06         0.00000E+00
    0.43427E+06         0.27160E+08         0.00000E+00
    0.00000E+00         0.00000E+00         0.11652E+08
 
    0.11644E+08         0.44396E+06         0.00000E+00
    0.44396E+06         0.27073E+08         0.00000E+00
    0.00000E+00         0.00000E+00         0.11615E+08
 
    0.11605E+08         0.45367E+06         0.00000E+00
    0.45367E+06         0.26984E+08         0.00000E+00
    0.00000E+00         0.00000E+00         0.11577E+08
 
    0.11566E+08         0.46337E+06         0.00000E+00
    0.46337E+06         0.26892E+08         0.00000E+00
    0.00000E+00         0.00000E+00         0.11537E+08
 
    0.11525E+08         0.47304E+06         0.00000E+00
    0.47304E+06         0.26797E+08         0.00000E+00
    0.00000E+00         0.00000E+00         0.11497E+08
 
    0.11483E+08         0.48265E+06         0.00000E+00
    0.48265E+06         0.26699E+08         0.00000E+00
    0.00000E+00         0.00000E+00         0.11455E+08
 
    0.11440E+08         0.49218E+06         0.00000E+00
    0.49218E+06         0.26599E+08         0.00000E+00
    0.00000E+00         0.00000E+00         0.11412E+08
 
    0.11396E+08         0.50160E+06         0.00000E+00
    0.50160E+06         0.26496E+08         0.00000E+00
    0.00000E+00         0.00000E+00         0.11367E+08
 
    0.11350E+08         0.51088E+06         0.00000E+00
    0.51088E+06         0.26390E+08         0.00000E+00
    0.00000E+00         0.00000E+00         0.11322E+08
 
    0.11302E+08         0.51999E+06         0.00000E+00
    0.51999E+06         0.26281E+08         0.00000E+00
    0.00000E+00         0.00000E+00         0.11275E+08
 
    0.11254E+08         0.52890E+06         0.00000E+00
    0.52890E+06         0.26170E+08         0.00000E+00
    0.00000E+00         0.00000E+00         0.11227E+08
 
    0.11204E+08         0.53755E+06         0.00000E+00
    0.53755E+06         0.26055E+08         0.00000E+00
    0.00000E+00         0.00000E+00         0.11178E+08
 
    0.11152E+08         0.54591E+06         0.00000E+00
    0.54591E+06         0.25937E+08         0.00000E+00
    0.00000E+00         0.00000E+00         0.11127E+08
 
    0.11099E+08         0.55394E+06         0.00000E+00
    0.55394E+06         0.25817E+08         0.00000E+00
    0.00000E+00         0.00000E+00         0.11075E+08
 
    0.11044E+08         0.56158E+06         0.00000E+00
    0.56158E+06         0.25693E+08         0.00000E+00
    0.00000E+00         0.00000E+00         0.11021E+08
 
    0.10988E+08         0.56878E+06         0.00000E+00
    0.56878E+06         0.25566E+08         0.00000E+00
    0.00000E+00         0.00000E+00         0.10966E+08
 
    0.10930E+08         0.57549E+06         0.00000E+00
    0.57549E+06         0.25435E+08         0.00000E+00
    0.00000E+00         0.00000E+00         0.10910E+08
 
    0.10871E+08         0.58163E+06         0.00000E+00
    0.58163E+06         0.25302E+08         0.00000E+00
    0.00000E+00         0.00000E+00         0.10852E+08
 
    0.10810E+08         0.58715E+06         0.00000E+00
    0.58715E+06         0.25165E+08         0.00000E+00
    0.00000E+00         0.00000E+00         0.10792E+08
 
    0.10747E+08         0.59197E+06         0.00000E+00
    0.59197E+06         0.25025E+08         0.00000E+00
    0.00000E+00         0.00000E+00         0.10732E+08
 
    0.10682E+08         0.59601E+06         0.00000E+00
    0.59601E+06         0.24882E+08         0.00000E+00
    0.00000E+00         0.00000E+00         0.10669E+08
 
    0.10616E+08         0.59919E+06         0.00000E+00
    0.59919E+06         0.24735E+08         0.00000E+00
    0.00000E+00         0.00000E+00         0.10605E+08
 
    0.10548E+08         0.60142E+06         0.00000E+00
    0.60142E+06         0.24584E+08         0.00000E+00
    0.00000E+00         0.00000E+00         0.10540E+08
 
    0.10478E+08         0.60261E+06         0.00000E+00
    0.60261E+06         0.24431E+08         0.00000E+00
    0.00000E+00         0.00000E+00         0.10473E+08
 
    0.10406E+08         0.60266E+06         0.00000E+00
    0.60266E+06         0.24273E+08         0.00000E+00
    0.00000E+00         0.00000E+00         0.10404E+08
 
    0.10332E+08         0.60147E+06         0.00000E+00
    0.60147E+06         0.24113E+08         0.00000E+00
    0.00000E+00         0.00000E+00         0.10333E+08
 
    0.10256E+08         0.59894E+06         0.00000E+00
    0.59894E+06         0.23948E+08         0.00000E+00
    0.00000E+00         0.00000E+00         0.10261E+08
 
    0.10179E+08         0.59495E+06         0.00000E+00
    0.59495E+06         0.23781E+08         0.00000E+00
    0.00000E+00         0.00000E+00         0.10188E+08
 
    0.10099E+08         0.58940E+06         0.00000E+00
    0.58940E+06         0.23609E+08         0.00000E+00
    0.00000E+00         0.00000E+00         0.10112E+08
 
    0.10018E+08         0.58218E+06         0.00000E+00
    0.58218E+06         0.23434E+08         0.00000E+00
    0.00000E+00         0.00000E+00         0.10035E+08
 
    0.99342E+07         0.57319E+06         0.00000E+00
    0.57319E+06         0.23255E+08         0.00000E+00
    0.00000E+00         0.00000E+00         0.99569E+07
 
    0.98489E+07         0.56233E+06         0.00000E+00
    0.56233E+06         0.23073E+08         0.00000E+00
    0.00000E+00         0.00000E+00         0.98766E+07
 
    0.97619E+07         0.54951E+06         0.00000E+00
    0.54951E+06         0.22888E+08         0.00000E+00
    0.00000E+00         0.00000E+00         0.97949E+07
 
    0.96732E+07         0.53466E+06         0.00000E+00
    0.53466E+06         0.22699E+08         0.00000E+00
    0.00000E+00         0.00000E+00         0.97116E+07
 
    0.95829E+07         0.51771E+06         0.00000E+00
    0.51771E+06         0.22507E+08         0.00000E+00
    0.00000E+00         0.00000E+00         0.96270E+07
 
    0.94914E+07         0.49861E+06         0.00000E+00
    0.49861E+06         0.22312E+08         0.00000E+00
    0.00000E+00         0.00000E+00         0.95411E+07
 
    0.93987E+07         0.47732E+06         0.00000E+00
    0.47732E+06         0.22115E+08         0.00000E+00
    0.00000E+00         0.00000E+00         0.94542E+07
 
    0.93051E+07         0.45381E+06         0.00000E+00
    0.45381E+06         0.21917E+08         0.00000E+00
    0.00000E+00         0.00000E+00         0.93667E+07
 
    0.92109E+07         0.42804E+06         0.00000E+00
    0.42804E+06         0.21718E+08         0.00000E+00
    0.00000E+00         0.00000E+00         0.92787E+07
 
    0.91163E+07         0.39992E+06         0.00000E+00
    0.39992E+06         0.21520E+08         0.00000E+00
    0.00000E+00         0.00000E+00         0.91908E+07
 
    0.90213E+07         0.36932E+06         0.00000E+00
    0.36932E+06         0.21324E+08         0.00000E+00
    0.00000E+00         0.00000E+00         0.91035E+07
 
    0.89260E+07         0.33593E+06         0.00000E+00
    0.33593E+06         0.21132E+08         0.00000E+00
    0.00000E+00         0.00000E+00         0.90174E+07
 
    0.88299E+07         0.29925E+06         0.00000E+00
    0.29925E+06         0.20947E+08         0.00000E+00
    0.00000E+00         0.00000E+00         0.89332E+07
 
    0.87319E+07         0.25839E+06         0.00000E+00
    0.25839E+06         0.20773E+08         0.00000E+00
    0.00000E+00         0.00000E+00         0.88514E+07
 
    0.86299E+07         0.21201E+06         0.00000E+00
    0.21201E+06         0.20612E+08         0.00000E+00
    0.00000E+00         0.00000E+00         0.87727E+07
 
    0.85196E+07         0.15824E+06         0.00000E+00
    0.15824E+06         0.20471E+08         0.00000E+00
    0.00000E+00         0.00000E+00         0.86971E+07
 
    0.83923E+07         0.96937E+05         0.00000E+00
    0.96937E+05         0.20352E+08         0.00000E+00
    0.00000E+00         0.00000E+00         0.86233E+07
 
    0.82359E+07         0.32314E+05         0.00000E+00
    0.32314E+05         0.20255E+08         0.00000E+00
    0.00000E+00         0.00000E+00         0.85474E+07
 
    0.12741E+08         0.57791E+04         0.00000E+00
    0.57791E+04         0.29531E+08         0.00000E+00
    0.00000E+00         0.00000E+00         0.12682E+08
 
    0.12719E+08         0.17426E+05         0.00000E+00
    0.17426E+05         0.29517E+08         0.00000E+00
    0.00000E+00         0.00000E+00         0.12671E+08
 
    0.12700E+08         0.28898E+05         0.00000E+00
    0.28898E+05         0.29500E+08         0.00000E+00
    0.00000E+00         0.00000E+00         0.12660E+08
 
    0.12684E+08         0.39662E+05         0.00000E+00
    0.39662E+05         0.29480E+08         0.00000E+00
    0.00000E+00         0.00000E+00         0.12649E+08
 
    0.12669E+08         0.49628E+05         0.00000E+00
    0.49628E+05         0.29457E+08         0.00000E+00
    0.00000E+00         0.00000E+00         0.12638E+08
 
    0.12655E+08         0.58978E+05         0.00000E+00
    0.58978E+05         0.29432E+08         0.00000E+00
    0.00000E+00         0.00000E+00         0.12626E+08
 
    0.12641E+08         0.67879E+05         0.00000E+00
    0.67879E+05         0.29405E+08         0.00000E+00
    0.00000E+00         0.00000E+00         0.12614E+08
 
    0.12627E+08         0.76442E+05         0.00000E+00
    0.76442E+05         0.29377E+08         0.00000E+00
    0.00000E+00         0.00000E+00         0.12601E+08
 
    0.12614E+08         0.84738E+05         0.00000E+00
    0.84738E+05         0.29347E+08         0.00000E+00
    0.00000E+00         0.00000E+00         0.12588E+08
 
    0.12600E+08         0.92809E+05         0.00000E+00
    0.92809E+05         0.29317E+08         0.00000E+00
    0.00000E+00         0.00000E+00         0.12575E+08
 
    0.12586E+08         0.10068E+06         0.00000E+00
    0.10068E+06         0.29286E+08         0.00000E+00
    0.00000E+00         0.00000E+00         0.12562E+08
 
    0.12572E+08         0.10837E+06         0.00000E+00
    0.10837E+06         0.29255E+08         0.00000E+00
    0.00000E+00         0.00000E+00         0.12548E+08
 
    0.12558E+08         0.11590E+06         0.00000E+00
    0.11590E+06         0.29223E+08         0.00000E+00
    0.00000E+00         0.00000E+00         0.12534E+08
 
    0.12543E+08         0.12327E+06         0.00000E+00
    0.12327E+06         0.29191E+08         0.00000E+00
    0.00000E+00         0.00000E+00         0.12520E+08
 
    0.12529E+08         0.13049E+06         0.00000E+00
    0.13049E+06         0.29159E+08         0.00000E+00
    0.00000E+00         0.00000E+00         0.12506E+08
 
    0.12514E+08         0.13759E+06         0.00000E+00
    0.13759E+06         0.29126E+08         0.00000E+00
    0.00000E+00         0.00000E+00         0.12492E+08
 
    0.12500E+08         0.14457E+06         0.00000E+00
    0.14457E+06         0.29092E+08         0.00000E+00
    0.00000E+00         0.00000E+00         0.12478E+08
 
    0.12485E+08         0.15145E+06         0.00000E+00
    0.15145E+06         0.29059E+08         0.00000E+00
    0.00000E+00         0.00000E+00         0.12463E+08
 
    0.12470E+08         0.15824E+06         0.00000E+00
    0.15824E+06         0.29024E+08         0.00000E+00
    0.00000E+00         0.00000E+00         0.12448E+08
 
    0.12455E+08         0.16498E+06         0.00000E+00
    0.16498E+06         0.28989E+08         0.00000E+00
    0.00000E+00         0.00000E+00         0.12433E+08
 
    0.12440E+08         0.17166E+06         0.00000E+00
    0.17166E+06         0.28954E+08         0.00000E+00
    0.00000E+00         0.00000E+00         0.12418E+08
 
    0.12424E+08         0.17832E+06         0.00000E+00
    0.17832E+06         0.28918E+08         0.00000E+00
    0.00000E+00         0.00000E+00         0.12403E+08
 
    0.12409E+08         0.18496E+06         0.00000E+00
    0.18496E+06         0.28881E+08         0.00000E+00
    0.00000E+00         0.00000E+00         0.12387E+08
 
    0.12393E+08         0.19161E+06         0.00000E+00
    0.19161E+06         0.28843E+08         0.00000E+00
    0.00000E+00         0.00000E+00         0.12371E+08
 
    0.12376E+08         0.19828E+06         0.00000E+00
    0.19828E+06         0.28804E+08         0.00000E+00
    0.00000E+00         0.00000E+00         0.12354E+08
 
    0.12360E+08         0.20498E+06         0.00000E+00
    0.20498E+06         0.28765E+08         0.00000E+00
    0.00000E+00         0.00000E+00         0.12337E+08
 
    0.12343E+08         0.21174E+06         0.00000E+00
    0.21174E+06         0.28725E+08         0.00000E+00
    0.00000E+00         0.00000E+00         0.12320E+08
 
    0.12325E+08         0.21855E+06         0.00000E+00
    0.21855E+06         0.28683E+08         0.00000E+00
    0.00000E+00         0.00000E+00         0.12303E+08
 
    0.12308E+08         0.22543E+06         0.00000E+00
    0.22543E+06         0.28641E+08         0.00000E+00
    0.00000E+00         0.00000E+00         0.12284E+08
 
    0.12289E+08         0.23240E+06         0.00000E+00
    0.23240E+06         0.28597E+08         0.00000E+00
    0.00000E+00         0.00000E+00         0.12266E+08
 
    0.12271E+08         0.23947E+06         0.00000E+00
    0.23947E+06         0.28552E+08         0.00000E+00
    0.00000E+00         0.00000E+00         0.12247E+08
 
    0.12252E+08         0.24663E+06         0.00000E+00
    0.24663E+06         0.28506E+08         0.00000E+00
    0.00000E+00         0.00000E+00         0.12227E+08
 
    0.12232E+08         0.25390E+06         0.00000E+00
    0.25390E+06         0.28459E+08         0.00000E+00
    0.00000E+00         0.00000E+00         0.12207E+08
 
    0.12212E+08         0.26128E+06         0.00000E+00
    0.26128E+06         0.28410E+08         0.00000E+00
    0.00000E+00         0.00000E+00         0.12187E+08
 
    0.12191E+08         0.26879E+06         0.00000E+00
    0.26879E+06         0.28360E+08         0.00000E+00
    0.00000E+00         0.00000E+00         0.12165E+08
 
    0.12170E+08         0.27642E+06         0.00000E+00
    0.27642E+06         0.28309E+08         0.00000E+00
    0.00000E+00         0.00000E+00         0.12143E+08
 
    0.12147E+08         0.28417E+06         0.00000E+00
    0.28417E+06         0.28256E+08         0.00000E+00
    0.00000E+00         0.00000E+00         0.12121E+08
 
    0.12125E+08         0.29206E+06         0.00000E+00
    0.29206E+06         0.28201E+08         0.00000E+00
    0.00000E+00         0.00000E+00         0.12098E+08
 
    0.12101E+08         0.30008E+06         0.00000E+00
    0.30008E+06         0.28145E+08         0.00000E+00
    0.00000E+00         0.00000E+00         0.12074E+08
 
    0.12077E+08         0.30822E+06         0.00000E+00
    0.30822E+06         0.28087E+08         0.00000E+00
    0.00000E+00         0.00000E+00         0.12049E+08
 
    0.12053E+08         0.31650E+06         0.00000E+00
    0.31650E+06         0.28028E+08         0.00000E+00
    0.00000E+00         0.00000E+00         0.12024E+08
 
    0.12027E+08         0.32491E+06         0.00000E+00
    0.32491E+06         0.27966E+08         0.00000E+00
    0.00000E+00         0.00000E+00         0.11998E+08
 
    0.12001E+08         0.33344E+06         0.00000E+00
    0.33344E+06         0.27903E+08         0.00000E+00
    0.00000E+00         0.00000E+00         0.11971E+08
 
    0.11973E+08         0.34210E+06         0.00000E+00
    0.34210E+06         0.27838E+08         0.00000E+00
    0.00000E+00         0.00000E+00         0.11943E+08
 
    0.11945E+08         0.35087E+06         0.00000E+00
    0.35087E+06         0.27771E+08         0.00000E+00
    0.00000E+00         0.00000E+00         0.11915E+08
 
    0.11916E+08         0.35976E+06         0.00000E+00
    0.35976E+06         0.27702E+08         0.00000E+00
    0.00000E+00         0.00000E+00         0.11886E+08
 
    0.11886E+08         0.36876E+06         0.00000E+00
    0.36876E+06         0.27631E+08         0.00000E+00
    0.00000E+00         0.00000E+00         0.11855E+08
 
    0.11856E+08         0.37785E+06         0.00000E+00
    0.37785E+06         0.27558E+08         0.00000E+00
    0.00000E+00         0.00000E+00         0.11824E+08
 
    0.11824E+08         0.38703E+06         0.00000E+00
    0.38703E+06         0.27483E+08         0.00000E+00
    0.00000E+00         0.00000E+00         0.11792E+08
 
    0.11791E+08         0.39629E+06         0.00000E+00
    0.39629E+06         0.27405E+08         0.00000E+00
    0.00000E+00         0.00000E+00         0.11759E+08
 
    0.11757E+08         0.40562E+06         0.00000E+00
    0.40562E+06         0.27325E+08         0.00000E+00
    0.00000E+00         0.00000E+00         0.11725E+08
 
    0.11722E+08         0.41500E+06         0.00000E+00
    0.41500E+06         0.27243E+08         0.00000E+00
    0.00000E+00         0.00000E+00         0.11690E+08
 
    0.11686E+08         0.42442E+06         0.00000E+00
    0.42442E+06         0.27159E+08         0.00000E+00
    0.00000E+00         0.00000E+00         0.11653E+08
 
    0.11649E+08         0.43387E+06         0.00000E+00
    0.43387E+06         0.27071E+08         0.00000E+00
    0.00000E+00         0.00000E+00         0.11616E+08
 
    0.11611E+08         0.44332E+06         0.00000E+00
    0.44332E+06         0.26982E+08         0.00000E+00
    0.00000E+00         0.00000E+00         0.11578E+08
 
    0.11571E+08         0.45276E+06         0.00000E+00
    0.45276E+06         0.26890E+08         0.00000E+00
    0.00000E+00         0.00000E+00         0.11538E+08
 
    0.11530E+08         0.46217E+06         0.00000E+00
    0.46217E+06         0.26795E+08         0.00000E+00
    0.00000E+00         0.00000E+00         0.11498E+08
 
    0.11489E+08         0.47151E+06         0.00000E+00
    0.47151E+06         0.26697E+08         0.00000E+00
    0.00000E+00         0.00000E+00         0.11456E+08
 
    0.11445E+08         0.48078E+06         0.00000E+00
    0.48078E+06         0.26597E+08         0.00000E+00
    0.00000E+00         0.00000E+00         0.11413E+08
 
    0.11401E+08         0.48993E+06         0.00000E+00
    0.48993E+06         0.26494E+08         0.00000E+00
    0.00000E+00         0.00000E+00         0.11368E+08
 
    0.11355E+08         0.49895E+06         0.00000E+00
    0.49895E+06         0.26388E+08         0.00000E+00
    0.00000E+00         0.00000E+00         0.11323E+08
 
    0.11307E+08         0.50779E+06         0.00000E+00
    0.50779E+06         0.26280E+08         0.00000E+00
    0.00000E+00         0.00000E+00         0.11276E+08
 
    0.11259E+08         0.51642E+06         0.00000E+00
    0.51642E+06         0.26168E+08         0.00000E+00
    0.00000E+00         0.00000E+00         0.11228E+08
 
    0.11208E+08         0.52481E+06         0.00000E+00
    0.52481E+06         0.26053E+08         0.00000E+00
    0.00000E+00         0.00000E+00         0.11179E+08
 
    0.11157E+08         0.53290E+06         0.00000E+00
    0.53290E+06         0.25936E+08         0.00000E+00
    0.00000E+00         0.00000E+00         0.11128E+08
 
    0.11103E+08         0.54066E+06         0.00000E+00
    0.54066E+06         0.25815E+08         0.00000E+00
    0.00000E+00         0.00000E+00         0.11076E+08
 
    0.11049E+08         0.54804E+06         0.00000E+00
    0.54804E+06         0.25691E+08         0.00000E+00
    0.00000E+00         0.00000E+00         0.11022E+08
 
    0.10992E+08         0.55498E+06         0.00000E+00
    0.55498E+06         0.25564E+08         0.00000E+00
    0.00000E+00         0.00000E+00         0.10967E+08
 
    0.10934E+08         0.56143E+06         0.00000E+00
    0.56143E+06         0.25434E+08         0.00000E+00
    0.00000E+00         0.00000E+00         0.10910E+08
 
    0.10874E+08         0.56733E+06         0.00000E+00
    0.56733E+06         0.25301E+08         0.00000E+00
    0.00000E+00         0.00000E+00         0.10853E+08
 
    0.10813E+08         0.57260E+06         0.00000E+00
    0.57260E+06         0.25164E+08         0.00000E+00
    0.00000E+00         0.00000E+00         0.10793E+08
 
    0.10750E+08         0.57718E+06         0.00000E+00
    0.57718E+06         0.25024E+08         0.00000E+00
    0.00000E+00         0.00000E+00         0.10732E+08
 
    0.10685E+08         0.58099E+06         0.00000E+00
    0.58099E+06         0.24881E+08         0.00000E+00
    0.00000E+00         0.00000E+00         0.10670E+08
 
    0.10618E+08         0.58395E+06         0.00000E+00
    0.58395E+06         0.24734E+08         0.00000E+00
    0.00000E+00         0.00000E+00         0.10606E+08
 
    0.10549E+08         0.58597E+06         0.00000E+00
    0.58597E+06         0.24584E+08         0.00000E+00
    0.00000E+00         0.00000E+00         0.10540E+08
 
    0.10479E+08         0.58696E+06         0.00000E+00
    0.58696E+06         0.24431E+08         0.00000E+00
    0.00000E+00         0.00000E+00         0.10473E+08
 
    0.10406E+08         0.58682E+06         0.00000E+00
    0.58682E+06         0.24274E+08         0.00000E+00
    0.00000E+00         0.00000E+00         0.10404E+08
 
    0.10332E+08         0.58545E+06         0.00000E+00
    0.58545E+06         0.24113E+08         0.00000E+00
    0.00000E+00         0.00000E+00         0.10334E+08
 
    0.10256E+08         0.58275E+06         0.00000E+00
    0.58275E+06         0.23949E+08         0.00000E+00
    0.00000E+00         0.00000E+00         0.10261E+08
 
    0.10177E+08         0.57861E+06         0.00000E+00
    0.57861E+06         0.23782E+08         0.00000E+00
    0.00000E+00         0.00000E+00         0.10188E+08
 
    0.10097E+08         0.57291E+06         0.00000E+00
    0.57291E+06         0.23610E+08         0.00000E+00
    0.00000E+00         0.00000E+00         0.10112E+08
 
    0.10014E+08         0.56556E+06         0.00000E+00
    0.56556E+06         0.23436E+08         0.00000E+00
    0.00000E+00         0.00000E+00         0.10035E+08
 
    0.99301E+07         0.55643E+06         0.00000E+00
    0.55643E+06         0.23257E+08         0.00000E+00
    0.00000E+00         0.00000E+00         0.99563E+07
 
    0.98439E+07         0.54544E+06         0.00000E+00
    0.54544E+06         0.23076E+08         0.00000E+00
    0.00000E+00         0.00000E+00         0.98759E+07
 
    0.97559E+07         0.53250E+06         0.00000E+00
    0.53250E+06         0.22890E+08         0.00000E+00
    0.00000E+00         0.00000E+00         0.97939E+07
 
    0.96661E+07         0.51751E+06         0.00000E+00
    0.51751E+06         0.22702E+08         0.00000E+00
    0.00000E+00         0.00000E+00         0.97104E+07
 
    0.95748E+07         0.50041E+06         0.00000E+00
    0.50041E+06         0.22511E+08         0.00000E+00
    0.00000E+00         0.00000E+00         0.96256E+07
 
    0.94821E+07         0.48114E+06         0.00000E+00
    0.48114E+06         0.22316E+08         0.00000E+00
    0.00000E+00         0.00000E+00         0.95395E+07
 
    0.93881E+07         0.45967E+06         0.00000E+00
    0.45967E+06         0.22120E+08         0.00000E+00
    0.00000E+00         0.00000E+00         0.94524E+07
 
    0.92933E+07         0.43595E+06         0.00000E+00
    0.43595E+06         0.21922E+08         0.00000E+00
    0.00000E+00         0.00000E+00         0.93646E+07
 
    0.91976E+07         0.40996E+06         0.00000E+00
    0.40996E+06         0.21724E+08         0.00000E+00
    0.00000E+00         0.00000E+00         0.92763E+07
 
    0.91014E+07         0.38162E+06         0.00000E+00
    0.38162E+06         0.21526E+08         0.00000E+00
    0.00000E+00         0.00000E+00         0.91881E+07
 
    0.90047E+07         0.35081E+06         0.00000E+00
    0.35081E+06         0.21330E+08         0.00000E+00
    0.00000E+00         0.00000E+00         0.91005E+07
 
    0.89074E+07         0.31732E+06         0.00000E+00
    0.31732E+06         0.21139E+08         0.00000E+00
    0.00000E+00         0.00000E+00         0.90139E+07
 
    0.88087E+07         0.28071E+06         0.00000E+00
    0.28071E+06         0.20955E+08         0.00000E+00
    0.00000E+00         0.00000E+00         0.89291E+07
 
    0.87075E+07         0.24029E+06         0.00000E+00
    0.24029E+06         0.20782E+08         0.00000E+00
    0.00000E+00         0.00000E+00         0.88467E+07
 
    0.86014E+07         0.19497E+06         0.00000E+00
    0.19497E+06         0.20622E+08         0.00000E+00
    0.00000E+00         0.00000E+00         0.87671E+07
 
    0.84858E+07         0.14358E+06         0.00000E+00
    0.14358E+06         0.20482E+08         0.00000E+00
    0.00000E+00         0.00000E+00         0.86903E+07
 
    0.83523E+07         0.86890E+05         0.00000E+00
    0.86890E+05         0.20364E+08         0.00000E+00
    0.00000E+00         0.00000E+00         0.86150E+07
 
    0.81916E+07         0.28771E+05         0.00000E+00
    0.28771E+05         0.20267E+08         0.00000E+00
    0.00000E+00         0.00000E+00         0.85377E+07
 
    0.12749E+08         0.53187E+04         0.00000E+00
    0.53187E+04         0.29529E+08         0.00000E+00
    0.00000E+00         0.00000E+00         0.12683E+08
 
    0.12726E+08         0.16096E+05         0.00000E+00
    0.16096E+05         0.29515E+08         0.00000E+00
    0.00000E+00         0.00000E+00         0.12672E+08
 
    0.12706E+08         0.26892E+05         0.00000E+00
    0.26892E+05         0.29498E+08         0.00000E+00
    0.00000E+00         0.00000E+00         0.12661E+08
 
    0.12690E+08         0.37245E+05         0.00000E+00
    0.37245E+05         0.29478E+08         0.00000E+00
    0.00000E+00         0.00000E+00         0.12650E+08
 
    0.12674E+08         0.46981E+05         0.00000E+00
    0.46981E+05         0.29455E+08         0.00000E+00
    0.00000E+00         0.00000E+00         0.12639E+08
 
    0.12660E+08         0.56196E+05         0.00000E+00
    0.56196E+05         0.29430E+08         0.00000E+00
    0.00000E+00         0.00000E+00         0.12627E+08
 
    0.12646E+08         0.65013E+05         0.00000E+00
    0.65013E+05         0.29403E+08         0.00000E+00
    0.00000E+00         0.00000E+00         0.12615E+08
 
    0.12632E+08         0.73517E+05         0.00000E+00
    0.73517E+05         0.29375E+08         0.00000E+00
    0.00000E+00         0.00000E+00         0.12602E+08
 
    0.12618E+08         0.81763E+05         0.00000E+00
    0.81763E+05         0.29346E+08         0.00000E+00
    0.00000E+00         0.00000E+00         0.12589E+08
 
    0.12604E+08         0.89786E+05         0.00000E+00
    0.89786E+05         0.29316E+08         0.00000E+00
    0.00000E+00         0.00000E+00         0.12576E+08
 
    0.12590E+08         0.97605E+05         0.00000E+00
    0.97605E+05         0.29285E+08         0.00000E+00
    0.00000E+00         0.00000E+00         0.12562E+08
 
    0.12576E+08         0.10524E+06         0.00000E+00
    0.10524E+06         0.29254E+08         0.00000E+00
    0.00000E+00         0.00000E+00         0.12549E+08
 
    0.12561E+08         0.11269E+06         0.00000E+00
    0.11269E+06         0.29222E+08         0.00000E+00
    0.00000E+00         0.00000E+00         0.12535E+08
 
    0.12547E+08         0.11998E+06         0.00000E+00
    0.11998E+06         0.29190E+08         0.00000E+00
    0.00000E+00         0.00000E+00         0.12521E+08
 
    0.12533E+08         0.12712E+06         0.00000E+00
    0.12712E+06         0.29157E+08         0.00000E+00
    0.00000E+00         0.00000E+00         0.12507E+08
 
    0.12518E+08         0.13412E+06         0.00000E+00
    0.13412E+06         0.29124E+08         0.00000E+00
    0.00000E+00         0.00000E+00         0.12493E+08
 
    0.12503E+08         0.14100E+06         0.00000E+00
    0.14100E+06         0.29091E+08         0.00000E+00
    0.00000E+00         0.00000E+00         0.12478E+08
 
    0.12489E+08         0.14778E+06         0.00000E+00
    0.14778E+06         0.29057E+08         0.00000E+00
    0.00000E+00         0.00000E+00         0.12464E+08
 
    0.12474E+08         0.15447E+06         0.00000E+00
    0.15447E+06         0.29023E+08         0.00000E+00
    0.00000E+00         0.00000E+00         0.12449E+08
 
    0.12458E+08         0.16109E+06         0.00000E+00
    0.16109E+06         0.28988E+08         0.00000E+00
    0.00000E+00         0.00000E+00         0.12434E+08
 
    0.12443E+08         0.16766E+06         0.00000E+00
    0.16766E+06         0.28953E+08         0.00000E+00
    0.00000E+00         0.00000E+00         0.12419E+08
 
    0.12428E+08         0.17419E+06         0.00000E+00
    0.17419E+06         0.28916E+08         0.00000E+00
    0.00000E+00         0.00000E+00         0.12403E+08
 
    0.12412E+08         0.18071E+06         0.00000E+00
    0.18071E+06         0.28879E+08         0.00000E+00
    0.00000E+00         0.00000E+00         0.12387E+08
 
    0.12396E+08         0.18723E+06         0.00000E+00
    0.18723E+06         0.28842E+08         0.00000E+00
    0.00000E+00         0.00000E+00         0.12371E+08
 
    0.12380E+08         0.19377E+06         0.00000E+00
    0.19377E+06         0.28803E+08         0.00000E+00
    0.00000E+00         0.00000E+00         0.12355E+08
 
    0.12363E+08         0.20034E+06         0.00000E+00
    0.20034E+06         0.28764E+08         0.00000E+00
    0.00000E+00         0.00000E+00         0.12338E+08
 
    0.12346E+08         0.20695E+06         0.00000E+00
    0.20695E+06         0.28723E+08         0.00000E+00
    0.00000E+00         0.00000E+00         0.12321E+08
 
    0.12329E+08         0.21362E+06         0.00000E+00
    0.21362E+06         0.28682E+08         0.00000E+00
    0.00000E+00         0.00000E+00         0.12303E+08
 
    0.12311E+08         0.22036E+06         0.00000E+00
    0.22036E+06         0.28639E+08         0.00000E+00
    0.00000E+00         0.00000E+00         0.12285E+08
 
    0.12293E+08         0.22718E+06         0.00000E+00
    0.22718E+06         0.28596E+08         0.00000E+00
    0.00000E+00         0.00000E+00         0.12267E+08
 
    0.12274E+08         0.23409E+06         0.00000E+00
    0.23409E+06         0.28551E+08         0.00000E+00
    0.00000E+00         0.00000E+00         0.12248E+08
 
    0.12255E+08         0.24110E+06         0.00000E+00
    0.24110E+06         0.28505E+08         0.00000E+00
    0.00000E+00         0.00000E+00         0.12228E+08
 
    0.12236E+08         0.24821E+06         0.00000E+00
    0.24821E+06         0.28457E+08         0.00000E+00
    0.00000E+00         0.00000E+00         0.12208E+08
 
    0.12216E+08         0.25543E+06         0.00000E+00
    0.25543E+06         0.28409E+08         0.00000E+00
    0.00000E+00         0.00000E+00         0.12187E+08
 
    0.12195E+08         0.26276E+06         0.00000E+00
    0.26276E+06         0.28359E+08         0.00000E+00
    0.00000E+00         0.00000E+00         0.12166E+08
 
    0.12174E+08         0.27022E+06         0.00000E+00
    0.27022E+06         0.28307E+08         0.00000E+00
    0.00000E+00         0.00000E+00         0.12144E+08
 
    0.12152E+08         0.27779E+06         0.00000E+00
    0.27779E+06         0.28254E+08         0.00000E+00
    0.00000E+00         0.00000E+00         0.12122E+08
 
    0.12129E+08         0.28550E+06         0.00000E+00
    0.28550E+06         0.28200E+08         0.00000E+00
    0.00000E+00         0.00000E+00         0.12099E+08
 
    0.12106E+08         0.29332E+06         0.00000E+00
    0.29332E+06         0.28144E+08         0.00000E+00
    0.00000E+00         0.00000E+00         0.12075E+08
 
    0.12082E+08         0.30128E+06         0.00000E+00
    0.30128E+06         0.28086E+08         0.00000E+00
    0.00000E+00         0.00000E+00         0.12050E+08
 
    0.12057E+08         0.30936E+06         0.00000E+00
    0.30936E+06         0.28026E+08         0.00000E+00
    0.00000E+00         0.00000E+00         0.12025E+08
 
    0.12031E+08         0.31757E+06         0.00000E+00
    0.31757E+06         0.27965E+08         0.00000E+00
    0.00000E+00         0.00000E+00         0.11999E+08
 
    0.12005E+08         0.32589E+06         0.00000E+00
    0.32589E+06         0.27902E+08         0.00000E+00
    0.00000E+00         0.00000E+00         0.11972E+08
 
    0.11978E+08         0.33434E+06         0.00000E+00
    0.33434E+06         0.27837E+08         0.00000E+00
    0.00000E+00         0.00000E+00         0.11944E+08
 
    0.11950E+08         0.34290E+06         0.00000E+00
    0.34290E+06         0.27770E+08         0.00000E+00
    0.00000E+00         0.00000E+00         0.11916E+08
 
    0.11921E+08         0.35157E+06         0.00000E+00
    0.35157E+06         0.27701E+08         0.00000E+00
    0.00000E+00         0.00000E+00         0.11886E+08
 
    0.11891E+08         0.36034E+06         0.00000E+00
    0.36034E+06         0.27630E+08         0.00000E+00
    0.00000E+00         0.00000E+00         0.11856E+08
 
    0.11860E+08         0.36920E+06         0.00000E+00
    0.36920E+06         0.27556E+08         0.00000E+00
    0.00000E+00         0.00000E+00         0.11825E+08
 
    0.11829E+08         0.37815E+06         0.00000E+00
    0.37815E+06         0.27481E+08         0.00000E+00
    0.00000E+00         0.00000E+00         0.11793E+08
 
    0.11796E+08         0.38717E+06         0.00000E+00
    0.38717E+06         0.27403E+08         0.00000E+00
    0.00000E+00         0.00000E+00         0.11760E+08
 
    0.11762E+08         0.39626E+06         0.00000E+00
    0.39626E+06         0.27323E+08         0.00000E+00
    0.00000E+00         0.00000E+00         0.11726E+08
 
    0.11727E+08         0.40540E+06         0.00000E+00
    0.40540E+06         0.27241E+08         0.00000E+00
    0.00000E+00         0.00000E+00         0.11691E+08
 
    0.11691E+08         0.41457E+06         0.00000E+00
    0.41457E+06         0.27157E+08         0.00000E+00
    0.00000E+00         0.00000E+00         0.11654E+08
 
    0.11654E+08         0.42377E+06         0.00000E+00
    0.42377E+06         0.27070E+08         0.00000E+00
    0.00000E+00         0.00000E+00         0.11617E+08
 
    0.11616E+08         0.43297E+06         0.00000E+00
    0.43297E+06         0.26980E+08         0.00000E+00
    0.00000E+00         0.00000E+00         0.11579E+08
 
    0.11576E+08         0.44215E+06         0.00000E+00
    0.44215E+06         0.26888E+08         0.00000E+00
    0.00000E+00         0.00000E+00         0.11539E+08
 
    0.11536E+08         0.45130E+06         0.00000E+00
    0.45130E+06         0.26793E+08         0.00000E+00
    0.00000E+00         0.00000E+00         0.11499E+08
 
    0.11494E+08         0.46039E+06         0.00000E+00
    0.46039E+06         0.26696E+08         0.00000E+00
    0.00000E+00         0.00000E+00         0.11457E+08
 
    0.11450E+08         0.46939E+06         0.00000E+00
    0.46939E+06         0.26595E+08         0.00000E+00
    0.00000E+00         0.00000E+00         0.11414E+08
 
    0.11406E+08         0.47828E+06         0.00000E+00
    0.47828E+06         0.26492E+08         0.00000E+00
    0.00000E+00         0.00000E+00         0.11369E+08
 
    0.11360E+08         0.48703E+06         0.00000E+00
    0.48703E+06         0.26387E+08         0.00000E+00
    0.00000E+00         0.00000E+00         0.11324E+08
 
    0.11312E+08         0.49560E+06         0.00000E+00
    0.49560E+06         0.26278E+08         0.00000E+00
    0.00000E+00         0.00000E+00         0.11277E+08
 
    0.11263E+08         0.50397E+06         0.00000E+00
    0.50397E+06         0.26166E+08         0.00000E+00
    0.00000E+00         0.00000E+00         0.11229E+08
 
    0.11213E+08         0.51209E+06         0.00000E+00
    0.51209E+06         0.26052E+08         0.00000E+00
    0.00000E+00         0.00000E+00         0.11179E+08
 
    0.11161E+08         0.51992E+06         0.00000E+00
    0.51992E+06         0.25934E+08         0.00000E+00
    0.00000E+00         0.00000E+00         0.11129E+08
 
    0.11108E+08         0.52742E+06         0.00000E+00
    0.52742E+06         0.25814E+08         0.00000E+00
    0.00000E+00         0.00000E+00         0.11076E+08
 
    0.11053E+08         0.53454E+06         0.00000E+00
    0.53454E+06         0.25690E+08         0.00000E+00
    0.00000E+00         0.00000E+00         0.11023E+08
 
    0.10996E+08         0.54123E+06         0.00000E+00
    0.54123E+06         0.25563E+08         0.00000E+00
    0.00000E+00         0.00000E+00         0.10968E+08
 
    0.10938E+08         0.54743E+06         0.00000E+00
    0.54743E+06         0.25433E+08         0.00000E+00
    0.00000E+00         0.00000E+00         0.10911E+08
 
    0.10878E+08         0.55308E+06         0.00000E+00
    0.55308E+06         0.25300E+08         0.00000E+00
    0.00000E+00         0.00000E+00         0.10853E+08
 
    0.10816E+08         0.55811E+06         0.00000E+00
    0.55811E+06         0.25163E+08         0.00000E+00
    0.00000E+00         0.00000E+00         0.10794E+08
 
    0.10753E+08         0.56246E+06         0.00000E+00
    0.56246E+06         0.25023E+08         0.00000E+00
    0.00000E+00         0.00000E+00         0.10733E+08
 
    0.10687E+08         0.56605E+06         0.00000E+00
    0.56605E+06         0.24880E+08         0.00000E+00
    0.00000E+00         0.00000E+00         0.10670E+08
 
    0.10620E+08         0.56880E+06         0.00000E+00
    0.56880E+06         0.24734E+08         0.00000E+00
    0.00000E+00         0.00000E+00         0.10606E+08
 
    0.10551E+08         0.57062E+06         0.00000E+00
    0.57062E+06         0.24584E+08         0.00000E+00
    0.00000E+00         0.00000E+00         0.10540E+08
 
    0.10480E+08         0.57142E+06         0.00000E+00
    0.57142E+06         0.24431E+08         0.00000E+00
    0.00000E+00         0.00000E+00         0.10473E+08
 
    0.10407E+08         0.57110E+06         0.00000E+00
    0.57110E+06         0.24274E+08         0.00000E+00
    0.00000E+00         0.00000E+00         0.10404E+08
 
    0.10332E+08         0.56957E+06         0.00000E+00
    0.56957E+06         0.24114E+08         0.00000E+00
    0.00000E+00         0.00000E+00         0.10334E+08
 
    0.10255E+08         0.56671E+06         0.00000E+00
    0.56671E+06         0.23950E+08         0.00000E+00
    0.00000E+00         0.00000E+00         0.10261E+08
 
    0.10176E+08         0.56242E+06         0.00000E+00
    0.56242E+06         0.23783E+08         0.00000E+00
    0.00000E+00         0.00000E+00         0.10187E+08
 
    0.10095E+08         0.55659E+06         0.00000E+00
    0.55659E+06         0.23612E+08         0.00000E+00
    0.00000E+00         0.00000E+00         0.10112E+08
 
    0.10011E+08         0.54910E+06         0.00000E+00
    0.54910E+06         0.23437E+08         0.00000E+00
    0.00000E+00         0.00000E+00         0.10035E+08
 
    0.99261E+07         0.53986E+06         0.00000E+00
    0.53986E+06         0.23259E+08         0.00000E+00
    0.00000E+00         0.00000E+00         0.99557E+07
 
    0.98390E+07         0.52875E+06         0.00000E+00
    0.52875E+06         0.23078E+08         0.00000E+00
    0.00000E+00         0.00000E+00         0.98751E+07
 
    0.97499E+07         0.51569E+06         0.00000E+00
    0.51569E+06         0.22893E+08         0.00000E+00
    0.00000E+00         0.00000E+00         0.97930E+07
 
    0.96591E+07         0.50057E+06         0.00000E+00
    0.50057E+06         0.22705E+08         0.00000E+00
    0.00000E+00         0.00000E+00         0.97093E+07
 
    0.95666E+07         0.48334E+06         0.00000E+00
    0.48334E+06         0.22514E+08         0.00000E+00
    0.00000E+00         0.00000E+00         0.96242E+07
 
    0.94727E+07         0.46392E+06         0.00000E+00
    0.46392E+06         0.22320E+08         0.00000E+00
    0.00000E+00         0.00000E+00         0.95379E+07
 
    0.93775E+07         0.44228E+06         0.00000E+00
    0.44228E+06         0.22124E+08         0.00000E+00
    0.00000E+00         0.00000E+00         0.94506E+07
 
    0.92813E+07         0.41838E+06         0.00000E+00
    0.41838E+06         0.21927E+08         0.00000E+00
    0.00000E+00         0.00000E+00         0.93625E+07
 
    0.91842E+07         0.39218E+06         0.00000E+00
    0.39218E+06         0.21729E+08         0.00000E+00
    0.00000E+00         0.00000E+00         0.92740E+07
 
    0.90864E+07         0.36364E+06         0.00000E+00
    0.36364E+06         0.21532E+08         0.00000E+00
    0.00000E+00         0.00000E+00         0.91854E+07
 
    0.89879E+07         0.33269E+06         0.00000E+00
    0.33269E+06         0.21337E+08         0.00000E+00
    0.00000E+00         0.00000E+00         0.90973E+07
 
    0.88884E+07         0.29916E+06         0.00000E+00
    0.29916E+06         0.21146E+08         0.00000E+00
    0.00000E+00         0.00000E+00         0.90103E+07
 
    0.87872E+07         0.26273E+06         0.00000E+00
    0.26273E+06         0.20963E+08         0.00000E+00
    0.00000E+00         0.00000E+00         0.89250E+07
 
    0.86829E+07         0.22289E+06         0.00000E+00
    0.22289E+06         0.20790E+08         0.00000E+00
    0.00000E+00         0.00000E+00         0.88419E+07
 
    0.85729E+07         0.17886E+06         0.00000E+00
    0.17886E+06         0.20632E+08         0.00000E+00
    0.00000E+00         0.00000E+00         0.87614E+07
 
    0.84522E+07         0.13008E+06         0.00000E+00
    0.13008E+06         0.20492E+08         0.00000E+00
    0.00000E+00         0.00000E+00         0.86834E+07
 
    0.83136E+07         0.77878E+05         0.00000E+00
    0.77878E+05         0.20375E+08         0.00000E+00
    0.00000E+00         0.00000E+00         0.86067E+07
 
    0.81495E+07         0.25644E+05         0.00000E+00
    0.25644E+05         0.20278E+08         0.00000E+00
    0.00000E+00         0.00000E+00         0.85283E+07
 
    0.12756E+08         0.49028E+04         0.00000E+00
    0.49028E+04         0.29527E+08         0.00000E+00
    0.00000E+00         0.00000E+00         0.12685E+08
 
    0.12733E+08         0.14881E+05         0.00000E+00
    0.14881E+05         0.29513E+08         0.00000E+00
    0.00000E+00         0.00000E+00         0.12674E+08
 
    0.12713E+08         0.25022E+05         0.00000E+00
    0.25022E+05         0.29496E+08         0.00000E+00
    0.00000E+00         0.00000E+00         0.12663E+08
 
    0.12695E+08         0.34943E+05         0.00000E+00
    0.34943E+05         0.29476E+08         0.00000E+00
    0.00000E+00         0.00000E+00         0.12651E+08
 
    0.12680E+08         0.44422E+05         0.00000E+00
    0.44422E+05         0.29453E+08         0.00000E+00
    0.00000E+00         0.00000E+00         0.12640E+08
 
    0.12665E+08         0.53482E+05         0.00000E+00
    0.53482E+05         0.29428E+08         0.00000E+00
    0.00000E+00         0.00000E+00         0.12628E+08
 
    0.12650E+08         0.62199E+05         0.00000E+00
    0.62199E+05         0.29402E+08         0.00000E+00
    0.00000E+00         0.00000E+00         0.12616E+08
 
    0.12636E+08         0.70633E+05         0.00000E+00
    0.70633E+05         0.29373E+08         0.00000E+00
    0.00000E+00         0.00000E+00         0.12603E+08
 
    0.12622E+08         0.78823E+05         0.00000E+00
    0.78823E+05         0.29344E+08         0.00000E+00
    0.00000E+00         0.00000E+00         0.12590E+08
 
    0.12608E+08         0.86790E+05         0.00000E+00
    0.86790E+05         0.29314E+08         0.00000E+00
    0.00000E+00         0.00000E+00         0.12577E+08
 
    0.12594E+08         0.94551E+05         0.00000E+00
    0.94551E+05         0.29283E+08         0.00000E+00
    0.00000E+00         0.00000E+00         0.12563E+08
 
    0.12579E+08         0.10212E+06         0.00000E+00
    0.10212E+06         0.29252E+08         0.00000E+00
    0.00000E+00         0.00000E+00         0.12549E+08
 
    0.12565E+08         0.10950E+06         0.00000E+00
    0.10950E+06         0.29220E+08         0.00000E+00
    0.00000E+00         0.00000E+00         0.12536E+08
 
    0.12551E+08         0.11671E+06         0.00000E+00
    0.11671E+06         0.29188E+08         0.00000E+00
    0.00000E+00         0.00000E+00         0.12522E+08
 
    0.12536E+08         0.12376E+06         0.00000E+00
    0.12376E+06         0.29156E+08         0.00000E+00
    0.00000E+00         0.00000E+00         0.12508E+08
 
    0.12521E+08         0.13067E+06         0.00000E+00
    0.13067E+06         0.29123E+08         0.00000E+00
    0.00000E+00         0.00000E+00         0.12493E+08
 
    0.12507E+08         0.13745E+06         0.00000E+00
    0.13745E+06         0.29090E+08         0.00000E+00
    0.00000E+00         0.00000E+00         0.12479E+08
 
    0.12492E+08         0.14412E+06         0.00000E+00
    0.14412E+06         0.29056E+08         0.00000E+00
    0.00000E+00         0.00000E+00         0.12464E+08
 
    0.12477E+08         0.15070E+06         0.00000E+00
    0.15070E+06         0.29022E+08         0.00000E+00
    0.00000E+00         0.00000E+00         0.12450E+08
 
    0.12462E+08         0.15720E+06         0.00000E+00
    0.15720E+06         0.28987E+08         0.00000E+00
    0.00000E+00         0.00000E+00         0.12435E+08
 
    0.12447E+08         0.16365E+06         0.00000E+00
    0.16365E+06         0.28951E+08         0.00000E+00
    0.00000E+00         0.00000E+00         0.12419E+08
 
    0.12431E+08         0.17007E+06         0.00000E+00
    0.17007E+06         0.28915E+08         0.00000E+00
    0.00000E+00         0.00000E+00         0.12404E+08
 
    0.12415E+08         0.17646E+06         0.00000E+00
    0.17646E+06         0.28878E+08         0.00000E+00
    0.00000E+00         0.00000E+00         0.12388E+08
 
    0.12399E+08         0.18285E+06         0.00000E+00
    0.18285E+06         0.28840E+08         0.00000E+00
    0.00000E+00         0.00000E+00         0.12372E+08
 
    0.12383E+08         0.18925E+06         0.00000E+00
    0.18925E+06         0.28802E+08         0.00000E+00
    0.00000E+00         0.00000E+00         0.12356E+08
 
    0.12367E+08         0.19569E+06         0.00000E+00
    0.19569E+06         0.28762E+08         0.00000E+00
    0.00000E+00         0.00000E+00         0.12339E+08
 
    0.12350E+08         0.20216E+06         0.00000E+00
    0.20216E+06         0.28722E+08         0.00000E+00
    0.00000E+00         0.00000E+00         0.12321E+08
 
    0.12332E+08         0.20869E+06         0.00000E+00
    0.20869E+06         0.28680E+08         0.00000E+00
    0.00000E+00         0.00000E+00         0.12304E+08
 
    0.12315E+08         0.21528E+06         0.00000E+00
    0.21528E+06         0.28638E+08         0.00000E+00
    0.00000E+00         0.00000E+00         0.12286E+08
 
    0.12297E+08         0.22195E+06         0.00000E+00
    0.22195E+06         0.28594E+08         0.00000E+00
    0.00000E+00         0.00000E+00         0.12267E+08
 
    0.12278E+08         0.22870E+06         0.00000E+00
    0.22870E+06         0.28549E+08         0.00000E+00
    0.00000E+00         0.00000E+00         0.12248E+08
 
    0.12259E+08         0.23555E+06         0.00000E+00
    0.23555E+06         0.28503E+08         0.00000E+00
    0.00000E+00         0.00000E+00         0.12229E+08
 
    0.12240E+08         0.24250E+06         0.00000E+00
    0.24250E+06         0.28456E+08         0.00000E+00
    0.00000E+00         0.00000E+00         0.12209E+08
 
    0.12220E+08         0.24955E+06         0.00000E+00
    0.24955E+06         0.28407E+08         0.00000E+00
    0.00000E+00         0.00000E+00         0.12188E+08
 
    0.12199E+08         0.25672E+06         0.00000E+00
    0.25672E+06         0.28357E+08         0.00000E+00
    0.00000E+00         0.00000E+00         0.12167E+08
 
    0.12178E+08         0.26400E+06         0.00000E+00
    0.26400E+06         0.28306E+08         0.00000E+00
    0.00000E+00         0.00000E+00         0.12145E+08
 
    0.12156E+08         0.27140E+06         0.00000E+00
    0.27140E+06         0.28253E+08         0.00000E+00
    0.00000E+00         0.00000E+00         0.12123E+08
 
    0.12133E+08         0.27891E+06         0.00000E+00
    0.27891E+06         0.28198E+08         0.00000E+00
    0.00000E+00         0.00000E+00         0.12099E+08
 
    0.12110E+08         0.28656E+06         0.00000E+00
    0.28656E+06         0.28142E+08         0.00000E+00
    0.00000E+00         0.00000E+00         0.12076E+08
 
    0.12086E+08         0.29432E+06         0.00000E+00
    0.29432E+06         0.28084E+08         0.00000E+00
    0.00000E+00         0.00000E+00         0.12051E+08
 
    0.12061E+08         0.30220E+06         0.00000E+00
    0.30220E+06         0.28025E+08         0.00000E+00
    0.00000E+00         0.00000E+00         0.12026E+08
 
    0.12036E+08         0.31021E+06         0.00000E+00
    0.31021E+06         0.27963E+08         0.00000E+00
    0.00000E+00         0.00000E+00         0.12000E+08
 
    0.12010E+08         0.31833E+06         0.00000E+00
    0.31833E+06         0.27900E+08         0.00000E+00
    0.00000E+00         0.00000E+00         0.11973E+08
 
    0.11983E+08         0.32657E+06         0.00000E+00
    0.32657E+06         0.27835E+08         0.00000E+00
    0.00000E+00         0.00000E+00         0.11945E+08
 
    0.11955E+08         0.33491E+06         0.00000E+00
    0.33491E+06         0.27768E+08         0.00000E+00
    0.00000E+00         0.00000E+00         0.11917E+08
 
    0.11926E+08         0.34336E+06         0.00000E+00
    0.34336E+06         0.27699E+08         0.00000E+00
    0.00000E+00         0.00000E+00         0.11887E+08
 
    0.11896E+08         0.35191E+06         0.00000E+00
    0.35191E+06         0.27628E+08         0.00000E+00
    0.00000E+00         0.00000E+00         0.11857E+08
 
    0.11865E+08         0.36054E+06         0.00000E+00
    0.36054E+06         0.27555E+08         0.00000E+00
    0.00000E+00         0.00000E+00         0.11826E+08
 
    0.11834E+08         0.36926E+06         0.00000E+00
    0.36926E+06         0.27479E+08         0.00000E+00
    0.00000E+00         0.00000E+00         0.11794E+08
 
    0.11801E+08         0.37805E+06         0.00000E+00
    0.37805E+06         0.27402E+08         0.00000E+00
    0.00000E+00         0.00000E+00         0.11761E+08
 
    0.11767E+08         0.38690E+06         0.00000E+00
    0.38690E+06         0.27322E+08         0.00000E+00
    0.00000E+00         0.00000E+00         0.11727E+08
 
    0.11732E+08         0.39579E+06         0.00000E+00
    0.39579E+06         0.27239E+08         0.00000E+00
    0.00000E+00         0.00000E+00         0.11692E+08
 
    0.11696E+08         0.40472E+06         0.00000E+00
    0.40472E+06         0.27155E+08         0.00000E+00
    0.00000E+00         0.00000E+00         0.11655E+08
 
    0.11659E+08         0.41367E+06         0.00000E+00
    0.41367E+06         0.27068E+08         0.00000E+00
    0.00000E+00         0.00000E+00         0.11618E+08
 
    0.11621E+08         0.42262E+06         0.00000E+00
    0.42262E+06         0.26978E+08         0.00000E+00
    0.00000E+00         0.00000E+00         0.11580E+08
 
    0.11582E+08         0.43154E+06         0.00000E+00
    0.43154E+06         0.26886E+08         0.00000E+00
    0.00000E+00         0.00000E+00         0.11540E+08
 
    0.11541E+08         0.44043E+06         0.00000E+00
    0.44043E+06         0.26791E+08         0.00000E+00
    0.00000E+00         0.00000E+00         0.11500E+08
 
    0.11499E+08         0.44926E+06         0.00000E+00
    0.44926E+06         0.26694E+08         0.00000E+00
    0.00000E+00         0.00000E+00         0.11458E+08
 
    0.11455E+08         0.45800E+06         0.00000E+00
    0.45800E+06         0.26594E+08         0.00000E+00
    0.00000E+00         0.00000E+00         0.11415E+08
 
    0.11411E+08         0.46663E+06         0.00000E+00
    0.46663E+06         0.26491E+08         0.00000E+00
    0.00000E+00         0.00000E+00         0.11370E+08
 
    0.11365E+08         0.47512E+06         0.00000E+00
    0.47512E+06         0.26385E+08         0.00000E+00
    0.00000E+00         0.00000E+00         0.11325E+08
 
    0.11317E+08         0.48343E+06         0.00000E+00
    0.48343E+06         0.26276E+08         0.00000E+00
    0.00000E+00         0.00000E+00         0.11278E+08
 
    0.11268E+08         0.49154E+06         0.00000E+00
    0.49154E+06         0.26165E+08         0.00000E+00
    0.00000E+00         0.00000E+00         0.11230E+08
 
    0.11218E+08         0.49940E+06         0.00000E+00
    0.49940E+06         0.26050E+08         0.00000E+00
    0.00000E+00         0.00000E+00         0.11180E+08
 
    0.11166E+08         0.50697E+06         0.00000E+00
    0.50697E+06         0.25933E+08         0.00000E+00
    0.00000E+00         0.00000E+00         0.11130E+08
 
    0.11112E+08         0.51422E+06         0.00000E+00
    0.51422E+06         0.25812E+08         0.00000E+00
    0.00000E+00         0.00000E+00         0.11077E+08
 
    0.11057E+08         0.52108E+06         0.00000E+00
    0.52108E+06         0.25689E+08         0.00000E+00
    0.00000E+00         0.00000E+00         0.11024E+08
 
    0.11000E+08         0.52752E+06         0.00000E+00
    0.52752E+06         0.25562E+08         0.00000E+00
    0.00000E+00         0.00000E+00         0.10969E+08
 
    0.10942E+08         0.53348E+06         0.00000E+00
    0.53348E+06         0.25432E+08         0.00000E+00
    0.00000E+00         0.00000E+00         0.10912E+08
 
    0.10881E+08         0.53889E+06         0.00000E+00
    0.53889E+06         0.25299E+08         0.00000E+00
    0.00000E+00         0.00000E+00         0.10854E+08
 
    0.10819E+08         0.54370E+06         0.00000E+00
    0.54370E+06         0.25162E+08         0.00000E+00
    0.00000E+00         0.00000E+00         0.10794E+08
 
    0.10756E+08         0.54782E+06         0.00000E+00
    0.54782E+06         0.25023E+08         0.00000E+00
    0.00000E+00         0.00000E+00         0.10733E+08
 
    0.10690E+08         0.55120E+06         0.00000E+00
    0.55120E+06         0.24880E+08         0.00000E+00
    0.00000E+00         0.00000E+00         0.10671E+08
 
    0.10622E+08         0.55374E+06         0.00000E+00
    0.55374E+06         0.24733E+08         0.00000E+00
    0.00000E+00         0.00000E+00         0.10607E+08
 
    0.10553E+08         0.55537E+06         0.00000E+00
    0.55537E+06         0.24584E+08         0.00000E+00
    0.00000E+00         0.00000E+00         0.10541E+08
 
    0.10481E+08         0.55598E+06         0.00000E+00
    0.55598E+06         0.24431E+08         0.00000E+00
    0.00000E+00         0.00000E+00         0.10473E+08
 
    0.10407E+08         0.55550E+06         0.00000E+00
    0.55550E+06         0.24274E+08         0.00000E+00
    0.00000E+00         0.00000E+00         0.10404E+08
 
    0.10332E+08         0.55380E+06         0.00000E+00
    0.55380E+06         0.24114E+08         0.00000E+00
    0.00000E+00         0.00000E+00         0.10334E+08
 
    0.10254E+08         0.55080E+06         0.00000E+00
    0.55080E+06         0.23951E+08         0.00000E+00
    0.00000E+00         0.00000E+00         0.10261E+08
 
    0.10174E+08         0.54638E+06         0.00000E+00
    0.54638E+06         0.23784E+08         0.00000E+00
    0.00000E+00         0.00000E+00         0.10187E+08
 
    0.10092E+08         0.54042E+06         0.00000E+00
    0.54042E+06         0.23613E+08         0.00000E+00
    0.00000E+00         0.00000E+00         0.10112E+08
 
    0.10008E+08         0.53282E+06         0.00000E+00
    0.53282E+06         0.23439E+08         0.00000E+00
    0.00000E+00         0.00000E+00         0.10034E+08
 
    0.99222E+07         0.52347E+06         0.00000E+00
    0.52347E+06         0.23261E+08         0.00000E+00
    0.00000E+00         0.00000E+00         0.99551E+07
 
    0.98341E+07         0.51226E+06         0.00000E+00
    0.51226E+06         0.23080E+08         0.00000E+00
    0.00000E+00         0.00000E+00         0.98744E+07
 
    0.97440E+07         0.49909E+06         0.00000E+00
    0.49909E+06         0.22896E+08         0.00000E+00
    0.00000E+00         0.00000E+00         0.97920E+07
 
    0.96521E+07         0.48386E+06         0.00000E+00
    0.48386E+06         0.22708E+08         0.00000E+00
    0.00000E+00         0.00000E+00         0.97082E+07
 
    0.95585E+07         0.46651E+06         0.00000E+00
    0.46651E+06         0.22518E+08         0.00000E+00
    0.00000E+00         0.00000E+00         0.96229E+07
 
    0.94634E+07         0.44695E+06         0.00000E+00
    0.44695E+06         0.22325E+08         0.00000E+00
    0.00000E+00         0.00000E+00         0.95364E+07
 
    0.93669E+07         0.42515E+06         0.00000E+00
    0.42515E+06         0.22129E+08         0.00000E+00
    0.00000E+00         0.00000E+00         0.94488E+07
 
    0.92693E+07         0.40108E+06         0.00000E+00
    0.40108E+06         0.21932E+08         0.00000E+00
    0.00000E+00         0.00000E+00         0.93604E+07
 
    0.91707E+07         0.37471E+06         0.00000E+00
    0.37471E+06         0.21734E+08         0.00000E+00
    0.00000E+00         0.00000E+00         0.92715E+07
 
    0.90712E+07         0.34601E+06         0.00000E+00
    0.34601E+06         0.21538E+08         0.00000E+00
    0.00000E+00         0.00000E+00         0.91826E+07
 
    0.89709E+07         0.31496E+06         0.00000E+00
    0.31496E+06         0.21343E+08         0.00000E+00
    0.00000E+00         0.00000E+00         0.90942E+07
 
    0.88692E+07         0.28146E+06         0.00000E+00
    0.28146E+06         0.21153E+08         0.00000E+00
    0.00000E+00         0.00000E+00         0.90067E+07
 
    0.87655E+07         0.24531E+06         0.00000E+00
    0.24531E+06         0.20970E+08         0.00000E+00
    0.00000E+00         0.00000E+00         0.89207E+07
 
    0.86581E+07         0.20618E+06         0.00000E+00
    0.20618E+06         0.20798E+08         0.00000E+00
    0.00000E+00         0.00000E+00         0.88369E+07
 
    0.85443E+07         0.16362E+06         0.00000E+00
    0.16362E+06         0.20641E+08         0.00000E+00
    0.00000E+00         0.00000E+00         0.87555E+07
 
    0.84192E+07         0.11757E+06         0.00000E+00
    0.11757E+06         0.20502E+08         0.00000E+00
    0.00000E+00         0.00000E+00         0.86764E+07
 
    0.82762E+07         0.69708E+05         0.00000E+00
    0.69708E+05         0.20385E+08         0.00000E+00
    0.00000E+00         0.00000E+00         0.85985E+07
 
    0.81094E+07         0.22841E+05         0.00000E+00
    0.22841E+05         0.20288E+08         0.00000E+00
    0.00000E+00         0.00000E+00         0.85192E+07
 
    0.12763E+08         0.45221E+04         0.00000E+00
    0.45221E+04         0.29525E+08         0.00000E+00
    0.00000E+00         0.00000E+00         0.12686E+08
 
    0.12740E+08         0.13761E+05         0.00000E+00
    0.13761E+05         0.29511E+08         0.00000E+00
    0.00000E+00         0.00000E+00         0.12675E+08
 
    0.12719E+08         0.23271E+05         0.00000E+00
    0.23271E+05         0.29494E+08         0.00000E+00
    0.00000E+00         0.00000E+00         0.12664E+08
 
    0.12701E+08         0.32747E+05         0.00000E+00
    0.32747E+05         0.29474E+08         0.00000E+00
    0.00000E+00         0.00000E+00         0.12653E+08
 
    0.12685E+08         0.41948E+05         0.00000E+00
    0.41948E+05         0.29452E+08         0.00000E+00
    0.00000E+00         0.00000E+00         0.12641E+08
 
    0.12670E+08         0.50834E+05         0.00000E+00
    0.50834E+05         0.29427E+08         0.00000E+00
    0.00000E+00         0.00000E+00         0.12629E+08
 
    0.12655E+08         0.59439E+05         0.00000E+00
    0.59439E+05         0.29400E+08         0.00000E+00
    0.00000E+00         0.00000E+00         0.12616E+08
 
    0.12640E+08         0.67793E+05         0.00000E+00
    0.67793E+05         0.29372E+08         0.00000E+00
    0.00000E+00         0.00000E+00         0.12604E+08
 
    0.12626E+08         0.75917E+05         0.00000E+00
    0.75917E+05         0.29342E+08         0.00000E+00
    0.00000E+00         0.00000E+00         0.12591E+08
 
    0.12612E+08         0.83824E+05         0.00000E+00
    0.83824E+05         0.29312E+08         0.00000E+00
    0.00000E+00         0.00000E+00         0.12577E+08
 
    0.12597E+08         0.91523E+05         0.00000E+00
    0.91523E+05         0.29282E+08         0.00000E+00
    0.00000E+00         0.00000E+00         0.12564E+08
 
    0.12583E+08         0.99021E+05         0.00000E+00
    0.99021E+05         0.29251E+08         0.00000E+00
    0.00000E+00         0.00000E+00         0.12550E+08
 
    0.12569E+08         0.10633E+06         0.00000E+00
    0.10633E+06         0.29219E+08         0.00000E+00
    0.00000E+00         0.00000E+00         0.12536E+08
 
    0.12554E+08         0.11346E+06         0.00000E+00
    0.11346E+06         0.29187E+08         0.00000E+00
    0.00000E+00         0.00000E+00         0.12522E+08
 
    0.12540E+08         0.12042E+06         0.00000E+00
    0.12042E+06         0.29155E+08         0.00000E+00
    0.00000E+00         0.00000E+00         0.12508E+08
 
    0.12525E+08         0.12723E+06         0.00000E+00
    0.12723E+06         0.29122E+08         0.00000E+00
    0.00000E+00         0.00000E+00         0.12494E+08
 
    0.12510E+08         0.13390E+06         0.00000E+00
    0.13390E+06         0.29088E+08         0.00000E+00
    0.00000E+00         0.00000E+00         0.12480E+08
 
    0.12495E+08         0.14047E+06         0.00000E+00
    0.14047E+06         0.29055E+08         0.00000E+00
    0.00000E+00         0.00000E+00         0.12465E+08
 
    0.12480E+08         0.14693E+06         0.00000E+00
    0.14693E+06         0.29020E+08         0.00000E+00
    0.00000E+00         0.00000E+00         0.12450E+08
 
    0.12465E+08         0.15332E+06         0.00000E+00
    0.15332E+06         0.28985E+08         0.00000E+00
    0.00000E+00         0.00000E+00         0.12435E+08
 
    0.12450E+08         0.15965E+06         0.00000E+00
    0.15965E+06         0.28950E+08         0.00000E+00
    0.00000E+00         0.00000E+00         0.12420E+08
 
    0.12434E+08         0.16594E+06         0.00000E+00
    0.16594E+06         0.28914E+08         0.00000E+00
    0.00000E+00         0.00000E+00         0.12404E+08
 
    0.12419E+08         0.17220E+06         0.00000E+00
    0.17220E+06         0.28877E+08         0.00000E+00
    0.00000E+00         0.00000E+00         0.12389E+08
 
    0.12403E+08         0.17846E+06         0.00000E+00
    0.17846E+06         0.28839E+08         0.00000E+00
    0.00000E+00         0.00000E+00         0.12373E+08
 
    0.12387E+08         0.18473E+06         0.00000E+00
    0.18473E+06         0.28801E+08         0.00000E+00
    0.00000E+00         0.00000E+00         0.12356E+08
 
    0.12370E+08         0.19103E+06         0.00000E+00
    0.19103E+06         0.28761E+08         0.00000E+00
    0.00000E+00         0.00000E+00         0.12339E+08
 
    0.12353E+08         0.19736E+06         0.00000E+00
    0.19736E+06         0.28721E+08         0.00000E+00
    0.00000E+00         0.00000E+00         0.12322E+08
 
    0.12336E+08         0.20374E+06         0.00000E+00
    0.20374E+06         0.28679E+08         0.00000E+00
    0.00000E+00         0.00000E+00         0.12305E+08
 
    0.12318E+08         0.21019E+06         0.00000E+00
    0.21019E+06         0.28637E+08         0.00000E+00
    0.00000E+00         0.00000E+00         0.12286E+08
 
    0.12300E+08         0.21671E+06         0.00000E+00
    0.21671E+06         0.28593E+08         0.00000E+00
    0.00000E+00         0.00000E+00         0.12268E+08
 
    0.12282E+08         0.22330E+06         0.00000E+00
    0.22330E+06         0.28548E+08         0.00000E+00
    0.00000E+00         0.00000E+00         0.12249E+08
 
    0.12263E+08         0.22999E+06         0.00000E+00
    0.22999E+06         0.28502E+08         0.00000E+00
    0.00000E+00         0.00000E+00         0.12229E+08
 
    0.12243E+08         0.23678E+06         0.00000E+00
    0.23678E+06         0.28455E+08         0.00000E+00
    0.00000E+00         0.00000E+00         0.12209E+08
 
    0.12223E+08         0.24366E+06         0.00000E+00
    0.24366E+06         0.28406E+08         0.00000E+00
    0.00000E+00         0.00000E+00         0.12189E+08
 
    0.12203E+08         0.25066E+06         0.00000E+00
    0.25066E+06         0.28356E+08         0.00000E+00
    0.00000E+00         0.00000E+00         0.12168E+08
 
    0.12182E+08         0.25776E+06         0.00000E+00
    0.25776E+06         0.28304E+08         0.00000E+00
    0.00000E+00         0.00000E+00         0.12146E+08
 
    0.12160E+08         0.26498E+06         0.00000E+00
    0.26498E+06         0.28251E+08         0.00000E+00
    0.00000E+00         0.00000E+00         0.12123E+08
 
    0.12137E+08         0.27232E+06         0.00000E+00
    0.27232E+06         0.28197E+08         0.00000E+00
    0.00000E+00         0.00000E+00         0.12100E+08
 
    0.12114E+08         0.27977E+06         0.00000E+00
    0.27977E+06         0.28140E+08         0.00000E+00
    0.00000E+00         0.00000E+00         0.12076E+08
 
    0.12090E+08         0.28734E+06         0.00000E+00
    0.28734E+06         0.28083E+08         0.00000E+00
    0.00000E+00         0.00000E+00         0.12052E+08
 
    0.12066E+08         0.29503E+06         0.00000E+00
    0.29503E+06         0.28023E+08         0.00000E+00
    0.00000E+00         0.00000E+00         0.12027E+08
 
    0.12040E+08         0.30283E+06         0.00000E+00
    0.30283E+06         0.27962E+08         0.00000E+00
    0.00000E+00         0.00000E+00         0.12001E+08
 
    0.12014E+08         0.31075E+06         0.00000E+00
    0.31075E+06         0.27898E+08         0.00000E+00
    0.00000E+00         0.00000E+00         0.11974E+08
 
    0.11987E+08         0.31878E+06         0.00000E+00
    0.31878E+06         0.27833E+08         0.00000E+00
    0.00000E+00         0.00000E+00         0.11946E+08
 
    0.11959E+08         0.32691E+06         0.00000E+00
    0.32691E+06         0.27766E+08         0.00000E+00
    0.00000E+00         0.00000E+00         0.11918E+08
 
    0.11931E+08         0.33514E+06         0.00000E+00
    0.33514E+06         0.27697E+08         0.00000E+00
    0.00000E+00         0.00000E+00         0.11888E+08
 
    0.11901E+08         0.34346E+06         0.00000E+00
    0.34346E+06         0.27626E+08         0.00000E+00
    0.00000E+00         0.00000E+00         0.11858E+08
 
    0.11870E+08         0.35187E+06         0.00000E+00
    0.35187E+06         0.27553E+08         0.00000E+00
    0.00000E+00         0.00000E+00         0.11827E+08
 
    0.11839E+08         0.36036E+06         0.00000E+00
    0.36036E+06         0.27477E+08         0.00000E+00
    0.00000E+00         0.00000E+00         0.11795E+08
 
    0.11806E+08         0.36891E+06         0.00000E+00
    0.36891E+06         0.27400E+08         0.00000E+00
    0.00000E+00         0.00000E+00         0.11762E+08
 
    0.11772E+08         0.37753E+06         0.00000E+00
    0.37753E+06         0.27320E+08         0.00000E+00
    0.00000E+00         0.00000E+00         0.11728E+08
 
    0.11737E+08         0.38618E+06         0.00000E+00
    0.38618E+06         0.27238E+08         0.00000E+00
    0.00000E+00         0.00000E+00         0.11693E+08
 
    0.11702E+08         0.39486E+06         0.00000E+00
    0.39486E+06         0.27153E+08         0.00000E+00
    0.00000E+00         0.00000E+00         0.11656E+08
 
    0.11664E+08         0.40356E+06         0.00000E+00
    0.40356E+06         0.27066E+08         0.00000E+00
    0.00000E+00         0.00000E+00         0.11619E+08
 
    0.11626E+08         0.41226E+06         0.00000E+00
    0.41226E+06         0.26976E+08         0.00000E+00
    0.00000E+00         0.00000E+00         0.11581E+08
 
    0.11587E+08         0.42094E+06         0.00000E+00
    0.42094E+06         0.26884E+08         0.00000E+00
    0.00000E+00         0.00000E+00         0.11541E+08
 
    0.11546E+08         0.42957E+06         0.00000E+00
    0.42957E+06         0.26789E+08         0.00000E+00
    0.00000E+00         0.00000E+00         0.11501E+08
 
    0.11504E+08         0.43814E+06         0.00000E+00
    0.43814E+06         0.26692E+08         0.00000E+00
    0.00000E+00         0.00000E+00         0.11459E+08
 
    0.11461E+08         0.44663E+06         0.00000E+00
    0.44663E+06         0.26592E+08         0.00000E+00
    0.00000E+00         0.00000E+00         0.11416E+08
 
    0.11416E+08         0.45500E+06         0.00000E+00
    0.45500E+06         0.26489E+08         0.00000E+00
    0.00000E+00         0.00000E+00         0.11371E+08
 
    0.11370E+08         0.46323E+06         0.00000E+00
    0.46323E+06         0.26383E+08         0.00000E+00
    0.00000E+00         0.00000E+00         0.11326E+08
 
    0.11322E+08         0.47128E+06         0.00000E+00
    0.47128E+06         0.26275E+08         0.00000E+00
    0.00000E+00         0.00000E+00         0.11279E+08
 
    0.11273E+08         0.47913E+06         0.00000E+00
    0.47913E+06         0.26163E+08         0.00000E+00
    0.00000E+00         0.00000E+00         0.11231E+08
 
    0.11222E+08         0.48673E+06         0.00000E+00
    0.48673E+06         0.26049E+08         0.00000E+00
    0.00000E+00         0.00000E+00         0.11181E+08
 
    0.11170E+08         0.49405E+06         0.00000E+00
    0.49405E+06         0.25931E+08         0.00000E+00
    0.00000E+00         0.00000E+00         0.11130E+08
 
    0.11117E+08         0.50105E+06         0.00000E+00
    0.50105E+06         0.25811E+08         0.00000E+00
    0.00000E+00         0.00000E+00         0.11078E+08
 
    0.11061E+08         0.50767E+06         0.00000E+00
    0.50767E+06         0.25687E+08         0.00000E+00
    0.00000E+00         0.00000E+00         0.11025E+08
 
    0.11004E+08         0.51386E+06         0.00000E+00
    0.51386E+06         0.25561E+08         0.00000E+00
    0.00000E+00         0.00000E+00         0.10969E+08
 
    0.10945E+08         0.51958E+06         0.00000E+00
    0.51958E+06         0.25431E+08         0.00000E+00
    0.00000E+00         0.00000E+00         0.10913E+08
 
    0.10885E+08         0.52476E+06         0.00000E+00
    0.52476E+06         0.25298E+08         0.00000E+00
    0.00000E+00         0.00000E+00         0.10855E+08
 
    0.10823E+08         0.52934E+06         0.00000E+00
    0.52934E+06         0.25161E+08         0.00000E+00
    0.00000E+00         0.00000E+00         0.10795E+08
 
    0.10758E+08         0.53325E+06         0.00000E+00
    0.53325E+06         0.25022E+08         0.00000E+00
    0.00000E+00         0.00000E+00         0.10734E+08
 
    0.10692E+08         0.53642E+06         0.00000E+00
    0.53642E+06         0.24879E+08         0.00000E+00
    0.00000E+00         0.00000E+00         0.10671E+08
 
    0.10624E+08         0.53877E+06         0.00000E+00
    0.53877E+06         0.24733E+08         0.00000E+00
    0.00000E+00         0.00000E+00         0.10607E+08
 
    0.10554E+08         0.54021E+06         0.00000E+00
    0.54021E+06         0.24583E+08         0.00000E+00
    0.00000E+00         0.00000E+00         0.10541E+08
 
    0.10482E+08         0.54065E+06         0.00000E+00
    0.54065E+06         0.24431E+08         0.00000E+00
    0.00000E+00         0.00000E+00         0.10474E+08
 
    0.10408E+08         0.54001E+06         0.00000E+00
    0.54001E+06         0.24274E+08         0.00000E+00
    0.00000E+00         0.00000E+00         0.10405E+08
 
    0.10332E+08         0.53817E+06         0.00000E+00
    0.53817E+06         0.24114E+08         0.00000E+00
    0.00000E+00         0.00000E+00         0.10334E+08
 
    0.10253E+08         0.53503E+06         0.00000E+00
    0.53503E+06         0.23951E+08         0.00000E+00
    0.00000E+00         0.00000E+00         0.10261E+08
 
    0.10173E+08         0.53048E+06         0.00000E+00
    0.53048E+06         0.23785E+08         0.00000E+00
    0.00000E+00         0.00000E+00         0.10187E+08
 
    0.10090E+08         0.52442E+06         0.00000E+00
    0.52442E+06         0.23614E+08         0.00000E+00
    0.00000E+00         0.00000E+00         0.10111E+08
 
    0.10005E+08         0.51672E+06         0.00000E+00
    0.51672E+06         0.23441E+08         0.00000E+00
    0.00000E+00         0.00000E+00         0.10034E+08
 
    0.99183E+07         0.50727E+06         0.00000E+00
    0.50727E+06         0.23264E+08         0.00000E+00
    0.00000E+00         0.00000E+00         0.99546E+07
 
    0.98292E+07         0.49597E+06         0.00000E+00
    0.49597E+06         0.23083E+08         0.00000E+00
    0.00000E+00         0.00000E+00         0.98736E+07
 
    0.97381E+07         0.48270E+06         0.00000E+00
    0.48270E+06         0.22899E+08         0.00000E+00
    0.00000E+00         0.00000E+00         0.97911E+07
 
    0.96452E+07         0.46738E+06         0.00000E+00
    0.46738E+06         0.22712E+08         0.00000E+00
    0.00000E+00         0.00000E+00         0.97071E+07
 
    0.95504E+07         0.44991E+06         0.00000E+00
    0.44991E+06         0.22522E+08         0.00000E+00
    0.00000E+00         0.00000E+00         0.96216E+07
 
    0.94540E+07         0.43023E+06         0.00000E+00
    0.43023E+06         0.22329E+08         0.00000E+00
    0.00000E+00         0.00000E+00         0.95348E+07
 
    0.93562E+07         0.40830E+06         0.00000E+00
    0.40830E+06         0.22134E+08         0.00000E+00
    0.00000E+00         0.00000E+00         0.94470E+07
 
    0.92572E+07         0.38408E+06         0.00000E+00
    0.38408E+06         0.21937E+08         0.00000E+00
    0.00000E+00         0.00000E+00         0.93583E+07
 
    0.91570E+07         0.35756E+06         0.00000E+00
    0.35756E+06         0.21740E+08         0.00000E+00
    0.00000E+00         0.00000E+00         0.92691E+07
 
    0.90559E+07         0.32874E+06         0.00000E+00
    0.32874E+06         0.21544E+08         0.00000E+00
    0.00000E+00         0.00000E+00         0.91798E+07
 
    0.89536E+07         0.29763E+06         0.00000E+00
    0.29763E+06         0.21349E+08         0.00000E+00
    0.00000E+00         0.00000E+00         0.90909E+07
 
    0.88498E+07         0.26422E+06         0.00000E+00
    0.26422E+06         0.21160E+08         0.00000E+00
    0.00000E+00         0.00000E+00         0.90029E+07
 
    0.87435E+07         0.22844E+06         0.00000E+00
    0.22844E+06         0.20978E+08         0.00000E+00
    0.00000E+00         0.00000E+00         0.89164E+07
 
    0.86331E+07         0.19014E+06         0.00000E+00
    0.19014E+06         0.20806E+08         0.00000E+00
    0.00000E+00         0.00000E+00         0.88318E+07
 
    0.85157E+07         0.14918E+06         0.00000E+00
    0.14918E+06         0.20649E+08         0.00000E+00
    0.00000E+00         0.00000E+00         0.87495E+07
 
    0.83866E+07         0.10594E+06         0.00000E+00
    0.10594E+06         0.20511E+08         0.00000E+00
    0.00000E+00         0.00000E+00         0.86694E+07
 
    0.82399E+07         0.62228E+05         0.00000E+00
    0.62228E+05         0.20394E+08         0.00000E+00
    0.00000E+00         0.00000E+00         0.85903E+07
 
    0.80708E+07         0.20294E+05         0.00000E+00
    0.20294E+05         0.20297E+08         0.00000E+00
    0.00000E+00         0.00000E+00         0.85102E+07
 
    0.12770E+08         0.41695E+04         0.00000E+00
    0.41695E+04         0.29523E+08         0.00000E+00
    0.00000E+00         0.00000E+00         0.12688E+08
 
    0.12746E+08         0.12718E+05         0.00000E+00
    0.12718E+05         0.29509E+08         0.00000E+00
    0.00000E+00         0.00000E+00         0.12677E+08
 
    0.12725E+08         0.21622E+05         0.00000E+00
    0.21622E+05         0.29492E+08         0.00000E+00
    0.00000E+00         0.00000E+00         0.12665E+08
 
    0.12707E+08         0.30649E+05         0.00000E+00
    0.30649E+05         0.29472E+08         0.00000E+00
    0.00000E+00         0.00000E+00         0.12654E+08
 
    0.12690E+08         0.39556E+05         0.00000E+00
    0.39556E+05         0.29450E+08         0.00000E+00
    0.00000E+00         0.00000E+00         0.12642E+08
 
    0.12674E+08         0.48253E+05         0.00000E+00
    0.48253E+05         0.29425E+08         0.00000E+00
    0.00000E+00         0.00000E+00         0.12630E+08
 
    0.12659E+08         0.56732E+05         0.00000E+00
    0.56732E+05         0.29398E+08         0.00000E+00
    0.00000E+00         0.00000E+00         0.12617E+08
 
    0.12645E+08         0.64997E+05         0.00000E+00
    0.64997E+05         0.29370E+08         0.00000E+00
    0.00000E+00         0.00000E+00         0.12604E+08
 
    0.12630E+08         0.73049E+05         0.00000E+00
    0.73049E+05         0.29341E+08         0.00000E+00
    0.00000E+00         0.00000E+00         0.12591E+08
 
    0.12616E+08         0.80889E+05         0.00000E+00
    0.80889E+05         0.29311E+08         0.00000E+00
    0.00000E+00         0.00000E+00         0.12578E+08
 
    0.12601E+08         0.88520E+05         0.00000E+00
    0.88520E+05         0.29280E+08         0.00000E+00
    0.00000E+00         0.00000E+00         0.12564E+08
 
    0.12587E+08         0.95946E+05         0.00000E+00
    0.95946E+05         0.29249E+08         0.00000E+00
    0.00000E+00         0.00000E+00         0.12551E+08
 
    0.12572E+08         0.10317E+06         0.00000E+00
    0.10317E+06         0.29218E+08         0.00000E+00
    0.00000E+00         0.00000E+00         0.12537E+08
 
    0.12558E+08         0.11022E+06         0.00000E+00
    0.11022E+06         0.29186E+08         0.00000E+00
    0.00000E+00         0.00000E+00         0.12523E+08
 
    0.12543E+08         0.11708E+06         0.00000E+00
    0.11708E+06         0.29153E+08         0.00000E+00
    0.00000E+00         0.00000E+00         0.12509E+08
 
    0.12528E+08         0.12380E+06         0.00000E+00
    0.12380E+06         0.29120E+08         0.00000E+00
    0.00000E+00         0.00000E+00         0.12495E+08
 
    0.12514E+08         0.13037E+06         0.00000E+00
    0.13037E+06         0.29087E+08         0.00000E+00
    0.00000E+00         0.00000E+00         0.12480E+08
 
    0.12499E+08         0.13682E+06         0.00000E+00
    0.13682E+06         0.29053E+08         0.00000E+00
    0.00000E+00         0.00000E+00         0.12466E+08
 
    0.12484E+08         0.14317E+06         0.00000E+00
    0.14317E+06         0.29019E+08         0.00000E+00
    0.00000E+00         0.00000E+00         0.12451E+08
 
    0.12468E+08         0.14944E+06         0.00000E+00
    0.14944E+06         0.28984E+08         0.00000E+00
    0.00000E+00         0.00000E+00         0.12436E+08
 
    0.12453E+08         0.15564E+06         0.00000E+00
    0.15564E+06         0.28949E+08         0.00000E+00
    0.00000E+00         0.00000E+00         0.12421E+08
 
    0.12438E+08         0.16181E+06         0.00000E+00
    0.16181E+06         0.28913E+08         0.00000E+00
    0.00000E+00         0.00000E+00         0.12405E+08
 
    0.12422E+08         0.16794E+06         0.00000E+00
    0.16794E+06         0.28876E+08         0.00000E+00
    0.00000E+00         0.00000E+00         0.12389E+08
 
    0.12406E+08         0.17407E+06         0.00000E+00
    0.17407E+06         0.28838E+08         0.00000E+00
    0.00000E+00         0.00000E+00         0.12373E+08
 
    0.12390E+08         0.18020E+06         0.00000E+00
    0.18020E+06         0.28799E+08         0.00000E+00
    0.00000E+00         0.00000E+00         0.12357E+08
 
    0.12373E+08         0.18636E+06         0.00000E+00
    0.18636E+06         0.28760E+08         0.00000E+00
    0.00000E+00         0.00000E+00         0.12340E+08
 
    0.12357E+08         0.19255E+06         0.00000E+00
    0.19255E+06         0.28719E+08         0.00000E+00
    0.00000E+00         0.00000E+00         0.12323E+08
 
    0.12339E+08         0.19879E+06         0.00000E+00
    0.19879E+06         0.28678E+08         0.00000E+00
    0.00000E+00         0.00000E+00         0.12305E+08
 
    0.12322E+08         0.20508E+06         0.00000E+00
    0.20508E+06         0.28635E+08         0.00000E+00
    0.00000E+00         0.00000E+00         0.12287E+08
 
    0.12304E+08         0.21145E+06         0.00000E+00
    0.21145E+06         0.28592E+08         0.00000E+00
    0.00000E+00         0.00000E+00         0.12269E+08
 
    0.12285E+08         0.21789E+06         0.00000E+00
    0.21789E+06         0.28547E+08         0.00000E+00
    0.00000E+00         0.00000E+00         0.12250E+08
 
    0.12267E+08         0.22442E+06         0.00000E+00
    0.22442E+06         0.28501E+08         0.00000E+00
    0.00000E+00         0.00000E+00         0.12230E+08
 
    0.12247E+08         0.23104E+06         0.00000E+00
    0.23104E+06         0.28453E+08         0.00000E+00
    0.00000E+00         0.00000E+00         0.12210E+08
 
    0.12227E+08         0.23776E+06         0.00000E+00
    0.23776E+06         0.28405E+08         0.00000E+00
    0.00000E+00         0.00000E+00         0.12190E+08
 
    0.12207E+08         0.24459E+06         0.00000E+00
    0.24459E+06         0.28354E+08         0.00000E+00
    0.00000E+00         0.00000E+00         0.12168E+08
 
    0.12186E+08         0.25152E+06         0.00000E+00
    0.25152E+06         0.28303E+08         0.00000E+00
    0.00000E+00         0.00000E+00         0.12147E+08
 
    0.12164E+08         0.25856E+06         0.00000E+00
    0.25856E+06         0.28250E+08         0.00000E+00
    0.00000E+00         0.00000E+00         0.12124E+08
 
    0.12142E+08         0.26571E+06         0.00000E+00
    0.26571E+06         0.28195E+08         0.00000E+00
    0.00000E+00         0.00000E+00         0.12101E+08
 
    0.12118E+08         0.27297E+06         0.00000E+00
    0.27297E+06         0.28139E+08         0.00000E+00
    0.00000E+00         0.00000E+00         0.12077E+08
 
    0.12095E+08         0.28035E+06         0.00000E+00
    0.28035E+06         0.28081E+08         0.00000E+00
    0.00000E+00         0.00000E+00         0.12053E+08
 
    0.12070E+08         0.28784E+06         0.00000E+00
    0.28784E+06         0.28021E+08         0.00000E+00
    0.00000E+00         0.00000E+00         0.12027E+08
 
    0.12045E+08         0.29545E+06         0.00000E+00
    0.29545E+06         0.27960E+08         0.00000E+00
    0.00000E+00         0.00000E+00         0.12001E+08
 
    0.12019E+08         0.30316E+06         0.00000E+00
    0.30316E+06         0.27897E+08         0.00000E+00
    0.00000E+00         0.00000E+00         0.11975E+08
 
    0.11992E+08         0.31097E+06         0.00000E+00
    0.31097E+06         0.27832E+08         0.00000E+00
    0.00000E+00         0.00000E+00         0.11947E+08
 
    0.11964E+08         0.31889E+06         0.00000E+00
    0.31889E+06         0.27765E+08         0.00000E+00
    0.00000E+00         0.00000E+00         0.11919E+08
 
    0.11935E+08         0.32690E+06         0.00000E+00
    0.32690E+06         0.27696E+08         0.00000E+00
    0.00000E+00         0.00000E+00         0.11889E+08
 
    0.11906E+08         0.33501E+06         0.00000E+00
    0.33501E+06         0.27624E+08         0.00000E+00
    0.00000E+00         0.00000E+00         0.11859E+08
 
    0.11875E+08         0.34319E+06         0.00000E+00
    0.34319E+06         0.27551E+08         0.00000E+00
    0.00000E+00         0.00000E+00         0.11828E+08
 
    0.11844E+08         0.35145E+06         0.00000E+00
    0.35145E+06         0.27476E+08         0.00000E+00
    0.00000E+00         0.00000E+00         0.11796E+08
 
    0.11811E+08         0.35977E+06         0.00000E+00
    0.35977E+06         0.27398E+08         0.00000E+00
    0.00000E+00         0.00000E+00         0.11763E+08
 
    0.11777E+08         0.36815E+06         0.00000E+00
    0.36815E+06         0.27318E+08         0.00000E+00
    0.00000E+00         0.00000E+00         0.11729E+08
 
    0.11742E+08         0.37656E+06         0.00000E+00
    0.37656E+06         0.27236E+08         0.00000E+00
    0.00000E+00         0.00000E+00         0.11694E+08
 
    0.11707E+08         0.38500E+06         0.00000E+00
    0.38500E+06         0.27151E+08         0.00000E+00
    0.00000E+00         0.00000E+00         0.11657E+08
 
    0.11670E+08         0.39345E+06         0.00000E+00
    0.39345E+06         0.27064E+08         0.00000E+00
    0.00000E+00         0.00000E+00         0.11620E+08
 
    0.11631E+08         0.40190E+06         0.00000E+00
    0.40190E+06         0.26975E+08         0.00000E+00
    0.00000E+00         0.00000E+00         0.11582E+08
 
    0.11592E+08         0.41033E+06         0.00000E+00
    0.41033E+06         0.26883E+08         0.00000E+00
    0.00000E+00         0.00000E+00         0.11542E+08
 
    0.11551E+08         0.41871E+06         0.00000E+00
    0.41871E+06         0.26788E+08         0.00000E+00
    0.00000E+00         0.00000E+00         0.11502E+08
 
    0.11509E+08         0.42703E+06         0.00000E+00
    0.42703E+06         0.26690E+08         0.00000E+00
    0.00000E+00         0.00000E+00         0.11460E+08
 
    0.11466E+08         0.43526E+06         0.00000E+00
    0.43526E+06         0.26590E+08         0.00000E+00
    0.00000E+00         0.00000E+00         0.11417E+08
 
    0.11421E+08         0.44337E+06         0.00000E+00
    0.44337E+06         0.26487E+08         0.00000E+00
    0.00000E+00         0.00000E+00         0.11372E+08
 
    0.11375E+08         0.45135E+06         0.00000E+00
    0.45135E+06         0.26382E+08         0.00000E+00
    0.00000E+00         0.00000E+00         0.11327E+08
 
    0.11327E+08         0.45915E+06         0.00000E+00
    0.45915E+06         0.26273E+08         0.00000E+00
    0.00000E+00         0.00000E+00         0.11280E+08
 
    0.11278E+08         0.46674E+06         0.00000E+00
    0.46674E+06         0.26162E+08         0.00000E+00
    0.00000E+00         0.00000E+00         0.11232E+08
 
    0.11227E+08         0.47409E+06         0.00000E+00
    0.47409E+06         0.26047E+08         0.00000E+00
    0.00000E+00         0.00000E+00         0.11182E+08
 
    0.11175E+08         0.48116E+06         0.00000E+00
    0.48116E+06         0.25930E+08         0.00000E+00
    0.00000E+00         0.00000E+00         0.11131E+08
 
    0.11121E+08         0.48791E+06         0.00000E+00
    0.48791E+06         0.25809E+08         0.00000E+00
    0.00000E+00         0.00000E+00         0.11079E+08
 
    0.11065E+08         0.49428E+06         0.00000E+00
    0.49428E+06         0.25686E+08         0.00000E+00
    0.00000E+00         0.00000E+00         0.11025E+08
 
    0.11008E+08         0.50024E+06         0.00000E+00
    0.50024E+06         0.25559E+08         0.00000E+00
    0.00000E+00         0.00000E+00         0.10970E+08
 
    0.10949E+08         0.50573E+06         0.00000E+00
    0.50573E+06         0.25430E+08         0.00000E+00
    0.00000E+00         0.00000E+00         0.10914E+08
 
    0.10888E+08         0.51068E+06         0.00000E+00
    0.51068E+06         0.25297E+08         0.00000E+00
    0.00000E+00         0.00000E+00         0.10856E+08
 
    0.10826E+08         0.51505E+06         0.00000E+00
    0.51505E+06         0.25161E+08         0.00000E+00
    0.00000E+00         0.00000E+00         0.10796E+08
 
    0.10761E+08         0.51875E+06         0.00000E+00
    0.51875E+06         0.25021E+08         0.00000E+00
    0.00000E+00         0.00000E+00         0.10735E+08
 
    0.10695E+08         0.52172E+06         0.00000E+00
    0.52172E+06         0.24879E+08         0.00000E+00
    0.00000E+00         0.00000E+00         0.10672E+08
 
    0.10626E+08         0.52388E+06         0.00000E+00
    0.52388E+06         0.24733E+08         0.00000E+00
    0.00000E+00         0.00000E+00         0.10608E+08
 
    0.10556E+08         0.52515E+06         0.00000E+00
    0.52515E+06         0.24583E+08         0.00000E+00
    0.00000E+00         0.00000E+00         0.10542E+08
 
    0.10483E+08         0.52543E+06         0.00000E+00
    0.52543E+06         0.24431E+08         0.00000E+00
    0.00000E+00         0.00000E+00         0.10474E+08
 
    0.10409E+08         0.52463E+06         0.00000E+00
    0.52463E+06         0.24274E+08         0.00000E+00
    0.00000E+00         0.00000E+00         0.10405E+08
 
    0.10332E+08         0.52265E+06         0.00000E+00
    0.52265E+06         0.24115E+08         0.00000E+00
    0.00000E+00         0.00000E+00         0.10334E+08
 
    0.10253E+08         0.51939E+06         0.00000E+00
    0.51939E+06         0.23952E+08         0.00000E+00
    0.00000E+00         0.00000E+00         0.10261E+08
 
    0.10171E+08         0.51474E+06         0.00000E+00
    0.51474E+06         0.23786E+08         0.00000E+00
    0.00000E+00         0.00000E+00         0.10187E+08
 
    0.10088E+08         0.50857E+06         0.00000E+00
    0.50857E+06         0.23616E+08         0.00000E+00
    0.00000E+00         0.00000E+00         0.10111E+08
 
    0.10002E+08         0.50078E+06         0.00000E+00
    0.50078E+06         0.23442E+08         0.00000E+00
    0.00000E+00         0.00000E+00         0.10033E+08
 
    0.99145E+07         0.49125E+06         0.00000E+00
    0.49125E+06         0.23266E+08         0.00000E+00
    0.00000E+00         0.00000E+00         0.99540E+07
 
    0.98244E+07         0.47987E+06         0.00000E+00
    0.47987E+06         0.23085E+08         0.00000E+00
    0.00000E+00         0.00000E+00         0.98730E+07
 
    0.97323E+07         0.46652E+06         0.00000E+00
    0.46652E+06         0.22902E+08         0.00000E+00
    0.00000E+00         0.00000E+00         0.97902E+07
 
    0.96383E+07         0.45111E+06         0.00000E+00
    0.45111E+06         0.22715E+08         0.00000E+00
    0.00000E+00         0.00000E+00         0.97060E+07
 
    0.95423E+07         0.43355E+06         0.00000E+00
    0.43355E+06         0.22525E+08         0.00000E+00
    0.00000E+00         0.00000E+00         0.96203E+07
 
    0.94447E+07         0.41377E+06         0.00000E+00
    0.41377E+06         0.22333E+08         0.00000E+00
    0.00000E+00         0.00000E+00         0.95333E+07
 
    0.93455E+07         0.39172E+06         0.00000E+00
    0.39172E+06         0.22138E+08         0.00000E+00
    0.00000E+00         0.00000E+00         0.94451E+07
 
    0.92450E+07         0.36738E+06         0.00000E+00
    0.36738E+06         0.21942E+08         0.00000E+00
    0.00000E+00         0.00000E+00         0.93562E+07
 
    0.91433E+07         0.34073E+06         0.00000E+00
    0.34073E+06         0.21746E+08         0.00000E+00
    0.00000E+00         0.00000E+00         0.92666E+07
 
    0.90403E+07         0.31183E+06         0.00000E+00
    0.31183E+06         0.21550E+08         0.00000E+00
    0.00000E+00         0.00000E+00         0.91770E+07
 
    0.89361E+07         0.28072E+06         0.00000E+00
    0.28072E+06         0.21356E+08         0.00000E+00
    0.00000E+00         0.00000E+00         0.90876E+07
 
    0.88301E+07         0.24746E+06         0.00000E+00
    0.24746E+06         0.21167E+08         0.00000E+00
    0.00000E+00         0.00000E+00         0.89991E+07
 
    0.87213E+07         0.21212E+06         0.00000E+00
    0.21212E+06         0.20985E+08         0.00000E+00
    0.00000E+00         0.00000E+00         0.89119E+07
 
    0.86080E+07         0.17474E+06         0.00000E+00
    0.17474E+06         0.20814E+08         0.00000E+00
    0.00000E+00         0.00000E+00         0.88266E+07
 
    0.84872E+07         0.13549E+06         0.00000E+00
    0.13549E+06         0.20658E+08         0.00000E+00
    0.00000E+00         0.00000E+00         0.87435E+07
 
    0.83545E+07         0.95079E+05         0.00000E+00
    0.95079E+05         0.20520E+08         0.00000E+00
    0.00000E+00         0.00000E+00         0.86623E+07
 
    0.82047E+07         0.55322E+05         0.00000E+00
    0.55322E+05         0.20403E+08         0.00000E+00
    0.00000E+00         0.00000E+00         0.85822E+07
 
    0.80338E+07         0.17955E+05         0.00000E+00
    0.17955E+05         0.20304E+08         0.00000E+00
    0.00000E+00         0.00000E+00         0.85014E+07
 
    0.12777E+08         0.38398E+04         0.00000E+00
    0.38398E+04         0.29522E+08         0.00000E+00
    0.00000E+00         0.00000E+00         0.12690E+08
 
    0.12753E+08         0.11740E+05         0.00000E+00
    0.11740E+05         0.29507E+08         0.00000E+00
    0.00000E+00         0.00000E+00         0.12678E+08
 
    0.12731E+08         0.20062E+05         0.00000E+00
    0.20062E+05         0.29491E+08         0.00000E+00
    0.00000E+00         0.00000E+00         0.12667E+08
 
    0.12712E+08         0.28641E+05         0.00000E+00
    0.28641E+05         0.29471E+08         0.00000E+00
    0.00000E+00         0.00000E+00         0.12655E+08
 
    0.12695E+08         0.37242E+05         0.00000E+00
    0.37242E+05         0.29448E+08         0.00000E+00
    0.00000E+00         0.00000E+00         0.12643E+08
 
    0.12679E+08         0.45738E+05         0.00000E+00
    0.45738E+05         0.29423E+08         0.00000E+00
    0.00000E+00         0.00000E+00         0.12631E+08
 
    0.12664E+08         0.54080E+05         0.00000E+00
    0.54080E+05         0.29396E+08         0.00000E+00
    0.00000E+00         0.00000E+00         0.12618E+08
 
    0.12649E+08         0.62246E+05         0.00000E+00
    0.62246E+05         0.29368E+08         0.00000E+00
    0.00000E+00         0.00000E+00         0.12605E+08
 
    0.12634E+08         0.70218E+05         0.00000E+00
    0.70218E+05         0.29339E+08         0.00000E+00
    0.00000E+00         0.00000E+00         0.12592E+08
 
    0.12620E+08         0.77986E+05         0.00000E+00
    0.77986E+05         0.29309E+08         0.00000E+00
    0.00000E+00         0.00000E+00         0.12579E+08
 
    0.12605E+08         0.85545E+05         0.00000E+00
    0.85545E+05         0.29279E+08         0.00000E+00
    0.00000E+00         0.00000E+00         0.12565E+08
 
    0.12591E+08         0.92894E+05         0.00000E+00
    0.92894E+05         0.29248E+08         0.00000E+00
    0.00000E+00         0.00000E+00         0.12551E+08
 
    0.12576E+08         0.10004E+06         0.00000E+00
    0.10004E+06         0.29216E+08         0.00000E+00
    0.00000E+00         0.00000E+00         0.12538E+08
 
    0.12561E+08         0.10699E+06         0.00000E+00
    0.10699E+06         0.29184E+08         0.00000E+00
    0.00000E+00         0.00000E+00         0.12524E+08
 
    0.12546E+08         0.11376E+06         0.00000E+00
    0.11376E+06         0.29152E+08         0.00000E+00
    0.00000E+00         0.00000E+00         0.12509E+08
 
    0.12532E+08         0.12037E+06         0.00000E+00
    0.12037E+06         0.29119E+08         0.00000E+00
    0.00000E+00         0.00000E+00         0.12495E+08
 
    0.12517E+08         0.12684E+06         0.00000E+00
    0.12684E+06         0.29086E+08         0.00000E+00
    0.00000E+00         0.00000E+00         0.12481E+08
 
    0.12502E+08         0.13318E+06         0.00000E+00
    0.13318E+06         0.29052E+08         0.00000E+00
    0.00000E+00         0.00000E+00         0.12466E+08
 
    0.12487E+08         0.13941E+06         0.00000E+00
    0.13941E+06         0.29018E+08         0.00000E+00
    0.00000E+00         0.00000E+00         0.12451E+08
 
    0.12472E+08         0.14556E+06         0.00000E+00
    0.14556E+06         0.28983E+08         0.00000E+00
    0.00000E+00         0.00000E+00         0.12436E+08
 
    0.12456E+08         0.15164E+06         0.00000E+00
    0.15164E+06         0.28948E+08         0.00000E+00
    0.00000E+00         0.00000E+00         0.12421E+08
 
    0.12441E+08         0.15767E+06         0.00000E+00
    0.15767E+06         0.28911E+08         0.00000E+00
    0.00000E+00         0.00000E+00         0.12406E+08
 
    0.12425E+08         0.16368E+06         0.00000E+00
    0.16368E+06         0.28874E+08         0.00000E+00
    0.00000E+00         0.00000E+00         0.12390E+08
 
    0.12409E+08         0.16967E+06         0.00000E+00
    0.16967E+06         0.28837E+08         0.00000E+00
    0.00000E+00         0.00000E+00         0.12374E+08
 
    0.12393E+08         0.17567E+06         0.00000E+00
    0.17567E+06         0.28798E+08         0.00000E+00
    0.00000E+00         0.00000E+00         0.12357E+08
 
    0.12377E+08         0.18168E+06         0.00000E+00
    0.18168E+06         0.28759E+08         0.00000E+00
    0.00000E+00         0.00000E+00         0.12341E+08
 
    0.12360E+08         0.18773E+06         0.00000E+00
    0.18773E+06         0.28718E+08         0.00000E+00
    0.00000E+00         0.00000E+00         0.12323E+08
 
    0.12343E+08         0.19382E+06         0.00000E+00
    0.19382E+06         0.28677E+08         0.00000E+00
    0.00000E+00         0.00000E+00         0.12306E+08
 
    0.12325E+08         0.19997E+06         0.00000E+00
    0.19997E+06         0.28634E+08         0.00000E+00
    0.00000E+00         0.00000E+00         0.12288E+08
 
    0.12307E+08         0.20618E+06         0.00000E+00
    0.20618E+06         0.28590E+08         0.00000E+00
    0.00000E+00         0.00000E+00         0.12269E+08
 
    0.12289E+08         0.21247E+06         0.00000E+00
    0.21247E+06         0.28546E+08         0.00000E+00
    0.00000E+00         0.00000E+00         0.12250E+08
 
    0.12270E+08         0.21884E+06         0.00000E+00
    0.21884E+06         0.28499E+08         0.00000E+00
    0.00000E+00         0.00000E+00         0.12231E+08
 
    0.12251E+08         0.22530E+06         0.00000E+00
    0.22530E+06         0.28452E+08         0.00000E+00
    0.00000E+00         0.00000E+00         0.12211E+08
 
    0.12231E+08         0.23185E+06         0.00000E+00
    0.23185E+06         0.28403E+08         0.00000E+00
    0.00000E+00         0.00000E+00         0.12190E+08
 
    0.12211E+08         0.23850E+06         0.00000E+00
    0.23850E+06         0.28353E+08         0.00000E+00
    0.00000E+00         0.00000E+00         0.12169E+08
 
    0.12190E+08         0.24525E+06         0.00000E+00
    0.24525E+06         0.28302E+08         0.00000E+00
    0.00000E+00         0.00000E+00         0.12147E+08
 
    0.12168E+08         0.25211E+06         0.00000E+00
    0.25211E+06         0.28248E+08         0.00000E+00
    0.00000E+00         0.00000E+00         0.12125E+08
 
    0.12146E+08         0.25908E+06         0.00000E+00
    0.25908E+06         0.28194E+08         0.00000E+00
    0.00000E+00         0.00000E+00         0.12102E+08
 
    0.12123E+08         0.26616E+06         0.00000E+00
    0.26616E+06         0.28138E+08         0.00000E+00
    0.00000E+00         0.00000E+00         0.12078E+08
 
    0.12099E+08         0.27335E+06         0.00000E+00
    0.27335E+06         0.28080E+08         0.00000E+00
    0.00000E+00         0.00000E+00         0.12054E+08
 
    0.12074E+08         0.28064E+06         0.00000E+00
    0.28064E+06         0.28020E+08         0.00000E+00
    0.00000E+00         0.00000E+00         0.12028E+08
 
    0.12049E+08         0.28804E+06         0.00000E+00
    0.28804E+06         0.27959E+08         0.00000E+00
    0.00000E+00         0.00000E+00         0.12002E+08
 
    0.12023E+08         0.29555E+06         0.00000E+00
    0.29555E+06         0.27895E+08         0.00000E+00
    0.00000E+00         0.00000E+00         0.11976E+08
 
    0.11996E+08         0.30316E+06         0.00000E+00
    0.30316E+06         0.27830E+08         0.00000E+00
    0.00000E+00         0.00000E+00         0.11948E+08
 
    0.11969E+08         0.31086E+06         0.00000E+00
    0.31086E+06         0.27763E+08         0.00000E+00
    0.00000E+00         0.00000E+00         0.11919E+08
 
    0.11940E+08         0.31866E+06         0.00000E+00
    0.31866E+06         0.27694E+08         0.00000E+00
    0.00000E+00         0.00000E+00         0.11890E+08
 
    0.11910E+08         0.32654E+06         0.00000E+00
    0.32654E+06         0.27623E+08         0.00000E+00
    0.00000E+00         0.00000E+00         0.11860E+08
 
    0.11880E+08         0.33450E+06         0.00000E+00
    0.33450E+06         0.27550E+08         0.00000E+00
    0.00000E+00         0.00000E+00         0.11829E+08
 
    0.11848E+08         0.34253E+06         0.00000E+00
    0.34253E+06         0.27474E+08         0.00000E+00
    0.00000E+00         0.00000E+00         0.11797E+08
 
    0.11816E+08         0.35062E+06         0.00000E+00
    0.35062E+06         0.27397E+08         0.00000E+00
    0.00000E+00         0.00000E+00         0.11764E+08
 
    0.11782E+08         0.35876E+06         0.00000E+00
    0.35876E+06         0.27317E+08         0.00000E+00
    0.00000E+00         0.00000E+00         0.11730E+08
 
    0.11747E+08         0.36693E+06         0.00000E+00
    0.36693E+06         0.27234E+08         0.00000E+00
    0.00000E+00         0.00000E+00         0.11695E+08
 
    0.11712E+08         0.37513E+06         0.00000E+00
    0.37513E+06         0.27150E+08         0.00000E+00
    0.00000E+00         0.00000E+00         0.11658E+08
 
    0.11675E+08         0.38334E+06         0.00000E+00
    0.38334E+06         0.27063E+08         0.00000E+00
    0.00000E+00         0.00000E+00         0.11621E+08
 
    0.11636E+08         0.39154E+06         0.00000E+00
    0.39154E+06         0.26973E+08         0.00000E+00
    0.00000E+00         0.00000E+00         0.11583E+08
 
    0.11597E+08         0.39972E+06         0.00000E+00
    0.39972E+06         0.26881E+08         0.00000E+00
    0.00000E+00         0.00000E+00         0.11543E+08
 
    0.11556E+08         0.40785E+06         0.00000E+00
    0.40785E+06         0.26786E+08         0.00000E+00
    0.00000E+00         0.00000E+00         0.11503E+08
 
    0.11514E+08         0.41592E+06         0.00000E+00
    0.41592E+06         0.26689E+08         0.00000E+00
    0.00000E+00         0.00000E+00         0.11461E+08
 
    0.11471E+08         0.42390E+06         0.00000E+00
    0.42390E+06         0.26589E+08         0.00000E+00
    0.00000E+00         0.00000E+00         0.11418E+08
 
    0.11426E+08         0.43176E+06         0.00000E+00
    0.43176E+06         0.26486E+08         0.00000E+00
    0.00000E+00         0.00000E+00         0.11373E+08
 
    0.11379E+08         0.43948E+06         0.00000E+00
    0.43948E+06         0.26380E+08         0.00000E+00
    0.00000E+00         0.00000E+00         0.11328E+08
 
    0.11332E+08         0.44703E+06         0.00000E+00
    0.44703E+06         0.26272E+08         0.00000E+00
    0.00000E+00         0.00000E+00         0.11281E+08
 
    0.11282E+08         0.45437E+06         0.00000E+00
    0.45437E+06         0.26160E+08         0.00000E+00
    0.00000E+00         0.00000E+00         0.11233E+08
 
    0.11232E+08         0.46147E+06         0.00000E+00
    0.46147E+06         0.26046E+08         0.00000E+00
    0.00000E+00         0.00000E+00         0.11183E+08
 
    0.11179E+08         0.46830E+06         0.00000E+00
    0.46830E+06         0.25929E+08         0.00000E+00
    0.00000E+00         0.00000E+00         0.11132E+08
 
    0.11125E+08         0.47480E+06         0.00000E+00
    0.47480E+06         0.25808E+08         0.00000E+00
    0.00000E+00         0.00000E+00         0.11080E+08
 
    0.11070E+08         0.48094E+06         0.00000E+00
    0.48094E+06         0.25685E+08         0.00000E+00
    0.00000E+00         0.00000E+00         0.11026E+08
 
    0.11012E+08         0.48667E+06         0.00000E+00
    0.48667E+06         0.25558E+08         0.00000E+00
    0.00000E+00         0.00000E+00         0.10971E+08
 
    0.10953E+08         0.49193E+06         0.00000E+00
    0.49193E+06         0.25429E+08         0.00000E+00
    0.00000E+00         0.00000E+00         0.10914E+08
 
    0.10892E+08         0.49666E+06         0.00000E+00
    0.49666E+06         0.25296E+08         0.00000E+00
    0.00000E+00         0.00000E+00         0.10856E+08
 
    0.10829E+08         0.50082E+06         0.00000E+00
    0.50082E+06         0.25160E+08         0.00000E+00
    0.00000E+00         0.00000E+00         0.10797E+08
 
    0.10764E+08         0.50432E+06         0.00000E+00
    0.50432E+06         0.25021E+08         0.00000E+00
    0.00000E+00         0.00000E+00         0.10735E+08
 
    0.10697E+08         0.50710E+06         0.00000E+00
    0.50710E+06         0.24878E+08         0.00000E+00
    0.00000E+00         0.00000E+00         0.10673E+08
 
    0.10628E+08         0.50908E+06         0.00000E+00
    0.50908E+06         0.24732E+08         0.00000E+00
    0.00000E+00         0.00000E+00         0.10608E+08
 
    0.10557E+08         0.51018E+06         0.00000E+00
    0.51018E+06         0.24583E+08         0.00000E+00
    0.00000E+00         0.00000E+00         0.10542E+08
 
    0.10484E+08         0.51030E+06         0.00000E+00
    0.51030E+06         0.24431E+08         0.00000E+00
    0.00000E+00         0.00000E+00         0.10475E+08
 
    0.10409E+08         0.50937E+06         0.00000E+00
    0.50937E+06         0.24275E+08         0.00000E+00
    0.00000E+00         0.00000E+00         0.10405E+08
 
    0.10332E+08         0.50726E+06         0.00000E+00
    0.50726E+06         0.24116E+08         0.00000E+00
    0.00000E+00         0.00000E+00         0.10334E+08
 
    0.10252E+08         0.50389E+06         0.00000E+00
    0.50389E+06         0.23953E+08         0.00000E+00
    0.00000E+00         0.00000E+00         0.10261E+08
 
    0.10170E+08         0.49913E+06         0.00000E+00
    0.49913E+06         0.23787E+08         0.00000E+00
    0.00000E+00         0.00000E+00         0.10187E+08
 
    0.10086E+08         0.49288E+06         0.00000E+00
    0.49288E+06         0.23617E+08         0.00000E+00
    0.00000E+00         0.00000E+00         0.10111E+08
 
    0.99995E+07         0.48502E+06         0.00000E+00
    0.48502E+06         0.23444E+08         0.00000E+00
    0.00000E+00         0.00000E+00         0.10033E+08
 
    0.99107E+07         0.47542E+06         0.00000E+00
    0.47542E+06         0.23268E+08         0.00000E+00
    0.00000E+00         0.00000E+00         0.99535E+07
 
    0.98197E+07         0.46397E+06         0.00000E+00
    0.46397E+06         0.23088E+08         0.00000E+00
    0.00000E+00         0.00000E+00         0.98723E+07
 
    0.97266E+07         0.45056E+06         0.00000E+00
    0.45056E+06         0.22905E+08         0.00000E+00
    0.00000E+00         0.00000E+00         0.97894E+07
 
    0.96314E+07         0.43508E+06         0.00000E+00
    0.43508E+06         0.22718E+08         0.00000E+00
    0.00000E+00         0.00000E+00         0.97049E+07
 
    0.95343E+07         0.41745E+06         0.00000E+00
    0.41745E+06         0.22529E+08         0.00000E+00
    0.00000E+00         0.00000E+00         0.96190E+07
 
    0.94353E+07         0.39758E+06         0.00000E+00
    0.39758E+06         0.22337E+08         0.00000E+00
    0.00000E+00         0.00000E+00         0.95317E+07
 
    0.93348E+07         0.37543E+06         0.00000E+00
    0.37543E+06         0.22143E+08         0.00000E+00
    0.00000E+00         0.00000E+00         0.94433E+07
 
    0.92328E+07         0.35098E+06         0.00000E+00
    0.35098E+06         0.21947E+08         0.00000E+00
    0.00000E+00         0.00000E+00         0.93540E+07
 
    0.91294E+07         0.32425E+06         0.00000E+00
    0.32425E+06         0.21751E+08         0.00000E+00
    0.00000E+00         0.00000E+00         0.92641E+07
 
    0.90247E+07         0.29529E+06         0.00000E+00
    0.29529E+06         0.21556E+08         0.00000E+00
    0.00000E+00         0.00000E+00         0.91741E+07
 
    0.89185E+07         0.26421E+06         0.00000E+00
    0.26421E+06         0.21362E+08         0.00000E+00
    0.00000E+00         0.00000E+00         0.90843E+07
 
    0.88102E+07         0.23116E+06         0.00000E+00
    0.23116E+06         0.21174E+08         0.00000E+00
    0.00000E+00         0.00000E+00         0.89952E+07
 
    0.86990E+07         0.19633E+06         0.00000E+00
    0.19633E+06         0.20992E+08         0.00000E+00
    0.00000E+00         0.00000E+00         0.89074E+07
 
    0.85828E+07         0.15996E+06         0.00000E+00
    0.15996E+06         0.20822E+08         0.00000E+00
    0.00000E+00         0.00000E+00         0.88213E+07
 
    0.84588E+07         0.12249E+06         0.00000E+00
    0.12249E+06         0.20665E+08         0.00000E+00
    0.00000E+00         0.00000E+00         0.87373E+07
 
    0.83229E+07         0.84881E+05         0.00000E+00
    0.84881E+05         0.20528E+08         0.00000E+00
    0.00000E+00         0.00000E+00         0.86552E+07
 
    0.81703E+07         0.48895E+05         0.00000E+00
    0.48895E+05         0.20410E+08         0.00000E+00
    0.00000E+00         0.00000E+00         0.85741E+07
 
    0.79979E+07         0.15785E+05         0.00000E+00
    0.15785E+05         0.20311E+08         0.00000E+00
    0.00000E+00         0.00000E+00         0.84927E+07
 
    0.12783E+08         0.35288E+04         0.00000E+00
    0.35288E+04         0.29520E+08         0.00000E+00
    0.00000E+00         0.00000E+00         0.12691E+08
 
    0.12759E+08         0.10816E+05         0.00000E+00
    0.10816E+05         0.29506E+08         0.00000E+00
    0.00000E+00         0.00000E+00         0.12679E+08
 
    0.12737E+08         0.18579E+05         0.00000E+00
    0.18579E+05         0.29489E+08         0.00000E+00
    0.00000E+00         0.00000E+00         0.12668E+08
 
    0.12718E+08         0.26715E+05         0.00000E+00
    0.26715E+05         0.29469E+08         0.00000E+00
    0.00000E+00         0.00000E+00         0.12656E+08
 
    0.12701E+08         0.35002E+05         0.00000E+00
    0.35002E+05         0.29446E+08         0.00000E+00
    0.00000E+00         0.00000E+00         0.12644E+08
 
    0.12684E+08         0.43286E+05         0.00000E+00
    0.43286E+05         0.29422E+08         0.00000E+00
    0.00000E+00         0.00000E+00         0.12632E+08
 
    0.12669E+08         0.51483E+05         0.00000E+00
    0.51483E+05         0.29395E+08         0.00000E+00
    0.00000E+00         0.00000E+00         0.12619E+08
 
    0.12654E+08         0.59541E+05         0.00000E+00
    0.59541E+05         0.29367E+08         0.00000E+00
    0.00000E+00         0.00000E+00         0.12606E+08
 
    0.12639E+08         0.67427E+05         0.00000E+00
    0.67427E+05         0.29338E+08         0.00000E+00
    0.00000E+00         0.00000E+00         0.12593E+08
 
    0.12624E+08         0.75117E+05         0.00000E+00
    0.75117E+05         0.29308E+08         0.00000E+00
    0.00000E+00         0.00000E+00         0.12579E+08
 
    0.12609E+08         0.82598E+05         0.00000E+00
    0.82598E+05         0.29277E+08         0.00000E+00
    0.00000E+00         0.00000E+00         0.12566E+08
 
    0.12594E+08         0.89867E+05         0.00000E+00
    0.89867E+05         0.29246E+08         0.00000E+00
    0.00000E+00         0.00000E+00         0.12552E+08
 
    0.12579E+08         0.96926E+05         0.00000E+00
    0.96926E+05         0.29215E+08         0.00000E+00
    0.00000E+00         0.00000E+00         0.12538E+08
 
    0.12565E+08         0.10379E+06         0.00000E+00
    0.10379E+06         0.29183E+08         0.00000E+00
    0.00000E+00         0.00000E+00         0.12524E+08
 
    0.12550E+08         0.11046E+06         0.00000E+00
    0.11046E+06         0.29150E+08         0.00000E+00
    0.00000E+00         0.00000E+00         0.12510E+08
 
    0.12535E+08         0.11696E+06         0.00000E+00
    0.11696E+06         0.29118E+08         0.00000E+00
    0.00000E+00         0.00000E+00         0.12496E+08
 
    0.12520E+08         0.12332E+06         0.00000E+00
    0.12332E+06         0.29085E+08         0.00000E+00
    0.00000E+00         0.00000E+00         0.12481E+08
 
    0.12505E+08         0.12954E+06         0.00000E+00
    0.12954E+06         0.29051E+08         0.00000E+00
    0.00000E+00         0.00000E+00         0.12467E+08
 
    0.12490E+08         0.13566E+06         0.00000E+00
    0.13566E+06         0.29017E+08         0.00000E+00
    0.00000E+00         0.00000E+00         0.12452E+08
 
    0.12475E+08         0.14168E+06         0.00000E+00
    0.14168E+06         0.28982E+08         0.00000E+00
    0.00000E+00         0.00000E+00         0.12437E+08
 
    0.12460E+08         0.14763E+06         0.00000E+00
    0.14763E+06         0.28946E+08         0.00000E+00
    0.00000E+00         0.00000E+00         0.12422E+08
 
    0.12444E+08         0.15354E+06         0.00000E+00
    0.15354E+06         0.28910E+08         0.00000E+00
    0.00000E+00         0.00000E+00         0.12406E+08
 
    0.12428E+08         0.15941E+06         0.00000E+00
    0.15941E+06         0.28873E+08         0.00000E+00
    0.00000E+00         0.00000E+00         0.12391E+08
 
    0.12413E+08         0.16527E+06         0.00000E+00
    0.16527E+06         0.28836E+08         0.00000E+00
    0.00000E+00         0.00000E+00         0.12374E+08
 
    0.12396E+08         0.17113E+06         0.00000E+00
    0.17113E+06         0.28797E+08         0.00000E+00
    0.00000E+00         0.00000E+00         0.12358E+08
 
    0.12380E+08         0.17700E+06         0.00000E+00
    0.17700E+06         0.28757E+08         0.00000E+00
    0.00000E+00         0.00000E+00         0.12341E+08
 
    0.12363E+08         0.18290E+06         0.00000E+00
    0.18290E+06         0.28717E+08         0.00000E+00
    0.00000E+00         0.00000E+00         0.12324E+08
 
    0.12346E+08         0.18885E+06         0.00000E+00
    0.18885E+06         0.28675E+08         0.00000E+00
    0.00000E+00         0.00000E+00         0.12307E+08
 
    0.12329E+08         0.19484E+06         0.00000E+00
    0.19484E+06         0.28633E+08         0.00000E+00
    0.00000E+00         0.00000E+00         0.12289E+08
 
    0.12311E+08         0.20090E+06         0.00000E+00
    0.20090E+06         0.28589E+08         0.00000E+00
    0.00000E+00         0.00000E+00         0.12270E+08
 
    0.12293E+08         0.20703E+06         0.00000E+00
    0.20703E+06         0.28544E+08         0.00000E+00
    0.00000E+00         0.00000E+00         0.12251E+08
 
    0.12274E+08         0.21324E+06         0.00000E+00
    0.21324E+06         0.28498E+08         0.00000E+00
    0.00000E+00         0.00000E+00         0.12232E+08
 
    0.12255E+08         0.21953E+06         0.00000E+00
    0.21953E+06         0.28451E+08         0.00000E+00
    0.00000E+00         0.00000E+00         0.12212E+08
 
    0.12235E+08         0.22592E+06         0.00000E+00
    0.22592E+06         0.28402E+08         0.00000E+00
    0.00000E+00         0.00000E+00         0.12191E+08
 
    0.12214E+08         0.23240E+06         0.00000E+00
    0.23240E+06         0.28352E+08         0.00000E+00
    0.00000E+00         0.00000E+00         0.12170E+08
 
    0.12193E+08         0.23898E+06         0.00000E+00
    0.23898E+06         0.28300E+08         0.00000E+00
    0.00000E+00         0.00000E+00         0.12148E+08
 
    0.12172E+08         0.24566E+06         0.00000E+00
    0.24566E+06         0.28247E+08         0.00000E+00
    0.00000E+00         0.00000E+00         0.12126E+08
 
    0.12150E+08         0.25244E+06         0.00000E+00
    0.25244E+06         0.28192E+08         0.00000E+00
    0.00000E+00         0.00000E+00         0.12103E+08
 
    0.12127E+08         0.25933E+06         0.00000E+00
    0.25933E+06         0.28136E+08         0.00000E+00
    0.00000E+00         0.00000E+00         0.12079E+08
 
    0.12103E+08         0.26632E+06         0.00000E+00
    0.26632E+06         0.28078E+08         0.00000E+00
    0.00000E+00         0.00000E+00         0.12054E+08
 
    0.12079E+08         0.27342E+06         0.00000E+00
    0.27342E+06         0.28019E+08         0.00000E+00
    0.00000E+00         0.00000E+00         0.12029E+08
 
    0.12054E+08         0.28063E+06         0.00000E+00
    0.28063E+06         0.27957E+08         0.00000E+00
    0.00000E+00         0.00000E+00         0.12003E+08
 
    0.12028E+08         0.28793E+06         0.00000E+00
    0.28793E+06         0.27894E+08         0.00000E+00
    0.00000E+00         0.00000E+00         0.11976E+08
 
    0.12001E+08         0.29533E+06         0.00000E+00
    0.29533E+06         0.27829E+08         0.00000E+00
    0.00000E+00         0.00000E+00         0.11949E+08
 
    0.11973E+08         0.30282E+06         0.00000E+00
    0.30282E+06         0.27762E+08         0.00000E+00
    0.00000E+00         0.00000E+00         0.11920E+08
 
    0.11945E+08         0.31040E+06         0.00000E+00
    0.31040E+06         0.27692E+08         0.00000E+00
    0.00000E+00         0.00000E+00         0.11891E+08
 
    0.11915E+08         0.31806E+06         0.00000E+00
    0.31806E+06         0.27621E+08         0.00000E+00
    0.00000E+00         0.00000E+00         0.11861E+08
 
    0.11885E+08         0.32580E+06         0.00000E+00
    0.32580E+06         0.27548E+08         0.00000E+00
    0.00000E+00         0.00000E+00         0.11830E+08
 
    0.11853E+08         0.33360E+06         0.00000E+00
    0.33360E+06         0.27473E+08         0.00000E+00
    0.00000E+00         0.00000E+00         0.11798E+08
 
    0.11821E+08         0.34146E+06         0.00000E+00
    0.34146E+06         0.27395E+08         0.00000E+00
    0.00000E+00         0.00000E+00         0.11765E+08
 
    0.11787E+08         0.34936E+06         0.00000E+00
    0.34936E+06         0.27315E+08         0.00000E+00
    0.00000E+00         0.00000E+00         0.11731E+08
 
    0.11752E+08         0.35730E+06         0.00000E+00
    0.35730E+06         0.27233E+08         0.00000E+00
    0.00000E+00         0.00000E+00         0.11696E+08
 
    0.11717E+08         0.36526E+06         0.00000E+00
    0.36526E+06         0.27148E+08         0.00000E+00
    0.00000E+00         0.00000E+00         0.11659E+08
 
    0.11680E+08         0.37323E+06         0.00000E+00
    0.37323E+06         0.27061E+08         0.00000E+00
    0.00000E+00         0.00000E+00         0.11622E+08
 
    0.11641E+08         0.38118E+06         0.00000E+00
    0.38118E+06         0.26971E+08         0.00000E+00
    0.00000E+00         0.00000E+00         0.11584E+08
 
    0.11602E+08         0.38911E+06         0.00000E+00
    0.38911E+06         0.26879E+08         0.00000E+00
    0.00000E+00         0.00000E+00         0.11544E+08
 
    0.11561E+08         0.39700E+06         0.00000E+00
    0.39700E+06         0.26785E+08         0.00000E+00
    0.00000E+00         0.00000E+00         0.11504E+08
 
    0.11519E+08         0.40482E+06         0.00000E+00
    0.40482E+06         0.26687E+08         0.00000E+00
    0.00000E+00         0.00000E+00         0.11462E+08
 
    0.11475E+08         0.41254E+06         0.00000E+00
    0.41254E+06         0.26587E+08         0.00000E+00
    0.00000E+00         0.00000E+00         0.11419E+08
 
    0.11431E+08         0.42016E+06         0.00000E+00
    0.42016E+06         0.26484E+08         0.00000E+00
    0.00000E+00         0.00000E+00         0.11374E+08
 
    0.11384E+08         0.42763E+06         0.00000E+00
    0.42763E+06         0.26379E+08         0.00000E+00
    0.00000E+00         0.00000E+00         0.11329E+08
 
    0.11337E+08         0.43493E+06         0.00000E+00
    0.43493E+06         0.26270E+08         0.00000E+00
    0.00000E+00         0.00000E+00         0.11282E+08
 
    0.11287E+08         0.44202E+06         0.00000E+00
    0.44202E+06         0.26159E+08         0.00000E+00
    0.00000E+00         0.00000E+00         0.11234E+08
 
    0.11236E+08         0.44888E+06         0.00000E+00
    0.44888E+06         0.26045E+08         0.00000E+00
    0.00000E+00         0.00000E+00         0.11184E+08
 
    0.11184E+08         0.45546E+06         0.00000E+00
    0.45546E+06         0.25927E+08         0.00000E+00
    0.00000E+00         0.00000E+00         0.11133E+08
 
    0.11130E+08         0.46173E+06         0.00000E+00
    0.46173E+06         0.25807E+08         0.00000E+00
    0.00000E+00         0.00000E+00         0.11081E+08
 
    0.11074E+08         0.46764E+06         0.00000E+00
    0.46764E+06         0.25684E+08         0.00000E+00
    0.00000E+00         0.00000E+00         0.11027E+08
 
    0.11016E+08         0.47314E+06         0.00000E+00
    0.47314E+06         0.25557E+08         0.00000E+00
    0.00000E+00         0.00000E+00         0.10972E+08
 
    0.10957E+08         0.47817E+06         0.00000E+00
    0.47817E+06         0.25428E+08         0.00000E+00
    0.00000E+00         0.00000E+00         0.10915E+08
 
    0.10895E+08         0.48270E+06         0.00000E+00
    0.48270E+06         0.25295E+08         0.00000E+00
    0.00000E+00         0.00000E+00         0.10857E+08
 
    0.10832E+08         0.48665E+06         0.00000E+00
    0.48665E+06         0.25159E+08         0.00000E+00
    0.00000E+00         0.00000E+00         0.10797E+08
 
    0.10767E+08         0.48996E+06         0.00000E+00
    0.48996E+06         0.25020E+08         0.00000E+00
    0.00000E+00         0.00000E+00         0.10736E+08
 
    0.10700E+08         0.49255E+06         0.00000E+00
    0.49255E+06         0.24878E+08         0.00000E+00
    0.00000E+00         0.00000E+00         0.10673E+08
 
    0.10630E+08         0.49436E+06         0.00000E+00
    0.49436E+06         0.24732E+08         0.00000E+00
    0.00000E+00         0.00000E+00         0.10609E+08
 
    0.10559E+08         0.49530E+06         0.00000E+00
    0.49530E+06         0.24583E+08         0.00000E+00
    0.00000E+00         0.00000E+00         0.10543E+08
 
    0.10486E+08         0.49528E+06         0.00000E+00
    0.49528E+06         0.24431E+08         0.00000E+00
    0.00000E+00         0.00000E+00         0.10475E+08
 
    0.10410E+08         0.49422E+06         0.00000E+00
    0.49422E+06         0.24275E+08         0.00000E+00
    0.00000E+00         0.00000E+00         0.10405E+08
 
    0.10332E+08         0.49200E+06         0.00000E+00
    0.49200E+06         0.24116E+08         0.00000E+00
    0.00000E+00         0.00000E+00         0.10334E+08
 
    0.10252E+08         0.48852E+06         0.00000E+00
    0.48852E+06         0.23954E+08         0.00000E+00
    0.00000E+00         0.00000E+00         0.10262E+08
 
    0.10169E+08         0.48368E+06         0.00000E+00
    0.48368E+06         0.23788E+08         0.00000E+00
    0.00000E+00         0.00000E+00         0.10187E+08
 
    0.10084E+08         0.47735E+06         0.00000E+00
    0.47735E+06         0.23619E+08         0.00000E+00
    0.00000E+00         0.00000E+00         0.10111E+08
 
    0.99967E+07         0.46942E+06         0.00000E+00
    0.46942E+06         0.23446E+08         0.00000E+00
    0.00000E+00         0.00000E+00         0.10033E+08
 
    0.99070E+07         0.45976E+06         0.00000E+00
    0.45976E+06         0.23270E+08         0.00000E+00
    0.00000E+00         0.00000E+00         0.99531E+07
 
    0.98151E+07         0.44827E+06         0.00000E+00
    0.44827E+06         0.23090E+08         0.00000E+00
    0.00000E+00         0.00000E+00         0.98716E+07
 
    0.97209E+07         0.43481E+06         0.00000E+00
    0.43481E+06         0.22908E+08         0.00000E+00
    0.00000E+00         0.00000E+00         0.97886E+07
 
    0.96246E+07         0.41928E+06         0.00000E+00
    0.41928E+06         0.22722E+08         0.00000E+00
    0.00000E+00         0.00000E+00         0.97039E+07
 
    0.95263E+07         0.40159E+06         0.00000E+00
    0.40159E+06         0.22533E+08         0.00000E+00
    0.00000E+00         0.00000E+00         0.96177E+07
 
    0.94260E+07         0.38165E+06         0.00000E+00
    0.38165E+06         0.22341E+08         0.00000E+00
    0.00000E+00         0.00000E+00         0.95302E+07
 
    0.93241E+07         0.35943E+06         0.00000E+00
    0.35943E+06         0.22148E+08         0.00000E+00
    0.00000E+00         0.00000E+00         0.94415E+07
 
    0.92205E+07         0.33491E+06         0.00000E+00
    0.33491E+06         0.21952E+08         0.00000E+00
    0.00000E+00         0.00000E+00         0.93519E+07
 
    0.91155E+07         0.30811E+06         0.00000E+00
    0.30811E+06         0.21757E+08         0.00000E+00
    0.00000E+00         0.00000E+00         0.92616E+07
 
    0.90089E+07         0.27913E+06         0.00000E+00
    0.27913E+06         0.21562E+08         0.00000E+00
    0.00000E+00         0.00000E+00         0.91711E+07
 
    0.89007E+07         0.24813E+06         0.00000E+00
    0.24813E+06         0.21369E+08         0.00000E+00
    0.00000E+00         0.00000E+00         0.90808E+07
 
    0.87902E+07         0.21534E+06         0.00000E+00
    0.21534E+06         0.21180E+08         0.00000E+00
    0.00000E+00         0.00000E+00         0.89912E+07
 
    0.86765E+07         0.18107E+06         0.00000E+00
    0.18107E+06         0.20999E+08         0.00000E+00
    0.00000E+00         0.00000E+00         0.89027E+07
 
    0.85576E+07         0.14578E+06         0.00000E+00
    0.14578E+06         0.20829E+08         0.00000E+00
    0.00000E+00         0.00000E+00         0.88159E+07
 
    0.84306E+07         0.11012E+06         0.00000E+00
    0.11012E+06         0.20673E+08         0.00000E+00
    0.00000E+00         0.00000E+00         0.87310E+07
 
    0.82917E+07         0.75267E+05         0.00000E+00
    0.75267E+05         0.20535E+08         0.00000E+00
    0.00000E+00         0.00000E+00         0.86479E+07
 
    0.81368E+07         0.42874E+05         0.00000E+00
    0.42874E+05         0.20416E+08         0.00000E+00
    0.00000E+00         0.00000E+00         0.85660E+07
 
    0.79631E+07         0.13755E+05         0.00000E+00
    0.13755E+05         0.20317E+08         0.00000E+00
    0.00000E+00         0.00000E+00         0.84840E+07
 
    0.12790E+08         0.32334E+04         0.00000E+00
    0.32334E+04         0.29519E+08         0.00000E+00
    0.00000E+00         0.00000E+00         0.12693E+08
 
    0.12765E+08         0.99372E+04         0.00000E+00
    0.99372E+04         0.29504E+08         0.00000E+00
    0.00000E+00         0.00000E+00         0.12681E+08
 
    0.12743E+08         0.17164E+05         0.00000E+00
    0.17164E+05         0.29487E+08         0.00000E+00
    0.00000E+00         0.00000E+00         0.12669E+08
 
    0.12724E+08         0.24864E+05         0.00000E+00
    0.24864E+05         0.29467E+08         0.00000E+00
    0.00000E+00         0.00000E+00         0.12657E+08
 
    0.12706E+08         0.32834E+05         0.00000E+00
    0.32834E+05         0.29445E+08         0.00000E+00
    0.00000E+00         0.00000E+00         0.12645E+08
 
    0.12689E+08         0.40897E+05         0.00000E+00
    0.40897E+05         0.29420E+08         0.00000E+00
    0.00000E+00         0.00000E+00         0.12633E+08
 
    0.12673E+08         0.48940E+05         0.00000E+00
    0.48940E+05         0.29393E+08         0.00000E+00
    0.00000E+00         0.00000E+00         0.12620E+08
 
    0.12658E+08         0.56884E+05         0.00000E+00
    0.56884E+05         0.29365E+08         0.00000E+00
    0.00000E+00         0.00000E+00         0.12607E+08
 
    0.12643E+08         0.64677E+05         0.00000E+00
    0.64677E+05         0.29336E+08         0.00000E+00
    0.00000E+00         0.00000E+00         0.12594E+08
 
    0.12628E+08         0.72283E+05         0.00000E+00
    0.72283E+05         0.29306E+08         0.00000E+00
    0.00000E+00         0.00000E+00         0.12580E+08
 
    0.12613E+08         0.79681E+05         0.00000E+00
    0.79681E+05         0.29276E+08         0.00000E+00
    0.00000E+00         0.00000E+00         0.12567E+08
 
    0.12598E+08         0.86864E+05         0.00000E+00
    0.86864E+05         0.29245E+08         0.00000E+00
    0.00000E+00         0.00000E+00         0.12553E+08
 
    0.12583E+08         0.93834E+05         0.00000E+00
    0.93834E+05         0.29213E+08         0.00000E+00
    0.00000E+00         0.00000E+00         0.12539E+08
 
    0.12568E+08         0.10060E+06         0.00000E+00
    0.10060E+06         0.29181E+08         0.00000E+00
    0.00000E+00         0.00000E+00         0.12525E+08
 
    0.12553E+08         0.10717E+06         0.00000E+00
    0.10717E+06         0.29149E+08         0.00000E+00
    0.00000E+00         0.00000E+00         0.12511E+08
 
    0.12538E+08         0.11357E+06         0.00000E+00
    0.11357E+06         0.29116E+08         0.00000E+00
    0.00000E+00         0.00000E+00         0.12496E+08
 
    0.12523E+08         0.11981E+06         0.00000E+00
    0.11981E+06         0.29083E+08         0.00000E+00
    0.00000E+00         0.00000E+00         0.12482E+08
 
    0.12508E+08         0.12591E+06         0.00000E+00
    0.12591E+06         0.29050E+08         0.00000E+00
    0.00000E+00         0.00000E+00         0.12467E+08
 
    0.12493E+08         0.13190E+06         0.00000E+00
    0.13190E+06         0.29015E+08         0.00000E+00
    0.00000E+00         0.00000E+00         0.12453E+08
 
    0.12478E+08         0.13780E+06         0.00000E+00
    0.13780E+06         0.28981E+08         0.00000E+00
    0.00000E+00         0.00000E+00         0.12438E+08
 
    0.12463E+08         0.14363E+06         0.00000E+00
    0.14363E+06         0.28945E+08         0.00000E+00
    0.00000E+00         0.00000E+00         0.12422E+08
 
    0.12447E+08         0.14940E+06         0.00000E+00
    0.14940E+06         0.28909E+08         0.00000E+00
    0.00000E+00         0.00000E+00         0.12407E+08
 
    0.12432E+08         0.15514E+06         0.00000E+00
    0.15514E+06         0.28872E+08         0.00000E+00
    0.00000E+00         0.00000E+00         0.12391E+08
 
    0.12416E+08         0.16086E+06         0.00000E+00
    0.16086E+06         0.28834E+08         0.00000E+00
    0.00000E+00         0.00000E+00         0.12375E+08
 
    0.12400E+08         0.16658E+06         0.00000E+00
    0.16658E+06         0.28796E+08         0.00000E+00
    0.00000E+00         0.00000E+00         0.12359E+08
 
    0.12383E+08         0.17231E+06         0.00000E+00
    0.17231E+06         0.28756E+08         0.00000E+00
    0.00000E+00         0.00000E+00         0.12342E+08
 
    0.12367E+08         0.17807E+06         0.00000E+00
    0.17807E+06         0.28716E+08         0.00000E+00
    0.00000E+00         0.00000E+00         0.12325E+08
 
    0.12350E+08         0.18386E+06         0.00000E+00
    0.18386E+06         0.28674E+08         0.00000E+00
    0.00000E+00         0.00000E+00         0.12307E+08
 
    0.12332E+08         0.18971E+06         0.00000E+00
    0.18971E+06         0.28632E+08         0.00000E+00
    0.00000E+00         0.00000E+00         0.12289E+08
 
    0.12314E+08         0.19561E+06         0.00000E+00
    0.19561E+06         0.28588E+08         0.00000E+00
    0.00000E+00         0.00000E+00         0.12271E+08
 
    0.12296E+08         0.20158E+06         0.00000E+00
    0.20158E+06         0.28543E+08         0.00000E+00
    0.00000E+00         0.00000E+00         0.12252E+08
 
    0.12277E+08         0.20763E+06         0.00000E+00
    0.20763E+06         0.28497E+08         0.00000E+00
    0.00000E+00         0.00000E+00         0.12232E+08
 
    0.12258E+08         0.21376E+06         0.00000E+00
    0.21376E+06         0.28449E+08         0.00000E+00
    0.00000E+00         0.00000E+00         0.12212E+08
 
    0.12239E+08         0.21998E+06         0.00000E+00
    0.21998E+06         0.28401E+08         0.00000E+00
    0.00000E+00         0.00000E+00         0.12192E+08
 
    0.12218E+08         0.22628E+06         0.00000E+00
    0.22628E+06         0.28351E+08         0.00000E+00
    0.00000E+00         0.00000E+00         0.12171E+08
 
    0.12197E+08         0.23268E+06         0.00000E+00
    0.23268E+06         0.28299E+08         0.00000E+00
    0.00000E+00         0.00000E+00         0.12149E+08
 
    0.12176E+08         0.23919E+06         0.00000E+00
    0.23919E+06         0.28246E+08         0.00000E+00
    0.00000E+00         0.00000E+00         0.12126E+08
 
    0.12154E+08         0.24579E+06         0.00000E+00
    0.24579E+06         0.28191E+08         0.00000E+00
    0.00000E+00         0.00000E+00         0.12103E+08
 
    0.12131E+08         0.25249E+06         0.00000E+00
    0.25249E+06         0.28135E+08         0.00000E+00
    0.00000E+00         0.00000E+00         0.12080E+08
 
    0.12107E+08         0.25929E+06         0.00000E+00
    0.25929E+06         0.28077E+08         0.00000E+00
    0.00000E+00         0.00000E+00         0.12055E+08
 
    0.12083E+08         0.26619E+06         0.00000E+00
    0.26619E+06         0.28017E+08         0.00000E+00
    0.00000E+00         0.00000E+00         0.12030E+08
 
    0.12058E+08         0.27319E+06         0.00000E+00
    0.27319E+06         0.27956E+08         0.00000E+00
    0.00000E+00         0.00000E+00         0.12004E+08
 
    0.12032E+08         0.28029E+06         0.00000E+00
    0.28029E+06         0.27892E+08         0.00000E+00
    0.00000E+00         0.00000E+00         0.11977E+08
 
    0.12005E+08         0.28748E+06         0.00000E+00
    0.28748E+06         0.27827E+08         0.00000E+00
    0.00000E+00         0.00000E+00         0.11950E+08
 
    0.11978E+08         0.29476E+06         0.00000E+00
    0.29476E+06         0.27760E+08         0.00000E+00
    0.00000E+00         0.00000E+00         0.11921E+08
 
    0.11949E+08         0.30213E+06         0.00000E+00
    0.30213E+06         0.27691E+08         0.00000E+00
    0.00000E+00         0.00000E+00         0.11892E+08
 
    0.11920E+08         0.30957E+06         0.00000E+00
    0.30957E+06         0.27620E+08         0.00000E+00
    0.00000E+00         0.00000E+00         0.11862E+08
 
    0.11889E+08         0.31708E+06         0.00000E+00
    0.31708E+06         0.27546E+08         0.00000E+00
    0.00000E+00         0.00000E+00         0.11831E+08
 
    0.11858E+08         0.32466E+06         0.00000E+00
    0.32466E+06         0.27471E+08         0.00000E+00
    0.00000E+00         0.00000E+00         0.11799E+08
 
    0.11825E+08         0.33228E+06         0.00000E+00
    0.33228E+06         0.27393E+08         0.00000E+00
    0.00000E+00         0.00000E+00         0.11766E+08
 
    0.11792E+08         0.33996E+06         0.00000E+00
    0.33996E+06         0.27313E+08         0.00000E+00
    0.00000E+00         0.00000E+00         0.11732E+08
 
    0.11757E+08         0.34766E+06         0.00000E+00
    0.34766E+06         0.27231E+08         0.00000E+00
    0.00000E+00         0.00000E+00         0.11697E+08
 
    0.11721E+08         0.35538E+06         0.00000E+00
    0.35538E+06         0.27147E+08         0.00000E+00
    0.00000E+00         0.00000E+00         0.11660E+08
 
    0.11684E+08         0.36311E+06         0.00000E+00
    0.36311E+06         0.27059E+08         0.00000E+00
    0.00000E+00         0.00000E+00         0.11623E+08
 
    0.11646E+08         0.37082E+06         0.00000E+00
    0.37082E+06         0.26970E+08         0.00000E+00
    0.00000E+00         0.00000E+00         0.11585E+08
 
    0.11607E+08         0.37851E+06         0.00000E+00
    0.37851E+06         0.26878E+08         0.00000E+00
    0.00000E+00         0.00000E+00         0.11545E+08
 
    0.11566E+08         0.38615E+06         0.00000E+00
    0.38615E+06         0.26783E+08         0.00000E+00
    0.00000E+00         0.00000E+00         0.11505E+08
 
    0.11524E+08         0.39372E+06         0.00000E+00
    0.39372E+06         0.26686E+08         0.00000E+00
    0.00000E+00         0.00000E+00         0.11463E+08
 
    0.11480E+08         0.40120E+06         0.00000E+00
    0.40120E+06         0.26586E+08         0.00000E+00
    0.00000E+00         0.00000E+00         0.11420E+08
 
    0.11436E+08         0.40856E+06         0.00000E+00
    0.40856E+06         0.26483E+08         0.00000E+00
    0.00000E+00         0.00000E+00         0.11375E+08
 
    0.11389E+08         0.41579E+06         0.00000E+00
    0.41579E+06         0.26377E+08         0.00000E+00
    0.00000E+00         0.00000E+00         0.11330E+08
 
    0.11341E+08         0.42284E+06         0.00000E+00
    0.42284E+06         0.26269E+08         0.00000E+00
    0.00000E+00         0.00000E+00         0.11283E+08
 
    0.11292E+08         0.42969E+06         0.00000E+00
    0.42969E+06         0.26157E+08         0.00000E+00
    0.00000E+00         0.00000E+00         0.11235E+08
 
    0.11241E+08         0.43631E+06         0.00000E+00
    0.43631E+06         0.26043E+08         0.00000E+00
    0.00000E+00         0.00000E+00         0.11185E+08
 
    0.11188E+08         0.44266E+06         0.00000E+00
    0.44266E+06         0.25926E+08         0.00000E+00
    0.00000E+00         0.00000E+00         0.11134E+08
 
    0.11134E+08         0.44869E+06         0.00000E+00
    0.44869E+06         0.25806E+08         0.00000E+00
    0.00000E+00         0.00000E+00         0.11082E+08
 
    0.11078E+08         0.45437E+06         0.00000E+00
    0.45437E+06         0.25683E+08         0.00000E+00
    0.00000E+00         0.00000E+00         0.11028E+08
 
    0.11020E+08         0.45964E+06         0.00000E+00
    0.45964E+06         0.25556E+08         0.00000E+00
    0.00000E+00         0.00000E+00         0.10973E+08
 
    0.10960E+08         0.46447E+06         0.00000E+00
    0.46447E+06         0.25427E+08         0.00000E+00
    0.00000E+00         0.00000E+00         0.10916E+08
 
    0.10899E+08         0.46879E+06         0.00000E+00
    0.46879E+06         0.25294E+08         0.00000E+00
    0.00000E+00         0.00000E+00         0.10858E+08
 
    0.10835E+08         0.47254E+06         0.00000E+00
    0.47254E+06         0.25158E+08         0.00000E+00
    0.00000E+00         0.00000E+00         0.10798E+08
 
    0.10770E+08         0.47566E+06         0.00000E+00
    0.47566E+06         0.25019E+08         0.00000E+00
    0.00000E+00         0.00000E+00         0.10737E+08
 
    0.10702E+08         0.47808E+06         0.00000E+00
    0.47808E+06         0.24877E+08         0.00000E+00
    0.00000E+00         0.00000E+00         0.10674E+08
 
    0.10633E+08         0.47972E+06         0.00000E+00
    0.47972E+06         0.24732E+08         0.00000E+00
    0.00000E+00         0.00000E+00         0.10609E+08
 
    0.10561E+08         0.48051E+06         0.00000E+00
    0.48051E+06         0.24583E+08         0.00000E+00
    0.00000E+00         0.00000E+00         0.10543E+08
 
    0.10487E+08         0.48036E+06         0.00000E+00
    0.48036E+06         0.24431E+08         0.00000E+00
    0.00000E+00         0.00000E+00         0.10475E+08
 
    0.10411E+08         0.47917E+06         0.00000E+00
    0.47917E+06         0.24275E+08         0.00000E+00
    0.00000E+00         0.00000E+00         0.10406E+08
 
    0.10332E+08         0.47685E+06         0.00000E+00
    0.47685E+06         0.24117E+08         0.00000E+00
    0.00000E+00         0.00000E+00         0.10335E+08
 
    0.10251E+08         0.47328E+06         0.00000E+00
    0.47328E+06         0.23955E+08         0.00000E+00
    0.00000E+00         0.00000E+00         0.10262E+08
 
    0.10168E+08         0.46836E+06         0.00000E+00
    0.46836E+06         0.23789E+08         0.00000E+00
    0.00000E+00         0.00000E+00         0.10187E+08
 
    0.10082E+08         0.46197E+06         0.00000E+00
    0.46197E+06         0.23620E+08         0.00000E+00
    0.00000E+00         0.00000E+00         0.10111E+08
 
    0.99939E+07         0.45399E+06         0.00000E+00
    0.45399E+06         0.23448E+08         0.00000E+00
    0.00000E+00         0.00000E+00         0.10032E+08
 
    0.99034E+07         0.44430E+06         0.00000E+00
    0.44430E+06         0.23272E+08         0.00000E+00
    0.00000E+00         0.00000E+00         0.99526E+07
 
    0.98105E+07         0.43276E+06         0.00000E+00
    0.43276E+06         0.23093E+08         0.00000E+00
    0.00000E+00         0.00000E+00         0.98710E+07
 
    0.97153E+07         0.41927E+06         0.00000E+00
    0.41927E+06         0.22911E+08         0.00000E+00
    0.00000E+00         0.00000E+00         0.97877E+07
 
    0.96179E+07         0.40371E+06         0.00000E+00
    0.40371E+06         0.22725E+08         0.00000E+00
    0.00000E+00         0.00000E+00         0.97029E+07
 
    0.95183E+07         0.38598E+06         0.00000E+00
    0.38598E+06         0.22537E+08         0.00000E+00
    0.00000E+00         0.00000E+00         0.96165E+07
 
    0.94168E+07         0.36600E+06         0.00000E+00
    0.36600E+06         0.22346E+08         0.00000E+00
    0.00000E+00         0.00000E+00         0.95287E+07
 
    0.93134E+07         0.34373E+06         0.00000E+00
    0.34373E+06         0.22152E+08         0.00000E+00
    0.00000E+00         0.00000E+00         0.94397E+07
 
    0.92082E+07         0.31915E+06         0.00000E+00
    0.31915E+06         0.21958E+08         0.00000E+00
    0.00000E+00         0.00000E+00         0.93497E+07
 
    0.91015E+07         0.29233E+06         0.00000E+00
    0.29233E+06         0.21762E+08         0.00000E+00
    0.00000E+00         0.00000E+00         0.92591E+07
 
    0.89931E+07         0.26336E+06         0.00000E+00
    0.26336E+06         0.21568E+08         0.00000E+00
    0.00000E+00         0.00000E+00         0.91682E+07
 
    0.88828E+07         0.23247E+06         0.00000E+00
    0.23247E+06         0.21375E+08         0.00000E+00
    0.00000E+00         0.00000E+00         0.90774E+07
 
    0.87701E+07         0.19998E+06         0.00000E+00
    0.19998E+06         0.21187E+08         0.00000E+00
    0.00000E+00         0.00000E+00         0.89872E+07
 
    0.86538E+07         0.16633E+06         0.00000E+00
    0.16633E+06         0.21006E+08         0.00000E+00
    0.00000E+00         0.00000E+00         0.88980E+07
 
    0.85323E+07         0.13215E+06         0.00000E+00
    0.13215E+06         0.20836E+08         0.00000E+00
    0.00000E+00         0.00000E+00         0.88104E+07
 
    0.84026E+07         0.98323E+05         0.00000E+00
    0.98323E+05         0.20680E+08         0.00000E+00
    0.00000E+00         0.00000E+00         0.87247E+07
 
    0.82611E+07         0.66169E+05         0.00000E+00
    0.66169E+05         0.20541E+08         0.00000E+00
    0.00000E+00         0.00000E+00         0.86407E+07
 
    0.81041E+07         0.37198E+05         0.00000E+00
    0.37198E+05         0.20422E+08         0.00000E+00
    0.00000E+00         0.00000E+00         0.85579E+07
 
    0.79293E+07         0.11843E+05         0.00000E+00
    0.11843E+05         0.20322E+08         0.00000E+00
    0.00000E+00         0.00000E+00         0.84754E+07
 
    0.12796E+08         0.29509E+04         0.00000E+00
    0.29509E+04         0.29517E+08         0.00000E+00
    0.00000E+00         0.00000E+00         0.12694E+08
 
    0.12771E+08         0.90974E+04         0.00000E+00
    0.90974E+04         0.29503E+08         0.00000E+00
    0.00000E+00         0.00000E+00         0.12682E+08
 
    0.12749E+08         0.15809E+05         0.00000E+00
    0.15809E+05         0.29486E+08         0.00000E+00
    0.00000E+00         0.00000E+00         0.12671E+08
 
    0.12729E+08         0.23081E+05         0.00000E+00
    0.23081E+05         0.29466E+08         0.00000E+00
    0.00000E+00         0.00000E+00         0.12659E+08
 
    0.12711E+08         0.30732E+05         0.00000E+00
    0.30732E+05         0.29443E+08         0.00000E+00
    0.00000E+00         0.00000E+00         0.12646E+08
 
    0.12694E+08         0.38571E+05         0.00000E+00
    0.38571E+05         0.29418E+08         0.00000E+00
    0.00000E+00         0.00000E+00         0.12634E+08
 
    0.12678E+08         0.46452E+05         0.00000E+00
    0.46452E+05         0.29392E+08         0.00000E+00
    0.00000E+00         0.00000E+00         0.12621E+08
 
    0.12662E+08         0.54276E+05         0.00000E+00
    0.54276E+05         0.29364E+08         0.00000E+00
    0.00000E+00         0.00000E+00         0.12608E+08
 
    0.12647E+08         0.61969E+05         0.00000E+00
    0.61969E+05         0.29335E+08         0.00000E+00
    0.00000E+00         0.00000E+00         0.12594E+08
 
    0.12632E+08         0.69485E+05         0.00000E+00
    0.69485E+05         0.29305E+08         0.00000E+00
    0.00000E+00         0.00000E+00         0.12581E+08
 
    0.12617E+08         0.76795E+05         0.00000E+00
    0.76795E+05         0.29274E+08         0.00000E+00
    0.00000E+00         0.00000E+00         0.12567E+08
 
    0.12602E+08         0.83888E+05         0.00000E+00
    0.83888E+05         0.29243E+08         0.00000E+00
    0.00000E+00         0.00000E+00         0.12553E+08
 
    0.12587E+08         0.90763E+05         0.00000E+00
    0.90763E+05         0.29212E+08         0.00000E+00
    0.00000E+00         0.00000E+00         0.12540E+08
 
    0.12572E+08         0.97427E+05         0.00000E+00
    0.97427E+05         0.29180E+08         0.00000E+00
    0.00000E+00         0.00000E+00         0.12526E+08
 
    0.12557E+08         0.10389E+06         0.00000E+00
    0.10389E+06         0.29148E+08         0.00000E+00
    0.00000E+00         0.00000E+00         0.12511E+08
 
    0.12542E+08         0.11018E+06         0.00000E+00
    0.11018E+06         0.29115E+08         0.00000E+00
    0.00000E+00         0.00000E+00         0.12497E+08
 
    0.12527E+08         0.11630E+06         0.00000E+00
    0.11630E+06         0.29082E+08         0.00000E+00
    0.00000E+00         0.00000E+00         0.12483E+08
 
    0.12512E+08         0.12229E+06         0.00000E+00
    0.12229E+06         0.29048E+08         0.00000E+00
    0.00000E+00         0.00000E+00         0.12468E+08
 
    0.12496E+08         0.12816E+06         0.00000E+00
    0.12816E+06         0.29014E+08         0.00000E+00
    0.00000E+00         0.00000E+00         0.12453E+08
 
    0.12481E+08         0.13393E+06         0.00000E+00
    0.13393E+06         0.28979E+08         0.00000E+00
    0.00000E+00         0.00000E+00         0.12438E+08
 
    0.12466E+08         0.13962E+06         0.00000E+00
    0.13962E+06         0.28944E+08         0.00000E+00
    0.00000E+00         0.00000E+00         0.12423E+08
 
    0.12450E+08         0.14526E+06         0.00000E+00
    0.14526E+06         0.28908E+08         0.00000E+00
    0.00000E+00         0.00000E+00         0.12407E+08
 
    0.12435E+08         0.15087E+06         0.00000E+00
    0.15087E+06         0.28871E+08         0.00000E+00
    0.00000E+00         0.00000E+00         0.12392E+08
 
    0.12419E+08         0.15645E+06         0.00000E+00
    0.15645E+06         0.28833E+08         0.00000E+00
    0.00000E+00         0.00000E+00         0.12376E+08
 
    0.12403E+08         0.16202E+06         0.00000E+00
    0.16202E+06         0.28795E+08         0.00000E+00
    0.00000E+00         0.00000E+00         0.12359E+08
 
    0.12387E+08         0.16761E+06         0.00000E+00
    0.16761E+06         0.28755E+08         0.00000E+00
    0.00000E+00         0.00000E+00         0.12343E+08
 
    0.12370E+08         0.17322E+06         0.00000E+00
    0.17322E+06         0.28715E+08         0.00000E+00
    0.00000E+00         0.00000E+00         0.12325E+08
 
    0.12353E+08         0.17887E+06         0.00000E+00
    0.17887E+06         0.28673E+08         0.00000E+00
    0.00000E+00         0.00000E+00         0.12308E+08
 
    0.12336E+08         0.18456E+06         0.00000E+00
    0.18456E+06         0.28631E+08         0.00000E+00
    0.00000E+00         0.00000E+00         0.12290E+08
 
    0.12318E+08         0.19031E+06         0.00000E+00
    0.19031E+06         0.28587E+08         0.00000E+00
    0.00000E+00         0.00000E+00         0.12271E+08
 
    0.12300E+08         0.19612E+06         0.00000E+00
    0.19612E+06         0.28542E+08         0.00000E+00
    0.00000E+00         0.00000E+00         0.12252E+08
 
    0.12281E+08         0.20201E+06         0.00000E+00
    0.20201E+06         0.28496E+08         0.00000E+00
    0.00000E+00         0.00000E+00         0.12233E+08
 
    0.12262E+08         0.20797E+06         0.00000E+00
    0.20797E+06         0.28448E+08         0.00000E+00
    0.00000E+00         0.00000E+00         0.12213E+08
 
    0.12242E+08         0.21402E+06         0.00000E+00
    0.21402E+06         0.28399E+08         0.00000E+00
    0.00000E+00         0.00000E+00         0.12192E+08
 
    0.12222E+08         0.22015E+06         0.00000E+00
    0.22015E+06         0.28349E+08         0.00000E+00
    0.00000E+00         0.00000E+00         0.12171E+08
 
    0.12201E+08         0.22638E+06         0.00000E+00
    0.22638E+06         0.28298E+08         0.00000E+00
    0.00000E+00         0.00000E+00         0.12150E+08
 
    0.12180E+08         0.23270E+06         0.00000E+00
    0.23270E+06         0.28244E+08         0.00000E+00
    0.00000E+00         0.00000E+00         0.12127E+08
 
    0.12158E+08         0.23911E+06         0.00000E+00
    0.23911E+06         0.28190E+08         0.00000E+00
    0.00000E+00         0.00000E+00         0.12104E+08
 
    0.12135E+08         0.24563E+06         0.00000E+00
    0.24563E+06         0.28133E+08         0.00000E+00
    0.00000E+00         0.00000E+00         0.12080E+08
 
    0.12111E+08         0.25224E+06         0.00000E+00
    0.25224E+06         0.28075E+08         0.00000E+00
    0.00000E+00         0.00000E+00         0.12056E+08
 
    0.12087E+08         0.25894E+06         0.00000E+00
    0.25894E+06         0.28016E+08         0.00000E+00
    0.00000E+00         0.00000E+00         0.12031E+08
 
    0.12062E+08         0.26575E+06         0.00000E+00
    0.26575E+06         0.27954E+08         0.00000E+00
    0.00000E+00         0.00000E+00         0.12005E+08
 
    0.12036E+08         0.27264E+06         0.00000E+00
    0.27264E+06         0.27891E+08         0.00000E+00
    0.00000E+00         0.00000E+00         0.11978E+08
 
    0.12010E+08         0.27962E+06         0.00000E+00
    0.27962E+06         0.27826E+08         0.00000E+00
    0.00000E+00         0.00000E+00         0.11951E+08
 
    0.11982E+08         0.28669E+06         0.00000E+00
    0.28669E+06         0.27759E+08         0.00000E+00
    0.00000E+00         0.00000E+00         0.11922E+08
 
    0.11954E+08         0.29384E+06         0.00000E+00
    0.29384E+06         0.27689E+08         0.00000E+00
    0.00000E+00         0.00000E+00         0.11893E+08
 
    0.11924E+08         0.30106E+06         0.00000E+00
    0.30106E+06         0.27618E+08         0.00000E+00
    0.00000E+00         0.00000E+00         0.11863E+08
 
    0.11894E+08         0.30835E+06         0.00000E+00
    0.30835E+06         0.27545E+08         0.00000E+00
    0.00000E+00         0.00000E+00         0.11832E+08
 
    0.11863E+08         0.31570E+06         0.00000E+00
    0.31570E+06         0.27470E+08         0.00000E+00
    0.00000E+00         0.00000E+00         0.11800E+08
 
    0.11830E+08         0.32310E+06         0.00000E+00
    0.32310E+06         0.27392E+08         0.00000E+00
    0.00000E+00         0.00000E+00         0.11767E+08
 
    0.11797E+08         0.33054E+06         0.00000E+00
    0.33054E+06         0.27312E+08         0.00000E+00
    0.00000E+00         0.00000E+00         0.11733E+08
 
    0.11762E+08         0.33801E+06         0.00000E+00
    0.33801E+06         0.27230E+08         0.00000E+00
    0.00000E+00         0.00000E+00         0.11698E+08
 
    0.11726E+08         0.34550E+06         0.00000E+00
    0.34550E+06         0.27145E+08         0.00000E+00
    0.00000E+00         0.00000E+00         0.11661E+08
 
    0.11689E+08         0.35298E+06         0.00000E+00
    0.35298E+06         0.27058E+08         0.00000E+00
    0.00000E+00         0.00000E+00         0.11624E+08
 
    0.11651E+08         0.36046E+06         0.00000E+00
    0.36046E+06         0.26968E+08         0.00000E+00
    0.00000E+00         0.00000E+00         0.11586E+08
 
    0.11612E+08         0.36790E+06         0.00000E+00
    0.36790E+06         0.26876E+08         0.00000E+00
    0.00000E+00         0.00000E+00         0.11546E+08
 
    0.11571E+08         0.37530E+06         0.00000E+00
    0.37530E+06         0.26782E+08         0.00000E+00
    0.00000E+00         0.00000E+00         0.11506E+08
 
    0.11529E+08         0.38262E+06         0.00000E+00
    0.38262E+06         0.26684E+08         0.00000E+00
    0.00000E+00         0.00000E+00         0.11464E+08
 
    0.11485E+08         0.38986E+06         0.00000E+00
    0.38986E+06         0.26584E+08         0.00000E+00
    0.00000E+00         0.00000E+00         0.11421E+08
 
    0.11440E+08         0.39698E+06         0.00000E+00
    0.39698E+06         0.26481E+08         0.00000E+00
    0.00000E+00         0.00000E+00         0.11377E+08
 
    0.11394E+08         0.40396E+06         0.00000E+00
    0.40396E+06         0.26376E+08         0.00000E+00
    0.00000E+00         0.00000E+00         0.11331E+08
 
    0.11346E+08         0.41077E+06         0.00000E+00
    0.41077E+06         0.26267E+08         0.00000E+00
    0.00000E+00         0.00000E+00         0.11284E+08
 
    0.11296E+08         0.41738E+06         0.00000E+00
    0.41738E+06         0.26156E+08         0.00000E+00
    0.00000E+00         0.00000E+00         0.11236E+08
 
    0.11245E+08         0.42376E+06         0.00000E+00
    0.42376E+06         0.26042E+08         0.00000E+00
    0.00000E+00         0.00000E+00         0.11186E+08
 
    0.11193E+08         0.42988E+06         0.00000E+00
    0.42988E+06         0.25925E+08         0.00000E+00
    0.00000E+00         0.00000E+00         0.11135E+08
 
    0.11138E+08         0.43568E+06         0.00000E+00
    0.43568E+06         0.25805E+08         0.00000E+00
    0.00000E+00         0.00000E+00         0.11083E+08
 
    0.11082E+08         0.44114E+06         0.00000E+00
    0.44114E+06         0.25681E+08         0.00000E+00
    0.00000E+00         0.00000E+00         0.11029E+08
 
    0.11024E+08         0.44620E+06         0.00000E+00
    0.44620E+06         0.25555E+08         0.00000E+00
    0.00000E+00         0.00000E+00         0.10974E+08
 
    0.10964E+08         0.45081E+06         0.00000E+00
    0.45081E+06         0.25426E+08         0.00000E+00
    0.00000E+00         0.00000E+00         0.10917E+08
 
    0.10902E+08         0.45493E+06         0.00000E+00
    0.45493E+06         0.25293E+08         0.00000E+00
    0.00000E+00         0.00000E+00         0.10859E+08
 
    0.10838E+08         0.45849E+06         0.00000E+00
    0.45849E+06         0.25158E+08         0.00000E+00
    0.00000E+00         0.00000E+00         0.10799E+08
 
    0.10773E+08         0.46143E+06         0.00000E+00
    0.46143E+06         0.25019E+08         0.00000E+00
    0.00000E+00         0.00000E+00         0.10737E+08
 
    0.10705E+08         0.46368E+06         0.00000E+00
    0.46368E+06         0.24877E+08         0.00000E+00
    0.00000E+00         0.00000E+00         0.10674E+08
 
    0.10635E+08         0.46517E+06         0.00000E+00
    0.46517E+06         0.24731E+08         0.00000E+00
    0.00000E+00         0.00000E+00         0.10610E+08
 
    0.10563E+08         0.46582E+06         0.00000E+00
    0.46582E+06         0.24583E+08         0.00000E+00
    0.00000E+00         0.00000E+00         0.10544E+08
 
    0.10488E+08         0.46554E+06         0.00000E+00
    0.46554E+06         0.24431E+08         0.00000E+00
    0.00000E+00         0.00000E+00         0.10476E+08
 
    0.10411E+08         0.46424E+06         0.00000E+00
    0.46424E+06         0.24276E+08         0.00000E+00
    0.00000E+00         0.00000E+00         0.10406E+08
 
    0.10332E+08         0.46182E+06         0.00000E+00
    0.46182E+06         0.24117E+08         0.00000E+00
    0.00000E+00         0.00000E+00         0.10335E+08
 
    0.10251E+08         0.45818E+06         0.00000E+00
    0.45818E+06         0.23955E+08         0.00000E+00
    0.00000E+00         0.00000E+00         0.10262E+08
 
    0.10167E+08         0.45319E+06         0.00000E+00
    0.45319E+06         0.23790E+08         0.00000E+00
    0.00000E+00         0.00000E+00         0.10187E+08
 
    0.10080E+08         0.44675E+06         0.00000E+00
    0.44675E+06         0.23621E+08         0.00000E+00
    0.00000E+00         0.00000E+00         0.10111E+08
 
    0.99913E+07         0.43873E+06         0.00000E+00
    0.43873E+06         0.23449E+08         0.00000E+00
    0.00000E+00         0.00000E+00         0.10032E+08
 
    0.98999E+07         0.42901E+06         0.00000E+00
    0.42901E+06         0.23274E+08         0.00000E+00
    0.00000E+00         0.00000E+00         0.99522E+07
 
    0.98060E+07         0.41746E+06         0.00000E+00
    0.41746E+06         0.23095E+08         0.00000E+00
    0.00000E+00         0.00000E+00         0.98704E+07
 
    0.97098E+07         0.40395E+06         0.00000E+00
    0.40395E+06         0.22913E+08         0.00000E+00
    0.00000E+00         0.00000E+00         0.97870E+07
 
    0.96112E+07         0.38837E+06         0.00000E+00
    0.38837E+06         0.22728E+08         0.00000E+00
    0.00000E+00         0.00000E+00         0.97019E+07
 
    0.95104E+07         0.37063E+06         0.00000E+00
    0.37063E+06         0.22540E+08         0.00000E+00
    0.00000E+00         0.00000E+00         0.96152E+07
 
    0.94075E+07         0.35063E+06         0.00000E+00
    0.35063E+06         0.22350E+08         0.00000E+00
    0.00000E+00         0.00000E+00         0.95272E+07
 
    0.93027E+07         0.32833E+06         0.00000E+00
    0.32833E+06         0.22157E+08         0.00000E+00
    0.00000E+00         0.00000E+00         0.94379E+07
 
    0.91959E+07         0.30373E+06         0.00000E+00
    0.30373E+06         0.21963E+08         0.00000E+00
    0.00000E+00         0.00000E+00         0.93476E+07
 
    0.90874E+07         0.27690E+06         0.00000E+00
    0.27690E+06         0.21768E+08         0.00000E+00
    0.00000E+00         0.00000E+00         0.92566E+07
 
    0.89771E+07         0.24799E+06         0.00000E+00
    0.24799E+06         0.21574E+08         0.00000E+00
    0.00000E+00         0.00000E+00         0.91652E+07
 
    0.88648E+07         0.21725E+06         0.00000E+00
    0.21725E+06         0.21381E+08         0.00000E+00
    0.00000E+00         0.00000E+00         0.90739E+07
 
    0.87498E+07         0.18510E+06         0.00000E+00
    0.18510E+06         0.21194E+08         0.00000E+00
    0.00000E+00         0.00000E+00         0.89830E+07
 
    0.86311E+07         0.15210E+06         0.00000E+00
    0.15210E+06         0.21013E+08         0.00000E+00
    0.00000E+00         0.00000E+00         0.88932E+07
 
    0.85070E+07         0.11906E+06         0.00000E+00
    0.11906E+06         0.20843E+08         0.00000E+00
    0.00000E+00         0.00000E+00         0.88049E+07
 
    0.83746E+07         0.87062E+05         0.00000E+00
    0.87062E+05         0.20686E+08         0.00000E+00
    0.00000E+00         0.00000E+00         0.87182E+07
 
    0.82308E+07         0.57526E+05         0.00000E+00
    0.57526E+05         0.20547E+08         0.00000E+00
    0.00000E+00         0.00000E+00         0.86333E+07
 
    0.80720E+07         0.31817E+05         0.00000E+00
    0.31817E+05         0.20427E+08         0.00000E+00
    0.00000E+00         0.00000E+00         0.85498E+07
 
    0.78963E+07         0.10030E+05         0.00000E+00
    0.10030E+05         0.20326E+08         0.00000E+00
    0.00000E+00         0.00000E+00         0.84668E+07
 
    0.12802E+08         0.26794E+04         0.00000E+00
    0.26794E+04         0.29516E+08         0.00000E+00
    0.00000E+00         0.00000E+00         0.12696E+08
 
    0.12777E+08         0.82907E+04         0.00000E+00
    0.82907E+04         0.29502E+08         0.00000E+00
    0.00000E+00         0.00000E+00         0.12684E+08
 
    0.12755E+08         0.14505E+05         0.00000E+00
    0.14505E+05         0.29485E+08         0.00000E+00
    0.00000E+00         0.00000E+00         0.12672E+08
 
    0.12735E+08         0.21361E+05         0.00000E+00
    0.21361E+05         0.29464E+08         0.00000E+00
    0.00000E+00         0.00000E+00         0.12660E+08
 
    0.12716E+08         0.28695E+05         0.00000E+00
    0.28695E+05         0.29442E+08         0.00000E+00
    0.00000E+00         0.00000E+00         0.12647E+08
 
    0.12699E+08         0.36304E+05         0.00000E+00
    0.36304E+05         0.29417E+08         0.00000E+00
    0.00000E+00         0.00000E+00         0.12635E+08
 
    0.12683E+08         0.44019E+05         0.00000E+00
    0.44019E+05         0.29390E+08         0.00000E+00
    0.00000E+00         0.00000E+00         0.12622E+08
 
    0.12667E+08         0.51715E+05         0.00000E+00
    0.51715E+05         0.29362E+08         0.00000E+00
    0.00000E+00         0.00000E+00         0.12609E+08
 
    0.12651E+08         0.59303E+05         0.00000E+00
    0.59303E+05         0.29333E+08         0.00000E+00
    0.00000E+00         0.00000E+00         0.12595E+08
 
    0.12636E+08         0.66723E+05         0.00000E+00
    0.66723E+05         0.29303E+08         0.00000E+00
    0.00000E+00         0.00000E+00         0.12582E+08
 
    0.12620E+08         0.73941E+05         0.00000E+00
    0.73941E+05         0.29273E+08         0.00000E+00
    0.00000E+00         0.00000E+00         0.12568E+08
 
    0.12605E+08         0.80939E+05         0.00000E+00
    0.80939E+05         0.29242E+08         0.00000E+00
    0.00000E+00         0.00000E+00         0.12554E+08
 
    0.12590E+08         0.87715E+05         0.00000E+00
    0.87715E+05         0.29211E+08         0.00000E+00
    0.00000E+00         0.00000E+00         0.12540E+08
 
    0.12575E+08         0.94275E+05         0.00000E+00
    0.94275E+05         0.29179E+08         0.00000E+00
    0.00000E+00         0.00000E+00         0.12526E+08
 
    0.12560E+08         0.10063E+06         0.00000E+00
    0.10063E+06         0.29147E+08         0.00000E+00
    0.00000E+00         0.00000E+00         0.12512E+08
 
    0.12545E+08         0.10680E+06         0.00000E+00
    0.10680E+06         0.29114E+08         0.00000E+00
    0.00000E+00         0.00000E+00         0.12498E+08
 
    0.12530E+08         0.11281E+06         0.00000E+00
    0.11281E+06         0.29081E+08         0.00000E+00
    0.00000E+00         0.00000E+00         0.12483E+08
 
    0.12515E+08         0.11867E+06         0.00000E+00
    0.11867E+06         0.29047E+08         0.00000E+00
    0.00000E+00         0.00000E+00         0.12469E+08
 
    0.12500E+08         0.12442E+06         0.00000E+00
    0.12442E+06         0.29013E+08         0.00000E+00
    0.00000E+00         0.00000E+00         0.12454E+08
 
    0.12484E+08         0.13006E+06         0.00000E+00
    0.13006E+06         0.28978E+08         0.00000E+00
    0.00000E+00         0.00000E+00         0.12439E+08
 
    0.12469E+08         0.13562E+06         0.00000E+00
    0.13562E+06         0.28943E+08         0.00000E+00
    0.00000E+00         0.00000E+00         0.12424E+08
 
    0.12454E+08         0.14112E+06         0.00000E+00
    0.14112E+06         0.28907E+08         0.00000E+00
    0.00000E+00         0.00000E+00         0.12408E+08
 
    0.12438E+08         0.14659E+06         0.00000E+00
    0.14659E+06         0.28870E+08         0.00000E+00
    0.00000E+00         0.00000E+00         0.12392E+08
 
    0.12422E+08         0.15203E+06         0.00000E+00
    0.15203E+06         0.28832E+08         0.00000E+00
    0.00000E+00         0.00000E+00         0.12376E+08
 
    0.12406E+08         0.15746E+06         0.00000E+00
    0.15746E+06         0.28794E+08         0.00000E+00
    0.00000E+00         0.00000E+00         0.12360E+08
 
    0.12390E+08         0.16291E+06         0.00000E+00
    0.16291E+06         0.28754E+08         0.00000E+00
    0.00000E+00         0.00000E+00         0.12343E+08
 
    0.12373E+08         0.16837E+06         0.00000E+00
    0.16837E+06         0.28714E+08         0.00000E+00
    0.00000E+00         0.00000E+00         0.12326E+08
 
    0.12356E+08         0.17387E+06         0.00000E+00
    0.17387E+06         0.28672E+08         0.00000E+00
    0.00000E+00         0.00000E+00         0.12308E+08
 
    0.12339E+08         0.17940E+06         0.00000E+00
    0.17940E+06         0.28629E+08         0.00000E+00
    0.00000E+00         0.00000E+00         0.12290E+08
 
    0.12321E+08         0.18500E+06         0.00000E+00
    0.18500E+06         0.28586E+08         0.00000E+00
    0.00000E+00         0.00000E+00         0.12272E+08
 
    0.12303E+08         0.19065E+06         0.00000E+00
    0.19065E+06         0.28541E+08         0.00000E+00
    0.00000E+00         0.00000E+00         0.12253E+08
 
    0.12285E+08         0.19637E+06         0.00000E+00
    0.19637E+06         0.28495E+08         0.00000E+00
    0.00000E+00         0.00000E+00         0.12234E+08
 
    0.12265E+08         0.20217E+06         0.00000E+00
    0.20217E+06         0.28447E+08         0.00000E+00
    0.00000E+00         0.00000E+00         0.12214E+08
 
    0.12246E+08         0.20805E+06         0.00000E+00
    0.20805E+06         0.28398E+08         0.00000E+00
    0.00000E+00         0.00000E+00         0.12193E+08
 
    0.12226E+08         0.21401E+06         0.00000E+00
    0.21401E+06         0.28348E+08         0.00000E+00
    0.00000E+00         0.00000E+00         0.12172E+08
 
    0.12205E+08         0.22006E+06         0.00000E+00
    0.22006E+06         0.28296E+08         0.00000E+00
    0.00000E+00         0.00000E+00         0.12150E+08
 
    0.12184E+08         0.22620E+06         0.00000E+00
    0.22620E+06         0.28243E+08         0.00000E+00
    0.00000E+00         0.00000E+00         0.12128E+08
 
    0.12162E+08         0.23243E+06         0.00000E+00
    0.23243E+06         0.28188E+08         0.00000E+00
    0.00000E+00         0.00000E+00         0.12105E+08
 
    0.12139E+08         0.23875E+06         0.00000E+00
    0.23875E+06         0.28132E+08         0.00000E+00
    0.00000E+00         0.00000E+00         0.12081E+08
 
    0.12115E+08         0.24517E+06         0.00000E+00
    0.24517E+06         0.28074E+08         0.00000E+00
    0.00000E+00         0.00000E+00         0.12057E+08
 
    0.12091E+08         0.25168E+06         0.00000E+00
    0.25168E+06         0.28014E+08         0.00000E+00
    0.00000E+00         0.00000E+00         0.12032E+08
 
    0.12066E+08         0.25829E+06         0.00000E+00
    0.25829E+06         0.27953E+08         0.00000E+00
    0.00000E+00         0.00000E+00         0.12006E+08
 
    0.12041E+08         0.26498E+06         0.00000E+00
    0.26498E+06         0.27890E+08         0.00000E+00
    0.00000E+00         0.00000E+00         0.11979E+08
 
    0.12014E+08         0.27175E+06         0.00000E+00
    0.27175E+06         0.27824E+08         0.00000E+00
    0.00000E+00         0.00000E+00         0.11952E+08
 
    0.11987E+08         0.27861E+06         0.00000E+00
    0.27861E+06         0.27757E+08         0.00000E+00
    0.00000E+00         0.00000E+00         0.11923E+08
 
    0.11958E+08         0.28554E+06         0.00000E+00
    0.28554E+06         0.27688E+08         0.00000E+00
    0.00000E+00         0.00000E+00         0.11894E+08
 
    0.11929E+08         0.29255E+06         0.00000E+00
    0.29255E+06         0.27617E+08         0.00000E+00
    0.00000E+00         0.00000E+00         0.11864E+08
 
    0.11899E+08         0.29962E+06         0.00000E+00
    0.29962E+06         0.27544E+08         0.00000E+00
    0.00000E+00         0.00000E+00         0.11833E+08
 
    0.11867E+08         0.30674E+06         0.00000E+00
    0.30674E+06         0.27468E+08         0.00000E+00
    0.00000E+00         0.00000E+00         0.11801E+08
 
    0.11835E+08         0.31391E+06         0.00000E+00
    0.31391E+06         0.27390E+08         0.00000E+00
    0.00000E+00         0.00000E+00         0.11768E+08
 
    0.11801E+08         0.32112E+06         0.00000E+00
    0.32112E+06         0.27310E+08         0.00000E+00
    0.00000E+00         0.00000E+00         0.11734E+08
 
    0.11767E+08         0.32836E+06         0.00000E+00
    0.32836E+06         0.27228E+08         0.00000E+00
    0.00000E+00         0.00000E+00         0.11699E+08
 
    0.11731E+08         0.33561E+06         0.00000E+00
    0.33561E+06         0.27144E+08         0.00000E+00
    0.00000E+00         0.00000E+00         0.11662E+08
 
    0.11694E+08         0.34286E+06         0.00000E+00
    0.34286E+06         0.27056E+08         0.00000E+00
    0.00000E+00         0.00000E+00         0.11625E+08
 
    0.11656E+08         0.35009E+06         0.00000E+00
    0.35009E+06         0.26967E+08         0.00000E+00
    0.00000E+00         0.00000E+00         0.11587E+08
 
    0.11617E+08         0.35729E+06         0.00000E+00
    0.35729E+06         0.26875E+08         0.00000E+00
    0.00000E+00         0.00000E+00         0.11547E+08
 
    0.11576E+08         0.36445E+06         0.00000E+00
    0.36445E+06         0.26780E+08         0.00000E+00
    0.00000E+00         0.00000E+00         0.11507E+08
 
    0.11534E+08         0.37153E+06         0.00000E+00
    0.37153E+06         0.26683E+08         0.00000E+00
    0.00000E+00         0.00000E+00         0.11465E+08
 
    0.11490E+08         0.37852E+06         0.00000E+00
    0.37852E+06         0.26583E+08         0.00000E+00
    0.00000E+00         0.00000E+00         0.11422E+08
 
    0.11445E+08         0.38540E+06         0.00000E+00
    0.38540E+06         0.26480E+08         0.00000E+00
    0.00000E+00         0.00000E+00         0.11378E+08
 
    0.11399E+08         0.39214E+06         0.00000E+00
    0.39214E+06         0.26374E+08         0.00000E+00
    0.00000E+00         0.00000E+00         0.11332E+08
 
    0.11351E+08         0.39872E+06         0.00000E+00
    0.39872E+06         0.26266E+08         0.00000E+00
    0.00000E+00         0.00000E+00         0.11285E+08
 
    0.11301E+08         0.40509E+06         0.00000E+00
    0.40509E+06         0.26155E+08         0.00000E+00
    0.00000E+00         0.00000E+00         0.11237E+08
 
    0.11250E+08         0.41124E+06         0.00000E+00
    0.41124E+06         0.26041E+08         0.00000E+00
    0.00000E+00         0.00000E+00         0.11187E+08
 
    0.11197E+08         0.41712E+06         0.00000E+00
    0.41712E+06         0.25924E+08         0.00000E+00
    0.00000E+00         0.00000E+00         0.11136E+08
 
    0.11142E+08         0.42270E+06         0.00000E+00
    0.42270E+06         0.25804E+08         0.00000E+00
    0.00000E+00         0.00000E+00         0.11084E+08
 
    0.11086E+08         0.42794E+06         0.00000E+00
    0.42794E+06         0.25680E+08         0.00000E+00
    0.00000E+00         0.00000E+00         0.11030E+08
 
    0.11028E+08         0.43279E+06         0.00000E+00
    0.43279E+06         0.25554E+08         0.00000E+00
    0.00000E+00         0.00000E+00         0.10975E+08
 
    0.10968E+08         0.43720E+06         0.00000E+00
    0.43720E+06         0.25425E+08         0.00000E+00
    0.00000E+00         0.00000E+00         0.10918E+08
 
    0.10906E+08         0.44112E+06         0.00000E+00
    0.44112E+06         0.25293E+08         0.00000E+00
    0.00000E+00         0.00000E+00         0.10859E+08
 
    0.10842E+08         0.44449E+06         0.00000E+00
    0.44449E+06         0.25157E+08         0.00000E+00
    0.00000E+00         0.00000E+00         0.10800E+08
 
    0.10775E+08         0.44726E+06         0.00000E+00
    0.44726E+06         0.25018E+08         0.00000E+00
    0.00000E+00         0.00000E+00         0.10738E+08
 
    0.10707E+08         0.44935E+06         0.00000E+00
    0.44935E+06         0.24876E+08         0.00000E+00
    0.00000E+00         0.00000E+00         0.10675E+08
 
    0.10637E+08         0.45069E+06         0.00000E+00
    0.45069E+06         0.24731E+08         0.00000E+00
    0.00000E+00         0.00000E+00         0.10610E+08
 
    0.10564E+08         0.45121E+06         0.00000E+00
    0.45121E+06         0.24583E+08         0.00000E+00
    0.00000E+00         0.00000E+00         0.10544E+08
 
    0.10489E+08         0.45081E+06         0.00000E+00
    0.45081E+06         0.24431E+08         0.00000E+00
    0.00000E+00         0.00000E+00         0.10476E+08
 
    0.10412E+08         0.44941E+06         0.00000E+00
    0.44941E+06         0.24276E+08         0.00000E+00
    0.00000E+00         0.00000E+00         0.10406E+08
 
    0.10332E+08         0.44691E+06         0.00000E+00
    0.44691E+06         0.24118E+08         0.00000E+00
    0.00000E+00         0.00000E+00         0.10335E+08
 
    0.10250E+08         0.44320E+06         0.00000E+00
    0.44320E+06         0.23956E+08         0.00000E+00
    0.00000E+00         0.00000E+00         0.10262E+08
 
    0.10166E+08         0.43816E+06         0.00000E+00
    0.43816E+06         0.23791E+08         0.00000E+00
    0.00000E+00         0.00000E+00         0.10187E+08
 
    0.10078E+08         0.43168E+06         0.00000E+00
    0.43168E+06         0.23623E+08         0.00000E+00
    0.00000E+00         0.00000E+00         0.10110E+08
 
    0.99887E+07         0.42364E+06         0.00000E+00
    0.42364E+06         0.23451E+08         0.00000E+00
    0.00000E+00         0.00000E+00         0.10032E+08
 
    0.98964E+07         0.41391E+06         0.00000E+00
    0.41391E+06         0.23276E+08         0.00000E+00
    0.00000E+00         0.00000E+00         0.99518E+07
 
    0.98016E+07         0.40235E+06         0.00000E+00
    0.40235E+06         0.23098E+08         0.00000E+00
    0.00000E+00         0.00000E+00         0.98698E+07
 
    0.97043E+07         0.38885E+06         0.00000E+00
    0.38885E+06         0.22916E+08         0.00000E+00
    0.00000E+00         0.00000E+00         0.97862E+07
 
    0.96046E+07         0.37328E+06         0.00000E+00
    0.37328E+06         0.22732E+08         0.00000E+00
    0.00000E+00         0.00000E+00         0.97009E+07
 
    0.95026E+07         0.35553E+06         0.00000E+00
    0.35553E+06         0.22544E+08         0.00000E+00
    0.00000E+00         0.00000E+00         0.96140E+07
 
    0.93983E+07         0.33553E+06         0.00000E+00
    0.33553E+06         0.22354E+08         0.00000E+00
    0.00000E+00         0.00000E+00         0.95257E+07
 
    0.92920E+07         0.31324E+06         0.00000E+00
    0.31324E+06         0.22162E+08         0.00000E+00
    0.00000E+00         0.00000E+00         0.94361E+07
 
    0.91836E+07         0.28865E+06         0.00000E+00
    0.28865E+06         0.21968E+08         0.00000E+00
    0.00000E+00         0.00000E+00         0.93455E+07
 
    0.90734E+07         0.26185E+06         0.00000E+00
    0.26185E+06         0.21773E+08         0.00000E+00
    0.00000E+00         0.00000E+00         0.92540E+07
 
    0.89611E+07         0.23301E+06         0.00000E+00
    0.23301E+06         0.21580E+08         0.00000E+00
    0.00000E+00         0.00000E+00         0.91622E+07
 
    0.88466E+07         0.20246E+06         0.00000E+00
    0.20246E+06         0.21388E+08         0.00000E+00
    0.00000E+00         0.00000E+00         0.90703E+07
 
    0.87294E+07         0.17068E+06         0.00000E+00
    0.17068E+06         0.21200E+08         0.00000E+00
    0.00000E+00         0.00000E+00         0.89789E+07
 
    0.86083E+07         0.13837E+06         0.00000E+00
    0.13837E+06         0.21020E+08         0.00000E+00
    0.00000E+00         0.00000E+00         0.88884E+07
 
    0.84817E+07         0.10649E+06         0.00000E+00
    0.10649E+06         0.20849E+08         0.00000E+00
    0.00000E+00         0.00000E+00         0.87992E+07
 
    0.83469E+07         0.76293E+05         0.00000E+00
    0.76293E+05         0.20692E+08         0.00000E+00
    0.00000E+00         0.00000E+00         0.87117E+07
 
    0.82009E+07         0.49287E+05         0.00000E+00
    0.49287E+05         0.20552E+08         0.00000E+00
    0.00000E+00         0.00000E+00         0.86260E+07
 
    0.80405E+07         0.26692E+05         0.00000E+00
    0.26692E+05         0.20432E+08         0.00000E+00
    0.00000E+00         0.00000E+00         0.85416E+07
 
    0.78640E+07         0.83015E+04         0.00000E+00
    0.83015E+04         0.20330E+08         0.00000E+00
    0.00000E+00         0.00000E+00         0.84582E+07
 
    0.12808E+08         0.24171E+04         0.00000E+00
    0.24171E+04         0.29515E+08         0.00000E+00
    0.00000E+00         0.00000E+00         0.12697E+08
 
    0.12783E+08         0.75124E+04         0.00000E+00
    0.75124E+04         0.29501E+08         0.00000E+00
    0.00000E+00         0.00000E+00         0.12685E+08
 
    0.12761E+08         0.13248E+05         0.00000E+00
    0.13248E+05         0.29483E+08         0.00000E+00
    0.00000E+00         0.00000E+00         0.12673E+08
 
    0.12740E+08         0.19698E+05         0.00000E+00
    0.19698E+05         0.29463E+08         0.00000E+00
    0.00000E+00         0.00000E+00         0.12661E+08
 
    0.12722E+08         0.26719E+05         0.00000E+00
    0.26719E+05         0.29440E+08         0.00000E+00
    0.00000E+00         0.00000E+00         0.12649E+08
 
    0.12704E+08         0.34097E+05         0.00000E+00
    0.34097E+05         0.29415E+08         0.00000E+00
    0.00000E+00         0.00000E+00         0.12636E+08
 
    0.12687E+08         0.41641E+05         0.00000E+00
    0.41641E+05         0.29389E+08         0.00000E+00
    0.00000E+00         0.00000E+00         0.12623E+08
 
    0.12671E+08         0.49205E+05         0.00000E+00
    0.49205E+05         0.29361E+08         0.00000E+00
    0.00000E+00         0.00000E+00         0.12609E+08
 
    0.12655E+08         0.56681E+05         0.00000E+00
    0.56681E+05         0.29332E+08         0.00000E+00
    0.00000E+00         0.00000E+00         0.12596E+08
 
    0.12640E+08         0.64000E+05         0.00000E+00
    0.64000E+05         0.29302E+08         0.00000E+00
    0.00000E+00         0.00000E+00         0.12582E+08
 
    0.12624E+08         0.71119E+05         0.00000E+00
    0.71119E+05         0.29271E+08         0.00000E+00
    0.00000E+00         0.00000E+00         0.12569E+08
 
    0.12609E+08         0.78018E+05         0.00000E+00
    0.78018E+05         0.29241E+08         0.00000E+00
    0.00000E+00         0.00000E+00         0.12555E+08
 
    0.12593E+08         0.84690E+05         0.00000E+00
    0.84690E+05         0.29209E+08         0.00000E+00
    0.00000E+00         0.00000E+00         0.12541E+08
 
    0.12578E+08         0.91142E+05         0.00000E+00
    0.91142E+05         0.29178E+08         0.00000E+00
    0.00000E+00         0.00000E+00         0.12527E+08
 
    0.12563E+08         0.97387E+05         0.00000E+00
    0.97387E+05         0.29145E+08         0.00000E+00
    0.00000E+00         0.00000E+00         0.12513E+08
 
    0.12548E+08         0.10344E+06         0.00000E+00
    0.10344E+06         0.29113E+08         0.00000E+00
    0.00000E+00         0.00000E+00         0.12498E+08
 
    0.12533E+08         0.10933E+06         0.00000E+00
    0.10933E+06         0.29080E+08         0.00000E+00
    0.00000E+00         0.00000E+00         0.12484E+08
 
    0.12518E+08         0.11506E+06         0.00000E+00
    0.11506E+06         0.29046E+08         0.00000E+00
    0.00000E+00         0.00000E+00         0.12469E+08
 
    0.12503E+08         0.12068E+06         0.00000E+00
    0.12068E+06         0.29012E+08         0.00000E+00
    0.00000E+00         0.00000E+00         0.12454E+08
 
    0.12487E+08         0.12619E+06         0.00000E+00
    0.12619E+06         0.28977E+08         0.00000E+00
    0.00000E+00         0.00000E+00         0.12439E+08
 
    0.12472E+08         0.13162E+06         0.00000E+00
    0.13162E+06         0.28942E+08         0.00000E+00
    0.00000E+00         0.00000E+00         0.12424E+08
 
    0.12457E+08         0.13698E+06         0.00000E+00
    0.13698E+06         0.28906E+08         0.00000E+00
    0.00000E+00         0.00000E+00         0.12409E+08
 
    0.12441E+08         0.14231E+06         0.00000E+00
    0.14231E+06         0.28869E+08         0.00000E+00
    0.00000E+00         0.00000E+00         0.12393E+08
 
    0.12425E+08         0.14761E+06         0.00000E+00
    0.14761E+06         0.28831E+08         0.00000E+00
    0.00000E+00         0.00000E+00         0.12377E+08
 
    0.12409E+08         0.15290E+06         0.00000E+00
    0.15290E+06         0.28792E+08         0.00000E+00
    0.00000E+00         0.00000E+00         0.12361E+08
 
    0.12393E+08         0.15819E+06         0.00000E+00
    0.15819E+06         0.28753E+08         0.00000E+00
    0.00000E+00         0.00000E+00         0.12344E+08
 
    0.12376E+08         0.16351E+06         0.00000E+00
    0.16351E+06         0.28712E+08         0.00000E+00
    0.00000E+00         0.00000E+00         0.12327E+08
 
    0.12359E+08         0.16885E+06         0.00000E+00
    0.16885E+06         0.28671E+08         0.00000E+00
    0.00000E+00         0.00000E+00         0.12309E+08
 
    0.12342E+08         0.17424E+06         0.00000E+00
    0.17424E+06         0.28628E+08         0.00000E+00
    0.00000E+00         0.00000E+00         0.12291E+08
 
    0.12325E+08         0.17967E+06         0.00000E+00
    0.17967E+06         0.28585E+08         0.00000E+00
    0.00000E+00         0.00000E+00         0.12273E+08
 
    0.12307E+08         0.18517E+06         0.00000E+00
    0.18517E+06         0.28540E+08         0.00000E+00
    0.00000E+00         0.00000E+00         0.12254E+08
 
    0.12288E+08         0.19072E+06         0.00000E+00
    0.19072E+06         0.28493E+08         0.00000E+00
    0.00000E+00         0.00000E+00         0.12234E+08
 
    0.12269E+08         0.19636E+06         0.00000E+00
    0.19636E+06         0.28446E+08         0.00000E+00
    0.00000E+00         0.00000E+00         0.12214E+08
 
    0.12249E+08         0.20206E+06         0.00000E+00
    0.20206E+06         0.28397E+08         0.00000E+00
    0.00000E+00         0.00000E+00         0.12194E+08
 
    0.12229E+08         0.20785E+06         0.00000E+00
    0.20785E+06         0.28347E+08         0.00000E+00
    0.00000E+00         0.00000E+00         0.12173E+08
 
    0.12209E+08         0.21372E+06         0.00000E+00
    0.21372E+06         0.28295E+08         0.00000E+00
    0.00000E+00         0.00000E+00         0.12151E+08
 
    0.12187E+08         0.21968E+06         0.00000E+00
    0.21968E+06         0.28242E+08         0.00000E+00
    0.00000E+00         0.00000E+00         0.12129E+08
 
    0.12165E+08         0.22573E+06         0.00000E+00
    0.22573E+06         0.28187E+08         0.00000E+00
    0.00000E+00         0.00000E+00         0.12106E+08
 
    0.12143E+08         0.23187E+06         0.00000E+00
    0.23187E+06         0.28131E+08         0.00000E+00
    0.00000E+00         0.00000E+00         0.12082E+08
 
    0.12120E+08         0.23809E+06         0.00000E+00
    0.23809E+06         0.28073E+08         0.00000E+00
    0.00000E+00         0.00000E+00         0.12058E+08
 
    0.12095E+08         0.24441E+06         0.00000E+00
    0.24441E+06         0.28013E+08         0.00000E+00
    0.00000E+00         0.00000E+00         0.12033E+08
 
    0.12071E+08         0.25081E+06         0.00000E+00
    0.25081E+06         0.27952E+08         0.00000E+00
    0.00000E+00         0.00000E+00         0.12007E+08
 
    0.12045E+08         0.25730E+06         0.00000E+00
    0.25730E+06         0.27888E+08         0.00000E+00
    0.00000E+00         0.00000E+00         0.11980E+08
 
    0.12018E+08         0.26387E+06         0.00000E+00
    0.26387E+06         0.27823E+08         0.00000E+00
    0.00000E+00         0.00000E+00         0.11952E+08
 
    0.11991E+08         0.27051E+06         0.00000E+00
    0.27051E+06         0.27756E+08         0.00000E+00
    0.00000E+00         0.00000E+00         0.11924E+08
 
    0.11963E+08         0.27723E+06         0.00000E+00
    0.27723E+06         0.27687E+08         0.00000E+00
    0.00000E+00         0.00000E+00         0.11895E+08
 
    0.11933E+08         0.28402E+06         0.00000E+00
    0.28402E+06         0.27615E+08         0.00000E+00
    0.00000E+00         0.00000E+00         0.11865E+08
 
    0.11903E+08         0.29087E+06         0.00000E+00
    0.29087E+06         0.27542E+08         0.00000E+00
    0.00000E+00         0.00000E+00         0.11834E+08
 
    0.11872E+08         0.29777E+06         0.00000E+00
    0.29777E+06         0.27467E+08         0.00000E+00
    0.00000E+00         0.00000E+00         0.11802E+08
 
    0.11840E+08         0.30471E+06         0.00000E+00
    0.30471E+06         0.27389E+08         0.00000E+00
    0.00000E+00         0.00000E+00         0.11769E+08
 
    0.11806E+08         0.31169E+06         0.00000E+00
    0.31169E+06         0.27309E+08         0.00000E+00
    0.00000E+00         0.00000E+00         0.11735E+08
 
    0.11772E+08         0.31870E+06         0.00000E+00
    0.31870E+06         0.27227E+08         0.00000E+00
    0.00000E+00         0.00000E+00         0.11700E+08
 
    0.11736E+08         0.32571E+06         0.00000E+00
    0.32571E+06         0.27142E+08         0.00000E+00
    0.00000E+00         0.00000E+00         0.11663E+08
 
    0.11699E+08         0.33272E+06         0.00000E+00
    0.33272E+06         0.27055E+08         0.00000E+00
    0.00000E+00         0.00000E+00         0.11626E+08
 
    0.11661E+08         0.33972E+06         0.00000E+00
    0.33972E+06         0.26965E+08         0.00000E+00
    0.00000E+00         0.00000E+00         0.11588E+08
 
    0.11621E+08         0.34668E+06         0.00000E+00
    0.34668E+06         0.26873E+08         0.00000E+00
    0.00000E+00         0.00000E+00         0.11548E+08
 
    0.11581E+08         0.35360E+06         0.00000E+00
    0.35360E+06         0.26779E+08         0.00000E+00
    0.00000E+00         0.00000E+00         0.11508E+08
 
    0.11539E+08         0.36044E+06         0.00000E+00
    0.36044E+06         0.26681E+08         0.00000E+00
    0.00000E+00         0.00000E+00         0.11466E+08
 
    0.11495E+08         0.36720E+06         0.00000E+00
    0.36720E+06         0.26581E+08         0.00000E+00
    0.00000E+00         0.00000E+00         0.11423E+08
 
    0.11450E+08         0.37384E+06         0.00000E+00
    0.37384E+06         0.26479E+08         0.00000E+00
    0.00000E+00         0.00000E+00         0.11379E+08
 
    0.11403E+08         0.38034E+06         0.00000E+00
    0.38034E+06         0.26373E+08         0.00000E+00
    0.00000E+00         0.00000E+00         0.11333E+08
 
    0.11355E+08         0.38668E+06         0.00000E+00
    0.38668E+06         0.26265E+08         0.00000E+00
    0.00000E+00         0.00000E+00         0.11286E+08
 
    0.11306E+08         0.39282E+06         0.00000E+00
    0.39282E+06         0.26154E+08         0.00000E+00
    0.00000E+00         0.00000E+00         0.11238E+08
 
    0.11254E+08         0.39874E+06         0.00000E+00
    0.39874E+06         0.26040E+08         0.00000E+00
    0.00000E+00         0.00000E+00         0.11188E+08
 
    0.11201E+08         0.40439E+06         0.00000E+00
    0.40439E+06         0.25922E+08         0.00000E+00
    0.00000E+00         0.00000E+00         0.11137E+08
 
    0.11147E+08         0.40975E+06         0.00000E+00
    0.40975E+06         0.25802E+08         0.00000E+00
    0.00000E+00         0.00000E+00         0.11085E+08
 
    0.11090E+08         0.41478E+06         0.00000E+00
    0.41478E+06         0.25679E+08         0.00000E+00
    0.00000E+00         0.00000E+00         0.11031E+08
 
    0.11032E+08         0.41942E+06         0.00000E+00
    0.41942E+06         0.25553E+08         0.00000E+00
    0.00000E+00         0.00000E+00         0.10975E+08
 
    0.10971E+08         0.42363E+06         0.00000E+00
    0.42363E+06         0.25424E+08         0.00000E+00
    0.00000E+00         0.00000E+00         0.10919E+08
 
    0.10909E+08         0.42736E+06         0.00000E+00
    0.42736E+06         0.25292E+08         0.00000E+00
    0.00000E+00         0.00000E+00         0.10860E+08
 
    0.10845E+08         0.43056E+06         0.00000E+00
    0.43056E+06         0.25156E+08         0.00000E+00
    0.00000E+00         0.00000E+00         0.10800E+08
 
    0.10778E+08         0.43316E+06         0.00000E+00
    0.43316E+06         0.25018E+08         0.00000E+00
    0.00000E+00         0.00000E+00         0.10739E+08
 
    0.10710E+08         0.43509E+06         0.00000E+00
    0.43509E+06         0.24876E+08         0.00000E+00
    0.00000E+00         0.00000E+00         0.10676E+08
 
    0.10639E+08         0.43630E+06         0.00000E+00
    0.43630E+06         0.24731E+08         0.00000E+00
    0.00000E+00         0.00000E+00         0.10611E+08
 
    0.10566E+08         0.43669E+06         0.00000E+00
    0.43669E+06         0.24583E+08         0.00000E+00
    0.00000E+00         0.00000E+00         0.10545E+08
 
    0.10491E+08         0.43618E+06         0.00000E+00
    0.43618E+06         0.24431E+08         0.00000E+00
    0.00000E+00         0.00000E+00         0.10477E+08
 
    0.10413E+08         0.43469E+06         0.00000E+00
    0.43469E+06         0.24277E+08         0.00000E+00
    0.00000E+00         0.00000E+00         0.10407E+08
 
    0.10333E+08         0.43211E+06         0.00000E+00
    0.43211E+06         0.24119E+08         0.00000E+00
    0.00000E+00         0.00000E+00         0.10335E+08
 
    0.10250E+08         0.42834E+06         0.00000E+00
    0.42834E+06         0.23957E+08         0.00000E+00
    0.00000E+00         0.00000E+00         0.10262E+08
 
    0.10165E+08         0.42327E+06         0.00000E+00
    0.42327E+06         0.23792E+08         0.00000E+00
    0.00000E+00         0.00000E+00         0.10187E+08
 
    0.10077E+08         0.41677E+06         0.00000E+00
    0.41677E+06         0.23624E+08         0.00000E+00
    0.00000E+00         0.00000E+00         0.10110E+08
 
    0.99862E+07         0.40872E+06         0.00000E+00
    0.40872E+06         0.23453E+08         0.00000E+00
    0.00000E+00         0.00000E+00         0.10032E+08
 
    0.98931E+07         0.39899E+06         0.00000E+00
    0.39899E+06         0.23278E+08         0.00000E+00
    0.00000E+00         0.00000E+00         0.99514E+07
 
    0.97973E+07         0.38745E+06         0.00000E+00
    0.38745E+06         0.23100E+08         0.00000E+00
    0.00000E+00         0.00000E+00         0.98693E+07
 
    0.96990E+07         0.37396E+06         0.00000E+00
    0.37396E+06         0.22919E+08         0.00000E+00
    0.00000E+00         0.00000E+00         0.97855E+07
 
    0.95981E+07         0.35842E+06         0.00000E+00
    0.35842E+06         0.22735E+08         0.00000E+00
    0.00000E+00         0.00000E+00         0.96999E+07
 
    0.94948E+07         0.34070E+06         0.00000E+00
    0.34070E+06         0.22548E+08         0.00000E+00
    0.00000E+00         0.00000E+00         0.96128E+07
 
    0.93892E+07         0.32073E+06         0.00000E+00
    0.32073E+06         0.22358E+08         0.00000E+00
    0.00000E+00         0.00000E+00         0.95242E+07
 
    0.92813E+07         0.29846E+06         0.00000E+00
    0.29846E+06         0.22166E+08         0.00000E+00
    0.00000E+00         0.00000E+00         0.94343E+07
 
    0.91713E+07         0.27390E+06         0.00000E+00
    0.27390E+06         0.21973E+08         0.00000E+00
    0.00000E+00         0.00000E+00         0.93433E+07
 
    0.90593E+07         0.24716E+06         0.00000E+00
    0.24716E+06         0.21779E+08         0.00000E+00
    0.00000E+00         0.00000E+00         0.92515E+07
 
    0.89450E+07         0.21845E+06         0.00000E+00
    0.21845E+06         0.21585E+08         0.00000E+00
    0.00000E+00         0.00000E+00         0.91591E+07
 
    0.88284E+07         0.18812E+06         0.00000E+00
    0.18812E+06         0.21394E+08         0.00000E+00
    0.00000E+00         0.00000E+00         0.90667E+07
 
    0.87089E+07         0.15674E+06         0.00000E+00
    0.15674E+06         0.21207E+08         0.00000E+00
    0.00000E+00         0.00000E+00         0.89747E+07
 
    0.85854E+07         0.12513E+06         0.00000E+00
    0.12513E+06         0.21026E+08         0.00000E+00
    0.00000E+00         0.00000E+00         0.88834E+07
 
    0.84564E+07         0.94405E+05         0.00000E+00
    0.94405E+05         0.20855E+08         0.00000E+00
    0.00000E+00         0.00000E+00         0.87934E+07
 
    0.83193E+07         0.65978E+05         0.00000E+00
    0.65978E+05         0.20698E+08         0.00000E+00
    0.00000E+00         0.00000E+00         0.87051E+07
 
    0.81713E+07         0.41410E+05         0.00000E+00
    0.41410E+05         0.20557E+08         0.00000E+00
    0.00000E+00         0.00000E+00         0.86185E+07
 
    0.80096E+07         0.21789E+05         0.00000E+00
    0.21789E+05         0.20435E+08         0.00000E+00
    0.00000E+00         0.00000E+00         0.85335E+07
 
    0.78323E+07         0.66454E+04         0.00000E+00
    0.66454E+04         0.20333E+08         0.00000E+00
    0.00000E+00         0.00000E+00         0.84496E+07
 
    0.12814E+08         0.21626E+04         0.00000E+00
    0.21626E+04         0.29514E+08         0.00000E+00
    0.00000E+00         0.00000E+00         0.12699E+08
 
    0.12789E+08         0.67586E+04         0.00000E+00
    0.67586E+04         0.29500E+08         0.00000E+00
    0.00000E+00         0.00000E+00         0.12687E+08
 
    0.12766E+08         0.12032E+05         0.00000E+00
    0.12032E+05         0.29482E+08         0.00000E+00
    0.00000E+00         0.00000E+00         0.12675E+08
 
    0.12746E+08         0.18089E+05         0.00000E+00
    0.18089E+05         0.29462E+08         0.00000E+00
    0.00000E+00         0.00000E+00         0.12662E+08
 
    0.12727E+08         0.24801E+05         0.00000E+00
    0.24801E+05         0.29439E+08         0.00000E+00
    0.00000E+00         0.00000E+00         0.12650E+08
 
    0.12709E+08         0.31948E+05         0.00000E+00
    0.31948E+05         0.29414E+08         0.00000E+00
    0.00000E+00         0.00000E+00         0.12637E+08
 
    0.12692E+08         0.39318E+05         0.00000E+00
    0.39318E+05         0.29387E+08         0.00000E+00
    0.00000E+00         0.00000E+00         0.12624E+08
 
    0.12675E+08         0.46744E+05         0.00000E+00
    0.46744E+05         0.29359E+08         0.00000E+00
    0.00000E+00         0.00000E+00         0.12610E+08
 
    0.12659E+08         0.54104E+05         0.00000E+00
    0.54104E+05         0.29330E+08         0.00000E+00
    0.00000E+00         0.00000E+00         0.12597E+08
 
    0.12643E+08         0.61316E+05         0.00000E+00
    0.61316E+05         0.29300E+08         0.00000E+00
    0.00000E+00         0.00000E+00         0.12583E+08
 
    0.12628E+08         0.68331E+05         0.00000E+00
    0.68331E+05         0.29270E+08         0.00000E+00
    0.00000E+00         0.00000E+00         0.12569E+08
 
    0.12612E+08         0.75125E+05         0.00000E+00
    0.75125E+05         0.29239E+08         0.00000E+00
    0.00000E+00         0.00000E+00         0.12555E+08
 
    0.12597E+08         0.81690E+05         0.00000E+00
    0.81690E+05         0.29208E+08         0.00000E+00
    0.00000E+00         0.00000E+00         0.12541E+08
 
    0.12582E+08         0.88030E+05         0.00000E+00
    0.88030E+05         0.29176E+08         0.00000E+00
    0.00000E+00         0.00000E+00         0.12527E+08
 
    0.12566E+08         0.94157E+05         0.00000E+00
    0.94157E+05         0.29144E+08         0.00000E+00
    0.00000E+00         0.00000E+00         0.12513E+08
 
    0.12551E+08         0.10009E+06         0.00000E+00
    0.10009E+06         0.29112E+08         0.00000E+00
    0.00000E+00         0.00000E+00         0.12499E+08
 
    0.12536E+08         0.10585E+06         0.00000E+00
    0.10585E+06         0.29079E+08         0.00000E+00
    0.00000E+00         0.00000E+00         0.12484E+08
 
    0.12521E+08         0.11146E+06         0.00000E+00
    0.11146E+06         0.29045E+08         0.00000E+00
    0.00000E+00         0.00000E+00         0.12470E+08
 
    0.12506E+08         0.11694E+06         0.00000E+00
    0.11694E+06         0.29011E+08         0.00000E+00
    0.00000E+00         0.00000E+00         0.12455E+08
 
    0.12490E+08         0.12232E+06         0.00000E+00
    0.12232E+06         0.28976E+08         0.00000E+00
    0.00000E+00         0.00000E+00         0.12440E+08
 
    0.12475E+08         0.12761E+06         0.00000E+00
    0.12761E+06         0.28941E+08         0.00000E+00
    0.00000E+00         0.00000E+00         0.12425E+08
 
    0.12460E+08         0.13284E+06         0.00000E+00
    0.13284E+06         0.28905E+08         0.00000E+00
    0.00000E+00         0.00000E+00         0.12409E+08
 
    0.12444E+08         0.13802E+06         0.00000E+00
    0.13802E+06         0.28868E+08         0.00000E+00
    0.00000E+00         0.00000E+00         0.12394E+08
 
    0.12428E+08         0.14318E+06         0.00000E+00
    0.14318E+06         0.28830E+08         0.00000E+00
    0.00000E+00         0.00000E+00         0.12377E+08
 
    0.12412E+08         0.14832E+06         0.00000E+00
    0.14832E+06         0.28791E+08         0.00000E+00
    0.00000E+00         0.00000E+00         0.12361E+08
 
    0.12396E+08         0.15347E+06         0.00000E+00
    0.15347E+06         0.28752E+08         0.00000E+00
    0.00000E+00         0.00000E+00         0.12344E+08
 
    0.12380E+08         0.15864E+06         0.00000E+00
    0.15864E+06         0.28711E+08         0.00000E+00
    0.00000E+00         0.00000E+00         0.12327E+08
 
    0.12363E+08         0.16383E+06         0.00000E+00
    0.16383E+06         0.28670E+08         0.00000E+00
    0.00000E+00         0.00000E+00         0.12310E+08
 
    0.12345E+08         0.16906E+06         0.00000E+00
    0.16906E+06         0.28627E+08         0.00000E+00
    0.00000E+00         0.00000E+00         0.12292E+08
 
    0.12328E+08         0.17434E+06         0.00000E+00
    0.17434E+06         0.28583E+08         0.00000E+00
    0.00000E+00         0.00000E+00         0.12273E+08
 
    0.12310E+08         0.17967E+06         0.00000E+00
    0.17967E+06         0.28539E+08         0.00000E+00
    0.00000E+00         0.00000E+00         0.12255E+08
 
    0.12291E+08         0.18506E+06         0.00000E+00
    0.18506E+06         0.28492E+08         0.00000E+00
    0.00000E+00         0.00000E+00         0.12235E+08
 
    0.12272E+08         0.19053E+06         0.00000E+00
    0.19053E+06         0.28445E+08         0.00000E+00
    0.00000E+00         0.00000E+00         0.12215E+08
 
    0.12253E+08         0.19606E+06         0.00000E+00
    0.19606E+06         0.28396E+08         0.00000E+00
    0.00000E+00         0.00000E+00         0.12195E+08
 
    0.12233E+08         0.20168E+06         0.00000E+00
    0.20168E+06         0.28346E+08         0.00000E+00
    0.00000E+00         0.00000E+00         0.12174E+08
 
    0.12212E+08         0.20737E+06         0.00000E+00
    0.20737E+06         0.28294E+08         0.00000E+00
    0.00000E+00         0.00000E+00         0.12152E+08
 
    0.12191E+08         0.21315E+06         0.00000E+00
    0.21315E+06         0.28241E+08         0.00000E+00
    0.00000E+00         0.00000E+00         0.12130E+08
 
    0.12169E+08         0.21901E+06         0.00000E+00
    0.21901E+06         0.28186E+08         0.00000E+00
    0.00000E+00         0.00000E+00         0.12107E+08
 
    0.12147E+08         0.22496E+06         0.00000E+00
    0.22496E+06         0.28130E+08         0.00000E+00
    0.00000E+00         0.00000E+00         0.12083E+08
 
    0.12124E+08         0.23100E+06         0.00000E+00
    0.23100E+06         0.28072E+08         0.00000E+00
    0.00000E+00         0.00000E+00         0.12059E+08
 
    0.12100E+08         0.23712E+06         0.00000E+00
    0.23712E+06         0.28012E+08         0.00000E+00
    0.00000E+00         0.00000E+00         0.12033E+08
 
    0.12075E+08         0.24332E+06         0.00000E+00
    0.24332E+06         0.27950E+08         0.00000E+00
    0.00000E+00         0.00000E+00         0.12008E+08
 
    0.12049E+08         0.24960E+06         0.00000E+00
    0.24960E+06         0.27887E+08         0.00000E+00
    0.00000E+00         0.00000E+00         0.11981E+08
 
    0.12023E+08         0.25597E+06         0.00000E+00
    0.25597E+06         0.27822E+08         0.00000E+00
    0.00000E+00         0.00000E+00         0.11953E+08
 
    0.11995E+08         0.26240E+06         0.00000E+00
    0.26240E+06         0.27755E+08         0.00000E+00
    0.00000E+00         0.00000E+00         0.11925E+08
 
    0.11967E+08         0.26891E+06         0.00000E+00
    0.26891E+06         0.27685E+08         0.00000E+00
    0.00000E+00         0.00000E+00         0.11896E+08
 
    0.11938E+08         0.27548E+06         0.00000E+00
    0.27548E+06         0.27614E+08         0.00000E+00
    0.00000E+00         0.00000E+00         0.11866E+08
 
    0.11908E+08         0.28211E+06         0.00000E+00
    0.28211E+06         0.27541E+08         0.00000E+00
    0.00000E+00         0.00000E+00         0.11835E+08
 
    0.11877E+08         0.28879E+06         0.00000E+00
    0.28879E+06         0.27465E+08         0.00000E+00
    0.00000E+00         0.00000E+00         0.11803E+08
 
    0.11844E+08         0.29551E+06         0.00000E+00
    0.29551E+06         0.27388E+08         0.00000E+00
    0.00000E+00         0.00000E+00         0.11770E+08
 
    0.11811E+08         0.30226E+06         0.00000E+00
    0.30226E+06         0.27308E+08         0.00000E+00
    0.00000E+00         0.00000E+00         0.11736E+08
 
    0.11776E+08         0.30903E+06         0.00000E+00
    0.30903E+06         0.27225E+08         0.00000E+00
    0.00000E+00         0.00000E+00         0.11701E+08
 
    0.11741E+08         0.31581E+06         0.00000E+00
    0.31581E+06         0.27141E+08         0.00000E+00
    0.00000E+00         0.00000E+00         0.11664E+08
 
    0.11704E+08         0.32259E+06         0.00000E+00
    0.32259E+06         0.27054E+08         0.00000E+00
    0.00000E+00         0.00000E+00         0.11627E+08
 
    0.11666E+08         0.32935E+06         0.00000E+00
    0.32935E+06         0.26964E+08         0.00000E+00
    0.00000E+00         0.00000E+00         0.11589E+08
 
    0.11626E+08         0.33608E+06         0.00000E+00
    0.33608E+06         0.26872E+08         0.00000E+00
    0.00000E+00         0.00000E+00         0.11549E+08
 
    0.11585E+08         0.34275E+06         0.00000E+00
    0.34275E+06         0.26777E+08         0.00000E+00
    0.00000E+00         0.00000E+00         0.11509E+08
 
    0.11543E+08         0.34936E+06         0.00000E+00
    0.34936E+06         0.26680E+08         0.00000E+00
    0.00000E+00         0.00000E+00         0.11467E+08
 
    0.11500E+08         0.35587E+06         0.00000E+00
    0.35587E+06         0.26580E+08         0.00000E+00
    0.00000E+00         0.00000E+00         0.11424E+08
 
    0.11455E+08         0.36228E+06         0.00000E+00
    0.36228E+06         0.26477E+08         0.00000E+00
    0.00000E+00         0.00000E+00         0.11380E+08
 
    0.11408E+08         0.36855E+06         0.00000E+00
    0.36855E+06         0.26372E+08         0.00000E+00
    0.00000E+00         0.00000E+00         0.11334E+08
 
    0.11360E+08         0.37465E+06         0.00000E+00
    0.37465E+06         0.26264E+08         0.00000E+00
    0.00000E+00         0.00000E+00         0.11287E+08
 
    0.11310E+08         0.38056E+06         0.00000E+00
    0.38056E+06         0.26152E+08         0.00000E+00
    0.00000E+00         0.00000E+00         0.11239E+08
 
    0.11259E+08         0.38625E+06         0.00000E+00
    0.38625E+06         0.26038E+08         0.00000E+00
    0.00000E+00         0.00000E+00         0.11189E+08
 
    0.11206E+08         0.39169E+06         0.00000E+00
    0.39169E+06         0.25921E+08         0.00000E+00
    0.00000E+00         0.00000E+00         0.11138E+08
 
    0.11151E+08         0.39683E+06         0.00000E+00
    0.39683E+06         0.25801E+08         0.00000E+00
    0.00000E+00         0.00000E+00         0.11086E+08
 
    0.11094E+08         0.40165E+06         0.00000E+00
    0.40165E+06         0.25678E+08         0.00000E+00
    0.00000E+00         0.00000E+00         0.11032E+08
 
    0.11036E+08         0.40609E+06         0.00000E+00
    0.40609E+06         0.25552E+08         0.00000E+00
    0.00000E+00         0.00000E+00         0.10976E+08
 
    0.10975E+08         0.41010E+06         0.00000E+00
    0.41010E+06         0.25423E+08         0.00000E+00
    0.00000E+00         0.00000E+00         0.10920E+08
 
    0.10913E+08         0.41365E+06         0.00000E+00
    0.41365E+06         0.25291E+08         0.00000E+00
    0.00000E+00         0.00000E+00         0.10861E+08
 
    0.10848E+08         0.41668E+06         0.00000E+00
    0.41668E+06         0.25156E+08         0.00000E+00
    0.00000E+00         0.00000E+00         0.10801E+08
 
    0.10781E+08         0.41912E+06         0.00000E+00
    0.41912E+06         0.25017E+08         0.00000E+00
    0.00000E+00         0.00000E+00         0.10740E+08
 
    0.10712E+08         0.42091E+06         0.00000E+00
    0.42091E+06         0.24876E+08         0.00000E+00
    0.00000E+00         0.00000E+00         0.10676E+08
 
    0.10641E+08         0.42198E+06         0.00000E+00
    0.42198E+06         0.24731E+08         0.00000E+00
    0.00000E+00         0.00000E+00         0.10612E+08
 
    0.10568E+08         0.42225E+06         0.00000E+00
    0.42225E+06         0.24583E+08         0.00000E+00
    0.00000E+00         0.00000E+00         0.10545E+08
 
    0.10492E+08         0.42165E+06         0.00000E+00
    0.42165E+06         0.24432E+08         0.00000E+00
    0.00000E+00         0.00000E+00         0.10477E+08
 
    0.10414E+08         0.42007E+06         0.00000E+00
    0.42007E+06         0.24277E+08         0.00000E+00
    0.00000E+00         0.00000E+00         0.10407E+08
 
    0.10333E+08         0.41743E+06         0.00000E+00
    0.41743E+06         0.24119E+08         0.00000E+00
    0.00000E+00         0.00000E+00         0.10336E+08
 
    0.10250E+08         0.41361E+06         0.00000E+00
    0.41361E+06         0.23958E+08         0.00000E+00
    0.00000E+00         0.00000E+00         0.10262E+08
 
    0.10164E+08         0.40851E+06         0.00000E+00
    0.40851E+06         0.23794E+08         0.00000E+00
    0.00000E+00         0.00000E+00         0.10187E+08
 
    0.10075E+08         0.40200E+06         0.00000E+00
    0.40200E+06         0.23626E+08         0.00000E+00
    0.00000E+00         0.00000E+00         0.10110E+08
 
    0.99838E+07         0.39396E+06         0.00000E+00
    0.39396E+06         0.23455E+08         0.00000E+00
    0.00000E+00         0.00000E+00         0.10032E+08
 
    0.98898E+07         0.38425E+06         0.00000E+00
    0.38425E+06         0.23280E+08         0.00000E+00
    0.00000E+00         0.00000E+00         0.99511E+07
 
    0.97931E+07         0.37274E+06         0.00000E+00
    0.37274E+06         0.23103E+08         0.00000E+00
    0.00000E+00         0.00000E+00         0.98688E+07
 
    0.96937E+07         0.35930E+06         0.00000E+00
    0.35930E+06         0.22922E+08         0.00000E+00
    0.00000E+00         0.00000E+00         0.97848E+07
 
    0.95917E+07         0.34380E+06         0.00000E+00
    0.34380E+06         0.22738E+08         0.00000E+00
    0.00000E+00         0.00000E+00         0.96990E+07
 
    0.94872E+07         0.32613E+06         0.00000E+00
    0.32613E+06         0.22552E+08         0.00000E+00
    0.00000E+00         0.00000E+00         0.96116E+07
 
    0.93801E+07         0.30621E+06         0.00000E+00
    0.30621E+06         0.22362E+08         0.00000E+00
    0.00000E+00         0.00000E+00         0.95228E+07
 
    0.92708E+07         0.28400E+06         0.00000E+00
    0.28400E+06         0.22171E+08         0.00000E+00
    0.00000E+00         0.00000E+00         0.94325E+07
 
    0.91591E+07         0.25951E+06         0.00000E+00
    0.25951E+06         0.21978E+08         0.00000E+00
    0.00000E+00         0.00000E+00         0.93412E+07
 
    0.90452E+07         0.23286E+06         0.00000E+00
    0.23286E+06         0.21785E+08         0.00000E+00
    0.00000E+00         0.00000E+00         0.92489E+07
 
    0.89289E+07         0.20429E+06         0.00000E+00
    0.20429E+06         0.21591E+08         0.00000E+00
    0.00000E+00         0.00000E+00         0.91561E+07
 
    0.88102E+07         0.17421E+06         0.00000E+00
    0.17421E+06         0.21400E+08         0.00000E+00
    0.00000E+00         0.00000E+00         0.90631E+07
 
    0.86884E+07         0.14326E+06         0.00000E+00
    0.14326E+06         0.21213E+08         0.00000E+00
    0.00000E+00         0.00000E+00         0.89704E+07
 
    0.85625E+07         0.11237E+06         0.00000E+00
    0.11237E+06         0.21032E+08         0.00000E+00
    0.00000E+00         0.00000E+00         0.88784E+07
 
    0.84311E+07         0.82792E+05         0.00000E+00
    0.82792E+05         0.20861E+08         0.00000E+00
    0.00000E+00         0.00000E+00         0.87876E+07
 
    0.82918E+07         0.56085E+05         0.00000E+00
    0.56085E+05         0.20703E+08         0.00000E+00
    0.00000E+00         0.00000E+00         0.86984E+07
 
    0.81420E+07         0.33858E+05         0.00000E+00
    0.33858E+05         0.20561E+08         0.00000E+00
    0.00000E+00         0.00000E+00         0.86110E+07
 
    0.79791E+07         0.17081E+05         0.00000E+00
    0.17081E+05         0.20438E+08         0.00000E+00
    0.00000E+00         0.00000E+00         0.85252E+07
 
    0.78012E+07         0.50520E+04         0.00000E+00
    0.50520E+04         0.20335E+08         0.00000E+00
    0.00000E+00         0.00000E+00         0.84410E+07
 
    0.12820E+08         0.19148E+04         0.00000E+00
    0.19148E+04         0.29514E+08         0.00000E+00
    0.00000E+00         0.00000E+00         0.12700E+08
 
    0.12795E+08         0.60261E+04         0.00000E+00
    0.60261E+04         0.29499E+08         0.00000E+00
    0.00000E+00         0.00000E+00         0.12688E+08
 
    0.12772E+08         0.10852E+05         0.00000E+00
    0.10852E+05         0.29481E+08         0.00000E+00
    0.00000E+00         0.00000E+00         0.12676E+08
 
    0.12751E+08         0.16528E+05         0.00000E+00
    0.16528E+05         0.29460E+08         0.00000E+00
    0.00000E+00         0.00000E+00         0.12664E+08
 
    0.12732E+08         0.22938E+05         0.00000E+00
    0.22938E+05         0.29437E+08         0.00000E+00
    0.00000E+00         0.00000E+00         0.12651E+08
 
    0.12714E+08         0.29856E+05         0.00000E+00
    0.29856E+05         0.29412E+08         0.00000E+00
    0.00000E+00         0.00000E+00         0.12638E+08
 
    0.12697E+08         0.37050E+05         0.00000E+00
    0.37050E+05         0.29386E+08         0.00000E+00
    0.00000E+00         0.00000E+00         0.12625E+08
 
    0.12680E+08         0.44335E+05         0.00000E+00
    0.44335E+05         0.29358E+08         0.00000E+00
    0.00000E+00         0.00000E+00         0.12611E+08
 
    0.12663E+08         0.51572E+05         0.00000E+00
    0.51572E+05         0.29329E+08         0.00000E+00
    0.00000E+00         0.00000E+00         0.12598E+08
 
    0.12647E+08         0.58672E+05         0.00000E+00
    0.58672E+05         0.29299E+08         0.00000E+00
    0.00000E+00         0.00000E+00         0.12584E+08
 
    0.12632E+08         0.65578E+05         0.00000E+00
    0.65578E+05         0.29269E+08         0.00000E+00
    0.00000E+00         0.00000E+00         0.12570E+08
 
    0.12616E+08         0.72262E+05         0.00000E+00
    0.72262E+05         0.29238E+08         0.00000E+00
    0.00000E+00         0.00000E+00         0.12556E+08
 
    0.12600E+08         0.78714E+05         0.00000E+00
    0.78714E+05         0.29207E+08         0.00000E+00
    0.00000E+00         0.00000E+00         0.12542E+08
 
    0.12585E+08         0.84937E+05         0.00000E+00
    0.84937E+05         0.29175E+08         0.00000E+00
    0.00000E+00         0.00000E+00         0.12528E+08
 
    0.12570E+08         0.90944E+05         0.00000E+00
    0.90944E+05         0.29143E+08         0.00000E+00
    0.00000E+00         0.00000E+00         0.12514E+08
 
    0.12554E+08         0.96753E+05         0.00000E+00
    0.96753E+05         0.29110E+08         0.00000E+00
    0.00000E+00         0.00000E+00         0.12499E+08
 
    0.12539E+08         0.10239E+06         0.00000E+00
    0.10239E+06         0.29077E+08         0.00000E+00
    0.00000E+00         0.00000E+00         0.12485E+08
 
    0.12524E+08         0.10786E+06         0.00000E+00
    0.10786E+06         0.29044E+08         0.00000E+00
    0.00000E+00         0.00000E+00         0.12470E+08
 
    0.12509E+08         0.11321E+06         0.00000E+00
    0.11321E+06         0.29010E+08         0.00000E+00
    0.00000E+00         0.00000E+00         0.12456E+08
 
    0.12493E+08         0.11845E+06         0.00000E+00
    0.11845E+06         0.28975E+08         0.00000E+00
    0.00000E+00         0.00000E+00         0.12441E+08
 
    0.12478E+08         0.12360E+06         0.00000E+00
    0.12360E+06         0.28940E+08         0.00000E+00
    0.00000E+00         0.00000E+00         0.12425E+08
 
    0.12463E+08         0.12869E+06         0.00000E+00
    0.12869E+06         0.28904E+08         0.00000E+00
    0.00000E+00         0.00000E+00         0.12410E+08
 
    0.12447E+08         0.13373E+06         0.00000E+00
    0.13373E+06         0.28867E+08         0.00000E+00
    0.00000E+00         0.00000E+00         0.12394E+08
 
    0.12431E+08         0.13874E+06         0.00000E+00
    0.13874E+06         0.28829E+08         0.00000E+00
    0.00000E+00         0.00000E+00         0.12378E+08
 
    0.12415E+08         0.14374E+06         0.00000E+00
    0.14374E+06         0.28790E+08         0.00000E+00
    0.00000E+00         0.00000E+00         0.12362E+08
 
    0.12399E+08         0.14874E+06         0.00000E+00
    0.14874E+06         0.28751E+08         0.00000E+00
    0.00000E+00         0.00000E+00         0.12345E+08
 
    0.12383E+08         0.15376E+06         0.00000E+00
    0.15376E+06         0.28710E+08         0.00000E+00
    0.00000E+00         0.00000E+00         0.12328E+08
 
    0.12366E+08         0.15879E+06         0.00000E+00
    0.15879E+06         0.28669E+08         0.00000E+00
    0.00000E+00         0.00000E+00         0.12310E+08
 
    0.12349E+08         0.16387E+06         0.00000E+00
    0.16387E+06         0.28626E+08         0.00000E+00
    0.00000E+00         0.00000E+00         0.12292E+08
 
    0.12331E+08         0.16899E+06         0.00000E+00
    0.16899E+06         0.28582E+08         0.00000E+00
    0.00000E+00         0.00000E+00         0.12274E+08
 
    0.12313E+08         0.17416E+06         0.00000E+00
    0.17416E+06         0.28537E+08         0.00000E+00
    0.00000E+00         0.00000E+00         0.12255E+08
 
    0.12295E+08         0.17939E+06         0.00000E+00
    0.17939E+06         0.28491E+08         0.00000E+00
    0.00000E+00         0.00000E+00         0.12236E+08
 
    0.12276E+08         0.18469E+06         0.00000E+00
    0.18469E+06         0.28444E+08         0.00000E+00
    0.00000E+00         0.00000E+00         0.12216E+08
 
    0.12257E+08         0.19005E+06         0.00000E+00
    0.19005E+06         0.28395E+08         0.00000E+00
    0.00000E+00         0.00000E+00         0.12195E+08
 
    0.12237E+08         0.19549E+06         0.00000E+00
    0.19549E+06         0.28345E+08         0.00000E+00
    0.00000E+00         0.00000E+00         0.12174E+08
 
    0.12216E+08         0.20101E+06         0.00000E+00
    0.20101E+06         0.28293E+08         0.00000E+00
    0.00000E+00         0.00000E+00         0.12153E+08
 
    0.12195E+08         0.20661E+06         0.00000E+00
    0.20661E+06         0.28240E+08         0.00000E+00
    0.00000E+00         0.00000E+00         0.12130E+08
 
    0.12173E+08         0.21228E+06         0.00000E+00
    0.21228E+06         0.28185E+08         0.00000E+00
    0.00000E+00         0.00000E+00         0.12107E+08
 
    0.12151E+08         0.21804E+06         0.00000E+00
    0.21804E+06         0.28128E+08         0.00000E+00
    0.00000E+00         0.00000E+00         0.12084E+08
 
    0.12128E+08         0.22389E+06         0.00000E+00
    0.22389E+06         0.28070E+08         0.00000E+00
    0.00000E+00         0.00000E+00         0.12059E+08
 
    0.12104E+08         0.22981E+06         0.00000E+00
    0.22981E+06         0.28011E+08         0.00000E+00
    0.00000E+00         0.00000E+00         0.12034E+08
 
    0.12079E+08         0.23582E+06         0.00000E+00
    0.23582E+06         0.27949E+08         0.00000E+00
    0.00000E+00         0.00000E+00         0.12008E+08
 
    0.12053E+08         0.24190E+06         0.00000E+00
    0.24190E+06         0.27886E+08         0.00000E+00
    0.00000E+00         0.00000E+00         0.11982E+08
 
    0.12027E+08         0.24805E+06         0.00000E+00
    0.24805E+06         0.27820E+08         0.00000E+00
    0.00000E+00         0.00000E+00         0.11954E+08
 
    0.12000E+08         0.25428E+06         0.00000E+00
    0.25428E+06         0.27753E+08         0.00000E+00
    0.00000E+00         0.00000E+00         0.11926E+08
 
    0.11972E+08         0.26057E+06         0.00000E+00
    0.26057E+06         0.27684E+08         0.00000E+00
    0.00000E+00         0.00000E+00         0.11897E+08
 
    0.11942E+08         0.26693E+06         0.00000E+00
    0.26693E+06         0.27613E+08         0.00000E+00
    0.00000E+00         0.00000E+00         0.11867E+08
 
    0.11912E+08         0.27334E+06         0.00000E+00
    0.27334E+06         0.27539E+08         0.00000E+00
    0.00000E+00         0.00000E+00         0.11836E+08
 
    0.11881E+08         0.27979E+06         0.00000E+00
    0.27979E+06         0.27464E+08         0.00000E+00
    0.00000E+00         0.00000E+00         0.11804E+08
 
    0.11849E+08         0.28629E+06         0.00000E+00
    0.28629E+06         0.27386E+08         0.00000E+00
    0.00000E+00         0.00000E+00         0.11771E+08
 
    0.11816E+08         0.29281E+06         0.00000E+00
    0.29281E+06         0.27306E+08         0.00000E+00
    0.00000E+00         0.00000E+00         0.11737E+08
 
    0.11781E+08         0.29935E+06         0.00000E+00
    0.29935E+06         0.27224E+08         0.00000E+00
    0.00000E+00         0.00000E+00         0.11702E+08
 
    0.11745E+08         0.30590E+06         0.00000E+00
    0.30590E+06         0.27139E+08         0.00000E+00
    0.00000E+00         0.00000E+00         0.11665E+08
 
    0.11709E+08         0.31245E+06         0.00000E+00
    0.31245E+06         0.27052E+08         0.00000E+00
    0.00000E+00         0.00000E+00         0.11628E+08
 
    0.11670E+08         0.31898E+06         0.00000E+00
    0.31898E+06         0.26963E+08         0.00000E+00
    0.00000E+00         0.00000E+00         0.11590E+08
 
    0.11631E+08         0.32547E+06         0.00000E+00
    0.32547E+06         0.26871E+08         0.00000E+00
    0.00000E+00         0.00000E+00         0.11551E+08
 
    0.11590E+08         0.33191E+06         0.00000E+00
    0.33191E+06         0.26776E+08         0.00000E+00
    0.00000E+00         0.00000E+00         0.11510E+08
 
    0.11548E+08         0.33828E+06         0.00000E+00
    0.33828E+06         0.26679E+08         0.00000E+00
    0.00000E+00         0.00000E+00         0.11468E+08
 
    0.11504E+08         0.34456E+06         0.00000E+00
    0.34456E+06         0.26579E+08         0.00000E+00
    0.00000E+00         0.00000E+00         0.11425E+08
 
    0.11459E+08         0.35073E+06         0.00000E+00
    0.35073E+06         0.26476E+08         0.00000E+00
    0.00000E+00         0.00000E+00         0.11381E+08
 
    0.11413E+08         0.35676E+06         0.00000E+00
    0.35676E+06         0.26371E+08         0.00000E+00
    0.00000E+00         0.00000E+00         0.11335E+08
 
    0.11365E+08         0.36264E+06         0.00000E+00
    0.36264E+06         0.26262E+08         0.00000E+00
    0.00000E+00         0.00000E+00         0.11288E+08
 
    0.11315E+08         0.36832E+06         0.00000E+00
    0.36832E+06         0.26151E+08         0.00000E+00
    0.00000E+00         0.00000E+00         0.11240E+08
 
    0.11263E+08         0.37379E+06         0.00000E+00
    0.37379E+06         0.26037E+08         0.00000E+00
    0.00000E+00         0.00000E+00         0.11190E+08
 
    0.11210E+08         0.37901E+06         0.00000E+00
    0.37901E+06         0.25920E+08         0.00000E+00
    0.00000E+00         0.00000E+00         0.11139E+08
 
    0.11155E+08         0.38394E+06         0.00000E+00
    0.38394E+06         0.25800E+08         0.00000E+00
    0.00000E+00         0.00000E+00         0.11087E+08
 
    0.11098E+08         0.38855E+06         0.00000E+00
    0.38855E+06         0.25678E+08         0.00000E+00
    0.00000E+00         0.00000E+00         0.11033E+08
 
    0.11039E+08         0.39279E+06         0.00000E+00
    0.39279E+06         0.25552E+08         0.00000E+00
    0.00000E+00         0.00000E+00         0.10977E+08
 
    0.10979E+08         0.39662E+06         0.00000E+00
    0.39662E+06         0.25423E+08         0.00000E+00
    0.00000E+00         0.00000E+00         0.10920E+08
 
    0.10916E+08         0.39999E+06         0.00000E+00
    0.39999E+06         0.25291E+08         0.00000E+00
    0.00000E+00         0.00000E+00         0.10862E+08
 
    0.10851E+08         0.40285E+06         0.00000E+00
    0.40285E+06         0.25155E+08         0.00000E+00
    0.00000E+00         0.00000E+00         0.10802E+08
 
    0.10784E+08         0.40514E+06         0.00000E+00
    0.40514E+06         0.25017E+08         0.00000E+00
    0.00000E+00         0.00000E+00         0.10740E+08
 
    0.10715E+08         0.40679E+06         0.00000E+00
    0.40679E+06         0.24876E+08         0.00000E+00
    0.00000E+00         0.00000E+00         0.10677E+08
 
    0.10644E+08         0.40773E+06         0.00000E+00
    0.40773E+06         0.24731E+08         0.00000E+00
    0.00000E+00         0.00000E+00         0.10612E+08
 
    0.10570E+08         0.40790E+06         0.00000E+00
    0.40790E+06         0.24583E+08         0.00000E+00
    0.00000E+00         0.00000E+00         0.10546E+08
 
    0.10493E+08         0.40720E+06         0.00000E+00
    0.40720E+06         0.24432E+08         0.00000E+00
    0.00000E+00         0.00000E+00         0.10478E+08
 
    0.10415E+08         0.40555E+06         0.00000E+00
    0.40555E+06         0.24277E+08         0.00000E+00
    0.00000E+00         0.00000E+00         0.10408E+08
 
    0.10333E+08         0.40286E+06         0.00000E+00
    0.40286E+06         0.24120E+08         0.00000E+00
    0.00000E+00         0.00000E+00         0.10336E+08
 
    0.10249E+08         0.39901E+06         0.00000E+00
    0.39901E+06         0.23959E+08         0.00000E+00
    0.00000E+00         0.00000E+00         0.10263E+08
 
    0.10163E+08         0.39389E+06         0.00000E+00
    0.39389E+06         0.23795E+08         0.00000E+00
    0.00000E+00         0.00000E+00         0.10187E+08
 
    0.10074E+08         0.38739E+06         0.00000E+00
    0.38739E+06         0.23627E+08         0.00000E+00
    0.00000E+00         0.00000E+00         0.10110E+08
 
    0.99815E+07         0.37936E+06         0.00000E+00
    0.37936E+06         0.23457E+08         0.00000E+00
    0.00000E+00         0.00000E+00         0.10031E+08
 
    0.98866E+07         0.36969E+06         0.00000E+00
    0.36969E+06         0.23283E+08         0.00000E+00
    0.00000E+00         0.00000E+00         0.99508E+07
 
    0.97890E+07         0.35823E+06         0.00000E+00
    0.35823E+06         0.23105E+08         0.00000E+00
    0.00000E+00         0.00000E+00         0.98683E+07
 
    0.96886E+07         0.34485E+06         0.00000E+00
    0.34485E+06         0.22925E+08         0.00000E+00
    0.00000E+00         0.00000E+00         0.97841E+07
 
    0.95854E+07         0.32942E+06         0.00000E+00
    0.32942E+06         0.22742E+08         0.00000E+00
    0.00000E+00         0.00000E+00         0.96981E+07
 
    0.94796E+07         0.31183E+06         0.00000E+00
    0.31183E+06         0.22555E+08         0.00000E+00
    0.00000E+00         0.00000E+00         0.96105E+07
 
    0.93712E+07         0.29198E+06         0.00000E+00
    0.29198E+06         0.22367E+08         0.00000E+00
    0.00000E+00         0.00000E+00         0.95213E+07
 
    0.92602E+07         0.26986E+06         0.00000E+00
    0.26986E+06         0.22176E+08         0.00000E+00
    0.00000E+00         0.00000E+00         0.94308E+07
 
    0.91468E+07         0.24547E+06         0.00000E+00
    0.24547E+06         0.21983E+08         0.00000E+00
    0.00000E+00         0.00000E+00         0.93390E+07
 
    0.90311E+07         0.21895E+06         0.00000E+00
    0.21895E+06         0.21790E+08         0.00000E+00
    0.00000E+00         0.00000E+00         0.92463E+07
 
    0.89128E+07         0.19056E+06         0.00000E+00
    0.19056E+06         0.21597E+08         0.00000E+00
    0.00000E+00         0.00000E+00         0.91530E+07
 
    0.87919E+07         0.16076E+06         0.00000E+00
    0.16076E+06         0.21406E+08         0.00000E+00
    0.00000E+00         0.00000E+00         0.90594E+07
 
    0.86678E+07         0.13025E+06         0.00000E+00
    0.13025E+06         0.21219E+08         0.00000E+00
    0.00000E+00         0.00000E+00         0.89660E+07
 
    0.85396E+07         0.10008E+06         0.00000E+00
    0.10008E+06         0.21038E+08         0.00000E+00
    0.00000E+00         0.00000E+00         0.88733E+07
 
    0.84058E+07         0.71634E+05         0.00000E+00
    0.71634E+05         0.20866E+08         0.00000E+00
    0.00000E+00         0.00000E+00         0.87817E+07
 
    0.82645E+07         0.46586E+05         0.00000E+00
    0.46586E+05         0.20708E+08         0.00000E+00
    0.00000E+00         0.00000E+00         0.86916E+07
 
    0.81130E+07         0.26600E+05         0.00000E+00
    0.26600E+05         0.20565E+08         0.00000E+00
    0.00000E+00         0.00000E+00         0.86033E+07
 
    0.79489E+07         0.12545E+05         0.00000E+00
    0.12545E+05         0.20441E+08         0.00000E+00
    0.00000E+00         0.00000E+00         0.85169E+07
 
    0.77705E+07         0.35127E+04         0.00000E+00
    0.35127E+04         0.20337E+08         0.00000E+00
    0.00000E+00         0.00000E+00         0.84323E+07
 
    0.12826E+08         0.16727E+04         0.00000E+00
    0.16727E+04         0.29513E+08         0.00000E+00
    0.00000E+00         0.00000E+00         0.12702E+08
 
    0.12801E+08         0.53123E+04         0.00000E+00
    0.53123E+04         0.29498E+08         0.00000E+00
    0.00000E+00         0.00000E+00         0.12690E+08
 
    0.12778E+08         0.97059E+04         0.00000E+00
    0.97059E+04         0.29480E+08         0.00000E+00
    0.00000E+00         0.00000E+00         0.12677E+08
 
    0.12757E+08         0.15014E+05         0.00000E+00
    0.15014E+05         0.29459E+08         0.00000E+00
    0.00000E+00         0.00000E+00         0.12665E+08
 
    0.12737E+08         0.21130E+05         0.00000E+00
    0.21130E+05         0.29436E+08         0.00000E+00
    0.00000E+00         0.00000E+00         0.12652E+08
 
    0.12719E+08         0.27820E+05         0.00000E+00
    0.27820E+05         0.29411E+08         0.00000E+00
    0.00000E+00         0.00000E+00         0.12639E+08
 
    0.12701E+08         0.34837E+05         0.00000E+00
    0.34837E+05         0.29384E+08         0.00000E+00
    0.00000E+00         0.00000E+00         0.12626E+08
 
    0.12684E+08         0.41976E+05         0.00000E+00
    0.41976E+05         0.29356E+08         0.00000E+00
    0.00000E+00         0.00000E+00         0.12612E+08
 
    0.12667E+08         0.49087E+05         0.00000E+00
    0.49087E+05         0.29327E+08         0.00000E+00
    0.00000E+00         0.00000E+00         0.12598E+08
 
    0.12651E+08         0.56069E+05         0.00000E+00
    0.56069E+05         0.29298E+08         0.00000E+00
    0.00000E+00         0.00000E+00         0.12585E+08
 
    0.12635E+08         0.62860E+05         0.00000E+00
    0.62860E+05         0.29267E+08         0.00000E+00
    0.00000E+00         0.00000E+00         0.12571E+08
 
    0.12619E+08         0.69428E+05         0.00000E+00
    0.69428E+05         0.29237E+08         0.00000E+00
    0.00000E+00         0.00000E+00         0.12557E+08
 
    0.12604E+08         0.75762E+05         0.00000E+00
    0.75762E+05         0.29205E+08         0.00000E+00
    0.00000E+00         0.00000E+00         0.12543E+08
 
    0.12588E+08         0.81865E+05         0.00000E+00
    0.81865E+05         0.29174E+08         0.00000E+00
    0.00000E+00         0.00000E+00         0.12529E+08
 
    0.12573E+08         0.87747E+05         0.00000E+00
    0.87747E+05         0.29142E+08         0.00000E+00
    0.00000E+00         0.00000E+00         0.12514E+08
 
    0.12557E+08         0.93428E+05         0.00000E+00
    0.93428E+05         0.29109E+08         0.00000E+00
    0.00000E+00         0.00000E+00         0.12500E+08
 
    0.12542E+08         0.98930E+05         0.00000E+00
    0.98930E+05         0.29076E+08         0.00000E+00
    0.00000E+00         0.00000E+00         0.12486E+08
 
    0.12527E+08         0.10427E+06         0.00000E+00
    0.10427E+06         0.29043E+08         0.00000E+00
    0.00000E+00         0.00000E+00         0.12471E+08
 
    0.12512E+08         0.10949E+06         0.00000E+00
    0.10949E+06         0.29009E+08         0.00000E+00
    0.00000E+00         0.00000E+00         0.12456E+08
 
    0.12496E+08         0.11459E+06         0.00000E+00
    0.11459E+06         0.28974E+08         0.00000E+00
    0.00000E+00         0.00000E+00         0.12441E+08
 
    0.12481E+08         0.11960E+06         0.00000E+00
    0.11960E+06         0.28939E+08         0.00000E+00
    0.00000E+00         0.00000E+00         0.12426E+08
 
    0.12466E+08         0.12454E+06         0.00000E+00
    0.12454E+06         0.28903E+08         0.00000E+00
    0.00000E+00         0.00000E+00         0.12410E+08
 
    0.12450E+08         0.12944E+06         0.00000E+00
    0.12944E+06         0.28866E+08         0.00000E+00
    0.00000E+00         0.00000E+00         0.12395E+08
 
    0.12434E+08         0.13431E+06         0.00000E+00
    0.13431E+06         0.28828E+08         0.00000E+00
    0.00000E+00         0.00000E+00         0.12379E+08
 
    0.12418E+08         0.13916E+06         0.00000E+00
    0.13916E+06         0.28789E+08         0.00000E+00
    0.00000E+00         0.00000E+00         0.12362E+08
 
    0.12402E+08         0.14401E+06         0.00000E+00
    0.14401E+06         0.28750E+08         0.00000E+00
    0.00000E+00         0.00000E+00         0.12346E+08
 
    0.12386E+08         0.14887E+06         0.00000E+00
    0.14887E+06         0.28709E+08         0.00000E+00
    0.00000E+00         0.00000E+00         0.12329E+08
 
    0.12369E+08         0.15375E+06         0.00000E+00
    0.15375E+06         0.28668E+08         0.00000E+00
    0.00000E+00         0.00000E+00         0.12311E+08
 
    0.12352E+08         0.15867E+06         0.00000E+00
    0.15867E+06         0.28625E+08         0.00000E+00
    0.00000E+00         0.00000E+00         0.12293E+08
 
    0.12334E+08         0.16363E+06         0.00000E+00
    0.16363E+06         0.28581E+08         0.00000E+00
    0.00000E+00         0.00000E+00         0.12275E+08
 
    0.12317E+08         0.16864E+06         0.00000E+00
    0.16864E+06         0.28536E+08         0.00000E+00
    0.00000E+00         0.00000E+00         0.12256E+08
 
    0.12298E+08         0.17370E+06         0.00000E+00
    0.17370E+06         0.28490E+08         0.00000E+00
    0.00000E+00         0.00000E+00         0.12237E+08
 
    0.12279E+08         0.17883E+06         0.00000E+00
    0.17883E+06         0.28443E+08         0.00000E+00
    0.00000E+00         0.00000E+00         0.12217E+08
 
    0.12260E+08         0.18403E+06         0.00000E+00
    0.18403E+06         0.28394E+08         0.00000E+00
    0.00000E+00         0.00000E+00         0.12196E+08
 
    0.12240E+08         0.18929E+06         0.00000E+00
    0.18929E+06         0.28344E+08         0.00000E+00
    0.00000E+00         0.00000E+00         0.12175E+08
 
    0.12220E+08         0.19463E+06         0.00000E+00
    0.19463E+06         0.28292E+08         0.00000E+00
    0.00000E+00         0.00000E+00         0.12153E+08
 
    0.12199E+08         0.20005E+06         0.00000E+00
    0.20005E+06         0.28239E+08         0.00000E+00
    0.00000E+00         0.00000E+00         0.12131E+08
 
    0.12177E+08         0.20554E+06         0.00000E+00
    0.20554E+06         0.28184E+08         0.00000E+00
    0.00000E+00         0.00000E+00         0.12108E+08
 
    0.12155E+08         0.21111E+06         0.00000E+00
    0.21111E+06         0.28127E+08         0.00000E+00
    0.00000E+00         0.00000E+00         0.12085E+08
 
    0.12131E+08         0.21676E+06         0.00000E+00
    0.21676E+06         0.28069E+08         0.00000E+00
    0.00000E+00         0.00000E+00         0.12060E+08
 
    0.12108E+08         0.22249E+06         0.00000E+00
    0.22249E+06         0.28009E+08         0.00000E+00
    0.00000E+00         0.00000E+00         0.12035E+08
 
    0.12083E+08         0.22830E+06         0.00000E+00
    0.22830E+06         0.27948E+08         0.00000E+00
    0.00000E+00         0.00000E+00         0.12009E+08
 
    0.12057E+08         0.23418E+06         0.00000E+00
    0.23418E+06         0.27885E+08         0.00000E+00
    0.00000E+00         0.00000E+00         0.11983E+08
 
    0.12031E+08         0.24013E+06         0.00000E+00
    0.24013E+06         0.27819E+08         0.00000E+00
    0.00000E+00         0.00000E+00         0.11955E+08
 
    0.12004E+08         0.24614E+06         0.00000E+00
    0.24614E+06         0.27752E+08         0.00000E+00
    0.00000E+00         0.00000E+00         0.11927E+08
 
    0.11976E+08         0.25223E+06         0.00000E+00
    0.25223E+06         0.27683E+08         0.00000E+00
    0.00000E+00         0.00000E+00         0.11898E+08
 
    0.11947E+08         0.25836E+06         0.00000E+00
    0.25836E+06         0.27612E+08         0.00000E+00
    0.00000E+00         0.00000E+00         0.11868E+08
 
    0.11917E+08         0.26455E+06         0.00000E+00
    0.26455E+06         0.27538E+08         0.00000E+00
    0.00000E+00         0.00000E+00         0.11836E+08
 
    0.11886E+08         0.27079E+06         0.00000E+00
    0.27079E+06         0.27463E+08         0.00000E+00
    0.00000E+00         0.00000E+00         0.11805E+08
 
    0.11853E+08         0.27706E+06         0.00000E+00
    0.27706E+06         0.27385E+08         0.00000E+00
    0.00000E+00         0.00000E+00         0.11772E+08
 
    0.11820E+08         0.28336E+06         0.00000E+00
    0.28336E+06         0.27305E+08         0.00000E+00
    0.00000E+00         0.00000E+00         0.11738E+08
 
    0.11786E+08         0.28967E+06         0.00000E+00
    0.28967E+06         0.27223E+08         0.00000E+00
    0.00000E+00         0.00000E+00         0.11703E+08
 
    0.11750E+08         0.29599E+06         0.00000E+00
    0.29599E+06         0.27138E+08         0.00000E+00
    0.00000E+00         0.00000E+00         0.11666E+08
 
    0.11713E+08         0.30231E+06         0.00000E+00
    0.30231E+06         0.27051E+08         0.00000E+00
    0.00000E+00         0.00000E+00         0.11629E+08
 
    0.11675E+08         0.30860E+06         0.00000E+00
    0.30860E+06         0.26961E+08         0.00000E+00
    0.00000E+00         0.00000E+00         0.11591E+08
 
    0.11636E+08         0.31486E+06         0.00000E+00
    0.31486E+06         0.26869E+08         0.00000E+00
    0.00000E+00         0.00000E+00         0.11552E+08
 
    0.11595E+08         0.32106E+06         0.00000E+00
    0.32106E+06         0.26775E+08         0.00000E+00
    0.00000E+00         0.00000E+00         0.11511E+08
 
    0.11553E+08         0.32720E+06         0.00000E+00
    0.32720E+06         0.26678E+08         0.00000E+00
    0.00000E+00         0.00000E+00         0.11469E+08
 
    0.11509E+08         0.33325E+06         0.00000E+00
    0.33325E+06         0.26578E+08         0.00000E+00
    0.00000E+00         0.00000E+00         0.11426E+08
 
    0.11464E+08         0.33919E+06         0.00000E+00
    0.33919E+06         0.26475E+08         0.00000E+00
    0.00000E+00         0.00000E+00         0.11382E+08
 
    0.11417E+08         0.34499E+06         0.00000E+00
    0.34499E+06         0.26370E+08         0.00000E+00
    0.00000E+00         0.00000E+00         0.11336E+08
 
    0.11369E+08         0.35064E+06         0.00000E+00
    0.35064E+06         0.26261E+08         0.00000E+00
    0.00000E+00         0.00000E+00         0.11289E+08
 
    0.11319E+08         0.35610E+06         0.00000E+00
    0.35610E+06         0.26150E+08         0.00000E+00
    0.00000E+00         0.00000E+00         0.11241E+08
 
    0.11268E+08         0.36135E+06         0.00000E+00
    0.36135E+06         0.26036E+08         0.00000E+00
    0.00000E+00         0.00000E+00         0.11191E+08
 
    0.11214E+08         0.36636E+06         0.00000E+00
    0.36636E+06         0.25919E+08         0.00000E+00
    0.00000E+00         0.00000E+00         0.11140E+08
 
    0.11159E+08         0.37108E+06         0.00000E+00
    0.37108E+06         0.25800E+08         0.00000E+00
    0.00000E+00         0.00000E+00         0.11088E+08
 
    0.11102E+08         0.37549E+06         0.00000E+00
    0.37549E+06         0.25677E+08         0.00000E+00
    0.00000E+00         0.00000E+00         0.11034E+08
 
    0.11043E+08         0.37954E+06         0.00000E+00
    0.37954E+06         0.25551E+08         0.00000E+00
    0.00000E+00         0.00000E+00         0.10978E+08
 
    0.10982E+08         0.38318E+06         0.00000E+00
    0.38318E+06         0.25422E+08         0.00000E+00
    0.00000E+00         0.00000E+00         0.10921E+08
 
    0.10919E+08         0.38638E+06         0.00000E+00
    0.38638E+06         0.25290E+08         0.00000E+00
    0.00000E+00         0.00000E+00         0.10863E+08
 
    0.10854E+08         0.38908E+06         0.00000E+00
    0.38908E+06         0.25155E+08         0.00000E+00
    0.00000E+00         0.00000E+00         0.10803E+08
 
    0.10787E+08         0.39121E+06         0.00000E+00
    0.39121E+06         0.25017E+08         0.00000E+00
    0.00000E+00         0.00000E+00         0.10741E+08
 
    0.10718E+08         0.39273E+06         0.00000E+00
    0.39273E+06         0.24875E+08         0.00000E+00
    0.00000E+00         0.00000E+00         0.10678E+08
 
    0.10646E+08         0.39356E+06         0.00000E+00
    0.39356E+06         0.24731E+08         0.00000E+00
    0.00000E+00         0.00000E+00         0.10613E+08
 
    0.10572E+08         0.39362E+06         0.00000E+00
    0.39362E+06         0.24583E+08         0.00000E+00
    0.00000E+00         0.00000E+00         0.10546E+08
 
    0.10495E+08         0.39285E+06         0.00000E+00
    0.39285E+06         0.24432E+08         0.00000E+00
    0.00000E+00         0.00000E+00         0.10478E+08
 
    0.10416E+08         0.39114E+06         0.00000E+00
    0.39114E+06         0.24278E+08         0.00000E+00
    0.00000E+00         0.00000E+00         0.10408E+08
 
    0.10334E+08         0.38840E+06         0.00000E+00
    0.38840E+06         0.24120E+08         0.00000E+00
    0.00000E+00         0.00000E+00         0.10336E+08
 
    0.10249E+08         0.38453E+06         0.00000E+00
    0.38453E+06         0.23960E+08         0.00000E+00
    0.00000E+00         0.00000E+00         0.10263E+08
 
    0.10162E+08         0.37941E+06         0.00000E+00
    0.37941E+06         0.23796E+08         0.00000E+00
    0.00000E+00         0.00000E+00         0.10187E+08
 
    0.10072E+08         0.37292E+06         0.00000E+00
    0.37292E+06         0.23629E+08         0.00000E+00
    0.00000E+00         0.00000E+00         0.10110E+08
 
    0.99793E+07         0.36493E+06         0.00000E+00
    0.36493E+06         0.23458E+08         0.00000E+00
    0.00000E+00         0.00000E+00         0.10031E+08
 
    0.98836E+07         0.35531E+06         0.00000E+00
    0.35531E+06         0.23285E+08         0.00000E+00
    0.00000E+00         0.00000E+00         0.99505E+07
 
    0.97850E+07         0.34392E+06         0.00000E+00
    0.34392E+06         0.23108E+08         0.00000E+00
    0.00000E+00         0.00000E+00         0.98678E+07
 
    0.96835E+07         0.33062E+06         0.00000E+00
    0.33062E+06         0.22928E+08         0.00000E+00
    0.00000E+00         0.00000E+00         0.97834E+07
 
    0.95792E+07         0.31528E+06         0.00000E+00
    0.31528E+06         0.22745E+08         0.00000E+00
    0.00000E+00         0.00000E+00         0.96972E+07
 
    0.94721E+07         0.29779E+06         0.00000E+00
    0.29779E+06         0.22559E+08         0.00000E+00
    0.00000E+00         0.00000E+00         0.96094E+07
 
    0.93623E+07         0.27806E+06         0.00000E+00
    0.27806E+06         0.22371E+08         0.00000E+00
    0.00000E+00         0.00000E+00         0.95199E+07
 
    0.92498E+07         0.25604E+06         0.00000E+00
    0.25604E+06         0.22180E+08         0.00000E+00
    0.00000E+00         0.00000E+00         0.94290E+07
 
    0.91347E+07         0.23179E+06         0.00000E+00
    0.23179E+06         0.21988E+08         0.00000E+00
    0.00000E+00         0.00000E+00         0.93369E+07
 
    0.90170E+07         0.20542E+06         0.00000E+00
    0.20542E+06         0.21796E+08         0.00000E+00
    0.00000E+00         0.00000E+00         0.92438E+07
 
    0.88967E+07         0.17725E+06         0.00000E+00
    0.17725E+06         0.21603E+08         0.00000E+00
    0.00000E+00         0.00000E+00         0.91499E+07
 
    0.87735E+07         0.14775E+06         0.00000E+00
    0.14775E+06         0.21412E+08         0.00000E+00
    0.00000E+00         0.00000E+00         0.90557E+07
 
    0.86471E+07         0.11772E+06         0.00000E+00
    0.11772E+06         0.21225E+08         0.00000E+00
    0.00000E+00         0.00000E+00         0.89617E+07
 
    0.85166E+07         0.88267E+05         0.00000E+00
    0.88267E+05         0.21044E+08         0.00000E+00
    0.00000E+00         0.00000E+00         0.88682E+07
 
    0.83806E+07         0.60914E+05         0.00000E+00
    0.60914E+05         0.20872E+08         0.00000E+00
    0.00000E+00         0.00000E+00         0.87757E+07
 
    0.82372E+07         0.37460E+05         0.00000E+00
    0.37460E+05         0.20712E+08         0.00000E+00
    0.00000E+00         0.00000E+00         0.86847E+07
 
    0.80842E+07         0.19611E+05         0.00000E+00
    0.19611E+05         0.20568E+08         0.00000E+00
    0.00000E+00         0.00000E+00         0.85956E+07
 
    0.79191E+07         0.81603E+04         0.00000E+00
    0.81603E+04         0.20443E+08         0.00000E+00
    0.00000E+00         0.00000E+00         0.85086E+07
 
    0.77403E+07         0.20208E+04         0.00000E+00
    0.20208E+04         0.20338E+08         0.00000E+00
    0.00000E+00         0.00000E+00         0.84236E+07
 
    0.12831E+08         0.14354E+04         0.00000E+00
    0.14354E+04         0.29512E+08         0.00000E+00
    0.00000E+00         0.00000E+00         0.12703E+08
 
    0.12806E+08         0.46147E+04         0.00000E+00
    0.46147E+04         0.29497E+08         0.00000E+00
    0.00000E+00         0.00000E+00         0.12691E+08
 
    0.12783E+08         0.85900E+04         0.00000E+00
    0.85900E+04         0.29479E+08         0.00000E+00
    0.00000E+00         0.00000E+00         0.12679E+08
 
    0.12762E+08         0.13543E+05         0.00000E+00
    0.13543E+05         0.29458E+08         0.00000E+00
    0.00000E+00         0.00000E+00         0.12666E+08
 
    0.12742E+08         0.19374E+05         0.00000E+00
    0.19374E+05         0.29435E+08         0.00000E+00
    0.00000E+00         0.00000E+00         0.12653E+08
 
    0.12724E+08         0.25841E+05         0.00000E+00
    0.25841E+05         0.29409E+08         0.00000E+00
    0.00000E+00         0.00000E+00         0.12640E+08
 
    0.12706E+08         0.32680E+05         0.00000E+00
    0.32680E+05         0.29383E+08         0.00000E+00
    0.00000E+00         0.00000E+00         0.12626E+08
 
    0.12688E+08         0.39670E+05         0.00000E+00
    0.39670E+05         0.29355E+08         0.00000E+00
    0.00000E+00         0.00000E+00         0.12613E+08
 
    0.12672E+08         0.46649E+05         0.00000E+00
    0.46649E+05         0.29326E+08         0.00000E+00
    0.00000E+00         0.00000E+00         0.12599E+08
 
    0.12655E+08         0.53507E+05         0.00000E+00
    0.53507E+05         0.29296E+08         0.00000E+00
    0.00000E+00         0.00000E+00         0.12585E+08
 
    0.12639E+08         0.60178E+05         0.00000E+00
    0.60178E+05         0.29266E+08         0.00000E+00
    0.00000E+00         0.00000E+00         0.12571E+08
 
    0.12623E+08         0.66625E+05         0.00000E+00
    0.66625E+05         0.29235E+08         0.00000E+00
    0.00000E+00         0.00000E+00         0.12557E+08
 
    0.12607E+08         0.72836E+05         0.00000E+00
    0.72836E+05         0.29204E+08         0.00000E+00
    0.00000E+00         0.00000E+00         0.12543E+08
 
    0.12591E+08         0.78813E+05         0.00000E+00
    0.78813E+05         0.29173E+08         0.00000E+00
    0.00000E+00         0.00000E+00         0.12529E+08
 
    0.12576E+08         0.84567E+05         0.00000E+00
    0.84567E+05         0.29141E+08         0.00000E+00
    0.00000E+00         0.00000E+00         0.12515E+08
 
    0.12560E+08         0.90116E+05         0.00000E+00
    0.90116E+05         0.29108E+08         0.00000E+00
    0.00000E+00         0.00000E+00         0.12501E+08
 
    0.12545E+08         0.95483E+05         0.00000E+00
    0.95483E+05         0.29075E+08         0.00000E+00
    0.00000E+00         0.00000E+00         0.12486E+08
 
    0.12530E+08         0.10069E+06         0.00000E+00
    0.10069E+06         0.29042E+08         0.00000E+00
    0.00000E+00         0.00000E+00         0.12471E+08
 
    0.12514E+08         0.10576E+06         0.00000E+00
    0.10576E+06         0.29008E+08         0.00000E+00
    0.00000E+00         0.00000E+00         0.12457E+08
 
    0.12499E+08         0.11072E+06         0.00000E+00
    0.11072E+06         0.28973E+08         0.00000E+00
    0.00000E+00         0.00000E+00         0.12442E+08
 
    0.12484E+08         0.11559E+06         0.00000E+00
    0.11559E+06         0.28938E+08         0.00000E+00
    0.00000E+00         0.00000E+00         0.12426E+08
 
    0.12468E+08         0.12039E+06         0.00000E+00
    0.12039E+06         0.28902E+08         0.00000E+00
    0.00000E+00         0.00000E+00         0.12411E+08
 
    0.12453E+08         0.12514E+06         0.00000E+00
    0.12514E+06         0.28865E+08         0.00000E+00
    0.00000E+00         0.00000E+00         0.12395E+08
 
    0.12437E+08         0.12986E+06         0.00000E+00
    0.12986E+06         0.28827E+08         0.00000E+00
    0.00000E+00         0.00000E+00         0.12379E+08
 
    0.12421E+08         0.13456E+06         0.00000E+00
    0.13456E+06         0.28788E+08         0.00000E+00
    0.00000E+00         0.00000E+00         0.12363E+08
 
    0.12405E+08         0.13926E+06         0.00000E+00
    0.13926E+06         0.28749E+08         0.00000E+00
    0.00000E+00         0.00000E+00         0.12346E+08
 
    0.12389E+08         0.14397E+06         0.00000E+00
    0.14397E+06         0.28708E+08         0.00000E+00
    0.00000E+00         0.00000E+00         0.12329E+08
 
    0.12372E+08         0.14870E+06         0.00000E+00
    0.14870E+06         0.28667E+08         0.00000E+00
    0.00000E+00         0.00000E+00         0.12312E+08
 
    0.12355E+08         0.15346E+06         0.00000E+00
    0.15346E+06         0.28624E+08         0.00000E+00
    0.00000E+00         0.00000E+00         0.12294E+08
 
    0.12338E+08         0.15826E+06         0.00000E+00
    0.15826E+06         0.28580E+08         0.00000E+00
    0.00000E+00         0.00000E+00         0.12275E+08
 
    0.12320E+08         0.16310E+06         0.00000E+00
    0.16310E+06         0.28535E+08         0.00000E+00
    0.00000E+00         0.00000E+00         0.12257E+08
 
    0.12302E+08         0.16800E+06         0.00000E+00
    0.16800E+06         0.28489E+08         0.00000E+00
    0.00000E+00         0.00000E+00         0.12237E+08
 
    0.12283E+08         0.17296E+06         0.00000E+00
    0.17296E+06         0.28442E+08         0.00000E+00
    0.00000E+00         0.00000E+00         0.12217E+08
 
    0.12264E+08         0.17799E+06         0.00000E+00
    0.17799E+06         0.28393E+08         0.00000E+00
    0.00000E+00         0.00000E+00         0.12197E+08
 
    0.12244E+08         0.18308E+06         0.00000E+00
    0.18308E+06         0.28342E+08         0.00000E+00
    0.00000E+00         0.00000E+00         0.12176E+08
 
    0.12223E+08         0.18824E+06         0.00000E+00
    0.18824E+06         0.28291E+08         0.00000E+00
    0.00000E+00         0.00000E+00         0.12154E+08
 
    0.12202E+08         0.19347E+06         0.00000E+00
    0.19347E+06         0.28237E+08         0.00000E+00
    0.00000E+00         0.00000E+00         0.12132E+08
 
    0.12181E+08         0.19878E+06         0.00000E+00
    0.19878E+06         0.28183E+08         0.00000E+00
    0.00000E+00         0.00000E+00         0.12109E+08
 
    0.12158E+08         0.20417E+06         0.00000E+00
    0.20417E+06         0.28126E+08         0.00000E+00
    0.00000E+00         0.00000E+00         0.12085E+08
 
    0.12135E+08         0.20962E+06         0.00000E+00
    0.20962E+06         0.28068E+08         0.00000E+00
    0.00000E+00         0.00000E+00         0.12061E+08
 
    0.12112E+08         0.21516E+06         0.00000E+00
    0.21516E+06         0.28008E+08         0.00000E+00
    0.00000E+00         0.00000E+00         0.12036E+08
 
    0.12087E+08         0.22076E+06         0.00000E+00
    0.22076E+06         0.27947E+08         0.00000E+00
    0.00000E+00         0.00000E+00         0.12010E+08
 
    0.12062E+08         0.22644E+06         0.00000E+00
    0.22644E+06         0.27883E+08         0.00000E+00
    0.00000E+00         0.00000E+00         0.11983E+08
 
    0.12035E+08         0.23219E+06         0.00000E+00
    0.23219E+06         0.27818E+08         0.00000E+00
    0.00000E+00         0.00000E+00         0.11956E+08
 
    0.12008E+08         0.23800E+06         0.00000E+00
    0.23800E+06         0.27751E+08         0.00000E+00
    0.00000E+00         0.00000E+00         0.11928E+08
 
    0.11980E+08         0.24386E+06         0.00000E+00
    0.24386E+06         0.27682E+08         0.00000E+00
    0.00000E+00         0.00000E+00         0.11899E+08
 
    0.11951E+08         0.24979E+06         0.00000E+00
    0.24979E+06         0.27610E+08         0.00000E+00
    0.00000E+00         0.00000E+00         0.11868E+08
 
    0.11921E+08         0.25576E+06         0.00000E+00
    0.25576E+06         0.27537E+08         0.00000E+00
    0.00000E+00         0.00000E+00         0.11837E+08
 
    0.11890E+08         0.26177E+06         0.00000E+00
    0.26177E+06         0.27461E+08         0.00000E+00
    0.00000E+00         0.00000E+00         0.11805E+08
 
    0.11858E+08         0.26782E+06         0.00000E+00
    0.26782E+06         0.27384E+08         0.00000E+00
    0.00000E+00         0.00000E+00         0.11773E+08
 
    0.11825E+08         0.27389E+06         0.00000E+00
    0.27389E+06         0.27304E+08         0.00000E+00
    0.00000E+00         0.00000E+00         0.11739E+08
 
    0.11790E+08         0.27998E+06         0.00000E+00
    0.27998E+06         0.27222E+08         0.00000E+00
    0.00000E+00         0.00000E+00         0.11704E+08
 
    0.11755E+08         0.28607E+06         0.00000E+00
    0.28607E+06         0.27137E+08         0.00000E+00
    0.00000E+00         0.00000E+00         0.11668E+08
 
    0.11718E+08         0.29216E+06         0.00000E+00
    0.29216E+06         0.27050E+08         0.00000E+00
    0.00000E+00         0.00000E+00         0.11630E+08
 
    0.11680E+08         0.29822E+06         0.00000E+00
    0.29822E+06         0.26960E+08         0.00000E+00
    0.00000E+00         0.00000E+00         0.11592E+08
 
    0.11641E+08         0.30425E+06         0.00000E+00
    0.30425E+06         0.26868E+08         0.00000E+00
    0.00000E+00         0.00000E+00         0.11553E+08
 
    0.11600E+08         0.31022E+06         0.00000E+00
    0.31022E+06         0.26774E+08         0.00000E+00
    0.00000E+00         0.00000E+00         0.11512E+08
 
    0.11558E+08         0.31613E+06         0.00000E+00
    0.31613E+06         0.26676E+08         0.00000E+00
    0.00000E+00         0.00000E+00         0.11470E+08
 
    0.11514E+08         0.32194E+06         0.00000E+00
    0.32194E+06         0.26576E+08         0.00000E+00
    0.00000E+00         0.00000E+00         0.11427E+08
 
    0.11469E+08         0.32765E+06         0.00000E+00
    0.32765E+06         0.26474E+08         0.00000E+00
    0.00000E+00         0.00000E+00         0.11383E+08
 
    0.11422E+08         0.33323E+06         0.00000E+00
    0.33323E+06         0.26368E+08         0.00000E+00
    0.00000E+00         0.00000E+00         0.11337E+08
 
    0.11374E+08         0.33865E+06         0.00000E+00
    0.33865E+06         0.26260E+08         0.00000E+00
    0.00000E+00         0.00000E+00         0.11290E+08
 
    0.11324E+08         0.34390E+06         0.00000E+00
    0.34390E+06         0.26149E+08         0.00000E+00
    0.00000E+00         0.00000E+00         0.11242E+08
 
    0.11272E+08         0.34893E+06         0.00000E+00
    0.34893E+06         0.26035E+08         0.00000E+00
    0.00000E+00         0.00000E+00         0.11192E+08
 
    0.11219E+08         0.35372E+06         0.00000E+00
    0.35372E+06         0.25918E+08         0.00000E+00
    0.00000E+00         0.00000E+00         0.11141E+08
 
    0.11163E+08         0.35824E+06         0.00000E+00
    0.35824E+06         0.25799E+08         0.00000E+00
    0.00000E+00         0.00000E+00         0.11089E+08
 
    0.11106E+08         0.36245E+06         0.00000E+00
    0.36245E+06         0.25676E+08         0.00000E+00
    0.00000E+00         0.00000E+00         0.11035E+08
 
    0.11047E+08         0.36632E+06         0.00000E+00
    0.36632E+06         0.25550E+08         0.00000E+00
    0.00000E+00         0.00000E+00         0.10979E+08
 
    0.10986E+08         0.36978E+06         0.00000E+00
    0.36978E+06         0.25421E+08         0.00000E+00
    0.00000E+00         0.00000E+00         0.10922E+08
 
    0.10923E+08         0.37281E+06         0.00000E+00
    0.37281E+06         0.25289E+08         0.00000E+00
    0.00000E+00         0.00000E+00         0.10864E+08
 
    0.10858E+08         0.37536E+06         0.00000E+00
    0.37536E+06         0.25154E+08         0.00000E+00
    0.00000E+00         0.00000E+00         0.10804E+08
 
    0.10790E+08         0.37735E+06         0.00000E+00
    0.37735E+06         0.25016E+08         0.00000E+00
    0.00000E+00         0.00000E+00         0.10742E+08
 
    0.10720E+08         0.37874E+06         0.00000E+00
    0.37874E+06         0.24875E+08         0.00000E+00
    0.00000E+00         0.00000E+00         0.10679E+08
 
    0.10648E+08         0.37946E+06         0.00000E+00
    0.37946E+06         0.24731E+08         0.00000E+00
    0.00000E+00         0.00000E+00         0.10614E+08
 
    0.10574E+08         0.37943E+06         0.00000E+00
    0.37943E+06         0.24583E+08         0.00000E+00
    0.00000E+00         0.00000E+00         0.10547E+08
 
    0.10496E+08         0.37858E+06         0.00000E+00
    0.37858E+06         0.24432E+08         0.00000E+00
    0.00000E+00         0.00000E+00         0.10479E+08
 
    0.10417E+08         0.37682E+06         0.00000E+00
    0.37682E+06         0.24278E+08         0.00000E+00
    0.00000E+00         0.00000E+00         0.10409E+08
 
    0.10334E+08         0.37405E+06         0.00000E+00
    0.37405E+06         0.24121E+08         0.00000E+00
    0.00000E+00         0.00000E+00         0.10337E+08
 
    0.10249E+08         0.37016E+06         0.00000E+00
    0.37016E+06         0.23961E+08         0.00000E+00
    0.00000E+00         0.00000E+00         0.10263E+08
 
    0.10162E+08         0.36505E+06         0.00000E+00
    0.36505E+06         0.23797E+08         0.00000E+00
    0.00000E+00         0.00000E+00         0.10188E+08
 
    0.10071E+08         0.35860E+06         0.00000E+00
    0.35860E+06         0.23630E+08         0.00000E+00
    0.00000E+00         0.00000E+00         0.10110E+08
 
    0.99772E+07         0.35066E+06         0.00000E+00
    0.35066E+06         0.23460E+08         0.00000E+00
    0.00000E+00         0.00000E+00         0.10031E+08
 
    0.98806E+07         0.34111E+06         0.00000E+00
    0.34111E+06         0.23287E+08         0.00000E+00
    0.00000E+00         0.00000E+00         0.99502E+07
 
    0.97811E+07         0.32981E+06         0.00000E+00
    0.32981E+06         0.23110E+08         0.00000E+00
    0.00000E+00         0.00000E+00         0.98674E+07
 
    0.96786E+07         0.31662E+06         0.00000E+00
    0.31662E+06         0.22931E+08         0.00000E+00
    0.00000E+00         0.00000E+00         0.97828E+07
 
    0.95731E+07         0.30139E+06         0.00000E+00
    0.30139E+06         0.22748E+08         0.00000E+00
    0.00000E+00         0.00000E+00         0.96964E+07
 
    0.94647E+07         0.28402E+06         0.00000E+00
    0.28402E+06         0.22563E+08         0.00000E+00
    0.00000E+00         0.00000E+00         0.96083E+07
 
    0.93535E+07         0.26443E+06         0.00000E+00
    0.26443E+06         0.22375E+08         0.00000E+00
    0.00000E+00         0.00000E+00         0.95185E+07
 
    0.92394E+07         0.24256E+06         0.00000E+00
    0.24256E+06         0.22185E+08         0.00000E+00
    0.00000E+00         0.00000E+00         0.94273E+07
 
    0.91226E+07         0.21847E+06         0.00000E+00
    0.21847E+06         0.21993E+08         0.00000E+00
    0.00000E+00         0.00000E+00         0.93348E+07
 
    0.90030E+07         0.19230E+06         0.00000E+00
    0.19230E+06         0.21801E+08         0.00000E+00
    0.00000E+00         0.00000E+00         0.92412E+07
 
    0.88806E+07         0.16436E+06         0.00000E+00
    0.16436E+06         0.21609E+08         0.00000E+00
    0.00000E+00         0.00000E+00         0.91468E+07
 
    0.87552E+07         0.13520E+06         0.00000E+00
    0.13520E+06         0.21418E+08         0.00000E+00
    0.00000E+00         0.00000E+00         0.90520E+07
 
    0.86264E+07         0.10565E+06         0.00000E+00
    0.10565E+06         0.21231E+08         0.00000E+00
    0.00000E+00         0.00000E+00         0.89572E+07
 
    0.84936E+07         0.76913E+05         0.00000E+00
    0.76913E+05         0.21050E+08         0.00000E+00
    0.00000E+00         0.00000E+00         0.88629E+07
 
    0.83553E+07         0.50622E+05         0.00000E+00
    0.50622E+05         0.20877E+08         0.00000E+00
    0.00000E+00         0.00000E+00         0.87696E+07
 
    0.82101E+07         0.28686E+05         0.00000E+00
    0.28686E+05         0.20716E+08         0.00000E+00
    0.00000E+00         0.00000E+00         0.86778E+07
 
    0.80555E+07         0.12870E+05         0.00000E+00
    0.12870E+05         0.20571E+08         0.00000E+00
    0.00000E+00         0.00000E+00         0.85879E+07
 
    0.78895E+07         0.39122E+04         0.00000E+00
    0.39122E+04         0.20444E+08         0.00000E+00
    0.00000E+00         0.00000E+00         0.85001E+07
 
    0.77103E+07         0.57037E+03         0.00000E+00
    0.57037E+03         0.20339E+08         0.00000E+00
    0.00000E+00         0.00000E+00         0.84148E+07
 
    0.12837E+08         0.12024E+04         0.00000E+00
    0.12024E+04         0.29512E+08         0.00000E+00
    0.00000E+00         0.00000E+00         0.12705E+08
 
    0.12812E+08         0.39317E+04         0.00000E+00
    0.39317E+04         0.29497E+08         0.00000E+00
    0.00000E+00         0.00000E+00         0.12693E+08
 
    0.12789E+08         0.75019E+04         0.00000E+00
    0.75019E+04         0.29478E+08         0.00000E+00
    0.00000E+00         0.00000E+00         0.12680E+08
 
    0.12767E+08         0.12113E+05         0.00000E+00
    0.12113E+05         0.29457E+08         0.00000E+00
    0.00000E+00         0.00000E+00         0.12667E+08
 
    0.12747E+08         0.17669E+05         0.00000E+00
    0.17669E+05         0.29434E+08         0.00000E+00
    0.00000E+00         0.00000E+00         0.12654E+08
 
    0.12728E+08         0.23917E+05         0.00000E+00
    0.23917E+05         0.29408E+08         0.00000E+00
    0.00000E+00         0.00000E+00         0.12641E+08
 
    0.12710E+08         0.30578E+05         0.00000E+00
    0.30578E+05         0.29381E+08         0.00000E+00
    0.00000E+00         0.00000E+00         0.12627E+08
 
    0.12693E+08         0.37416E+05         0.00000E+00
    0.37416E+05         0.29353E+08         0.00000E+00
    0.00000E+00         0.00000E+00         0.12614E+08
 
    0.12676E+08         0.44259E+05         0.00000E+00
    0.44259E+05         0.29324E+08         0.00000E+00
    0.00000E+00         0.00000E+00         0.12600E+08
 
    0.12659E+08         0.50988E+05         0.00000E+00
    0.50988E+05         0.29295E+08         0.00000E+00
    0.00000E+00         0.00000E+00         0.12586E+08
 
    0.12642E+08         0.57532E+05         0.00000E+00
    0.57532E+05         0.29265E+08         0.00000E+00
    0.00000E+00         0.00000E+00         0.12572E+08
 
    0.12626E+08         0.63853E+05         0.00000E+00
    0.63853E+05         0.29234E+08         0.00000E+00
    0.00000E+00         0.00000E+00         0.12558E+08
 
    0.12610E+08         0.69937E+05         0.00000E+00
    0.69937E+05         0.29203E+08         0.00000E+00
    0.00000E+00         0.00000E+00         0.12544E+08
 
    0.12594E+08         0.75783E+05         0.00000E+00
    0.75783E+05         0.29171E+08         0.00000E+00
    0.00000E+00         0.00000E+00         0.12530E+08
 
    0.12579E+08         0.81403E+05         0.00000E+00
    0.81403E+05         0.29140E+08         0.00000E+00
    0.00000E+00         0.00000E+00         0.12516E+08
 
    0.12563E+08         0.86817E+05         0.00000E+00
    0.86817E+05         0.29107E+08         0.00000E+00
    0.00000E+00         0.00000E+00         0.12501E+08
 
    0.12548E+08         0.92046E+05         0.00000E+00
    0.92046E+05         0.29074E+08         0.00000E+00
    0.00000E+00         0.00000E+00         0.12487E+08
 
    0.12533E+08         0.97113E+05         0.00000E+00
    0.97113E+05         0.29041E+08         0.00000E+00
    0.00000E+00         0.00000E+00         0.12472E+08
 
    0.12517E+08         0.10204E+06         0.00000E+00
    0.10204E+06         0.29007E+08         0.00000E+00
    0.00000E+00         0.00000E+00         0.12457E+08
 
    0.12502E+08         0.10686E+06         0.00000E+00
    0.10686E+06         0.28972E+08         0.00000E+00
    0.00000E+00         0.00000E+00         0.12442E+08
 
    0.12487E+08         0.11159E+06         0.00000E+00
    0.11159E+06         0.28937E+08         0.00000E+00
    0.00000E+00         0.00000E+00         0.12427E+08
 
    0.12471E+08         0.11624E+06         0.00000E+00
    0.11624E+06         0.28901E+08         0.00000E+00
    0.00000E+00         0.00000E+00         0.12412E+08
 
    0.12456E+08         0.12084E+06         0.00000E+00
    0.12084E+06         0.28864E+08         0.00000E+00
    0.00000E+00         0.00000E+00         0.12396E+08
 
    0.12440E+08         0.12541E+06         0.00000E+00
    0.12541E+06         0.28826E+08         0.00000E+00
    0.00000E+00         0.00000E+00         0.12380E+08
 
    0.12424E+08         0.12996E+06         0.00000E+00
    0.12996E+06         0.28788E+08         0.00000E+00
    0.00000E+00         0.00000E+00         0.12364E+08
 
    0.12408E+08         0.13451E+06         0.00000E+00
    0.13451E+06         0.28748E+08         0.00000E+00
    0.00000E+00         0.00000E+00         0.12347E+08
 
    0.12392E+08         0.13906E+06         0.00000E+00
    0.13906E+06         0.28708E+08         0.00000E+00
    0.00000E+00         0.00000E+00         0.12330E+08
 
    0.12375E+08         0.14363E+06         0.00000E+00
    0.14363E+06         0.28666E+08         0.00000E+00
    0.00000E+00         0.00000E+00         0.12312E+08
 
    0.12358E+08         0.14824E+06         0.00000E+00
    0.14824E+06         0.28623E+08         0.00000E+00
    0.00000E+00         0.00000E+00         0.12294E+08
 
    0.12341E+08         0.15287E+06         0.00000E+00
    0.15287E+06         0.28579E+08         0.00000E+00
    0.00000E+00         0.00000E+00         0.12276E+08
 
    0.12323E+08         0.15756E+06         0.00000E+00
    0.15756E+06         0.28534E+08         0.00000E+00
    0.00000E+00         0.00000E+00         0.12257E+08
 
    0.12305E+08         0.16229E+06         0.00000E+00
    0.16229E+06         0.28488E+08         0.00000E+00
    0.00000E+00         0.00000E+00         0.12238E+08
 
    0.12286E+08         0.16708E+06         0.00000E+00
    0.16708E+06         0.28441E+08         0.00000E+00
    0.00000E+00         0.00000E+00         0.12218E+08
 
    0.12267E+08         0.17193E+06         0.00000E+00
    0.17193E+06         0.28392E+08         0.00000E+00
    0.00000E+00         0.00000E+00         0.12198E+08
 
    0.12247E+08         0.17685E+06         0.00000E+00
    0.17685E+06         0.28341E+08         0.00000E+00
    0.00000E+00         0.00000E+00         0.12177E+08
 
    0.12227E+08         0.18183E+06         0.00000E+00
    0.18183E+06         0.28290E+08         0.00000E+00
    0.00000E+00         0.00000E+00         0.12155E+08
 
    0.12206E+08         0.18688E+06         0.00000E+00
    0.18688E+06         0.28236E+08         0.00000E+00
    0.00000E+00         0.00000E+00         0.12133E+08
 
    0.12184E+08         0.19201E+06         0.00000E+00
    0.19201E+06         0.28182E+08         0.00000E+00
    0.00000E+00         0.00000E+00         0.12110E+08
 
    0.12162E+08         0.19720E+06         0.00000E+00
    0.19720E+06         0.28125E+08         0.00000E+00
    0.00000E+00         0.00000E+00         0.12086E+08
 
    0.12139E+08         0.20247E+06         0.00000E+00
    0.20247E+06         0.28067E+08         0.00000E+00
    0.00000E+00         0.00000E+00         0.12062E+08
 
    0.12115E+08         0.20781E+06         0.00000E+00
    0.20781E+06         0.28007E+08         0.00000E+00
    0.00000E+00         0.00000E+00         0.12037E+08
 
    0.12091E+08         0.21322E+06         0.00000E+00
    0.21322E+06         0.27946E+08         0.00000E+00
    0.00000E+00         0.00000E+00         0.12011E+08
 
    0.12066E+08         0.21869E+06         0.00000E+00
    0.21869E+06         0.27882E+08         0.00000E+00
    0.00000E+00         0.00000E+00         0.11984E+08
 
    0.12040E+08         0.22423E+06         0.00000E+00
    0.22423E+06         0.27817E+08         0.00000E+00
    0.00000E+00         0.00000E+00         0.11957E+08
 
    0.12012E+08         0.22983E+06         0.00000E+00
    0.22983E+06         0.27750E+08         0.00000E+00
    0.00000E+00         0.00000E+00         0.11929E+08
 
    0.11984E+08         0.23549E+06         0.00000E+00
    0.23549E+06         0.27680E+08         0.00000E+00
    0.00000E+00         0.00000E+00         0.11899E+08
 
    0.11956E+08         0.24120E+06         0.00000E+00
    0.24120E+06         0.27609E+08         0.00000E+00
    0.00000E+00         0.00000E+00         0.11869E+08
 
    0.11926E+08         0.24696E+06         0.00000E+00
    0.24696E+06         0.27536E+08         0.00000E+00
    0.00000E+00         0.00000E+00         0.11838E+08
 
    0.11895E+08         0.25275E+06         0.00000E+00
    0.25275E+06         0.27460E+08         0.00000E+00
    0.00000E+00         0.00000E+00         0.11806E+08
 
    0.11863E+08         0.25858E+06         0.00000E+00
    0.25858E+06         0.27383E+08         0.00000E+00
    0.00000E+00         0.00000E+00         0.11774E+08
 
    0.11829E+08         0.26442E+06         0.00000E+00
    0.26442E+06         0.27303E+08         0.00000E+00
    0.00000E+00         0.00000E+00         0.11740E+08
 
    0.11795E+08         0.27028E+06         0.00000E+00
    0.27028E+06         0.27220E+08         0.00000E+00
    0.00000E+00         0.00000E+00         0.11705E+08
 
    0.11759E+08         0.27615E+06         0.00000E+00
    0.27615E+06         0.27136E+08         0.00000E+00
    0.00000E+00         0.00000E+00         0.11669E+08
 
    0.11723E+08         0.28200E+06         0.00000E+00
    0.28200E+06         0.27049E+08         0.00000E+00
    0.00000E+00         0.00000E+00         0.11631E+08
 
    0.11685E+08         0.28784E+06         0.00000E+00
    0.28784E+06         0.26959E+08         0.00000E+00
    0.00000E+00         0.00000E+00         0.11593E+08
 
    0.11645E+08         0.29363E+06         0.00000E+00
    0.29363E+06         0.26867E+08         0.00000E+00
    0.00000E+00         0.00000E+00         0.11554E+08
 
    0.11604E+08         0.29938E+06         0.00000E+00
    0.29938E+06         0.26772E+08         0.00000E+00
    0.00000E+00         0.00000E+00         0.11513E+08
 
    0.11562E+08         0.30505E+06         0.00000E+00
    0.30505E+06         0.26675E+08         0.00000E+00
    0.00000E+00         0.00000E+00         0.11471E+08
 
    0.11519E+08         0.31064E+06         0.00000E+00
    0.31064E+06         0.26575E+08         0.00000E+00
    0.00000E+00         0.00000E+00         0.11428E+08
 
    0.11473E+08         0.31612E+06         0.00000E+00
    0.31612E+06         0.26473E+08         0.00000E+00
    0.00000E+00         0.00000E+00         0.11384E+08
 
    0.11427E+08         0.32148E+06         0.00000E+00
    0.32148E+06         0.26367E+08         0.00000E+00
    0.00000E+00         0.00000E+00         0.11338E+08
 
    0.11378E+08         0.32668E+06         0.00000E+00
    0.32668E+06         0.26259E+08         0.00000E+00
    0.00000E+00         0.00000E+00         0.11291E+08
 
    0.11328E+08         0.33171E+06         0.00000E+00
    0.33171E+06         0.26148E+08         0.00000E+00
    0.00000E+00         0.00000E+00         0.11243E+08
 
    0.11276E+08         0.33653E+06         0.00000E+00
    0.33653E+06         0.26034E+08         0.00000E+00
    0.00000E+00         0.00000E+00         0.11193E+08
 
    0.11223E+08         0.34112E+06         0.00000E+00
    0.34112E+06         0.25918E+08         0.00000E+00
    0.00000E+00         0.00000E+00         0.11142E+08
 
    0.11168E+08         0.34543E+06         0.00000E+00
    0.34543E+06         0.25798E+08         0.00000E+00
    0.00000E+00         0.00000E+00         0.11090E+08
 
    0.11110E+08         0.34945E+06         0.00000E+00
    0.34945E+06         0.25675E+08         0.00000E+00
    0.00000E+00         0.00000E+00         0.11036E+08
 
    0.11051E+08         0.35313E+06         0.00000E+00
    0.35313E+06         0.25549E+08         0.00000E+00
    0.00000E+00         0.00000E+00         0.10980E+08
 
    0.10990E+08         0.35642E+06         0.00000E+00
    0.35642E+06         0.25421E+08         0.00000E+00
    0.00000E+00         0.00000E+00         0.10923E+08
 
    0.10926E+08         0.35929E+06         0.00000E+00
    0.35929E+06         0.25289E+08         0.00000E+00
    0.00000E+00         0.00000E+00         0.10865E+08
 
    0.10861E+08         0.36168E+06         0.00000E+00
    0.36168E+06         0.25154E+08         0.00000E+00
    0.00000E+00         0.00000E+00         0.10804E+08
 
    0.10793E+08         0.36354E+06         0.00000E+00
    0.36354E+06         0.25016E+08         0.00000E+00
    0.00000E+00         0.00000E+00         0.10743E+08
 
    0.10723E+08         0.36482E+06         0.00000E+00
    0.36482E+06         0.24875E+08         0.00000E+00
    0.00000E+00         0.00000E+00         0.10679E+08
 
    0.10650E+08         0.36543E+06         0.00000E+00
    0.36543E+06         0.24731E+08         0.00000E+00
    0.00000E+00         0.00000E+00         0.10614E+08
 
    0.10576E+08         0.36532E+06         0.00000E+00
    0.36532E+06         0.24583E+08         0.00000E+00
    0.00000E+00         0.00000E+00         0.10548E+08
 
    0.10498E+08         0.36440E+06         0.00000E+00
    0.36440E+06         0.24433E+08         0.00000E+00
    0.00000E+00         0.00000E+00         0.10479E+08
 
    0.10418E+08         0.36259E+06         0.00000E+00
    0.36259E+06         0.24279E+08         0.00000E+00
    0.00000E+00         0.00000E+00         0.10409E+08
 
    0.10335E+08         0.35980E+06         0.00000E+00
    0.35980E+06         0.24122E+08         0.00000E+00
    0.00000E+00         0.00000E+00         0.10337E+08
 
    0.10249E+08         0.35592E+06         0.00000E+00
    0.35592E+06         0.23962E+08         0.00000E+00
    0.00000E+00         0.00000E+00         0.10263E+08
 
    0.10161E+08         0.35083E+06         0.00000E+00
    0.35083E+06         0.23798E+08         0.00000E+00
    0.00000E+00         0.00000E+00         0.10188E+08
 
    0.10070E+08         0.34442E+06         0.00000E+00
    0.34442E+06         0.23632E+08         0.00000E+00
    0.00000E+00         0.00000E+00         0.10110E+08
 
    0.99752E+07         0.33655E+06         0.00000E+00
    0.33655E+06         0.23462E+08         0.00000E+00
    0.00000E+00         0.00000E+00         0.10031E+08
 
    0.98778E+07         0.32709E+06         0.00000E+00
    0.32709E+06         0.23289E+08         0.00000E+00
    0.00000E+00         0.00000E+00         0.99500E+07
 
    0.97773E+07         0.31590E+06         0.00000E+00
    0.31590E+06         0.23113E+08         0.00000E+00
    0.00000E+00         0.00000E+00         0.98670E+07
 
    0.96738E+07         0.30283E+06         0.00000E+00
    0.30283E+06         0.22934E+08         0.00000E+00
    0.00000E+00         0.00000E+00         0.97822E+07
 
    0.95672E+07         0.28774E+06         0.00000E+00
    0.28774E+06         0.22751E+08         0.00000E+00
    0.00000E+00         0.00000E+00         0.96956E+07
 
    0.94575E+07         0.27053E+06         0.00000E+00
    0.27053E+06         0.22567E+08         0.00000E+00
    0.00000E+00         0.00000E+00         0.96072E+07
 
    0.93448E+07         0.25110E+06         0.00000E+00
    0.25110E+06         0.22379E+08         0.00000E+00
    0.00000E+00         0.00000E+00         0.95172E+07
 
    0.92291E+07         0.22941E+06         0.00000E+00
    0.22941E+06         0.22190E+08         0.00000E+00
    0.00000E+00         0.00000E+00         0.94256E+07
 
    0.91105E+07         0.20552E+06         0.00000E+00
    0.20552E+06         0.21998E+08         0.00000E+00
    0.00000E+00         0.00000E+00         0.93327E+07
 
    0.89890E+07         0.17957E+06         0.00000E+00
    0.17957E+06         0.21806E+08         0.00000E+00
    0.00000E+00         0.00000E+00         0.92386E+07
 
    0.88645E+07         0.15192E+06         0.00000E+00
    0.15192E+06         0.21615E+08         0.00000E+00
    0.00000E+00         0.00000E+00         0.91437E+07
 
    0.87369E+07         0.12311E+06         0.00000E+00
    0.12311E+06         0.21424E+08         0.00000E+00
    0.00000E+00         0.00000E+00         0.90483E+07
 
    0.86058E+07         0.94050E+05         0.00000E+00
    0.94050E+05         0.21237E+08         0.00000E+00
    0.00000E+00         0.00000E+00         0.89528E+07
 
    0.84705E+07         0.66021E+05         0.00000E+00
    0.66021E+05         0.21055E+08         0.00000E+00
    0.00000E+00         0.00000E+00         0.88577E+07
 
    0.83301E+07         0.40747E+05         0.00000E+00
    0.40747E+05         0.20882E+08         0.00000E+00
    0.00000E+00         0.00000E+00         0.87635E+07
 
    0.81830E+07         0.20250E+05         0.00000E+00
    0.20250E+05         0.20720E+08         0.00000E+00
    0.00000E+00         0.00000E+00         0.86708E+07
 
    0.80270E+07         0.63586E+04         0.00000E+00
    0.63586E+04         0.20573E+08         0.00000E+00
    0.00000E+00         0.00000E+00         0.85800E+07
 
    0.78602E+07        -0.21312E+03         0.00000E+00
   -0.21312E+03         0.20445E+08         0.00000E+00
    0.00000E+00         0.00000E+00         0.84916E+07
 
    0.76805E+07        -0.84359E+03         0.00000E+00
   -0.84359E+03         0.20339E+08         0.00000E+00
    0.00000E+00         0.00000E+00         0.84058E+07
 
    0.12843E+08         0.97295E+03         0.00000E+00
    0.97295E+03         0.29511E+08         0.00000E+00
    0.00000E+00         0.00000E+00         0.12706E+08
 
    0.12817E+08         0.32616E+04         0.00000E+00
    0.32616E+04         0.29496E+08         0.00000E+00
    0.00000E+00         0.00000E+00         0.12694E+08
 
    0.12794E+08         0.64398E+04         0.00000E+00
    0.64398E+04         0.29477E+08         0.00000E+00
    0.00000E+00         0.00000E+00         0.12681E+08
 
    0.12773E+08         0.10723E+05         0.00000E+00
    0.10723E+05         0.29456E+08         0.00000E+00
    0.00000E+00         0.00000E+00         0.12669E+08
 
    0.12752E+08         0.16014E+05         0.00000E+00
    0.16014E+05         0.29432E+08         0.00000E+00
    0.00000E+00         0.00000E+00         0.12655E+08
 
    0.12733E+08         0.22049E+05         0.00000E+00
    0.22049E+05         0.29407E+08         0.00000E+00
    0.00000E+00         0.00000E+00         0.12642E+08
 
    0.12715E+08         0.28532E+05         0.00000E+00
    0.28532E+05         0.29380E+08         0.00000E+00
    0.00000E+00         0.00000E+00         0.12628E+08
 
    0.12697E+08         0.35216E+05         0.00000E+00
    0.35216E+05         0.29352E+08         0.00000E+00
    0.00000E+00         0.00000E+00         0.12615E+08
 
    0.12679E+08         0.41917E+05         0.00000E+00
    0.41917E+05         0.29323E+08         0.00000E+00
    0.00000E+00         0.00000E+00         0.12601E+08
 
    0.12663E+08         0.48512E+05         0.00000E+00
    0.48512E+05         0.29294E+08         0.00000E+00
    0.00000E+00         0.00000E+00         0.12587E+08
 
    0.12646E+08         0.54924E+05         0.00000E+00
    0.54924E+05         0.29263E+08         0.00000E+00
    0.00000E+00         0.00000E+00         0.12573E+08
 
    0.12630E+08         0.61113E+05         0.00000E+00
    0.61113E+05         0.29233E+08         0.00000E+00
    0.00000E+00         0.00000E+00         0.12559E+08
 
    0.12613E+08         0.67063E+05         0.00000E+00
    0.67063E+05         0.29202E+08         0.00000E+00
    0.00000E+00         0.00000E+00         0.12545E+08
 
    0.12598E+08         0.72773E+05         0.00000E+00
    0.72773E+05         0.29170E+08         0.00000E+00
    0.00000E+00         0.00000E+00         0.12530E+08
 
    0.12582E+08         0.78256E+05         0.00000E+00
    0.78256E+05         0.29138E+08         0.00000E+00
    0.00000E+00         0.00000E+00         0.12516E+08
 
    0.12566E+08         0.83531E+05         0.00000E+00
    0.83531E+05         0.29106E+08         0.00000E+00
    0.00000E+00         0.00000E+00         0.12502E+08
 
    0.12551E+08         0.88618E+05         0.00000E+00
    0.88618E+05         0.29073E+08         0.00000E+00
    0.00000E+00         0.00000E+00         0.12487E+08
 
    0.12535E+08         0.93542E+05         0.00000E+00
    0.93542E+05         0.29040E+08         0.00000E+00
    0.00000E+00         0.00000E+00         0.12473E+08
 
    0.12520E+08         0.98328E+05         0.00000E+00
    0.98328E+05         0.29006E+08         0.00000E+00
    0.00000E+00         0.00000E+00         0.12458E+08
 
    0.12505E+08         0.10300E+06         0.00000E+00
    0.10300E+06         0.28971E+08         0.00000E+00
    0.00000E+00         0.00000E+00         0.12443E+08
 
    0.12490E+08         0.10758E+06         0.00000E+00
    0.10758E+06         0.28936E+08         0.00000E+00
    0.00000E+00         0.00000E+00         0.12428E+08
 
    0.12474E+08         0.11208E+06         0.00000E+00
    0.11208E+06         0.28900E+08         0.00000E+00
    0.00000E+00         0.00000E+00         0.12412E+08
 
    0.12459E+08         0.11654E+06         0.00000E+00
    0.11654E+06         0.28863E+08         0.00000E+00
    0.00000E+00         0.00000E+00         0.12396E+08
 
    0.12443E+08         0.12096E+06         0.00000E+00
    0.12096E+06         0.28825E+08         0.00000E+00
    0.00000E+00         0.00000E+00         0.12380E+08
 
    0.12427E+08         0.12535E+06         0.00000E+00
    0.12535E+06         0.28787E+08         0.00000E+00
    0.00000E+00         0.00000E+00         0.12364E+08
 
    0.12411E+08         0.12975E+06         0.00000E+00
    0.12975E+06         0.28747E+08         0.00000E+00
    0.00000E+00         0.00000E+00         0.12347E+08
 
    0.12395E+08         0.13414E+06         0.00000E+00
    0.13414E+06         0.28707E+08         0.00000E+00
    0.00000E+00         0.00000E+00         0.12330E+08
 
    0.12378E+08         0.13856E+06         0.00000E+00
    0.13856E+06         0.28665E+08         0.00000E+00
    0.00000E+00         0.00000E+00         0.12313E+08
 
    0.12361E+08         0.14300E+06         0.00000E+00
    0.14300E+06         0.28622E+08         0.00000E+00
    0.00000E+00         0.00000E+00         0.12295E+08
 
    0.12344E+08         0.14748E+06         0.00000E+00
    0.14748E+06         0.28579E+08         0.00000E+00
    0.00000E+00         0.00000E+00         0.12277E+08
 
    0.12326E+08         0.15200E+06         0.00000E+00
    0.15200E+06         0.28534E+08         0.00000E+00
    0.00000E+00         0.00000E+00         0.12258E+08
 
    0.12308E+08         0.15657E+06         0.00000E+00
    0.15657E+06         0.28487E+08         0.00000E+00
    0.00000E+00         0.00000E+00         0.12239E+08
 
    0.12289E+08         0.16119E+06         0.00000E+00
    0.16119E+06         0.28440E+08         0.00000E+00
    0.00000E+00         0.00000E+00         0.12219E+08
 
    0.12270E+08         0.16587E+06         0.00000E+00
    0.16587E+06         0.28391E+08         0.00000E+00
    0.00000E+00         0.00000E+00         0.12198E+08
 
    0.12251E+08         0.17061E+06         0.00000E+00
    0.17061E+06         0.28341E+08         0.00000E+00
    0.00000E+00         0.00000E+00         0.12177E+08
 
    0.12230E+08         0.17541E+06         0.00000E+00
    0.17541E+06         0.28289E+08         0.00000E+00
    0.00000E+00         0.00000E+00         0.12156E+08
 
    0.12210E+08         0.18028E+06         0.00000E+00
    0.18028E+06         0.28235E+08         0.00000E+00
    0.00000E+00         0.00000E+00         0.12134E+08
 
    0.12188E+08         0.18522E+06         0.00000E+00
    0.18522E+06         0.28181E+08         0.00000E+00
    0.00000E+00         0.00000E+00         0.12111E+08
 
    0.12166E+08         0.19023E+06         0.00000E+00
    0.19023E+06         0.28124E+08         0.00000E+00
    0.00000E+00         0.00000E+00         0.12087E+08
 
    0.12143E+08         0.19530E+06         0.00000E+00
    0.19530E+06         0.28066E+08         0.00000E+00
    0.00000E+00         0.00000E+00         0.12063E+08
 
    0.12119E+08         0.20045E+06         0.00000E+00
    0.20045E+06         0.28006E+08         0.00000E+00
    0.00000E+00         0.00000E+00         0.12038E+08
 
    0.12095E+08         0.20565E+06         0.00000E+00
    0.20565E+06         0.27945E+08         0.00000E+00
    0.00000E+00         0.00000E+00         0.12012E+08
 
    0.12070E+08         0.21093E+06         0.00000E+00
    0.21093E+06         0.27881E+08         0.00000E+00
    0.00000E+00         0.00000E+00         0.11985E+08
 
    0.12044E+08         0.21626E+06         0.00000E+00
    0.21626E+06         0.27816E+08         0.00000E+00
    0.00000E+00         0.00000E+00         0.11958E+08
 
    0.12017E+08         0.22166E+06         0.00000E+00
    0.22166E+06         0.27749E+08         0.00000E+00
    0.00000E+00         0.00000E+00         0.11930E+08
 
    0.11989E+08         0.22710E+06         0.00000E+00
    0.22710E+06         0.27679E+08         0.00000E+00
    0.00000E+00         0.00000E+00         0.11900E+08
 
    0.11960E+08         0.23260E+06         0.00000E+00
    0.23260E+06         0.27608E+08         0.00000E+00
    0.00000E+00         0.00000E+00         0.11870E+08
 
    0.11930E+08         0.23814E+06         0.00000E+00
    0.23814E+06         0.27535E+08         0.00000E+00
    0.00000E+00         0.00000E+00         0.11839E+08
 
    0.11899E+08         0.24371E+06         0.00000E+00
    0.24371E+06         0.27459E+08         0.00000E+00
    0.00000E+00         0.00000E+00         0.11807E+08
 
    0.11867E+08         0.24932E+06         0.00000E+00
    0.24932E+06         0.27381E+08         0.00000E+00
    0.00000E+00         0.00000E+00         0.11775E+08
 
    0.11834E+08         0.25494E+06         0.00000E+00
    0.25494E+06         0.27301E+08         0.00000E+00
    0.00000E+00         0.00000E+00         0.11741E+08
 
    0.11800E+08         0.26058E+06         0.00000E+00
    0.26058E+06         0.27219E+08         0.00000E+00
    0.00000E+00         0.00000E+00         0.11706E+08
 
    0.11764E+08         0.26622E+06         0.00000E+00
    0.26622E+06         0.27135E+08         0.00000E+00
    0.00000E+00         0.00000E+00         0.11670E+08
 
    0.11727E+08         0.27184E+06         0.00000E+00
    0.27184E+06         0.27047E+08         0.00000E+00
    0.00000E+00         0.00000E+00         0.11632E+08
 
    0.11689E+08         0.27745E+06         0.00000E+00
    0.27745E+06         0.26958E+08         0.00000E+00
    0.00000E+00         0.00000E+00         0.11594E+08
 
    0.11650E+08         0.28302E+06         0.00000E+00
    0.28302E+06         0.26866E+08         0.00000E+00
    0.00000E+00         0.00000E+00         0.11555E+08
 
    0.11609E+08         0.28853E+06         0.00000E+00
    0.28853E+06         0.26771E+08         0.00000E+00
    0.00000E+00         0.00000E+00         0.11514E+08
 
    0.11567E+08         0.29398E+06         0.00000E+00
    0.29398E+06         0.26674E+08         0.00000E+00
    0.00000E+00         0.00000E+00         0.11472E+08
 
    0.11523E+08         0.29935E+06         0.00000E+00
    0.29935E+06         0.26574E+08         0.00000E+00
    0.00000E+00         0.00000E+00         0.11429E+08
 
    0.11478E+08         0.30460E+06         0.00000E+00
    0.30460E+06         0.26472E+08         0.00000E+00
    0.00000E+00         0.00000E+00         0.11385E+08
 
    0.11431E+08         0.30974E+06         0.00000E+00
    0.30974E+06         0.26366E+08         0.00000E+00
    0.00000E+00         0.00000E+00         0.11339E+08
 
    0.11383E+08         0.31472E+06         0.00000E+00
    0.31472E+06         0.26258E+08         0.00000E+00
    0.00000E+00         0.00000E+00         0.11292E+08
 
    0.11333E+08         0.31953E+06         0.00000E+00
    0.31953E+06         0.26147E+08         0.00000E+00
    0.00000E+00         0.00000E+00         0.11244E+08
 
    0.11281E+08         0.32414E+06         0.00000E+00
    0.32414E+06         0.26033E+08         0.00000E+00
    0.00000E+00         0.00000E+00         0.11194E+08
 
    0.11227E+08         0.32853E+06         0.00000E+00
    0.32853E+06         0.25917E+08         0.00000E+00
    0.00000E+00         0.00000E+00         0.11143E+08
 
    0.11172E+08         0.33265E+06         0.00000E+00
    0.33265E+06         0.25797E+08         0.00000E+00
    0.00000E+00         0.00000E+00         0.11091E+08
 
    0.11114E+08         0.33648E+06         0.00000E+00
    0.33648E+06         0.25674E+08         0.00000E+00
    0.00000E+00         0.00000E+00         0.11037E+08
 
    0.11055E+08         0.33998E+06         0.00000E+00
    0.33998E+06         0.25549E+08         0.00000E+00
    0.00000E+00         0.00000E+00         0.10981E+08
 
    0.10993E+08         0.34310E+06         0.00000E+00
    0.34310E+06         0.25420E+08         0.00000E+00
    0.00000E+00         0.00000E+00         0.10924E+08
 
    0.10930E+08         0.34582E+06         0.00000E+00
    0.34582E+06         0.25288E+08         0.00000E+00
    0.00000E+00         0.00000E+00         0.10865E+08
 
    0.10864E+08         0.34806E+06         0.00000E+00
    0.34806E+06         0.25154E+08         0.00000E+00
    0.00000E+00         0.00000E+00         0.10805E+08
 
    0.10796E+08         0.34979E+06         0.00000E+00
    0.34979E+06         0.25016E+08         0.00000E+00
    0.00000E+00         0.00000E+00         0.10744E+08
 
    0.10726E+08         0.35095E+06         0.00000E+00
    0.35095E+06         0.24875E+08         0.00000E+00
    0.00000E+00         0.00000E+00         0.10680E+08
 
    0.10653E+08         0.35147E+06         0.00000E+00
    0.35147E+06         0.24731E+08         0.00000E+00
    0.00000E+00         0.00000E+00         0.10615E+08
 
    0.10578E+08         0.35128E+06         0.00000E+00
    0.35128E+06         0.24583E+08         0.00000E+00
    0.00000E+00         0.00000E+00         0.10548E+08
 
    0.10500E+08         0.35031E+06         0.00000E+00
    0.35031E+06         0.24433E+08         0.00000E+00
    0.00000E+00         0.00000E+00         0.10480E+08
 
    0.10419E+08         0.34847E+06         0.00000E+00
    0.34847E+06         0.24279E+08         0.00000E+00
    0.00000E+00         0.00000E+00         0.10409E+08
 
    0.10336E+08         0.34566E+06         0.00000E+00
    0.34566E+06         0.24122E+08         0.00000E+00
    0.00000E+00         0.00000E+00         0.10337E+08
 
    0.10250E+08         0.34179E+06         0.00000E+00
    0.34179E+06         0.23963E+08         0.00000E+00
    0.00000E+00         0.00000E+00         0.10264E+08
 
    0.10161E+08         0.33673E+06         0.00000E+00
    0.33673E+06         0.23799E+08         0.00000E+00
    0.00000E+00         0.00000E+00         0.10188E+08
 
    0.10068E+08         0.33038E+06         0.00000E+00
    0.33038E+06         0.23633E+08         0.00000E+00
    0.00000E+00         0.00000E+00         0.10110E+08
 
    0.99733E+07         0.32260E+06         0.00000E+00
    0.32260E+06         0.23464E+08         0.00000E+00
    0.00000E+00         0.00000E+00         0.10031E+08
 
    0.98751E+07         0.31324E+06         0.00000E+00
    0.31324E+06         0.23291E+08         0.00000E+00
    0.00000E+00         0.00000E+00         0.99498E+07
 
    0.97737E+07         0.30218E+06         0.00000E+00
    0.30218E+06         0.23115E+08         0.00000E+00
    0.00000E+00         0.00000E+00         0.98667E+07
 
    0.96691E+07         0.28925E+06         0.00000E+00
    0.28925E+06         0.22936E+08         0.00000E+00
    0.00000E+00         0.00000E+00         0.97817E+07
 
    0.95614E+07         0.27434E+06         0.00000E+00
    0.27434E+06         0.22755E+08         0.00000E+00
    0.00000E+00         0.00000E+00         0.96948E+07
 
    0.94504E+07         0.25731E+06         0.00000E+00
    0.25731E+06         0.22570E+08         0.00000E+00
    0.00000E+00         0.00000E+00         0.96062E+07
 
    0.93363E+07         0.23807E+06         0.00000E+00
    0.23807E+06         0.22383E+08         0.00000E+00
    0.00000E+00         0.00000E+00         0.95158E+07
 
    0.92190E+07         0.21660E+06         0.00000E+00
    0.21660E+06         0.22194E+08         0.00000E+00
    0.00000E+00         0.00000E+00         0.94239E+07
 
    0.90986E+07         0.19294E+06         0.00000E+00
    0.19294E+06         0.22003E+08         0.00000E+00
    0.00000E+00         0.00000E+00         0.93306E+07
 
    0.89751E+07         0.16726E+06         0.00000E+00
    0.16726E+06         0.21812E+08         0.00000E+00
    0.00000E+00         0.00000E+00         0.92361E+07
 
    0.88485E+07         0.13991E+06         0.00000E+00
    0.13991E+06         0.21620E+08         0.00000E+00
    0.00000E+00         0.00000E+00         0.91406E+07
 
    0.87186E+07         0.11149E+06         0.00000E+00
    0.11149E+06         0.21430E+08         0.00000E+00
    0.00000E+00         0.00000E+00         0.90445E+07
 
    0.85851E+07         0.82929E+05         0.00000E+00
    0.82929E+05         0.21243E+08         0.00000E+00
    0.00000E+00         0.00000E+00         0.89483E+07
 
    0.84475E+07         0.55591E+05         0.00000E+00
    0.55591E+05         0.21060E+08         0.00000E+00
    0.00000E+00         0.00000E+00         0.88524E+07
 
    0.83049E+07         0.31286E+05         0.00000E+00
    0.31286E+05         0.20886E+08         0.00000E+00
    0.00000E+00         0.00000E+00         0.87573E+07
 
    0.81559E+07         0.12141E+05         0.00000E+00
    0.12141E+05         0.20723E+08         0.00000E+00
    0.00000E+00         0.00000E+00         0.86636E+07
 
    0.79986E+07         0.64717E+02         0.00000E+00
    0.64717E+02         0.20575E+08         0.00000E+00
    0.00000E+00         0.00000E+00         0.85720E+07
 
    0.78309E+07        -0.42267E+04         0.00000E+00
   -0.42267E+04         0.20445E+08         0.00000E+00
    0.00000E+00         0.00000E+00         0.84829E+07
 
    0.76509E+07        -0.22253E+04         0.00000E+00
   -0.22253E+04         0.20338E+08         0.00000E+00
    0.00000E+00         0.00000E+00         0.83968E+07
 
    0.12848E+08         0.74658E+03         0.00000E+00
    0.74658E+03         0.29511E+08         0.00000E+00
    0.00000E+00         0.00000E+00         0.12708E+08
 
    0.12823E+08         0.26031E+04         0.00000E+00
    0.26031E+04         0.29496E+08         0.00000E+00
    0.00000E+00         0.00000E+00         0.12696E+08
 
    0.12800E+08         0.54022E+04         0.00000E+00
    0.54022E+04         0.29477E+08         0.00000E+00
    0.00000E+00         0.00000E+00         0.12683E+08
 
    0.12778E+08         0.93718E+04         0.00000E+00
    0.93718E+04         0.29455E+08         0.00000E+00
    0.00000E+00         0.00000E+00         0.12670E+08
 
    0.12757E+08         0.14409E+05         0.00000E+00
    0.14409E+05         0.29431E+08         0.00000E+00
    0.00000E+00         0.00000E+00         0.12657E+08
 
    0.12738E+08         0.20236E+05         0.00000E+00
    0.20236E+05         0.29406E+08         0.00000E+00
    0.00000E+00         0.00000E+00         0.12643E+08
 
    0.12719E+08         0.26544E+05         0.00000E+00
    0.26544E+05         0.29379E+08         0.00000E+00
    0.00000E+00         0.00000E+00         0.12629E+08
 
    0.12701E+08         0.33071E+05         0.00000E+00
    0.33071E+05         0.29351E+08         0.00000E+00
    0.00000E+00         0.00000E+00         0.12615E+08
 
    0.12683E+08         0.39626E+05         0.00000E+00
    0.39626E+05         0.29322E+08         0.00000E+00
    0.00000E+00         0.00000E+00         0.12602E+08
 
    0.12666E+08         0.46080E+05         0.00000E+00
    0.46080E+05         0.29292E+08         0.00000E+00
    0.00000E+00         0.00000E+00         0.12588E+08
 
    0.12649E+08         0.52354E+05         0.00000E+00
    0.52354E+05         0.29262E+08         0.00000E+00
    0.00000E+00         0.00000E+00         0.12573E+08
 
    0.12633E+08         0.58405E+05         0.00000E+00
    0.58405E+05         0.29232E+08         0.00000E+00
    0.00000E+00         0.00000E+00         0.12559E+08
 
    0.12617E+08         0.64215E+05         0.00000E+00
    0.64215E+05         0.29201E+08         0.00000E+00
    0.00000E+00         0.00000E+00         0.12545E+08
 
    0.12601E+08         0.69785E+05         0.00000E+00
    0.69785E+05         0.29169E+08         0.00000E+00
    0.00000E+00         0.00000E+00         0.12531E+08
 
    0.12585E+08         0.75127E+05         0.00000E+00
    0.75127E+05         0.29137E+08         0.00000E+00
    0.00000E+00         0.00000E+00         0.12517E+08
 
    0.12569E+08         0.80257E+05         0.00000E+00
    0.80257E+05         0.29105E+08         0.00000E+00
    0.00000E+00         0.00000E+00         0.12502E+08
 
    0.12554E+08         0.85199E+05         0.00000E+00
    0.85199E+05         0.29072E+08         0.00000E+00
    0.00000E+00         0.00000E+00         0.12488E+08
 
    0.12538E+08         0.89978E+05         0.00000E+00
    0.89978E+05         0.29039E+08         0.00000E+00
    0.00000E+00         0.00000E+00         0.12473E+08
 
    0.12523E+08         0.94616E+05         0.00000E+00
    0.94616E+05         0.29005E+08         0.00000E+00
    0.00000E+00         0.00000E+00         0.12458E+08
 
    0.12508E+08         0.99139E+05         0.00000E+00
    0.99139E+05         0.28970E+08         0.00000E+00
    0.00000E+00         0.00000E+00         0.12443E+08
 
    0.12492E+08         0.10357E+06         0.00000E+00
    0.10357E+06         0.28935E+08         0.00000E+00
    0.00000E+00         0.00000E+00         0.12428E+08
 
    0.12477E+08         0.10792E+06         0.00000E+00
    0.10792E+06         0.28899E+08         0.00000E+00
    0.00000E+00         0.00000E+00         0.12413E+08
 
    0.12461E+08         0.11223E+06         0.00000E+00
    0.11223E+06         0.28862E+08         0.00000E+00
    0.00000E+00         0.00000E+00         0.12397E+08
 
    0.12446E+08         0.11649E+06         0.00000E+00
    0.11649E+06         0.28824E+08         0.00000E+00
    0.00000E+00         0.00000E+00         0.12381E+08
 
    0.12430E+08         0.12074E+06         0.00000E+00
    0.12074E+06         0.28786E+08         0.00000E+00
    0.00000E+00         0.00000E+00         0.12365E+08
 
    0.12414E+08         0.12498E+06         0.00000E+00
    0.12498E+06         0.28746E+08         0.00000E+00
    0.00000E+00         0.00000E+00         0.12348E+08
 
    0.12398E+08         0.12922E+06         0.00000E+00
    0.12922E+06         0.28706E+08         0.00000E+00
    0.00000E+00         0.00000E+00         0.12331E+08
 
    0.12381E+08         0.13348E+06         0.00000E+00
    0.13348E+06         0.28664E+08         0.00000E+00
    0.00000E+00         0.00000E+00         0.12314E+08
 
    0.12364E+08         0.13776E+06         0.00000E+00
    0.13776E+06         0.28622E+08         0.00000E+00
    0.00000E+00         0.00000E+00         0.12296E+08
 
    0.12347E+08         0.14207E+06         0.00000E+00
    0.14207E+06         0.28578E+08         0.00000E+00
    0.00000E+00         0.00000E+00         0.12277E+08
 
    0.12329E+08         0.14643E+06         0.00000E+00
    0.14643E+06         0.28533E+08         0.00000E+00
    0.00000E+00         0.00000E+00         0.12259E+08
 
    0.12311E+08         0.15083E+06         0.00000E+00
    0.15083E+06         0.28486E+08         0.00000E+00
    0.00000E+00         0.00000E+00         0.12239E+08
 
    0.12293E+08         0.15528E+06         0.00000E+00
    0.15528E+06         0.28439E+08         0.00000E+00
    0.00000E+00         0.00000E+00         0.12219E+08
 
    0.12274E+08         0.15978E+06         0.00000E+00
    0.15978E+06         0.28390E+08         0.00000E+00
    0.00000E+00         0.00000E+00         0.12199E+08
 
    0.12254E+08         0.16435E+06         0.00000E+00
    0.16435E+06         0.28340E+08         0.00000E+00
    0.00000E+00         0.00000E+00         0.12178E+08
 
    0.12234E+08         0.16897E+06         0.00000E+00
    0.16897E+06         0.28288E+08         0.00000E+00
    0.00000E+00         0.00000E+00         0.12157E+08
 
    0.12213E+08         0.17366E+06         0.00000E+00
    0.17366E+06         0.28234E+08         0.00000E+00
    0.00000E+00         0.00000E+00         0.12134E+08
 
    0.12192E+08         0.17842E+06         0.00000E+00
    0.17842E+06         0.28180E+08         0.00000E+00
    0.00000E+00         0.00000E+00         0.12111E+08
 
    0.12170E+08         0.18324E+06         0.00000E+00
    0.18324E+06         0.28123E+08         0.00000E+00
    0.00000E+00         0.00000E+00         0.12088E+08
 
    0.12147E+08         0.18812E+06         0.00000E+00
    0.18812E+06         0.28065E+08         0.00000E+00
    0.00000E+00         0.00000E+00         0.12064E+08
 
    0.12123E+08         0.19307E+06         0.00000E+00
    0.19307E+06         0.28005E+08         0.00000E+00
    0.00000E+00         0.00000E+00         0.12039E+08
 
    0.12099E+08         0.19808E+06         0.00000E+00
    0.19808E+06         0.27944E+08         0.00000E+00
    0.00000E+00         0.00000E+00         0.12013E+08
 
    0.12074E+08         0.20315E+06         0.00000E+00
    0.20315E+06         0.27880E+08         0.00000E+00
    0.00000E+00         0.00000E+00         0.11986E+08
 
    0.12048E+08         0.20828E+06         0.00000E+00
    0.20828E+06         0.27815E+08         0.00000E+00
    0.00000E+00         0.00000E+00         0.11959E+08
 
    0.12021E+08         0.21347E+06         0.00000E+00
    0.21347E+06         0.27748E+08         0.00000E+00
    0.00000E+00         0.00000E+00         0.11930E+08
 
    0.11993E+08         0.21870E+06         0.00000E+00
    0.21870E+06         0.27678E+08         0.00000E+00
    0.00000E+00         0.00000E+00         0.11901E+08
 
    0.11964E+08         0.22399E+06         0.00000E+00
    0.22399E+06         0.27607E+08         0.00000E+00
    0.00000E+00         0.00000E+00         0.11871E+08
 
    0.11934E+08         0.22931E+06         0.00000E+00
    0.22931E+06         0.27534E+08         0.00000E+00
    0.00000E+00         0.00000E+00         0.11840E+08
 
    0.11903E+08         0.23467E+06         0.00000E+00
    0.23467E+06         0.27458E+08         0.00000E+00
    0.00000E+00         0.00000E+00         0.11808E+08
 
    0.11871E+08         0.24005E+06         0.00000E+00
    0.24005E+06         0.27380E+08         0.00000E+00
    0.00000E+00         0.00000E+00         0.11776E+08
 
    0.11838E+08         0.24545E+06         0.00000E+00
    0.24545E+06         0.27300E+08         0.00000E+00
    0.00000E+00         0.00000E+00         0.11742E+08
 
    0.11804E+08         0.25087E+06         0.00000E+00
    0.25087E+06         0.27218E+08         0.00000E+00
    0.00000E+00         0.00000E+00         0.11707E+08
 
    0.11769E+08         0.25628E+06         0.00000E+00
    0.25628E+06         0.27133E+08         0.00000E+00
    0.00000E+00         0.00000E+00         0.11671E+08
 
    0.11732E+08         0.26168E+06         0.00000E+00
    0.26168E+06         0.27046E+08         0.00000E+00
    0.00000E+00         0.00000E+00         0.11633E+08
 
    0.11694E+08         0.26706E+06         0.00000E+00
    0.26706E+06         0.26957E+08         0.00000E+00
    0.00000E+00         0.00000E+00         0.11595E+08
 
    0.11654E+08         0.27240E+06         0.00000E+00
    0.27240E+06         0.26865E+08         0.00000E+00
    0.00000E+00         0.00000E+00         0.11556E+08
 
    0.11614E+08         0.27769E+06         0.00000E+00
    0.27769E+06         0.26770E+08         0.00000E+00
    0.00000E+00         0.00000E+00         0.11515E+08
 
    0.11572E+08         0.28291E+06         0.00000E+00
    0.28291E+06         0.26673E+08         0.00000E+00
    0.00000E+00         0.00000E+00         0.11473E+08
 
    0.11528E+08         0.28805E+06         0.00000E+00
    0.28805E+06         0.26573E+08         0.00000E+00
    0.00000E+00         0.00000E+00         0.11430E+08
 
    0.11483E+08         0.29309E+06         0.00000E+00
    0.29309E+06         0.26471E+08         0.00000E+00
    0.00000E+00         0.00000E+00         0.11386E+08
 
    0.11436E+08         0.29800E+06         0.00000E+00
    0.29800E+06         0.26365E+08         0.00000E+00
    0.00000E+00         0.00000E+00         0.11340E+08
 
    0.11387E+08         0.30277E+06         0.00000E+00
    0.30277E+06         0.26257E+08         0.00000E+00
    0.00000E+00         0.00000E+00         0.11293E+08
 
    0.11337E+08         0.30737E+06         0.00000E+00
    0.30737E+06         0.26146E+08         0.00000E+00
    0.00000E+00         0.00000E+00         0.11245E+08
 
    0.11285E+08         0.31178E+06         0.00000E+00
    0.31178E+06         0.26033E+08         0.00000E+00
    0.00000E+00         0.00000E+00         0.11195E+08
 
    0.11231E+08         0.31596E+06         0.00000E+00
    0.31596E+06         0.25916E+08         0.00000E+00
    0.00000E+00         0.00000E+00         0.11144E+08
 
    0.11176E+08         0.31989E+06         0.00000E+00
    0.31989E+06         0.25796E+08         0.00000E+00
    0.00000E+00         0.00000E+00         0.11092E+08
 
    0.11118E+08         0.32354E+06         0.00000E+00
    0.32354E+06         0.25674E+08         0.00000E+00
    0.00000E+00         0.00000E+00         0.11038E+08
 
    0.11059E+08         0.32686E+06         0.00000E+00
    0.32686E+06         0.25548E+08         0.00000E+00
    0.00000E+00         0.00000E+00         0.10982E+08
 
    0.10997E+08         0.32982E+06         0.00000E+00
    0.32982E+06         0.25420E+08         0.00000E+00
    0.00000E+00         0.00000E+00         0.10925E+08
 
    0.10933E+08         0.33238E+06         0.00000E+00
    0.33238E+06         0.25288E+08         0.00000E+00
    0.00000E+00         0.00000E+00         0.10866E+08
 
    0.10867E+08         0.33449E+06         0.00000E+00
    0.33449E+06         0.25153E+08         0.00000E+00
    0.00000E+00         0.00000E+00         0.10806E+08
 
    0.10799E+08         0.33610E+06         0.00000E+00
    0.33610E+06         0.25015E+08         0.00000E+00
    0.00000E+00         0.00000E+00         0.10744E+08
 
    0.10728E+08         0.33715E+06         0.00000E+00
    0.33715E+06         0.24875E+08         0.00000E+00
    0.00000E+00         0.00000E+00         0.10681E+08
 
    0.10655E+08         0.33758E+06         0.00000E+00
    0.33758E+06         0.24731E+08         0.00000E+00
    0.00000E+00         0.00000E+00         0.10616E+08
 
    0.10580E+08         0.33732E+06         0.00000E+00
    0.33732E+06         0.24583E+08         0.00000E+00
    0.00000E+00         0.00000E+00         0.10549E+08
 
    0.10501E+08         0.33630E+06         0.00000E+00
    0.33630E+06         0.24433E+08         0.00000E+00
    0.00000E+00         0.00000E+00         0.10480E+08
 
    0.10420E+08         0.33443E+06         0.00000E+00
    0.33443E+06         0.24280E+08         0.00000E+00
    0.00000E+00         0.00000E+00         0.10410E+08
 
    0.10337E+08         0.33162E+06         0.00000E+00
    0.33162E+06         0.24123E+08         0.00000E+00
    0.00000E+00         0.00000E+00         0.10338E+08
 
    0.10250E+08         0.32777E+06         0.00000E+00
    0.32777E+06         0.23963E+08         0.00000E+00
    0.00000E+00         0.00000E+00         0.10264E+08
 
    0.10160E+08         0.32277E+06         0.00000E+00
    0.32277E+06         0.23801E+08         0.00000E+00
    0.00000E+00         0.00000E+00         0.10188E+08
 
    0.10067E+08         0.31649E+06         0.00000E+00
    0.31649E+06         0.23634E+08         0.00000E+00
    0.00000E+00         0.00000E+00         0.10111E+08
 
    0.99716E+07         0.30880E+06         0.00000E+00
    0.30880E+06         0.23465E+08         0.00000E+00
    0.00000E+00         0.00000E+00         0.10031E+08
 
    0.98725E+07         0.29957E+06         0.00000E+00
    0.29957E+06         0.23293E+08         0.00000E+00
    0.00000E+00         0.00000E+00         0.99496E+07
 
    0.97702E+07         0.28865E+06         0.00000E+00
    0.28865E+06         0.23118E+08         0.00000E+00
    0.00000E+00         0.00000E+00         0.98663E+07
 
    0.96646E+07         0.27590E+06         0.00000E+00
    0.27590E+06         0.22939E+08         0.00000E+00
    0.00000E+00         0.00000E+00         0.97811E+07
 
    0.95557E+07         0.26118E+06         0.00000E+00
    0.26118E+06         0.22758E+08         0.00000E+00
    0.00000E+00         0.00000E+00         0.96941E+07
 
    0.94434E+07         0.24436E+06         0.00000E+00
    0.24436E+06         0.22574E+08         0.00000E+00
    0.00000E+00         0.00000E+00         0.96052E+07
 
    0.93278E+07         0.22535E+06         0.00000E+00
    0.22535E+06         0.22387E+08         0.00000E+00
    0.00000E+00         0.00000E+00         0.95145E+07
 
    0.92090E+07         0.20413E+06         0.00000E+00
    0.20413E+06         0.22199E+08         0.00000E+00
    0.00000E+00         0.00000E+00         0.94223E+07
 
    0.90868E+07         0.18074E+06         0.00000E+00
    0.18074E+06         0.22008E+08         0.00000E+00
    0.00000E+00         0.00000E+00         0.93285E+07
 
    0.89613E+07         0.15536E+06         0.00000E+00
    0.15536E+06         0.21817E+08         0.00000E+00
    0.00000E+00         0.00000E+00         0.92335E+07
 
    0.88325E+07         0.12835E+06         0.00000E+00
    0.12835E+06         0.21626E+08         0.00000E+00
    0.00000E+00         0.00000E+00         0.91375E+07
 
    0.87003E+07         0.10034E+06         0.00000E+00
    0.10034E+06         0.21436E+08         0.00000E+00
    0.00000E+00         0.00000E+00         0.90408E+07
 
    0.85644E+07         0.72289E+05         0.00000E+00
    0.72289E+05         0.21248E+08         0.00000E+00
    0.00000E+00         0.00000E+00         0.89438E+07
 
    0.84244E+07         0.45624E+05         0.00000E+00
    0.45624E+05         0.21066E+08         0.00000E+00
    0.00000E+00         0.00000E+00         0.88470E+07
 
    0.82796E+07         0.22236E+05         0.00000E+00
    0.22236E+05         0.20890E+08         0.00000E+00
    0.00000E+00         0.00000E+00         0.87510E+07
 
    0.81288E+07         0.43525E+04         0.00000E+00
    0.43525E+04         0.20726E+08         0.00000E+00
    0.00000E+00         0.00000E+00         0.86564E+07
 
    0.79702E+07        -0.60222E+04         0.00000E+00
   -0.60222E+04         0.20576E+08         0.00000E+00
    0.00000E+00         0.00000E+00         0.85639E+07
 
    0.78018E+07        -0.81375E+04         0.00000E+00
   -0.81375E+04         0.20445E+08         0.00000E+00
    0.00000E+00         0.00000E+00         0.84741E+07
 
    0.76215E+07        -0.35784E+04         0.00000E+00
   -0.35784E+04         0.20337E+08         0.00000E+00
    0.00000E+00         0.00000E+00         0.83876E+07
 
    0.12854E+08         0.52285E+03         0.00000E+00
    0.52285E+03         0.29511E+08         0.00000E+00
    0.00000E+00         0.00000E+00         0.12709E+08
 
    0.12828E+08         0.19553E+04         0.00000E+00
    0.19553E+04         0.29495E+08         0.00000E+00
    0.00000E+00         0.00000E+00         0.12697E+08
 
    0.12805E+08         0.43883E+04         0.00000E+00
    0.43883E+04         0.29476E+08         0.00000E+00
    0.00000E+00         0.00000E+00         0.12684E+08
 
    0.12783E+08         0.80590E+04         0.00000E+00
    0.80590E+04         0.29454E+08         0.00000E+00
    0.00000E+00         0.00000E+00         0.12671E+08
 
    0.12762E+08         0.12855E+05         0.00000E+00
    0.12855E+05         0.29430E+08         0.00000E+00
    0.00000E+00         0.00000E+00         0.12658E+08
 
    0.12743E+08         0.18480E+05         0.00000E+00
    0.18480E+05         0.29404E+08         0.00000E+00
    0.00000E+00         0.00000E+00         0.12644E+08
 
    0.12724E+08         0.24613E+05         0.00000E+00
    0.24613E+05         0.29377E+08         0.00000E+00
    0.00000E+00         0.00000E+00         0.12630E+08
 
    0.12705E+08         0.30980E+05         0.00000E+00
    0.30980E+05         0.29349E+08         0.00000E+00
    0.00000E+00         0.00000E+00         0.12616E+08
 
    0.12687E+08         0.37385E+05         0.00000E+00
    0.37385E+05         0.29320E+08         0.00000E+00
    0.00000E+00         0.00000E+00         0.12602E+08
 
    0.12670E+08         0.43693E+05         0.00000E+00
    0.43693E+05         0.29291E+08         0.00000E+00
    0.00000E+00         0.00000E+00         0.12588E+08
 
    0.12653E+08         0.49822E+05         0.00000E+00
    0.49822E+05         0.29261E+08         0.00000E+00
    0.00000E+00         0.00000E+00         0.12574E+08
 
    0.12636E+08         0.55729E+05         0.00000E+00
    0.55729E+05         0.29230E+08         0.00000E+00
    0.00000E+00         0.00000E+00         0.12560E+08
 
    0.12620E+08         0.61395E+05         0.00000E+00
    0.61395E+05         0.29200E+08         0.00000E+00
    0.00000E+00         0.00000E+00         0.12546E+08
 
    0.12604E+08         0.66819E+05         0.00000E+00
    0.66819E+05         0.29168E+08         0.00000E+00
    0.00000E+00         0.00000E+00         0.12532E+08
 
    0.12588E+08         0.72014E+05         0.00000E+00
    0.72014E+05         0.29136E+08         0.00000E+00
    0.00000E+00         0.00000E+00         0.12517E+08
 
    0.12572E+08         0.76996E+05         0.00000E+00
    0.76996E+05         0.29104E+08         0.00000E+00
    0.00000E+00         0.00000E+00         0.12503E+08
 
    0.12556E+08         0.81790E+05         0.00000E+00
    0.81790E+05         0.29071E+08         0.00000E+00
    0.00000E+00         0.00000E+00         0.12488E+08
 
    0.12541E+08         0.86419E+05         0.00000E+00
    0.86419E+05         0.29038E+08         0.00000E+00
    0.00000E+00         0.00000E+00         0.12474E+08
 
    0.12526E+08         0.90907E+05         0.00000E+00
    0.90907E+05         0.29004E+08         0.00000E+00
    0.00000E+00         0.00000E+00         0.12459E+08
 
    0.12510E+08         0.95280E+05         0.00000E+00
    0.95280E+05         0.28969E+08         0.00000E+00
    0.00000E+00         0.00000E+00         0.12444E+08
 
    0.12495E+08         0.99558E+05         0.00000E+00
    0.99558E+05         0.28934E+08         0.00000E+00
    0.00000E+00         0.00000E+00         0.12429E+08
 
    0.12480E+08         0.10376E+06         0.00000E+00
    0.10376E+06         0.28898E+08         0.00000E+00
    0.00000E+00         0.00000E+00         0.12413E+08
 
    0.12464E+08         0.10791E+06         0.00000E+00
    0.10791E+06         0.28861E+08         0.00000E+00
    0.00000E+00         0.00000E+00         0.12398E+08
 
    0.12449E+08         0.11203E+06         0.00000E+00
    0.11203E+06         0.28824E+08         0.00000E+00
    0.00000E+00         0.00000E+00         0.12382E+08
 
    0.12433E+08         0.11612E+06         0.00000E+00
    0.11612E+06         0.28785E+08         0.00000E+00
    0.00000E+00         0.00000E+00         0.12365E+08
 
    0.12417E+08         0.12020E+06         0.00000E+00
    0.12020E+06         0.28745E+08         0.00000E+00
    0.00000E+00         0.00000E+00         0.12349E+08
 
    0.12401E+08         0.12428E+06         0.00000E+00
    0.12428E+06         0.28705E+08         0.00000E+00
    0.00000E+00         0.00000E+00         0.12332E+08
 
    0.12384E+08         0.12838E+06         0.00000E+00
    0.12838E+06         0.28663E+08         0.00000E+00
    0.00000E+00         0.00000E+00         0.12314E+08
 
    0.12367E+08         0.13250E+06         0.00000E+00
    0.13250E+06         0.28621E+08         0.00000E+00
    0.00000E+00         0.00000E+00         0.12296E+08
 
    0.12350E+08         0.13665E+06         0.00000E+00
    0.13665E+06         0.28577E+08         0.00000E+00
    0.00000E+00         0.00000E+00         0.12278E+08
 
    0.12333E+08         0.14084E+06         0.00000E+00
    0.14084E+06         0.28532E+08         0.00000E+00
    0.00000E+00         0.00000E+00         0.12259E+08
 
    0.12314E+08         0.14508E+06         0.00000E+00
    0.14508E+06         0.28486E+08         0.00000E+00
    0.00000E+00         0.00000E+00         0.12240E+08
 
    0.12296E+08         0.14936E+06         0.00000E+00
    0.14936E+06         0.28438E+08         0.00000E+00
    0.00000E+00         0.00000E+00         0.12220E+08
 
    0.12277E+08         0.15369E+06         0.00000E+00
    0.15369E+06         0.28389E+08         0.00000E+00
    0.00000E+00         0.00000E+00         0.12200E+08
 
    0.12257E+08         0.15808E+06         0.00000E+00
    0.15808E+06         0.28339E+08         0.00000E+00
    0.00000E+00         0.00000E+00         0.12179E+08
 
    0.12237E+08         0.16253E+06         0.00000E+00
    0.16253E+06         0.28287E+08         0.00000E+00
    0.00000E+00         0.00000E+00         0.12157E+08
 
    0.12217E+08         0.16703E+06         0.00000E+00
    0.16703E+06         0.28234E+08         0.00000E+00
    0.00000E+00         0.00000E+00         0.12135E+08
 
    0.12195E+08         0.17160E+06         0.00000E+00
    0.17160E+06         0.28179E+08         0.00000E+00
    0.00000E+00         0.00000E+00         0.12112E+08
 
    0.12173E+08         0.17623E+06         0.00000E+00
    0.17623E+06         0.28122E+08         0.00000E+00
    0.00000E+00         0.00000E+00         0.12089E+08
 
    0.12151E+08         0.18092E+06         0.00000E+00
    0.18092E+06         0.28064E+08         0.00000E+00
    0.00000E+00         0.00000E+00         0.12064E+08
 
    0.12127E+08         0.18568E+06         0.00000E+00
    0.18568E+06         0.28004E+08         0.00000E+00
    0.00000E+00         0.00000E+00         0.12039E+08
 
    0.12103E+08         0.19049E+06         0.00000E+00
    0.19049E+06         0.27943E+08         0.00000E+00
    0.00000E+00         0.00000E+00         0.12014E+08
 
    0.12078E+08         0.19536E+06         0.00000E+00
    0.19536E+06         0.27879E+08         0.00000E+00
    0.00000E+00         0.00000E+00         0.11987E+08
 
    0.12052E+08         0.20029E+06         0.00000E+00
    0.20029E+06         0.27814E+08         0.00000E+00
    0.00000E+00         0.00000E+00         0.11960E+08
 
    0.12025E+08         0.20527E+06         0.00000E+00
    0.20527E+06         0.27746E+08         0.00000E+00
    0.00000E+00         0.00000E+00         0.11931E+08
 
    0.11997E+08         0.21029E+06         0.00000E+00
    0.21029E+06         0.27677E+08         0.00000E+00
    0.00000E+00         0.00000E+00         0.11902E+08
 
    0.11968E+08         0.21536E+06         0.00000E+00
    0.21536E+06         0.27606E+08         0.00000E+00
    0.00000E+00         0.00000E+00         0.11872E+08
 
    0.11939E+08         0.22047E+06         0.00000E+00
    0.22047E+06         0.27533E+08         0.00000E+00
    0.00000E+00         0.00000E+00         0.11841E+08
 
    0.11908E+08         0.22561E+06         0.00000E+00
    0.22561E+06         0.27457E+08         0.00000E+00
    0.00000E+00         0.00000E+00         0.11809E+08
 
    0.11876E+08         0.23078E+06         0.00000E+00
    0.23078E+06         0.27379E+08         0.00000E+00
    0.00000E+00         0.00000E+00         0.11777E+08
 
    0.11843E+08         0.23596E+06         0.00000E+00
    0.23596E+06         0.27299E+08         0.00000E+00
    0.00000E+00         0.00000E+00         0.11743E+08
 
    0.11809E+08         0.24115E+06         0.00000E+00
    0.24115E+06         0.27217E+08         0.00000E+00
    0.00000E+00         0.00000E+00         0.11708E+08
 
    0.11773E+08         0.24634E+06         0.00000E+00
    0.24634E+06         0.27132E+08         0.00000E+00
    0.00000E+00         0.00000E+00         0.11672E+08
 
    0.11736E+08         0.25151E+06         0.00000E+00
    0.25151E+06         0.27045E+08         0.00000E+00
    0.00000E+00         0.00000E+00         0.11635E+08
 
    0.11698E+08         0.25666E+06         0.00000E+00
    0.25666E+06         0.26956E+08         0.00000E+00
    0.00000E+00         0.00000E+00         0.11596E+08
 
    0.11659E+08         0.26178E+06         0.00000E+00
    0.26178E+06         0.26864E+08         0.00000E+00
    0.00000E+00         0.00000E+00         0.11557E+08
 
    0.11618E+08         0.26685E+06         0.00000E+00
    0.26685E+06         0.26769E+08         0.00000E+00
    0.00000E+00         0.00000E+00         0.11516E+08
 
    0.11576E+08         0.27185E+06         0.00000E+00
    0.27185E+06         0.26672E+08         0.00000E+00
    0.00000E+00         0.00000E+00         0.11474E+08
 
    0.11532E+08         0.27676E+06         0.00000E+00
    0.27676E+06         0.26572E+08         0.00000E+00
    0.00000E+00         0.00000E+00         0.11431E+08
 
    0.11487E+08         0.28158E+06         0.00000E+00
    0.28158E+06         0.26470E+08         0.00000E+00
    0.00000E+00         0.00000E+00         0.11387E+08
 
    0.11440E+08         0.28628E+06         0.00000E+00
    0.28628E+06         0.26364E+08         0.00000E+00
    0.00000E+00         0.00000E+00         0.11341E+08
 
    0.11392E+08         0.29083E+06         0.00000E+00
    0.29083E+06         0.26256E+08         0.00000E+00
    0.00000E+00         0.00000E+00         0.11294E+08
 
    0.11342E+08         0.29523E+06         0.00000E+00
    0.29523E+06         0.26145E+08         0.00000E+00
    0.00000E+00         0.00000E+00         0.11246E+08
 
    0.11290E+08         0.29943E+06         0.00000E+00
    0.29943E+06         0.26032E+08         0.00000E+00
    0.00000E+00         0.00000E+00         0.11196E+08
 
    0.11236E+08         0.30341E+06         0.00000E+00
    0.30341E+06         0.25915E+08         0.00000E+00
    0.00000E+00         0.00000E+00         0.11145E+08
 
    0.11180E+08         0.30716E+06         0.00000E+00
    0.30716E+06         0.25796E+08         0.00000E+00
    0.00000E+00         0.00000E+00         0.11093E+08
 
    0.11122E+08         0.31062E+06         0.00000E+00
    0.31062E+06         0.25673E+08         0.00000E+00
    0.00000E+00         0.00000E+00         0.11039E+08
 
    0.11063E+08         0.31377E+06         0.00000E+00
    0.31377E+06         0.25548E+08         0.00000E+00
    0.00000E+00         0.00000E+00         0.10983E+08
 
    0.11001E+08         0.31658E+06         0.00000E+00
    0.31658E+06         0.25419E+08         0.00000E+00
    0.00000E+00         0.00000E+00         0.10926E+08
 
    0.10937E+08         0.31899E+06         0.00000E+00
    0.31899E+06         0.25287E+08         0.00000E+00
    0.00000E+00         0.00000E+00         0.10867E+08
 
    0.10871E+08         0.32096E+06         0.00000E+00
    0.32096E+06         0.25153E+08         0.00000E+00
    0.00000E+00         0.00000E+00         0.10807E+08
 
    0.10802E+08         0.32245E+06         0.00000E+00
    0.32245E+06         0.25015E+08         0.00000E+00
    0.00000E+00         0.00000E+00         0.10745E+08
 
    0.10731E+08         0.32340E+06         0.00000E+00
    0.32340E+06         0.24874E+08         0.00000E+00
    0.00000E+00         0.00000E+00         0.10682E+08
 
    0.10658E+08         0.32375E+06         0.00000E+00
    0.32375E+06         0.24731E+08         0.00000E+00
    0.00000E+00         0.00000E+00         0.10616E+08
 
    0.10582E+08         0.32343E+06         0.00000E+00
    0.32343E+06         0.24584E+08         0.00000E+00
    0.00000E+00         0.00000E+00         0.10550E+08
 
    0.10503E+08         0.32237E+06         0.00000E+00
    0.32237E+06         0.24433E+08         0.00000E+00
    0.00000E+00         0.00000E+00         0.10481E+08
 
    0.10422E+08         0.32048E+06         0.00000E+00
    0.32048E+06         0.24280E+08         0.00000E+00
    0.00000E+00         0.00000E+00         0.10411E+08
 
    0.10337E+08         0.31768E+06         0.00000E+00
    0.31768E+06         0.24124E+08         0.00000E+00
    0.00000E+00         0.00000E+00         0.10338E+08
 
    0.10250E+08         0.31386E+06         0.00000E+00
    0.31386E+06         0.23964E+08         0.00000E+00
    0.00000E+00         0.00000E+00         0.10264E+08
 
    0.10160E+08         0.30892E+06         0.00000E+00
    0.30892E+06         0.23802E+08         0.00000E+00
    0.00000E+00         0.00000E+00         0.10188E+08
 
    0.10067E+08         0.30273E+06         0.00000E+00
    0.30273E+06         0.23636E+08         0.00000E+00
    0.00000E+00         0.00000E+00         0.10111E+08
 
    0.99700E+07         0.29516E+06         0.00000E+00
    0.29516E+06         0.23467E+08         0.00000E+00
    0.00000E+00         0.00000E+00         0.10031E+08
 
    0.98701E+07         0.28607E+06         0.00000E+00
    0.28607E+06         0.23295E+08         0.00000E+00
    0.00000E+00         0.00000E+00         0.99495E+07
 
    0.97669E+07         0.27532E+06         0.00000E+00
    0.27532E+06         0.23120E+08         0.00000E+00
    0.00000E+00         0.00000E+00         0.98660E+07
 
    0.96603E+07         0.26277E+06         0.00000E+00
    0.26277E+06         0.22942E+08         0.00000E+00
    0.00000E+00         0.00000E+00         0.97806E+07
 
    0.95502E+07         0.24826E+06         0.00000E+00
    0.24826E+06         0.22761E+08         0.00000E+00
    0.00000E+00         0.00000E+00         0.96933E+07
 
    0.94366E+07         0.23168E+06         0.00000E+00
    0.23168E+06         0.22577E+08         0.00000E+00
    0.00000E+00         0.00000E+00         0.96042E+07
 
    0.93196E+07         0.21294E+06         0.00000E+00
    0.21294E+06         0.22391E+08         0.00000E+00
    0.00000E+00         0.00000E+00         0.95133E+07
 
    0.91991E+07         0.19200E+06         0.00000E+00
    0.19200E+06         0.22203E+08         0.00000E+00
    0.00000E+00         0.00000E+00         0.94206E+07
 
    0.90751E+07         0.16891E+06         0.00000E+00
    0.16891E+06         0.22013E+08         0.00000E+00
    0.00000E+00         0.00000E+00         0.93265E+07
 
    0.89476E+07         0.14387E+06         0.00000E+00
    0.14387E+06         0.21822E+08         0.00000E+00
    0.00000E+00         0.00000E+00         0.92310E+07
 
    0.88166E+07         0.11724E+06         0.00000E+00
    0.11724E+06         0.21631E+08         0.00000E+00
    0.00000E+00         0.00000E+00         0.91344E+07
 
    0.86821E+07         0.89659E+05         0.00000E+00
    0.89659E+05         0.21441E+08         0.00000E+00
    0.00000E+00         0.00000E+00         0.90370E+07
 
    0.85438E+07         0.62134E+05         0.00000E+00
    0.62134E+05         0.21254E+08         0.00000E+00
    0.00000E+00         0.00000E+00         0.89392E+07
 
    0.84014E+07         0.36124E+05         0.00000E+00
    0.36124E+05         0.21071E+08         0.00000E+00
    0.00000E+00         0.00000E+00         0.88416E+07
 
    0.82543E+07         0.13598E+05         0.00000E+00
    0.13598E+05         0.20894E+08         0.00000E+00
    0.00000E+00         0.00000E+00         0.87447E+07
 
    0.81017E+07        -0.31195E+04         0.00000E+00
   -0.31195E+04         0.20729E+08         0.00000E+00
    0.00000E+00         0.00000E+00         0.86491E+07
 
    0.79418E+07        -0.11909E+05         0.00000E+00
   -0.11909E+05         0.20577E+08         0.00000E+00
    0.00000E+00         0.00000E+00         0.85557E+07
 
    0.77726E+07        -0.11953E+05         0.00000E+00
   -0.11953E+05         0.20445E+08         0.00000E+00
    0.00000E+00         0.00000E+00         0.84652E+07
 
    0.75920E+07        -0.49060E+04         0.00000E+00
   -0.49060E+04         0.20336E+08         0.00000E+00
    0.00000E+00         0.00000E+00         0.83783E+07
 
    0.12859E+08         0.30139E+03         0.00000E+00
    0.30139E+03         0.29510E+08         0.00000E+00
    0.00000E+00         0.00000E+00         0.12711E+08
 
    0.12834E+08         0.13174E+04         0.00000E+00
    0.13174E+04         0.29495E+08         0.00000E+00
    0.00000E+00         0.00000E+00         0.12699E+08
 
    0.12810E+08         0.33975E+04         0.00000E+00
    0.33975E+04         0.29476E+08         0.00000E+00
    0.00000E+00         0.00000E+00         0.12686E+08
 
    0.12788E+08         0.67846E+04         0.00000E+00
    0.67846E+04         0.29453E+08         0.00000E+00
    0.00000E+00         0.00000E+00         0.12672E+08
 
    0.12767E+08         0.11351E+05         0.00000E+00
    0.11351E+05         0.29429E+08         0.00000E+00
    0.00000E+00         0.00000E+00         0.12659E+08
 
    0.12747E+08         0.16782E+05         0.00000E+00
    0.16782E+05         0.29403E+08         0.00000E+00
    0.00000E+00         0.00000E+00         0.12645E+08
 
    0.12728E+08         0.22740E+05         0.00000E+00
    0.22740E+05         0.29376E+08         0.00000E+00
    0.00000E+00         0.00000E+00         0.12631E+08
 
    0.12709E+08         0.28946E+05         0.00000E+00
    0.28946E+05         0.29348E+08         0.00000E+00
    0.00000E+00         0.00000E+00         0.12617E+08
 
    0.12691E+08         0.35195E+05         0.00000E+00
    0.35195E+05         0.29319E+08         0.00000E+00
    0.00000E+00         0.00000E+00         0.12603E+08
 
    0.12674E+08         0.41350E+05         0.00000E+00
    0.41350E+05         0.29290E+08         0.00000E+00
    0.00000E+00         0.00000E+00         0.12589E+08
 
    0.12656E+08         0.47330E+05         0.00000E+00
    0.47330E+05         0.29260E+08         0.00000E+00
    0.00000E+00         0.00000E+00         0.12575E+08
 
    0.12639E+08         0.53086E+05         0.00000E+00
    0.53086E+05         0.29229E+08         0.00000E+00
    0.00000E+00         0.00000E+00         0.12561E+08
 
    0.12623E+08         0.58601E+05         0.00000E+00
    0.58601E+05         0.29198E+08         0.00000E+00
    0.00000E+00         0.00000E+00         0.12546E+08
 
    0.12607E+08         0.63875E+05         0.00000E+00
    0.63875E+05         0.29167E+08         0.00000E+00
    0.00000E+00         0.00000E+00         0.12532E+08
 
    0.12591E+08         0.68917E+05         0.00000E+00
    0.68917E+05         0.29135E+08         0.00000E+00
    0.00000E+00         0.00000E+00         0.12518E+08
 
    0.12575E+08         0.73748E+05         0.00000E+00
    0.73748E+05         0.29103E+08         0.00000E+00
    0.00000E+00         0.00000E+00         0.12503E+08
 
    0.12559E+08         0.78390E+05         0.00000E+00
    0.78390E+05         0.29070E+08         0.00000E+00
    0.00000E+00         0.00000E+00         0.12489E+08
 
    0.12544E+08         0.82866E+05         0.00000E+00
    0.82866E+05         0.29037E+08         0.00000E+00
    0.00000E+00         0.00000E+00         0.12474E+08
 
    0.12528E+08         0.87202E+05         0.00000E+00
    0.87202E+05         0.29003E+08         0.00000E+00
    0.00000E+00         0.00000E+00         0.12459E+08
 
    0.12513E+08         0.91421E+05         0.00000E+00
    0.91421E+05         0.28968E+08         0.00000E+00
    0.00000E+00         0.00000E+00         0.12444E+08
 
    0.12498E+08         0.95546E+05         0.00000E+00
    0.95546E+05         0.28933E+08         0.00000E+00
    0.00000E+00         0.00000E+00         0.12429E+08
 
    0.12482E+08         0.99597E+05         0.00000E+00
    0.99597E+05         0.28897E+08         0.00000E+00
    0.00000E+00         0.00000E+00         0.12414E+08
 
    0.12467E+08         0.10359E+06         0.00000E+00
    0.10359E+06         0.28860E+08         0.00000E+00
    0.00000E+00         0.00000E+00         0.12398E+08
 
    0.12451E+08         0.10755E+06         0.00000E+00
    0.10755E+06         0.28823E+08         0.00000E+00
    0.00000E+00         0.00000E+00         0.12382E+08
 
    0.12436E+08         0.11149E+06         0.00000E+00
    0.11149E+06         0.28784E+08         0.00000E+00
    0.00000E+00         0.00000E+00         0.12366E+08
 
    0.12420E+08         0.11541E+06         0.00000E+00
    0.11541E+06         0.28745E+08         0.00000E+00
    0.00000E+00         0.00000E+00         0.12349E+08
 
    0.12403E+08         0.11934E+06         0.00000E+00
    0.11934E+06         0.28704E+08         0.00000E+00
    0.00000E+00         0.00000E+00         0.12332E+08
 
    0.12387E+08         0.12328E+06         0.00000E+00
    0.12328E+06         0.28663E+08         0.00000E+00
    0.00000E+00         0.00000E+00         0.12315E+08
 
    0.12370E+08         0.12724E+06         0.00000E+00
    0.12724E+06         0.28620E+08         0.00000E+00
    0.00000E+00         0.00000E+00         0.12297E+08
 
    0.12353E+08         0.13123E+06         0.00000E+00
    0.13123E+06         0.28576E+08         0.00000E+00
    0.00000E+00         0.00000E+00         0.12279E+08
 
    0.12336E+08         0.13525E+06         0.00000E+00
    0.13525E+06         0.28531E+08         0.00000E+00
    0.00000E+00         0.00000E+00         0.12260E+08
 
    0.12318E+08         0.13931E+06         0.00000E+00
    0.13931E+06         0.28485E+08         0.00000E+00
    0.00000E+00         0.00000E+00         0.12241E+08
 
    0.12299E+08         0.14342E+06         0.00000E+00
    0.14342E+06         0.28437E+08         0.00000E+00
    0.00000E+00         0.00000E+00         0.12221E+08
 
    0.12280E+08         0.14758E+06         0.00000E+00
    0.14758E+06         0.28388E+08         0.00000E+00
    0.00000E+00         0.00000E+00         0.12201E+08
 
    0.12261E+08         0.15179E+06         0.00000E+00
    0.15179E+06         0.28338E+08         0.00000E+00
    0.00000E+00         0.00000E+00         0.12180E+08
 
    0.12241E+08         0.15606E+06         0.00000E+00
    0.15606E+06         0.28286E+08         0.00000E+00
    0.00000E+00         0.00000E+00         0.12158E+08
 
    0.12220E+08         0.16039E+06         0.00000E+00
    0.16039E+06         0.28233E+08         0.00000E+00
    0.00000E+00         0.00000E+00         0.12136E+08
 
    0.12199E+08         0.16477E+06         0.00000E+00
    0.16477E+06         0.28178E+08         0.00000E+00
    0.00000E+00         0.00000E+00         0.12113E+08
 
    0.12177E+08         0.16921E+06         0.00000E+00
    0.16921E+06         0.28121E+08         0.00000E+00
    0.00000E+00         0.00000E+00         0.12089E+08
 
    0.12154E+08         0.17371E+06         0.00000E+00
    0.17371E+06         0.28063E+08         0.00000E+00
    0.00000E+00         0.00000E+00         0.12065E+08
 
    0.12131E+08         0.17827E+06         0.00000E+00
    0.17827E+06         0.28003E+08         0.00000E+00
    0.00000E+00         0.00000E+00         0.12040E+08
 
    0.12107E+08         0.18289E+06         0.00000E+00
    0.18289E+06         0.27942E+08         0.00000E+00
    0.00000E+00         0.00000E+00         0.12014E+08
 
    0.12082E+08         0.18756E+06         0.00000E+00
    0.18756E+06         0.27878E+08         0.00000E+00
    0.00000E+00         0.00000E+00         0.11988E+08
 
    0.12056E+08         0.19228E+06         0.00000E+00
    0.19228E+06         0.27813E+08         0.00000E+00
    0.00000E+00         0.00000E+00         0.11961E+08
 
    0.12029E+08         0.19705E+06         0.00000E+00
    0.19705E+06         0.27746E+08         0.00000E+00
    0.00000E+00         0.00000E+00         0.11932E+08
 
    0.12001E+08         0.20187E+06         0.00000E+00
    0.20187E+06         0.27676E+08         0.00000E+00
    0.00000E+00         0.00000E+00         0.11903E+08
 
    0.11972E+08         0.20673E+06         0.00000E+00
    0.20673E+06         0.27605E+08         0.00000E+00
    0.00000E+00         0.00000E+00         0.11873E+08
 
    0.11943E+08         0.21162E+06         0.00000E+00
    0.21162E+06         0.27532E+08         0.00000E+00
    0.00000E+00         0.00000E+00         0.11842E+08
 
    0.11912E+08         0.21654E+06         0.00000E+00
    0.21654E+06         0.27456E+08         0.00000E+00
    0.00000E+00         0.00000E+00         0.11810E+08
 
    0.11880E+08         0.22149E+06         0.00000E+00
    0.22149E+06         0.27378E+08         0.00000E+00
    0.00000E+00         0.00000E+00         0.11778E+08
 
    0.11847E+08         0.22645E+06         0.00000E+00
    0.22645E+06         0.27298E+08         0.00000E+00
    0.00000E+00         0.00000E+00         0.11744E+08
 
    0.11813E+08         0.23142E+06         0.00000E+00
    0.23142E+06         0.27216E+08         0.00000E+00
    0.00000E+00         0.00000E+00         0.11709E+08
 
    0.11778E+08         0.23638E+06         0.00000E+00
    0.23638E+06         0.27131E+08         0.00000E+00
    0.00000E+00         0.00000E+00         0.11673E+08
 
    0.11741E+08         0.24134E+06         0.00000E+00
    0.24134E+06         0.27044E+08         0.00000E+00
    0.00000E+00         0.00000E+00         0.11636E+08
 
    0.11703E+08         0.24627E+06         0.00000E+00
    0.24627E+06         0.26955E+08         0.00000E+00
    0.00000E+00         0.00000E+00         0.11597E+08
 
    0.11664E+08         0.25116E+06         0.00000E+00
    0.25116E+06         0.26863E+08         0.00000E+00
    0.00000E+00         0.00000E+00         0.11558E+08
 
    0.11623E+08         0.25600E+06         0.00000E+00
    0.25600E+06         0.26768E+08         0.00000E+00
    0.00000E+00         0.00000E+00         0.11517E+08
 
    0.11581E+08         0.26078E+06         0.00000E+00
    0.26078E+06         0.26671E+08         0.00000E+00
    0.00000E+00         0.00000E+00         0.11476E+08
 
    0.11537E+08         0.26548E+06         0.00000E+00
    0.26548E+06         0.26571E+08         0.00000E+00
    0.00000E+00         0.00000E+00         0.11432E+08
 
    0.11492E+08         0.27008E+06         0.00000E+00
    0.27008E+06         0.26469E+08         0.00000E+00
    0.00000E+00         0.00000E+00         0.11388E+08
 
    0.11445E+08         0.27456E+06         0.00000E+00
    0.27456E+06         0.26363E+08         0.00000E+00
    0.00000E+00         0.00000E+00         0.11342E+08
 
    0.11396E+08         0.27891E+06         0.00000E+00
    0.27891E+06         0.26255E+08         0.00000E+00
    0.00000E+00         0.00000E+00         0.11296E+08
 
    0.11346E+08         0.28309E+06         0.00000E+00
    0.28309E+06         0.26145E+08         0.00000E+00
    0.00000E+00         0.00000E+00         0.11247E+08
 
    0.11294E+08         0.28709E+06         0.00000E+00
    0.28709E+06         0.26031E+08         0.00000E+00
    0.00000E+00         0.00000E+00         0.11197E+08
 
    0.11240E+08         0.29089E+06         0.00000E+00
    0.29089E+06         0.25914E+08         0.00000E+00
    0.00000E+00         0.00000E+00         0.11146E+08
 
    0.11184E+08         0.29444E+06         0.00000E+00
    0.29444E+06         0.25795E+08         0.00000E+00
    0.00000E+00         0.00000E+00         0.11094E+08
 
    0.11126E+08         0.29773E+06         0.00000E+00
    0.29773E+06         0.25672E+08         0.00000E+00
    0.00000E+00         0.00000E+00         0.11040E+08
 
    0.11067E+08         0.30072E+06         0.00000E+00
    0.30072E+06         0.25547E+08         0.00000E+00
    0.00000E+00         0.00000E+00         0.10984E+08
 
    0.11005E+08         0.30336E+06         0.00000E+00
    0.30336E+06         0.25418E+08         0.00000E+00
    0.00000E+00         0.00000E+00         0.10927E+08
 
    0.10940E+08         0.30563E+06         0.00000E+00
    0.30563E+06         0.25287E+08         0.00000E+00
    0.00000E+00         0.00000E+00         0.10868E+08
 
    0.10874E+08         0.30748E+06         0.00000E+00
    0.30748E+06         0.25153E+08         0.00000E+00
    0.00000E+00         0.00000E+00         0.10808E+08
 
    0.10805E+08         0.30886E+06         0.00000E+00
    0.30886E+06         0.25015E+08         0.00000E+00
    0.00000E+00         0.00000E+00         0.10746E+08
 
    0.10734E+08         0.30971E+06         0.00000E+00
    0.30971E+06         0.24874E+08         0.00000E+00
    0.00000E+00         0.00000E+00         0.10682E+08
 
    0.10660E+08         0.30999E+06         0.00000E+00
    0.30999E+06         0.24731E+08         0.00000E+00
    0.00000E+00         0.00000E+00         0.10617E+08
 
    0.10584E+08         0.30961E+06         0.00000E+00
    0.30961E+06         0.24584E+08         0.00000E+00
    0.00000E+00         0.00000E+00         0.10550E+08
 
    0.10505E+08         0.30852E+06         0.00000E+00
    0.30852E+06         0.24434E+08         0.00000E+00
    0.00000E+00         0.00000E+00         0.10482E+08
 
    0.10423E+08         0.30662E+06         0.00000E+00
    0.30662E+06         0.24281E+08         0.00000E+00
    0.00000E+00         0.00000E+00         0.10411E+08
 
    0.10338E+08         0.30384E+06         0.00000E+00
    0.30384E+06         0.24124E+08         0.00000E+00
    0.00000E+00         0.00000E+00         0.10339E+08
 
    0.10251E+08         0.30007E+06         0.00000E+00
    0.30007E+06         0.23965E+08         0.00000E+00
    0.00000E+00         0.00000E+00         0.10265E+08
 
    0.10160E+08         0.29520E+06         0.00000E+00
    0.29520E+06         0.23803E+08         0.00000E+00
    0.00000E+00         0.00000E+00         0.10189E+08
 
    0.10066E+08         0.28911E+06         0.00000E+00
    0.28911E+06         0.23637E+08         0.00000E+00
    0.00000E+00         0.00000E+00         0.10111E+08
 
    0.99685E+07         0.28167E+06         0.00000E+00
    0.28167E+06         0.23469E+08         0.00000E+00
    0.00000E+00         0.00000E+00         0.10031E+08
 
    0.98678E+07         0.27274E+06         0.00000E+00
    0.27274E+06         0.23297E+08         0.00000E+00
    0.00000E+00         0.00000E+00         0.99494E+07
 
    0.97637E+07         0.26219E+06         0.00000E+00
    0.26219E+06         0.23122E+08         0.00000E+00
    0.00000E+00         0.00000E+00         0.98658E+07
 
    0.96561E+07         0.24985E+06         0.00000E+00
    0.24985E+06         0.22945E+08         0.00000E+00
    0.00000E+00         0.00000E+00         0.97802E+07
 
    0.95448E+07         0.23558E+06         0.00000E+00
    0.23558E+06         0.22764E+08         0.00000E+00
    0.00000E+00         0.00000E+00         0.96927E+07
 
    0.94300E+07         0.21927E+06         0.00000E+00
    0.21927E+06         0.22581E+08         0.00000E+00
    0.00000E+00         0.00000E+00         0.96033E+07
 
    0.93115E+07         0.20083E+06         0.00000E+00
    0.20083E+06         0.22395E+08         0.00000E+00
    0.00000E+00         0.00000E+00         0.95120E+07
 
    0.91894E+07         0.18021E+06         0.00000E+00
    0.18021E+06         0.22207E+08         0.00000E+00
    0.00000E+00         0.00000E+00         0.94190E+07
 
    0.90635E+07         0.15747E+06         0.00000E+00
    0.15747E+06         0.22018E+08         0.00000E+00
    0.00000E+00         0.00000E+00         0.93245E+07
 
    0.89340E+07         0.13281E+06         0.00000E+00
    0.13281E+06         0.21827E+08         0.00000E+00
    0.00000E+00         0.00000E+00         0.92284E+07
 
    0.88008E+07         0.10659E+06         0.00000E+00
    0.10659E+06         0.21637E+08         0.00000E+00
    0.00000E+00         0.00000E+00         0.91312E+07
 
    0.86639E+07         0.79467E+05         0.00000E+00
    0.79467E+05         0.21447E+08         0.00000E+00
    0.00000E+00         0.00000E+00         0.90332E+07
 
    0.85232E+07         0.52472E+05         0.00000E+00
    0.52472E+05         0.21259E+08         0.00000E+00
    0.00000E+00         0.00000E+00         0.89346E+07
 
    0.83783E+07         0.27099E+05         0.00000E+00
    0.27099E+05         0.21075E+08         0.00000E+00
    0.00000E+00         0.00000E+00         0.88361E+07
 
    0.82290E+07         0.53752E+04         0.00000E+00
    0.53752E+04         0.20898E+08         0.00000E+00
    0.00000E+00         0.00000E+00         0.87382E+07
 
    0.80745E+07        -0.10274E+05         0.00000E+00
   -0.10274E+05         0.20731E+08         0.00000E+00
    0.00000E+00         0.00000E+00         0.86417E+07
 
    0.79133E+07        -0.17599E+05         0.00000E+00
   -0.17599E+05         0.20578E+08         0.00000E+00
    0.00000E+00         0.00000E+00         0.85473E+07
 
    0.77434E+07        -0.15678E+05         0.00000E+00
   -0.15678E+05         0.20444E+08         0.00000E+00
    0.00000E+00         0.00000E+00         0.84561E+07
 
    0.75626E+07        -0.62107E+04         0.00000E+00
   -0.62107E+04         0.20333E+08         0.00000E+00
    0.00000E+00         0.00000E+00         0.83688E+07
 
    0.12865E+08         0.81873E+02         0.00000E+00
    0.81873E+02         0.29510E+08         0.00000E+00
    0.00000E+00         0.00000E+00         0.12713E+08
 
    0.12839E+08         0.68877E+03         0.00000E+00
    0.68877E+03         0.29495E+08         0.00000E+00
    0.00000E+00         0.00000E+00         0.12700E+08
 
    0.12816E+08         0.24298E+04         0.00000E+00
    0.24298E+04         0.29475E+08         0.00000E+00
    0.00000E+00         0.00000E+00         0.12687E+08
 
    0.12793E+08         0.55495E+04         0.00000E+00
    0.55495E+04         0.29453E+08         0.00000E+00
    0.00000E+00         0.00000E+00         0.12674E+08
 
    0.12772E+08         0.98991E+04         0.00000E+00
    0.98991E+04         0.29428E+08         0.00000E+00
    0.00000E+00         0.00000E+00         0.12660E+08
 
    0.12752E+08         0.15142E+05         0.00000E+00
    0.15142E+05         0.29402E+08         0.00000E+00
    0.00000E+00         0.00000E+00         0.12646E+08
 
    0.12732E+08         0.20928E+05         0.00000E+00
    0.20928E+05         0.29375E+08         0.00000E+00
    0.00000E+00         0.00000E+00         0.12632E+08
 
    0.12713E+08         0.26968E+05         0.00000E+00
    0.26968E+05         0.29347E+08         0.00000E+00
    0.00000E+00         0.00000E+00         0.12618E+08
 
    0.12695E+08         0.33057E+05         0.00000E+00
    0.33057E+05         0.29318E+08         0.00000E+00
    0.00000E+00         0.00000E+00         0.12604E+08
 
    0.12677E+08         0.39054E+05         0.00000E+00
    0.39054E+05         0.29289E+08         0.00000E+00
    0.00000E+00         0.00000E+00         0.12590E+08
 
    0.12660E+08         0.44876E+05         0.00000E+00
    0.44876E+05         0.29259E+08         0.00000E+00
    0.00000E+00         0.00000E+00         0.12575E+08
 
    0.12643E+08         0.50476E+05         0.00000E+00
    0.50476E+05         0.29228E+08         0.00000E+00
    0.00000E+00         0.00000E+00         0.12561E+08
 
    0.12626E+08         0.55835E+05         0.00000E+00
    0.55835E+05         0.29197E+08         0.00000E+00
    0.00000E+00         0.00000E+00         0.12547E+08
 
    0.12609E+08         0.60952E+05         0.00000E+00
    0.60952E+05         0.29166E+08         0.00000E+00
    0.00000E+00         0.00000E+00         0.12533E+08
 
    0.12593E+08         0.65838E+05         0.00000E+00
    0.65838E+05         0.29134E+08         0.00000E+00
    0.00000E+00         0.00000E+00         0.12518E+08
 
    0.12578E+08         0.70513E+05         0.00000E+00
    0.70513E+05         0.29102E+08         0.00000E+00
    0.00000E+00         0.00000E+00         0.12504E+08
 
    0.12562E+08         0.74998E+05         0.00000E+00
    0.74998E+05         0.29069E+08         0.00000E+00
    0.00000E+00         0.00000E+00         0.12489E+08
 
    0.12546E+08         0.79319E+05         0.00000E+00
    0.79319E+05         0.29036E+08         0.00000E+00
    0.00000E+00         0.00000E+00         0.12475E+08
 
    0.12531E+08         0.83499E+05         0.00000E+00
    0.83499E+05         0.29002E+08         0.00000E+00
    0.00000E+00         0.00000E+00         0.12460E+08
 
    0.12516E+08         0.87563E+05         0.00000E+00
    0.87563E+05         0.28968E+08         0.00000E+00
    0.00000E+00         0.00000E+00         0.12445E+08
 
    0.12500E+08         0.91533E+05         0.00000E+00
    0.91533E+05         0.28932E+08         0.00000E+00
    0.00000E+00         0.00000E+00         0.12430E+08
 
    0.12485E+08         0.95428E+05         0.00000E+00
    0.95428E+05         0.28896E+08         0.00000E+00
    0.00000E+00         0.00000E+00         0.12414E+08
 
    0.12470E+08         0.99269E+05         0.00000E+00
    0.99269E+05         0.28860E+08         0.00000E+00
    0.00000E+00         0.00000E+00         0.12399E+08
 
    0.12454E+08         0.10307E+06         0.00000E+00
    0.10307E+06         0.28822E+08         0.00000E+00
    0.00000E+00         0.00000E+00         0.12383E+08
 
    0.12438E+08         0.10685E+06         0.00000E+00
    0.10685E+06         0.28783E+08         0.00000E+00
    0.00000E+00         0.00000E+00         0.12367E+08
 
    0.12422E+08         0.11062E+06         0.00000E+00
    0.11062E+06         0.28744E+08         0.00000E+00
    0.00000E+00         0.00000E+00         0.12350E+08
 
    0.12406E+08         0.11438E+06         0.00000E+00
    0.11438E+06         0.28703E+08         0.00000E+00
    0.00000E+00         0.00000E+00         0.12333E+08
 
    0.12390E+08         0.11816E+06         0.00000E+00
    0.11816E+06         0.28662E+08         0.00000E+00
    0.00000E+00         0.00000E+00         0.12315E+08
 
    0.12373E+08         0.12196E+06         0.00000E+00
    0.12196E+06         0.28619E+08         0.00000E+00
    0.00000E+00         0.00000E+00         0.12298E+08
 
    0.12356E+08         0.12578E+06         0.00000E+00
    0.12578E+06         0.28575E+08         0.00000E+00
    0.00000E+00         0.00000E+00         0.12279E+08
 
    0.12339E+08         0.12964E+06         0.00000E+00
    0.12964E+06         0.28530E+08         0.00000E+00
    0.00000E+00         0.00000E+00         0.12261E+08
 
    0.12321E+08         0.13354E+06         0.00000E+00
    0.13354E+06         0.28484E+08         0.00000E+00
    0.00000E+00         0.00000E+00         0.12241E+08
 
    0.12302E+08         0.13747E+06         0.00000E+00
    0.13747E+06         0.28436E+08         0.00000E+00
    0.00000E+00         0.00000E+00         0.12222E+08
 
    0.12284E+08         0.14146E+06         0.00000E+00
    0.14146E+06         0.28387E+08         0.00000E+00
    0.00000E+00         0.00000E+00         0.12201E+08
 
    0.12264E+08         0.14550E+06         0.00000E+00
    0.14550E+06         0.28337E+08         0.00000E+00
    0.00000E+00         0.00000E+00         0.12180E+08
 
    0.12244E+08         0.14958E+06         0.00000E+00
    0.14958E+06         0.28285E+08         0.00000E+00
    0.00000E+00         0.00000E+00         0.12159E+08
 
    0.12224E+08         0.15373E+06         0.00000E+00
    0.15373E+06         0.28232E+08         0.00000E+00
    0.00000E+00         0.00000E+00         0.12137E+08
 
    0.12202E+08         0.15792E+06         0.00000E+00
    0.15792E+06         0.28177E+08         0.00000E+00
    0.00000E+00         0.00000E+00         0.12114E+08
 
    0.12181E+08         0.16218E+06         0.00000E+00
    0.16218E+06         0.28120E+08         0.00000E+00
    0.00000E+00         0.00000E+00         0.12090E+08
 
    0.12158E+08         0.16648E+06         0.00000E+00
    0.16648E+06         0.28062E+08         0.00000E+00
    0.00000E+00         0.00000E+00         0.12066E+08
 
    0.12135E+08         0.17085E+06         0.00000E+00
    0.17085E+06         0.28002E+08         0.00000E+00
    0.00000E+00         0.00000E+00         0.12041E+08
 
    0.12110E+08         0.17527E+06         0.00000E+00
    0.17527E+06         0.27941E+08         0.00000E+00
    0.00000E+00         0.00000E+00         0.12015E+08
 
    0.12085E+08         0.17974E+06         0.00000E+00
    0.17974E+06         0.27877E+08         0.00000E+00
    0.00000E+00         0.00000E+00         0.11989E+08
 
    0.12060E+08         0.18426E+06         0.00000E+00
    0.18426E+06         0.27812E+08         0.00000E+00
    0.00000E+00         0.00000E+00         0.11961E+08
 
    0.12033E+08         0.18882E+06         0.00000E+00
    0.18882E+06         0.27745E+08         0.00000E+00
    0.00000E+00         0.00000E+00         0.11933E+08
 
    0.12005E+08         0.19343E+06         0.00000E+00
    0.19343E+06         0.27675E+08         0.00000E+00
    0.00000E+00         0.00000E+00         0.11904E+08
 
    0.11977E+08         0.19808E+06         0.00000E+00
    0.19808E+06         0.27604E+08         0.00000E+00
    0.00000E+00         0.00000E+00         0.11874E+08
 
    0.11947E+08         0.20276E+06         0.00000E+00
    0.20276E+06         0.27531E+08         0.00000E+00
    0.00000E+00         0.00000E+00         0.11843E+08
 
    0.11916E+08         0.20746E+06         0.00000E+00
    0.20746E+06         0.27455E+08         0.00000E+00
    0.00000E+00         0.00000E+00         0.11811E+08
 
    0.11884E+08         0.21219E+06         0.00000E+00
    0.21219E+06         0.27377E+08         0.00000E+00
    0.00000E+00         0.00000E+00         0.11779E+08
 
    0.11852E+08         0.21693E+06         0.00000E+00
    0.21693E+06         0.27297E+08         0.00000E+00
    0.00000E+00         0.00000E+00         0.11745E+08
 
    0.11817E+08         0.22168E+06         0.00000E+00
    0.22168E+06         0.27215E+08         0.00000E+00
    0.00000E+00         0.00000E+00         0.11710E+08
 
    0.11782E+08         0.22643E+06         0.00000E+00
    0.22643E+06         0.27130E+08         0.00000E+00
    0.00000E+00         0.00000E+00         0.11674E+08
 
    0.11745E+08         0.23116E+06         0.00000E+00
    0.23116E+06         0.27043E+08         0.00000E+00
    0.00000E+00         0.00000E+00         0.11637E+08
 
    0.11707E+08         0.23586E+06         0.00000E+00
    0.23586E+06         0.26954E+08         0.00000E+00
    0.00000E+00         0.00000E+00         0.11598E+08
 
    0.11668E+08         0.24053E+06         0.00000E+00
    0.24053E+06         0.26862E+08         0.00000E+00
    0.00000E+00         0.00000E+00         0.11559E+08
 
    0.11627E+08         0.24516E+06         0.00000E+00
    0.24516E+06         0.26767E+08         0.00000E+00
    0.00000E+00         0.00000E+00         0.11518E+08
 
    0.11585E+08         0.24971E+06         0.00000E+00
    0.24971E+06         0.26670E+08         0.00000E+00
    0.00000E+00         0.00000E+00         0.11477E+08
 
    0.11542E+08         0.25419E+06         0.00000E+00
    0.25419E+06         0.26570E+08         0.00000E+00
    0.00000E+00         0.00000E+00         0.11434E+08
 
    0.11496E+08         0.25858E+06         0.00000E+00
    0.25858E+06         0.26468E+08         0.00000E+00
    0.00000E+00         0.00000E+00         0.11389E+08
 
    0.11449E+08         0.26285E+06         0.00000E+00
    0.26285E+06         0.26363E+08         0.00000E+00
    0.00000E+00         0.00000E+00         0.11344E+08
 
    0.11401E+08         0.26699E+06         0.00000E+00
    0.26699E+06         0.26255E+08         0.00000E+00
    0.00000E+00         0.00000E+00         0.11297E+08
 
    0.11350E+08         0.27097E+06         0.00000E+00
    0.27097E+06         0.26144E+08         0.00000E+00
    0.00000E+00         0.00000E+00         0.11248E+08
 
    0.11298E+08         0.27478E+06         0.00000E+00
    0.27478E+06         0.26030E+08         0.00000E+00
    0.00000E+00         0.00000E+00         0.11199E+08
 
    0.11244E+08         0.27838E+06         0.00000E+00
    0.27838E+06         0.25914E+08         0.00000E+00
    0.00000E+00         0.00000E+00         0.11147E+08
 
    0.11188E+08         0.28175E+06         0.00000E+00
    0.28175E+06         0.25794E+08         0.00000E+00
    0.00000E+00         0.00000E+00         0.11095E+08
 
    0.11130E+08         0.28487E+06         0.00000E+00
    0.28487E+06         0.25672E+08         0.00000E+00
    0.00000E+00         0.00000E+00         0.11041E+08
 
    0.11070E+08         0.28769E+06         0.00000E+00
    0.28769E+06         0.25546E+08         0.00000E+00
    0.00000E+00         0.00000E+00         0.10985E+08
 
    0.11008E+08         0.29019E+06         0.00000E+00
    0.29019E+06         0.25418E+08         0.00000E+00
    0.00000E+00         0.00000E+00         0.10928E+08
 
    0.10944E+08         0.29232E+06         0.00000E+00
    0.29232E+06         0.25287E+08         0.00000E+00
    0.00000E+00         0.00000E+00         0.10869E+08
 
    0.10877E+08         0.29404E+06         0.00000E+00
    0.29404E+06         0.25152E+08         0.00000E+00
    0.00000E+00         0.00000E+00         0.10809E+08
 
    0.10808E+08         0.29531E+06         0.00000E+00
    0.29531E+06         0.25015E+08         0.00000E+00
    0.00000E+00         0.00000E+00         0.10747E+08
 
    0.10737E+08         0.29608E+06         0.00000E+00
    0.29608E+06         0.24874E+08         0.00000E+00
    0.00000E+00         0.00000E+00         0.10683E+08
 
    0.10663E+08         0.29628E+06         0.00000E+00
    0.29628E+06         0.24731E+08         0.00000E+00
    0.00000E+00         0.00000E+00         0.10618E+08
 
    0.10586E+08         0.29586E+06         0.00000E+00
    0.29586E+06         0.24584E+08         0.00000E+00
    0.00000E+00         0.00000E+00         0.10551E+08
 
    0.10507E+08         0.29474E+06         0.00000E+00
    0.29474E+06         0.24434E+08         0.00000E+00
    0.00000E+00         0.00000E+00         0.10482E+08
 
    0.10425E+08         0.29285E+06         0.00000E+00
    0.29285E+06         0.24281E+08         0.00000E+00
    0.00000E+00         0.00000E+00         0.10412E+08
 
    0.10339E+08         0.29009E+06         0.00000E+00
    0.29009E+06         0.24125E+08         0.00000E+00
    0.00000E+00         0.00000E+00         0.10339E+08
 
    0.10251E+08         0.28638E+06         0.00000E+00
    0.28638E+06         0.23966E+08         0.00000E+00
    0.00000E+00         0.00000E+00         0.10265E+08
 
    0.10160E+08         0.28159E+06         0.00000E+00
    0.28159E+06         0.23804E+08         0.00000E+00
    0.00000E+00         0.00000E+00         0.10189E+08
 
    0.10065E+08         0.27562E+06         0.00000E+00
    0.27562E+06         0.23639E+08         0.00000E+00
    0.00000E+00         0.00000E+00         0.10111E+08
 
    0.99671E+07         0.26833E+06         0.00000E+00
    0.26833E+06         0.23470E+08         0.00000E+00
    0.00000E+00         0.00000E+00         0.10031E+08
 
    0.98657E+07         0.25958E+06         0.00000E+00
    0.25958E+06         0.23299E+08         0.00000E+00
    0.00000E+00         0.00000E+00         0.99494E+07
 
    0.97607E+07         0.24924E+06         0.00000E+00
    0.24924E+06         0.23124E+08         0.00000E+00
    0.00000E+00         0.00000E+00         0.98656E+07
 
    0.96520E+07         0.23714E+06         0.00000E+00
    0.23714E+06         0.22947E+08         0.00000E+00
    0.00000E+00         0.00000E+00         0.97798E+07
 
    0.95397E+07         0.22315E+06         0.00000E+00
    0.22315E+06         0.22767E+08         0.00000E+00
    0.00000E+00         0.00000E+00         0.96920E+07
 
    0.94235E+07         0.20714E+06         0.00000E+00
    0.20714E+06         0.22584E+08         0.00000E+00
    0.00000E+00         0.00000E+00         0.96024E+07
 
    0.93036E+07         0.18903E+06         0.00000E+00
    0.18903E+06         0.22399E+08         0.00000E+00
    0.00000E+00         0.00000E+00         0.95108E+07
 
    0.91798E+07         0.16877E+06         0.00000E+00
    0.16877E+06         0.22212E+08         0.00000E+00
    0.00000E+00         0.00000E+00         0.94175E+07
 
    0.90522E+07         0.14642E+06         0.00000E+00
    0.14642E+06         0.22023E+08         0.00000E+00
    0.00000E+00         0.00000E+00         0.93225E+07
 
    0.89206E+07         0.12217E+06         0.00000E+00
    0.12217E+06         0.21832E+08         0.00000E+00
    0.00000E+00         0.00000E+00         0.92259E+07
 
    0.87852E+07         0.96396E+05         0.00000E+00
    0.96396E+05         0.21642E+08         0.00000E+00
    0.00000E+00         0.00000E+00         0.91281E+07
 
    0.86459E+07         0.69765E+05         0.00000E+00
    0.69765E+05         0.21452E+08         0.00000E+00
    0.00000E+00         0.00000E+00         0.90294E+07
 
    0.85026E+07         0.43311E+05         0.00000E+00
    0.43311E+05         0.21264E+08         0.00000E+00
    0.00000E+00         0.00000E+00         0.89301E+07
 
    0.83553E+07         0.18556E+05         0.00000E+00
    0.18556E+05         0.21080E+08         0.00000E+00
    0.00000E+00         0.00000E+00         0.88306E+07
 
    0.82037E+07        -0.24229E+04         0.00000E+00
   -0.24229E+04         0.20902E+08         0.00000E+00
    0.00000E+00         0.00000E+00         0.87317E+07
 
    0.80472E+07        -0.17106E+05         0.00000E+00
   -0.17106E+05         0.20733E+08         0.00000E+00
    0.00000E+00         0.00000E+00         0.86342E+07
 
    0.78847E+07        -0.23092E+05         0.00000E+00
   -0.23092E+05         0.20578E+08         0.00000E+00
    0.00000E+00         0.00000E+00         0.85389E+07
 
    0.77141E+07        -0.19316E+05         0.00000E+00
   -0.19316E+05         0.20442E+08         0.00000E+00
    0.00000E+00         0.00000E+00         0.84469E+07
 
    0.75330E+07        -0.74947E+04         0.00000E+00
   -0.74947E+04         0.20331E+08         0.00000E+00
    0.00000E+00         0.00000E+00         0.83591E+07
 
    0.12870E+08        -0.13597E+03         0.00000E+00
   -0.13597E+03         0.29510E+08         0.00000E+00
    0.00000E+00         0.00000E+00         0.12714E+08
 
    0.12845E+08         0.69231E+02         0.00000E+00
    0.69231E+02         0.29494E+08         0.00000E+00
    0.00000E+00         0.00000E+00         0.12702E+08
 
    0.12821E+08         0.14855E+04         0.00000E+00
    0.14855E+04         0.29475E+08         0.00000E+00
    0.00000E+00         0.00000E+00         0.12689E+08
 
    0.12799E+08         0.43547E+04         0.00000E+00
    0.43547E+04         0.29452E+08         0.00000E+00
    0.00000E+00         0.00000E+00         0.12675E+08
 
    0.12777E+08         0.85007E+04         0.00000E+00
    0.85007E+04         0.29427E+08         0.00000E+00
    0.00000E+00         0.00000E+00         0.12661E+08
 
    0.12757E+08         0.13563E+05         0.00000E+00
    0.13563E+05         0.29401E+08         0.00000E+00
    0.00000E+00         0.00000E+00         0.12647E+08
 
    0.12737E+08         0.19176E+05         0.00000E+00
    0.19176E+05         0.29374E+08         0.00000E+00
    0.00000E+00         0.00000E+00         0.12633E+08
 
    0.12717E+08         0.25049E+05         0.00000E+00
    0.25049E+05         0.29346E+08         0.00000E+00
    0.00000E+00         0.00000E+00         0.12619E+08
 
    0.12699E+08         0.30972E+05         0.00000E+00
    0.30972E+05         0.29317E+08         0.00000E+00
    0.00000E+00         0.00000E+00         0.12605E+08
 
    0.12681E+08         0.36804E+05         0.00000E+00
    0.36804E+05         0.29287E+08         0.00000E+00
    0.00000E+00         0.00000E+00         0.12590E+08
 
    0.12663E+08         0.42463E+05         0.00000E+00
    0.42463E+05         0.29257E+08         0.00000E+00
    0.00000E+00         0.00000E+00         0.12576E+08
 
    0.12646E+08         0.47899E+05         0.00000E+00
    0.47899E+05         0.29227E+08         0.00000E+00
    0.00000E+00         0.00000E+00         0.12562E+08
 
    0.12629E+08         0.53095E+05         0.00000E+00
    0.53095E+05         0.29196E+08         0.00000E+00
    0.00000E+00         0.00000E+00         0.12548E+08
 
    0.12612E+08         0.58050E+05         0.00000E+00
    0.58050E+05         0.29165E+08         0.00000E+00
    0.00000E+00         0.00000E+00         0.12533E+08
 
    0.12596E+08         0.62776E+05         0.00000E+00
    0.62776E+05         0.29133E+08         0.00000E+00
    0.00000E+00         0.00000E+00         0.12519E+08
 
    0.12580E+08         0.67290E+05         0.00000E+00
    0.67290E+05         0.29101E+08         0.00000E+00
    0.00000E+00         0.00000E+00         0.12504E+08
 
    0.12565E+08         0.71615E+05         0.00000E+00
    0.71615E+05         0.29069E+08         0.00000E+00
    0.00000E+00         0.00000E+00         0.12490E+08
 
    0.12549E+08         0.75777E+05         0.00000E+00
    0.75777E+05         0.29035E+08         0.00000E+00
    0.00000E+00         0.00000E+00         0.12475E+08
 
    0.12534E+08         0.79799E+05         0.00000E+00
    0.79799E+05         0.29001E+08         0.00000E+00
    0.00000E+00         0.00000E+00         0.12460E+08
 
    0.12518E+08         0.83705E+05         0.00000E+00
    0.83705E+05         0.28967E+08         0.00000E+00
    0.00000E+00         0.00000E+00         0.12446E+08
 
    0.12503E+08         0.87517E+05         0.00000E+00
    0.87517E+05         0.28932E+08         0.00000E+00
    0.00000E+00         0.00000E+00         0.12430E+08
 
    0.12488E+08         0.91256E+05         0.00000E+00
    0.91256E+05         0.28896E+08         0.00000E+00
    0.00000E+00         0.00000E+00         0.12415E+08
 
    0.12472E+08         0.94939E+05         0.00000E+00
    0.94939E+05         0.28859E+08         0.00000E+00
    0.00000E+00         0.00000E+00         0.12399E+08
 
    0.12457E+08         0.98584E+05         0.00000E+00
    0.98584E+05         0.28821E+08         0.00000E+00
    0.00000E+00         0.00000E+00         0.12383E+08
 
    0.12441E+08         0.10220E+06         0.00000E+00
    0.10220E+06         0.28783E+08         0.00000E+00
    0.00000E+00         0.00000E+00         0.12367E+08
 
    0.12425E+08         0.10581E+06         0.00000E+00
    0.10581E+06         0.28743E+08         0.00000E+00
    0.00000E+00         0.00000E+00         0.12350E+08
 
    0.12409E+08         0.10942E+06         0.00000E+00
    0.10942E+06         0.28703E+08         0.00000E+00
    0.00000E+00         0.00000E+00         0.12333E+08
 
    0.12393E+08         0.11304E+06         0.00000E+00
    0.11304E+06         0.28661E+08         0.00000E+00
    0.00000E+00         0.00000E+00         0.12316E+08
 
    0.12376E+08         0.11667E+06         0.00000E+00
    0.11667E+06         0.28618E+08         0.00000E+00
    0.00000E+00         0.00000E+00         0.12298E+08
 
    0.12359E+08         0.12033E+06         0.00000E+00
    0.12033E+06         0.28574E+08         0.00000E+00
    0.00000E+00         0.00000E+00         0.12280E+08
 
    0.12342E+08         0.12402E+06         0.00000E+00
    0.12402E+06         0.28529E+08         0.00000E+00
    0.00000E+00         0.00000E+00         0.12261E+08
 
    0.12324E+08         0.12775E+06         0.00000E+00
    0.12775E+06         0.28483E+08         0.00000E+00
    0.00000E+00         0.00000E+00         0.12242E+08
 
    0.12306E+08         0.13151E+06         0.00000E+00
    0.13151E+06         0.28436E+08         0.00000E+00
    0.00000E+00         0.00000E+00         0.12222E+08
 
    0.12287E+08         0.13532E+06         0.00000E+00
    0.13532E+06         0.28387E+08         0.00000E+00
    0.00000E+00         0.00000E+00         0.12202E+08
 
    0.12267E+08         0.13918E+06         0.00000E+00
    0.13918E+06         0.28336E+08         0.00000E+00
    0.00000E+00         0.00000E+00         0.12181E+08
 
    0.12248E+08         0.14309E+06         0.00000E+00
    0.14309E+06         0.28284E+08         0.00000E+00
    0.00000E+00         0.00000E+00         0.12160E+08
 
    0.12227E+08         0.14705E+06         0.00000E+00
    0.14705E+06         0.28231E+08         0.00000E+00
    0.00000E+00         0.00000E+00         0.12137E+08
 
    0.12206E+08         0.15106E+06         0.00000E+00
    0.15106E+06         0.28176E+08         0.00000E+00
    0.00000E+00         0.00000E+00         0.12115E+08
 
    0.12184E+08         0.15513E+06         0.00000E+00
    0.15513E+06         0.28120E+08         0.00000E+00
    0.00000E+00         0.00000E+00         0.12091E+08
 
    0.12162E+08         0.15924E+06         0.00000E+00
    0.15924E+06         0.28061E+08         0.00000E+00
    0.00000E+00         0.00000E+00         0.12067E+08
 
    0.12138E+08         0.16341E+06         0.00000E+00
    0.16341E+06         0.28002E+08         0.00000E+00
    0.00000E+00         0.00000E+00         0.12042E+08
 
    0.12114E+08         0.16763E+06         0.00000E+00
    0.16763E+06         0.27940E+08         0.00000E+00
    0.00000E+00         0.00000E+00         0.12016E+08
 
    0.12089E+08         0.17190E+06         0.00000E+00
    0.17190E+06         0.27876E+08         0.00000E+00
    0.00000E+00         0.00000E+00         0.11990E+08
 
    0.12064E+08         0.17622E+06         0.00000E+00
    0.17622E+06         0.27811E+08         0.00000E+00
    0.00000E+00         0.00000E+00         0.11962E+08
 
    0.12037E+08         0.18058E+06         0.00000E+00
    0.18058E+06         0.27744E+08         0.00000E+00
    0.00000E+00         0.00000E+00         0.11934E+08
 
    0.12009E+08         0.18498E+06         0.00000E+00
    0.18498E+06         0.27674E+08         0.00000E+00
    0.00000E+00         0.00000E+00         0.11905E+08
 
    0.11981E+08         0.18941E+06         0.00000E+00
    0.18941E+06         0.27603E+08         0.00000E+00
    0.00000E+00         0.00000E+00         0.11875E+08
 
    0.11951E+08         0.19388E+06         0.00000E+00
    0.19388E+06         0.27530E+08         0.00000E+00
    0.00000E+00         0.00000E+00         0.11844E+08
 
    0.11921E+08         0.19837E+06         0.00000E+00
    0.19837E+06         0.27454E+08         0.00000E+00
    0.00000E+00         0.00000E+00         0.11812E+08
 
    0.11889E+08         0.20289E+06         0.00000E+00
    0.20289E+06         0.27376E+08         0.00000E+00
    0.00000E+00         0.00000E+00         0.11780E+08
 
    0.11856E+08         0.20741E+06         0.00000E+00
    0.20741E+06         0.27296E+08         0.00000E+00
    0.00000E+00         0.00000E+00         0.11746E+08
 
    0.11822E+08         0.21194E+06         0.00000E+00
    0.21194E+06         0.27214E+08         0.00000E+00
    0.00000E+00         0.00000E+00         0.11711E+08
 
    0.11786E+08         0.21646E+06         0.00000E+00
    0.21646E+06         0.27129E+08         0.00000E+00
    0.00000E+00         0.00000E+00         0.11675E+08
 
    0.11750E+08         0.22097E+06         0.00000E+00
    0.22097E+06         0.27042E+08         0.00000E+00
    0.00000E+00         0.00000E+00         0.11638E+08
 
    0.11712E+08         0.22546E+06         0.00000E+00
    0.22546E+06         0.26953E+08         0.00000E+00
    0.00000E+00         0.00000E+00         0.11599E+08
 
    0.11673E+08         0.22991E+06         0.00000E+00
    0.22991E+06         0.26861E+08         0.00000E+00
    0.00000E+00         0.00000E+00         0.11560E+08
 
    0.11632E+08         0.23431E+06         0.00000E+00
    0.23431E+06         0.26766E+08         0.00000E+00
    0.00000E+00         0.00000E+00         0.11519E+08
 
    0.11590E+08         0.23865E+06         0.00000E+00
    0.23865E+06         0.26669E+08         0.00000E+00
    0.00000E+00         0.00000E+00         0.11478E+08
 
    0.11546E+08         0.24291E+06         0.00000E+00
    0.24291E+06         0.26569E+08         0.00000E+00
    0.00000E+00         0.00000E+00         0.11435E+08
 
    0.11501E+08         0.24708E+06         0.00000E+00
    0.24708E+06         0.26467E+08         0.00000E+00
    0.00000E+00         0.00000E+00         0.11390E+08
 
    0.11454E+08         0.25115E+06         0.00000E+00
    0.25115E+06         0.26362E+08         0.00000E+00
    0.00000E+00         0.00000E+00         0.11345E+08
 
    0.11405E+08         0.25508E+06         0.00000E+00
    0.25508E+06         0.26254E+08         0.00000E+00
    0.00000E+00         0.00000E+00         0.11298E+08
 
    0.11355E+08         0.25886E+06         0.00000E+00
    0.25886E+06         0.26143E+08         0.00000E+00
    0.00000E+00         0.00000E+00         0.11249E+08
 
    0.11303E+08         0.26247E+06         0.00000E+00
    0.26247E+06         0.26029E+08         0.00000E+00
    0.00000E+00         0.00000E+00         0.11200E+08
 
    0.11248E+08         0.26589E+06         0.00000E+00
    0.26589E+06         0.25913E+08         0.00000E+00
    0.00000E+00         0.00000E+00         0.11148E+08
 
    0.11192E+08         0.26908E+06         0.00000E+00
    0.26908E+06         0.25794E+08         0.00000E+00
    0.00000E+00         0.00000E+00         0.11096E+08
 
    0.11134E+08         0.27203E+06         0.00000E+00
    0.27203E+06         0.25671E+08         0.00000E+00
    0.00000E+00         0.00000E+00         0.11042E+08
 
    0.11074E+08         0.27469E+06         0.00000E+00
    0.27469E+06         0.25546E+08         0.00000E+00
    0.00000E+00         0.00000E+00         0.10986E+08
 
    0.11012E+08         0.27704E+06         0.00000E+00
    0.27704E+06         0.25418E+08         0.00000E+00
    0.00000E+00         0.00000E+00         0.10929E+08
 
    0.10948E+08         0.27904E+06         0.00000E+00
    0.27904E+06         0.25286E+08         0.00000E+00
    0.00000E+00         0.00000E+00         0.10870E+08
 
    0.10881E+08         0.28065E+06         0.00000E+00
    0.28065E+06         0.25152E+08         0.00000E+00
    0.00000E+00         0.00000E+00         0.10810E+08
 
    0.10811E+08         0.28182E+06         0.00000E+00
    0.28182E+06         0.25015E+08         0.00000E+00
    0.00000E+00         0.00000E+00         0.10748E+08
 
    0.10740E+08         0.28250E+06         0.00000E+00
    0.28250E+06         0.24874E+08         0.00000E+00
    0.00000E+00         0.00000E+00         0.10684E+08
 
    0.10665E+08         0.28264E+06         0.00000E+00
    0.28264E+06         0.24731E+08         0.00000E+00
    0.00000E+00         0.00000E+00         0.10619E+08
 
    0.10589E+08         0.28218E+06         0.00000E+00
    0.28218E+06         0.24584E+08         0.00000E+00
    0.00000E+00         0.00000E+00         0.10552E+08
 
    0.10509E+08         0.28105E+06         0.00000E+00
    0.28105E+06         0.24434E+08         0.00000E+00
    0.00000E+00         0.00000E+00         0.10483E+08
 
    0.10426E+08         0.27916E+06         0.00000E+00
    0.27916E+06         0.24282E+08         0.00000E+00
    0.00000E+00         0.00000E+00         0.10412E+08
 
    0.10341E+08         0.27644E+06         0.00000E+00
    0.27644E+06         0.24126E+08         0.00000E+00
    0.00000E+00         0.00000E+00         0.10340E+08
 
    0.10252E+08         0.27279E+06         0.00000E+00
    0.27279E+06         0.23967E+08         0.00000E+00
    0.00000E+00         0.00000E+00         0.10266E+08
 
    0.10160E+08         0.26811E+06         0.00000E+00
    0.26811E+06         0.23805E+08         0.00000E+00
    0.00000E+00         0.00000E+00         0.10189E+08
 
    0.10065E+08         0.26226E+06         0.00000E+00
    0.26226E+06         0.23640E+08         0.00000E+00
    0.00000E+00         0.00000E+00         0.10111E+08
 
    0.99659E+07         0.25514E+06         0.00000E+00
    0.25514E+06         0.23472E+08         0.00000E+00
    0.00000E+00         0.00000E+00         0.10031E+08
 
    0.98637E+07         0.24659E+06         0.00000E+00
    0.24659E+06         0.23301E+08         0.00000E+00
    0.00000E+00         0.00000E+00         0.99493E+07
 
    0.97578E+07         0.23647E+06         0.00000E+00
    0.23647E+06         0.23127E+08         0.00000E+00
    0.00000E+00         0.00000E+00         0.98654E+07
 
    0.96482E+07         0.22464E+06         0.00000E+00
    0.22464E+06         0.22950E+08         0.00000E+00
    0.00000E+00         0.00000E+00         0.97794E+07
 
    0.95347E+07         0.21096E+06         0.00000E+00
    0.21096E+06         0.22770E+08         0.00000E+00
    0.00000E+00         0.00000E+00         0.96914E+07
 
    0.94173E+07         0.19529E+06         0.00000E+00
    0.19529E+06         0.22588E+08         0.00000E+00
    0.00000E+00         0.00000E+00         0.96015E+07
 
    0.92959E+07         0.17754E+06         0.00000E+00
    0.17754E+06         0.22403E+08         0.00000E+00
    0.00000E+00         0.00000E+00         0.95096E+07
 
    0.91705E+07         0.15768E+06         0.00000E+00
    0.15768E+06         0.22216E+08         0.00000E+00
    0.00000E+00         0.00000E+00         0.94159E+07
 
    0.90410E+07         0.13576E+06         0.00000E+00
    0.13576E+06         0.22027E+08         0.00000E+00
    0.00000E+00         0.00000E+00         0.93205E+07
 
    0.89074E+07         0.11196E+06         0.00000E+00
    0.11196E+06         0.21837E+08         0.00000E+00
    0.00000E+00         0.00000E+00         0.92235E+07
 
    0.87697E+07         0.86674E+05         0.00000E+00
    0.86674E+05         0.21647E+08         0.00000E+00
    0.00000E+00         0.00000E+00         0.91251E+07
 
    0.86279E+07         0.60562E+05         0.00000E+00
    0.60562E+05         0.21457E+08         0.00000E+00
    0.00000E+00         0.00000E+00         0.90256E+07
 
    0.84821E+07         0.34661E+05         0.00000E+00
    0.34661E+05         0.21269E+08         0.00000E+00
    0.00000E+00         0.00000E+00         0.89254E+07
 
    0.83322E+07         0.10508E+05         0.00000E+00
    0.10508E+05         0.21085E+08         0.00000E+00
    0.00000E+00         0.00000E+00         0.88251E+07
 
    0.81782E+07        -0.97852E+04         0.00000E+00
   -0.97852E+04         0.20906E+08         0.00000E+00
    0.00000E+00         0.00000E+00         0.87252E+07
 
    0.80198E+07        -0.23607E+05         0.00000E+00
   -0.23607E+05         0.20735E+08         0.00000E+00
    0.00000E+00         0.00000E+00         0.86266E+07
 
    0.78559E+07        -0.28386E+05         0.00000E+00
   -0.28386E+05         0.20578E+08         0.00000E+00
    0.00000E+00         0.00000E+00         0.85303E+07
 
    0.76846E+07        -0.22870E+05         0.00000E+00
   -0.22870E+05         0.20440E+08         0.00000E+00
    0.00000E+00         0.00000E+00         0.84374E+07
 
    0.75033E+07        -0.87599E+04         0.00000E+00
   -0.87599E+04         0.20327E+08         0.00000E+00
    0.00000E+00         0.00000E+00         0.83492E+07
 
    0.12876E+08        -0.35236E+03         0.00000E+00
   -0.35236E+03         0.29511E+08         0.00000E+00
    0.00000E+00         0.00000E+00         0.12716E+08
 
    0.12850E+08        -0.54131E+03         0.00000E+00
   -0.54131E+03         0.29494E+08         0.00000E+00
    0.00000E+00         0.00000E+00         0.12703E+08
 
    0.12826E+08         0.56580E+03         0.00000E+00
    0.56580E+03         0.29474E+08         0.00000E+00
    0.00000E+00         0.00000E+00         0.12690E+08
 
    0.12804E+08         0.32022E+04         0.00000E+00
    0.32022E+04         0.29451E+08         0.00000E+00
    0.00000E+00         0.00000E+00         0.12677E+08
 
    0.12782E+08         0.71580E+04         0.00000E+00
    0.71580E+04         0.29426E+08         0.00000E+00
    0.00000E+00         0.00000E+00         0.12663E+08
 
    0.12761E+08         0.12046E+05         0.00000E+00
    0.12046E+05         0.29400E+08         0.00000E+00
    0.00000E+00         0.00000E+00         0.12648E+08
 
    0.12741E+08         0.17488E+05         0.00000E+00
    0.17488E+05         0.29373E+08         0.00000E+00
    0.00000E+00         0.00000E+00         0.12634E+08
 
    0.12722E+08         0.23189E+05         0.00000E+00
    0.23189E+05         0.29344E+08         0.00000E+00
    0.00000E+00         0.00000E+00         0.12620E+08
 
    0.12703E+08         0.28940E+05         0.00000E+00
    0.28940E+05         0.29316E+08         0.00000E+00
    0.00000E+00         0.00000E+00         0.12605E+08
 
    0.12684E+08         0.34602E+05         0.00000E+00
    0.34602E+05         0.29286E+08         0.00000E+00
    0.00000E+00         0.00000E+00         0.12591E+08
 
    0.12666E+08         0.40089E+05         0.00000E+00
    0.40089E+05         0.29256E+08         0.00000E+00
    0.00000E+00         0.00000E+00         0.12577E+08
 
    0.12649E+08         0.45356E+05         0.00000E+00
    0.45356E+05         0.29226E+08         0.00000E+00
    0.00000E+00         0.00000E+00         0.12562E+08
 
    0.12632E+08         0.50383E+05         0.00000E+00
    0.50383E+05         0.29195E+08         0.00000E+00
    0.00000E+00         0.00000E+00         0.12548E+08
 
    0.12615E+08         0.55171E+05         0.00000E+00
    0.55171E+05         0.29164E+08         0.00000E+00
    0.00000E+00         0.00000E+00         0.12534E+08
 
    0.12599E+08         0.59730E+05         0.00000E+00
    0.59730E+05         0.29132E+08         0.00000E+00
    0.00000E+00         0.00000E+00         0.12519E+08
 
    0.12583E+08         0.64079E+05         0.00000E+00
    0.64079E+05         0.29100E+08         0.00000E+00
    0.00000E+00         0.00000E+00         0.12505E+08
 
    0.12567E+08         0.68241E+05         0.00000E+00
    0.68241E+05         0.29068E+08         0.00000E+00
    0.00000E+00         0.00000E+00         0.12490E+08
 
    0.12552E+08         0.72240E+05         0.00000E+00
    0.72240E+05         0.29034E+08         0.00000E+00
    0.00000E+00         0.00000E+00         0.12476E+08
 
    0.12536E+08         0.76101E+05         0.00000E+00
    0.76101E+05         0.29001E+08         0.00000E+00
    0.00000E+00         0.00000E+00         0.12461E+08
 
    0.12521E+08         0.79847E+05         0.00000E+00
    0.79847E+05         0.28966E+08         0.00000E+00
    0.00000E+00         0.00000E+00         0.12446E+08
 
    0.12505E+08         0.83499E+05         0.00000E+00
    0.83499E+05         0.28931E+08         0.00000E+00
    0.00000E+00         0.00000E+00         0.12431E+08
 
    0.12490E+08         0.87079E+05         0.00000E+00
    0.87079E+05         0.28895E+08         0.00000E+00
    0.00000E+00         0.00000E+00         0.12416E+08
 
    0.12475E+08         0.90604E+05         0.00000E+00
    0.90604E+05         0.28858E+08         0.00000E+00
    0.00000E+00         0.00000E+00         0.12400E+08
 
    0.12459E+08         0.94089E+05         0.00000E+00
    0.94089E+05         0.28820E+08         0.00000E+00
    0.00000E+00         0.00000E+00         0.12384E+08
 
    0.12444E+08         0.97550E+05         0.00000E+00
    0.97550E+05         0.28782E+08         0.00000E+00
    0.00000E+00         0.00000E+00         0.12368E+08
 
    0.12428E+08         0.10100E+06         0.00000E+00
    0.10100E+06         0.28742E+08         0.00000E+00
    0.00000E+00         0.00000E+00         0.12351E+08
 
    0.12412E+08         0.10445E+06         0.00000E+00
    0.10445E+06         0.28702E+08         0.00000E+00
    0.00000E+00         0.00000E+00         0.12334E+08
 
    0.12395E+08         0.10790E+06         0.00000E+00
    0.10790E+06         0.28660E+08         0.00000E+00
    0.00000E+00         0.00000E+00         0.12317E+08
 
    0.12379E+08         0.11137E+06         0.00000E+00
    0.11137E+06         0.28618E+08         0.00000E+00
    0.00000E+00         0.00000E+00         0.12299E+08
 
    0.12362E+08         0.11486E+06         0.00000E+00
    0.11486E+06         0.28574E+08         0.00000E+00
    0.00000E+00         0.00000E+00         0.12281E+08
 
    0.12345E+08         0.11839E+06         0.00000E+00
    0.11839E+06         0.28529E+08         0.00000E+00
    0.00000E+00         0.00000E+00         0.12262E+08
 
    0.12327E+08         0.12194E+06         0.00000E+00
    0.12194E+06         0.28482E+08         0.00000E+00
    0.00000E+00         0.00000E+00         0.12243E+08
 
    0.12309E+08         0.12554E+06         0.00000E+00
    0.12554E+06         0.28435E+08         0.00000E+00
    0.00000E+00         0.00000E+00         0.12223E+08
 
    0.12290E+08         0.12917E+06         0.00000E+00
    0.12917E+06         0.28386E+08         0.00000E+00
    0.00000E+00         0.00000E+00         0.12203E+08
 
    0.12271E+08         0.13286E+06         0.00000E+00
    0.13286E+06         0.28335E+08         0.00000E+00
    0.00000E+00         0.00000E+00         0.12182E+08
 
    0.12251E+08         0.13658E+06         0.00000E+00
    0.13658E+06         0.28284E+08         0.00000E+00
    0.00000E+00         0.00000E+00         0.12160E+08
 
    0.12230E+08         0.14036E+06         0.00000E+00
    0.14036E+06         0.28230E+08         0.00000E+00
    0.00000E+00         0.00000E+00         0.12138E+08
 
    0.12209E+08         0.14419E+06         0.00000E+00
    0.14419E+06         0.28175E+08         0.00000E+00
    0.00000E+00         0.00000E+00         0.12115E+08
 
    0.12188E+08         0.14806E+06         0.00000E+00
    0.14806E+06         0.28119E+08         0.00000E+00
    0.00000E+00         0.00000E+00         0.12092E+08
 
    0.12165E+08         0.15199E+06         0.00000E+00
    0.15199E+06         0.28061E+08         0.00000E+00
    0.00000E+00         0.00000E+00         0.12068E+08
 
    0.12142E+08         0.15596E+06         0.00000E+00
    0.15596E+06         0.28001E+08         0.00000E+00
    0.00000E+00         0.00000E+00         0.12043E+08
 
    0.12118E+08         0.15999E+06         0.00000E+00
    0.15999E+06         0.27939E+08         0.00000E+00
    0.00000E+00         0.00000E+00         0.12017E+08
 
    0.12093E+08         0.16406E+06         0.00000E+00
    0.16406E+06         0.27876E+08         0.00000E+00
    0.00000E+00         0.00000E+00         0.11991E+08
 
    0.12067E+08         0.16817E+06         0.00000E+00
    0.16817E+06         0.27810E+08         0.00000E+00
    0.00000E+00         0.00000E+00         0.11963E+08
 
    0.12041E+08         0.17232E+06         0.00000E+00
    0.17232E+06         0.27743E+08         0.00000E+00
    0.00000E+00         0.00000E+00         0.11935E+08
 
    0.12013E+08         0.17652E+06         0.00000E+00
    0.17652E+06         0.27674E+08         0.00000E+00
    0.00000E+00         0.00000E+00         0.11906E+08
 
    0.11985E+08         0.18074E+06         0.00000E+00
    0.18074E+06         0.27602E+08         0.00000E+00
    0.00000E+00         0.00000E+00         0.11876E+08
 
    0.11955E+08         0.18499E+06         0.00000E+00
    0.18499E+06         0.27529E+08         0.00000E+00
    0.00000E+00         0.00000E+00         0.11845E+08
 
    0.11925E+08         0.18927E+06         0.00000E+00
    0.18927E+06         0.27453E+08         0.00000E+00
    0.00000E+00         0.00000E+00         0.11813E+08
 
    0.11893E+08         0.19357E+06         0.00000E+00
    0.19357E+06         0.27376E+08         0.00000E+00
    0.00000E+00         0.00000E+00         0.11781E+08
 
    0.11860E+08         0.19787E+06         0.00000E+00
    0.19787E+06         0.27296E+08         0.00000E+00
    0.00000E+00         0.00000E+00         0.11747E+08
 
    0.11826E+08         0.20218E+06         0.00000E+00
    0.20218E+06         0.27213E+08         0.00000E+00
    0.00000E+00         0.00000E+00         0.11712E+08
 
    0.11791E+08         0.20649E+06         0.00000E+00
    0.20649E+06         0.27129E+08         0.00000E+00
    0.00000E+00         0.00000E+00         0.11676E+08
 
    0.11754E+08         0.21078E+06         0.00000E+00
    0.21078E+06         0.27042E+08         0.00000E+00
    0.00000E+00         0.00000E+00         0.11639E+08
 
    0.11716E+08         0.21505E+06         0.00000E+00
    0.21505E+06         0.26952E+08         0.00000E+00
    0.00000E+00         0.00000E+00         0.11601E+08
 
    0.11677E+08         0.21928E+06         0.00000E+00
    0.21928E+06         0.26860E+08         0.00000E+00
    0.00000E+00         0.00000E+00         0.11561E+08
 
    0.11636E+08         0.22346E+06         0.00000E+00
    0.22346E+06         0.26766E+08         0.00000E+00
    0.00000E+00         0.00000E+00         0.11521E+08
 
    0.11594E+08         0.22758E+06         0.00000E+00
    0.22758E+06         0.26668E+08         0.00000E+00
    0.00000E+00         0.00000E+00         0.11479E+08
 
    0.11551E+08         0.23163E+06         0.00000E+00
    0.23163E+06         0.26569E+08         0.00000E+00
    0.00000E+00         0.00000E+00         0.11436E+08
 
    0.11505E+08         0.23559E+06         0.00000E+00
    0.23559E+06         0.26466E+08         0.00000E+00
    0.00000E+00         0.00000E+00         0.11391E+08
 
    0.11458E+08         0.23945E+06         0.00000E+00
    0.23945E+06         0.26361E+08         0.00000E+00
    0.00000E+00         0.00000E+00         0.11346E+08
 
    0.11410E+08         0.24318E+06         0.00000E+00
    0.24318E+06         0.26253E+08         0.00000E+00
    0.00000E+00         0.00000E+00         0.11299E+08
 
    0.11359E+08         0.24676E+06         0.00000E+00
    0.24676E+06         0.26142E+08         0.00000E+00
    0.00000E+00         0.00000E+00         0.11250E+08
 
    0.11307E+08         0.25018E+06         0.00000E+00
    0.25018E+06         0.26029E+08         0.00000E+00
    0.00000E+00         0.00000E+00         0.11201E+08
 
    0.11253E+08         0.25342E+06         0.00000E+00
    0.25342E+06         0.25912E+08         0.00000E+00
    0.00000E+00         0.00000E+00         0.11150E+08
 
    0.11197E+08         0.25644E+06         0.00000E+00
    0.25644E+06         0.25793E+08         0.00000E+00
    0.00000E+00         0.00000E+00         0.11097E+08
 
    0.11138E+08         0.25922E+06         0.00000E+00
    0.25922E+06         0.25671E+08         0.00000E+00
    0.00000E+00         0.00000E+00         0.11043E+08
 
    0.11078E+08         0.26172E+06         0.00000E+00
    0.26172E+06         0.25545E+08         0.00000E+00
    0.00000E+00         0.00000E+00         0.10987E+08
 
    0.11016E+08         0.26393E+06         0.00000E+00
    0.26393E+06         0.25417E+08         0.00000E+00
    0.00000E+00         0.00000E+00         0.10930E+08
 
    0.10951E+08         0.26580E+06         0.00000E+00
    0.26580E+06         0.25286E+08         0.00000E+00
    0.00000E+00         0.00000E+00         0.10871E+08
 
    0.10884E+08         0.26730E+06         0.00000E+00
    0.26730E+06         0.25152E+08         0.00000E+00
    0.00000E+00         0.00000E+00         0.10811E+08
 
    0.10815E+08         0.26837E+06         0.00000E+00
    0.26837E+06         0.25014E+08         0.00000E+00
    0.00000E+00         0.00000E+00         0.10749E+08
 
    0.10743E+08         0.26897E+06         0.00000E+00
    0.26897E+06         0.24874E+08         0.00000E+00
    0.00000E+00         0.00000E+00         0.10685E+08
 
    0.10668E+08         0.26906E+06         0.00000E+00
    0.26906E+06         0.24731E+08         0.00000E+00
    0.00000E+00         0.00000E+00         0.10620E+08
 
    0.10591E+08         0.26856E+06         0.00000E+00
    0.26856E+06         0.24584E+08         0.00000E+00
    0.00000E+00         0.00000E+00         0.10553E+08
 
    0.10511E+08         0.26742E+06         0.00000E+00
    0.26742E+06         0.24435E+08         0.00000E+00
    0.00000E+00         0.00000E+00         0.10484E+08
 
    0.10428E+08         0.26555E+06         0.00000E+00
    0.26555E+06         0.24282E+08         0.00000E+00
    0.00000E+00         0.00000E+00         0.10413E+08
 
    0.10342E+08         0.26288E+06         0.00000E+00
    0.26288E+06         0.24126E+08         0.00000E+00
    0.00000E+00         0.00000E+00         0.10340E+08
 
    0.10253E+08         0.25931E+06         0.00000E+00
    0.25931E+06         0.23968E+08         0.00000E+00
    0.00000E+00         0.00000E+00         0.10266E+08
 
    0.10160E+08         0.25473E+06         0.00000E+00
    0.25473E+06         0.23806E+08         0.00000E+00
    0.00000E+00         0.00000E+00         0.10190E+08
 
    0.10064E+08         0.24903E+06         0.00000E+00
    0.24903E+06         0.23641E+08         0.00000E+00
    0.00000E+00         0.00000E+00         0.10112E+08
 
    0.99649E+07         0.24209E+06         0.00000E+00
    0.24209E+06         0.23473E+08         0.00000E+00
    0.00000E+00         0.00000E+00         0.10031E+08
 
    0.98619E+07         0.23376E+06         0.00000E+00
    0.23376E+06         0.23303E+08         0.00000E+00
    0.00000E+00         0.00000E+00         0.99494E+07
 
    0.97552E+07         0.22390E+06         0.00000E+00
    0.22390E+06         0.23129E+08         0.00000E+00
    0.00000E+00         0.00000E+00         0.98652E+07
 
    0.96445E+07         0.21236E+06         0.00000E+00
    0.21236E+06         0.22952E+08         0.00000E+00
    0.00000E+00         0.00000E+00         0.97791E+07
 
    0.95299E+07         0.19901E+06         0.00000E+00
    0.19901E+06         0.22773E+08         0.00000E+00
    0.00000E+00         0.00000E+00         0.96909E+07
 
    0.94113E+07         0.18370E+06         0.00000E+00
    0.18370E+06         0.22591E+08         0.00000E+00
    0.00000E+00         0.00000E+00         0.96007E+07
 
    0.92884E+07         0.16636E+06         0.00000E+00
    0.16636E+06         0.22407E+08         0.00000E+00
    0.00000E+00         0.00000E+00         0.95085E+07
 
    0.91613E+07         0.14693E+06         0.00000E+00
    0.14693E+06         0.22220E+08         0.00000E+00
    0.00000E+00         0.00000E+00         0.94144E+07
 
    0.90300E+07         0.12548E+06         0.00000E+00
    0.12548E+06         0.22032E+08         0.00000E+00
    0.00000E+00         0.00000E+00         0.93186E+07
 
    0.88943E+07         0.10219E+06         0.00000E+00
    0.10219E+06         0.21842E+08         0.00000E+00
    0.00000E+00         0.00000E+00         0.92210E+07
 
    0.87544E+07         0.77428E+05         0.00000E+00
    0.77428E+05         0.21652E+08         0.00000E+00
    0.00000E+00         0.00000E+00         0.91220E+07
 
    0.86101E+07         0.51865E+05         0.00000E+00
    0.51865E+05         0.21463E+08         0.00000E+00
    0.00000E+00         0.00000E+00         0.90218E+07
 
    0.84617E+07         0.26533E+05         0.00000E+00
    0.26533E+05         0.21274E+08         0.00000E+00
    0.00000E+00         0.00000E+00         0.89208E+07
 
    0.83092E+07         0.29673E+04         0.00000E+00
    0.29673E+04         0.21089E+08         0.00000E+00
    0.00000E+00         0.00000E+00         0.88195E+07
 
    0.81528E+07        -0.16696E+05         0.00000E+00
   -0.16696E+05         0.20909E+08         0.00000E+00
    0.00000E+00         0.00000E+00         0.87186E+07
 
    0.79923E+07        -0.29762E+05         0.00000E+00
   -0.29762E+05         0.20737E+08         0.00000E+00
    0.00000E+00         0.00000E+00         0.86189E+07
 
    0.78270E+07        -0.33473E+05         0.00000E+00
   -0.33473E+05         0.20578E+08         0.00000E+00
    0.00000E+00         0.00000E+00         0.85215E+07
 
    0.76549E+07        -0.26340E+05         0.00000E+00
   -0.26340E+05         0.20438E+08         0.00000E+00
    0.00000E+00         0.00000E+00         0.84278E+07
 
    0.74733E+07        -0.10008E+05         0.00000E+00
   -0.10008E+05         0.20324E+08         0.00000E+00
    0.00000E+00         0.00000E+00         0.83391E+07
 
    0.12881E+08        -0.56747E+03         0.00000E+00
   -0.56747E+03         0.29511E+08         0.00000E+00
    0.00000E+00         0.00000E+00         0.12718E+08
 
    0.12856E+08        -0.11427E+04         0.00000E+00
   -0.11427E+04         0.29494E+08         0.00000E+00
    0.00000E+00         0.00000E+00         0.12705E+08
 
    0.12832E+08        -0.32794E+03         0.00000E+00
   -0.32794E+03         0.29474E+08         0.00000E+00
    0.00000E+00         0.00000E+00         0.12692E+08
 
    0.12809E+08         0.20946E+04         0.00000E+00
    0.20946E+04         0.29451E+08         0.00000E+00
    0.00000E+00         0.00000E+00         0.12678E+08
 
    0.12787E+08         0.58737E+04         0.00000E+00
    0.58737E+04         0.29425E+08         0.00000E+00
    0.00000E+00         0.00000E+00         0.12664E+08
 
    0.12766E+08         0.10593E+05         0.00000E+00
    0.10593E+05         0.29399E+08         0.00000E+00
    0.00000E+00         0.00000E+00         0.12649E+08
 
    0.12745E+08         0.15864E+05         0.00000E+00
    0.15864E+05         0.29371E+08         0.00000E+00
    0.00000E+00         0.00000E+00         0.12635E+08
 
    0.12725E+08         0.21390E+05         0.00000E+00
    0.21390E+05         0.29343E+08         0.00000E+00
    0.00000E+00         0.00000E+00         0.12621E+08
 
    0.12706E+08         0.26963E+05         0.00000E+00
    0.26963E+05         0.29314E+08         0.00000E+00
    0.00000E+00         0.00000E+00         0.12606E+08
 
    0.12687E+08         0.32446E+05         0.00000E+00
    0.32446E+05         0.29285E+08         0.00000E+00
    0.00000E+00         0.00000E+00         0.12592E+08
 
    0.12669E+08         0.37756E+05         0.00000E+00
    0.37756E+05         0.29255E+08         0.00000E+00
    0.00000E+00         0.00000E+00         0.12577E+08
 
    0.12652E+08         0.42846E+05         0.00000E+00
    0.42846E+05         0.29225E+08         0.00000E+00
    0.00000E+00         0.00000E+00         0.12563E+08
 
    0.12635E+08         0.47698E+05         0.00000E+00
    0.47698E+05         0.29194E+08         0.00000E+00
    0.00000E+00         0.00000E+00         0.12549E+08
 
    0.12618E+08         0.52312E+05         0.00000E+00
    0.52312E+05         0.29163E+08         0.00000E+00
    0.00000E+00         0.00000E+00         0.12534E+08
 
    0.12601E+08         0.56700E+05         0.00000E+00
    0.56700E+05         0.29132E+08         0.00000E+00
    0.00000E+00         0.00000E+00         0.12520E+08
 
    0.12585E+08         0.60880E+05         0.00000E+00
    0.60880E+05         0.29100E+08         0.00000E+00
    0.00000E+00         0.00000E+00         0.12505E+08
 
    0.12570E+08         0.64874E+05         0.00000E+00
    0.64874E+05         0.29067E+08         0.00000E+00
    0.00000E+00         0.00000E+00         0.12491E+08
 
    0.12554E+08         0.68708E+05         0.00000E+00
    0.68708E+05         0.29034E+08         0.00000E+00
    0.00000E+00         0.00000E+00         0.12476E+08
 
    0.12539E+08         0.72405E+05         0.00000E+00
    0.72405E+05         0.29000E+08         0.00000E+00
    0.00000E+00         0.00000E+00         0.12462E+08
 
    0.12523E+08         0.75988E+05         0.00000E+00
    0.75988E+05         0.28965E+08         0.00000E+00
    0.00000E+00         0.00000E+00         0.12447E+08
 
    0.12508E+08         0.79479E+05         0.00000E+00
    0.79479E+05         0.28930E+08         0.00000E+00
    0.00000E+00         0.00000E+00         0.12431E+08
 
    0.12493E+08         0.82898E+05         0.00000E+00
    0.82898E+05         0.28894E+08         0.00000E+00
    0.00000E+00         0.00000E+00         0.12416E+08
 
    0.12477E+08         0.86262E+05         0.00000E+00
    0.86262E+05         0.28857E+08         0.00000E+00
    0.00000E+00         0.00000E+00         0.12400E+08
 
    0.12462E+08         0.89588E+05         0.00000E+00
    0.89588E+05         0.28820E+08         0.00000E+00
    0.00000E+00         0.00000E+00         0.12384E+08
 
    0.12446E+08         0.92888E+05         0.00000E+00
    0.92888E+05         0.28781E+08         0.00000E+00
    0.00000E+00         0.00000E+00         0.12368E+08
 
    0.12430E+08         0.96176E+05         0.00000E+00
    0.96176E+05         0.28742E+08         0.00000E+00
    0.00000E+00         0.00000E+00         0.12352E+08
 
    0.12414E+08         0.99461E+05         0.00000E+00
    0.99461E+05         0.28701E+08         0.00000E+00
    0.00000E+00         0.00000E+00         0.12335E+08
 
    0.12398E+08         0.10275E+06         0.00000E+00
    0.10275E+06         0.28660E+08         0.00000E+00
    0.00000E+00         0.00000E+00         0.12317E+08
 
    0.12382E+08         0.10606E+06         0.00000E+00
    0.10606E+06         0.28617E+08         0.00000E+00
    0.00000E+00         0.00000E+00         0.12300E+08
 
    0.12365E+08         0.10939E+06         0.00000E+00
    0.10939E+06         0.28573E+08         0.00000E+00
    0.00000E+00         0.00000E+00         0.12281E+08
 
    0.12348E+08         0.11274E+06         0.00000E+00
    0.11274E+06         0.28528E+08         0.00000E+00
    0.00000E+00         0.00000E+00         0.12263E+08
 
    0.12330E+08         0.11613E+06         0.00000E+00
    0.11613E+06         0.28482E+08         0.00000E+00
    0.00000E+00         0.00000E+00         0.12243E+08
 
    0.12312E+08         0.11955E+06         0.00000E+00
    0.11955E+06         0.28434E+08         0.00000E+00
    0.00000E+00         0.00000E+00         0.12224E+08
 
    0.12293E+08         0.12301E+06         0.00000E+00
    0.12301E+06         0.28385E+08         0.00000E+00
    0.00000E+00         0.00000E+00         0.12203E+08
 
    0.12274E+08         0.12652E+06         0.00000E+00
    0.12652E+06         0.28335E+08         0.00000E+00
    0.00000E+00         0.00000E+00         0.12183E+08
 
    0.12254E+08         0.13006E+06         0.00000E+00
    0.13006E+06         0.28283E+08         0.00000E+00
    0.00000E+00         0.00000E+00         0.12161E+08
 
    0.12234E+08         0.13366E+06         0.00000E+00
    0.13366E+06         0.28229E+08         0.00000E+00
    0.00000E+00         0.00000E+00         0.12139E+08
 
    0.12213E+08         0.13730E+06         0.00000E+00
    0.13730E+06         0.28175E+08         0.00000E+00
    0.00000E+00         0.00000E+00         0.12116E+08
 
    0.12191E+08         0.14098E+06         0.00000E+00
    0.14098E+06         0.28118E+08         0.00000E+00
    0.00000E+00         0.00000E+00         0.12093E+08
 
    0.12169E+08         0.14472E+06         0.00000E+00
    0.14472E+06         0.28060E+08         0.00000E+00
    0.00000E+00         0.00000E+00         0.12069E+08
 
    0.12146E+08         0.14850E+06         0.00000E+00
    0.14850E+06         0.28000E+08         0.00000E+00
    0.00000E+00         0.00000E+00         0.12044E+08
 
    0.12122E+08         0.15233E+06         0.00000E+00
    0.15233E+06         0.27938E+08         0.00000E+00
    0.00000E+00         0.00000E+00         0.12018E+08
 
    0.12097E+08         0.15619E+06         0.00000E+00
    0.15619E+06         0.27875E+08         0.00000E+00
    0.00000E+00         0.00000E+00         0.11991E+08
 
    0.12071E+08         0.16011E+06         0.00000E+00
    0.16011E+06         0.27809E+08         0.00000E+00
    0.00000E+00         0.00000E+00         0.11964E+08
 
    0.12045E+08         0.16405E+06         0.00000E+00
    0.16405E+06         0.27742E+08         0.00000E+00
    0.00000E+00         0.00000E+00         0.11936E+08
 
    0.12017E+08         0.16804E+06         0.00000E+00
    0.16804E+06         0.27673E+08         0.00000E+00
    0.00000E+00         0.00000E+00         0.11907E+08
 
    0.11989E+08         0.17205E+06         0.00000E+00
    0.17205E+06         0.27601E+08         0.00000E+00
    0.00000E+00         0.00000E+00         0.11877E+08
 
    0.11959E+08         0.17610E+06         0.00000E+00
    0.17610E+06         0.27528E+08         0.00000E+00
    0.00000E+00         0.00000E+00         0.11846E+08
 
    0.11929E+08         0.18016E+06         0.00000E+00
    0.18016E+06         0.27452E+08         0.00000E+00
    0.00000E+00         0.00000E+00         0.11814E+08
 
    0.11897E+08         0.18424E+06         0.00000E+00
    0.18424E+06         0.27375E+08         0.00000E+00
    0.00000E+00         0.00000E+00         0.11782E+08
 
    0.11864E+08         0.18833E+06         0.00000E+00
    0.18833E+06         0.27295E+08         0.00000E+00
    0.00000E+00         0.00000E+00         0.11748E+08
 
    0.11830E+08         0.19242E+06         0.00000E+00
    0.19242E+06         0.27212E+08         0.00000E+00
    0.00000E+00         0.00000E+00         0.11713E+08
 
    0.11795E+08         0.19651E+06         0.00000E+00
    0.19651E+06         0.27128E+08         0.00000E+00
    0.00000E+00         0.00000E+00         0.11677E+08
 
    0.11759E+08         0.20058E+06         0.00000E+00
    0.20058E+06         0.27041E+08         0.00000E+00
    0.00000E+00         0.00000E+00         0.11640E+08
 
    0.11721E+08         0.20463E+06         0.00000E+00
    0.20463E+06         0.26951E+08         0.00000E+00
    0.00000E+00         0.00000E+00         0.11602E+08
 
    0.11682E+08         0.20864E+06         0.00000E+00
    0.20864E+06         0.26859E+08         0.00000E+00
    0.00000E+00         0.00000E+00         0.11562E+08
 
    0.11641E+08         0.21261E+06         0.00000E+00
    0.21261E+06         0.26765E+08         0.00000E+00
    0.00000E+00         0.00000E+00         0.11522E+08
 
    0.11599E+08         0.21652E+06         0.00000E+00
    0.21652E+06         0.26668E+08         0.00000E+00
    0.00000E+00         0.00000E+00         0.11480E+08
 
    0.11555E+08         0.22036E+06         0.00000E+00
    0.22036E+06         0.26568E+08         0.00000E+00
    0.00000E+00         0.00000E+00         0.11437E+08
 
    0.11510E+08         0.22411E+06         0.00000E+00
    0.22411E+06         0.26465E+08         0.00000E+00
    0.00000E+00         0.00000E+00         0.11393E+08
 
    0.11463E+08         0.22776E+06         0.00000E+00
    0.22776E+06         0.26360E+08         0.00000E+00
    0.00000E+00         0.00000E+00         0.11347E+08
 
    0.11414E+08         0.23128E+06         0.00000E+00
    0.23128E+06         0.26252E+08         0.00000E+00
    0.00000E+00         0.00000E+00         0.11300E+08
 
    0.11363E+08         0.23468E+06         0.00000E+00
    0.23468E+06         0.26142E+08         0.00000E+00
    0.00000E+00         0.00000E+00         0.11252E+08
 
    0.11311E+08         0.23791E+06         0.00000E+00
    0.23791E+06         0.26028E+08         0.00000E+00
    0.00000E+00         0.00000E+00         0.11202E+08
 
    0.11257E+08         0.24096E+06         0.00000E+00
    0.24096E+06         0.25912E+08         0.00000E+00
    0.00000E+00         0.00000E+00         0.11151E+08
 
    0.11201E+08         0.24381E+06         0.00000E+00
    0.24381E+06         0.25792E+08         0.00000E+00
    0.00000E+00         0.00000E+00         0.11098E+08
 
    0.11142E+08         0.24642E+06         0.00000E+00
    0.24642E+06         0.25670E+08         0.00000E+00
    0.00000E+00         0.00000E+00         0.11044E+08
 
    0.11082E+08         0.24878E+06         0.00000E+00
    0.24878E+06         0.25545E+08         0.00000E+00
    0.00000E+00         0.00000E+00         0.10988E+08
 
    0.11020E+08         0.25085E+06         0.00000E+00
    0.25085E+06         0.25417E+08         0.00000E+00
    0.00000E+00         0.00000E+00         0.10931E+08
 
    0.10955E+08         0.25260E+06         0.00000E+00
    0.25260E+06         0.25286E+08         0.00000E+00
    0.00000E+00         0.00000E+00         0.10872E+08
 
    0.10888E+08         0.25398E+06         0.00000E+00
    0.25398E+06         0.25151E+08         0.00000E+00
    0.00000E+00         0.00000E+00         0.10812E+08
 
    0.10818E+08         0.25496E+06         0.00000E+00
    0.25496E+06         0.25014E+08         0.00000E+00
    0.00000E+00         0.00000E+00         0.10750E+08
 
    0.10746E+08         0.25550E+06         0.00000E+00
    0.25550E+06         0.24874E+08         0.00000E+00
    0.00000E+00         0.00000E+00         0.10686E+08
 
    0.10671E+08         0.25553E+06         0.00000E+00
    0.25553E+06         0.24731E+08         0.00000E+00
    0.00000E+00         0.00000E+00         0.10620E+08
 
    0.10593E+08         0.25501E+06         0.00000E+00
    0.25501E+06         0.24584E+08         0.00000E+00
    0.00000E+00         0.00000E+00         0.10553E+08
 
    0.10513E+08         0.25386E+06         0.00000E+00
    0.25386E+06         0.24435E+08         0.00000E+00
    0.00000E+00         0.00000E+00         0.10484E+08
 
    0.10430E+08         0.25202E+06         0.00000E+00
    0.25202E+06         0.24283E+08         0.00000E+00
    0.00000E+00         0.00000E+00         0.10414E+08
 
    0.10343E+08         0.24941E+06         0.00000E+00
    0.24941E+06         0.24127E+08         0.00000E+00
    0.00000E+00         0.00000E+00         0.10341E+08
 
    0.10253E+08         0.24592E+06         0.00000E+00
    0.24592E+06         0.23969E+08         0.00000E+00
    0.00000E+00         0.00000E+00         0.10267E+08
 
    0.10160E+08         0.24147E+06         0.00000E+00
    0.24147E+06         0.23807E+08         0.00000E+00
    0.00000E+00         0.00000E+00         0.10190E+08
 
    0.10064E+08         0.23593E+06         0.00000E+00
    0.23593E+06         0.23642E+08         0.00000E+00
    0.00000E+00         0.00000E+00         0.10112E+08
 
    0.99640E+07         0.22918E+06         0.00000E+00
    0.22918E+06         0.23475E+08         0.00000E+00
    0.00000E+00         0.00000E+00         0.10032E+08
 
    0.98603E+07         0.22109E+06         0.00000E+00
    0.22109E+06         0.23304E+08         0.00000E+00
    0.00000E+00         0.00000E+00         0.99494E+07
 
    0.97527E+07         0.21150E+06         0.00000E+00
    0.21150E+06         0.23131E+08         0.00000E+00
    0.00000E+00         0.00000E+00         0.98651E+07
 
    0.96411E+07         0.20029E+06         0.00000E+00
    0.20029E+06         0.22955E+08         0.00000E+00
    0.00000E+00         0.00000E+00         0.97788E+07
 
    0.95254E+07         0.18729E+06         0.00000E+00
    0.18729E+06         0.22776E+08         0.00000E+00
    0.00000E+00         0.00000E+00         0.96904E+07
 
    0.94054E+07         0.17239E+06         0.00000E+00
    0.17239E+06         0.22594E+08         0.00000E+00
    0.00000E+00         0.00000E+00         0.95999E+07
 
    0.92811E+07         0.15548E+06         0.00000E+00
    0.15548E+06         0.22410E+08         0.00000E+00
    0.00000E+00         0.00000E+00         0.95074E+07
 
    0.91524E+07         0.13654E+06         0.00000E+00
    0.13654E+06         0.22224E+08         0.00000E+00
    0.00000E+00         0.00000E+00         0.94130E+07
 
    0.90192E+07         0.11560E+06         0.00000E+00
    0.11560E+06         0.22036E+08         0.00000E+00
    0.00000E+00         0.00000E+00         0.93167E+07
 
    0.88815E+07         0.92850E+05         0.00000E+00
    0.92850E+05         0.21847E+08         0.00000E+00
    0.00000E+00         0.00000E+00         0.92186E+07
 
    0.87392E+07         0.68661E+05         0.00000E+00
    0.68661E+05         0.21657E+08         0.00000E+00
    0.00000E+00         0.00000E+00         0.91190E+07
 
    0.85924E+07         0.43683E+05         0.00000E+00
    0.43683E+05         0.21468E+08         0.00000E+00
    0.00000E+00         0.00000E+00         0.90180E+07
 
    0.84414E+07         0.18938E+05         0.00000E+00
    0.18938E+05         0.21279E+08         0.00000E+00
    0.00000E+00         0.00000E+00         0.89162E+07
 
    0.82862E+07        -0.40493E+04         0.00000E+00
   -0.40493E+04         0.21094E+08         0.00000E+00
    0.00000E+00         0.00000E+00         0.88139E+07
 
    0.81272E+07        -0.23137E+05         0.00000E+00
   -0.23137E+05         0.20913E+08         0.00000E+00
    0.00000E+00         0.00000E+00         0.87119E+07
 
    0.79645E+07        -0.35554E+05         0.00000E+00
   -0.35554E+05         0.20739E+08         0.00000E+00
    0.00000E+00         0.00000E+00         0.86111E+07
 
    0.77977E+07        -0.38342E+05         0.00000E+00
   -0.38342E+05         0.20578E+08         0.00000E+00
    0.00000E+00         0.00000E+00         0.85126E+07
 
    0.76249E+07        -0.29724E+05         0.00000E+00
   -0.29724E+05         0.20435E+08         0.00000E+00
    0.00000E+00         0.00000E+00         0.84180E+07
 
    0.74430E+07        -0.11240E+05         0.00000E+00
   -0.11240E+05         0.20320E+08         0.00000E+00
    0.00000E+00         0.00000E+00         0.83288E+07
 
    0.12887E+08        -0.78145E+03         0.00000E+00
   -0.78145E+03         0.29511E+08         0.00000E+00
    0.00000E+00         0.00000E+00         0.12719E+08
 
    0.12861E+08        -0.17343E+04         0.00000E+00
   -0.17343E+04         0.29494E+08         0.00000E+00
    0.00000E+00         0.00000E+00         0.12707E+08
 
    0.12837E+08        -0.11935E+04         0.00000E+00
   -0.11935E+04         0.29473E+08         0.00000E+00
    0.00000E+00         0.00000E+00         0.12693E+08
 
    0.12814E+08         0.10351E+04         0.00000E+00
    0.10351E+04         0.29450E+08         0.00000E+00
    0.00000E+00         0.00000E+00         0.12679E+08
 
    0.12792E+08         0.46510E+04         0.00000E+00
    0.46510E+04         0.29425E+08         0.00000E+00
    0.00000E+00         0.00000E+00         0.12665E+08
 
    0.12770E+08         0.92065E+04         0.00000E+00
    0.92065E+04         0.29398E+08         0.00000E+00
    0.00000E+00         0.00000E+00         0.12651E+08
 
    0.12750E+08         0.14305E+05         0.00000E+00
    0.14305E+05         0.29370E+08         0.00000E+00
    0.00000E+00         0.00000E+00         0.12636E+08
 
    0.12729E+08         0.19652E+05         0.00000E+00
    0.19652E+05         0.29342E+08         0.00000E+00
    0.00000E+00         0.00000E+00         0.12621E+08
 
    0.12710E+08         0.25041E+05         0.00000E+00
    0.25041E+05         0.29313E+08         0.00000E+00
    0.00000E+00         0.00000E+00         0.12607E+08
 
    0.12691E+08         0.30339E+05         0.00000E+00
    0.30339E+05         0.29284E+08         0.00000E+00
    0.00000E+00         0.00000E+00         0.12592E+08
 
    0.12672E+08         0.35463E+05         0.00000E+00
    0.35463E+05         0.29254E+08         0.00000E+00
    0.00000E+00         0.00000E+00         0.12578E+08
 
    0.12655E+08         0.40369E+05         0.00000E+00
    0.40369E+05         0.29224E+08         0.00000E+00
    0.00000E+00         0.00000E+00         0.12564E+08
 
    0.12637E+08         0.45040E+05         0.00000E+00
    0.45040E+05         0.29193E+08         0.00000E+00
    0.00000E+00         0.00000E+00         0.12549E+08
 
    0.12621E+08         0.49475E+05         0.00000E+00
    0.49475E+05         0.29162E+08         0.00000E+00
    0.00000E+00         0.00000E+00         0.12535E+08
 
    0.12604E+08         0.53686E+05         0.00000E+00
    0.53686E+05         0.29131E+08         0.00000E+00
    0.00000E+00         0.00000E+00         0.12520E+08
 
    0.12588E+08         0.57692E+05         0.00000E+00
    0.57692E+05         0.29099E+08         0.00000E+00
    0.00000E+00         0.00000E+00         0.12506E+08
 
    0.12572E+08         0.61515E+05         0.00000E+00
    0.61515E+05         0.29066E+08         0.00000E+00
    0.00000E+00         0.00000E+00         0.12491E+08
 
    0.12556E+08         0.65180E+05         0.00000E+00
    0.65180E+05         0.29033E+08         0.00000E+00
    0.00000E+00         0.00000E+00         0.12477E+08
 
    0.12541E+08         0.68710E+05         0.00000E+00
    0.68710E+05         0.28999E+08         0.00000E+00
    0.00000E+00         0.00000E+00         0.12462E+08
 
    0.12526E+08         0.72129E+05         0.00000E+00
    0.72129E+05         0.28965E+08         0.00000E+00
    0.00000E+00         0.00000E+00         0.12447E+08
 
    0.12510E+08         0.75456E+05         0.00000E+00
    0.75456E+05         0.28930E+08         0.00000E+00
    0.00000E+00         0.00000E+00         0.12432E+08
 
    0.12495E+08         0.78713E+05         0.00000E+00
    0.78713E+05         0.28894E+08         0.00000E+00
    0.00000E+00         0.00000E+00         0.12417E+08
 
    0.12480E+08         0.81915E+05         0.00000E+00
    0.81915E+05         0.28857E+08         0.00000E+00
    0.00000E+00         0.00000E+00         0.12401E+08
 
    0.12464E+08         0.85079E+05         0.00000E+00
    0.85079E+05         0.28819E+08         0.00000E+00
    0.00000E+00         0.00000E+00         0.12385E+08
 
    0.12449E+08         0.88218E+05         0.00000E+00
    0.88218E+05         0.28781E+08         0.00000E+00
    0.00000E+00         0.00000E+00         0.12369E+08
 
    0.12433E+08         0.91344E+05         0.00000E+00
    0.91344E+05         0.28741E+08         0.00000E+00
    0.00000E+00         0.00000E+00         0.12352E+08
 
    0.12417E+08         0.94466E+05         0.00000E+00
    0.94466E+05         0.28701E+08         0.00000E+00
    0.00000E+00         0.00000E+00         0.12335E+08
 
    0.12401E+08         0.97594E+05         0.00000E+00
    0.97594E+05         0.28659E+08         0.00000E+00
    0.00000E+00         0.00000E+00         0.12318E+08
 
    0.12384E+08         0.10074E+06         0.00000E+00
    0.10074E+06         0.28616E+08         0.00000E+00
    0.00000E+00         0.00000E+00         0.12300E+08
 
    0.12368E+08         0.10390E+06         0.00000E+00
    0.10390E+06         0.28572E+08         0.00000E+00
    0.00000E+00         0.00000E+00         0.12282E+08
 
    0.12350E+08         0.10708E+06         0.00000E+00
    0.10708E+06         0.28527E+08         0.00000E+00
    0.00000E+00         0.00000E+00         0.12263E+08
 
    0.12333E+08         0.11030E+06         0.00000E+00
    0.11030E+06         0.28481E+08         0.00000E+00
    0.00000E+00         0.00000E+00         0.12244E+08
 
    0.12315E+08         0.11355E+06         0.00000E+00
    0.11355E+06         0.28433E+08         0.00000E+00
    0.00000E+00         0.00000E+00         0.12224E+08
 
    0.12296E+08         0.11683E+06         0.00000E+00
    0.11683E+06         0.28384E+08         0.00000E+00
    0.00000E+00         0.00000E+00         0.12204E+08
 
    0.12277E+08         0.12016E+06         0.00000E+00
    0.12016E+06         0.28334E+08         0.00000E+00
    0.00000E+00         0.00000E+00         0.12183E+08
 
    0.12257E+08         0.12353E+06         0.00000E+00
    0.12353E+06         0.28282E+08         0.00000E+00
    0.00000E+00         0.00000E+00         0.12162E+08
 
    0.12237E+08         0.12694E+06         0.00000E+00
    0.12694E+06         0.28229E+08         0.00000E+00
    0.00000E+00         0.00000E+00         0.12140E+08
 
    0.12216E+08         0.13039E+06         0.00000E+00
    0.13039E+06         0.28174E+08         0.00000E+00
    0.00000E+00         0.00000E+00         0.12117E+08
 
    0.12195E+08         0.13389E+06         0.00000E+00
    0.13389E+06         0.28117E+08         0.00000E+00
    0.00000E+00         0.00000E+00         0.12094E+08
 
    0.12172E+08         0.13743E+06         0.00000E+00
    0.13743E+06         0.28059E+08         0.00000E+00
    0.00000E+00         0.00000E+00         0.12069E+08
 
    0.12149E+08         0.14102E+06         0.00000E+00
    0.14102E+06         0.27999E+08         0.00000E+00
    0.00000E+00         0.00000E+00         0.12044E+08
 
    0.12125E+08         0.14465E+06         0.00000E+00
    0.14465E+06         0.27937E+08         0.00000E+00
    0.00000E+00         0.00000E+00         0.12019E+08
 
    0.12101E+08         0.14832E+06         0.00000E+00
    0.14832E+06         0.27874E+08         0.00000E+00
    0.00000E+00         0.00000E+00         0.11992E+08
 
    0.12075E+08         0.15203E+06         0.00000E+00
    0.15203E+06         0.27809E+08         0.00000E+00
    0.00000E+00         0.00000E+00         0.11965E+08
 
    0.12049E+08         0.15577E+06         0.00000E+00
    0.15577E+06         0.27741E+08         0.00000E+00
    0.00000E+00         0.00000E+00         0.11937E+08
 
    0.12021E+08         0.15955E+06         0.00000E+00
    0.15955E+06         0.27672E+08         0.00000E+00
    0.00000E+00         0.00000E+00         0.11908E+08
 
    0.11993E+08         0.16335E+06         0.00000E+00
    0.16335E+06         0.27601E+08         0.00000E+00
    0.00000E+00         0.00000E+00         0.11878E+08
 
    0.11963E+08         0.16719E+06         0.00000E+00
    0.16719E+06         0.27527E+08         0.00000E+00
    0.00000E+00         0.00000E+00         0.11847E+08
 
    0.11933E+08         0.17104E+06         0.00000E+00
    0.17104E+06         0.27452E+08         0.00000E+00
    0.00000E+00         0.00000E+00         0.11815E+08
 
    0.11901E+08         0.17490E+06         0.00000E+00
    0.17490E+06         0.27374E+08         0.00000E+00
    0.00000E+00         0.00000E+00         0.11783E+08
 
    0.11869E+08         0.17878E+06         0.00000E+00
    0.17878E+06         0.27294E+08         0.00000E+00
    0.00000E+00         0.00000E+00         0.11749E+08
 
    0.11835E+08         0.18265E+06         0.00000E+00
    0.18265E+06         0.27212E+08         0.00000E+00
    0.00000E+00         0.00000E+00         0.11714E+08
 
    0.11800E+08         0.18652E+06         0.00000E+00
    0.18652E+06         0.27127E+08         0.00000E+00
    0.00000E+00         0.00000E+00         0.11678E+08
 
    0.11763E+08         0.19037E+06         0.00000E+00
    0.19037E+06         0.27040E+08         0.00000E+00
    0.00000E+00         0.00000E+00         0.11641E+08
 
    0.11725E+08         0.19421E+06         0.00000E+00
    0.19421E+06         0.26950E+08         0.00000E+00
    0.00000E+00         0.00000E+00         0.11603E+08
 
    0.11686E+08         0.19800E+06         0.00000E+00
    0.19800E+06         0.26858E+08         0.00000E+00
    0.00000E+00         0.00000E+00         0.11563E+08
 
    0.11645E+08         0.20176E+06         0.00000E+00
    0.20176E+06         0.26764E+08         0.00000E+00
    0.00000E+00         0.00000E+00         0.11523E+08
 
    0.11603E+08         0.20545E+06         0.00000E+00
    0.20545E+06         0.26667E+08         0.00000E+00
    0.00000E+00         0.00000E+00         0.11481E+08
 
    0.11559E+08         0.20908E+06         0.00000E+00
    0.20908E+06         0.26567E+08         0.00000E+00
    0.00000E+00         0.00000E+00         0.11438E+08
 
    0.11514E+08         0.21262E+06         0.00000E+00
    0.21262E+06         0.26465E+08         0.00000E+00
    0.00000E+00         0.00000E+00         0.11394E+08
 
    0.11467E+08         0.21607E+06         0.00000E+00
    0.21607E+06         0.26360E+08         0.00000E+00
    0.00000E+00         0.00000E+00         0.11348E+08
 
    0.11418E+08         0.21940E+06         0.00000E+00
    0.21940E+06         0.26252E+08         0.00000E+00
    0.00000E+00         0.00000E+00         0.11301E+08
 
    0.11368E+08         0.22260E+06         0.00000E+00
    0.22260E+06         0.26141E+08         0.00000E+00
    0.00000E+00         0.00000E+00         0.11253E+08
 
    0.11315E+08         0.22564E+06         0.00000E+00
    0.22564E+06         0.26027E+08         0.00000E+00
    0.00000E+00         0.00000E+00         0.11203E+08
 
    0.11261E+08         0.22852E+06         0.00000E+00
    0.22852E+06         0.25911E+08         0.00000E+00
    0.00000E+00         0.00000E+00         0.11152E+08
 
    0.11205E+08         0.23120E+06         0.00000E+00
    0.23120E+06         0.25792E+08         0.00000E+00
    0.00000E+00         0.00000E+00         0.11099E+08
 
    0.11147E+08         0.23365E+06         0.00000E+00
    0.23365E+06         0.25670E+08         0.00000E+00
    0.00000E+00         0.00000E+00         0.11045E+08
 
    0.11086E+08         0.23587E+06         0.00000E+00
    0.23587E+06         0.25545E+08         0.00000E+00
    0.00000E+00         0.00000E+00         0.10989E+08
 
    0.11023E+08         0.23780E+06         0.00000E+00
    0.23780E+06         0.25416E+08         0.00000E+00
    0.00000E+00         0.00000E+00         0.10932E+08
 
    0.10958E+08         0.23942E+06         0.00000E+00
    0.23942E+06         0.25285E+08         0.00000E+00
    0.00000E+00         0.00000E+00         0.10873E+08
 
    0.10891E+08         0.24071E+06         0.00000E+00
    0.24071E+06         0.25151E+08         0.00000E+00
    0.00000E+00         0.00000E+00         0.10813E+08
 
    0.10821E+08         0.24160E+06         0.00000E+00
    0.24160E+06         0.25014E+08         0.00000E+00
    0.00000E+00         0.00000E+00         0.10751E+08
 
    0.10749E+08         0.24207E+06         0.00000E+00
    0.24207E+06         0.24874E+08         0.00000E+00
    0.00000E+00         0.00000E+00         0.10687E+08
 
    0.10674E+08         0.24206E+06         0.00000E+00
    0.24206E+06         0.24731E+08         0.00000E+00
    0.00000E+00         0.00000E+00         0.10621E+08
 
    0.10596E+08         0.24152E+06         0.00000E+00
    0.24152E+06         0.24585E+08         0.00000E+00
    0.00000E+00         0.00000E+00         0.10554E+08
 
    0.10515E+08         0.24038E+06         0.00000E+00
    0.24038E+06         0.24435E+08         0.00000E+00
    0.00000E+00         0.00000E+00         0.10485E+08
 
    0.10431E+08         0.23857E+06         0.00000E+00
    0.23857E+06         0.24283E+08         0.00000E+00
    0.00000E+00         0.00000E+00         0.10414E+08
 
    0.10345E+08         0.23602E+06         0.00000E+00
    0.23602E+06         0.24128E+08         0.00000E+00
    0.00000E+00         0.00000E+00         0.10342E+08
 
    0.10254E+08         0.23264E+06         0.00000E+00
    0.23264E+06         0.23969E+08         0.00000E+00
    0.00000E+00         0.00000E+00         0.10267E+08
 
    0.10161E+08         0.22832E+06         0.00000E+00
    0.22832E+06         0.23808E+08         0.00000E+00
    0.00000E+00         0.00000E+00         0.10191E+08
 
    0.10064E+08         0.22295E+06         0.00000E+00
    0.22295E+06         0.23644E+08         0.00000E+00
    0.00000E+00         0.00000E+00         0.10112E+08
 
    0.99633E+07         0.21641E+06         0.00000E+00
    0.21641E+06         0.23476E+08         0.00000E+00
    0.00000E+00         0.00000E+00         0.10032E+08
 
    0.98588E+07         0.20857E+06         0.00000E+00
    0.20857E+06         0.23306E+08         0.00000E+00
    0.00000E+00         0.00000E+00         0.99495E+07
 
    0.97504E+07         0.19929E+06         0.00000E+00
    0.19929E+06         0.23133E+08         0.00000E+00
    0.00000E+00         0.00000E+00         0.98650E+07
 
    0.96378E+07         0.18842E+06         0.00000E+00
    0.18842E+06         0.22957E+08         0.00000E+00
    0.00000E+00         0.00000E+00         0.97785E+07
 
    0.95210E+07         0.17581E+06         0.00000E+00
    0.17581E+06         0.22779E+08         0.00000E+00
    0.00000E+00         0.00000E+00         0.96899E+07
 
    0.93998E+07         0.16134E+06         0.00000E+00
    0.16134E+06         0.22597E+08         0.00000E+00
    0.00000E+00         0.00000E+00         0.95992E+07
 
    0.92741E+07         0.14492E+06         0.00000E+00
    0.14492E+06         0.22414E+08         0.00000E+00
    0.00000E+00         0.00000E+00         0.95064E+07
 
    0.91438E+07         0.12649E+06         0.00000E+00
    0.12649E+06         0.22228E+08         0.00000E+00
    0.00000E+00         0.00000E+00         0.94116E+07
 
    0.90087E+07         0.10611E+06         0.00000E+00
    0.10611E+06         0.22041E+08         0.00000E+00
    0.00000E+00         0.00000E+00         0.93148E+07
 
    0.88689E+07         0.83955E+05         0.00000E+00
    0.83955E+05         0.21852E+08         0.00000E+00
    0.00000E+00         0.00000E+00         0.92162E+07
 
    0.87243E+07         0.60381E+05         0.00000E+00
    0.60381E+05         0.21662E+08         0.00000E+00
    0.00000E+00         0.00000E+00         0.91159E+07
 
    0.85750E+07         0.36025E+05         0.00000E+00
    0.36025E+05         0.21473E+08         0.00000E+00
    0.00000E+00         0.00000E+00         0.90143E+07
 
    0.84212E+07         0.11891E+05         0.00000E+00
    0.11891E+05         0.21284E+08         0.00000E+00
    0.00000E+00         0.00000E+00         0.89116E+07
 
    0.82632E+07        -0.10523E+05         0.00000E+00
   -0.10523E+05         0.21098E+08         0.00000E+00
    0.00000E+00         0.00000E+00         0.88083E+07
 
    0.81015E+07        -0.29083E+05         0.00000E+00
   -0.29083E+05         0.20916E+08         0.00000E+00
    0.00000E+00         0.00000E+00         0.87052E+07
 
    0.79366E+07        -0.40960E+05         0.00000E+00
   -0.40960E+05         0.20741E+08         0.00000E+00
    0.00000E+00         0.00000E+00         0.86031E+07
 
    0.77682E+07        -0.42978E+05         0.00000E+00
   -0.42978E+05         0.20577E+08         0.00000E+00
    0.00000E+00         0.00000E+00         0.85035E+07
 
    0.75945E+07        -0.33017E+05         0.00000E+00
   -0.33017E+05         0.20432E+08         0.00000E+00
    0.00000E+00         0.00000E+00         0.84080E+07
 
    0.74123E+07        -0.12456E+05         0.00000E+00
   -0.12456E+05         0.20315E+08         0.00000E+00
    0.00000E+00         0.00000E+00         0.83182E+07
 
    0.12892E+08        -0.99437E+03         0.00000E+00
   -0.99437E+03         0.29511E+08         0.00000E+00
    0.00000E+00         0.00000E+00         0.12721E+08
 
    0.12867E+08        -0.23153E+04         0.00000E+00
   -0.23153E+04         0.29494E+08         0.00000E+00
    0.00000E+00         0.00000E+00         0.12708E+08
 
    0.12843E+08        -0.20280E+04         0.00000E+00
   -0.20280E+04         0.29473E+08         0.00000E+00
    0.00000E+00         0.00000E+00         0.12695E+08
 
    0.12819E+08         0.27843E+02         0.00000E+00
    0.27843E+02         0.29449E+08         0.00000E+00
    0.00000E+00         0.00000E+00         0.12681E+08
 
    0.12797E+08         0.34936E+04         0.00000E+00
    0.34936E+04         0.29424E+08         0.00000E+00
    0.00000E+00         0.00000E+00         0.12666E+08
 
    0.12775E+08         0.78902E+04         0.00000E+00
    0.78902E+04         0.29397E+08         0.00000E+00
    0.00000E+00         0.00000E+00         0.12652E+08
 
    0.12754E+08         0.12816E+05         0.00000E+00
    0.12816E+05         0.29369E+08         0.00000E+00
    0.00000E+00         0.00000E+00         0.12637E+08
 
    0.12733E+08         0.17977E+05         0.00000E+00
    0.17977E+05         0.29341E+08         0.00000E+00
    0.00000E+00         0.00000E+00         0.12622E+08
 
    0.12713E+08         0.23176E+05         0.00000E+00
    0.23176E+05         0.29312E+08         0.00000E+00
    0.00000E+00         0.00000E+00         0.12608E+08
 
    0.12694E+08         0.28280E+05         0.00000E+00
    0.28280E+05         0.29283E+08         0.00000E+00
    0.00000E+00         0.00000E+00         0.12593E+08
 
    0.12676E+08         0.33211E+05         0.00000E+00
    0.33211E+05         0.29253E+08         0.00000E+00
    0.00000E+00         0.00000E+00         0.12579E+08
 
    0.12658E+08         0.37926E+05         0.00000E+00
    0.37926E+05         0.29223E+08         0.00000E+00
    0.00000E+00         0.00000E+00         0.12564E+08
 
    0.12640E+08         0.42408E+05         0.00000E+00
    0.42408E+05         0.29193E+08         0.00000E+00
    0.00000E+00         0.00000E+00         0.12550E+08
 
    0.12623E+08         0.46658E+05         0.00000E+00
    0.46658E+05         0.29161E+08         0.00000E+00
    0.00000E+00         0.00000E+00         0.12535E+08
 
    0.12607E+08         0.50688E+05         0.00000E+00
    0.50688E+05         0.29130E+08         0.00000E+00
    0.00000E+00         0.00000E+00         0.12521E+08
 
    0.12590E+08         0.54515E+05         0.00000E+00
    0.54515E+05         0.29098E+08         0.00000E+00
    0.00000E+00         0.00000E+00         0.12507E+08
 
    0.12575E+08         0.58164E+05         0.00000E+00
    0.58164E+05         0.29065E+08         0.00000E+00
    0.00000E+00         0.00000E+00         0.12492E+08
 
    0.12559E+08         0.61656E+05         0.00000E+00
    0.61656E+05         0.29032E+08         0.00000E+00
    0.00000E+00         0.00000E+00         0.12477E+08
 
    0.12543E+08         0.65017E+05         0.00000E+00
    0.65017E+05         0.28998E+08         0.00000E+00
    0.00000E+00         0.00000E+00         0.12463E+08
 
    0.12528E+08         0.68268E+05         0.00000E+00
    0.68268E+05         0.28964E+08         0.00000E+00
    0.00000E+00         0.00000E+00         0.12448E+08
 
    0.12513E+08         0.71430E+05         0.00000E+00
    0.71430E+05         0.28929E+08         0.00000E+00
    0.00000E+00         0.00000E+00         0.12432E+08
 
    0.12497E+08         0.74522E+05         0.00000E+00
    0.74522E+05         0.28893E+08         0.00000E+00
    0.00000E+00         0.00000E+00         0.12417E+08
 
    0.12482E+08         0.77562E+05         0.00000E+00
    0.77562E+05         0.28856E+08         0.00000E+00
    0.00000E+00         0.00000E+00         0.12402E+08
 
    0.12467E+08         0.80563E+05         0.00000E+00
    0.80563E+05         0.28819E+08         0.00000E+00
    0.00000E+00         0.00000E+00         0.12386E+08
 
    0.12451E+08         0.83539E+05         0.00000E+00
    0.83539E+05         0.28780E+08         0.00000E+00
    0.00000E+00         0.00000E+00         0.12369E+08
 
    0.12436E+08         0.86502E+05         0.00000E+00
    0.86502E+05         0.28740E+08         0.00000E+00
    0.00000E+00         0.00000E+00         0.12353E+08
 
    0.12420E+08         0.89461E+05         0.00000E+00
    0.89461E+05         0.28700E+08         0.00000E+00
    0.00000E+00         0.00000E+00         0.12336E+08
 
    0.12404E+08         0.92424E+05         0.00000E+00
    0.92424E+05         0.28658E+08         0.00000E+00
    0.00000E+00         0.00000E+00         0.12319E+08
 
    0.12387E+08         0.95400E+05         0.00000E+00
    0.95400E+05         0.28616E+08         0.00000E+00
    0.00000E+00         0.00000E+00         0.12301E+08
 
    0.12370E+08         0.98394E+05         0.00000E+00
    0.98394E+05         0.28572E+08         0.00000E+00
    0.00000E+00         0.00000E+00         0.12283E+08
 
    0.12353E+08         0.10141E+06         0.00000E+00
    0.10141E+06         0.28527E+08         0.00000E+00
    0.00000E+00         0.00000E+00         0.12264E+08
 
    0.12336E+08         0.10446E+06         0.00000E+00
    0.10446E+06         0.28480E+08         0.00000E+00
    0.00000E+00         0.00000E+00         0.12245E+08
 
    0.12318E+08         0.10753E+06         0.00000E+00
    0.10753E+06         0.28433E+08         0.00000E+00
    0.00000E+00         0.00000E+00         0.12225E+08
 
    0.12299E+08         0.11064E+06         0.00000E+00
    0.11064E+06         0.28384E+08         0.00000E+00
    0.00000E+00         0.00000E+00         0.12205E+08
 
    0.12280E+08         0.11379E+06         0.00000E+00
    0.11379E+06         0.28333E+08         0.00000E+00
    0.00000E+00         0.00000E+00         0.12184E+08
 
    0.12260E+08         0.11698E+06         0.00000E+00
    0.11698E+06         0.28281E+08         0.00000E+00
    0.00000E+00         0.00000E+00         0.12163E+08
 
    0.12240E+08         0.12021E+06         0.00000E+00
    0.12021E+06         0.28228E+08         0.00000E+00
    0.00000E+00         0.00000E+00         0.12141E+08
 
    0.12219E+08         0.12347E+06         0.00000E+00
    0.12347E+06         0.28173E+08         0.00000E+00
    0.00000E+00         0.00000E+00         0.12118E+08
 
    0.12198E+08         0.12678E+06         0.00000E+00
    0.12678E+06         0.28117E+08         0.00000E+00
    0.00000E+00         0.00000E+00         0.12094E+08
 
    0.12176E+08         0.13014E+06         0.00000E+00
    0.13014E+06         0.28058E+08         0.00000E+00
    0.00000E+00         0.00000E+00         0.12070E+08
 
    0.12153E+08         0.13353E+06         0.00000E+00
    0.13353E+06         0.27998E+08         0.00000E+00
    0.00000E+00         0.00000E+00         0.12045E+08
 
    0.12129E+08         0.13696E+06         0.00000E+00
    0.13696E+06         0.27937E+08         0.00000E+00
    0.00000E+00         0.00000E+00         0.12020E+08
 
    0.12104E+08         0.14043E+06         0.00000E+00
    0.14043E+06         0.27873E+08         0.00000E+00
    0.00000E+00         0.00000E+00         0.11993E+08
 
    0.12079E+08         0.14394E+06         0.00000E+00
    0.14394E+06         0.27808E+08         0.00000E+00
    0.00000E+00         0.00000E+00         0.11966E+08
 
    0.12052E+08         0.14748E+06         0.00000E+00
    0.14748E+06         0.27741E+08         0.00000E+00
    0.00000E+00         0.00000E+00         0.11938E+08
 
    0.12025E+08         0.15105E+06         0.00000E+00
    0.15105E+06         0.27671E+08         0.00000E+00
    0.00000E+00         0.00000E+00         0.11909E+08
 
    0.11997E+08         0.15464E+06         0.00000E+00
    0.15464E+06         0.27600E+08         0.00000E+00
    0.00000E+00         0.00000E+00         0.11879E+08
 
    0.11967E+08         0.15826E+06         0.00000E+00
    0.15826E+06         0.27526E+08         0.00000E+00
    0.00000E+00         0.00000E+00         0.11848E+08
 
    0.11937E+08         0.16190E+06         0.00000E+00
    0.16190E+06         0.27451E+08         0.00000E+00
    0.00000E+00         0.00000E+00         0.11816E+08
 
    0.11906E+08         0.16555E+06         0.00000E+00
    0.16555E+06         0.27373E+08         0.00000E+00
    0.00000E+00         0.00000E+00         0.11784E+08
 
    0.11873E+08         0.16921E+06         0.00000E+00
    0.16921E+06         0.27293E+08         0.00000E+00
    0.00000E+00         0.00000E+00         0.11750E+08
 
    0.11839E+08         0.17287E+06         0.00000E+00
    0.17287E+06         0.27211E+08         0.00000E+00
    0.00000E+00         0.00000E+00         0.11715E+08
 
    0.11804E+08         0.17652E+06         0.00000E+00
    0.17652E+06         0.27126E+08         0.00000E+00
    0.00000E+00         0.00000E+00         0.11679E+08
 
    0.11767E+08         0.18016E+06         0.00000E+00
    0.18016E+06         0.27039E+08         0.00000E+00
    0.00000E+00         0.00000E+00         0.11642E+08
 
    0.11730E+08         0.18378E+06         0.00000E+00
    0.18378E+06         0.26950E+08         0.00000E+00
    0.00000E+00         0.00000E+00         0.11604E+08
 
    0.11690E+08         0.18736E+06         0.00000E+00
    0.18736E+06         0.26858E+08         0.00000E+00
    0.00000E+00         0.00000E+00         0.11564E+08
 
    0.11650E+08         0.19090E+06         0.00000E+00
    0.19090E+06         0.26763E+08         0.00000E+00
    0.00000E+00         0.00000E+00         0.11524E+08
 
    0.11608E+08         0.19438E+06         0.00000E+00
    0.19438E+06         0.26666E+08         0.00000E+00
    0.00000E+00         0.00000E+00         0.11482E+08
 
    0.11564E+08         0.19780E+06         0.00000E+00
    0.19780E+06         0.26566E+08         0.00000E+00
    0.00000E+00         0.00000E+00         0.11439E+08
 
    0.11518E+08         0.20114E+06         0.00000E+00
    0.20114E+06         0.26464E+08         0.00000E+00
    0.00000E+00         0.00000E+00         0.11395E+08
 
    0.11471E+08         0.20439E+06         0.00000E+00
    0.20439E+06         0.26359E+08         0.00000E+00
    0.00000E+00         0.00000E+00         0.11349E+08
 
    0.11423E+08         0.20752E+06         0.00000E+00
    0.20752E+06         0.26251E+08         0.00000E+00
    0.00000E+00         0.00000E+00         0.11302E+08
 
    0.11372E+08         0.21053E+06         0.00000E+00
    0.21053E+06         0.26140E+08         0.00000E+00
    0.00000E+00         0.00000E+00         0.11254E+08
 
    0.11320E+08         0.21339E+06         0.00000E+00
    0.21339E+06         0.26027E+08         0.00000E+00
    0.00000E+00         0.00000E+00         0.11204E+08
 
    0.11265E+08         0.21609E+06         0.00000E+00
    0.21609E+06         0.25911E+08         0.00000E+00
    0.00000E+00         0.00000E+00         0.11153E+08
 
    0.11209E+08         0.21860E+06         0.00000E+00
    0.21860E+06         0.25791E+08         0.00000E+00
    0.00000E+00         0.00000E+00         0.11100E+08
 
    0.11151E+08         0.22091E+06         0.00000E+00
    0.22091E+06         0.25669E+08         0.00000E+00
    0.00000E+00         0.00000E+00         0.11046E+08
 
    0.11090E+08         0.22297E+06         0.00000E+00
    0.22297E+06         0.25544E+08         0.00000E+00
    0.00000E+00         0.00000E+00         0.10990E+08
 
    0.11027E+08         0.22478E+06         0.00000E+00
    0.22478E+06         0.25416E+08         0.00000E+00
    0.00000E+00         0.00000E+00         0.10933E+08
 
    0.10962E+08         0.22629E+06         0.00000E+00
    0.22629E+06         0.25285E+08         0.00000E+00
    0.00000E+00         0.00000E+00         0.10874E+08
 
    0.10895E+08         0.22747E+06         0.00000E+00
    0.22747E+06         0.25151E+08         0.00000E+00
    0.00000E+00         0.00000E+00         0.10814E+08
 
    0.10824E+08         0.22828E+06         0.00000E+00
    0.22828E+06         0.25014E+08         0.00000E+00
    0.00000E+00         0.00000E+00         0.10752E+08
 
    0.10752E+08         0.22869E+06         0.00000E+00
    0.22869E+06         0.24874E+08         0.00000E+00
    0.00000E+00         0.00000E+00         0.10688E+08
 
    0.10677E+08         0.22864E+06         0.00000E+00
    0.22864E+06         0.24731E+08         0.00000E+00
    0.00000E+00         0.00000E+00         0.10622E+08
 
    0.10598E+08         0.22808E+06         0.00000E+00
    0.22808E+06         0.24585E+08         0.00000E+00
    0.00000E+00         0.00000E+00         0.10555E+08
 
    0.10517E+08         0.22696E+06         0.00000E+00
    0.22696E+06         0.24436E+08         0.00000E+00
    0.00000E+00         0.00000E+00         0.10486E+08
 
    0.10433E+08         0.22519E+06         0.00000E+00
    0.22519E+06         0.24283E+08         0.00000E+00
    0.00000E+00         0.00000E+00         0.10415E+08
 
    0.10346E+08         0.22272E+06         0.00000E+00
    0.22272E+06         0.24128E+08         0.00000E+00
    0.00000E+00         0.00000E+00         0.10342E+08
 
    0.10256E+08         0.21944E+06         0.00000E+00
    0.21944E+06         0.23970E+08         0.00000E+00
    0.00000E+00         0.00000E+00         0.10268E+08
 
    0.10162E+08         0.21527E+06         0.00000E+00
    0.21527E+06         0.23809E+08         0.00000E+00
    0.00000E+00         0.00000E+00         0.10191E+08
 
    0.10064E+08         0.21009E+06         0.00000E+00
    0.21009E+06         0.23645E+08         0.00000E+00
    0.00000E+00         0.00000E+00         0.10113E+08
 
    0.99627E+07         0.20378E+06         0.00000E+00
    0.20378E+06         0.23478E+08         0.00000E+00
    0.00000E+00         0.00000E+00         0.10032E+08
 
    0.98575E+07         0.19622E+06         0.00000E+00
    0.19622E+06         0.23308E+08         0.00000E+00
    0.00000E+00         0.00000E+00         0.99496E+07
 
    0.97483E+07         0.18725E+06         0.00000E+00
    0.18725E+06         0.23135E+08         0.00000E+00
    0.00000E+00         0.00000E+00         0.98650E+07
 
    0.96348E+07         0.17675E+06         0.00000E+00
    0.17675E+06         0.22959E+08         0.00000E+00
    0.00000E+00         0.00000E+00         0.97783E+07
 
    0.95169E+07         0.16456E+06         0.00000E+00
    0.16456E+06         0.22781E+08         0.00000E+00
    0.00000E+00         0.00000E+00         0.96894E+07
 
    0.93945E+07         0.15056E+06         0.00000E+00
    0.15056E+06         0.22600E+08         0.00000E+00
    0.00000E+00         0.00000E+00         0.95985E+07
 
    0.92674E+07         0.13465E+06         0.00000E+00
    0.13465E+06         0.22417E+08         0.00000E+00
    0.00000E+00         0.00000E+00         0.95054E+07
 
    0.91354E+07         0.11679E+06         0.00000E+00
    0.11679E+06         0.22232E+08         0.00000E+00
    0.00000E+00         0.00000E+00         0.94102E+07
 
    0.89985E+07         0.97022E+05         0.00000E+00
    0.97022E+05         0.22045E+08         0.00000E+00
    0.00000E+00         0.00000E+00         0.93130E+07
 
    0.88565E+07         0.75505E+05         0.00000E+00
    0.75505E+05         0.21856E+08         0.00000E+00
    0.00000E+00         0.00000E+00         0.92138E+07
 
    0.87095E+07         0.52593E+05         0.00000E+00
    0.52593E+05         0.21667E+08         0.00000E+00
    0.00000E+00         0.00000E+00         0.91130E+07
 
    0.85577E+07         0.28902E+05         0.00000E+00
    0.28902E+05         0.21477E+08         0.00000E+00
    0.00000E+00         0.00000E+00         0.90105E+07
 
    0.84011E+07         0.54050E+04         0.00000E+00
    0.54050E+04         0.21289E+08         0.00000E+00
    0.00000E+00         0.00000E+00         0.89070E+07
 
    0.82403E+07        -0.16434E+05         0.00000E+00
   -0.16434E+05         0.21102E+08         0.00000E+00
    0.00000E+00         0.00000E+00         0.88027E+07
 
    0.80758E+07        -0.34508E+05         0.00000E+00
   -0.34508E+05         0.20919E+08         0.00000E+00
    0.00000E+00         0.00000E+00         0.86984E+07
 
    0.79084E+07        -0.45948E+05         0.00000E+00
   -0.45948E+05         0.20742E+08         0.00000E+00
    0.00000E+00         0.00000E+00         0.85951E+07
 
    0.77382E+07        -0.47359E+05         0.00000E+00
   -0.47359E+05         0.20576E+08         0.00000E+00
    0.00000E+00         0.00000E+00         0.84943E+07
 
    0.75636E+07        -0.36215E+05         0.00000E+00
   -0.36215E+05         0.20429E+08         0.00000E+00
    0.00000E+00         0.00000E+00         0.83977E+07
 
    0.73812E+07        -0.13658E+05         0.00000E+00
   -0.13658E+05         0.20310E+08         0.00000E+00
    0.00000E+00         0.00000E+00         0.83073E+07
 
    0.12898E+08        -0.12063E+04         0.00000E+00
   -0.12063E+04         0.29512E+08         0.00000E+00
    0.00000E+00         0.00000E+00         0.12723E+08
 
    0.12872E+08        -0.28845E+04         0.00000E+00
   -0.28845E+04         0.29494E+08         0.00000E+00
    0.00000E+00         0.00000E+00         0.12710E+08
 
    0.12848E+08        -0.28277E+04         0.00000E+00
   -0.28277E+04         0.29473E+08         0.00000E+00
    0.00000E+00         0.00000E+00         0.12696E+08
 
    0.12825E+08        -0.92227E+03         0.00000E+00
   -0.92227E+03         0.29449E+08         0.00000E+00
    0.00000E+00         0.00000E+00         0.12682E+08
 
    0.12802E+08         0.24060E+04         0.00000E+00
    0.24060E+04         0.29423E+08         0.00000E+00
    0.00000E+00         0.00000E+00         0.12667E+08
 
    0.12780E+08         0.66469E+04         0.00000E+00
    0.66469E+04         0.29396E+08         0.00000E+00
    0.00000E+00         0.00000E+00         0.12653E+08
 
    0.12758E+08         0.11396E+05         0.00000E+00
    0.11396E+05         0.29368E+08         0.00000E+00
    0.00000E+00         0.00000E+00         0.12638E+08
 
    0.12737E+08         0.16367E+05         0.00000E+00
    0.16367E+05         0.29340E+08         0.00000E+00
    0.00000E+00         0.00000E+00         0.12623E+08
 
    0.12717E+08         0.21367E+05         0.00000E+00
    0.21367E+05         0.29311E+08         0.00000E+00
    0.00000E+00         0.00000E+00         0.12608E+08
 
    0.12697E+08         0.26270E+05         0.00000E+00
    0.26270E+05         0.29282E+08         0.00000E+00
    0.00000E+00         0.00000E+00         0.12594E+08
 
    0.12679E+08         0.31000E+05         0.00000E+00
    0.31000E+05         0.29252E+08         0.00000E+00
    0.00000E+00         0.00000E+00         0.12579E+08
 
    0.12660E+08         0.35516E+05         0.00000E+00
    0.35516E+05         0.29222E+08         0.00000E+00
    0.00000E+00         0.00000E+00         0.12565E+08
 
    0.12643E+08         0.39803E+05         0.00000E+00
    0.39803E+05         0.29192E+08         0.00000E+00
    0.00000E+00         0.00000E+00         0.12550E+08
 
    0.12626E+08         0.43862E+05         0.00000E+00
    0.43862E+05         0.29161E+08         0.00000E+00
    0.00000E+00         0.00000E+00         0.12536E+08
 
    0.12609E+08         0.47705E+05         0.00000E+00
    0.47705E+05         0.29129E+08         0.00000E+00
    0.00000E+00         0.00000E+00         0.12521E+08
 
    0.12593E+08         0.51350E+05         0.00000E+00
    0.51350E+05         0.29097E+08         0.00000E+00
    0.00000E+00         0.00000E+00         0.12507E+08
 
    0.12577E+08         0.54819E+05         0.00000E+00
    0.54819E+05         0.29065E+08         0.00000E+00
    0.00000E+00         0.00000E+00         0.12492E+08
 
    0.12561E+08         0.58136E+05         0.00000E+00
    0.58136E+05         0.29032E+08         0.00000E+00
    0.00000E+00         0.00000E+00         0.12478E+08
 
    0.12546E+08         0.61324E+05         0.00000E+00
    0.61324E+05         0.28998E+08         0.00000E+00
    0.00000E+00         0.00000E+00         0.12463E+08
 
    0.12530E+08         0.64406E+05         0.00000E+00
    0.64406E+05         0.28963E+08         0.00000E+00
    0.00000E+00         0.00000E+00         0.12448E+08
 
    0.12515E+08         0.67401E+05         0.00000E+00
    0.67401E+05         0.28928E+08         0.00000E+00
    0.00000E+00         0.00000E+00         0.12433E+08
 
    0.12500E+08         0.70327E+05         0.00000E+00
    0.70327E+05         0.28892E+08         0.00000E+00
    0.00000E+00         0.00000E+00         0.12418E+08
 
    0.12485E+08         0.73202E+05         0.00000E+00
    0.73202E+05         0.28856E+08         0.00000E+00
    0.00000E+00         0.00000E+00         0.12402E+08
 
    0.12469E+08         0.76039E+05         0.00000E+00
    0.76039E+05         0.28818E+08         0.00000E+00
    0.00000E+00         0.00000E+00         0.12386E+08
 
    0.12454E+08         0.78852E+05         0.00000E+00
    0.78852E+05         0.28779E+08         0.00000E+00
    0.00000E+00         0.00000E+00         0.12370E+08
 
    0.12438E+08         0.81651E+05         0.00000E+00
    0.81651E+05         0.28740E+08         0.00000E+00
    0.00000E+00         0.00000E+00         0.12353E+08
 
    0.12422E+08         0.84445E+05         0.00000E+00
    0.84445E+05         0.28699E+08         0.00000E+00
    0.00000E+00         0.00000E+00         0.12337E+08
 
    0.12406E+08         0.87244E+05         0.00000E+00
    0.87244E+05         0.28658E+08         0.00000E+00
    0.00000E+00         0.00000E+00         0.12319E+08
 
    0.12390E+08         0.90053E+05         0.00000E+00
    0.90053E+05         0.28615E+08         0.00000E+00
    0.00000E+00         0.00000E+00         0.12301E+08
 
    0.12373E+08         0.92879E+05         0.00000E+00
    0.92879E+05         0.28571E+08         0.00000E+00
    0.00000E+00         0.00000E+00         0.12283E+08
 
    0.12356E+08         0.95727E+05         0.00000E+00
    0.95727E+05         0.28526E+08         0.00000E+00
    0.00000E+00         0.00000E+00         0.12265E+08
 
    0.12339E+08         0.98600E+05         0.00000E+00
    0.98600E+05         0.28480E+08         0.00000E+00
    0.00000E+00         0.00000E+00         0.12246E+08
 
    0.12321E+08         0.10150E+06         0.00000E+00
    0.10150E+06         0.28432E+08         0.00000E+00
    0.00000E+00         0.00000E+00         0.12226E+08
 
    0.12302E+08         0.10444E+06         0.00000E+00
    0.10444E+06         0.28383E+08         0.00000E+00
    0.00000E+00         0.00000E+00         0.12206E+08
 
    0.12283E+08         0.10741E+06         0.00000E+00
    0.10741E+06         0.28333E+08         0.00000E+00
    0.00000E+00         0.00000E+00         0.12185E+08
 
    0.12264E+08         0.11042E+06         0.00000E+00
    0.11042E+06         0.28281E+08         0.00000E+00
    0.00000E+00         0.00000E+00         0.12163E+08
 
    0.12244E+08         0.11346E+06         0.00000E+00
    0.11346E+06         0.28227E+08         0.00000E+00
    0.00000E+00         0.00000E+00         0.12141E+08
 
    0.12223E+08         0.11654E+06         0.00000E+00
    0.11654E+06         0.28173E+08         0.00000E+00
    0.00000E+00         0.00000E+00         0.12119E+08
 
    0.12201E+08         0.11966E+06         0.00000E+00
    0.11966E+06         0.28116E+08         0.00000E+00
    0.00000E+00         0.00000E+00         0.12095E+08
 
    0.12179E+08         0.12282E+06         0.00000E+00
    0.12282E+06         0.28058E+08         0.00000E+00
    0.00000E+00         0.00000E+00         0.12071E+08
 
    0.12156E+08         0.12602E+06         0.00000E+00
    0.12602E+06         0.27998E+08         0.00000E+00
    0.00000E+00         0.00000E+00         0.12046E+08
 
    0.12133E+08         0.12926E+06         0.00000E+00
    0.12926E+06         0.27936E+08         0.00000E+00
    0.00000E+00         0.00000E+00         0.12021E+08
 
    0.12108E+08         0.13253E+06         0.00000E+00
    0.13253E+06         0.27873E+08         0.00000E+00
    0.00000E+00         0.00000E+00         0.11994E+08
 
    0.12083E+08         0.13583E+06         0.00000E+00
    0.13583E+06         0.27807E+08         0.00000E+00
    0.00000E+00         0.00000E+00         0.11967E+08
 
    0.12056E+08         0.13917E+06         0.00000E+00
    0.13917E+06         0.27740E+08         0.00000E+00
    0.00000E+00         0.00000E+00         0.11939E+08
 
    0.12029E+08         0.14253E+06         0.00000E+00
    0.14253E+06         0.27671E+08         0.00000E+00
    0.00000E+00         0.00000E+00         0.11910E+08
 
    0.12001E+08         0.14592E+06         0.00000E+00
    0.14592E+06         0.27599E+08         0.00000E+00
    0.00000E+00         0.00000E+00         0.11880E+08
 
    0.11971E+08         0.14933E+06         0.00000E+00
    0.14933E+06         0.27526E+08         0.00000E+00
    0.00000E+00         0.00000E+00         0.11849E+08
 
    0.11941E+08         0.15275E+06         0.00000E+00
    0.15275E+06         0.27450E+08         0.00000E+00
    0.00000E+00         0.00000E+00         0.11817E+08
 
    0.11910E+08         0.15619E+06         0.00000E+00
    0.15619E+06         0.27372E+08         0.00000E+00
    0.00000E+00         0.00000E+00         0.11785E+08
 
    0.11877E+08         0.15964E+06         0.00000E+00
    0.15964E+06         0.27292E+08         0.00000E+00
    0.00000E+00         0.00000E+00         0.11751E+08
 
    0.11843E+08         0.16308E+06         0.00000E+00
    0.16308E+06         0.27210E+08         0.00000E+00
    0.00000E+00         0.00000E+00         0.11716E+08
 
    0.11808E+08         0.16652E+06         0.00000E+00
    0.16652E+06         0.27125E+08         0.00000E+00
    0.00000E+00         0.00000E+00         0.11680E+08
 
    0.11772E+08         0.16994E+06         0.00000E+00
    0.16994E+06         0.27038E+08         0.00000E+00
    0.00000E+00         0.00000E+00         0.11643E+08
 
    0.11734E+08         0.17334E+06         0.00000E+00
    0.17334E+06         0.26949E+08         0.00000E+00
    0.00000E+00         0.00000E+00         0.11605E+08
 
    0.11695E+08         0.17671E+06         0.00000E+00
    0.17671E+06         0.26857E+08         0.00000E+00
    0.00000E+00         0.00000E+00         0.11566E+08
 
    0.11654E+08         0.18004E+06         0.00000E+00
    0.18004E+06         0.26763E+08         0.00000E+00
    0.00000E+00         0.00000E+00         0.11525E+08
 
    0.11612E+08         0.18331E+06         0.00000E+00
    0.18331E+06         0.26665E+08         0.00000E+00
    0.00000E+00         0.00000E+00         0.11483E+08
 
    0.11568E+08         0.18653E+06         0.00000E+00
    0.18653E+06         0.26566E+08         0.00000E+00
    0.00000E+00         0.00000E+00         0.11440E+08
 
    0.11523E+08         0.18966E+06         0.00000E+00
    0.18966E+06         0.26463E+08         0.00000E+00
    0.00000E+00         0.00000E+00         0.11396E+08
 
    0.11476E+08         0.19271E+06         0.00000E+00
    0.19271E+06         0.26358E+08         0.00000E+00
    0.00000E+00         0.00000E+00         0.11350E+08
 
    0.11427E+08         0.19565E+06         0.00000E+00
    0.19565E+06         0.26250E+08         0.00000E+00
    0.00000E+00         0.00000E+00         0.11303E+08
 
    0.11376E+08         0.19847E+06         0.00000E+00
    0.19847E+06         0.26140E+08         0.00000E+00
    0.00000E+00         0.00000E+00         0.11255E+08
 
    0.11324E+08         0.20115E+06         0.00000E+00
    0.20115E+06         0.26026E+08         0.00000E+00
    0.00000E+00         0.00000E+00         0.11205E+08
 
    0.11270E+08         0.20368E+06         0.00000E+00
    0.20368E+06         0.25910E+08         0.00000E+00
    0.00000E+00         0.00000E+00         0.11154E+08
 
    0.11213E+08         0.20603E+06         0.00000E+00
    0.20603E+06         0.25791E+08         0.00000E+00
    0.00000E+00         0.00000E+00         0.11101E+08
 
    0.11155E+08         0.20818E+06         0.00000E+00
    0.20818E+06         0.25669E+08         0.00000E+00
    0.00000E+00         0.00000E+00         0.11047E+08
 
    0.11094E+08         0.21010E+06         0.00000E+00
    0.21010E+06         0.25544E+08         0.00000E+00
    0.00000E+00         0.00000E+00         0.10991E+08
 
    0.11031E+08         0.21178E+06         0.00000E+00
    0.21178E+06         0.25416E+08         0.00000E+00
    0.00000E+00         0.00000E+00         0.10934E+08
 
    0.10966E+08         0.21318E+06         0.00000E+00
    0.21318E+06         0.25285E+08         0.00000E+00
    0.00000E+00         0.00000E+00         0.10875E+08
 
    0.10898E+08         0.21426E+06         0.00000E+00
    0.21426E+06         0.25151E+08         0.00000E+00
    0.00000E+00         0.00000E+00         0.10815E+08
 
    0.10828E+08         0.21500E+06         0.00000E+00
    0.21500E+06         0.25014E+08         0.00000E+00
    0.00000E+00         0.00000E+00         0.10753E+08
 
    0.10755E+08         0.21535E+06         0.00000E+00
    0.21535E+06         0.24874E+08         0.00000E+00
    0.00000E+00         0.00000E+00         0.10689E+08
 
    0.10679E+08         0.21527E+06         0.00000E+00
    0.21527E+06         0.24731E+08         0.00000E+00
    0.00000E+00         0.00000E+00         0.10623E+08
 
    0.10601E+08         0.21470E+06         0.00000E+00
    0.21470E+06         0.24585E+08         0.00000E+00
    0.00000E+00         0.00000E+00         0.10556E+08
 
    0.10520E+08         0.21360E+06         0.00000E+00
    0.21360E+06         0.24436E+08         0.00000E+00
    0.00000E+00         0.00000E+00         0.10487E+08
 
    0.10435E+08         0.21189E+06         0.00000E+00
    0.21189E+06         0.24284E+08         0.00000E+00
    0.00000E+00         0.00000E+00         0.10416E+08
 
    0.10348E+08         0.20949E+06         0.00000E+00
    0.20949E+06         0.24129E+08         0.00000E+00
    0.00000E+00         0.00000E+00         0.10343E+08
 
    0.10257E+08         0.20634E+06         0.00000E+00
    0.20634E+06         0.23971E+08         0.00000E+00
    0.00000E+00         0.00000E+00         0.10268E+08
 
    0.10162E+08         0.20232E+06         0.00000E+00
    0.20232E+06         0.23810E+08         0.00000E+00
    0.00000E+00         0.00000E+00         0.10192E+08
 
    0.10064E+08         0.19734E+06         0.00000E+00
    0.19734E+06         0.23646E+08         0.00000E+00
    0.00000E+00         0.00000E+00         0.10113E+08
 
    0.99624E+07         0.19128E+06         0.00000E+00
    0.19128E+06         0.23479E+08         0.00000E+00
    0.00000E+00         0.00000E+00         0.10032E+08
 
    0.98565E+07         0.18401E+06         0.00000E+00
    0.18401E+06         0.23309E+08         0.00000E+00
    0.00000E+00         0.00000E+00         0.99498E+07
 
    0.97464E+07         0.17539E+06         0.00000E+00
    0.17539E+06         0.23137E+08         0.00000E+00
    0.00000E+00         0.00000E+00         0.98650E+07
 
    0.96320E+07         0.16528E+06         0.00000E+00
    0.16528E+06         0.22962E+08         0.00000E+00
    0.00000E+00         0.00000E+00         0.97781E+07
 
    0.95131E+07         0.15354E+06         0.00000E+00
    0.15354E+06         0.22784E+08         0.00000E+00
    0.00000E+00         0.00000E+00         0.96891E+07
 
    0.93894E+07         0.14004E+06         0.00000E+00
    0.14004E+06         0.22603E+08         0.00000E+00
    0.00000E+00         0.00000E+00         0.95978E+07
 
    0.92609E+07         0.12469E+06         0.00000E+00
    0.12469E+06         0.22421E+08         0.00000E+00
    0.00000E+00         0.00000E+00         0.95044E+07
 
    0.91273E+07         0.10744E+06         0.00000E+00
    0.10744E+06         0.22236E+08         0.00000E+00
    0.00000E+00         0.00000E+00         0.94089E+07
 
    0.89885E+07         0.88327E+05         0.00000E+00
    0.88327E+05         0.22049E+08         0.00000E+00
    0.00000E+00         0.00000E+00         0.93112E+07
 
    0.88444E+07         0.67501E+05         0.00000E+00
    0.67501E+05         0.21861E+08         0.00000E+00
    0.00000E+00         0.00000E+00         0.92115E+07
 
    0.86951E+07         0.45303E+05         0.00000E+00
    0.45303E+05         0.21672E+08         0.00000E+00
    0.00000E+00         0.00000E+00         0.91100E+07
 
    0.85406E+07         0.22322E+05         0.00000E+00
    0.22322E+05         0.21482E+08         0.00000E+00
    0.00000E+00         0.00000E+00         0.90068E+07
 
    0.83812E+07        -0.50361E+03         0.00000E+00
   -0.50361E+03         0.21293E+08         0.00000E+00
    0.00000E+00         0.00000E+00         0.89023E+07
 
    0.82174E+07        -0.21758E+05         0.00000E+00
   -0.21758E+05         0.21106E+08         0.00000E+00
    0.00000E+00         0.00000E+00         0.87970E+07
 
    0.80500E+07        -0.39381E+05         0.00000E+00
   -0.39381E+05         0.20922E+08         0.00000E+00
    0.00000E+00         0.00000E+00         0.86916E+07
 
    0.78800E+07        -0.50485E+05         0.00000E+00
   -0.50485E+05         0.20743E+08         0.00000E+00
    0.00000E+00         0.00000E+00         0.85870E+07
 
    0.77078E+07        -0.51459E+05         0.00000E+00
   -0.51459E+05         0.20575E+08         0.00000E+00
    0.00000E+00         0.00000E+00         0.84848E+07
 
    0.75321E+07        -0.39307E+05         0.00000E+00
   -0.39307E+05         0.20425E+08         0.00000E+00
    0.00000E+00         0.00000E+00         0.83871E+07
 
    0.73494E+07        -0.14845E+05         0.00000E+00
   -0.14845E+05         0.20304E+08         0.00000E+00
    0.00000E+00         0.00000E+00         0.82961E+07
 
    0.12903E+08        -0.14172E+04         0.00000E+00
   -0.14172E+04         0.29512E+08         0.00000E+00
    0.00000E+00         0.00000E+00         0.12725E+08
 
    0.12878E+08        -0.34401E+04         0.00000E+00
   -0.34401E+04         0.29495E+08         0.00000E+00
    0.00000E+00         0.00000E+00         0.12712E+08
 
    0.12853E+08        -0.35877E+04         0.00000E+00
   -0.35877E+04         0.29473E+08         0.00000E+00
    0.00000E+00         0.00000E+00         0.12698E+08
 
    0.12830E+08        -0.18093E+04         0.00000E+00
   -0.18093E+04         0.29448E+08         0.00000E+00
    0.00000E+00         0.00000E+00         0.12683E+08
 
    0.12807E+08         0.13930E+04         0.00000E+00
    0.13930E+04         0.29422E+08         0.00000E+00
    0.00000E+00         0.00000E+00         0.12669E+08
 
    0.12784E+08         0.54800E+04         0.00000E+00
    0.54800E+04         0.29395E+08         0.00000E+00
    0.00000E+00         0.00000E+00         0.12654E+08
 
    0.12762E+08         0.10048E+05         0.00000E+00
    0.10048E+05         0.29367E+08         0.00000E+00
    0.00000E+00         0.00000E+00         0.12639E+08
 
    0.12741E+08         0.14822E+05         0.00000E+00
    0.14822E+05         0.29339E+08         0.00000E+00
    0.00000E+00         0.00000E+00         0.12624E+08
 
    0.12720E+08         0.19615E+05         0.00000E+00
    0.19615E+05         0.29310E+08         0.00000E+00
    0.00000E+00         0.00000E+00         0.12609E+08
 
    0.12701E+08         0.24308E+05         0.00000E+00
    0.24308E+05         0.29281E+08         0.00000E+00
    0.00000E+00         0.00000E+00         0.12594E+08
 
    0.12681E+08         0.28829E+05         0.00000E+00
    0.28829E+05         0.29251E+08         0.00000E+00
    0.00000E+00         0.00000E+00         0.12580E+08
 
    0.12663E+08         0.33140E+05         0.00000E+00
    0.33140E+05         0.29221E+08         0.00000E+00
    0.00000E+00         0.00000E+00         0.12565E+08
 
    0.12645E+08         0.37225E+05         0.00000E+00
    0.37225E+05         0.29191E+08         0.00000E+00
    0.00000E+00         0.00000E+00         0.12551E+08
 
    0.12628E+08         0.41086E+05         0.00000E+00
    0.41086E+05         0.29160E+08         0.00000E+00
    0.00000E+00         0.00000E+00         0.12536E+08
 
    0.12611E+08         0.44736E+05         0.00000E+00
    0.44736E+05         0.29128E+08         0.00000E+00
    0.00000E+00         0.00000E+00         0.12522E+08
 
    0.12595E+08         0.48194E+05         0.00000E+00
    0.48194E+05         0.29097E+08         0.00000E+00
    0.00000E+00         0.00000E+00         0.12508E+08
 
    0.12579E+08         0.51481E+05         0.00000E+00
    0.51481E+05         0.29064E+08         0.00000E+00
    0.00000E+00         0.00000E+00         0.12493E+08
 
    0.12563E+08         0.54619E+05         0.00000E+00
    0.54619E+05         0.29031E+08         0.00000E+00
    0.00000E+00         0.00000E+00         0.12478E+08
 
    0.12548E+08         0.57632E+05         0.00000E+00
    0.57632E+05         0.28997E+08         0.00000E+00
    0.00000E+00         0.00000E+00         0.12464E+08
 
    0.12533E+08         0.60542E+05         0.00000E+00
    0.60542E+05         0.28963E+08         0.00000E+00
    0.00000E+00         0.00000E+00         0.12449E+08
 
    0.12517E+08         0.63367E+05         0.00000E+00
    0.63367E+05         0.28928E+08         0.00000E+00
    0.00000E+00         0.00000E+00         0.12434E+08
 
    0.12502E+08         0.66126E+05         0.00000E+00
    0.66126E+05         0.28892E+08         0.00000E+00
    0.00000E+00         0.00000E+00         0.12418E+08
 
    0.12487E+08         0.68835E+05         0.00000E+00
    0.68835E+05         0.28855E+08         0.00000E+00
    0.00000E+00         0.00000E+00         0.12403E+08
 
    0.12472E+08         0.71507E+05         0.00000E+00
    0.71507E+05         0.28817E+08         0.00000E+00
    0.00000E+00         0.00000E+00         0.12387E+08
 
    0.12456E+08         0.74155E+05         0.00000E+00
    0.74155E+05         0.28779E+08         0.00000E+00
    0.00000E+00         0.00000E+00         0.12371E+08
 
    0.12441E+08         0.76790E+05         0.00000E+00
    0.76790E+05         0.28739E+08         0.00000E+00
    0.00000E+00         0.00000E+00         0.12354E+08
 
    0.12425E+08         0.79419E+05         0.00000E+00
    0.79419E+05         0.28699E+08         0.00000E+00
    0.00000E+00         0.00000E+00         0.12337E+08
 
    0.12409E+08         0.82052E+05         0.00000E+00
    0.82052E+05         0.28657E+08         0.00000E+00
    0.00000E+00         0.00000E+00         0.12320E+08
 
    0.12392E+08         0.84694E+05         0.00000E+00
    0.84694E+05         0.28615E+08         0.00000E+00
    0.00000E+00         0.00000E+00         0.12302E+08
 
    0.12376E+08         0.87352E+05         0.00000E+00
    0.87352E+05         0.28571E+08         0.00000E+00
    0.00000E+00         0.00000E+00         0.12284E+08
 
    0.12359E+08         0.90030E+05         0.00000E+00
    0.90030E+05         0.28526E+08         0.00000E+00
    0.00000E+00         0.00000E+00         0.12265E+08
 
    0.12341E+08         0.92731E+05         0.00000E+00
    0.92731E+05         0.28479E+08         0.00000E+00
    0.00000E+00         0.00000E+00         0.12246E+08
 
    0.12323E+08         0.95461E+05         0.00000E+00
    0.95461E+05         0.28432E+08         0.00000E+00
    0.00000E+00         0.00000E+00         0.12227E+08
 
    0.12305E+08         0.98220E+05         0.00000E+00
    0.98220E+05         0.28383E+08         0.00000E+00
    0.00000E+00         0.00000E+00         0.12206E+08
 
    0.12286E+08         0.10101E+06         0.00000E+00
    0.10101E+06         0.28332E+08         0.00000E+00
    0.00000E+00         0.00000E+00         0.12186E+08
 
    0.12267E+08         0.10384E+06         0.00000E+00
    0.10384E+06         0.28280E+08         0.00000E+00
    0.00000E+00         0.00000E+00         0.12164E+08
 
    0.12247E+08         0.10670E+06         0.00000E+00
    0.10670E+06         0.28227E+08         0.00000E+00
    0.00000E+00         0.00000E+00         0.12142E+08
 
    0.12226E+08         0.10959E+06         0.00000E+00
    0.10959E+06         0.28172E+08         0.00000E+00
    0.00000E+00         0.00000E+00         0.12119E+08
 
    0.12205E+08         0.11253E+06         0.00000E+00
    0.11253E+06         0.28115E+08         0.00000E+00
    0.00000E+00         0.00000E+00         0.12096E+08
 
    0.12183E+08         0.11549E+06         0.00000E+00
    0.11549E+06         0.28057E+08         0.00000E+00
    0.00000E+00         0.00000E+00         0.12072E+08
 
    0.12160E+08         0.11850E+06         0.00000E+00
    0.11850E+06         0.27997E+08         0.00000E+00
    0.00000E+00         0.00000E+00         0.12047E+08
 
    0.12136E+08         0.12154E+06         0.00000E+00
    0.12154E+06         0.27935E+08         0.00000E+00
    0.00000E+00         0.00000E+00         0.12021E+08
 
    0.12112E+08         0.12461E+06         0.00000E+00
    0.12461E+06         0.27872E+08         0.00000E+00
    0.00000E+00         0.00000E+00         0.11995E+08
 
    0.12086E+08         0.12771E+06         0.00000E+00
    0.12771E+06         0.27807E+08         0.00000E+00
    0.00000E+00         0.00000E+00         0.11968E+08
 
    0.12060E+08         0.13084E+06         0.00000E+00
    0.13084E+06         0.27739E+08         0.00000E+00
    0.00000E+00         0.00000E+00         0.11940E+08
 
    0.12033E+08         0.13400E+06         0.00000E+00
    0.13400E+06         0.27670E+08         0.00000E+00
    0.00000E+00         0.00000E+00         0.11911E+08
 
    0.12005E+08         0.13718E+06         0.00000E+00
    0.13718E+06         0.27599E+08         0.00000E+00
    0.00000E+00         0.00000E+00         0.11881E+08
 
    0.11975E+08         0.14038E+06         0.00000E+00
    0.14038E+06         0.27525E+08         0.00000E+00
    0.00000E+00         0.00000E+00         0.11850E+08
 
    0.11945E+08         0.14360E+06         0.00000E+00
    0.14360E+06         0.27450E+08         0.00000E+00
    0.00000E+00         0.00000E+00         0.11818E+08
 
    0.11914E+08         0.14682E+06         0.00000E+00
    0.14682E+06         0.27372E+08         0.00000E+00
    0.00000E+00         0.00000E+00         0.11786E+08
 
    0.11881E+08         0.15005E+06         0.00000E+00
    0.15005E+06         0.27292E+08         0.00000E+00
    0.00000E+00         0.00000E+00         0.11752E+08
 
    0.11847E+08         0.15328E+06         0.00000E+00
    0.15328E+06         0.27209E+08         0.00000E+00
    0.00000E+00         0.00000E+00         0.11717E+08
 
    0.11812E+08         0.15651E+06         0.00000E+00
    0.15651E+06         0.27125E+08         0.00000E+00
    0.00000E+00         0.00000E+00         0.11681E+08
 
    0.11776E+08         0.15972E+06         0.00000E+00
    0.15972E+06         0.27038E+08         0.00000E+00
    0.00000E+00         0.00000E+00         0.11644E+08
 
    0.11738E+08         0.16290E+06         0.00000E+00
    0.16290E+06         0.26948E+08         0.00000E+00
    0.00000E+00         0.00000E+00         0.11606E+08
 
    0.11699E+08         0.16606E+06         0.00000E+00
    0.16606E+06         0.26856E+08         0.00000E+00
    0.00000E+00         0.00000E+00         0.11567E+08
 
    0.11658E+08         0.16918E+06         0.00000E+00
    0.16918E+06         0.26762E+08         0.00000E+00
    0.00000E+00         0.00000E+00         0.11526E+08
 
    0.11616E+08         0.17224E+06         0.00000E+00
    0.17224E+06         0.26665E+08         0.00000E+00
    0.00000E+00         0.00000E+00         0.11484E+08
 
    0.11573E+08         0.17525E+06         0.00000E+00
    0.17525E+06         0.26565E+08         0.00000E+00
    0.00000E+00         0.00000E+00         0.11441E+08
 
    0.11527E+08         0.17818E+06         0.00000E+00
    0.17818E+06         0.26463E+08         0.00000E+00
    0.00000E+00         0.00000E+00         0.11397E+08
 
    0.11480E+08         0.18103E+06         0.00000E+00
    0.18103E+06         0.26358E+08         0.00000E+00
    0.00000E+00         0.00000E+00         0.11351E+08
 
    0.11431E+08         0.18378E+06         0.00000E+00
    0.18378E+06         0.26250E+08         0.00000E+00
    0.00000E+00         0.00000E+00         0.11304E+08
 
    0.11381E+08         0.18642E+06         0.00000E+00
    0.18642E+06         0.26139E+08         0.00000E+00
    0.00000E+00         0.00000E+00         0.11256E+08
 
    0.11328E+08         0.18892E+06         0.00000E+00
    0.18892E+06         0.26026E+08         0.00000E+00
    0.00000E+00         0.00000E+00         0.11206E+08
 
    0.11274E+08         0.19128E+06         0.00000E+00
    0.19128E+06         0.25910E+08         0.00000E+00
    0.00000E+00         0.00000E+00         0.11155E+08
 
    0.11217E+08         0.19347E+06         0.00000E+00
    0.19347E+06         0.25790E+08         0.00000E+00
    0.00000E+00         0.00000E+00         0.11102E+08
 
    0.11159E+08         0.19547E+06         0.00000E+00
    0.19547E+06         0.25668E+08         0.00000E+00
    0.00000E+00         0.00000E+00         0.11048E+08
 
    0.11098E+08         0.19726E+06         0.00000E+00
    0.19726E+06         0.25543E+08         0.00000E+00
    0.00000E+00         0.00000E+00         0.10992E+08
 
    0.11035E+08         0.19881E+06         0.00000E+00
    0.19881E+06         0.25415E+08         0.00000E+00
    0.00000E+00         0.00000E+00         0.10935E+08
 
    0.10969E+08         0.20010E+06         0.00000E+00
    0.20010E+06         0.25285E+08         0.00000E+00
    0.00000E+00         0.00000E+00         0.10876E+08
 
    0.10902E+08         0.20109E+06         0.00000E+00
    0.20109E+06         0.25151E+08         0.00000E+00
    0.00000E+00         0.00000E+00         0.10816E+08
 
    0.10831E+08         0.20176E+06         0.00000E+00
    0.20176E+06         0.25014E+08         0.00000E+00
    0.00000E+00         0.00000E+00         0.10753E+08
 
    0.10758E+08         0.20206E+06         0.00000E+00
    0.20206E+06         0.24874E+08         0.00000E+00
    0.00000E+00         0.00000E+00         0.10690E+08
 
    0.10682E+08         0.20195E+06         0.00000E+00
    0.20195E+06         0.24731E+08         0.00000E+00
    0.00000E+00         0.00000E+00         0.10624E+08
 
    0.10604E+08         0.20138E+06         0.00000E+00
    0.20138E+06         0.24585E+08         0.00000E+00
    0.00000E+00         0.00000E+00         0.10557E+08
 
    0.10522E+08         0.20030E+06         0.00000E+00
    0.20030E+06         0.24436E+08         0.00000E+00
    0.00000E+00         0.00000E+00         0.10487E+08
 
    0.10437E+08         0.19865E+06         0.00000E+00
    0.19865E+06         0.24284E+08         0.00000E+00
    0.00000E+00         0.00000E+00         0.10417E+08
 
    0.10349E+08         0.19635E+06         0.00000E+00
    0.19635E+06         0.24129E+08         0.00000E+00
    0.00000E+00         0.00000E+00         0.10344E+08
 
    0.10258E+08         0.19332E+06         0.00000E+00
    0.19332E+06         0.23972E+08         0.00000E+00
    0.00000E+00         0.00000E+00         0.10269E+08
 
    0.10163E+08         0.18947E+06         0.00000E+00
    0.18947E+06         0.23811E+08         0.00000E+00
    0.00000E+00         0.00000E+00         0.10192E+08
 
    0.10065E+08         0.18471E+06         0.00000E+00
    0.18471E+06         0.23647E+08         0.00000E+00
    0.00000E+00         0.00000E+00         0.10114E+08
 
    0.99622E+07         0.17891E+06         0.00000E+00
    0.17891E+06         0.23480E+08         0.00000E+00
    0.00000E+00         0.00000E+00         0.10033E+08
 
    0.98556E+07         0.17195E+06         0.00000E+00
    0.17195E+06         0.23311E+08         0.00000E+00
    0.00000E+00         0.00000E+00         0.99500E+07
 
    0.97448E+07         0.16369E+06         0.00000E+00
    0.16369E+06         0.23139E+08         0.00000E+00
    0.00000E+00         0.00000E+00         0.98651E+07
 
    0.96295E+07         0.15400E+06         0.00000E+00
    0.15400E+06         0.22964E+08         0.00000E+00
    0.00000E+00         0.00000E+00         0.97780E+07
 
    0.95095E+07         0.14274E+06         0.00000E+00
    0.14274E+06         0.22786E+08         0.00000E+00
    0.00000E+00         0.00000E+00         0.96887E+07
 
    0.93846E+07         0.12979E+06         0.00000E+00
    0.12979E+06         0.22606E+08         0.00000E+00
    0.00000E+00         0.00000E+00         0.95973E+07
 
    0.92547E+07         0.11504E+06         0.00000E+00
    0.11504E+06         0.22424E+08         0.00000E+00
    0.00000E+00         0.00000E+00         0.95035E+07
 
    0.91195E+07         0.98441E+05         0.00000E+00
    0.98441E+05         0.22239E+08         0.00000E+00
    0.00000E+00         0.00000E+00         0.94076E+07
 
    0.89788E+07         0.80029E+05         0.00000E+00
    0.80029E+05         0.22053E+08         0.00000E+00
    0.00000E+00         0.00000E+00         0.93095E+07
 
    0.88327E+07         0.59948E+05         0.00000E+00
    0.59948E+05         0.21865E+08         0.00000E+00
    0.00000E+00         0.00000E+00         0.92093E+07
 
    0.86809E+07         0.38516E+05         0.00000E+00
    0.38516E+05         0.21676E+08         0.00000E+00
    0.00000E+00         0.00000E+00         0.91071E+07
 
    0.85238E+07         0.16295E+05         0.00000E+00
    0.16295E+05         0.21487E+08         0.00000E+00
    0.00000E+00         0.00000E+00         0.90031E+07
 
    0.83614E+07        -0.58189E+04         0.00000E+00
   -0.58189E+04         0.21298E+08         0.00000E+00
    0.00000E+00         0.00000E+00         0.88977E+07
 
    0.81946E+07        -0.26470E+05         0.00000E+00
   -0.26470E+05         0.21110E+08         0.00000E+00
    0.00000E+00         0.00000E+00         0.87914E+07
 
    0.80241E+07        -0.43665E+05         0.00000E+00
   -0.43665E+05         0.20925E+08         0.00000E+00
    0.00000E+00         0.00000E+00         0.86847E+07
 
    0.78513E+07        -0.54528E+05         0.00000E+00
   -0.54528E+05         0.20745E+08         0.00000E+00
    0.00000E+00         0.00000E+00         0.85788E+07
 
    0.76769E+07        -0.55243E+05         0.00000E+00
   -0.55243E+05         0.20574E+08         0.00000E+00
    0.00000E+00         0.00000E+00         0.84752E+07
 
    0.75001E+07        -0.42280E+05         0.00000E+00
   -0.42280E+05         0.20421E+08         0.00000E+00
    0.00000E+00         0.00000E+00         0.83763E+07
 
    0.73170E+07        -0.16017E+05         0.00000E+00
   -0.16017E+05         0.20298E+08         0.00000E+00
    0.00000E+00         0.00000E+00         0.82845E+07
 
    0.12909E+08        -0.16269E+04         0.00000E+00
   -0.16269E+04         0.29513E+08         0.00000E+00
    0.00000E+00         0.00000E+00         0.12727E+08
 
    0.12884E+08        -0.39795E+04         0.00000E+00
   -0.39795E+04         0.29495E+08         0.00000E+00
    0.00000E+00         0.00000E+00         0.12714E+08
 
    0.12859E+08        -0.43020E+04         0.00000E+00
   -0.43020E+04         0.29473E+08         0.00000E+00
    0.00000E+00         0.00000E+00         0.12699E+08
 
    0.12835E+08        -0.26264E+04         0.00000E+00
   -0.26264E+04         0.29448E+08         0.00000E+00
    0.00000E+00         0.00000E+00         0.12685E+08
 
    0.12811E+08         0.46016E+03         0.00000E+00
    0.46016E+03         0.29421E+08         0.00000E+00
    0.00000E+00         0.00000E+00         0.12670E+08
 
    0.12788E+08         0.43930E+04         0.00000E+00
    0.43930E+04         0.29394E+08         0.00000E+00
    0.00000E+00         0.00000E+00         0.12655E+08
 
    0.12766E+08         0.87757E+04         0.00000E+00
    0.87757E+04         0.29366E+08         0.00000E+00
    0.00000E+00         0.00000E+00         0.12640E+08
 
    0.12744E+08         0.13344E+05         0.00000E+00
    0.13344E+05         0.29338E+08         0.00000E+00
    0.00000E+00         0.00000E+00         0.12625E+08
 
    0.12724E+08         0.17921E+05         0.00000E+00
    0.17921E+05         0.29309E+08         0.00000E+00
    0.00000E+00         0.00000E+00         0.12610E+08
 
    0.12704E+08         0.22396E+05         0.00000E+00
    0.22396E+05         0.29280E+08         0.00000E+00
    0.00000E+00         0.00000E+00         0.12595E+08
 
    0.12684E+08         0.26699E+05         0.00000E+00
    0.26699E+05         0.29251E+08         0.00000E+00
    0.00000E+00         0.00000E+00         0.12580E+08
 
    0.12666E+08         0.30795E+05         0.00000E+00
    0.30795E+05         0.29221E+08         0.00000E+00
    0.00000E+00         0.00000E+00         0.12566E+08
 
    0.12648E+08         0.34671E+05         0.00000E+00
    0.34671E+05         0.29190E+08         0.00000E+00
    0.00000E+00         0.00000E+00         0.12551E+08
 
    0.12631E+08         0.38330E+05         0.00000E+00
    0.38330E+05         0.29159E+08         0.00000E+00
    0.00000E+00         0.00000E+00         0.12537E+08
 
    0.12614E+08         0.41782E+05         0.00000E+00
    0.41782E+05         0.29128E+08         0.00000E+00
    0.00000E+00         0.00000E+00         0.12522E+08
 
    0.12597E+08         0.45048E+05         0.00000E+00
    0.45048E+05         0.29096E+08         0.00000E+00
    0.00000E+00         0.00000E+00         0.12508E+08
 
    0.12581E+08         0.48148E+05         0.00000E+00
    0.48148E+05         0.29063E+08         0.00000E+00
    0.00000E+00         0.00000E+00         0.12493E+08
 
    0.12566E+08         0.51105E+05         0.00000E+00
    0.51105E+05         0.29030E+08         0.00000E+00
    0.00000E+00         0.00000E+00         0.12479E+08
 
    0.12550E+08         0.53940E+05         0.00000E+00
    0.53940E+05         0.28997E+08         0.00000E+00
    0.00000E+00         0.00000E+00         0.12464E+08
 
    0.12535E+08         0.56675E+05         0.00000E+00
    0.56675E+05         0.28962E+08         0.00000E+00
    0.00000E+00         0.00000E+00         0.12449E+08
 
    0.12520E+08         0.59329E+05         0.00000E+00
    0.59329E+05         0.28927E+08         0.00000E+00
    0.00000E+00         0.00000E+00         0.12434E+08
 
    0.12504E+08         0.61919E+05         0.00000E+00
    0.61919E+05         0.28891E+08         0.00000E+00
    0.00000E+00         0.00000E+00         0.12419E+08
 
    0.12489E+08         0.64461E+05         0.00000E+00
    0.64461E+05         0.28855E+08         0.00000E+00
    0.00000E+00         0.00000E+00         0.12403E+08
 
    0.12474E+08         0.66967E+05         0.00000E+00
    0.66967E+05         0.28817E+08         0.00000E+00
    0.00000E+00         0.00000E+00         0.12387E+08
 
    0.12459E+08         0.69449E+05         0.00000E+00
    0.69449E+05         0.28778E+08         0.00000E+00
    0.00000E+00         0.00000E+00         0.12371E+08
 
    0.12443E+08         0.71918E+05         0.00000E+00
    0.71918E+05         0.28739E+08         0.00000E+00
    0.00000E+00         0.00000E+00         0.12355E+08
 
    0.12427E+08         0.74382E+05         0.00000E+00
    0.74382E+05         0.28698E+08         0.00000E+00
    0.00000E+00         0.00000E+00         0.12338E+08
 
    0.12411E+08         0.76848E+05         0.00000E+00
    0.76848E+05         0.28657E+08         0.00000E+00
    0.00000E+00         0.00000E+00         0.12320E+08
 
    0.12395E+08         0.79323E+05         0.00000E+00
    0.79323E+05         0.28614E+08         0.00000E+00
    0.00000E+00         0.00000E+00         0.12303E+08
 
    0.12378E+08         0.81812E+05         0.00000E+00
    0.81812E+05         0.28570E+08         0.00000E+00
    0.00000E+00         0.00000E+00         0.12285E+08
 
    0.12362E+08         0.84320E+05         0.00000E+00
    0.84320E+05         0.28525E+08         0.00000E+00
    0.00000E+00         0.00000E+00         0.12266E+08
 
    0.12344E+08         0.86849E+05         0.00000E+00
    0.86849E+05         0.28479E+08         0.00000E+00
    0.00000E+00         0.00000E+00         0.12247E+08
 
    0.12326E+08         0.89404E+05         0.00000E+00
    0.89404E+05         0.28431E+08         0.00000E+00
    0.00000E+00         0.00000E+00         0.12227E+08
 
    0.12308E+08         0.91987E+05         0.00000E+00
    0.91987E+05         0.28382E+08         0.00000E+00
    0.00000E+00         0.00000E+00         0.12207E+08
 
    0.12289E+08         0.94600E+05         0.00000E+00
    0.94600E+05         0.28332E+08         0.00000E+00
    0.00000E+00         0.00000E+00         0.12186E+08
 
    0.12270E+08         0.97244E+05         0.00000E+00
    0.97244E+05         0.28280E+08         0.00000E+00
    0.00000E+00         0.00000E+00         0.12165E+08
 
    0.12250E+08         0.99921E+05         0.00000E+00
    0.99921E+05         0.28226E+08         0.00000E+00
    0.00000E+00         0.00000E+00         0.12143E+08
 
    0.12229E+08         0.10263E+06         0.00000E+00
    0.10263E+06         0.28171E+08         0.00000E+00
    0.00000E+00         0.00000E+00         0.12120E+08
 
    0.12208E+08         0.10537E+06         0.00000E+00
    0.10537E+06         0.28115E+08         0.00000E+00
    0.00000E+00         0.00000E+00         0.12097E+08
 
    0.12186E+08         0.10815E+06         0.00000E+00
    0.10815E+06         0.28057E+08         0.00000E+00
    0.00000E+00         0.00000E+00         0.12073E+08
 
    0.12163E+08         0.11096E+06         0.00000E+00
    0.11096E+06         0.27997E+08         0.00000E+00
    0.00000E+00         0.00000E+00         0.12048E+08
 
    0.12140E+08         0.11380E+06         0.00000E+00
    0.11380E+06         0.27935E+08         0.00000E+00
    0.00000E+00         0.00000E+00         0.12022E+08
 
    0.12115E+08         0.11668E+06         0.00000E+00
    0.11668E+06         0.27871E+08         0.00000E+00
    0.00000E+00         0.00000E+00         0.11996E+08
 
    0.12090E+08         0.11958E+06         0.00000E+00
    0.11958E+06         0.27806E+08         0.00000E+00
    0.00000E+00         0.00000E+00         0.11969E+08
 
    0.12064E+08         0.12250E+06         0.00000E+00
    0.12250E+06         0.27739E+08         0.00000E+00
    0.00000E+00         0.00000E+00         0.11941E+08
 
    0.12037E+08         0.12546E+06         0.00000E+00
    0.12546E+06         0.27669E+08         0.00000E+00
    0.00000E+00         0.00000E+00         0.11912E+08
 
    0.12009E+08         0.12843E+06         0.00000E+00
    0.12843E+06         0.27598E+08         0.00000E+00
    0.00000E+00         0.00000E+00         0.11882E+08
 
    0.11979E+08         0.13142E+06         0.00000E+00
    0.13142E+06         0.27524E+08         0.00000E+00
    0.00000E+00         0.00000E+00         0.11851E+08
 
    0.11949E+08         0.13442E+06         0.00000E+00
    0.13442E+06         0.27449E+08         0.00000E+00
    0.00000E+00         0.00000E+00         0.11819E+08
 
    0.11918E+08         0.13744E+06         0.00000E+00
    0.13744E+06         0.27371E+08         0.00000E+00
    0.00000E+00         0.00000E+00         0.11787E+08
 
    0.11885E+08         0.14046E+06         0.00000E+00
    0.14046E+06         0.27291E+08         0.00000E+00
    0.00000E+00         0.00000E+00         0.11753E+08
 
    0.11852E+08         0.14347E+06         0.00000E+00
    0.14347E+06         0.27209E+08         0.00000E+00
    0.00000E+00         0.00000E+00         0.11718E+08
 
    0.11816E+08         0.14648E+06         0.00000E+00
    0.14648E+06         0.27124E+08         0.00000E+00
    0.00000E+00         0.00000E+00         0.11682E+08
 
    0.11780E+08         0.14948E+06         0.00000E+00
    0.14948E+06         0.27037E+08         0.00000E+00
    0.00000E+00         0.00000E+00         0.11645E+08
 
    0.11742E+08         0.15246E+06         0.00000E+00
    0.15246E+06         0.26948E+08         0.00000E+00
    0.00000E+00         0.00000E+00         0.11607E+08
 
    0.11703E+08         0.15540E+06         0.00000E+00
    0.15540E+06         0.26856E+08         0.00000E+00
    0.00000E+00         0.00000E+00         0.11568E+08
 
    0.11663E+08         0.15831E+06         0.00000E+00
    0.15831E+06         0.26761E+08         0.00000E+00
    0.00000E+00         0.00000E+00         0.11527E+08
 
    0.11621E+08         0.16117E+06         0.00000E+00
    0.16117E+06         0.26664E+08         0.00000E+00
    0.00000E+00         0.00000E+00         0.11485E+08
 
    0.11577E+08         0.16397E+06         0.00000E+00
    0.16397E+06         0.26565E+08         0.00000E+00
    0.00000E+00         0.00000E+00         0.11442E+08
 
    0.11532E+08         0.16671E+06         0.00000E+00
    0.16671E+06         0.26462E+08         0.00000E+00
    0.00000E+00         0.00000E+00         0.11398E+08
 
    0.11485E+08         0.16936E+06         0.00000E+00
    0.16936E+06         0.26357E+08         0.00000E+00
    0.00000E+00         0.00000E+00         0.11353E+08
 
    0.11436E+08         0.17192E+06         0.00000E+00
    0.17192E+06         0.26249E+08         0.00000E+00
    0.00000E+00         0.00000E+00         0.11306E+08
 
    0.11385E+08         0.17437E+06         0.00000E+00
    0.17437E+06         0.26139E+08         0.00000E+00
    0.00000E+00         0.00000E+00         0.11257E+08
 
    0.11333E+08         0.17670E+06         0.00000E+00
    0.17670E+06         0.26025E+08         0.00000E+00
    0.00000E+00         0.00000E+00         0.11207E+08
 
    0.11278E+08         0.17889E+06         0.00000E+00
    0.17889E+06         0.25909E+08         0.00000E+00
    0.00000E+00         0.00000E+00         0.11156E+08
 
    0.11221E+08         0.18092E+06         0.00000E+00
    0.18092E+06         0.25790E+08         0.00000E+00
    0.00000E+00         0.00000E+00         0.11103E+08
 
    0.11163E+08         0.18277E+06         0.00000E+00
    0.18277E+06         0.25668E+08         0.00000E+00
    0.00000E+00         0.00000E+00         0.11049E+08
 
    0.11102E+08         0.18443E+06         0.00000E+00
    0.18443E+06         0.25543E+08         0.00000E+00
    0.00000E+00         0.00000E+00         0.10994E+08
 
    0.11039E+08         0.18586E+06         0.00000E+00
    0.18586E+06         0.25415E+08         0.00000E+00
    0.00000E+00         0.00000E+00         0.10936E+08
 
    0.10973E+08         0.18705E+06         0.00000E+00
    0.18705E+06         0.25284E+08         0.00000E+00
    0.00000E+00         0.00000E+00         0.10877E+08
 
    0.10905E+08         0.18795E+06         0.00000E+00
    0.18795E+06         0.25150E+08         0.00000E+00
    0.00000E+00         0.00000E+00         0.10817E+08
 
    0.10835E+08         0.18855E+06         0.00000E+00
    0.18855E+06         0.25014E+08         0.00000E+00
    0.00000E+00         0.00000E+00         0.10754E+08
 
    0.10761E+08         0.18880E+06         0.00000E+00
    0.18880E+06         0.24874E+08         0.00000E+00
    0.00000E+00         0.00000E+00         0.10691E+08
 
    0.10685E+08         0.18867E+06         0.00000E+00
    0.18867E+06         0.24731E+08         0.00000E+00
    0.00000E+00         0.00000E+00         0.10625E+08
 
    0.10607E+08         0.18811E+06         0.00000E+00
    0.18811E+06         0.24585E+08         0.00000E+00
    0.00000E+00         0.00000E+00         0.10558E+08
 
    0.10525E+08         0.18706E+06         0.00000E+00
    0.18706E+06         0.24436E+08         0.00000E+00
    0.00000E+00         0.00000E+00         0.10488E+08
 
    0.10440E+08         0.18547E+06         0.00000E+00
    0.18547E+06         0.24285E+08         0.00000E+00
    0.00000E+00         0.00000E+00         0.10417E+08
 
    0.10351E+08         0.18327E+06         0.00000E+00
    0.18327E+06         0.24130E+08         0.00000E+00
    0.00000E+00         0.00000E+00         0.10344E+08
 
    0.10260E+08         0.18038E+06         0.00000E+00
    0.18038E+06         0.23972E+08         0.00000E+00
    0.00000E+00         0.00000E+00         0.10270E+08
 
    0.10164E+08         0.17672E+06         0.00000E+00
    0.17672E+06         0.23812E+08         0.00000E+00
    0.00000E+00         0.00000E+00         0.10193E+08
 
    0.10065E+08         0.17218E+06         0.00000E+00
    0.17218E+06         0.23648E+08         0.00000E+00
    0.00000E+00         0.00000E+00         0.10114E+08
 
    0.99621E+07         0.16666E+06         0.00000E+00
    0.16666E+06         0.23482E+08         0.00000E+00
    0.00000E+00         0.00000E+00         0.10033E+08
 
    0.98549E+07         0.16003E+06         0.00000E+00
    0.16003E+06         0.23312E+08         0.00000E+00
    0.00000E+00         0.00000E+00         0.99502E+07
 
    0.97433E+07         0.15216E+06         0.00000E+00
    0.15216E+06         0.23141E+08         0.00000E+00
    0.00000E+00         0.00000E+00         0.98652E+07
 
    0.96272E+07         0.14292E+06         0.00000E+00
    0.14292E+06         0.22966E+08         0.00000E+00
    0.00000E+00         0.00000E+00         0.97779E+07
 
    0.95062E+07         0.13217E+06         0.00000E+00
    0.13217E+06         0.22789E+08         0.00000E+00
    0.00000E+00         0.00000E+00         0.96884E+07
 
    0.93801E+07         0.11979E+06         0.00000E+00
    0.11979E+06         0.22609E+08         0.00000E+00
    0.00000E+00         0.00000E+00         0.95967E+07
 
    0.92488E+07         0.10568E+06         0.00000E+00
    0.10568E+06         0.22427E+08         0.00000E+00
    0.00000E+00         0.00000E+00         0.95027E+07
 
    0.91120E+07         0.89782E+05         0.00000E+00
    0.89782E+05         0.22243E+08         0.00000E+00
    0.00000E+00         0.00000E+00         0.94064E+07
 
    0.89695E+07         0.72126E+05         0.00000E+00
    0.72126E+05         0.22057E+08         0.00000E+00
    0.00000E+00         0.00000E+00         0.93078E+07
 
    0.88212E+07         0.52845E+05         0.00000E+00
    0.52845E+05         0.21869E+08         0.00000E+00
    0.00000E+00         0.00000E+00         0.92071E+07
 
    0.86671E+07         0.32238E+05         0.00000E+00
    0.32238E+05         0.21680E+08         0.00000E+00
    0.00000E+00         0.00000E+00         0.91042E+07
 
    0.85072E+07         0.10833E+05         0.00000E+00
    0.10833E+05         0.21491E+08         0.00000E+00
    0.00000E+00         0.00000E+00         0.89995E+07
 
    0.83419E+07        -0.10524E+05         0.00000E+00
   -0.10524E+05         0.21302E+08         0.00000E+00
    0.00000E+00         0.00000E+00         0.88932E+07
 
    0.81719E+07        -0.30545E+05         0.00000E+00
   -0.30545E+05         0.21114E+08         0.00000E+00
    0.00000E+00         0.00000E+00         0.87857E+07
 
    0.79981E+07        -0.47321E+05         0.00000E+00
   -0.47321E+05         0.20928E+08         0.00000E+00
    0.00000E+00         0.00000E+00         0.86778E+07
 
    0.78222E+07        -0.58027E+05         0.00000E+00
   -0.58027E+05         0.20746E+08         0.00000E+00
    0.00000E+00         0.00000E+00         0.85705E+07
 
    0.76454E+07        -0.58668E+05         0.00000E+00
   -0.58668E+05         0.20573E+08         0.00000E+00
    0.00000E+00         0.00000E+00         0.84655E+07
 
    0.74672E+07        -0.45117E+05         0.00000E+00
   -0.45117E+05         0.20417E+08         0.00000E+00
    0.00000E+00         0.00000E+00         0.83652E+07
 
    0.72838E+07        -0.17174E+05         0.00000E+00
   -0.17174E+05         0.20292E+08         0.00000E+00
    0.00000E+00         0.00000E+00         0.82726E+07
 
    0.12915E+08        -0.18354E+04         0.00000E+00
   -0.18354E+04         0.29513E+08         0.00000E+00
    0.00000E+00         0.00000E+00         0.12729E+08
 
    0.12889E+08        -0.44994E+04         0.00000E+00
   -0.44994E+04         0.29495E+08         0.00000E+00
    0.00000E+00         0.00000E+00         0.12715E+08
 
    0.12865E+08        -0.49632E+04         0.00000E+00
   -0.49632E+04         0.29472E+08         0.00000E+00
    0.00000E+00         0.00000E+00         0.12701E+08
 
    0.12840E+08        -0.33655E+04         0.00000E+00
   -0.33655E+04         0.29447E+08         0.00000E+00
    0.00000E+00         0.00000E+00         0.12686E+08
 
    0.12816E+08        -0.38664E+03         0.00000E+00
   -0.38664E+03         0.29421E+08         0.00000E+00
    0.00000E+00         0.00000E+00         0.12671E+08
 
    0.12793E+08         0.33898E+04         0.00000E+00
    0.33898E+04         0.29393E+08         0.00000E+00
    0.00000E+00         0.00000E+00         0.12656E+08
 
    0.12770E+08         0.75799E+04         0.00000E+00
    0.75799E+04         0.29366E+08         0.00000E+00
    0.00000E+00         0.00000E+00         0.12641E+08
 
    0.12748E+08         0.11934E+05         0.00000E+00
    0.11934E+05         0.29337E+08         0.00000E+00
    0.00000E+00         0.00000E+00         0.12626E+08
 
    0.12727E+08         0.16286E+05         0.00000E+00
    0.16286E+05         0.29308E+08         0.00000E+00
    0.00000E+00         0.00000E+00         0.12611E+08
 
    0.12707E+08         0.20533E+05         0.00000E+00
    0.20533E+05         0.29279E+08         0.00000E+00
    0.00000E+00         0.00000E+00         0.12596E+08
 
    0.12687E+08         0.24609E+05         0.00000E+00
    0.24609E+05         0.29250E+08         0.00000E+00
    0.00000E+00         0.00000E+00         0.12581E+08
 
    0.12668E+08         0.28483E+05         0.00000E+00
    0.28483E+05         0.29220E+08         0.00000E+00
    0.00000E+00         0.00000E+00         0.12566E+08
 
    0.12650E+08         0.32143E+05         0.00000E+00
    0.32143E+05         0.29189E+08         0.00000E+00
    0.00000E+00         0.00000E+00         0.12552E+08
 
    0.12633E+08         0.35592E+05         0.00000E+00
    0.35592E+05         0.29158E+08         0.00000E+00
    0.00000E+00         0.00000E+00         0.12537E+08
 
    0.12616E+08         0.38842E+05         0.00000E+00
    0.38842E+05         0.29127E+08         0.00000E+00
    0.00000E+00         0.00000E+00         0.12523E+08
 
    0.12600E+08         0.41911E+05         0.00000E+00
    0.41911E+05         0.29095E+08         0.00000E+00
    0.00000E+00         0.00000E+00         0.12508E+08
 
    0.12584E+08         0.44820E+05         0.00000E+00
    0.44820E+05         0.29063E+08         0.00000E+00
    0.00000E+00         0.00000E+00         0.12494E+08
 
    0.12568E+08         0.47592E+05         0.00000E+00
    0.47592E+05         0.29030E+08         0.00000E+00
    0.00000E+00         0.00000E+00         0.12479E+08
 
    0.12552E+08         0.50247E+05         0.00000E+00
    0.50247E+05         0.28996E+08         0.00000E+00
    0.00000E+00         0.00000E+00         0.12465E+08
 
    0.12537E+08         0.52806E+05         0.00000E+00
    0.52806E+05         0.28962E+08         0.00000E+00
    0.00000E+00         0.00000E+00         0.12450E+08
 
    0.12522E+08         0.55287E+05         0.00000E+00
    0.55287E+05         0.28927E+08         0.00000E+00
    0.00000E+00         0.00000E+00         0.12435E+08
 
    0.12507E+08         0.57706E+05         0.00000E+00
    0.57706E+05         0.28891E+08         0.00000E+00
    0.00000E+00         0.00000E+00         0.12419E+08
 
    0.12491E+08         0.60079E+05         0.00000E+00
    0.60079E+05         0.28854E+08         0.00000E+00
    0.00000E+00         0.00000E+00         0.12404E+08
 
    0.12476E+08         0.62418E+05         0.00000E+00
    0.62418E+05         0.28816E+08         0.00000E+00
    0.00000E+00         0.00000E+00         0.12388E+08
 
    0.12461E+08         0.64734E+05         0.00000E+00
    0.64734E+05         0.28778E+08         0.00000E+00
    0.00000E+00         0.00000E+00         0.12372E+08
 
    0.12445E+08         0.67036E+05         0.00000E+00
    0.67036E+05         0.28738E+08         0.00000E+00
    0.00000E+00         0.00000E+00         0.12355E+08
 
    0.12430E+08         0.69334E+05         0.00000E+00
    0.69334E+05         0.28698E+08         0.00000E+00
    0.00000E+00         0.00000E+00         0.12338E+08
 
    0.12414E+08         0.71633E+05         0.00000E+00
    0.71633E+05         0.28656E+08         0.00000E+00
    0.00000E+00         0.00000E+00         0.12321E+08
 
    0.12398E+08         0.73940E+05         0.00000E+00
    0.73940E+05         0.28614E+08         0.00000E+00
    0.00000E+00         0.00000E+00         0.12303E+08
 
    0.12381E+08         0.76260E+05         0.00000E+00
    0.76260E+05         0.28570E+08         0.00000E+00
    0.00000E+00         0.00000E+00         0.12285E+08
 
    0.12364E+08         0.78596E+05         0.00000E+00
    0.78596E+05         0.28525E+08         0.00000E+00
    0.00000E+00         0.00000E+00         0.12267E+08
 
    0.12347E+08         0.80954E+05         0.00000E+00
    0.80954E+05         0.28478E+08         0.00000E+00
    0.00000E+00         0.00000E+00         0.12248E+08
 
    0.12329E+08         0.83334E+05         0.00000E+00
    0.83334E+05         0.28431E+08         0.00000E+00
    0.00000E+00         0.00000E+00         0.12228E+08
 
    0.12311E+08         0.85740E+05         0.00000E+00
    0.85740E+05         0.28382E+08         0.00000E+00
    0.00000E+00         0.00000E+00         0.12208E+08
 
    0.12292E+08         0.88174E+05         0.00000E+00
    0.88174E+05         0.28331E+08         0.00000E+00
    0.00000E+00         0.00000E+00         0.12187E+08
 
    0.12273E+08         0.90637E+05         0.00000E+00
    0.90637E+05         0.28279E+08         0.00000E+00
    0.00000E+00         0.00000E+00         0.12166E+08
 
    0.12253E+08         0.93130E+05         0.00000E+00
    0.93130E+05         0.28226E+08         0.00000E+00
    0.00000E+00         0.00000E+00         0.12144E+08
 
    0.12232E+08         0.95654E+05         0.00000E+00
    0.95654E+05         0.28171E+08         0.00000E+00
    0.00000E+00         0.00000E+00         0.12121E+08
 
    0.12211E+08         0.98209E+05         0.00000E+00
    0.98209E+05         0.28114E+08         0.00000E+00
    0.00000E+00         0.00000E+00         0.12098E+08
 
    0.12189E+08         0.10079E+06         0.00000E+00
    0.10079E+06         0.28056E+08         0.00000E+00
    0.00000E+00         0.00000E+00         0.12074E+08
 
    0.12167E+08         0.10341E+06         0.00000E+00
    0.10341E+06         0.27996E+08         0.00000E+00
    0.00000E+00         0.00000E+00         0.12049E+08
 
    0.12143E+08         0.10606E+06         0.00000E+00
    0.10606E+06         0.27934E+08         0.00000E+00
    0.00000E+00         0.00000E+00         0.12023E+08
 
    0.12119E+08         0.10873E+06         0.00000E+00
    0.10873E+06         0.27871E+08         0.00000E+00
    0.00000E+00         0.00000E+00         0.11997E+08
 
    0.12094E+08         0.11143E+06         0.00000E+00
    0.11143E+06         0.27805E+08         0.00000E+00
    0.00000E+00         0.00000E+00         0.11970E+08
 
    0.12067E+08         0.11415E+06         0.00000E+00
    0.11415E+06         0.27738E+08         0.00000E+00
    0.00000E+00         0.00000E+00         0.11942E+08
 
    0.12040E+08         0.11690E+06         0.00000E+00
    0.11690E+06         0.27669E+08         0.00000E+00
    0.00000E+00         0.00000E+00         0.11913E+08
 
    0.12012E+08         0.11967E+06         0.00000E+00
    0.11967E+06         0.27597E+08         0.00000E+00
    0.00000E+00         0.00000E+00         0.11883E+08
 
    0.11983E+08         0.12245E+06         0.00000E+00
    0.12245E+06         0.27524E+08         0.00000E+00
    0.00000E+00         0.00000E+00         0.11852E+08
 
    0.11953E+08         0.12524E+06         0.00000E+00
    0.12524E+06         0.27448E+08         0.00000E+00
    0.00000E+00         0.00000E+00         0.11820E+08
 
    0.11922E+08         0.12804E+06         0.00000E+00
    0.12804E+06         0.27371E+08         0.00000E+00
    0.00000E+00         0.00000E+00         0.11788E+08
 
    0.11889E+08         0.13085E+06         0.00000E+00
    0.13085E+06         0.27291E+08         0.00000E+00
    0.00000E+00         0.00000E+00         0.11754E+08
 
    0.11856E+08         0.13366E+06         0.00000E+00
    0.13366E+06         0.27208E+08         0.00000E+00
    0.00000E+00         0.00000E+00         0.11719E+08
 
    0.11821E+08         0.13645E+06         0.00000E+00
    0.13645E+06         0.27124E+08         0.00000E+00
    0.00000E+00         0.00000E+00         0.11683E+08
 
    0.11784E+08         0.13924E+06         0.00000E+00
    0.13924E+06         0.27037E+08         0.00000E+00
    0.00000E+00         0.00000E+00         0.11646E+08
 
    0.11747E+08         0.14200E+06         0.00000E+00
    0.14200E+06         0.26947E+08         0.00000E+00
    0.00000E+00         0.00000E+00         0.11608E+08
 
    0.11708E+08         0.14474E+06         0.00000E+00
    0.14474E+06         0.26855E+08         0.00000E+00
    0.00000E+00         0.00000E+00         0.11569E+08
 
    0.11667E+08         0.14744E+06         0.00000E+00
    0.14744E+06         0.26761E+08         0.00000E+00
    0.00000E+00         0.00000E+00         0.11528E+08
 
    0.11625E+08         0.15009E+06         0.00000E+00
    0.15009E+06         0.26664E+08         0.00000E+00
    0.00000E+00         0.00000E+00         0.11487E+08
 
    0.11581E+08         0.15269E+06         0.00000E+00
    0.15269E+06         0.26564E+08         0.00000E+00
    0.00000E+00         0.00000E+00         0.11444E+08
 
    0.11536E+08         0.15523E+06         0.00000E+00
    0.15523E+06         0.26462E+08         0.00000E+00
    0.00000E+00         0.00000E+00         0.11399E+08
 
    0.11489E+08         0.15769E+06         0.00000E+00
    0.15769E+06         0.26357E+08         0.00000E+00
    0.00000E+00         0.00000E+00         0.11354E+08
 
    0.11440E+08         0.16006E+06         0.00000E+00
    0.16006E+06         0.26249E+08         0.00000E+00
    0.00000E+00         0.00000E+00         0.11307E+08
 
    0.11389E+08         0.16233E+06         0.00000E+00
    0.16233E+06         0.26138E+08         0.00000E+00
    0.00000E+00         0.00000E+00         0.11258E+08
 
    0.11337E+08         0.16449E+06         0.00000E+00
    0.16449E+06         0.26025E+08         0.00000E+00
    0.00000E+00         0.00000E+00         0.11209E+08
 
    0.11282E+08         0.16651E+06         0.00000E+00
    0.16651E+06         0.25909E+08         0.00000E+00
    0.00000E+00         0.00000E+00         0.11157E+08
 
    0.11226E+08         0.16839E+06         0.00000E+00
    0.16839E+06         0.25790E+08         0.00000E+00
    0.00000E+00         0.00000E+00         0.11105E+08
 
    0.11167E+08         0.17010E+06         0.00000E+00
    0.17010E+06         0.25668E+08         0.00000E+00
    0.00000E+00         0.00000E+00         0.11050E+08
 
    0.11106E+08         0.17162E+06         0.00000E+00
    0.17162E+06         0.25543E+08         0.00000E+00
    0.00000E+00         0.00000E+00         0.10995E+08
 
    0.11043E+08         0.17294E+06         0.00000E+00
    0.17294E+06         0.25415E+08         0.00000E+00
    0.00000E+00         0.00000E+00         0.10937E+08
 
    0.10977E+08         0.17402E+06         0.00000E+00
    0.17402E+06         0.25284E+08         0.00000E+00
    0.00000E+00         0.00000E+00         0.10878E+08
 
    0.10909E+08         0.17484E+06         0.00000E+00
    0.17484E+06         0.25150E+08         0.00000E+00
    0.00000E+00         0.00000E+00         0.10818E+08
 
    0.10838E+08         0.17538E+06         0.00000E+00
    0.17538E+06         0.25014E+08         0.00000E+00
    0.00000E+00         0.00000E+00         0.10756E+08
 
    0.10765E+08         0.17559E+06         0.00000E+00
    0.17559E+06         0.24874E+08         0.00000E+00
    0.00000E+00         0.00000E+00         0.10692E+08
 
    0.10689E+08         0.17544E+06         0.00000E+00
    0.17544E+06         0.24731E+08         0.00000E+00
    0.00000E+00         0.00000E+00         0.10626E+08
 
    0.10609E+08         0.17489E+06         0.00000E+00
    0.17489E+06         0.24585E+08         0.00000E+00
    0.00000E+00         0.00000E+00         0.10558E+08
 
    0.10527E+08         0.17388E+06         0.00000E+00
    0.17388E+06         0.24437E+08         0.00000E+00
    0.00000E+00         0.00000E+00         0.10489E+08
 
    0.10442E+08         0.17236E+06         0.00000E+00
    0.17236E+06         0.24285E+08         0.00000E+00
    0.00000E+00         0.00000E+00         0.10418E+08
 
    0.10353E+08         0.17027E+06         0.00000E+00
    0.17027E+06         0.24130E+08         0.00000E+00
    0.00000E+00         0.00000E+00         0.10345E+08
 
    0.10261E+08         0.16753E+06         0.00000E+00
    0.16753E+06         0.23973E+08         0.00000E+00
    0.00000E+00         0.00000E+00         0.10270E+08
 
    0.10166E+08         0.16406E+06         0.00000E+00
    0.16406E+06         0.23812E+08         0.00000E+00
    0.00000E+00         0.00000E+00         0.10193E+08
 
    0.10066E+08         0.15976E+06         0.00000E+00
    0.15976E+06         0.23649E+08         0.00000E+00
    0.00000E+00         0.00000E+00         0.10114E+08
 
    0.99623E+07         0.15453E+06         0.00000E+00
    0.15453E+06         0.23483E+08         0.00000E+00
    0.00000E+00         0.00000E+00         0.10034E+08
 
    0.98545E+07         0.14825E+06         0.00000E+00
    0.14825E+06         0.23314E+08         0.00000E+00
    0.00000E+00         0.00000E+00         0.99505E+07
 
    0.97422E+07         0.14079E+06         0.00000E+00
    0.14079E+06         0.23142E+08         0.00000E+00
    0.00000E+00         0.00000E+00         0.98653E+07
 
    0.96251E+07         0.13202E+06         0.00000E+00
    0.13202E+06         0.22968E+08         0.00000E+00
    0.00000E+00         0.00000E+00         0.97779E+07
 
    0.95031E+07         0.12181E+06         0.00000E+00
    0.12181E+06         0.22791E+08         0.00000E+00
    0.00000E+00         0.00000E+00         0.96882E+07
 
    0.93759E+07         0.11004E+06         0.00000E+00
    0.11004E+06         0.22612E+08         0.00000E+00
    0.00000E+00         0.00000E+00         0.95962E+07
 
    0.92433E+07         0.96612E+05         0.00000E+00
    0.96612E+05         0.22430E+08         0.00000E+00
    0.00000E+00         0.00000E+00         0.95019E+07
 
    0.91049E+07         0.81465E+05         0.00000E+00
    0.81465E+05         0.22246E+08         0.00000E+00
    0.00000E+00         0.00000E+00         0.94052E+07
 
    0.89605E+07         0.64619E+05         0.00000E+00
    0.64619E+05         0.22060E+08         0.00000E+00
    0.00000E+00         0.00000E+00         0.93062E+07
 
    0.88101E+07         0.46196E+05         0.00000E+00
    0.46196E+05         0.21873E+08         0.00000E+00
    0.00000E+00         0.00000E+00         0.92049E+07
 
    0.86536E+07         0.26473E+05         0.00000E+00
    0.26473E+05         0.21685E+08         0.00000E+00
    0.00000E+00         0.00000E+00         0.91014E+07
 
    0.84910E+07         0.59429E+04         0.00000E+00
    0.59429E+04         0.21495E+08         0.00000E+00
    0.00000E+00         0.00000E+00         0.89959E+07
 
    0.83226E+07        -0.14602E+05         0.00000E+00
   -0.14602E+05         0.21306E+08         0.00000E+00
    0.00000E+00         0.00000E+00         0.88886E+07
 
    0.81493E+07        -0.33953E+05         0.00000E+00
   -0.33953E+05         0.21117E+08         0.00000E+00
    0.00000E+00         0.00000E+00         0.87800E+07
 
    0.79721E+07        -0.50307E+05         0.00000E+00
   -0.50307E+05         0.20931E+08         0.00000E+00
    0.00000E+00         0.00000E+00         0.86708E+07
 
    0.77928E+07        -0.60925E+05         0.00000E+00
   -0.60925E+05         0.20747E+08         0.00000E+00
    0.00000E+00         0.00000E+00         0.85620E+07
 
    0.76133E+07        -0.61680E+05         0.00000E+00
   -0.61680E+05         0.20572E+08         0.00000E+00
    0.00000E+00         0.00000E+00         0.84555E+07
 
    0.74335E+07        -0.47793E+05         0.00000E+00
   -0.47793E+05         0.20412E+08         0.00000E+00
    0.00000E+00         0.00000E+00         0.83538E+07
 
    0.72496E+07        -0.18313E+05         0.00000E+00
   -0.18313E+05         0.20285E+08         0.00000E+00
    0.00000E+00         0.00000E+00         0.82603E+07
 
    0.12921E+08        -0.20424E+04         0.00000E+00
   -0.20424E+04         0.29514E+08         0.00000E+00
    0.00000E+00         0.00000E+00         0.12731E+08
 
    0.12895E+08        -0.49955E+04         0.00000E+00
   -0.49955E+04         0.29496E+08         0.00000E+00
    0.00000E+00         0.00000E+00         0.12717E+08
 
    0.12870E+08        -0.55619E+04         0.00000E+00
   -0.55619E+04         0.29472E+08         0.00000E+00
    0.00000E+00         0.00000E+00         0.12703E+08
 
    0.12845E+08        -0.40175E+04         0.00000E+00
   -0.40175E+04         0.29447E+08         0.00000E+00
    0.00000E+00         0.00000E+00         0.12688E+08
 
    0.12821E+08        -0.11410E+04         0.00000E+00
   -0.11410E+04         0.29420E+08         0.00000E+00
    0.00000E+00         0.00000E+00         0.12672E+08
 
    0.12797E+08         0.24743E+04         0.00000E+00
    0.24743E+04         0.29393E+08         0.00000E+00
    0.00000E+00         0.00000E+00         0.12657E+08
 
    0.12774E+08         0.64633E+04         0.00000E+00
    0.64633E+04         0.29365E+08         0.00000E+00
    0.00000E+00         0.00000E+00         0.12642E+08
 
    0.12751E+08         0.10593E+05         0.00000E+00
    0.10593E+05         0.29336E+08         0.00000E+00
    0.00000E+00         0.00000E+00         0.12626E+08
 
    0.12730E+08         0.14710E+05         0.00000E+00
    0.14710E+05         0.29308E+08         0.00000E+00
    0.00000E+00         0.00000E+00         0.12611E+08
 
    0.12709E+08         0.18719E+05         0.00000E+00
    0.18719E+05         0.29278E+08         0.00000E+00
    0.00000E+00         0.00000E+00         0.12596E+08
 
    0.12690E+08         0.22560E+05         0.00000E+00
    0.22560E+05         0.29249E+08         0.00000E+00
    0.00000E+00         0.00000E+00         0.12582E+08
 
    0.12671E+08         0.26203E+05         0.00000E+00
    0.26203E+05         0.29219E+08         0.00000E+00
    0.00000E+00         0.00000E+00         0.12567E+08
 
    0.12653E+08         0.29640E+05         0.00000E+00
    0.29640E+05         0.29189E+08         0.00000E+00
    0.00000E+00         0.00000E+00         0.12552E+08
 
    0.12635E+08         0.32872E+05         0.00000E+00
    0.32872E+05         0.29158E+08         0.00000E+00
    0.00000E+00         0.00000E+00         0.12538E+08
 
    0.12618E+08         0.35914E+05         0.00000E+00
    0.35914E+05         0.29127E+08         0.00000E+00
    0.00000E+00         0.00000E+00         0.12523E+08
 
    0.12602E+08         0.38782E+05         0.00000E+00
    0.38782E+05         0.29095E+08         0.00000E+00
    0.00000E+00         0.00000E+00         0.12509E+08
 
    0.12586E+08         0.41498E+05         0.00000E+00
    0.41498E+05         0.29062E+08         0.00000E+00
    0.00000E+00         0.00000E+00         0.12494E+08
 
    0.12570E+08         0.44081E+05         0.00000E+00
    0.44081E+05         0.29029E+08         0.00000E+00
    0.00000E+00         0.00000E+00         0.12480E+08
 
    0.12554E+08         0.46553E+05         0.00000E+00
    0.46553E+05         0.28996E+08         0.00000E+00
    0.00000E+00         0.00000E+00         0.12465E+08
 
    0.12539E+08         0.48934E+05         0.00000E+00
    0.48934E+05         0.28961E+08         0.00000E+00
    0.00000E+00         0.00000E+00         0.12450E+08
 
    0.12524E+08         0.51239E+05         0.00000E+00
    0.51239E+05         0.28926E+08         0.00000E+00
    0.00000E+00         0.00000E+00         0.12435E+08
 
    0.12509E+08         0.53487E+05         0.00000E+00
    0.53487E+05         0.28890E+08         0.00000E+00
    0.00000E+00         0.00000E+00         0.12420E+08
 
    0.12494E+08         0.55690E+05         0.00000E+00
    0.55690E+05         0.28854E+08         0.00000E+00
    0.00000E+00         0.00000E+00         0.12404E+08
 
    0.12478E+08         0.57860E+05         0.00000E+00
    0.57860E+05         0.28816E+08         0.00000E+00
    0.00000E+00         0.00000E+00         0.12388E+08
 
    0.12463E+08         0.60009E+05         0.00000E+00
    0.60009E+05         0.28777E+08         0.00000E+00
    0.00000E+00         0.00000E+00         0.12372E+08
 
    0.12448E+08         0.62144E+05         0.00000E+00
    0.62144E+05         0.28738E+08         0.00000E+00
    0.00000E+00         0.00000E+00         0.12356E+08
 
    0.12432E+08         0.64275E+05         0.00000E+00
    0.64275E+05         0.28697E+08         0.00000E+00
    0.00000E+00         0.00000E+00         0.12339E+08
 
    0.12416E+08         0.66406E+05         0.00000E+00
    0.66406E+05         0.28656E+08         0.00000E+00
    0.00000E+00         0.00000E+00         0.12322E+08
 
    0.12400E+08         0.68545E+05         0.00000E+00
    0.68545E+05         0.28613E+08         0.00000E+00
    0.00000E+00         0.00000E+00         0.12304E+08
 
    0.12384E+08         0.70695E+05         0.00000E+00
    0.70695E+05         0.28569E+08         0.00000E+00
    0.00000E+00         0.00000E+00         0.12286E+08
 
    0.12367E+08         0.72860E+05         0.00000E+00
    0.72860E+05         0.28524E+08         0.00000E+00
    0.00000E+00         0.00000E+00         0.12267E+08
 
    0.12350E+08         0.75045E+05         0.00000E+00
    0.75045E+05         0.28478E+08         0.00000E+00
    0.00000E+00         0.00000E+00         0.12248E+08
 
    0.12332E+08         0.77250E+05         0.00000E+00
    0.77250E+05         0.28430E+08         0.00000E+00
    0.00000E+00         0.00000E+00         0.12229E+08
 
    0.12314E+08         0.79480E+05         0.00000E+00
    0.79480E+05         0.28381E+08         0.00000E+00
    0.00000E+00         0.00000E+00         0.12208E+08
 
    0.12295E+08         0.81734E+05         0.00000E+00
    0.81734E+05         0.28331E+08         0.00000E+00
    0.00000E+00         0.00000E+00         0.12188E+08
 
    0.12276E+08         0.84016E+05         0.00000E+00
    0.84016E+05         0.28279E+08         0.00000E+00
    0.00000E+00         0.00000E+00         0.12166E+08
 
    0.12256E+08         0.86325E+05         0.00000E+00
    0.86325E+05         0.28225E+08         0.00000E+00
    0.00000E+00         0.00000E+00         0.12144E+08
 
    0.12236E+08         0.88662E+05         0.00000E+00
    0.88662E+05         0.28170E+08         0.00000E+00
    0.00000E+00         0.00000E+00         0.12122E+08
 
    0.12214E+08         0.91028E+05         0.00000E+00
    0.91028E+05         0.28114E+08         0.00000E+00
    0.00000E+00         0.00000E+00         0.12098E+08
 
    0.12193E+08         0.93422E+05         0.00000E+00
    0.93422E+05         0.28056E+08         0.00000E+00
    0.00000E+00         0.00000E+00         0.12074E+08
 
    0.12170E+08         0.95844E+05         0.00000E+00
    0.95844E+05         0.27996E+08         0.00000E+00
    0.00000E+00         0.00000E+00         0.12050E+08
 
    0.12146E+08         0.98293E+05         0.00000E+00
    0.98293E+05         0.27934E+08         0.00000E+00
    0.00000E+00         0.00000E+00         0.12024E+08
 
    0.12122E+08         0.10077E+06         0.00000E+00
    0.10077E+06         0.27870E+08         0.00000E+00
    0.00000E+00         0.00000E+00         0.11998E+08
 
    0.12097E+08         0.10327E+06         0.00000E+00
    0.10327E+06         0.27805E+08         0.00000E+00
    0.00000E+00         0.00000E+00         0.11971E+08
 
    0.12071E+08         0.10579E+06         0.00000E+00
    0.10579E+06         0.27737E+08         0.00000E+00
    0.00000E+00         0.00000E+00         0.11943E+08
 
    0.12044E+08         0.10833E+06         0.00000E+00
    0.10833E+06         0.27668E+08         0.00000E+00
    0.00000E+00         0.00000E+00         0.11914E+08
 
    0.12016E+08         0.11089E+06         0.00000E+00
    0.11089E+06         0.27597E+08         0.00000E+00
    0.00000E+00         0.00000E+00         0.11884E+08
 
    0.11987E+08         0.11346E+06         0.00000E+00
    0.11346E+06         0.27523E+08         0.00000E+00
    0.00000E+00         0.00000E+00         0.11853E+08
 
    0.11957E+08         0.11605E+06         0.00000E+00
    0.11605E+06         0.27448E+08         0.00000E+00
    0.00000E+00         0.00000E+00         0.11821E+08
 
    0.11926E+08         0.11864E+06         0.00000E+00
    0.11864E+06         0.27370E+08         0.00000E+00
    0.00000E+00         0.00000E+00         0.11789E+08
 
    0.11893E+08         0.12123E+06         0.00000E+00
    0.12123E+06         0.27290E+08         0.00000E+00
    0.00000E+00         0.00000E+00         0.11755E+08
 
    0.11860E+08         0.12383E+06         0.00000E+00
    0.12383E+06         0.27208E+08         0.00000E+00
    0.00000E+00         0.00000E+00         0.11720E+08
 
    0.11825E+08         0.12641E+06         0.00000E+00
    0.12641E+06         0.27123E+08         0.00000E+00
    0.00000E+00         0.00000E+00         0.11684E+08
 
    0.11789E+08         0.12899E+06         0.00000E+00
    0.12899E+06         0.27036E+08         0.00000E+00
    0.00000E+00         0.00000E+00         0.11647E+08
 
    0.11751E+08         0.13154E+06         0.00000E+00
    0.13154E+06         0.26947E+08         0.00000E+00
    0.00000E+00         0.00000E+00         0.11609E+08
 
    0.11712E+08         0.13407E+06         0.00000E+00
    0.13407E+06         0.26855E+08         0.00000E+00
    0.00000E+00         0.00000E+00         0.11570E+08
 
    0.11671E+08         0.13656E+06         0.00000E+00
    0.13656E+06         0.26760E+08         0.00000E+00
    0.00000E+00         0.00000E+00         0.11529E+08
 
    0.11629E+08         0.13901E+06         0.00000E+00
    0.13901E+06         0.26663E+08         0.00000E+00
    0.00000E+00         0.00000E+00         0.11488E+08
 
    0.11586E+08         0.14141E+06         0.00000E+00
    0.14141E+06         0.26564E+08         0.00000E+00
    0.00000E+00         0.00000E+00         0.11445E+08
 
    0.11540E+08         0.14375E+06         0.00000E+00
    0.14375E+06         0.26461E+08         0.00000E+00
    0.00000E+00         0.00000E+00         0.11400E+08
 
    0.11493E+08         0.14602E+06         0.00000E+00
    0.14602E+06         0.26356E+08         0.00000E+00
    0.00000E+00         0.00000E+00         0.11355E+08
 
    0.11444E+08         0.14821E+06         0.00000E+00
    0.14821E+06         0.26248E+08         0.00000E+00
    0.00000E+00         0.00000E+00         0.11308E+08
 
    0.11394E+08         0.15030E+06         0.00000E+00
    0.15030E+06         0.26138E+08         0.00000E+00
    0.00000E+00         0.00000E+00         0.11259E+08
 
    0.11341E+08         0.15228E+06         0.00000E+00
    0.15228E+06         0.26025E+08         0.00000E+00
    0.00000E+00         0.00000E+00         0.11210E+08
 
    0.11287E+08         0.15414E+06         0.00000E+00
    0.15414E+06         0.25908E+08         0.00000E+00
    0.00000E+00         0.00000E+00         0.11158E+08
 
    0.11230E+08         0.15587E+06         0.00000E+00
    0.15587E+06         0.25789E+08         0.00000E+00
    0.00000E+00         0.00000E+00         0.11106E+08
 
    0.11171E+08         0.15744E+06         0.00000E+00
    0.15744E+06         0.25667E+08         0.00000E+00
    0.00000E+00         0.00000E+00         0.11052E+08
 
    0.11110E+08         0.15883E+06         0.00000E+00
    0.15883E+06         0.25543E+08         0.00000E+00
    0.00000E+00         0.00000E+00         0.10996E+08
 
    0.11047E+08         0.16003E+06         0.00000E+00
    0.16003E+06         0.25415E+08         0.00000E+00
    0.00000E+00         0.00000E+00         0.10938E+08
 
    0.10981E+08         0.16102E+06         0.00000E+00
    0.16102E+06         0.25284E+08         0.00000E+00
    0.00000E+00         0.00000E+00         0.10879E+08
 
    0.10913E+08         0.16176E+06         0.00000E+00
    0.16176E+06         0.25150E+08         0.00000E+00
    0.00000E+00         0.00000E+00         0.10819E+08
 
    0.10842E+08         0.16224E+06         0.00000E+00
    0.16224E+06         0.25014E+08         0.00000E+00
    0.00000E+00         0.00000E+00         0.10757E+08
 
    0.10768E+08         0.16241E+06         0.00000E+00
    0.16241E+06         0.24874E+08         0.00000E+00
    0.00000E+00         0.00000E+00         0.10693E+08
 
    0.10692E+08         0.16225E+06         0.00000E+00
    0.16225E+06         0.24731E+08         0.00000E+00
    0.00000E+00         0.00000E+00         0.10627E+08
 
    0.10612E+08         0.16171E+06         0.00000E+00
    0.16171E+06         0.24586E+08         0.00000E+00
    0.00000E+00         0.00000E+00         0.10559E+08
 
    0.10530E+08         0.16075E+06         0.00000E+00
    0.16075E+06         0.24437E+08         0.00000E+00
    0.00000E+00         0.00000E+00         0.10490E+08
 
    0.10444E+08         0.15931E+06         0.00000E+00
    0.15931E+06         0.24285E+08         0.00000E+00
    0.00000E+00         0.00000E+00         0.10419E+08
 
    0.10356E+08         0.15734E+06         0.00000E+00
    0.15734E+06         0.24131E+08         0.00000E+00
    0.00000E+00         0.00000E+00         0.10346E+08
 
    0.10263E+08         0.15476E+06         0.00000E+00
    0.15476E+06         0.23973E+08         0.00000E+00
    0.00000E+00         0.00000E+00         0.10271E+08
 
    0.10167E+08         0.15149E+06         0.00000E+00
    0.15149E+06         0.23813E+08         0.00000E+00
    0.00000E+00         0.00000E+00         0.10194E+08
 
    0.10067E+08         0.14744E+06         0.00000E+00
    0.14744E+06         0.23650E+08         0.00000E+00
    0.00000E+00         0.00000E+00         0.10115E+08
 
    0.99627E+07         0.14252E+06         0.00000E+00
    0.14252E+06         0.23484E+08         0.00000E+00
    0.00000E+00         0.00000E+00         0.10034E+08
 
    0.98542E+07         0.13660E+06         0.00000E+00
    0.13660E+06         0.23315E+08         0.00000E+00
    0.00000E+00         0.00000E+00         0.99508E+07
 
    0.97412E+07         0.12957E+06         0.00000E+00
    0.12957E+06         0.23144E+08         0.00000E+00
    0.00000E+00         0.00000E+00         0.98655E+07
 
    0.96234E+07         0.12130E+06         0.00000E+00
    0.12130E+06         0.22970E+08         0.00000E+00
    0.00000E+00         0.00000E+00         0.97779E+07
 
    0.95004E+07         0.11167E+06         0.00000E+00
    0.11167E+06         0.22793E+08         0.00000E+00
    0.00000E+00         0.00000E+00         0.96880E+07
 
    0.93721E+07         0.10055E+06         0.00000E+00
    0.10055E+06         0.22614E+08         0.00000E+00
    0.00000E+00         0.00000E+00         0.95958E+07
 
    0.92381E+07         0.87837E+05         0.00000E+00
    0.87837E+05         0.22433E+08         0.00000E+00
    0.00000E+00         0.00000E+00         0.95012E+07
 
    0.90981E+07         0.73487E+05         0.00000E+00
    0.73487E+05         0.22249E+08         0.00000E+00
    0.00000E+00         0.00000E+00         0.94042E+07
 
    0.89520E+07         0.57505E+05         0.00000E+00
    0.57505E+05         0.22064E+08         0.00000E+00
    0.00000E+00         0.00000E+00         0.93047E+07
 
    0.87994E+07         0.39999E+05         0.00000E+00
    0.39999E+05         0.21877E+08         0.00000E+00
    0.00000E+00         0.00000E+00         0.92028E+07
 
    0.86404E+07         0.21225E+05         0.00000E+00
    0.21225E+05         0.21688E+08         0.00000E+00
    0.00000E+00         0.00000E+00         0.90987E+07
 
    0.84751E+07         0.16363E+04         0.00000E+00
    0.16363E+04         0.21499E+08         0.00000E+00
    0.00000E+00         0.00000E+00         0.89923E+07
 
    0.83036E+07        -0.18034E+05         0.00000E+00
   -0.18034E+05         0.21310E+08         0.00000E+00
    0.00000E+00         0.00000E+00         0.88841E+07
 
    0.81269E+07        -0.36666E+05         0.00000E+00
   -0.36666E+05         0.21121E+08         0.00000E+00
    0.00000E+00         0.00000E+00         0.87744E+07
 
    0.79461E+07        -0.52576E+05         0.00000E+00
   -0.52576E+05         0.20933E+08         0.00000E+00
    0.00000E+00         0.00000E+00         0.86638E+07
 
    0.77632E+07        -0.63156E+05         0.00000E+00
   -0.63156E+05         0.20749E+08         0.00000E+00
    0.00000E+00         0.00000E+00         0.85535E+07
 
    0.75805E+07        -0.64213E+05         0.00000E+00
   -0.64213E+05         0.20570E+08         0.00000E+00
    0.00000E+00         0.00000E+00         0.84453E+07
 
    0.73989E+07        -0.50276E+05         0.00000E+00
   -0.50276E+05         0.20408E+08         0.00000E+00
    0.00000E+00         0.00000E+00         0.83420E+07
 
    0.72143E+07        -0.19434E+05         0.00000E+00
   -0.19434E+05         0.20277E+08         0.00000E+00
    0.00000E+00         0.00000E+00         0.82475E+07
 
    0.12927E+08        -0.22475E+04         0.00000E+00
   -0.22475E+04         0.29515E+08         0.00000E+00
    0.00000E+00         0.00000E+00         0.12733E+08
 
    0.12901E+08        -0.54618E+04         0.00000E+00
   -0.54618E+04         0.29496E+08         0.00000E+00
    0.00000E+00         0.00000E+00         0.12719E+08
 
    0.12876E+08        -0.60867E+04         0.00000E+00
   -0.60867E+04         0.29472E+08         0.00000E+00
    0.00000E+00         0.00000E+00         0.12704E+08
 
    0.12851E+08        -0.45720E+04         0.00000E+00
   -0.45720E+04         0.29446E+08         0.00000E+00
    0.00000E+00         0.00000E+00         0.12689E+08
 
    0.12826E+08        -0.17962E+04         0.00000E+00
   -0.17962E+04         0.29419E+08         0.00000E+00
    0.00000E+00         0.00000E+00         0.12674E+08
 
    0.12801E+08         0.16506E+04         0.00000E+00
    0.16506E+04         0.29392E+08         0.00000E+00
    0.00000E+00         0.00000E+00         0.12658E+08
 
    0.12778E+08         0.54282E+04         0.00000E+00
    0.54282E+04         0.29364E+08         0.00000E+00
    0.00000E+00         0.00000E+00         0.12642E+08
 
    0.12755E+08         0.93223E+04         0.00000E+00
    0.93223E+04         0.29336E+08         0.00000E+00
    0.00000E+00         0.00000E+00         0.12627E+08
 
    0.12733E+08         0.13194E+05         0.00000E+00
    0.13194E+05         0.29307E+08         0.00000E+00
    0.00000E+00         0.00000E+00         0.12612E+08
 
    0.12712E+08         0.16954E+05         0.00000E+00
    0.16954E+05         0.29278E+08         0.00000E+00
    0.00000E+00         0.00000E+00         0.12597E+08
 
    0.12692E+08         0.20549E+05         0.00000E+00
    0.20549E+05         0.29248E+08         0.00000E+00
    0.00000E+00         0.00000E+00         0.12582E+08
 
    0.12673E+08         0.23954E+05         0.00000E+00
    0.23954E+05         0.29218E+08         0.00000E+00
    0.00000E+00         0.00000E+00         0.12568E+08
 
    0.12655E+08         0.27160E+05         0.00000E+00
    0.27160E+05         0.29188E+08         0.00000E+00
    0.00000E+00         0.00000E+00         0.12553E+08
 
    0.12637E+08         0.30170E+05         0.00000E+00
    0.30170E+05         0.29157E+08         0.00000E+00
    0.00000E+00         0.00000E+00         0.12538E+08
 
    0.12620E+08         0.32998E+05         0.00000E+00
    0.32998E+05         0.29126E+08         0.00000E+00
    0.00000E+00         0.00000E+00         0.12524E+08
 
    0.12604E+08         0.35661E+05         0.00000E+00
    0.35661E+05         0.29094E+08         0.00000E+00
    0.00000E+00         0.00000E+00         0.12509E+08
 
    0.12588E+08         0.38179E+05         0.00000E+00
    0.38179E+05         0.29062E+08         0.00000E+00
    0.00000E+00         0.00000E+00         0.12495E+08
 
    0.12572E+08         0.40571E+05         0.00000E+00
    0.40571E+05         0.29029E+08         0.00000E+00
    0.00000E+00         0.00000E+00         0.12480E+08
 
    0.12556E+08         0.42858E+05         0.00000E+00
    0.42858E+05         0.28995E+08         0.00000E+00
    0.00000E+00         0.00000E+00         0.12465E+08
 
    0.12541E+08         0.45057E+05         0.00000E+00
    0.45057E+05         0.28961E+08         0.00000E+00
    0.00000E+00         0.00000E+00         0.12451E+08
 
    0.12526E+08         0.47186E+05         0.00000E+00
    0.47186E+05         0.28926E+08         0.00000E+00
    0.00000E+00         0.00000E+00         0.12436E+08
 
    0.12511E+08         0.49260E+05         0.00000E+00
    0.49260E+05         0.28890E+08         0.00000E+00
    0.00000E+00         0.00000E+00         0.12420E+08
 
    0.12496E+08         0.51292E+05         0.00000E+00
    0.51292E+05         0.28853E+08         0.00000E+00
    0.00000E+00         0.00000E+00         0.12405E+08
 
    0.12481E+08         0.53293E+05         0.00000E+00
    0.53293E+05         0.28816E+08         0.00000E+00
    0.00000E+00         0.00000E+00         0.12389E+08
 
    0.12465E+08         0.55273E+05         0.00000E+00
    0.55273E+05         0.28777E+08         0.00000E+00
    0.00000E+00         0.00000E+00         0.12373E+08
 
    0.12450E+08         0.57241E+05         0.00000E+00
    0.57241E+05         0.28738E+08         0.00000E+00
    0.00000E+00         0.00000E+00         0.12356E+08
 
    0.12435E+08         0.59204E+05         0.00000E+00
    0.59204E+05         0.28697E+08         0.00000E+00
    0.00000E+00         0.00000E+00         0.12339E+08
 
    0.12419E+08         0.61167E+05         0.00000E+00
    0.61167E+05         0.28655E+08         0.00000E+00
    0.00000E+00         0.00000E+00         0.12322E+08
 
    0.12403E+08         0.63137E+05         0.00000E+00
    0.63137E+05         0.28613E+08         0.00000E+00
    0.00000E+00         0.00000E+00         0.12305E+08
 
    0.12386E+08         0.65117E+05         0.00000E+00
    0.65117E+05         0.28569E+08         0.00000E+00
    0.00000E+00         0.00000E+00         0.12287E+08
 
    0.12369E+08         0.67111E+05         0.00000E+00
    0.67111E+05         0.28524E+08         0.00000E+00
    0.00000E+00         0.00000E+00         0.12268E+08
 
    0.12352E+08         0.69122E+05         0.00000E+00
    0.69122E+05         0.28477E+08         0.00000E+00
    0.00000E+00         0.00000E+00         0.12249E+08
 
    0.12335E+08         0.71152E+05         0.00000E+00
    0.71152E+05         0.28430E+08         0.00000E+00
    0.00000E+00         0.00000E+00         0.12229E+08
 
    0.12317E+08         0.73205E+05         0.00000E+00
    0.73205E+05         0.28381E+08         0.00000E+00
    0.00000E+00         0.00000E+00         0.12209E+08
 
    0.12298E+08         0.75280E+05         0.00000E+00
    0.75280E+05         0.28330E+08         0.00000E+00
    0.00000E+00         0.00000E+00         0.12188E+08
 
    0.12279E+08         0.77380E+05         0.00000E+00
    0.77380E+05         0.28278E+08         0.00000E+00
    0.00000E+00         0.00000E+00         0.12167E+08
 
    0.12259E+08         0.79505E+05         0.00000E+00
    0.79505E+05         0.28225E+08         0.00000E+00
    0.00000E+00         0.00000E+00         0.12145E+08
 
    0.12239E+08         0.81656E+05         0.00000E+00
    0.81656E+05         0.28170E+08         0.00000E+00
    0.00000E+00         0.00000E+00         0.12123E+08
 
    0.12218E+08         0.83833E+05         0.00000E+00
    0.83833E+05         0.28113E+08         0.00000E+00
    0.00000E+00         0.00000E+00         0.12099E+08
 
    0.12196E+08         0.86036E+05         0.00000E+00
    0.86036E+05         0.28055E+08         0.00000E+00
    0.00000E+00         0.00000E+00         0.12075E+08
 
    0.12173E+08         0.88264E+05         0.00000E+00
    0.88264E+05         0.27995E+08         0.00000E+00
    0.00000E+00         0.00000E+00         0.12050E+08
 
    0.12150E+08         0.90516E+05         0.00000E+00
    0.90516E+05         0.27933E+08         0.00000E+00
    0.00000E+00         0.00000E+00         0.12025E+08
 
    0.12126E+08         0.92792E+05         0.00000E+00
    0.92792E+05         0.27870E+08         0.00000E+00
    0.00000E+00         0.00000E+00         0.11999E+08
 
    0.12101E+08         0.95091E+05         0.00000E+00
    0.95091E+05         0.27804E+08         0.00000E+00
    0.00000E+00         0.00000E+00         0.11971E+08
 
    0.12075E+08         0.97409E+05         0.00000E+00
    0.97409E+05         0.27737E+08         0.00000E+00
    0.00000E+00         0.00000E+00         0.11944E+08
 
    0.12048E+08         0.99746E+05         0.00000E+00
    0.99746E+05         0.27668E+08         0.00000E+00
    0.00000E+00         0.00000E+00         0.11915E+08
 
    0.12020E+08         0.10210E+06         0.00000E+00
    0.10210E+06         0.27596E+08         0.00000E+00
    0.00000E+00         0.00000E+00         0.11885E+08
 
    0.11991E+08         0.10446E+06         0.00000E+00
    0.10446E+06         0.27523E+08         0.00000E+00
    0.00000E+00         0.00000E+00         0.11854E+08
 
    0.11961E+08         0.10684E+06         0.00000E+00
    0.10684E+06         0.27447E+08         0.00000E+00
    0.00000E+00         0.00000E+00         0.11822E+08
 
    0.11930E+08         0.10922E+06         0.00000E+00
    0.10922E+06         0.27370E+08         0.00000E+00
    0.00000E+00         0.00000E+00         0.11790E+08
 
    0.11897E+08         0.11161E+06         0.00000E+00
    0.11161E+06         0.27290E+08         0.00000E+00
    0.00000E+00         0.00000E+00         0.11756E+08
 
    0.11864E+08         0.11399E+06         0.00000E+00
    0.11399E+06         0.27207E+08         0.00000E+00
    0.00000E+00         0.00000E+00         0.11721E+08
 
    0.11829E+08         0.11636E+06         0.00000E+00
    0.11636E+06         0.27123E+08         0.00000E+00
    0.00000E+00         0.00000E+00         0.11685E+08
 
    0.11793E+08         0.11873E+06         0.00000E+00
    0.11873E+06         0.27036E+08         0.00000E+00
    0.00000E+00         0.00000E+00         0.11648E+08
 
    0.11755E+08         0.12107E+06         0.00000E+00
    0.12107E+06         0.26946E+08         0.00000E+00
    0.00000E+00         0.00000E+00         0.11610E+08
 
    0.11716E+08         0.12339E+06         0.00000E+00
    0.12339E+06         0.26854E+08         0.00000E+00
    0.00000E+00         0.00000E+00         0.11571E+08
 
    0.11676E+08         0.12568E+06         0.00000E+00
    0.12568E+06         0.26760E+08         0.00000E+00
    0.00000E+00         0.00000E+00         0.11531E+08
 
    0.11634E+08         0.12793E+06         0.00000E+00
    0.12793E+06         0.26663E+08         0.00000E+00
    0.00000E+00         0.00000E+00         0.11489E+08
 
    0.11590E+08         0.13013E+06         0.00000E+00
    0.13013E+06         0.26563E+08         0.00000E+00
    0.00000E+00         0.00000E+00         0.11446E+08
 
    0.11545E+08         0.13227E+06         0.00000E+00
    0.13227E+06         0.26461E+08         0.00000E+00
    0.00000E+00         0.00000E+00         0.11402E+08
 
    0.11498E+08         0.13435E+06         0.00000E+00
    0.13435E+06         0.26356E+08         0.00000E+00
    0.00000E+00         0.00000E+00         0.11356E+08
 
    0.11449E+08         0.13635E+06         0.00000E+00
    0.13635E+06         0.26248E+08         0.00000E+00
    0.00000E+00         0.00000E+00         0.11309E+08
 
    0.11398E+08         0.13827E+06         0.00000E+00
    0.13827E+06         0.26138E+08         0.00000E+00
    0.00000E+00         0.00000E+00         0.11261E+08
 
    0.11345E+08         0.14008E+06         0.00000E+00
    0.14008E+06         0.26024E+08         0.00000E+00
    0.00000E+00         0.00000E+00         0.11211E+08
 
    0.11291E+08         0.14178E+06         0.00000E+00
    0.14178E+06         0.25908E+08         0.00000E+00
    0.00000E+00         0.00000E+00         0.11160E+08
 
    0.11234E+08         0.14336E+06         0.00000E+00
    0.14336E+06         0.25789E+08         0.00000E+00
    0.00000E+00         0.00000E+00         0.11107E+08
 
    0.11175E+08         0.14479E+06         0.00000E+00
    0.14479E+06         0.25667E+08         0.00000E+00
    0.00000E+00         0.00000E+00         0.11053E+08
 
    0.11114E+08         0.14606E+06         0.00000E+00
    0.14606E+06         0.25542E+08         0.00000E+00
    0.00000E+00         0.00000E+00         0.10997E+08
 
    0.11051E+08         0.14715E+06         0.00000E+00
    0.14715E+06         0.25415E+08         0.00000E+00
    0.00000E+00         0.00000E+00         0.10940E+08
 
    0.10985E+08         0.14804E+06         0.00000E+00
    0.14804E+06         0.25284E+08         0.00000E+00
    0.00000E+00         0.00000E+00         0.10881E+08
 
    0.10916E+08         0.14871E+06         0.00000E+00
    0.14871E+06         0.25150E+08         0.00000E+00
    0.00000E+00         0.00000E+00         0.10820E+08
 
    0.10845E+08         0.14913E+06         0.00000E+00
    0.14913E+06         0.25013E+08         0.00000E+00
    0.00000E+00         0.00000E+00         0.10758E+08
 
    0.10772E+08         0.14927E+06         0.00000E+00
    0.14927E+06         0.24874E+08         0.00000E+00
    0.00000E+00         0.00000E+00         0.10694E+08
 
    0.10695E+08         0.14910E+06         0.00000E+00
    0.14910E+06         0.24731E+08         0.00000E+00
    0.00000E+00         0.00000E+00         0.10628E+08
 
    0.10615E+08         0.14858E+06         0.00000E+00
    0.14858E+06         0.24586E+08         0.00000E+00
    0.00000E+00         0.00000E+00         0.10560E+08
 
    0.10533E+08         0.14767E+06         0.00000E+00
    0.14767E+06         0.24437E+08         0.00000E+00
    0.00000E+00         0.00000E+00         0.10491E+08
 
    0.10447E+08         0.14632E+06         0.00000E+00
    0.14632E+06         0.24286E+08         0.00000E+00
    0.00000E+00         0.00000E+00         0.10420E+08
 
    0.10358E+08         0.14447E+06         0.00000E+00
    0.14447E+06         0.24131E+08         0.00000E+00
    0.00000E+00         0.00000E+00         0.10347E+08
 
    0.10265E+08         0.14205E+06         0.00000E+00
    0.14205E+06         0.23974E+08         0.00000E+00
    0.00000E+00         0.00000E+00         0.10272E+08
 
    0.10168E+08         0.13900E+06         0.00000E+00
    0.13900E+06         0.23814E+08         0.00000E+00
    0.00000E+00         0.00000E+00         0.10195E+08
 
    0.10068E+08         0.13522E+06         0.00000E+00
    0.13522E+06         0.23651E+08         0.00000E+00
    0.00000E+00         0.00000E+00         0.10116E+08
 
    0.99633E+07         0.13061E+06         0.00000E+00
    0.13061E+06         0.23485E+08         0.00000E+00
    0.00000E+00         0.00000E+00         0.10035E+08
 
    0.98542E+07         0.12508E+06         0.00000E+00
    0.12508E+06         0.23317E+08         0.00000E+00
    0.00000E+00         0.00000E+00         0.99512E+07
 
    0.97405E+07         0.11851E+06         0.00000E+00
    0.11851E+06         0.23145E+08         0.00000E+00
    0.00000E+00         0.00000E+00         0.98657E+07
 
    0.96219E+07         0.11076E+06         0.00000E+00
    0.11076E+06         0.22971E+08         0.00000E+00
    0.00000E+00         0.00000E+00         0.97780E+07
 
    0.94980E+07         0.10173E+06         0.00000E+00
    0.10173E+06         0.22795E+08         0.00000E+00
    0.00000E+00         0.00000E+00         0.96879E+07
 
    0.93685E+07         0.91290E+05         0.00000E+00
    0.91290E+05         0.22616E+08         0.00000E+00
    0.00000E+00         0.00000E+00         0.95954E+07
 
    0.92332E+07         0.79348E+05         0.00000E+00
    0.79348E+05         0.22435E+08         0.00000E+00
    0.00000E+00         0.00000E+00         0.95005E+07
 
    0.90917E+07         0.65844E+05         0.00000E+00
    0.65844E+05         0.22252E+08         0.00000E+00
    0.00000E+00         0.00000E+00         0.94031E+07
 
    0.89438E+07         0.50782E+05         0.00000E+00
    0.50782E+05         0.22067E+08         0.00000E+00
    0.00000E+00         0.00000E+00         0.93032E+07
 
    0.87891E+07         0.34257E+05         0.00000E+00
    0.34257E+05         0.21880E+08         0.00000E+00
    0.00000E+00         0.00000E+00         0.92008E+07
 
    0.86277E+07         0.16498E+05         0.00000E+00
    0.16498E+05         0.21692E+08         0.00000E+00
    0.00000E+00         0.00000E+00         0.90960E+07
 
    0.84595E+07        -0.20783E+04         0.00000E+00
   -0.20783E+04         0.21503E+08         0.00000E+00
    0.00000E+00         0.00000E+00         0.89889E+07
 
    0.82849E+07        -0.20804E+05         0.00000E+00
   -0.20804E+05         0.21314E+08         0.00000E+00
    0.00000E+00         0.00000E+00         0.88796E+07
 
    0.81047E+07        -0.38654E+05         0.00000E+00
   -0.38654E+05         0.21125E+08         0.00000E+00
    0.00000E+00         0.00000E+00         0.87688E+07
 
    0.79200E+07        -0.54078E+05         0.00000E+00
   -0.54078E+05         0.20936E+08         0.00000E+00
    0.00000E+00         0.00000E+00         0.86569E+07
 
    0.77332E+07        -0.64645E+05         0.00000E+00
   -0.64645E+05         0.20750E+08         0.00000E+00
    0.00000E+00         0.00000E+00         0.85450E+07
 
    0.75470E+07        -0.66186E+05         0.00000E+00
   -0.66186E+05         0.20569E+08         0.00000E+00
    0.00000E+00         0.00000E+00         0.84349E+07
 
    0.73631E+07        -0.52525E+05         0.00000E+00
   -0.52525E+05         0.20403E+08         0.00000E+00
    0.00000E+00         0.00000E+00         0.83299E+07
 
    0.71778E+07        -0.20533E+05         0.00000E+00
   -0.20533E+05         0.20269E+08         0.00000E+00
    0.00000E+00         0.00000E+00         0.82342E+07
 
    0.12933E+08        -0.24502E+04         0.00000E+00
   -0.24502E+04         0.29516E+08         0.00000E+00
    0.00000E+00         0.00000E+00         0.12735E+08
 
    0.12907E+08        -0.58903E+04         0.00000E+00
   -0.58903E+04         0.29496E+08         0.00000E+00
    0.00000E+00         0.00000E+00         0.12721E+08
 
    0.12882E+08        -0.65237E+04         0.00000E+00
   -0.65237E+04         0.29472E+08         0.00000E+00
    0.00000E+00         0.00000E+00         0.12706E+08
 
    0.12856E+08        -0.50175E+04         0.00000E+00
   -0.50175E+04         0.29446E+08         0.00000E+00
    0.00000E+00         0.00000E+00         0.12691E+08
 
    0.12830E+08        -0.23454E+04         0.00000E+00
   -0.23454E+04         0.29419E+08         0.00000E+00
    0.00000E+00         0.00000E+00         0.12675E+08
 
    0.12805E+08         0.92267E+03         0.00000E+00
    0.92267E+03         0.29391E+08         0.00000E+00
    0.00000E+00         0.00000E+00         0.12659E+08
 
    0.12781E+08         0.44768E+04         0.00000E+00
    0.44768E+04         0.29363E+08         0.00000E+00
    0.00000E+00         0.00000E+00         0.12643E+08
 
    0.12758E+08         0.81232E+04         0.00000E+00
    0.81232E+04         0.29335E+08         0.00000E+00
    0.00000E+00         0.00000E+00         0.12628E+08
 
    0.12736E+08         0.11737E+05         0.00000E+00
    0.11737E+05         0.29306E+08         0.00000E+00
    0.00000E+00         0.00000E+00         0.12613E+08
 
    0.12715E+08         0.15237E+05         0.00000E+00
    0.15237E+05         0.29277E+08         0.00000E+00
    0.00000E+00         0.00000E+00         0.12598E+08
 
    0.12695E+08         0.18578E+05         0.00000E+00
    0.18578E+05         0.29248E+08         0.00000E+00
    0.00000E+00         0.00000E+00         0.12583E+08
 
    0.12676E+08         0.21736E+05         0.00000E+00
    0.21736E+05         0.29218E+08         0.00000E+00
    0.00000E+00         0.00000E+00         0.12568E+08
 
    0.12657E+08         0.24703E+05         0.00000E+00
    0.24703E+05         0.29187E+08         0.00000E+00
    0.00000E+00         0.00000E+00         0.12553E+08
 
    0.12640E+08         0.27485E+05         0.00000E+00
    0.27485E+05         0.29157E+08         0.00000E+00
    0.00000E+00         0.00000E+00         0.12539E+08
 
    0.12622E+08         0.30094E+05         0.00000E+00
    0.30094E+05         0.29125E+08         0.00000E+00
    0.00000E+00         0.00000E+00         0.12524E+08
 
    0.12606E+08         0.32547E+05         0.00000E+00
    0.32547E+05         0.29094E+08         0.00000E+00
    0.00000E+00         0.00000E+00         0.12510E+08
 
    0.12590E+08         0.34863E+05         0.00000E+00
    0.34863E+05         0.29061E+08         0.00000E+00
    0.00000E+00         0.00000E+00         0.12495E+08
 
    0.12574E+08         0.37061E+05         0.00000E+00
    0.37061E+05         0.29028E+08         0.00000E+00
    0.00000E+00         0.00000E+00         0.12481E+08
 
    0.12558E+08         0.39159E+05         0.00000E+00
    0.39159E+05         0.28995E+08         0.00000E+00
    0.00000E+00         0.00000E+00         0.12466E+08
 
    0.12543E+08         0.41176E+05         0.00000E+00
    0.41176E+05         0.28960E+08         0.00000E+00
    0.00000E+00         0.00000E+00         0.12451E+08
 
    0.12528E+08         0.43127E+05         0.00000E+00
    0.43127E+05         0.28925E+08         0.00000E+00
    0.00000E+00         0.00000E+00         0.12436E+08
 
    0.12513E+08         0.45027E+05         0.00000E+00
    0.45027E+05         0.28889E+08         0.00000E+00
    0.00000E+00         0.00000E+00         0.12421E+08
 
    0.12498E+08         0.46886E+05         0.00000E+00
    0.46886E+05         0.28853E+08         0.00000E+00
    0.00000E+00         0.00000E+00         0.12405E+08
 
    0.12483E+08         0.48717E+05         0.00000E+00
    0.48717E+05         0.28815E+08         0.00000E+00
    0.00000E+00         0.00000E+00         0.12389E+08
 
    0.12468E+08         0.50528E+05         0.00000E+00
    0.50528E+05         0.28777E+08         0.00000E+00
    0.00000E+00         0.00000E+00         0.12373E+08
 
    0.12452E+08         0.52327E+05         0.00000E+00
    0.52327E+05         0.28737E+08         0.00000E+00
    0.00000E+00         0.00000E+00         0.12357E+08
 
    0.12437E+08         0.54122E+05         0.00000E+00
    0.54122E+05         0.28697E+08         0.00000E+00
    0.00000E+00         0.00000E+00         0.12340E+08
 
    0.12421E+08         0.55916E+05         0.00000E+00
    0.55916E+05         0.28655E+08         0.00000E+00
    0.00000E+00         0.00000E+00         0.12323E+08
 
    0.12405E+08         0.57717E+05         0.00000E+00
    0.57717E+05         0.28612E+08         0.00000E+00
    0.00000E+00         0.00000E+00         0.12305E+08
 
    0.12389E+08         0.59526E+05         0.00000E+00
    0.59526E+05         0.28568E+08         0.00000E+00
    0.00000E+00         0.00000E+00         0.12287E+08
 
    0.12372E+08         0.61348E+05         0.00000E+00
    0.61348E+05         0.28523E+08         0.00000E+00
    0.00000E+00         0.00000E+00         0.12269E+08
 
    0.12355E+08         0.63186E+05         0.00000E+00
    0.63186E+05         0.28477E+08         0.00000E+00
    0.00000E+00         0.00000E+00         0.12250E+08
 
    0.12337E+08         0.65041E+05         0.00000E+00
    0.65041E+05         0.28429E+08         0.00000E+00
    0.00000E+00         0.00000E+00         0.12230E+08
 
    0.12319E+08         0.66916E+05         0.00000E+00
    0.66916E+05         0.28380E+08         0.00000E+00
    0.00000E+00         0.00000E+00         0.12210E+08
 
    0.12301E+08         0.68812E+05         0.00000E+00
    0.68812E+05         0.28330E+08         0.00000E+00
    0.00000E+00         0.00000E+00         0.12189E+08
 
    0.12282E+08         0.70730E+05         0.00000E+00
    0.70730E+05         0.28278E+08         0.00000E+00
    0.00000E+00         0.00000E+00         0.12168E+08
 
    0.12262E+08         0.72670E+05         0.00000E+00
    0.72670E+05         0.28224E+08         0.00000E+00
    0.00000E+00         0.00000E+00         0.12146E+08
 
    0.12242E+08         0.74635E+05         0.00000E+00
    0.74635E+05         0.28169E+08         0.00000E+00
    0.00000E+00         0.00000E+00         0.12123E+08
 
    0.12221E+08         0.76623E+05         0.00000E+00
    0.76623E+05         0.28113E+08         0.00000E+00
    0.00000E+00         0.00000E+00         0.12100E+08
 
    0.12199E+08         0.78634E+05         0.00000E+00
    0.78634E+05         0.28055E+08         0.00000E+00
    0.00000E+00         0.00000E+00         0.12076E+08
 
    0.12176E+08         0.80668E+05         0.00000E+00
    0.80668E+05         0.27995E+08         0.00000E+00
    0.00000E+00         0.00000E+00         0.12051E+08
 
    0.12153E+08         0.82725E+05         0.00000E+00
    0.82725E+05         0.27933E+08         0.00000E+00
    0.00000E+00         0.00000E+00         0.12026E+08
 
    0.12129E+08         0.84802E+05         0.00000E+00
    0.84802E+05         0.27869E+08         0.00000E+00
    0.00000E+00         0.00000E+00         0.12000E+08
 
    0.12104E+08         0.86900E+05         0.00000E+00
    0.86900E+05         0.27804E+08         0.00000E+00
    0.00000E+00         0.00000E+00         0.11972E+08
 
    0.12078E+08         0.89016E+05         0.00000E+00
    0.89016E+05         0.27737E+08         0.00000E+00
    0.00000E+00         0.00000E+00         0.11944E+08
 
    0.12051E+08         0.91148E+05         0.00000E+00
    0.91148E+05         0.27667E+08         0.00000E+00
    0.00000E+00         0.00000E+00         0.11916E+08
 
    0.12024E+08         0.93295E+05         0.00000E+00
    0.93295E+05         0.27596E+08         0.00000E+00
    0.00000E+00         0.00000E+00         0.11886E+08
 
    0.11995E+08         0.95453E+05         0.00000E+00
    0.95453E+05         0.27522E+08         0.00000E+00
    0.00000E+00         0.00000E+00         0.11855E+08
 
    0.11965E+08         0.97620E+05         0.00000E+00
    0.97620E+05         0.27447E+08         0.00000E+00
    0.00000E+00         0.00000E+00         0.11823E+08
 
    0.11934E+08         0.99793E+05         0.00000E+00
    0.99793E+05         0.27369E+08         0.00000E+00
    0.00000E+00         0.00000E+00         0.11791E+08
 
    0.11901E+08         0.10197E+06         0.00000E+00
    0.10197E+06         0.27289E+08         0.00000E+00
    0.00000E+00         0.00000E+00         0.11757E+08
 
    0.11868E+08         0.10414E+06         0.00000E+00
    0.10414E+06         0.27207E+08         0.00000E+00
    0.00000E+00         0.00000E+00         0.11722E+08
 
    0.11833E+08         0.10630E+06         0.00000E+00
    0.10630E+06         0.27122E+08         0.00000E+00
    0.00000E+00         0.00000E+00         0.11687E+08
 
    0.11797E+08         0.10846E+06         0.00000E+00
    0.10846E+06         0.27035E+08         0.00000E+00
    0.00000E+00         0.00000E+00         0.11650E+08
 
    0.11759E+08         0.11059E+06         0.00000E+00
    0.11059E+06         0.26946E+08         0.00000E+00
    0.00000E+00         0.00000E+00         0.11612E+08
 
    0.11720E+08         0.11271E+06         0.00000E+00
    0.11271E+06         0.26854E+08         0.00000E+00
    0.00000E+00         0.00000E+00         0.11572E+08
 
    0.11680E+08         0.11479E+06         0.00000E+00
    0.11479E+06         0.26759E+08         0.00000E+00
    0.00000E+00         0.00000E+00         0.11532E+08
 
    0.11638E+08         0.11684E+06         0.00000E+00
    0.11684E+06         0.26662E+08         0.00000E+00
    0.00000E+00         0.00000E+00         0.11490E+08
 
    0.11594E+08         0.11884E+06         0.00000E+00
    0.11884E+06         0.26563E+08         0.00000E+00
    0.00000E+00         0.00000E+00         0.11447E+08
 
    0.11549E+08         0.12079E+06         0.00000E+00
    0.12079E+06         0.26460E+08         0.00000E+00
    0.00000E+00         0.00000E+00         0.11403E+08
 
    0.11502E+08         0.12268E+06         0.00000E+00
    0.12268E+06         0.26355E+08         0.00000E+00
    0.00000E+00         0.00000E+00         0.11357E+08
 
    0.11453E+08         0.12450E+06         0.00000E+00
    0.12450E+06         0.26248E+08         0.00000E+00
    0.00000E+00         0.00000E+00         0.11310E+08
 
    0.11402E+08         0.12624E+06         0.00000E+00
    0.12624E+06         0.26137E+08         0.00000E+00
    0.00000E+00         0.00000E+00         0.11262E+08
 
    0.11350E+08         0.12789E+06         0.00000E+00
    0.12789E+06         0.26024E+08         0.00000E+00
    0.00000E+00         0.00000E+00         0.11212E+08
 
    0.11295E+08         0.12943E+06         0.00000E+00
    0.12943E+06         0.25908E+08         0.00000E+00
    0.00000E+00         0.00000E+00         0.11161E+08
 
    0.11238E+08         0.13086E+06         0.00000E+00
    0.13086E+06         0.25789E+08         0.00000E+00
    0.00000E+00         0.00000E+00         0.11108E+08
 
    0.11179E+08         0.13216E+06         0.00000E+00
    0.13216E+06         0.25667E+08         0.00000E+00
    0.00000E+00         0.00000E+00         0.11054E+08
 
    0.11118E+08         0.13330E+06         0.00000E+00
    0.13330E+06         0.25542E+08         0.00000E+00
    0.00000E+00         0.00000E+00         0.10998E+08
 
    0.11055E+08         0.13429E+06         0.00000E+00
    0.13429E+06         0.25414E+08         0.00000E+00
    0.00000E+00         0.00000E+00         0.10941E+08
 
    0.10989E+08         0.13509E+06         0.00000E+00
    0.13509E+06         0.25284E+08         0.00000E+00
    0.00000E+00         0.00000E+00         0.10882E+08
 
    0.10920E+08         0.13568E+06         0.00000E+00
    0.13568E+06         0.25150E+08         0.00000E+00
    0.00000E+00         0.00000E+00         0.10821E+08
 
    0.10849E+08         0.13605E+06         0.00000E+00
    0.13605E+06         0.25013E+08         0.00000E+00
    0.00000E+00         0.00000E+00         0.10759E+08
 
    0.10775E+08         0.13616E+06         0.00000E+00
    0.13616E+06         0.24874E+08         0.00000E+00
    0.00000E+00         0.00000E+00         0.10695E+08
 
    0.10698E+08         0.13599E+06         0.00000E+00
    0.13599E+06         0.24731E+08         0.00000E+00
    0.00000E+00         0.00000E+00         0.10629E+08
 
    0.10619E+08         0.13550E+06         0.00000E+00
    0.13550E+06         0.24586E+08         0.00000E+00
    0.00000E+00         0.00000E+00         0.10561E+08
 
    0.10536E+08         0.13464E+06         0.00000E+00
    0.13464E+06         0.24437E+08         0.00000E+00
    0.00000E+00         0.00000E+00         0.10492E+08
 
    0.10450E+08         0.13338E+06         0.00000E+00
    0.13338E+06         0.24286E+08         0.00000E+00
    0.00000E+00         0.00000E+00         0.10421E+08
 
    0.10360E+08         0.13166E+06         0.00000E+00
    0.13166E+06         0.24132E+08         0.00000E+00
    0.00000E+00         0.00000E+00         0.10348E+08
 
    0.10267E+08         0.12942E+06         0.00000E+00
    0.12942E+06         0.23975E+08         0.00000E+00
    0.00000E+00         0.00000E+00         0.10272E+08
 
    0.10170E+08         0.12659E+06         0.00000E+00
    0.12659E+06         0.23815E+08         0.00000E+00
    0.00000E+00         0.00000E+00         0.10195E+08
 
    0.10069E+08         0.12308E+06         0.00000E+00
    0.12308E+06         0.23652E+08         0.00000E+00
    0.00000E+00         0.00000E+00         0.10116E+08
 
    0.99641E+07         0.11882E+06         0.00000E+00
    0.11882E+06         0.23486E+08         0.00000E+00
    0.00000E+00         0.00000E+00         0.10035E+08
 
    0.98545E+07         0.11369E+06         0.00000E+00
    0.11369E+06         0.23318E+08         0.00000E+00
    0.00000E+00         0.00000E+00         0.99516E+07
 
    0.97401E+07         0.10759E+06         0.00000E+00
    0.10759E+06         0.23147E+08         0.00000E+00
    0.00000E+00         0.00000E+00         0.98660E+07
 
    0.96207E+07         0.10039E+06         0.00000E+00
    0.10039E+06         0.22973E+08         0.00000E+00
    0.00000E+00         0.00000E+00         0.97781E+07
 
    0.94959E+07         0.91992E+05         0.00000E+00
    0.91992E+05         0.22797E+08         0.00000E+00
    0.00000E+00         0.00000E+00         0.96878E+07
 
    0.93654E+07         0.82272E+05         0.00000E+00
    0.82272E+05         0.22618E+08         0.00000E+00
    0.00000E+00         0.00000E+00         0.95951E+07
 
    0.92288E+07         0.71138E+05         0.00000E+00
    0.71138E+05         0.22438E+08         0.00000E+00
    0.00000E+00         0.00000E+00         0.94999E+07
 
    0.90858E+07         0.58531E+05         0.00000E+00
    0.58531E+05         0.22255E+08         0.00000E+00
    0.00000E+00         0.00000E+00         0.94022E+07
 
    0.89360E+07         0.44447E+05         0.00000E+00
    0.44447E+05         0.22070E+08         0.00000E+00
    0.00000E+00         0.00000E+00         0.93018E+07
 
    0.87793E+07         0.28967E+05         0.00000E+00
    0.28967E+05         0.21884E+08         0.00000E+00
    0.00000E+00         0.00000E+00         0.91989E+07
 
    0.86154E+07         0.12296E+05         0.00000E+00
    0.12296E+05         0.21696E+08         0.00000E+00
    0.00000E+00         0.00000E+00         0.90934E+07
 
    0.84444E+07        -0.51922E+04         0.00000E+00
   -0.51922E+04         0.21507E+08         0.00000E+00
    0.00000E+00         0.00000E+00         0.89854E+07
 
    0.82666E+07        -0.22895E+05         0.00000E+00
   -0.22895E+05         0.21317E+08         0.00000E+00
    0.00000E+00         0.00000E+00         0.88752E+07
 
    0.80827E+07        -0.39888E+05         0.00000E+00
   -0.39888E+05         0.21128E+08         0.00000E+00
    0.00000E+00         0.00000E+00         0.87632E+07
 
    0.78940E+07        -0.54765E+05         0.00000E+00
   -0.54765E+05         0.20939E+08         0.00000E+00
    0.00000E+00         0.00000E+00         0.86499E+07
 
    0.77028E+07        -0.65312E+05         0.00000E+00
   -0.65312E+05         0.20752E+08         0.00000E+00
    0.00000E+00         0.00000E+00         0.85363E+07
 
    0.75127E+07        -0.67499E+05         0.00000E+00
   -0.67499E+05         0.20569E+08         0.00000E+00
    0.00000E+00         0.00000E+00         0.84244E+07
 
    0.73261E+07        -0.54481E+05         0.00000E+00
   -0.54481E+05         0.20398E+08         0.00000E+00
    0.00000E+00         0.00000E+00         0.83174E+07
 
    0.71399E+07        -0.21606E+05         0.00000E+00
   -0.21606E+05         0.20261E+08         0.00000E+00
    0.00000E+00         0.00000E+00         0.82203E+07
 
    0.12940E+08        -0.26498E+04         0.00000E+00
   -0.26498E+04         0.29517E+08         0.00000E+00
    0.00000E+00         0.00000E+00         0.12737E+08
 
    0.12914E+08        -0.62701E+04         0.00000E+00
   -0.62701E+04         0.29497E+08         0.00000E+00
    0.00000E+00         0.00000E+00         0.12723E+08
 
    0.12888E+08        -0.68558E+04         0.00000E+00
   -0.68558E+04         0.29472E+08         0.00000E+00
    0.00000E+00         0.00000E+00         0.12708E+08
 
    0.12861E+08        -0.53416E+04         0.00000E+00
   -0.53416E+04         0.29445E+08         0.00000E+00
    0.00000E+00         0.00000E+00         0.12692E+08
 
    0.12835E+08        -0.27816E+04         0.00000E+00
   -0.27816E+04         0.29418E+08         0.00000E+00
    0.00000E+00         0.00000E+00         0.12676E+08
 
    0.12810E+08         0.29447E+03         0.00000E+00
    0.29447E+03         0.29390E+08         0.00000E+00
    0.00000E+00         0.00000E+00         0.12660E+08
 
    0.12785E+08         0.36113E+04         0.00000E+00
    0.36113E+04         0.29362E+08         0.00000E+00
    0.00000E+00         0.00000E+00         0.12644E+08
 
    0.12761E+08         0.69965E+04         0.00000E+00
    0.69965E+04         0.29334E+08         0.00000E+00
    0.00000E+00         0.00000E+00         0.12629E+08
 
    0.12739E+08         0.10339E+05         0.00000E+00
    0.10339E+05         0.29305E+08         0.00000E+00
    0.00000E+00         0.00000E+00         0.12613E+08
 
    0.12718E+08         0.13570E+05         0.00000E+00
    0.13570E+05         0.29276E+08         0.00000E+00
    0.00000E+00         0.00000E+00         0.12598E+08
 
    0.12697E+08         0.16646E+05         0.00000E+00
    0.16646E+05         0.29247E+08         0.00000E+00
    0.00000E+00         0.00000E+00         0.12583E+08
 
    0.12678E+08         0.19547E+05         0.00000E+00
    0.19547E+05         0.29217E+08         0.00000E+00
    0.00000E+00         0.00000E+00         0.12569E+08
 
    0.12659E+08         0.22268E+05         0.00000E+00
    0.22268E+05         0.29187E+08         0.00000E+00
    0.00000E+00         0.00000E+00         0.12554E+08
 
    0.12642E+08         0.24815E+05         0.00000E+00
    0.24815E+05         0.29156E+08         0.00000E+00
    0.00000E+00         0.00000E+00         0.12539E+08
 
    0.12624E+08         0.27200E+05         0.00000E+00
    0.27200E+05         0.29125E+08         0.00000E+00
    0.00000E+00         0.00000E+00         0.12525E+08
 
    0.12608E+08         0.29439E+05         0.00000E+00
    0.29439E+05         0.29093E+08         0.00000E+00
    0.00000E+00         0.00000E+00         0.12510E+08
 
    0.12592E+08         0.31549E+05         0.00000E+00
    0.31549E+05         0.29061E+08         0.00000E+00
    0.00000E+00         0.00000E+00         0.12496E+08
 
    0.12576E+08         0.33550E+05         0.00000E+00
    0.33550E+05         0.29028E+08         0.00000E+00
    0.00000E+00         0.00000E+00         0.12481E+08
 
    0.12560E+08         0.35458E+05         0.00000E+00
    0.35458E+05         0.28994E+08         0.00000E+00
    0.00000E+00         0.00000E+00         0.12466E+08
 
    0.12545E+08         0.37291E+05         0.00000E+00
    0.37291E+05         0.28960E+08         0.00000E+00
    0.00000E+00         0.00000E+00         0.12452E+08
 
    0.12530E+08         0.39062E+05         0.00000E+00
    0.39062E+05         0.28925E+08         0.00000E+00
    0.00000E+00         0.00000E+00         0.12436E+08
 
    0.12515E+08         0.40785E+05         0.00000E+00
    0.40785E+05         0.28889E+08         0.00000E+00
    0.00000E+00         0.00000E+00         0.12421E+08
 
    0.12500E+08         0.42471E+05         0.00000E+00
    0.42471E+05         0.28852E+08         0.00000E+00
    0.00000E+00         0.00000E+00         0.12406E+08
 
    0.12485E+08         0.44131E+05         0.00000E+00
    0.44131E+05         0.28815E+08         0.00000E+00
    0.00000E+00         0.00000E+00         0.12390E+08
 
    0.12470E+08         0.45772E+05         0.00000E+00
    0.45772E+05         0.28776E+08         0.00000E+00
    0.00000E+00         0.00000E+00         0.12374E+08
 
    0.12455E+08         0.47402E+05         0.00000E+00
    0.47402E+05         0.28737E+08         0.00000E+00
    0.00000E+00         0.00000E+00         0.12357E+08
 
    0.12439E+08         0.49028E+05         0.00000E+00
    0.49028E+05         0.28696E+08         0.00000E+00
    0.00000E+00         0.00000E+00         0.12341E+08
 
    0.12423E+08         0.50653E+05         0.00000E+00
    0.50653E+05         0.28655E+08         0.00000E+00
    0.00000E+00         0.00000E+00         0.12323E+08
 
    0.12407E+08         0.52283E+05         0.00000E+00
    0.52283E+05         0.28612E+08         0.00000E+00
    0.00000E+00         0.00000E+00         0.12306E+08
 
    0.12391E+08         0.53922E+05         0.00000E+00
    0.53922E+05         0.28568E+08         0.00000E+00
    0.00000E+00         0.00000E+00         0.12288E+08
 
    0.12375E+08         0.55572E+05         0.00000E+00
    0.55572E+05         0.28523E+08         0.00000E+00
    0.00000E+00         0.00000E+00         0.12269E+08
 
    0.12358E+08         0.57235E+05         0.00000E+00
    0.57235E+05         0.28477E+08         0.00000E+00
    0.00000E+00         0.00000E+00         0.12250E+08
 
    0.12340E+08         0.58915E+05         0.00000E+00
    0.58915E+05         0.28429E+08         0.00000E+00
    0.00000E+00         0.00000E+00         0.12231E+08
 
    0.12322E+08         0.60612E+05         0.00000E+00
    0.60612E+05         0.28380E+08         0.00000E+00
    0.00000E+00         0.00000E+00         0.12211E+08
 
    0.12304E+08         0.62328E+05         0.00000E+00
    0.62328E+05         0.28329E+08         0.00000E+00
    0.00000E+00         0.00000E+00         0.12190E+08
 
    0.12285E+08         0.64065E+05         0.00000E+00
    0.64065E+05         0.28278E+08         0.00000E+00
    0.00000E+00         0.00000E+00         0.12169E+08
 
    0.12265E+08         0.65821E+05         0.00000E+00
    0.65821E+05         0.28224E+08         0.00000E+00
    0.00000E+00         0.00000E+00         0.12147E+08
 
    0.12245E+08         0.67599E+05         0.00000E+00
    0.67599E+05         0.28169E+08         0.00000E+00
    0.00000E+00         0.00000E+00         0.12124E+08
 
    0.12224E+08         0.69398E+05         0.00000E+00
    0.69398E+05         0.28113E+08         0.00000E+00
    0.00000E+00         0.00000E+00         0.12101E+08
 
    0.12202E+08         0.71217E+05         0.00000E+00
    0.71217E+05         0.28054E+08         0.00000E+00
    0.00000E+00         0.00000E+00         0.12077E+08
 
    0.12180E+08         0.73058E+05         0.00000E+00
    0.73058E+05         0.27994E+08         0.00000E+00
    0.00000E+00         0.00000E+00         0.12052E+08
 
    0.12157E+08         0.74918E+05         0.00000E+00
    0.74918E+05         0.27933E+08         0.00000E+00
    0.00000E+00         0.00000E+00         0.12027E+08
 
    0.12133E+08         0.76798E+05         0.00000E+00
    0.76798E+05         0.27869E+08         0.00000E+00
    0.00000E+00         0.00000E+00         0.12000E+08
 
    0.12108E+08         0.78695E+05         0.00000E+00
    0.78695E+05         0.27804E+08         0.00000E+00
    0.00000E+00         0.00000E+00         0.11973E+08
 
    0.12082E+08         0.80608E+05         0.00000E+00
    0.80608E+05         0.27736E+08         0.00000E+00
    0.00000E+00         0.00000E+00         0.11945E+08
 
    0.12055E+08         0.82537E+05         0.00000E+00
    0.82537E+05         0.27667E+08         0.00000E+00
    0.00000E+00         0.00000E+00         0.11917E+08
 
    0.12027E+08         0.84478E+05         0.00000E+00
    0.84478E+05         0.27595E+08         0.00000E+00
    0.00000E+00         0.00000E+00         0.11887E+08
 
    0.11998E+08         0.86429E+05         0.00000E+00
    0.86429E+05         0.27522E+08         0.00000E+00
    0.00000E+00         0.00000E+00         0.11856E+08
 
    0.11969E+08         0.88388E+05         0.00000E+00
    0.88388E+05         0.27446E+08         0.00000E+00
    0.00000E+00         0.00000E+00         0.11824E+08
 
    0.11937E+08         0.90351E+05         0.00000E+00
    0.90351E+05         0.27369E+08         0.00000E+00
    0.00000E+00         0.00000E+00         0.11792E+08
 
    0.11905E+08         0.92316E+05         0.00000E+00
    0.92316E+05         0.27289E+08         0.00000E+00
    0.00000E+00         0.00000E+00         0.11758E+08
 
    0.11872E+08         0.94278E+05         0.00000E+00
    0.94278E+05         0.27206E+08         0.00000E+00
    0.00000E+00         0.00000E+00         0.11723E+08
 
    0.11837E+08         0.96234E+05         0.00000E+00
    0.96234E+05         0.27122E+08         0.00000E+00
    0.00000E+00         0.00000E+00         0.11688E+08
 
    0.11801E+08         0.98178E+05         0.00000E+00
    0.98178E+05         0.27035E+08         0.00000E+00
    0.00000E+00         0.00000E+00         0.11651E+08
 
    0.11763E+08         0.10011E+06         0.00000E+00
    0.10011E+06         0.26945E+08         0.00000E+00
    0.00000E+00         0.00000E+00         0.11613E+08
 
    0.11725E+08         0.10202E+06         0.00000E+00
    0.10202E+06         0.26853E+08         0.00000E+00
    0.00000E+00         0.00000E+00         0.11573E+08
 
    0.11684E+08         0.10390E+06         0.00000E+00
    0.10390E+06         0.26759E+08         0.00000E+00
    0.00000E+00         0.00000E+00         0.11533E+08
 
    0.11642E+08         0.10574E+06         0.00000E+00
    0.10574E+06         0.26662E+08         0.00000E+00
    0.00000E+00         0.00000E+00         0.11491E+08
 
    0.11598E+08         0.10755E+06         0.00000E+00
    0.10755E+06         0.26562E+08         0.00000E+00
    0.00000E+00         0.00000E+00         0.11448E+08
 
    0.11553E+08         0.10931E+06         0.00000E+00
    0.10931E+06         0.26460E+08         0.00000E+00
    0.00000E+00         0.00000E+00         0.11404E+08
 
    0.11506E+08         0.11101E+06         0.00000E+00
    0.11101E+06         0.26355E+08         0.00000E+00
    0.00000E+00         0.00000E+00         0.11358E+08
 
    0.11457E+08         0.11265E+06         0.00000E+00
    0.11265E+06         0.26247E+08         0.00000E+00
    0.00000E+00         0.00000E+00         0.11311E+08
 
    0.11407E+08         0.11422E+06         0.00000E+00
    0.11422E+06         0.26137E+08         0.00000E+00
    0.00000E+00         0.00000E+00         0.11263E+08
 
    0.11354E+08         0.11570E+06         0.00000E+00
    0.11570E+06         0.26024E+08         0.00000E+00
    0.00000E+00         0.00000E+00         0.11213E+08
 
    0.11299E+08         0.11709E+06         0.00000E+00
    0.11709E+06         0.25907E+08         0.00000E+00
    0.00000E+00         0.00000E+00         0.11162E+08
 
    0.11242E+08         0.11837E+06         0.00000E+00
    0.11837E+06         0.25789E+08         0.00000E+00
    0.00000E+00         0.00000E+00         0.11109E+08
 
    0.11183E+08         0.11953E+06         0.00000E+00
    0.11953E+06         0.25667E+08         0.00000E+00
    0.00000E+00         0.00000E+00         0.11055E+08
 
    0.11122E+08         0.12056E+06         0.00000E+00
    0.12056E+06         0.25542E+08         0.00000E+00
    0.00000E+00         0.00000E+00         0.10999E+08
 
    0.11059E+08         0.12144E+06         0.00000E+00
    0.12144E+06         0.25414E+08         0.00000E+00
    0.00000E+00         0.00000E+00         0.10942E+08
 
    0.10992E+08         0.12215E+06         0.00000E+00
    0.12215E+06         0.25284E+08         0.00000E+00
    0.00000E+00         0.00000E+00         0.10883E+08
 
    0.10924E+08         0.12268E+06         0.00000E+00
    0.12268E+06         0.25150E+08         0.00000E+00
    0.00000E+00         0.00000E+00         0.10822E+08
 
    0.10853E+08         0.12300E+06         0.00000E+00
    0.12300E+06         0.25013E+08         0.00000E+00
    0.00000E+00         0.00000E+00         0.10760E+08
 
    0.10779E+08         0.12309E+06         0.00000E+00
    0.12309E+06         0.24874E+08         0.00000E+00
    0.00000E+00         0.00000E+00         0.10696E+08
 
    0.10702E+08         0.12291E+06         0.00000E+00
    0.12291E+06         0.24731E+08         0.00000E+00
    0.00000E+00         0.00000E+00         0.10630E+08
 
    0.10622E+08         0.12245E+06         0.00000E+00
    0.12245E+06         0.24586E+08         0.00000E+00
    0.00000E+00         0.00000E+00         0.10562E+08
 
    0.10539E+08         0.12166E+06         0.00000E+00
    0.12166E+06         0.24438E+08         0.00000E+00
    0.00000E+00         0.00000E+00         0.10493E+08
 
    0.10452E+08         0.12049E+06         0.00000E+00
    0.12049E+06         0.24286E+08         0.00000E+00
    0.00000E+00         0.00000E+00         0.10422E+08
 
    0.10363E+08         0.11891E+06         0.00000E+00
    0.11891E+06         0.24132E+08         0.00000E+00
    0.00000E+00         0.00000E+00         0.10348E+08
 
    0.10269E+08         0.11685E+06         0.00000E+00
    0.11685E+06         0.23975E+08         0.00000E+00
    0.00000E+00         0.00000E+00         0.10273E+08
 
    0.10172E+08         0.11425E+06         0.00000E+00
    0.11425E+06         0.23815E+08         0.00000E+00
    0.00000E+00         0.00000E+00         0.10196E+08
 
    0.10071E+08         0.11104E+06         0.00000E+00
    0.11104E+06         0.23652E+08         0.00000E+00
    0.00000E+00         0.00000E+00         0.10117E+08
 
    0.99651E+07         0.10712E+06         0.00000E+00
    0.10712E+06         0.23487E+08         0.00000E+00
    0.00000E+00         0.00000E+00         0.10036E+08
 
    0.98549E+07         0.10241E+06         0.00000E+00
    0.10241E+06         0.23319E+08         0.00000E+00
    0.00000E+00         0.00000E+00         0.99521E+07
 
    0.97399E+07         0.96803E+05         0.00000E+00
    0.96803E+05         0.23148E+08         0.00000E+00
    0.00000E+00         0.00000E+00         0.98664E+07
 
    0.96198E+07         0.90186E+05         0.00000E+00
    0.90186E+05         0.22975E+08         0.00000E+00
    0.00000E+00         0.00000E+00         0.97783E+07
 
    0.94941E+07         0.82449E+05         0.00000E+00
    0.82449E+05         0.22799E+08         0.00000E+00
    0.00000E+00         0.00000E+00         0.96878E+07
 
    0.93625E+07         0.73485E+05         0.00000E+00
    0.73485E+05         0.22620E+08         0.00000E+00
    0.00000E+00         0.00000E+00         0.95949E+07
 
    0.92247E+07         0.63204E+05         0.00000E+00
    0.63204E+05         0.22440E+08         0.00000E+00
    0.00000E+00         0.00000E+00         0.94994E+07
 
    0.90802E+07         0.51543E+05         0.00000E+00
    0.51543E+05         0.22257E+08         0.00000E+00
    0.00000E+00         0.00000E+00         0.94013E+07
 
    0.89287E+07         0.38496E+05         0.00000E+00
    0.38496E+05         0.22073E+08         0.00000E+00
    0.00000E+00         0.00000E+00         0.93005E+07
 
    0.87699E+07         0.24128E+05         0.00000E+00
    0.24128E+05         0.21887E+08         0.00000E+00
    0.00000E+00         0.00000E+00         0.91970E+07
 
    0.86036E+07         0.86202E+04         0.00000E+00
    0.86202E+04         0.21699E+08         0.00000E+00
    0.00000E+00         0.00000E+00         0.90908E+07
 
    0.84298E+07        -0.76976E+04         0.00000E+00
   -0.76976E+04         0.21510E+08         0.00000E+00
    0.00000E+00         0.00000E+00         0.89820E+07
 
    0.82487E+07        -0.24289E+05         0.00000E+00
   -0.24289E+05         0.21321E+08         0.00000E+00
    0.00000E+00         0.00000E+00         0.88709E+07
 
    0.80610E+07        -0.40336E+05         0.00000E+00
   -0.40336E+05         0.21131E+08         0.00000E+00
    0.00000E+00         0.00000E+00         0.87576E+07
 
    0.78681E+07        -0.54585E+05         0.00000E+00
   -0.54585E+05         0.20941E+08         0.00000E+00
    0.00000E+00         0.00000E+00         0.86429E+07
 
    0.76723E+07        -0.65065E+05         0.00000E+00
   -0.65065E+05         0.20753E+08         0.00000E+00
    0.00000E+00         0.00000E+00         0.85276E+07
 
    0.74775E+07        -0.68029E+05         0.00000E+00
   -0.68029E+05         0.20568E+08         0.00000E+00
    0.00000E+00         0.00000E+00         0.84136E+07
 
    0.72876E+07        -0.56068E+05         0.00000E+00
   -0.56068E+05         0.20394E+08         0.00000E+00
    0.00000E+00         0.00000E+00         0.83045E+07
 
    0.71003E+07        -0.22647E+05         0.00000E+00
   -0.22647E+05         0.20253E+08         0.00000E+00
    0.00000E+00         0.00000E+00         0.82058E+07
 
    0.12947E+08        -0.28451E+04         0.00000E+00
   -0.28451E+04         0.29518E+08         0.00000E+00
    0.00000E+00         0.00000E+00         0.12739E+08
 
    0.12920E+08        -0.65864E+04         0.00000E+00
   -0.65864E+04         0.29497E+08         0.00000E+00
    0.00000E+00         0.00000E+00         0.12725E+08
 
    0.12894E+08        -0.70624E+04         0.00000E+00
   -0.70624E+04         0.29472E+08         0.00000E+00
    0.00000E+00         0.00000E+00         0.12710E+08
 
    0.12867E+08        -0.55314E+04         0.00000E+00
   -0.55314E+04         0.29445E+08         0.00000E+00
    0.00000E+00         0.00000E+00         0.12693E+08
 
    0.12840E+08        -0.30980E+04         0.00000E+00
   -0.30980E+04         0.29418E+08         0.00000E+00
    0.00000E+00         0.00000E+00         0.12677E+08
 
    0.12814E+08        -0.23009E+03         0.00000E+00
   -0.23009E+03         0.29390E+08         0.00000E+00
    0.00000E+00         0.00000E+00         0.12661E+08
 
    0.12789E+08         0.28336E+04         0.00000E+00
    0.28336E+04         0.29362E+08         0.00000E+00
    0.00000E+00         0.00000E+00         0.12645E+08
 
    0.12765E+08         0.59428E+04         0.00000E+00
    0.59428E+04         0.29333E+08         0.00000E+00
    0.00000E+00         0.00000E+00         0.12629E+08
 
    0.12742E+08         0.90020E+04         0.00000E+00
    0.90020E+04         0.29305E+08         0.00000E+00
    0.00000E+00         0.00000E+00         0.12614E+08
 
    0.12720E+08         0.11950E+05         0.00000E+00
    0.11950E+05         0.29276E+08         0.00000E+00
    0.00000E+00         0.00000E+00         0.12599E+08
 
    0.12700E+08         0.14750E+05         0.00000E+00
    0.14750E+05         0.29246E+08         0.00000E+00
    0.00000E+00         0.00000E+00         0.12584E+08
 
    0.12680E+08         0.17386E+05         0.00000E+00
    0.17386E+05         0.29217E+08         0.00000E+00
    0.00000E+00         0.00000E+00         0.12569E+08
 
    0.12661E+08         0.19854E+05         0.00000E+00
    0.19854E+05         0.29186E+08         0.00000E+00
    0.00000E+00         0.00000E+00         0.12554E+08
 
    0.12644E+08         0.22160E+05         0.00000E+00
    0.22160E+05         0.29156E+08         0.00000E+00
    0.00000E+00         0.00000E+00         0.12540E+08
 
    0.12626E+08         0.24315E+05         0.00000E+00
    0.24315E+05         0.29124E+08         0.00000E+00
    0.00000E+00         0.00000E+00         0.12525E+08
 
    0.12610E+08         0.26335E+05         0.00000E+00
    0.26335E+05         0.29093E+08         0.00000E+00
    0.00000E+00         0.00000E+00         0.12511E+08
 
    0.12593E+08         0.28237E+05         0.00000E+00
    0.28237E+05         0.29060E+08         0.00000E+00
    0.00000E+00         0.00000E+00         0.12496E+08
 
    0.12578E+08         0.30038E+05         0.00000E+00
    0.30038E+05         0.29028E+08         0.00000E+00
    0.00000E+00         0.00000E+00         0.12482E+08
 
    0.12562E+08         0.31754E+05         0.00000E+00
    0.31754E+05         0.28994E+08         0.00000E+00
    0.00000E+00         0.00000E+00         0.12467E+08
 
    0.12547E+08         0.33400E+05         0.00000E+00
    0.33400E+05         0.28960E+08         0.00000E+00
    0.00000E+00         0.00000E+00         0.12452E+08
 
    0.12532E+08         0.34989E+05         0.00000E+00
    0.34989E+05         0.28925E+08         0.00000E+00
    0.00000E+00         0.00000E+00         0.12437E+08
 
    0.12517E+08         0.36535E+05         0.00000E+00
    0.36535E+05         0.28889E+08         0.00000E+00
    0.00000E+00         0.00000E+00         0.12422E+08
 
    0.12502E+08         0.38047E+05         0.00000E+00
    0.38047E+05         0.28852E+08         0.00000E+00
    0.00000E+00         0.00000E+00         0.12406E+08
 
    0.12487E+08         0.39534E+05         0.00000E+00
    0.39534E+05         0.28815E+08         0.00000E+00
    0.00000E+00         0.00000E+00         0.12390E+08
 
    0.12472E+08         0.41005E+05         0.00000E+00
    0.41005E+05         0.28776E+08         0.00000E+00
    0.00000E+00         0.00000E+00         0.12374E+08
 
    0.12457E+08         0.42466E+05         0.00000E+00
    0.42466E+05         0.28736E+08         0.00000E+00
    0.00000E+00         0.00000E+00         0.12358E+08
 
    0.12441E+08         0.43922E+05         0.00000E+00
    0.43922E+05         0.28696E+08         0.00000E+00
    0.00000E+00         0.00000E+00         0.12341E+08
 
    0.12426E+08         0.45378E+05         0.00000E+00
    0.45378E+05         0.28654E+08         0.00000E+00
    0.00000E+00         0.00000E+00         0.12324E+08
 
    0.12410E+08         0.46838E+05         0.00000E+00
    0.46838E+05         0.28612E+08         0.00000E+00
    0.00000E+00         0.00000E+00         0.12306E+08
 
    0.12394E+08         0.48305E+05         0.00000E+00
    0.48305E+05         0.28568E+08         0.00000E+00
    0.00000E+00         0.00000E+00         0.12288E+08
 
    0.12377E+08         0.49782E+05         0.00000E+00
    0.49782E+05         0.28523E+08         0.00000E+00
    0.00000E+00         0.00000E+00         0.12270E+08
 
    0.12360E+08         0.51272E+05         0.00000E+00
    0.51272E+05         0.28476E+08         0.00000E+00
    0.00000E+00         0.00000E+00         0.12251E+08
 
    0.12343E+08         0.52775E+05         0.00000E+00
    0.52775E+05         0.28429E+08         0.00000E+00
    0.00000E+00         0.00000E+00         0.12231E+08
 
    0.12325E+08         0.54295E+05         0.00000E+00
    0.54295E+05         0.28380E+08         0.00000E+00
    0.00000E+00         0.00000E+00         0.12211E+08
 
    0.12306E+08         0.55831E+05         0.00000E+00
    0.55831E+05         0.28329E+08         0.00000E+00
    0.00000E+00         0.00000E+00         0.12191E+08
 
    0.12287E+08         0.57385E+05         0.00000E+00
    0.57385E+05         0.28277E+08         0.00000E+00
    0.00000E+00         0.00000E+00         0.12169E+08
 
    0.12268E+08         0.58957E+05         0.00000E+00
    0.58957E+05         0.28224E+08         0.00000E+00
    0.00000E+00         0.00000E+00         0.12147E+08
 
    0.12248E+08         0.60548E+05         0.00000E+00
    0.60548E+05         0.28169E+08         0.00000E+00
    0.00000E+00         0.00000E+00         0.12125E+08
 
    0.12227E+08         0.62158E+05         0.00000E+00
    0.62158E+05         0.28112E+08         0.00000E+00
    0.00000E+00         0.00000E+00         0.12102E+08
 
    0.12205E+08         0.63786E+05         0.00000E+00
    0.63786E+05         0.28054E+08         0.00000E+00
    0.00000E+00         0.00000E+00         0.12078E+08
 
    0.12183E+08         0.65433E+05         0.00000E+00
    0.65433E+05         0.27994E+08         0.00000E+00
    0.00000E+00         0.00000E+00         0.12053E+08
 
    0.12160E+08         0.67097E+05         0.00000E+00
    0.67097E+05         0.27932E+08         0.00000E+00
    0.00000E+00         0.00000E+00         0.12028E+08
 
    0.12136E+08         0.68778E+05         0.00000E+00
    0.68778E+05         0.27869E+08         0.00000E+00
    0.00000E+00         0.00000E+00         0.12001E+08
 
    0.12111E+08         0.70475E+05         0.00000E+00
    0.70475E+05         0.27803E+08         0.00000E+00
    0.00000E+00         0.00000E+00         0.11974E+08
 
    0.12085E+08         0.72187E+05         0.00000E+00
    0.72187E+05         0.27736E+08         0.00000E+00
    0.00000E+00         0.00000E+00         0.11946E+08
 
    0.12059E+08         0.73911E+05         0.00000E+00
    0.73911E+05         0.27666E+08         0.00000E+00
    0.00000E+00         0.00000E+00         0.11918E+08
 
    0.12031E+08         0.75647E+05         0.00000E+00
    0.75647E+05         0.27595E+08         0.00000E+00
    0.00000E+00         0.00000E+00         0.11888E+08
 
    0.12002E+08         0.77391E+05         0.00000E+00
    0.77391E+05         0.27522E+08         0.00000E+00
    0.00000E+00         0.00000E+00         0.11857E+08
 
    0.11972E+08         0.79142E+05         0.00000E+00
    0.79142E+05         0.27446E+08         0.00000E+00
    0.00000E+00         0.00000E+00         0.11826E+08
 
    0.11941E+08         0.80897E+05         0.00000E+00
    0.80897E+05         0.27368E+08         0.00000E+00
    0.00000E+00         0.00000E+00         0.11793E+08
 
    0.11909E+08         0.82653E+05         0.00000E+00
    0.82653E+05         0.27288E+08         0.00000E+00
    0.00000E+00         0.00000E+00         0.11759E+08
 
    0.11876E+08         0.84406E+05         0.00000E+00
    0.84406E+05         0.27206E+08         0.00000E+00
    0.00000E+00         0.00000E+00         0.11725E+08
 
    0.11841E+08         0.86153E+05         0.00000E+00
    0.86153E+05         0.27121E+08         0.00000E+00
    0.00000E+00         0.00000E+00         0.11689E+08
 
    0.11805E+08         0.87891E+05         0.00000E+00
    0.87891E+05         0.27034E+08         0.00000E+00
    0.00000E+00         0.00000E+00         0.11652E+08
 
    0.11768E+08         0.89613E+05         0.00000E+00
    0.89613E+05         0.26945E+08         0.00000E+00
    0.00000E+00         0.00000E+00         0.11614E+08
 
    0.11729E+08         0.91317E+05         0.00000E+00
    0.91317E+05         0.26853E+08         0.00000E+00
    0.00000E+00         0.00000E+00         0.11575E+08
 
    0.11688E+08         0.92995E+05         0.00000E+00
    0.92995E+05         0.26759E+08         0.00000E+00
    0.00000E+00         0.00000E+00         0.11534E+08
 
    0.11646E+08         0.94644E+05         0.00000E+00
    0.94644E+05         0.26662E+08         0.00000E+00
    0.00000E+00         0.00000E+00         0.11492E+08
 
    0.11603E+08         0.96256E+05         0.00000E+00
    0.96256E+05         0.26562E+08         0.00000E+00
    0.00000E+00         0.00000E+00         0.11449E+08
 
    0.11557E+08         0.97825E+05         0.00000E+00
    0.97825E+05         0.26460E+08         0.00000E+00
    0.00000E+00         0.00000E+00         0.11405E+08
 
    0.11510E+08         0.99344E+05         0.00000E+00
    0.99344E+05         0.26355E+08         0.00000E+00
    0.00000E+00         0.00000E+00         0.11360E+08
 
    0.11462E+08         0.10081E+06         0.00000E+00
    0.10081E+06         0.26247E+08         0.00000E+00
    0.00000E+00         0.00000E+00         0.11313E+08
 
    0.11411E+08         0.10220E+06         0.00000E+00
    0.10220E+06         0.26137E+08         0.00000E+00
    0.00000E+00         0.00000E+00         0.11264E+08
 
    0.11358E+08         0.10352E+06         0.00000E+00
    0.10352E+06         0.26023E+08         0.00000E+00
    0.00000E+00         0.00000E+00         0.11214E+08
 
    0.11303E+08         0.10475E+06         0.00000E+00
    0.10475E+06         0.25907E+08         0.00000E+00
    0.00000E+00         0.00000E+00         0.11163E+08
 
    0.11247E+08         0.10589E+06         0.00000E+00
    0.10589E+06         0.25788E+08         0.00000E+00
    0.00000E+00         0.00000E+00         0.11110E+08
 
    0.11188E+08         0.10692E+06         0.00000E+00
    0.10692E+06         0.25666E+08         0.00000E+00
    0.00000E+00         0.00000E+00         0.11056E+08
 
    0.11126E+08         0.10784E+06         0.00000E+00
    0.10784E+06         0.25542E+08         0.00000E+00
    0.00000E+00         0.00000E+00         0.11000E+08
 
    0.11063E+08         0.10861E+06         0.00000E+00
    0.10861E+06         0.25414E+08         0.00000E+00
    0.00000E+00         0.00000E+00         0.10943E+08
 
    0.10996E+08         0.10924E+06         0.00000E+00
    0.10924E+06         0.25283E+08         0.00000E+00
    0.00000E+00         0.00000E+00         0.10884E+08
 
    0.10928E+08         0.10970E+06         0.00000E+00
    0.10970E+06         0.25150E+08         0.00000E+00
    0.00000E+00         0.00000E+00         0.10823E+08
 
    0.10856E+08         0.10997E+06         0.00000E+00
    0.10997E+06         0.25013E+08         0.00000E+00
    0.00000E+00         0.00000E+00         0.10761E+08
 
    0.10782E+08         0.11004E+06         0.00000E+00
    0.11004E+06         0.24874E+08         0.00000E+00
    0.00000E+00         0.00000E+00         0.10697E+08
 
    0.10705E+08         0.10987E+06         0.00000E+00
    0.10987E+06         0.24731E+08         0.00000E+00
    0.00000E+00         0.00000E+00         0.10631E+08
 
    0.10625E+08         0.10944E+06         0.00000E+00
    0.10944E+06         0.24586E+08         0.00000E+00
    0.00000E+00         0.00000E+00         0.10563E+08
 
    0.10542E+08         0.10871E+06         0.00000E+00
    0.10871E+06         0.24438E+08         0.00000E+00
    0.00000E+00         0.00000E+00         0.10494E+08
 
    0.10455E+08         0.10765E+06         0.00000E+00
    0.10765E+06         0.24287E+08         0.00000E+00
    0.00000E+00         0.00000E+00         0.10423E+08
 
    0.10365E+08         0.10622E+06         0.00000E+00
    0.10622E+06         0.24132E+08         0.00000E+00
    0.00000E+00         0.00000E+00         0.10349E+08
 
    0.10272E+08         0.10435E+06         0.00000E+00
    0.10435E+06         0.23975E+08         0.00000E+00
    0.00000E+00         0.00000E+00         0.10274E+08
 
    0.10174E+08         0.10199E+06         0.00000E+00
    0.10199E+06         0.23816E+08         0.00000E+00
    0.00000E+00         0.00000E+00         0.10197E+08
 
    0.10072E+08         0.99075E+05         0.00000E+00
    0.99075E+05         0.23653E+08         0.00000E+00
    0.00000E+00         0.00000E+00         0.10118E+08
 
    0.99663E+07         0.95524E+05         0.00000E+00
    0.95524E+05         0.23488E+08         0.00000E+00
    0.00000E+00         0.00000E+00         0.10036E+08
 
    0.98557E+07         0.91248E+05         0.00000E+00
    0.91248E+05         0.23320E+08         0.00000E+00
    0.00000E+00         0.00000E+00         0.99526E+07
 
    0.97401E+07         0.86153E+05         0.00000E+00
    0.86153E+05         0.23149E+08         0.00000E+00
    0.00000E+00         0.00000E+00         0.98668E+07
 
    0.96192E+07         0.80136E+05         0.00000E+00
    0.80136E+05         0.22976E+08         0.00000E+00
    0.00000E+00         0.00000E+00         0.97785E+07
 
    0.94927E+07         0.73093E+05         0.00000E+00
    0.73093E+05         0.22800E+08         0.00000E+00
    0.00000E+00         0.00000E+00         0.96879E+07
 
    0.93601E+07         0.64922E+05         0.00000E+00
    0.64922E+05         0.22622E+08         0.00000E+00
    0.00000E+00         0.00000E+00         0.95947E+07
 
    0.92211E+07         0.55536E+05         0.00000E+00
    0.55536E+05         0.22442E+08         0.00000E+00
    0.00000E+00         0.00000E+00         0.94989E+07
 
    0.90751E+07         0.44875E+05         0.00000E+00
    0.44875E+05         0.22260E+08         0.00000E+00
    0.00000E+00         0.00000E+00         0.94005E+07
 
    0.89219E+07         0.32924E+05         0.00000E+00
    0.32924E+05         0.22076E+08         0.00000E+00
    0.00000E+00         0.00000E+00         0.92992E+07
 
    0.87610E+07         0.19739E+05         0.00000E+00
    0.19739E+05         0.21890E+08         0.00000E+00
    0.00000E+00         0.00000E+00         0.91952E+07
 
    0.85923E+07         0.54720E+04         0.00000E+00
    0.54720E+04         0.21702E+08         0.00000E+00
    0.00000E+00         0.00000E+00         0.90884E+07
 
    0.84156E+07        -0.95877E+04         0.00000E+00
   -0.95877E+04         0.21514E+08         0.00000E+00
    0.00000E+00         0.00000E+00         0.89788E+07
 
    0.82311E+07        -0.24972E+05         0.00000E+00
   -0.24972E+05         0.21324E+08         0.00000E+00
    0.00000E+00         0.00000E+00         0.88666E+07
 
    0.80396E+07        -0.39970E+05         0.00000E+00
   -0.39970E+05         0.21134E+08         0.00000E+00
    0.00000E+00         0.00000E+00         0.87521E+07
 
    0.78423E+07        -0.53487E+05         0.00000E+00
   -0.53487E+05         0.20944E+08         0.00000E+00
    0.00000E+00         0.00000E+00         0.86359E+07
 
    0.76415E+07        -0.63813E+05         0.00000E+00
   -0.63813E+05         0.20755E+08         0.00000E+00
    0.00000E+00         0.00000E+00         0.85188E+07
 
    0.74415E+07        -0.67632E+05         0.00000E+00
   -0.67632E+05         0.20568E+08         0.00000E+00
    0.00000E+00         0.00000E+00         0.84027E+07
 
    0.72476E+07        -0.57181E+05         0.00000E+00
   -0.57181E+05         0.20390E+08         0.00000E+00
    0.00000E+00         0.00000E+00         0.82911E+07
 
    0.70587E+07        -0.23649E+05         0.00000E+00
   -0.23649E+05         0.20244E+08         0.00000E+00
    0.00000E+00         0.00000E+00         0.81907E+07
 
    0.12954E+08        -0.30347E+04         0.00000E+00
   -0.30347E+04         0.29519E+08         0.00000E+00
    0.00000E+00         0.00000E+00         0.12742E+08
 
    0.12927E+08        -0.68187E+04         0.00000E+00
   -0.68187E+04         0.29498E+08         0.00000E+00
    0.00000E+00         0.00000E+00         0.12727E+08
 
    0.12900E+08        -0.71189E+04         0.00000E+00
   -0.71189E+04         0.29472E+08         0.00000E+00
    0.00000E+00         0.00000E+00         0.12711E+08
 
    0.12872E+08        -0.55737E+04         0.00000E+00
   -0.55737E+04         0.29445E+08         0.00000E+00
    0.00000E+00         0.00000E+00         0.12695E+08
 
    0.12844E+08        -0.32879E+04         0.00000E+00
   -0.32879E+04         0.29417E+08         0.00000E+00
    0.00000E+00         0.00000E+00         0.12678E+08
 
    0.12818E+08        -0.64725E+03         0.00000E+00
   -0.64725E+03         0.29389E+08         0.00000E+00
    0.00000E+00         0.00000E+00         0.12662E+08
 
    0.12792E+08         0.21454E+04         0.00000E+00
    0.21454E+04         0.29361E+08         0.00000E+00
    0.00000E+00         0.00000E+00         0.12646E+08
 
    0.12768E+08         0.49628E+04         0.00000E+00
    0.49628E+04         0.29333E+08         0.00000E+00
    0.00000E+00         0.00000E+00         0.12630E+08
 
    0.12745E+08         0.77241E+04         0.00000E+00
    0.77241E+04         0.29304E+08         0.00000E+00
    0.00000E+00         0.00000E+00         0.12615E+08
 
    0.12723E+08         0.10377E+05         0.00000E+00
    0.10377E+05         0.29275E+08         0.00000E+00
    0.00000E+00         0.00000E+00         0.12599E+08
 
    0.12702E+08         0.12892E+05         0.00000E+00
    0.12892E+05         0.29246E+08         0.00000E+00
    0.00000E+00         0.00000E+00         0.12584E+08
 
    0.12682E+08         0.15254E+05         0.00000E+00
    0.15254E+05         0.29216E+08         0.00000E+00
    0.00000E+00         0.00000E+00         0.12569E+08
 
    0.12663E+08         0.17460E+05         0.00000E+00
    0.17460E+05         0.29186E+08         0.00000E+00
    0.00000E+00         0.00000E+00         0.12555E+08
 
    0.12645E+08         0.19518E+05         0.00000E+00
    0.19518E+05         0.29155E+08         0.00000E+00
    0.00000E+00         0.00000E+00         0.12540E+08
 
    0.12628E+08         0.21439E+05         0.00000E+00
    0.21439E+05         0.29124E+08         0.00000E+00
    0.00000E+00         0.00000E+00         0.12526E+08
 
    0.12611E+08         0.23236E+05         0.00000E+00
    0.23236E+05         0.29092E+08         0.00000E+00
    0.00000E+00         0.00000E+00         0.12511E+08
 
    0.12595E+08         0.24926E+05         0.00000E+00
    0.24926E+05         0.29060E+08         0.00000E+00
    0.00000E+00         0.00000E+00         0.12497E+08
 
    0.12580E+08         0.26524E+05         0.00000E+00
    0.26524E+05         0.29027E+08         0.00000E+00
    0.00000E+00         0.00000E+00         0.12482E+08
 
    0.12564E+08         0.28045E+05         0.00000E+00
    0.28045E+05         0.28994E+08         0.00000E+00
    0.00000E+00         0.00000E+00         0.12467E+08
 
    0.12549E+08         0.29502E+05         0.00000E+00
    0.29502E+05         0.28959E+08         0.00000E+00
    0.00000E+00         0.00000E+00         0.12452E+08
 
    0.12534E+08         0.30909E+05         0.00000E+00
    0.30909E+05         0.28924E+08         0.00000E+00
    0.00000E+00         0.00000E+00         0.12437E+08
 
    0.12519E+08         0.32276E+05         0.00000E+00
    0.32276E+05         0.28888E+08         0.00000E+00
    0.00000E+00         0.00000E+00         0.12422E+08
 
    0.12504E+08         0.33613E+05         0.00000E+00
    0.33613E+05         0.28852E+08         0.00000E+00
    0.00000E+00         0.00000E+00         0.12407E+08
 
    0.12489E+08         0.34928E+05         0.00000E+00
    0.34928E+05         0.28814E+08         0.00000E+00
    0.00000E+00         0.00000E+00         0.12391E+08
 
    0.12474E+08         0.36227E+05         0.00000E+00
    0.36227E+05         0.28776E+08         0.00000E+00
    0.00000E+00         0.00000E+00         0.12375E+08
 
    0.12459E+08         0.37517E+05         0.00000E+00
    0.37517E+05         0.28736E+08         0.00000E+00
    0.00000E+00         0.00000E+00         0.12359E+08
 
    0.12444E+08         0.38803E+05         0.00000E+00
    0.38803E+05         0.28696E+08         0.00000E+00
    0.00000E+00         0.00000E+00         0.12342E+08
 
    0.12428E+08         0.40089E+05         0.00000E+00
    0.40089E+05         0.28654E+08         0.00000E+00
    0.00000E+00         0.00000E+00         0.12325E+08
 
    0.12412E+08         0.41379E+05         0.00000E+00
    0.41379E+05         0.28611E+08         0.00000E+00
    0.00000E+00         0.00000E+00         0.12307E+08
 
    0.12396E+08         0.42674E+05         0.00000E+00
    0.42674E+05         0.28567E+08         0.00000E+00
    0.00000E+00         0.00000E+00         0.12289E+08
 
    0.12380E+08         0.43979E+05         0.00000E+00
    0.43979E+05         0.28522E+08         0.00000E+00
    0.00000E+00         0.00000E+00         0.12271E+08
 
    0.12363E+08         0.45294E+05         0.00000E+00
    0.45294E+05         0.28476E+08         0.00000E+00
    0.00000E+00         0.00000E+00         0.12252E+08
 
    0.12345E+08         0.46621E+05         0.00000E+00
    0.46621E+05         0.28428E+08         0.00000E+00
    0.00000E+00         0.00000E+00         0.12232E+08
 
    0.12327E+08         0.47963E+05         0.00000E+00
    0.47963E+05         0.28379E+08         0.00000E+00
    0.00000E+00         0.00000E+00         0.12212E+08
 
    0.12309E+08         0.49319E+05         0.00000E+00
    0.49319E+05         0.28329E+08         0.00000E+00
    0.00000E+00         0.00000E+00         0.12191E+08
 
    0.12290E+08         0.50691E+05         0.00000E+00
    0.50691E+05         0.28277E+08         0.00000E+00
    0.00000E+00         0.00000E+00         0.12170E+08
 
    0.12271E+08         0.52078E+05         0.00000E+00
    0.52078E+05         0.28223E+08         0.00000E+00
    0.00000E+00         0.00000E+00         0.12148E+08
 
    0.12251E+08         0.53482E+05         0.00000E+00
    0.53482E+05         0.28168E+08         0.00000E+00
    0.00000E+00         0.00000E+00         0.12126E+08
 
    0.12230E+08         0.54903E+05         0.00000E+00
    0.54903E+05         0.28112E+08         0.00000E+00
    0.00000E+00         0.00000E+00         0.12103E+08
 
    0.12208E+08         0.56340E+05         0.00000E+00
    0.56340E+05         0.28054E+08         0.00000E+00
    0.00000E+00         0.00000E+00         0.12079E+08
 
    0.12186E+08         0.57793E+05         0.00000E+00
    0.57793E+05         0.27994E+08         0.00000E+00
    0.00000E+00         0.00000E+00         0.12054E+08
 
    0.12163E+08         0.59261E+05         0.00000E+00
    0.59261E+05         0.27932E+08         0.00000E+00
    0.00000E+00         0.00000E+00         0.12028E+08
 
    0.12139E+08         0.60744E+05         0.00000E+00
    0.60744E+05         0.27868E+08         0.00000E+00
    0.00000E+00         0.00000E+00         0.12002E+08
 
    0.12114E+08         0.62241E+05         0.00000E+00
    0.62241E+05         0.27803E+08         0.00000E+00
    0.00000E+00         0.00000E+00         0.11975E+08
 
    0.12089E+08         0.63751E+05         0.00000E+00
    0.63751E+05         0.27735E+08         0.00000E+00
    0.00000E+00         0.00000E+00         0.11947E+08
 
    0.12062E+08         0.65271E+05         0.00000E+00
    0.65271E+05         0.27666E+08         0.00000E+00
    0.00000E+00         0.00000E+00         0.11918E+08
 
    0.12035E+08         0.66802E+05         0.00000E+00
    0.66802E+05         0.27595E+08         0.00000E+00
    0.00000E+00         0.00000E+00         0.11889E+08
 
    0.12006E+08         0.68340E+05         0.00000E+00
    0.68340E+05         0.27521E+08         0.00000E+00
    0.00000E+00         0.00000E+00         0.11858E+08
 
    0.11976E+08         0.69884E+05         0.00000E+00
    0.69884E+05         0.27446E+08         0.00000E+00
    0.00000E+00         0.00000E+00         0.11827E+08
 
    0.11945E+08         0.71431E+05         0.00000E+00
    0.71431E+05         0.27368E+08         0.00000E+00
    0.00000E+00         0.00000E+00         0.11794E+08
 
    0.11913E+08         0.72978E+05         0.00000E+00
    0.72978E+05         0.27288E+08         0.00000E+00
    0.00000E+00         0.00000E+00         0.11760E+08
 
    0.11880E+08         0.74523E+05         0.00000E+00
    0.74523E+05         0.27206E+08         0.00000E+00
    0.00000E+00         0.00000E+00         0.11726E+08
 
    0.11845E+08         0.76063E+05         0.00000E+00
    0.76063E+05         0.27121E+08         0.00000E+00
    0.00000E+00         0.00000E+00         0.11690E+08
 
    0.11809E+08         0.77593E+05         0.00000E+00
    0.77593E+05         0.27034E+08         0.00000E+00
    0.00000E+00         0.00000E+00         0.11653E+08
 
    0.11772E+08         0.79110E+05         0.00000E+00
    0.79110E+05         0.26945E+08         0.00000E+00
    0.00000E+00         0.00000E+00         0.11615E+08
 
    0.11733E+08         0.80610E+05         0.00000E+00
    0.80610E+05         0.26853E+08         0.00000E+00
    0.00000E+00         0.00000E+00         0.11576E+08
 
    0.11692E+08         0.82088E+05         0.00000E+00
    0.82088E+05         0.26758E+08         0.00000E+00
    0.00000E+00         0.00000E+00         0.11535E+08
 
    0.11651E+08         0.83538E+05         0.00000E+00
    0.83538E+05         0.26661E+08         0.00000E+00
    0.00000E+00         0.00000E+00         0.11494E+08
 
    0.11607E+08         0.84957E+05         0.00000E+00
    0.84957E+05         0.26562E+08         0.00000E+00
    0.00000E+00         0.00000E+00         0.11451E+08
 
    0.11562E+08         0.86337E+05         0.00000E+00
    0.86337E+05         0.26459E+08         0.00000E+00
    0.00000E+00         0.00000E+00         0.11406E+08
 
    0.11515E+08         0.87673E+05         0.00000E+00
    0.87673E+05         0.26354E+08         0.00000E+00
    0.00000E+00         0.00000E+00         0.11361E+08
 
    0.11466E+08         0.88957E+05         0.00000E+00
    0.88957E+05         0.26247E+08         0.00000E+00
    0.00000E+00         0.00000E+00         0.11314E+08
 
    0.11415E+08         0.90182E+05         0.00000E+00
    0.90182E+05         0.26136E+08         0.00000E+00
    0.00000E+00         0.00000E+00         0.11265E+08
 
    0.11362E+08         0.91340E+05         0.00000E+00
    0.91340E+05         0.26023E+08         0.00000E+00
    0.00000E+00         0.00000E+00         0.11216E+08
 
    0.11308E+08         0.92423E+05         0.00000E+00
    0.92423E+05         0.25907E+08         0.00000E+00
    0.00000E+00         0.00000E+00         0.11164E+08
 
    0.11251E+08         0.93421E+05         0.00000E+00
    0.93421E+05         0.25788E+08         0.00000E+00
    0.00000E+00         0.00000E+00         0.11112E+08
 
    0.11192E+08         0.94323E+05         0.00000E+00
    0.94323E+05         0.25666E+08         0.00000E+00
    0.00000E+00         0.00000E+00         0.11057E+08
 
    0.11130E+08         0.95119E+05         0.00000E+00
    0.95119E+05         0.25542E+08         0.00000E+00
    0.00000E+00         0.00000E+00         0.11002E+08
 
    0.11067E+08         0.95796E+05         0.00000E+00
    0.95796E+05         0.25414E+08         0.00000E+00
    0.00000E+00         0.00000E+00         0.10944E+08
 
    0.11000E+08         0.96341E+05         0.00000E+00
    0.96341E+05         0.25283E+08         0.00000E+00
    0.00000E+00         0.00000E+00         0.10885E+08
 
    0.10932E+08         0.96737E+05         0.00000E+00
    0.96737E+05         0.25150E+08         0.00000E+00
    0.00000E+00         0.00000E+00         0.10824E+08
 
    0.10860E+08         0.96969E+05         0.00000E+00
    0.96969E+05         0.25013E+08         0.00000E+00
    0.00000E+00         0.00000E+00         0.10762E+08
 
    0.10786E+08         0.97016E+05         0.00000E+00
    0.97016E+05         0.24874E+08         0.00000E+00
    0.00000E+00         0.00000E+00         0.10698E+08
 
    0.10709E+08         0.96856E+05         0.00000E+00
    0.96856E+05         0.24732E+08         0.00000E+00
    0.00000E+00         0.00000E+00         0.10632E+08
 
    0.10628E+08         0.96464E+05         0.00000E+00
    0.96464E+05         0.24586E+08         0.00000E+00
    0.00000E+00         0.00000E+00         0.10564E+08
 
    0.10545E+08         0.95810E+05         0.00000E+00
    0.95810E+05         0.24438E+08         0.00000E+00
    0.00000E+00         0.00000E+00         0.10495E+08
 
    0.10458E+08         0.94859E+05         0.00000E+00
    0.94859E+05         0.24287E+08         0.00000E+00
    0.00000E+00         0.00000E+00         0.10424E+08
 
    0.10368E+08         0.93572E+05         0.00000E+00
    0.93572E+05         0.24133E+08         0.00000E+00
    0.00000E+00         0.00000E+00         0.10350E+08
 
    0.10274E+08         0.91902E+05         0.00000E+00
    0.91902E+05         0.23976E+08         0.00000E+00
    0.00000E+00         0.00000E+00         0.10275E+08
 
    0.10176E+08         0.89796E+05         0.00000E+00
    0.89796E+05         0.23816E+08         0.00000E+00
    0.00000E+00         0.00000E+00         0.10198E+08
 
    0.10074E+08         0.87190E+05         0.00000E+00
    0.87190E+05         0.23654E+08         0.00000E+00
    0.00000E+00         0.00000E+00         0.10118E+08
 
    0.99678E+07         0.84015E+05         0.00000E+00
    0.84015E+05         0.23488E+08         0.00000E+00
    0.00000E+00         0.00000E+00         0.10037E+08
 
    0.98566E+07         0.80191E+05         0.00000E+00
    0.80191E+05         0.23321E+08         0.00000E+00
    0.00000E+00         0.00000E+00         0.99532E+07
 
    0.97405E+07         0.75630E+05         0.00000E+00
    0.75630E+05         0.23150E+08         0.00000E+00
    0.00000E+00         0.00000E+00         0.98672E+07
 
    0.96189E+07         0.70237E+05         0.00000E+00
    0.70237E+05         0.22977E+08         0.00000E+00
    0.00000E+00         0.00000E+00         0.97788E+07
 
    0.94916E+07         0.63917E+05         0.00000E+00
    0.63917E+05         0.22802E+08         0.00000E+00
    0.00000E+00         0.00000E+00         0.96880E+07
 
    0.93581E+07         0.56575E+05         0.00000E+00
    0.56575E+05         0.22624E+08         0.00000E+00
    0.00000E+00         0.00000E+00         0.95946E+07
 
    0.92179E+07         0.48128E+05         0.00000E+00
    0.48128E+05         0.22444E+08         0.00000E+00
    0.00000E+00         0.00000E+00         0.94985E+07
 
    0.90705E+07         0.38519E+05         0.00000E+00
    0.38519E+05         0.22262E+08         0.00000E+00
    0.00000E+00         0.00000E+00         0.93997E+07
 
    0.89156E+07         0.27726E+05         0.00000E+00
    0.27726E+05         0.22078E+08         0.00000E+00
    0.00000E+00         0.00000E+00         0.92981E+07
 
    0.87527E+07         0.15795E+05         0.00000E+00
    0.15795E+05         0.21892E+08         0.00000E+00
    0.00000E+00         0.00000E+00         0.91935E+07
 
    0.85815E+07         0.28515E+04         0.00000E+00
    0.28515E+04         0.21705E+08         0.00000E+00
    0.00000E+00         0.00000E+00         0.90860E+07
 
    0.84020E+07        -0.10857E+05         0.00000E+00
   -0.10857E+05         0.21517E+08         0.00000E+00
    0.00000E+00         0.00000E+00         0.89755E+07
 
    0.82141E+07        -0.24929E+05         0.00000E+00
   -0.24929E+05         0.21327E+08         0.00000E+00
    0.00000E+00         0.00000E+00         0.88624E+07
 
    0.80186E+07        -0.38761E+05         0.00000E+00
   -0.38761E+05         0.21137E+08         0.00000E+00
    0.00000E+00         0.00000E+00         0.87466E+07
 
    0.78166E+07        -0.51424E+05         0.00000E+00
   -0.51424E+05         0.20946E+08         0.00000E+00
    0.00000E+00         0.00000E+00         0.86289E+07
 
    0.76106E+07        -0.61460E+05         0.00000E+00
   -0.61460E+05         0.20756E+08         0.00000E+00
    0.00000E+00         0.00000E+00         0.85101E+07
 
    0.74047E+07        -0.66132E+05         0.00000E+00
   -0.66132E+05         0.20567E+08         0.00000E+00
    0.00000E+00         0.00000E+00         0.83916E+07
 
    0.72057E+07        -0.57672E+05         0.00000E+00
   -0.57672E+05         0.20385E+08         0.00000E+00
    0.00000E+00         0.00000E+00         0.82773E+07
 
    0.70148E+07        -0.24599E+05         0.00000E+00
   -0.24599E+05         0.20234E+08         0.00000E+00
    0.00000E+00         0.00000E+00         0.81747E+07
 
    0.12961E+08        -0.32158E+04         0.00000E+00
   -0.32158E+04         0.29520E+08         0.00000E+00
    0.00000E+00         0.00000E+00         0.12744E+08
 
    0.12934E+08        -0.69380E+04         0.00000E+00
   -0.69380E+04         0.29498E+08         0.00000E+00
    0.00000E+00         0.00000E+00         0.12730E+08
 
    0.12906E+08        -0.69968E+04         0.00000E+00
   -0.69968E+04         0.29471E+08         0.00000E+00
    0.00000E+00         0.00000E+00         0.12713E+08
 
    0.12877E+08        -0.54561E+04         0.00000E+00
   -0.54561E+04         0.29444E+08         0.00000E+00
    0.00000E+00         0.00000E+00         0.12696E+08
 
    0.12849E+08        -0.33450E+04         0.00000E+00
   -0.33450E+04         0.29417E+08         0.00000E+00
    0.00000E+00         0.00000E+00         0.12680E+08
 
    0.12821E+08        -0.95346E+03         0.00000E+00
   -0.95346E+03         0.29389E+08         0.00000E+00
    0.00000E+00         0.00000E+00         0.12663E+08
 
    0.12795E+08         0.15482E+04         0.00000E+00
    0.15482E+04         0.29361E+08         0.00000E+00
    0.00000E+00         0.00000E+00         0.12647E+08
 
    0.12771E+08         0.40567E+04         0.00000E+00
    0.40567E+04         0.29332E+08         0.00000E+00
    0.00000E+00         0.00000E+00         0.12631E+08
 
    0.12747E+08         0.65055E+04         0.00000E+00
    0.65055E+04         0.29304E+08         0.00000E+00
    0.00000E+00         0.00000E+00         0.12615E+08
 
    0.12725E+08         0.88512E+04         0.00000E+00
    0.88512E+04         0.29275E+08         0.00000E+00
    0.00000E+00         0.00000E+00         0.12600E+08
 
    0.12704E+08         0.11069E+05         0.00000E+00
    0.11069E+05         0.29245E+08         0.00000E+00
    0.00000E+00         0.00000E+00         0.12585E+08
 
    0.12684E+08         0.13147E+05         0.00000E+00
    0.13147E+05         0.29216E+08         0.00000E+00
    0.00000E+00         0.00000E+00         0.12570E+08
 
    0.12665E+08         0.15085E+05         0.00000E+00
    0.15085E+05         0.29185E+08         0.00000E+00
    0.00000E+00         0.00000E+00         0.12555E+08
 
    0.12647E+08         0.16889E+05         0.00000E+00
    0.16889E+05         0.29155E+08         0.00000E+00
    0.00000E+00         0.00000E+00         0.12541E+08
 
    0.12630E+08         0.18570E+05         0.00000E+00
    0.18570E+05         0.29124E+08         0.00000E+00
    0.00000E+00         0.00000E+00         0.12526E+08
 
    0.12613E+08         0.20140E+05         0.00000E+00
    0.20140E+05         0.29092E+08         0.00000E+00
    0.00000E+00         0.00000E+00         0.12512E+08
 
    0.12597E+08         0.21614E+05         0.00000E+00
    0.21614E+05         0.29060E+08         0.00000E+00
    0.00000E+00         0.00000E+00         0.12497E+08
 
    0.12581E+08         0.23006E+05         0.00000E+00
    0.23006E+05         0.29027E+08         0.00000E+00
    0.00000E+00         0.00000E+00         0.12482E+08
 
    0.12566E+08         0.24330E+05         0.00000E+00
    0.24330E+05         0.28993E+08         0.00000E+00
    0.00000E+00         0.00000E+00         0.12468E+08
 
    0.12551E+08         0.25598E+05         0.00000E+00
    0.25598E+05         0.28959E+08         0.00000E+00
    0.00000E+00         0.00000E+00         0.12453E+08
 
    0.12536E+08         0.26821E+05         0.00000E+00
    0.26821E+05         0.28924E+08         0.00000E+00
    0.00000E+00         0.00000E+00         0.12438E+08
 
    0.12521E+08         0.28008E+05         0.00000E+00
    0.28008E+05         0.28888E+08         0.00000E+00
    0.00000E+00         0.00000E+00         0.12423E+08
 
    0.12506E+08         0.29169E+05         0.00000E+00
    0.29169E+05         0.28852E+08         0.00000E+00
    0.00000E+00         0.00000E+00         0.12407E+08
 
    0.12491E+08         0.30310E+05         0.00000E+00
    0.30310E+05         0.28814E+08         0.00000E+00
    0.00000E+00         0.00000E+00         0.12391E+08
 
    0.12476E+08         0.31438E+05         0.00000E+00
    0.31438E+05         0.28775E+08         0.00000E+00
    0.00000E+00         0.00000E+00         0.12375E+08
 
    0.12461E+08         0.32557E+05         0.00000E+00
    0.32557E+05         0.28736E+08         0.00000E+00
    0.00000E+00         0.00000E+00         0.12359E+08
 
    0.12446E+08         0.33673E+05         0.00000E+00
    0.33673E+05         0.28695E+08         0.00000E+00
    0.00000E+00         0.00000E+00         0.12342E+08
 
    0.12430E+08         0.34788E+05         0.00000E+00
    0.34788E+05         0.28654E+08         0.00000E+00
    0.00000E+00         0.00000E+00         0.12325E+08
 
    0.12414E+08         0.35907E+05         0.00000E+00
    0.35907E+05         0.28611E+08         0.00000E+00
    0.00000E+00         0.00000E+00         0.12308E+08
 
    0.12398E+08         0.37030E+05         0.00000E+00
    0.37030E+05         0.28567E+08         0.00000E+00
    0.00000E+00         0.00000E+00         0.12290E+08
 
    0.12382E+08         0.38162E+05         0.00000E+00
    0.38162E+05         0.28522E+08         0.00000E+00
    0.00000E+00         0.00000E+00         0.12271E+08
 
    0.12365E+08         0.39302E+05         0.00000E+00
    0.39302E+05         0.28476E+08         0.00000E+00
    0.00000E+00         0.00000E+00         0.12252E+08
 
    0.12348E+08         0.40453E+05         0.00000E+00
    0.40453E+05         0.28428E+08         0.00000E+00
    0.00000E+00         0.00000E+00         0.12233E+08
 
    0.12330E+08         0.41616E+05         0.00000E+00
    0.41616E+05         0.28379E+08         0.00000E+00
    0.00000E+00         0.00000E+00         0.12213E+08
 
    0.12312E+08         0.42792E+05         0.00000E+00
    0.42792E+05         0.28329E+08         0.00000E+00
    0.00000E+00         0.00000E+00         0.12192E+08
 
    0.12293E+08         0.43981E+05         0.00000E+00
    0.43981E+05         0.28277E+08         0.00000E+00
    0.00000E+00         0.00000E+00         0.12171E+08
 
    0.12274E+08         0.45184E+05         0.00000E+00
    0.45184E+05         0.28223E+08         0.00000E+00
    0.00000E+00         0.00000E+00         0.12149E+08
 
    0.12254E+08         0.46402E+05         0.00000E+00
    0.46402E+05         0.28168E+08         0.00000E+00
    0.00000E+00         0.00000E+00         0.12127E+08
 
    0.12233E+08         0.47633E+05         0.00000E+00
    0.47633E+05         0.28112E+08         0.00000E+00
    0.00000E+00         0.00000E+00         0.12103E+08
 
    0.12211E+08         0.48878E+05         0.00000E+00
    0.48878E+05         0.28053E+08         0.00000E+00
    0.00000E+00         0.00000E+00         0.12079E+08
 
    0.12189E+08         0.50138E+05         0.00000E+00
    0.50138E+05         0.27993E+08         0.00000E+00
    0.00000E+00         0.00000E+00         0.12055E+08
 
    0.12166E+08         0.51410E+05         0.00000E+00
    0.51410E+05         0.27932E+08         0.00000E+00
    0.00000E+00         0.00000E+00         0.12029E+08
 
    0.12142E+08         0.52695E+05         0.00000E+00
    0.52695E+05         0.27868E+08         0.00000E+00
    0.00000E+00         0.00000E+00         0.12003E+08
 
    0.12118E+08         0.53992E+05         0.00000E+00
    0.53992E+05         0.27803E+08         0.00000E+00
    0.00000E+00         0.00000E+00         0.11976E+08
 
    0.12092E+08         0.55300E+05         0.00000E+00
    0.55300E+05         0.27735E+08         0.00000E+00
    0.00000E+00         0.00000E+00         0.11948E+08
 
    0.12066E+08         0.56617E+05         0.00000E+00
    0.56617E+05         0.27666E+08         0.00000E+00
    0.00000E+00         0.00000E+00         0.11919E+08
 
    0.12038E+08         0.57943E+05         0.00000E+00
    0.57943E+05         0.27594E+08         0.00000E+00
    0.00000E+00         0.00000E+00         0.11890E+08
 
    0.12009E+08         0.59275E+05         0.00000E+00
    0.59275E+05         0.27521E+08         0.00000E+00
    0.00000E+00         0.00000E+00         0.11859E+08
 
    0.11980E+08         0.60612E+05         0.00000E+00
    0.60612E+05         0.27445E+08         0.00000E+00
    0.00000E+00         0.00000E+00         0.11828E+08
 
    0.11949E+08         0.61951E+05         0.00000E+00
    0.61951E+05         0.27368E+08         0.00000E+00
    0.00000E+00         0.00000E+00         0.11795E+08
 
    0.11917E+08         0.63291E+05         0.00000E+00
    0.63291E+05         0.27288E+08         0.00000E+00
    0.00000E+00         0.00000E+00         0.11761E+08
 
    0.11884E+08         0.64628E+05         0.00000E+00
    0.64628E+05         0.27205E+08         0.00000E+00
    0.00000E+00         0.00000E+00         0.11727E+08
 
    0.11849E+08         0.65961E+05         0.00000E+00
    0.65961E+05         0.27121E+08         0.00000E+00
    0.00000E+00         0.00000E+00         0.11691E+08
 
    0.11813E+08         0.67285E+05         0.00000E+00
    0.67285E+05         0.27034E+08         0.00000E+00
    0.00000E+00         0.00000E+00         0.11654E+08
 
    0.11776E+08         0.68597E+05         0.00000E+00
    0.68597E+05         0.26944E+08         0.00000E+00
    0.00000E+00         0.00000E+00         0.11616E+08
 
    0.11737E+08         0.69894E+05         0.00000E+00
    0.69894E+05         0.26852E+08         0.00000E+00
    0.00000E+00         0.00000E+00         0.11577E+08
 
    0.11697E+08         0.71172E+05         0.00000E+00
    0.71172E+05         0.26758E+08         0.00000E+00
    0.00000E+00         0.00000E+00         0.11536E+08
 
    0.11655E+08         0.72427E+05         0.00000E+00
    0.72427E+05         0.26661E+08         0.00000E+00
    0.00000E+00         0.00000E+00         0.11495E+08
 
    0.11611E+08         0.73653E+05         0.00000E+00
    0.73653E+05         0.26561E+08         0.00000E+00
    0.00000E+00         0.00000E+00         0.11452E+08
 
    0.11566E+08         0.74845E+05         0.00000E+00
    0.74845E+05         0.26459E+08         0.00000E+00
    0.00000E+00         0.00000E+00         0.11408E+08
 
    0.11519E+08         0.75998E+05         0.00000E+00
    0.75998E+05         0.26354E+08         0.00000E+00
    0.00000E+00         0.00000E+00         0.11362E+08
 
    0.11470E+08         0.77107E+05         0.00000E+00
    0.77107E+05         0.26247E+08         0.00000E+00
    0.00000E+00         0.00000E+00         0.11315E+08
 
    0.11419E+08         0.78164E+05         0.00000E+00
    0.78164E+05         0.26136E+08         0.00000E+00
    0.00000E+00         0.00000E+00         0.11267E+08
 
    0.11367E+08         0.79163E+05         0.00000E+00
    0.79163E+05         0.26023E+08         0.00000E+00
    0.00000E+00         0.00000E+00         0.11217E+08
 
    0.11312E+08         0.80096E+05         0.00000E+00
    0.80096E+05         0.25907E+08         0.00000E+00
    0.00000E+00         0.00000E+00         0.11166E+08
 
    0.11255E+08         0.80955E+05         0.00000E+00
    0.80955E+05         0.25788E+08         0.00000E+00
    0.00000E+00         0.00000E+00         0.11113E+08
 
    0.11196E+08         0.81731E+05         0.00000E+00
    0.81731E+05         0.25666E+08         0.00000E+00
    0.00000E+00         0.00000E+00         0.11059E+08
 
    0.11135E+08         0.82414E+05         0.00000E+00
    0.82414E+05         0.25541E+08         0.00000E+00
    0.00000E+00         0.00000E+00         0.11003E+08
 
    0.11071E+08         0.82994E+05         0.00000E+00
    0.82994E+05         0.25414E+08         0.00000E+00
    0.00000E+00         0.00000E+00         0.10945E+08
 
    0.11004E+08         0.83458E+05         0.00000E+00
    0.83458E+05         0.25283E+08         0.00000E+00
    0.00000E+00         0.00000E+00         0.10886E+08
 
    0.10936E+08         0.83794E+05         0.00000E+00
    0.83794E+05         0.25150E+08         0.00000E+00
    0.00000E+00         0.00000E+00         0.10826E+08
 
    0.10864E+08         0.83987E+05         0.00000E+00
    0.83987E+05         0.25013E+08         0.00000E+00
    0.00000E+00         0.00000E+00         0.10763E+08
 
    0.10790E+08         0.84019E+05         0.00000E+00
    0.84019E+05         0.24874E+08         0.00000E+00
    0.00000E+00         0.00000E+00         0.10699E+08
 
    0.10712E+08         0.83871E+05         0.00000E+00
    0.83871E+05         0.24732E+08         0.00000E+00
    0.00000E+00         0.00000E+00         0.10633E+08
 
    0.10632E+08         0.83521E+05         0.00000E+00
    0.83521E+05         0.24586E+08         0.00000E+00
    0.00000E+00         0.00000E+00         0.10565E+08
 
    0.10548E+08         0.82942E+05         0.00000E+00
    0.82942E+05         0.24438E+08         0.00000E+00
    0.00000E+00         0.00000E+00         0.10496E+08
 
    0.10461E+08         0.82106E+05         0.00000E+00
    0.82106E+05         0.24287E+08         0.00000E+00
    0.00000E+00         0.00000E+00         0.10425E+08
 
    0.10371E+08         0.80975E+05         0.00000E+00
    0.80975E+05         0.24133E+08         0.00000E+00
    0.00000E+00         0.00000E+00         0.10351E+08
 
    0.10277E+08         0.79510E+05         0.00000E+00
    0.79510E+05         0.23976E+08         0.00000E+00
    0.00000E+00         0.00000E+00         0.10276E+08
 
    0.10179E+08         0.77663E+05         0.00000E+00
    0.77663E+05         0.23817E+08         0.00000E+00
    0.00000E+00         0.00000E+00         0.10199E+08
 
    0.10076E+08         0.75377E+05         0.00000E+00
    0.75377E+05         0.23654E+08         0.00000E+00
    0.00000E+00         0.00000E+00         0.10119E+08
 
    0.99694E+07         0.72592E+05         0.00000E+00
    0.72592E+05         0.23489E+08         0.00000E+00
    0.00000E+00         0.00000E+00         0.10038E+08
 
    0.98579E+07         0.69234E+05         0.00000E+00
    0.69234E+05         0.23321E+08         0.00000E+00
    0.00000E+00         0.00000E+00         0.99538E+07
 
    0.97412E+07         0.65225E+05         0.00000E+00
    0.65225E+05         0.23151E+08         0.00000E+00
    0.00000E+00         0.00000E+00         0.98677E+07
 
    0.96190E+07         0.60481E+05         0.00000E+00
    0.60481E+05         0.22978E+08         0.00000E+00
    0.00000E+00         0.00000E+00         0.97792E+07
 
    0.94909E+07         0.54913E+05         0.00000E+00
    0.54913E+05         0.22803E+08         0.00000E+00
    0.00000E+00         0.00000E+00         0.96882E+07
 
    0.93564E+07         0.48436E+05         0.00000E+00
    0.48436E+05         0.22625E+08         0.00000E+00
    0.00000E+00         0.00000E+00         0.95946E+07
 
    0.92151E+07         0.40973E+05         0.00000E+00
    0.40973E+05         0.22446E+08         0.00000E+00
    0.00000E+00         0.00000E+00         0.94982E+07
 
    0.90664E+07         0.32467E+05         0.00000E+00
    0.32467E+05         0.22264E+08         0.00000E+00
    0.00000E+00         0.00000E+00         0.93991E+07
 
    0.89098E+07         0.22896E+05         0.00000E+00
    0.22896E+05         0.22080E+08         0.00000E+00
    0.00000E+00         0.00000E+00         0.92970E+07
 
    0.87449E+07         0.12291E+05         0.00000E+00
    0.12291E+05         0.21895E+08         0.00000E+00
    0.00000E+00         0.00000E+00         0.91919E+07
 
    0.85714E+07         0.75799E+03         0.00000E+00
    0.75799E+03         0.21708E+08         0.00000E+00
    0.00000E+00         0.00000E+00         0.90837E+07
 
    0.83889E+07        -0.11500E+05         0.00000E+00
   -0.11500E+05         0.21519E+08         0.00000E+00
    0.00000E+00         0.00000E+00         0.89724E+07
 
    0.81976E+07        -0.24147E+05         0.00000E+00
   -0.24147E+05         0.21330E+08         0.00000E+00
    0.00000E+00         0.00000E+00         0.88582E+07
 
    0.79981E+07        -0.36682E+05         0.00000E+00
   -0.36682E+05         0.21139E+08         0.00000E+00
    0.00000E+00         0.00000E+00         0.87413E+07
 
    0.77913E+07        -0.48348E+05         0.00000E+00
   -0.48348E+05         0.20949E+08         0.00000E+00
    0.00000E+00         0.00000E+00         0.86220E+07
 
    0.75796E+07        -0.57917E+05         0.00000E+00
   -0.57917E+05         0.20758E+08         0.00000E+00
    0.00000E+00         0.00000E+00         0.85013E+07
 
    0.73671E+07        -0.63327E+05         0.00000E+00
   -0.63327E+05         0.20568E+08         0.00000E+00
    0.00000E+00         0.00000E+00         0.83805E+07
 
    0.71620E+07        -0.57338E+05         0.00000E+00
   -0.57338E+05         0.20382E+08         0.00000E+00
    0.00000E+00         0.00000E+00         0.82631E+07
 
    0.69683E+07        -0.25480E+05         0.00000E+00
   -0.25480E+05         0.20225E+08         0.00000E+00
    0.00000E+00         0.00000E+00         0.81579E+07
 
    0.12969E+08        -0.33843E+04         0.00000E+00
   -0.33843E+04         0.29522E+08         0.00000E+00
    0.00000E+00         0.00000E+00         0.12747E+08
 
    0.12941E+08        -0.69031E+04         0.00000E+00
   -0.69031E+04         0.29498E+08         0.00000E+00
    0.00000E+00         0.00000E+00         0.12732E+08
 
    0.12912E+08        -0.66644E+04         0.00000E+00
   -0.66644E+04         0.29471E+08         0.00000E+00
    0.00000E+00         0.00000E+00         0.12715E+08
 
    0.12882E+08        -0.51680E+04         0.00000E+00
   -0.51680E+04         0.29444E+08         0.00000E+00
    0.00000E+00         0.00000E+00         0.12698E+08
 
    0.12853E+08        -0.32633E+04         0.00000E+00
   -0.32633E+04         0.29416E+08         0.00000E+00
    0.00000E+00         0.00000E+00         0.12681E+08
 
    0.12825E+08        -0.11455E+04         0.00000E+00
   -0.11455E+04         0.29388E+08         0.00000E+00
    0.00000E+00         0.00000E+00         0.12664E+08
 
    0.12799E+08         0.10432E+04         0.00000E+00
    0.10432E+04         0.29360E+08         0.00000E+00
    0.00000E+00         0.00000E+00         0.12648E+08
 
    0.12773E+08         0.32248E+04         0.00000E+00
    0.32248E+04         0.29332E+08         0.00000E+00
    0.00000E+00         0.00000E+00         0.12632E+08
 
    0.12750E+08         0.53456E+04         0.00000E+00
    0.53456E+04         0.29303E+08         0.00000E+00
    0.00000E+00         0.00000E+00         0.12616E+08
 
    0.12727E+08         0.73707E+04         0.00000E+00
    0.73707E+04         0.29274E+08         0.00000E+00
    0.00000E+00         0.00000E+00         0.12600E+08
 
    0.12706E+08         0.92803E+04         0.00000E+00
    0.92803E+04         0.29245E+08         0.00000E+00
    0.00000E+00         0.00000E+00         0.12585E+08
 
    0.12686E+08         0.11066E+05         0.00000E+00
    0.11066E+05         0.29215E+08         0.00000E+00
    0.00000E+00         0.00000E+00         0.12570E+08
 
    0.12667E+08         0.12727E+05         0.00000E+00
    0.12727E+05         0.29185E+08         0.00000E+00
    0.00000E+00         0.00000E+00         0.12556E+08
 
    0.12649E+08         0.14271E+05         0.00000E+00
    0.14271E+05         0.29155E+08         0.00000E+00
    0.00000E+00         0.00000E+00         0.12541E+08
 
    0.12632E+08         0.15707E+05         0.00000E+00
    0.15707E+05         0.29123E+08         0.00000E+00
    0.00000E+00         0.00000E+00         0.12526E+08
 
    0.12615E+08         0.17046E+05         0.00000E+00
    0.17046E+05         0.29092E+08         0.00000E+00
    0.00000E+00         0.00000E+00         0.12512E+08
 
    0.12599E+08         0.18301E+05         0.00000E+00
    0.18301E+05         0.29060E+08         0.00000E+00
    0.00000E+00         0.00000E+00         0.12497E+08
 
    0.12583E+08         0.19485E+05         0.00000E+00
    0.19485E+05         0.29027E+08         0.00000E+00
    0.00000E+00         0.00000E+00         0.12483E+08
 
    0.12567E+08         0.20610E+05         0.00000E+00
    0.20610E+05         0.28993E+08         0.00000E+00
    0.00000E+00         0.00000E+00         0.12468E+08
 
    0.12552E+08         0.21686E+05         0.00000E+00
    0.21686E+05         0.28959E+08         0.00000E+00
    0.00000E+00         0.00000E+00         0.12453E+08
 
    0.12537E+08         0.22724E+05         0.00000E+00
    0.22724E+05         0.28924E+08         0.00000E+00
    0.00000E+00         0.00000E+00         0.12438E+08
 
    0.12523E+08         0.23731E+05         0.00000E+00
    0.23731E+05         0.28888E+08         0.00000E+00
    0.00000E+00         0.00000E+00         0.12423E+08
 
    0.12508E+08         0.24715E+05         0.00000E+00
    0.24715E+05         0.28851E+08         0.00000E+00
    0.00000E+00         0.00000E+00         0.12408E+08
 
    0.12493E+08         0.25681E+05         0.00000E+00
    0.25681E+05         0.28814E+08         0.00000E+00
    0.00000E+00         0.00000E+00         0.12392E+08
 
    0.12478E+08         0.26637E+05         0.00000E+00
    0.26637E+05         0.28775E+08         0.00000E+00
    0.00000E+00         0.00000E+00         0.12376E+08
 
    0.12463E+08         0.27585E+05         0.00000E+00
    0.27585E+05         0.28736E+08         0.00000E+00
    0.00000E+00         0.00000E+00         0.12360E+08
 
    0.12448E+08         0.28530E+05         0.00000E+00
    0.28530E+05         0.28695E+08         0.00000E+00
    0.00000E+00         0.00000E+00         0.12343E+08
 
    0.12432E+08         0.29474E+05         0.00000E+00
    0.29474E+05         0.28654E+08         0.00000E+00
    0.00000E+00         0.00000E+00         0.12326E+08
 
    0.12417E+08         0.30421E+05         0.00000E+00
    0.30421E+05         0.28611E+08         0.00000E+00
    0.00000E+00         0.00000E+00         0.12308E+08
 
    0.12401E+08         0.31373E+05         0.00000E+00
    0.31373E+05         0.28567E+08         0.00000E+00
    0.00000E+00         0.00000E+00         0.12290E+08
 
    0.12384E+08         0.32331E+05         0.00000E+00
    0.32331E+05         0.28522E+08         0.00000E+00
    0.00000E+00         0.00000E+00         0.12272E+08
 
    0.12368E+08         0.33296E+05         0.00000E+00
    0.33296E+05         0.28476E+08         0.00000E+00
    0.00000E+00         0.00000E+00         0.12253E+08
 
    0.12350E+08         0.34271E+05         0.00000E+00
    0.34271E+05         0.28428E+08         0.00000E+00
    0.00000E+00         0.00000E+00         0.12233E+08
 
    0.12333E+08         0.35256E+05         0.00000E+00
    0.35256E+05         0.28379E+08         0.00000E+00
    0.00000E+00         0.00000E+00         0.12213E+08
 
    0.12314E+08         0.36251E+05         0.00000E+00
    0.36251E+05         0.28328E+08         0.00000E+00
    0.00000E+00         0.00000E+00         0.12193E+08
 
    0.12296E+08         0.37258E+05         0.00000E+00
    0.37258E+05         0.28276E+08         0.00000E+00
    0.00000E+00         0.00000E+00         0.12172E+08
 
    0.12276E+08         0.38276E+05         0.00000E+00
    0.38276E+05         0.28223E+08         0.00000E+00
    0.00000E+00         0.00000E+00         0.12150E+08
 
    0.12256E+08         0.39306E+05         0.00000E+00
    0.39306E+05         0.28168E+08         0.00000E+00
    0.00000E+00         0.00000E+00         0.12127E+08
 
    0.12236E+08         0.40348E+05         0.00000E+00
    0.40348E+05         0.28111E+08         0.00000E+00
    0.00000E+00         0.00000E+00         0.12104E+08
 
    0.12214E+08         0.41402E+05         0.00000E+00
    0.41402E+05         0.28053E+08         0.00000E+00
    0.00000E+00         0.00000E+00         0.12080E+08
 
    0.12192E+08         0.42467E+05         0.00000E+00
    0.42467E+05         0.27993E+08         0.00000E+00
    0.00000E+00         0.00000E+00         0.12056E+08
 
    0.12169E+08         0.43544E+05         0.00000E+00
    0.43544E+05         0.27931E+08         0.00000E+00
    0.00000E+00         0.00000E+00         0.12030E+08
 
    0.12146E+08         0.44631E+05         0.00000E+00
    0.44631E+05         0.27868E+08         0.00000E+00
    0.00000E+00         0.00000E+00         0.12004E+08
 
    0.12121E+08         0.45729E+05         0.00000E+00
    0.45729E+05         0.27802E+08         0.00000E+00
    0.00000E+00         0.00000E+00         0.11977E+08
 
    0.12096E+08         0.46835E+05         0.00000E+00
    0.46835E+05         0.27735E+08         0.00000E+00
    0.00000E+00         0.00000E+00         0.11949E+08
 
    0.12069E+08         0.47949E+05         0.00000E+00
    0.47949E+05         0.27666E+08         0.00000E+00
    0.00000E+00         0.00000E+00         0.11920E+08
 
    0.12042E+08         0.49070E+05         0.00000E+00
    0.49070E+05         0.27594E+08         0.00000E+00
    0.00000E+00         0.00000E+00         0.11891E+08
 
    0.12013E+08         0.50196E+05         0.00000E+00
    0.50196E+05         0.27521E+08         0.00000E+00
    0.00000E+00         0.00000E+00         0.11860E+08
 
    0.11983E+08         0.51327E+05         0.00000E+00
    0.51327E+05         0.27445E+08         0.00000E+00
    0.00000E+00         0.00000E+00         0.11829E+08
 
    0.11953E+08         0.52459E+05         0.00000E+00
    0.52459E+05         0.27367E+08         0.00000E+00
    0.00000E+00         0.00000E+00         0.11796E+08
 
    0.11921E+08         0.53591E+05         0.00000E+00
    0.53591E+05         0.27287E+08         0.00000E+00
    0.00000E+00         0.00000E+00         0.11762E+08
 
    0.11887E+08         0.54722E+05         0.00000E+00
    0.54722E+05         0.27205E+08         0.00000E+00
    0.00000E+00         0.00000E+00         0.11728E+08
 
    0.11853E+08         0.55847E+05         0.00000E+00
    0.55847E+05         0.27121E+08         0.00000E+00
    0.00000E+00         0.00000E+00         0.11692E+08
 
    0.11817E+08         0.56966E+05         0.00000E+00
    0.56966E+05         0.27034E+08         0.00000E+00
    0.00000E+00         0.00000E+00         0.11655E+08
 
    0.11780E+08         0.58075E+05         0.00000E+00
    0.58075E+05         0.26944E+08         0.00000E+00
    0.00000E+00         0.00000E+00         0.11617E+08
 
    0.11741E+08         0.59170E+05         0.00000E+00
    0.59170E+05         0.26852E+08         0.00000E+00
    0.00000E+00         0.00000E+00         0.11578E+08
 
    0.11701E+08         0.60249E+05         0.00000E+00
    0.60249E+05         0.26758E+08         0.00000E+00
    0.00000E+00         0.00000E+00         0.11538E+08
 
    0.11659E+08         0.61308E+05         0.00000E+00
    0.61308E+05         0.26661E+08         0.00000E+00
    0.00000E+00         0.00000E+00         0.11496E+08
 
    0.11615E+08         0.62342E+05         0.00000E+00
    0.62342E+05         0.26561E+08         0.00000E+00
    0.00000E+00         0.00000E+00         0.11453E+08
 
    0.11570E+08         0.63348E+05         0.00000E+00
    0.63348E+05         0.26459E+08         0.00000E+00
    0.00000E+00         0.00000E+00         0.11409E+08
 
    0.11523E+08         0.64321E+05         0.00000E+00
    0.64321E+05         0.26354E+08         0.00000E+00
    0.00000E+00         0.00000E+00         0.11363E+08
 
    0.11474E+08         0.65255E+05         0.00000E+00
    0.65255E+05         0.26246E+08         0.00000E+00
    0.00000E+00         0.00000E+00         0.11316E+08
 
    0.11424E+08         0.66146E+05         0.00000E+00
    0.66146E+05         0.26136E+08         0.00000E+00
    0.00000E+00         0.00000E+00         0.11268E+08
 
    0.11371E+08         0.66987E+05         0.00000E+00
    0.66987E+05         0.26023E+08         0.00000E+00
    0.00000E+00         0.00000E+00         0.11218E+08
 
    0.11316E+08         0.67772E+05         0.00000E+00
    0.67772E+05         0.25907E+08         0.00000E+00
    0.00000E+00         0.00000E+00         0.11167E+08
 
    0.11259E+08         0.68494E+05         0.00000E+00
    0.68494E+05         0.25788E+08         0.00000E+00
    0.00000E+00         0.00000E+00         0.11114E+08
 
    0.11200E+08         0.69145E+05         0.00000E+00
    0.69145E+05         0.25666E+08         0.00000E+00
    0.00000E+00         0.00000E+00         0.11060E+08
 
    0.11139E+08         0.69718E+05         0.00000E+00
    0.69718E+05         0.25541E+08         0.00000E+00
    0.00000E+00         0.00000E+00         0.11004E+08
 
    0.11075E+08         0.70203E+05         0.00000E+00
    0.70203E+05         0.25414E+08         0.00000E+00
    0.00000E+00         0.00000E+00         0.10947E+08
 
    0.11009E+08         0.70590E+05         0.00000E+00
    0.70590E+05         0.25283E+08         0.00000E+00
    0.00000E+00         0.00000E+00         0.10888E+08
 
    0.10940E+08         0.70868E+05         0.00000E+00
    0.70868E+05         0.25150E+08         0.00000E+00
    0.00000E+00         0.00000E+00         0.10827E+08
 
    0.10868E+08         0.71025E+05         0.00000E+00
    0.71025E+05         0.25013E+08         0.00000E+00
    0.00000E+00         0.00000E+00         0.10764E+08
 
    0.10793E+08         0.71045E+05         0.00000E+00
    0.71045E+05         0.24874E+08         0.00000E+00
    0.00000E+00         0.00000E+00         0.10700E+08
 
    0.10716E+08         0.70912E+05         0.00000E+00
    0.70912E+05         0.24732E+08         0.00000E+00
    0.00000E+00         0.00000E+00         0.10634E+08
 
    0.10636E+08         0.70607E+05         0.00000E+00
    0.70607E+05         0.24586E+08         0.00000E+00
    0.00000E+00         0.00000E+00         0.10567E+08
 
    0.10552E+08         0.70109E+05         0.00000E+00
    0.70109E+05         0.24438E+08         0.00000E+00
    0.00000E+00         0.00000E+00         0.10497E+08
 
    0.10465E+08         0.69391E+05         0.00000E+00
    0.69391E+05         0.24287E+08         0.00000E+00
    0.00000E+00         0.00000E+00         0.10426E+08
 
    0.10374E+08         0.68422E+05         0.00000E+00
    0.68422E+05         0.24133E+08         0.00000E+00
    0.00000E+00         0.00000E+00         0.10352E+08
 
    0.10280E+08         0.67168E+05         0.00000E+00
    0.67168E+05         0.23977E+08         0.00000E+00
    0.00000E+00         0.00000E+00         0.10277E+08
 
    0.10181E+08         0.65587E+05         0.00000E+00
    0.65587E+05         0.23817E+08         0.00000E+00
    0.00000E+00         0.00000E+00         0.10199E+08
 
    0.10079E+08         0.63632E+05         0.00000E+00
    0.63632E+05         0.23655E+08         0.00000E+00
    0.00000E+00         0.00000E+00         0.10120E+08
 
    0.99714E+07         0.61247E+05         0.00000E+00
    0.61247E+05         0.23490E+08         0.00000E+00
    0.00000E+00         0.00000E+00         0.10038E+08
 
    0.98594E+07         0.58370E+05         0.00000E+00
    0.58370E+05         0.23322E+08         0.00000E+00
    0.00000E+00         0.00000E+00         0.99544E+07
 
    0.97422E+07         0.54932E+05         0.00000E+00
    0.54932E+05         0.23152E+08         0.00000E+00
    0.00000E+00         0.00000E+00         0.98682E+07
 
    0.96194E+07         0.50859E+05         0.00000E+00
    0.50859E+05         0.22979E+08         0.00000E+00
    0.00000E+00         0.00000E+00         0.97796E+07
 
    0.94906E+07         0.46073E+05         0.00000E+00
    0.46073E+05         0.22804E+08         0.00000E+00
    0.00000E+00         0.00000E+00         0.96884E+07
 
    0.93553E+07         0.40496E+05         0.00000E+00
    0.40496E+05         0.22627E+08         0.00000E+00
    0.00000E+00         0.00000E+00         0.95946E+07
 
    0.92128E+07         0.34059E+05         0.00000E+00
    0.34059E+05         0.22447E+08         0.00000E+00
    0.00000E+00         0.00000E+00         0.94980E+07
 
    0.90628E+07         0.26711E+05         0.00000E+00
    0.26711E+05         0.22266E+08         0.00000E+00
    0.00000E+00         0.00000E+00         0.93985E+07
 
    0.89046E+07         0.18425E+05         0.00000E+00
    0.18425E+05         0.22082E+08         0.00000E+00
    0.00000E+00         0.00000E+00         0.92960E+07
 
    0.87378E+07         0.92238E+04         0.00000E+00
    0.92238E+04         0.21897E+08         0.00000E+00
    0.00000E+00         0.00000E+00         0.91903E+07
 
    0.85618E+07        -0.81098E+03         0.00000E+00
   -0.81098E+03         0.21710E+08         0.00000E+00
    0.00000E+00         0.00000E+00         0.90815E+07
 
    0.83765E+07        -0.11515E+05         0.00000E+00
   -0.11515E+05         0.21522E+08         0.00000E+00
    0.00000E+00         0.00000E+00         0.89694E+07
 
    0.81818E+07        -0.22615E+05         0.00000E+00
   -0.22615E+05         0.21332E+08         0.00000E+00
    0.00000E+00         0.00000E+00         0.88542E+07
 
    0.79780E+07        -0.33707E+05         0.00000E+00
   -0.33707E+05         0.21142E+08         0.00000E+00
    0.00000E+00         0.00000E+00         0.87360E+07
 
    0.77663E+07        -0.44213E+05         0.00000E+00
   -0.44213E+05         0.20951E+08         0.00000E+00
    0.00000E+00         0.00000E+00         0.86151E+07
 
    0.75487E+07        -0.53106E+05         0.00000E+00
   -0.53106E+05         0.20760E+08         0.00000E+00
    0.00000E+00         0.00000E+00         0.84925E+07
 
    0.73288E+07        -0.58991E+05         0.00000E+00
   -0.58991E+05         0.20568E+08         0.00000E+00
    0.00000E+00         0.00000E+00         0.83692E+07
 
    0.71160E+07        -0.55887E+05         0.00000E+00
   -0.55887E+05         0.20379E+08         0.00000E+00
    0.00000E+00         0.00000E+00         0.82485E+07
 
    0.69184E+07        -0.26259E+05         0.00000E+00
   -0.26259E+05         0.20215E+08         0.00000E+00
    0.00000E+00         0.00000E+00         0.81400E+07
 
    0.12977E+08        -0.35316E+04         0.00000E+00
   -0.35316E+04         0.29523E+08         0.00000E+00
    0.00000E+00         0.00000E+00         0.12750E+08
 
    0.12949E+08        -0.66551E+04         0.00000E+00
   -0.66551E+04         0.29498E+08         0.00000E+00
    0.00000E+00         0.00000E+00         0.12734E+08
 
    0.12918E+08        -0.60889E+04         0.00000E+00
   -0.60889E+04         0.29471E+08         0.00000E+00
    0.00000E+00         0.00000E+00         0.12717E+08
 
    0.12887E+08        -0.47013E+04         0.00000E+00
   -0.47013E+04         0.29443E+08         0.00000E+00
    0.00000E+00         0.00000E+00         0.12699E+08
 
    0.12857E+08        -0.30364E+04         0.00000E+00
   -0.30364E+04         0.29416E+08         0.00000E+00
    0.00000E+00         0.00000E+00         0.12682E+08
 
    0.12829E+08        -0.12208E+04         0.00000E+00
   -0.12208E+04         0.29388E+08         0.00000E+00
    0.00000E+00         0.00000E+00         0.12665E+08
 
    0.12802E+08         0.63134E+03         0.00000E+00
    0.63134E+03         0.29360E+08         0.00000E+00
    0.00000E+00         0.00000E+00         0.12648E+08
 
    0.12776E+08         0.24671E+04         0.00000E+00
    0.24671E+04         0.29331E+08         0.00000E+00
    0.00000E+00         0.00000E+00         0.12632E+08
 
    0.12752E+08         0.42435E+04         0.00000E+00
    0.42435E+04         0.29303E+08         0.00000E+00
    0.00000E+00         0.00000E+00         0.12616E+08
 
    0.12729E+08         0.59344E+04         0.00000E+00
    0.59344E+04         0.29274E+08         0.00000E+00
    0.00000E+00         0.00000E+00         0.12601E+08
 
    0.12708E+08         0.75246E+04         0.00000E+00
    0.75246E+04         0.29245E+08         0.00000E+00
    0.00000E+00         0.00000E+00         0.12586E+08
 
    0.12688E+08         0.90080E+04         0.00000E+00
    0.90080E+04         0.29215E+08         0.00000E+00
    0.00000E+00         0.00000E+00         0.12571E+08
 
    0.12669E+08         0.10385E+05         0.00000E+00
    0.10385E+05         0.29185E+08         0.00000E+00
    0.00000E+00         0.00000E+00         0.12556E+08
 
    0.12650E+08         0.11663E+05         0.00000E+00
    0.11663E+05         0.29154E+08         0.00000E+00
    0.00000E+00         0.00000E+00         0.12541E+08
 
    0.12633E+08         0.12848E+05         0.00000E+00
    0.12848E+05         0.29123E+08         0.00000E+00
    0.00000E+00         0.00000E+00         0.12527E+08
 
    0.12616E+08         0.13952E+05         0.00000E+00
    0.13952E+05         0.29092E+08         0.00000E+00
    0.00000E+00         0.00000E+00         0.12512E+08
 
    0.12600E+08         0.14986E+05         0.00000E+00
    0.14986E+05         0.29059E+08         0.00000E+00
    0.00000E+00         0.00000E+00         0.12498E+08
 
    0.12584E+08         0.15959E+05         0.00000E+00
    0.15959E+05         0.29026E+08         0.00000E+00
    0.00000E+00         0.00000E+00         0.12483E+08
 
    0.12569E+08         0.16883E+05         0.00000E+00
    0.16883E+05         0.28993E+08         0.00000E+00
    0.00000E+00         0.00000E+00         0.12469E+08
 
    0.12554E+08         0.17767E+05         0.00000E+00
    0.17767E+05         0.28959E+08         0.00000E+00
    0.00000E+00         0.00000E+00         0.12454E+08
 
    0.12539E+08         0.18618E+05         0.00000E+00
    0.18618E+05         0.28924E+08         0.00000E+00
    0.00000E+00         0.00000E+00         0.12439E+08
 
    0.12524E+08         0.19443E+05         0.00000E+00
    0.19443E+05         0.28888E+08         0.00000E+00
    0.00000E+00         0.00000E+00         0.12424E+08
 
    0.12510E+08         0.20249E+05         0.00000E+00
    0.20249E+05         0.28851E+08         0.00000E+00
    0.00000E+00         0.00000E+00         0.12408E+08
 
    0.12495E+08         0.21041E+05         0.00000E+00
    0.21041E+05         0.28814E+08         0.00000E+00
    0.00000E+00         0.00000E+00         0.12393E+08
 
    0.12480E+08         0.21824E+05         0.00000E+00
    0.21824E+05         0.28775E+08         0.00000E+00
    0.00000E+00         0.00000E+00         0.12377E+08
 
    0.12465E+08         0.22600E+05         0.00000E+00
    0.22600E+05         0.28736E+08         0.00000E+00
    0.00000E+00         0.00000E+00         0.12360E+08
 
    0.12450E+08         0.23374E+05         0.00000E+00
    0.23374E+05         0.28695E+08         0.00000E+00
    0.00000E+00         0.00000E+00         0.12343E+08
 
    0.12434E+08         0.24147E+05         0.00000E+00
    0.24147E+05         0.28653E+08         0.00000E+00
    0.00000E+00         0.00000E+00         0.12326E+08
 
    0.12419E+08         0.24923E+05         0.00000E+00
    0.24923E+05         0.28611E+08         0.00000E+00
    0.00000E+00         0.00000E+00         0.12309E+08
 
    0.12403E+08         0.25702E+05         0.00000E+00
    0.25702E+05         0.28567E+08         0.00000E+00
    0.00000E+00         0.00000E+00         0.12291E+08
 
    0.12387E+08         0.26486E+05         0.00000E+00
    0.26486E+05         0.28522E+08         0.00000E+00
    0.00000E+00         0.00000E+00         0.12273E+08
 
    0.12370E+08         0.27277E+05         0.00000E+00
    0.27277E+05         0.28475E+08         0.00000E+00
    0.00000E+00         0.00000E+00         0.12254E+08
 
    0.12353E+08         0.28074E+05         0.00000E+00
    0.28074E+05         0.28428E+08         0.00000E+00
    0.00000E+00         0.00000E+00         0.12234E+08
 
    0.12335E+08         0.28880E+05         0.00000E+00
    0.28880E+05         0.28379E+08         0.00000E+00
    0.00000E+00         0.00000E+00         0.12214E+08
 
    0.12317E+08         0.29695E+05         0.00000E+00
    0.29695E+05         0.28328E+08         0.00000E+00
    0.00000E+00         0.00000E+00         0.12194E+08
 
    0.12298E+08         0.30519E+05         0.00000E+00
    0.30519E+05         0.28276E+08         0.00000E+00
    0.00000E+00         0.00000E+00         0.12172E+08
 
    0.12279E+08         0.31352E+05         0.00000E+00
    0.31352E+05         0.28223E+08         0.00000E+00
    0.00000E+00         0.00000E+00         0.12151E+08
 
    0.12259E+08         0.32195E+05         0.00000E+00
    0.32195E+05         0.28168E+08         0.00000E+00
    0.00000E+00         0.00000E+00         0.12128E+08
 
    0.12239E+08         0.33048E+05         0.00000E+00
    0.33048E+05         0.28111E+08         0.00000E+00
    0.00000E+00         0.00000E+00         0.12105E+08
 
    0.12217E+08         0.33910E+05         0.00000E+00
    0.33910E+05         0.28053E+08         0.00000E+00
    0.00000E+00         0.00000E+00         0.12081E+08
 
    0.12195E+08         0.34782E+05         0.00000E+00
    0.34782E+05         0.27993E+08         0.00000E+00
    0.00000E+00         0.00000E+00         0.12056E+08
 
    0.12173E+08         0.35663E+05         0.00000E+00
    0.35663E+05         0.27931E+08         0.00000E+00
    0.00000E+00         0.00000E+00         0.12031E+08
 
    0.12149E+08         0.36553E+05         0.00000E+00
    0.36553E+05         0.27868E+08         0.00000E+00
    0.00000E+00         0.00000E+00         0.12005E+08
 
    0.12124E+08         0.37450E+05         0.00000E+00
    0.37450E+05         0.27802E+08         0.00000E+00
    0.00000E+00         0.00000E+00         0.11978E+08
 
    0.12099E+08         0.38355E+05         0.00000E+00
    0.38355E+05         0.27735E+08         0.00000E+00
    0.00000E+00         0.00000E+00         0.11950E+08
 
    0.12073E+08         0.39266E+05         0.00000E+00
    0.39266E+05         0.27665E+08         0.00000E+00
    0.00000E+00         0.00000E+00         0.11921E+08
 
    0.12045E+08         0.40183E+05         0.00000E+00
    0.40183E+05         0.27594E+08         0.00000E+00
    0.00000E+00         0.00000E+00         0.11892E+08
 
    0.12017E+08         0.41104E+05         0.00000E+00
    0.41104E+05         0.27521E+08         0.00000E+00
    0.00000E+00         0.00000E+00         0.11861E+08
 
    0.11987E+08         0.42028E+05         0.00000E+00
    0.42028E+05         0.27445E+08         0.00000E+00
    0.00000E+00         0.00000E+00         0.11830E+08
 
    0.11956E+08         0.42953E+05         0.00000E+00
    0.42953E+05         0.27367E+08         0.00000E+00
    0.00000E+00         0.00000E+00         0.11797E+08
 
    0.11924E+08         0.43879E+05         0.00000E+00
    0.43879E+05         0.27287E+08         0.00000E+00
    0.00000E+00         0.00000E+00         0.11764E+08
 
    0.11891E+08         0.44803E+05         0.00000E+00
    0.44803E+05         0.27205E+08         0.00000E+00
    0.00000E+00         0.00000E+00         0.11729E+08
 
    0.11857E+08         0.45723E+05         0.00000E+00
    0.45723E+05         0.27120E+08         0.00000E+00
    0.00000E+00         0.00000E+00         0.11693E+08
 
    0.11821E+08         0.46636E+05         0.00000E+00
    0.46636E+05         0.27033E+08         0.00000E+00
    0.00000E+00         0.00000E+00         0.11656E+08
 
    0.11784E+08         0.47542E+05         0.00000E+00
    0.47542E+05         0.26944E+08         0.00000E+00
    0.00000E+00         0.00000E+00         0.11618E+08
 
    0.11745E+08         0.48437E+05         0.00000E+00
    0.48437E+05         0.26852E+08         0.00000E+00
    0.00000E+00         0.00000E+00         0.11579E+08
 
    0.11705E+08         0.49318E+05         0.00000E+00
    0.49318E+05         0.26758E+08         0.00000E+00
    0.00000E+00         0.00000E+00         0.11539E+08
 
    0.11663E+08         0.50182E+05         0.00000E+00
    0.50182E+05         0.26661E+08         0.00000E+00
    0.00000E+00         0.00000E+00         0.11497E+08
 
    0.11620E+08         0.51026E+05         0.00000E+00
    0.51026E+05         0.26561E+08         0.00000E+00
    0.00000E+00         0.00000E+00         0.11454E+08
 
    0.11574E+08         0.51846E+05         0.00000E+00
    0.51846E+05         0.26459E+08         0.00000E+00
    0.00000E+00         0.00000E+00         0.11410E+08
 
    0.11527E+08         0.52639E+05         0.00000E+00
    0.52639E+05         0.26354E+08         0.00000E+00
    0.00000E+00         0.00000E+00         0.11364E+08
 
    0.11479E+08         0.53401E+05         0.00000E+00
    0.53401E+05         0.26246E+08         0.00000E+00
    0.00000E+00         0.00000E+00         0.11317E+08
 
    0.11428E+08         0.54126E+05         0.00000E+00
    0.54126E+05         0.26136E+08         0.00000E+00
    0.00000E+00         0.00000E+00         0.11269E+08
 
    0.11375E+08         0.54811E+05         0.00000E+00
    0.54811E+05         0.26023E+08         0.00000E+00
    0.00000E+00         0.00000E+00         0.11219E+08
 
    0.11320E+08         0.55450E+05         0.00000E+00
    0.55450E+05         0.25907E+08         0.00000E+00
    0.00000E+00         0.00000E+00         0.11168E+08
 
    0.11264E+08         0.56037E+05         0.00000E+00
    0.56037E+05         0.25788E+08         0.00000E+00
    0.00000E+00         0.00000E+00         0.11115E+08
 
    0.11204E+08         0.56566E+05         0.00000E+00
    0.56566E+05         0.25666E+08         0.00000E+00
    0.00000E+00         0.00000E+00         0.11061E+08
 
    0.11143E+08         0.57030E+05         0.00000E+00
    0.57030E+05         0.25541E+08         0.00000E+00
    0.00000E+00         0.00000E+00         0.11005E+08
 
    0.11079E+08         0.57423E+05         0.00000E+00
    0.57423E+05         0.25414E+08         0.00000E+00
    0.00000E+00         0.00000E+00         0.10948E+08
 
    0.11013E+08         0.57735E+05         0.00000E+00
    0.57735E+05         0.25283E+08         0.00000E+00
    0.00000E+00         0.00000E+00         0.10889E+08
 
    0.10944E+08         0.57957E+05         0.00000E+00
    0.57957E+05         0.25150E+08         0.00000E+00
    0.00000E+00         0.00000E+00         0.10828E+08
 
    0.10872E+08         0.58080E+05         0.00000E+00
    0.58080E+05         0.25013E+08         0.00000E+00
    0.00000E+00         0.00000E+00         0.10766E+08
 
    0.10797E+08         0.58091E+05         0.00000E+00
    0.58091E+05         0.24874E+08         0.00000E+00
    0.00000E+00         0.00000E+00         0.10701E+08
 
    0.10720E+08         0.57976E+05         0.00000E+00
    0.57976E+05         0.24732E+08         0.00000E+00
    0.00000E+00         0.00000E+00         0.10635E+08
 
    0.10639E+08         0.57721E+05         0.00000E+00
    0.57721E+05         0.24586E+08         0.00000E+00
    0.00000E+00         0.00000E+00         0.10568E+08
 
    0.10555E+08         0.57306E+05         0.00000E+00
    0.57306E+05         0.24438E+08         0.00000E+00
    0.00000E+00         0.00000E+00         0.10498E+08
 
    0.10468E+08         0.56710E+05         0.00000E+00
    0.56710E+05         0.24287E+08         0.00000E+00
    0.00000E+00         0.00000E+00         0.10427E+08
 
    0.10377E+08         0.55909E+05         0.00000E+00
    0.55909E+05         0.24134E+08         0.00000E+00
    0.00000E+00         0.00000E+00         0.10353E+08
 
    0.10283E+08         0.54872E+05         0.00000E+00
    0.54872E+05         0.23977E+08         0.00000E+00
    0.00000E+00         0.00000E+00         0.10278E+08
 
    0.10184E+08         0.53565E+05         0.00000E+00
    0.53565E+05         0.23817E+08         0.00000E+00
    0.00000E+00         0.00000E+00         0.10200E+08
 
    0.10081E+08         0.51948E+05         0.00000E+00
    0.51948E+05         0.23655E+08         0.00000E+00
    0.00000E+00         0.00000E+00         0.10121E+08
 
    0.99735E+07         0.49975E+05         0.00000E+00
    0.49975E+05         0.23490E+08         0.00000E+00
    0.00000E+00         0.00000E+00         0.10039E+08
 
    0.98611E+07         0.47593E+05         0.00000E+00
    0.47593E+05         0.23323E+08         0.00000E+00
    0.00000E+00         0.00000E+00         0.99551E+07
 
    0.97435E+07         0.44744E+05         0.00000E+00
    0.44744E+05         0.23153E+08         0.00000E+00
    0.00000E+00         0.00000E+00         0.98688E+07
 
    0.96202E+07         0.41364E+05         0.00000E+00
    0.41364E+05         0.22980E+08         0.00000E+00
    0.00000E+00         0.00000E+00         0.97801E+07
 
    0.94907E+07         0.37387E+05         0.00000E+00
    0.37387E+05         0.22805E+08         0.00000E+00
    0.00000E+00         0.00000E+00         0.96887E+07
 
    0.93545E+07         0.32745E+05         0.00000E+00
    0.32745E+05         0.22628E+08         0.00000E+00
    0.00000E+00         0.00000E+00         0.95947E+07
 
    0.92111E+07         0.27379E+05         0.00000E+00
    0.27379E+05         0.22448E+08         0.00000E+00
    0.00000E+00         0.00000E+00         0.94979E+07
 
    0.90598E+07         0.21241E+05         0.00000E+00
    0.21241E+05         0.22267E+08         0.00000E+00
    0.00000E+00         0.00000E+00         0.93980E+07
 
    0.89000E+07         0.14306E+05         0.00000E+00
    0.14306E+05         0.22084E+08         0.00000E+00
    0.00000E+00         0.00000E+00         0.92951E+07
 
    0.87312E+07         0.65850E+04         0.00000E+00
    0.65850E+04         0.21898E+08         0.00000E+00
    0.00000E+00         0.00000E+00         0.91889E+07
 
    0.85529E+07        -0.18592E+04         0.00000E+00
   -0.18592E+04         0.21712E+08         0.00000E+00
    0.00000E+00         0.00000E+00         0.90794E+07
 
    0.83647E+07        -0.10898E+05         0.00000E+00
   -0.10898E+05         0.21524E+08         0.00000E+00
    0.00000E+00         0.00000E+00         0.89665E+07
 
    0.81665E+07        -0.20326E+05         0.00000E+00
   -0.20326E+05         0.21334E+08         0.00000E+00
    0.00000E+00         0.00000E+00         0.88502E+07
 
    0.79586E+07        -0.29816E+05         0.00000E+00
   -0.29816E+05         0.21144E+08         0.00000E+00
    0.00000E+00         0.00000E+00         0.87307E+07
 
    0.77418E+07        -0.38972E+05         0.00000E+00
   -0.38972E+05         0.20953E+08         0.00000E+00
    0.00000E+00         0.00000E+00         0.86083E+07
 
    0.75179E+07        -0.46967E+05         0.00000E+00
   -0.46967E+05         0.20761E+08         0.00000E+00
    0.00000E+00         0.00000E+00         0.84837E+07
 
    0.72902E+07        -0.52890E+05         0.00000E+00
   -0.52890E+05         0.20569E+08         0.00000E+00
    0.00000E+00         0.00000E+00         0.83579E+07
 
    0.70679E+07        -0.52902E+05         0.00000E+00
   -0.52902E+05         0.20377E+08         0.00000E+00
    0.00000E+00         0.00000E+00         0.82334E+07
 
    0.68646E+07        -0.26877E+05         0.00000E+00
   -0.26877E+05         0.20205E+08         0.00000E+00
    0.00000E+00         0.00000E+00         0.81209E+07
 
    0.12986E+08        -0.36408E+04         0.00000E+00
   -0.36408E+04         0.29524E+08         0.00000E+00
    0.00000E+00         0.00000E+00         0.12753E+08
 
    0.12956E+08        -0.61081E+04         0.00000E+00
   -0.61081E+04         0.29498E+08         0.00000E+00
    0.00000E+00         0.00000E+00         0.12736E+08
 
    0.12924E+08        -0.52427E+04         0.00000E+00
   -0.52427E+04         0.29471E+08         0.00000E+00
    0.00000E+00         0.00000E+00         0.12718E+08
 
    0.12892E+08        -0.40506E+04         0.00000E+00
   -0.40506E+04         0.29443E+08         0.00000E+00
    0.00000E+00         0.00000E+00         0.12701E+08
 
    0.12861E+08        -0.26573E+04         0.00000E+00
   -0.26573E+04         0.29415E+08         0.00000E+00
    0.00000E+00         0.00000E+00         0.12683E+08
 
    0.12832E+08        -0.11780E+04         0.00000E+00
   -0.11780E+04         0.29388E+08         0.00000E+00
    0.00000E+00         0.00000E+00         0.12666E+08
 
    0.12805E+08         0.31339E+03         0.00000E+00
    0.31339E+03         0.29359E+08         0.00000E+00
    0.00000E+00         0.00000E+00         0.12649E+08
 
    0.12779E+08         0.17831E+04         0.00000E+00
    0.17831E+04         0.29331E+08         0.00000E+00
    0.00000E+00         0.00000E+00         0.12633E+08
 
    0.12754E+08         0.31983E+04         0.00000E+00
    0.31983E+04         0.29303E+08         0.00000E+00
    0.00000E+00         0.00000E+00         0.12617E+08
 
    0.12731E+08         0.45412E+04         0.00000E+00
    0.45412E+04         0.29274E+08         0.00000E+00
    0.00000E+00         0.00000E+00         0.12601E+08
 
    0.12710E+08         0.58003E+04         0.00000E+00
    0.58003E+04         0.29244E+08         0.00000E+00
    0.00000E+00         0.00000E+00         0.12586E+08
 
    0.12689E+08         0.69721E+04         0.00000E+00
    0.69721E+04         0.29215E+08         0.00000E+00
    0.00000E+00         0.00000E+00         0.12571E+08
 
    0.12670E+08         0.80577E+04         0.00000E+00
    0.80577E+04         0.29185E+08         0.00000E+00
    0.00000E+00         0.00000E+00         0.12556E+08
 
    0.12652E+08         0.90621E+04         0.00000E+00
    0.90621E+04         0.29154E+08         0.00000E+00
    0.00000E+00         0.00000E+00         0.12542E+08
 
    0.12635E+08         0.99927E+04         0.00000E+00
    0.99927E+04         0.29123E+08         0.00000E+00
    0.00000E+00         0.00000E+00         0.12527E+08
 
    0.12618E+08         0.10858E+05         0.00000E+00
    0.10858E+05         0.29091E+08         0.00000E+00
    0.00000E+00         0.00000E+00         0.12513E+08
 
    0.12602E+08         0.11667E+05         0.00000E+00
    0.11667E+05         0.29059E+08         0.00000E+00
    0.00000E+00         0.00000E+00         0.12498E+08
 
    0.12586E+08         0.12428E+05         0.00000E+00
    0.12428E+05         0.29026E+08         0.00000E+00
    0.00000E+00         0.00000E+00         0.12484E+08
 
    0.12571E+08         0.13149E+05         0.00000E+00
    0.13149E+05         0.28993E+08         0.00000E+00
    0.00000E+00         0.00000E+00         0.12469E+08
 
    0.12556E+08         0.13838E+05         0.00000E+00
    0.13838E+05         0.28959E+08         0.00000E+00
    0.00000E+00         0.00000E+00         0.12454E+08
 
    0.12541E+08         0.14502E+05         0.00000E+00
    0.14502E+05         0.28924E+08         0.00000E+00
    0.00000E+00         0.00000E+00         0.12439E+08
 
    0.12526E+08         0.15145E+05         0.00000E+00
    0.15145E+05         0.28888E+08         0.00000E+00
    0.00000E+00         0.00000E+00         0.12424E+08
 
    0.12511E+08         0.15773E+05         0.00000E+00
    0.15773E+05         0.28851E+08         0.00000E+00
    0.00000E+00         0.00000E+00         0.12409E+08
 
    0.12497E+08         0.16389E+05         0.00000E+00
    0.16389E+05         0.28813E+08         0.00000E+00
    0.00000E+00         0.00000E+00         0.12393E+08
 
    0.12482E+08         0.16999E+05         0.00000E+00
    0.16999E+05         0.28775E+08         0.00000E+00
    0.00000E+00         0.00000E+00         0.12377E+08
 
    0.12467E+08         0.17603E+05         0.00000E+00
    0.17603E+05         0.28735E+08         0.00000E+00
    0.00000E+00         0.00000E+00         0.12361E+08
 
    0.12452E+08         0.18205E+05         0.00000E+00
    0.18205E+05         0.28695E+08         0.00000E+00
    0.00000E+00         0.00000E+00         0.12344E+08
 
    0.12437E+08         0.18807E+05         0.00000E+00
    0.18807E+05         0.28653E+08         0.00000E+00
    0.00000E+00         0.00000E+00         0.12327E+08
 
    0.12421E+08         0.19411E+05         0.00000E+00
    0.19411E+05         0.28611E+08         0.00000E+00
    0.00000E+00         0.00000E+00         0.12309E+08
 
    0.12405E+08         0.20017E+05         0.00000E+00
    0.20017E+05         0.28567E+08         0.00000E+00
    0.00000E+00         0.00000E+00         0.12292E+08
 
    0.12389E+08         0.20627E+05         0.00000E+00
    0.20627E+05         0.28522E+08         0.00000E+00
    0.00000E+00         0.00000E+00         0.12273E+08
 
    0.12372E+08         0.21242E+05         0.00000E+00
    0.21242E+05         0.28475E+08         0.00000E+00
    0.00000E+00         0.00000E+00         0.12254E+08
 
    0.12355E+08         0.21863E+05         0.00000E+00
    0.21863E+05         0.28428E+08         0.00000E+00
    0.00000E+00         0.00000E+00         0.12235E+08
 
    0.12338E+08         0.22490E+05         0.00000E+00
    0.22490E+05         0.28378E+08         0.00000E+00
    0.00000E+00         0.00000E+00         0.12215E+08
 
    0.12320E+08         0.23124E+05         0.00000E+00
    0.23124E+05         0.28328E+08         0.00000E+00
    0.00000E+00         0.00000E+00         0.12194E+08
 
    0.12301E+08         0.23765E+05         0.00000E+00
    0.23765E+05         0.28276E+08         0.00000E+00
    0.00000E+00         0.00000E+00         0.12173E+08
 
    0.12282E+08         0.24414E+05         0.00000E+00
    0.24414E+05         0.28223E+08         0.00000E+00
    0.00000E+00         0.00000E+00         0.12151E+08
 
    0.12262E+08         0.25070E+05         0.00000E+00
    0.25070E+05         0.28168E+08         0.00000E+00
    0.00000E+00         0.00000E+00         0.12129E+08
 
    0.12242E+08         0.25733E+05         0.00000E+00
    0.25733E+05         0.28111E+08         0.00000E+00
    0.00000E+00         0.00000E+00         0.12106E+08
 
    0.12220E+08         0.26404E+05         0.00000E+00
    0.26404E+05         0.28053E+08         0.00000E+00
    0.00000E+00         0.00000E+00         0.12082E+08
 
    0.12198E+08         0.27082E+05         0.00000E+00
    0.27082E+05         0.27993E+08         0.00000E+00
    0.00000E+00         0.00000E+00         0.12057E+08
 
    0.12176E+08         0.27767E+05         0.00000E+00
    0.27767E+05         0.27931E+08         0.00000E+00
    0.00000E+00         0.00000E+00         0.12032E+08
 
    0.12152E+08         0.28459E+05         0.00000E+00
    0.28459E+05         0.27867E+08         0.00000E+00
    0.00000E+00         0.00000E+00         0.12006E+08
 
    0.12128E+08         0.29157E+05         0.00000E+00
    0.29157E+05         0.27802E+08         0.00000E+00
    0.00000E+00         0.00000E+00         0.11979E+08
 
    0.12102E+08         0.29860E+05         0.00000E+00
    0.29860E+05         0.27735E+08         0.00000E+00
    0.00000E+00         0.00000E+00         0.11951E+08
 
    0.12076E+08         0.30569E+05         0.00000E+00
    0.30569E+05         0.27665E+08         0.00000E+00
    0.00000E+00         0.00000E+00         0.11922E+08
 
    0.12049E+08         0.31281E+05         0.00000E+00
    0.31281E+05         0.27594E+08         0.00000E+00
    0.00000E+00         0.00000E+00         0.11893E+08
 
    0.12020E+08         0.31997E+05         0.00000E+00
    0.31997E+05         0.27520E+08         0.00000E+00
    0.00000E+00         0.00000E+00         0.11862E+08
 
    0.11991E+08         0.32715E+05         0.00000E+00
    0.32715E+05         0.27445E+08         0.00000E+00
    0.00000E+00         0.00000E+00         0.11831E+08
 
    0.11960E+08         0.33435E+05         0.00000E+00
    0.33435E+05         0.27367E+08         0.00000E+00
    0.00000E+00         0.00000E+00         0.11798E+08
 
    0.11928E+08         0.34154E+05         0.00000E+00
    0.34154E+05         0.27287E+08         0.00000E+00
    0.00000E+00         0.00000E+00         0.11765E+08
 
    0.11895E+08         0.34871E+05         0.00000E+00
    0.34871E+05         0.27205E+08         0.00000E+00
    0.00000E+00         0.00000E+00         0.11730E+08
 
    0.11861E+08         0.35586E+05         0.00000E+00
    0.35586E+05         0.27120E+08         0.00000E+00
    0.00000E+00         0.00000E+00         0.11694E+08
 
    0.11825E+08         0.36296E+05         0.00000E+00
    0.36296E+05         0.27033E+08         0.00000E+00
    0.00000E+00         0.00000E+00         0.11657E+08
 
    0.11788E+08         0.36999E+05         0.00000E+00
    0.36999E+05         0.26944E+08         0.00000E+00
    0.00000E+00         0.00000E+00         0.11619E+08
 
    0.11749E+08         0.37693E+05         0.00000E+00
    0.37693E+05         0.26852E+08         0.00000E+00
    0.00000E+00         0.00000E+00         0.11580E+08
 
    0.11709E+08         0.38377E+05         0.00000E+00
    0.38377E+05         0.26757E+08         0.00000E+00
    0.00000E+00         0.00000E+00         0.11540E+08
 
    0.11667E+08         0.39047E+05         0.00000E+00
    0.39047E+05         0.26660E+08         0.00000E+00
    0.00000E+00         0.00000E+00         0.11498E+08
 
    0.11624E+08         0.39702E+05         0.00000E+00
    0.39702E+05         0.26561E+08         0.00000E+00
    0.00000E+00         0.00000E+00         0.11455E+08
 
    0.11579E+08         0.40339E+05         0.00000E+00
    0.40339E+05         0.26459E+08         0.00000E+00
    0.00000E+00         0.00000E+00         0.11411E+08
 
    0.11532E+08         0.40953E+05         0.00000E+00
    0.40953E+05         0.26354E+08         0.00000E+00
    0.00000E+00         0.00000E+00         0.11366E+08
 
    0.11483E+08         0.41543E+05         0.00000E+00
    0.41543E+05         0.26246E+08         0.00000E+00
    0.00000E+00         0.00000E+00         0.11319E+08
 
    0.11432E+08         0.42105E+05         0.00000E+00
    0.42105E+05         0.26136E+08         0.00000E+00
    0.00000E+00         0.00000E+00         0.11270E+08
 
    0.11380E+08         0.42635E+05         0.00000E+00
    0.42635E+05         0.26022E+08         0.00000E+00
    0.00000E+00         0.00000E+00         0.11221E+08
 
    0.11325E+08         0.43129E+05         0.00000E+00
    0.43129E+05         0.25906E+08         0.00000E+00
    0.00000E+00         0.00000E+00         0.11169E+08
 
    0.11268E+08         0.43583E+05         0.00000E+00
    0.43583E+05         0.25788E+08         0.00000E+00
    0.00000E+00         0.00000E+00         0.11117E+08
 
    0.11209E+08         0.43991E+05         0.00000E+00
    0.43991E+05         0.25666E+08         0.00000E+00
    0.00000E+00         0.00000E+00         0.11062E+08
 
    0.11147E+08         0.44349E+05         0.00000E+00
    0.44349E+05         0.25541E+08         0.00000E+00
    0.00000E+00         0.00000E+00         0.11006E+08
 
    0.11083E+08         0.44651E+05         0.00000E+00
    0.44651E+05         0.25414E+08         0.00000E+00
    0.00000E+00         0.00000E+00         0.10949E+08
 
    0.11017E+08         0.44890E+05         0.00000E+00
    0.44890E+05         0.25283E+08         0.00000E+00
    0.00000E+00         0.00000E+00         0.10890E+08
 
    0.10948E+08         0.45060E+05         0.00000E+00
    0.45060E+05         0.25150E+08         0.00000E+00
    0.00000E+00         0.00000E+00         0.10829E+08
 
    0.10876E+08         0.45151E+05         0.00000E+00
    0.45151E+05         0.25013E+08         0.00000E+00
    0.00000E+00         0.00000E+00         0.10767E+08
 
    0.10801E+08         0.45156E+05         0.00000E+00
    0.45156E+05         0.24874E+08         0.00000E+00
    0.00000E+00         0.00000E+00         0.10703E+08
 
    0.10724E+08         0.45062E+05         0.00000E+00
    0.45062E+05         0.24732E+08         0.00000E+00
    0.00000E+00         0.00000E+00         0.10637E+08
 
    0.10643E+08         0.44859E+05         0.00000E+00
    0.44859E+05         0.24587E+08         0.00000E+00
    0.00000E+00         0.00000E+00         0.10569E+08
 
    0.10559E+08         0.44531E+05         0.00000E+00
    0.44531E+05         0.24438E+08         0.00000E+00
    0.00000E+00         0.00000E+00         0.10499E+08
 
    0.10472E+08         0.44062E+05         0.00000E+00
    0.44062E+05         0.24287E+08         0.00000E+00
    0.00000E+00         0.00000E+00         0.10428E+08
 
    0.10381E+08         0.43432E+05         0.00000E+00
    0.43432E+05         0.24134E+08         0.00000E+00
    0.00000E+00         0.00000E+00         0.10354E+08
 
    0.10286E+08         0.42617E+05         0.00000E+00
    0.42617E+05         0.23977E+08         0.00000E+00
    0.00000E+00         0.00000E+00         0.10279E+08
 
    0.10187E+08         0.41591E+05         0.00000E+00
    0.41591E+05         0.23818E+08         0.00000E+00
    0.00000E+00         0.00000E+00         0.10201E+08
 
    0.10084E+08         0.40320E+05         0.00000E+00
    0.40320E+05         0.23655E+08         0.00000E+00
    0.00000E+00         0.00000E+00         0.10122E+08
 
    0.99759E+07         0.38770E+05         0.00000E+00
    0.38770E+05         0.23491E+08         0.00000E+00
    0.00000E+00         0.00000E+00         0.10040E+08
 
    0.98632E+07         0.36896E+05         0.00000E+00
    0.36896E+05         0.23323E+08         0.00000E+00
    0.00000E+00         0.00000E+00         0.99559E+07
 
    0.97451E+07         0.34652E+05         0.00000E+00
    0.34652E+05         0.23153E+08         0.00000E+00
    0.00000E+00         0.00000E+00         0.98695E+07
 
    0.96213E+07         0.31987E+05         0.00000E+00
    0.31987E+05         0.22981E+08         0.00000E+00
    0.00000E+00         0.00000E+00         0.97806E+07
 
    0.94912E+07         0.28846E+05         0.00000E+00
    0.28846E+05         0.22806E+08         0.00000E+00
    0.00000E+00         0.00000E+00         0.96891E+07
 
    0.93542E+07         0.25174E+05         0.00000E+00
    0.25174E+05         0.22629E+08         0.00000E+00
    0.00000E+00         0.00000E+00         0.95949E+07
 
    0.92098E+07         0.20921E+05         0.00000E+00
    0.20921E+05         0.22449E+08         0.00000E+00
    0.00000E+00         0.00000E+00         0.94978E+07
 
    0.90573E+07         0.16047E+05         0.00000E+00
    0.16047E+05         0.22268E+08         0.00000E+00
    0.00000E+00         0.00000E+00         0.93976E+07
 
    0.88960E+07         0.10527E+05         0.00000E+00
    0.10527E+05         0.22085E+08         0.00000E+00
    0.00000E+00         0.00000E+00         0.92943E+07
 
    0.87254E+07         0.43670E+04         0.00000E+00
    0.43670E+04         0.21900E+08         0.00000E+00
    0.00000E+00         0.00000E+00         0.91876E+07
 
    0.85447E+07        -0.23918E+04         0.00000E+00
   -0.23918E+04         0.21713E+08         0.00000E+00
    0.00000E+00         0.00000E+00         0.90774E+07
 
    0.83537E+07        -0.96518E+04         0.00000E+00
   -0.96518E+04         0.21525E+08         0.00000E+00
    0.00000E+00         0.00000E+00         0.89637E+07
 
    0.81520E+07        -0.17270E+05         0.00000E+00
   -0.17270E+05         0.21336E+08         0.00000E+00
    0.00000E+00         0.00000E+00         0.88464E+07
 
    0.79398E+07        -0.24996E+05         0.00000E+00
   -0.24996E+05         0.21146E+08         0.00000E+00
    0.00000E+00         0.00000E+00         0.87256E+07
 
    0.77178E+07        -0.32572E+05         0.00000E+00
   -0.32572E+05         0.20954E+08         0.00000E+00
    0.00000E+00         0.00000E+00         0.86016E+07
 
    0.74874E+07        -0.39459E+05         0.00000E+00
   -0.39459E+05         0.20762E+08         0.00000E+00
    0.00000E+00         0.00000E+00         0.84749E+07
 
    0.72514E+07        -0.44828E+05         0.00000E+00
   -0.44828E+05         0.20571E+08         0.00000E+00
    0.00000E+00         0.00000E+00         0.83466E+07
 
    0.70175E+07        -0.47780E+05         0.00000E+00
   -0.47780E+05         0.20376E+08         0.00000E+00
    0.00000E+00         0.00000E+00         0.82181E+07
 
    0.68059E+07        -0.27214E+05         0.00000E+00
   -0.27214E+05         0.20195E+08         0.00000E+00
    0.00000E+00         0.00000E+00         0.81004E+07
 
    0.12996E+08        -0.36741E+04         0.00000E+00
   -0.36741E+04         0.29525E+08         0.00000E+00
    0.00000E+00         0.00000E+00         0.12756E+08
 
    0.12964E+08        -0.51385E+04         0.00000E+00
   -0.51385E+04         0.29498E+08         0.00000E+00
    0.00000E+00         0.00000E+00         0.12739E+08
 
    0.12930E+08        -0.41154E+04         0.00000E+00
   -0.41154E+04         0.29470E+08         0.00000E+00
    0.00000E+00         0.00000E+00         0.12720E+08
 
    0.12897E+08        -0.32098E+04         0.00000E+00
   -0.32098E+04         0.29443E+08         0.00000E+00
    0.00000E+00         0.00000E+00         0.12702E+08
 
    0.12865E+08        -0.21195E+04         0.00000E+00
   -0.21195E+04         0.29415E+08         0.00000E+00
    0.00000E+00         0.00000E+00         0.12684E+08
 
    0.12836E+08        -0.10170E+04         0.00000E+00
   -0.10170E+04         0.29387E+08         0.00000E+00
    0.00000E+00         0.00000E+00         0.12667E+08
 
    0.12807E+08         0.90355E+02         0.00000E+00
    0.90355E+02         0.29359E+08         0.00000E+00
    0.00000E+00         0.00000E+00         0.12650E+08
 
    0.12781E+08         0.11718E+04         0.00000E+00
    0.11718E+04         0.29331E+08         0.00000E+00
    0.00000E+00         0.00000E+00         0.12634E+08
 
    0.12756E+08         0.22088E+04         0.00000E+00
    0.22088E+04         0.29302E+08         0.00000E+00
    0.00000E+00         0.00000E+00         0.12618E+08
 
    0.12733E+08         0.31893E+04         0.00000E+00
    0.31893E+04         0.29273E+08         0.00000E+00
    0.00000E+00         0.00000E+00         0.12602E+08
 
    0.12711E+08         0.41057E+04         0.00000E+00
    0.41057E+04         0.29244E+08         0.00000E+00
    0.00000E+00         0.00000E+00         0.12587E+08
 
    0.12691E+08         0.49563E+04         0.00000E+00
    0.49563E+04         0.29215E+08         0.00000E+00
    0.00000E+00         0.00000E+00         0.12572E+08
 
    0.12672E+08         0.57424E+04         0.00000E+00
    0.57424E+04         0.29184E+08         0.00000E+00
    0.00000E+00         0.00000E+00         0.12557E+08
 
    0.12653E+08         0.64681E+04         0.00000E+00
    0.64681E+04         0.29154E+08         0.00000E+00
    0.00000E+00         0.00000E+00         0.12542E+08
 
    0.12636E+08         0.71392E+04         0.00000E+00
    0.71392E+04         0.29123E+08         0.00000E+00
    0.00000E+00         0.00000E+00         0.12528E+08
 
    0.12619E+08         0.77620E+04         0.00000E+00
    0.77620E+04         0.29091E+08         0.00000E+00
    0.00000E+00         0.00000E+00         0.12513E+08
 
    0.12603E+08         0.83432E+04         0.00000E+00
    0.83432E+04         0.29059E+08         0.00000E+00
    0.00000E+00         0.00000E+00         0.12499E+08
 
    0.12587E+08         0.88894E+04         0.00000E+00
    0.88894E+04         0.29026E+08         0.00000E+00
    0.00000E+00         0.00000E+00         0.12484E+08
 
    0.12572E+08         0.94066E+04         0.00000E+00
    0.94066E+04         0.28993E+08         0.00000E+00
    0.00000E+00         0.00000E+00         0.12469E+08
 
    0.12557E+08         0.99001E+04         0.00000E+00
    0.99001E+04         0.28958E+08         0.00000E+00
    0.00000E+00         0.00000E+00         0.12455E+08
 
    0.12542E+08         0.10375E+05         0.00000E+00
    0.10375E+05         0.28923E+08         0.00000E+00
    0.00000E+00         0.00000E+00         0.12440E+08
 
    0.12528E+08         0.10835E+05         0.00000E+00
    0.10835E+05         0.28888E+08         0.00000E+00
    0.00000E+00         0.00000E+00         0.12425E+08
 
    0.12513E+08         0.11284E+05         0.00000E+00
    0.11284E+05         0.28851E+08         0.00000E+00
    0.00000E+00         0.00000E+00         0.12409E+08
 
    0.12498E+08         0.11725E+05         0.00000E+00
    0.11725E+05         0.28813E+08         0.00000E+00
    0.00000E+00         0.00000E+00         0.12394E+08
 
    0.12484E+08         0.12161E+05         0.00000E+00
    0.12161E+05         0.28775E+08         0.00000E+00
    0.00000E+00         0.00000E+00         0.12378E+08
 
    0.12469E+08         0.12593E+05         0.00000E+00
    0.12593E+05         0.28735E+08         0.00000E+00
    0.00000E+00         0.00000E+00         0.12361E+08
 
    0.12454E+08         0.13023E+05         0.00000E+00
    0.13023E+05         0.28695E+08         0.00000E+00
    0.00000E+00         0.00000E+00         0.12345E+08
 
    0.12439E+08         0.13453E+05         0.00000E+00
    0.13453E+05         0.28653E+08         0.00000E+00
    0.00000E+00         0.00000E+00         0.12328E+08
 
    0.12423E+08         0.13885E+05         0.00000E+00
    0.13885E+05         0.28611E+08         0.00000E+00
    0.00000E+00         0.00000E+00         0.12310E+08
 
    0.12407E+08         0.14318E+05         0.00000E+00
    0.14318E+05         0.28567E+08         0.00000E+00
    0.00000E+00         0.00000E+00         0.12292E+08
 
    0.12391E+08         0.14754E+05         0.00000E+00
    0.14754E+05         0.28522E+08         0.00000E+00
    0.00000E+00         0.00000E+00         0.12274E+08
 
    0.12375E+08         0.15194E+05         0.00000E+00
    0.15194E+05         0.28475E+08         0.00000E+00
    0.00000E+00         0.00000E+00         0.12255E+08
 
    0.12358E+08         0.15638E+05         0.00000E+00
    0.15638E+05         0.28427E+08         0.00000E+00
    0.00000E+00         0.00000E+00         0.12236E+08
 
    0.12340E+08         0.16086E+05         0.00000E+00
    0.16086E+05         0.28378E+08         0.00000E+00
    0.00000E+00         0.00000E+00         0.12216E+08
 
    0.12322E+08         0.16539E+05         0.00000E+00
    0.16539E+05         0.28328E+08         0.00000E+00
    0.00000E+00         0.00000E+00         0.12195E+08
 
    0.12304E+08         0.16997E+05         0.00000E+00
    0.16997E+05         0.28276E+08         0.00000E+00
    0.00000E+00         0.00000E+00         0.12174E+08
 
    0.12285E+08         0.17460E+05         0.00000E+00
    0.17460E+05         0.28223E+08         0.00000E+00
    0.00000E+00         0.00000E+00         0.12152E+08
 
    0.12265E+08         0.17929E+05         0.00000E+00
    0.17929E+05         0.28168E+08         0.00000E+00
    0.00000E+00         0.00000E+00         0.12130E+08
 
    0.12244E+08         0.18403E+05         0.00000E+00
    0.18403E+05         0.28111E+08         0.00000E+00
    0.00000E+00         0.00000E+00         0.12107E+08
 
    0.12223E+08         0.18882E+05         0.00000E+00
    0.18882E+05         0.28053E+08         0.00000E+00
    0.00000E+00         0.00000E+00         0.12083E+08
 
    0.12201E+08         0.19366E+05         0.00000E+00
    0.19366E+05         0.27993E+08         0.00000E+00
    0.00000E+00         0.00000E+00         0.12058E+08
 
    0.12179E+08         0.19856E+05         0.00000E+00
    0.19856E+05         0.27931E+08         0.00000E+00
    0.00000E+00         0.00000E+00         0.12033E+08
 
    0.12155E+08         0.20350E+05         0.00000E+00
    0.20350E+05         0.27867E+08         0.00000E+00
    0.00000E+00         0.00000E+00         0.12007E+08
 
    0.12131E+08         0.20848E+05         0.00000E+00
    0.20848E+05         0.27802E+08         0.00000E+00
    0.00000E+00         0.00000E+00         0.11980E+08
 
    0.12106E+08         0.21350E+05         0.00000E+00
    0.21350E+05         0.27734E+08         0.00000E+00
    0.00000E+00         0.00000E+00         0.11952E+08
 
    0.12079E+08         0.21856E+05         0.00000E+00
    0.21856E+05         0.27665E+08         0.00000E+00
    0.00000E+00         0.00000E+00         0.11923E+08
 
    0.12052E+08         0.22365E+05         0.00000E+00
    0.22365E+05         0.27594E+08         0.00000E+00
    0.00000E+00         0.00000E+00         0.11894E+08
 
    0.12024E+08         0.22876E+05         0.00000E+00
    0.22876E+05         0.27520E+08         0.00000E+00
    0.00000E+00         0.00000E+00         0.11863E+08
 
    0.11994E+08         0.23389E+05         0.00000E+00
    0.23389E+05         0.27445E+08         0.00000E+00
    0.00000E+00         0.00000E+00         0.11832E+08
 
    0.11964E+08         0.23902E+05         0.00000E+00
    0.23902E+05         0.27367E+08         0.00000E+00
    0.00000E+00         0.00000E+00         0.11799E+08
 
    0.11932E+08         0.24415E+05         0.00000E+00
    0.24415E+05         0.27287E+08         0.00000E+00
    0.00000E+00         0.00000E+00         0.11766E+08
 
    0.11899E+08         0.24927E+05         0.00000E+00
    0.24927E+05         0.27205E+08         0.00000E+00
    0.00000E+00         0.00000E+00         0.11731E+08
 
    0.11865E+08         0.25437E+05         0.00000E+00
    0.25437E+05         0.27120E+08         0.00000E+00
    0.00000E+00         0.00000E+00         0.11695E+08
 
    0.11829E+08         0.25943E+05         0.00000E+00
    0.25943E+05         0.27033E+08         0.00000E+00
    0.00000E+00         0.00000E+00         0.11659E+08
 
    0.11792E+08         0.26444E+05         0.00000E+00
    0.26444E+05         0.26944E+08         0.00000E+00
    0.00000E+00         0.00000E+00         0.11621E+08
 
    0.11753E+08         0.26940E+05         0.00000E+00
    0.26940E+05         0.26852E+08         0.00000E+00
    0.00000E+00         0.00000E+00         0.11581E+08
 
    0.11713E+08         0.27427E+05         0.00000E+00
    0.27427E+05         0.26757E+08         0.00000E+00
    0.00000E+00         0.00000E+00         0.11541E+08
 
    0.11671E+08         0.27905E+05         0.00000E+00
    0.27905E+05         0.26660E+08         0.00000E+00
    0.00000E+00         0.00000E+00         0.11499E+08
 
    0.11628E+08         0.28371E+05         0.00000E+00
    0.28371E+05         0.26561E+08         0.00000E+00
    0.00000E+00         0.00000E+00         0.11457E+08
 
    0.11583E+08         0.28824E+05         0.00000E+00
    0.28824E+05         0.26459E+08         0.00000E+00
    0.00000E+00         0.00000E+00         0.11412E+08
 
    0.11536E+08         0.29262E+05         0.00000E+00
    0.29262E+05         0.26354E+08         0.00000E+00
    0.00000E+00         0.00000E+00         0.11367E+08
 
    0.11487E+08         0.29682E+05         0.00000E+00
    0.29682E+05         0.26246E+08         0.00000E+00
    0.00000E+00         0.00000E+00         0.11320E+08
 
    0.11437E+08         0.30081E+05         0.00000E+00
    0.30081E+05         0.26136E+08         0.00000E+00
    0.00000E+00         0.00000E+00         0.11272E+08
 
    0.11384E+08         0.30458E+05         0.00000E+00
    0.30458E+05         0.26022E+08         0.00000E+00
    0.00000E+00         0.00000E+00         0.11222E+08
 
    0.11329E+08         0.30809E+05         0.00000E+00
    0.30809E+05         0.25906E+08         0.00000E+00
    0.00000E+00         0.00000E+00         0.11171E+08
 
    0.11272E+08         0.31131E+05         0.00000E+00
    0.31131E+05         0.25787E+08         0.00000E+00
    0.00000E+00         0.00000E+00         0.11118E+08
 
    0.11213E+08         0.31420E+05         0.00000E+00
    0.31420E+05         0.25666E+08         0.00000E+00
    0.00000E+00         0.00000E+00         0.11064E+08
 
    0.11151E+08         0.31674E+05         0.00000E+00
    0.31674E+05         0.25541E+08         0.00000E+00
    0.00000E+00         0.00000E+00         0.11008E+08
 
    0.11087E+08         0.31887E+05         0.00000E+00
    0.31887E+05         0.25414E+08         0.00000E+00
    0.00000E+00         0.00000E+00         0.10950E+08
 
    0.11021E+08         0.32055E+05         0.00000E+00
    0.32055E+05         0.25283E+08         0.00000E+00
    0.00000E+00         0.00000E+00         0.10891E+08
 
    0.10952E+08         0.32173E+05         0.00000E+00
    0.32173E+05         0.25150E+08         0.00000E+00
    0.00000E+00         0.00000E+00         0.10830E+08
 
    0.10880E+08         0.32236E+05         0.00000E+00
    0.32236E+05         0.25013E+08         0.00000E+00
    0.00000E+00         0.00000E+00         0.10768E+08
 
    0.10805E+08         0.32236E+05         0.00000E+00
    0.32236E+05         0.24874E+08         0.00000E+00
    0.00000E+00         0.00000E+00         0.10704E+08
 
    0.10728E+08         0.32167E+05         0.00000E+00
    0.32167E+05         0.24732E+08         0.00000E+00
    0.00000E+00         0.00000E+00         0.10638E+08
 
    0.10647E+08         0.32018E+05         0.00000E+00
    0.32018E+05         0.24587E+08         0.00000E+00
    0.00000E+00         0.00000E+00         0.10570E+08
 
    0.10563E+08         0.31780E+05         0.00000E+00
    0.31780E+05         0.24439E+08         0.00000E+00
    0.00000E+00         0.00000E+00         0.10500E+08
 
    0.10475E+08         0.31441E+05         0.00000E+00
    0.31441E+05         0.24288E+08         0.00000E+00
    0.00000E+00         0.00000E+00         0.10429E+08
 
    0.10384E+08         0.30987E+05         0.00000E+00
    0.30987E+05         0.24134E+08         0.00000E+00
    0.00000E+00         0.00000E+00         0.10355E+08
 
    0.10289E+08         0.30399E+05         0.00000E+00
    0.30399E+05         0.23977E+08         0.00000E+00
    0.00000E+00         0.00000E+00         0.10280E+08
 
    0.10190E+08         0.29659E+05         0.00000E+00
    0.29659E+05         0.23818E+08         0.00000E+00
    0.00000E+00         0.00000E+00         0.10202E+08
 
    0.10087E+08         0.28743E+05         0.00000E+00
    0.28743E+05         0.23656E+08         0.00000E+00
    0.00000E+00         0.00000E+00         0.10123E+08
 
    0.99786E+07         0.27624E+05         0.00000E+00
    0.27624E+05         0.23491E+08         0.00000E+00
    0.00000E+00         0.00000E+00         0.10041E+08
 
    0.98655E+07         0.26271E+05         0.00000E+00
    0.26271E+05         0.23324E+08         0.00000E+00
    0.00000E+00         0.00000E+00         0.99567E+07
 
    0.97471E+07         0.24648E+05         0.00000E+00
    0.24648E+05         0.23154E+08         0.00000E+00
    0.00000E+00         0.00000E+00         0.98702E+07
 
    0.96228E+07         0.22718E+05         0.00000E+00
    0.22718E+05         0.22981E+08         0.00000E+00
    0.00000E+00         0.00000E+00         0.97812E+07
 
    0.94921E+07         0.20439E+05         0.00000E+00
    0.20439E+05         0.22806E+08         0.00000E+00
    0.00000E+00         0.00000E+00         0.96896E+07
 
    0.93544E+07         0.17771E+05         0.00000E+00
    0.17771E+05         0.22629E+08         0.00000E+00
    0.00000E+00         0.00000E+00         0.95951E+07
 
    0.92091E+07         0.14674E+05         0.00000E+00
    0.14674E+05         0.22450E+08         0.00000E+00
    0.00000E+00         0.00000E+00         0.94978E+07
 
    0.90554E+07         0.11117E+05         0.00000E+00
    0.11117E+05         0.22269E+08         0.00000E+00
    0.00000E+00         0.00000E+00         0.93973E+07
 
    0.88927E+07         0.70786E+04         0.00000E+00
    0.70786E+04         0.22086E+08         0.00000E+00
    0.00000E+00         0.00000E+00         0.92936E+07
 
    0.87202E+07         0.25599E+04         0.00000E+00
    0.25599E+04         0.21901E+08         0.00000E+00
    0.00000E+00         0.00000E+00         0.91864E+07
 
    0.85373E+07        -0.24146E+04         0.00000E+00
   -0.24146E+04         0.21715E+08         0.00000E+00
    0.00000E+00         0.00000E+00         0.90756E+07
 
    0.83434E+07        -0.77799E+04         0.00000E+00
   -0.77799E+04         0.21527E+08         0.00000E+00
    0.00000E+00         0.00000E+00         0.89610E+07
 
    0.81383E+07        -0.13438E+05         0.00000E+00
   -0.13438E+05         0.21337E+08         0.00000E+00
    0.00000E+00         0.00000E+00         0.88427E+07
 
    0.79218E+07        -0.19243E+05         0.00000E+00
   -0.19243E+05         0.21147E+08         0.00000E+00
    0.00000E+00         0.00000E+00         0.87206E+07
 
    0.76944E+07        -0.24964E+05         0.00000E+00
   -0.24964E+05         0.20956E+08         0.00000E+00
    0.00000E+00         0.00000E+00         0.85950E+07
 
    0.74572E+07        -0.30535E+05         0.00000E+00
   -0.30535E+05         0.20763E+08         0.00000E+00
    0.00000E+00         0.00000E+00         0.84662E+07
 
    0.72129E+07        -0.34727E+05         0.00000E+00
   -0.34727E+05         0.20571E+08         0.00000E+00
    0.00000E+00         0.00000E+00         0.83353E+07
 
    0.69654E+07        -0.39647E+05         0.00000E+00
   -0.39647E+05         0.20377E+08         0.00000E+00
    0.00000E+00         0.00000E+00         0.82028E+07
 
    0.67408E+07        -0.27001E+05         0.00000E+00
   -0.27001E+05         0.20186E+08         0.00000E+00
    0.00000E+00         0.00000E+00         0.80780E+07
 
    0.13007E+08        -0.35423E+04         0.00000E+00
   -0.35423E+04         0.29527E+08         0.00000E+00
    0.00000E+00         0.00000E+00         0.12760E+08
 
    0.12972E+08        -0.35719E+04         0.00000E+00
   -0.35719E+04         0.29498E+08         0.00000E+00
    0.00000E+00         0.00000E+00         0.12741E+08
 
    0.12936E+08        -0.27382E+04         0.00000E+00
   -0.27382E+04         0.29470E+08         0.00000E+00
    0.00000E+00         0.00000E+00         0.12722E+08
 
    0.12902E+08        -0.21587E+04         0.00000E+00
   -0.21587E+04         0.29443E+08         0.00000E+00
    0.00000E+00         0.00000E+00         0.12703E+08
 
    0.12869E+08        -0.14225E+04         0.00000E+00
   -0.14225E+04         0.29415E+08         0.00000E+00
    0.00000E+00         0.00000E+00         0.12685E+08
 
    0.12839E+08        -0.73686E+03         0.00000E+00
   -0.73686E+03         0.29387E+08         0.00000E+00
    0.00000E+00         0.00000E+00         0.12668E+08
 
    0.12810E+08        -0.37299E+02         0.00000E+00
   -0.37299E+02         0.29359E+08         0.00000E+00
    0.00000E+00         0.00000E+00         0.12651E+08
 
    0.12783E+08         0.63187E+03         0.00000E+00
    0.63187E+03         0.29331E+08         0.00000E+00
    0.00000E+00         0.00000E+00         0.12634E+08
 
    0.12758E+08         0.12739E+04         0.00000E+00
    0.12739E+04         0.29302E+08         0.00000E+00
    0.00000E+00         0.00000E+00         0.12618E+08
 
    0.12735E+08         0.18767E+04         0.00000E+00
    0.18767E+04         0.29273E+08         0.00000E+00
    0.00000E+00         0.00000E+00         0.12602E+08
 
    0.12713E+08         0.24389E+04         0.00000E+00
    0.24389E+04         0.29244E+08         0.00000E+00
    0.00000E+00         0.00000E+00         0.12587E+08
 
    0.12692E+08         0.29587E+04         0.00000E+00
    0.29587E+04         0.29214E+08         0.00000E+00
    0.00000E+00         0.00000E+00         0.12572E+08
 
    0.12673E+08         0.34378E+04         0.00000E+00
    0.34378E+04         0.29184E+08         0.00000E+00
    0.00000E+00         0.00000E+00         0.12557E+08
 
    0.12655E+08         0.38789E+04         0.00000E+00
    0.38789E+04         0.29154E+08         0.00000E+00
    0.00000E+00         0.00000E+00         0.12543E+08
 
    0.12637E+08         0.42858E+04         0.00000E+00
    0.42858E+04         0.29123E+08         0.00000E+00
    0.00000E+00         0.00000E+00         0.12528E+08
 
    0.12621E+08         0.46627E+04         0.00000E+00
    0.46627E+04         0.29091E+08         0.00000E+00
    0.00000E+00         0.00000E+00         0.12514E+08
 
    0.12604E+08         0.50138E+04         0.00000E+00
    0.50138E+04         0.29059E+08         0.00000E+00
    0.00000E+00         0.00000E+00         0.12499E+08
 
    0.12589E+08         0.53432E+04         0.00000E+00
    0.53432E+04         0.29026E+08         0.00000E+00
    0.00000E+00         0.00000E+00         0.12484E+08
 
    0.12574E+08         0.56547E+04         0.00000E+00
    0.56547E+04         0.28993E+08         0.00000E+00
    0.00000E+00         0.00000E+00         0.12470E+08
 
    0.12559E+08         0.59517E+04         0.00000E+00
    0.59517E+04         0.28958E+08         0.00000E+00
    0.00000E+00         0.00000E+00         0.12455E+08
 
    0.12544E+08         0.62371E+04         0.00000E+00
    0.62371E+04         0.28923E+08         0.00000E+00
    0.00000E+00         0.00000E+00         0.12440E+08
 
    0.12529E+08         0.65137E+04         0.00000E+00
    0.65137E+04         0.28888E+08         0.00000E+00
    0.00000E+00         0.00000E+00         0.12425E+08
 
    0.12515E+08         0.67835E+04         0.00000E+00
    0.67835E+04         0.28851E+08         0.00000E+00
    0.00000E+00         0.00000E+00         0.12410E+08
 
    0.12500E+08         0.70483E+04         0.00000E+00
    0.70483E+04         0.28813E+08         0.00000E+00
    0.00000E+00         0.00000E+00         0.12394E+08
 
    0.12485E+08         0.73098E+04         0.00000E+00
    0.73098E+04         0.28775E+08         0.00000E+00
    0.00000E+00         0.00000E+00         0.12378E+08
 
    0.12471E+08         0.75693E+04         0.00000E+00
    0.75693E+04         0.28735E+08         0.00000E+00
    0.00000E+00         0.00000E+00         0.12362E+08
 
    0.12456E+08         0.78277E+04         0.00000E+00
    0.78277E+04         0.28695E+08         0.00000E+00
    0.00000E+00         0.00000E+00         0.12345E+08
 
    0.12441E+08         0.80861E+04         0.00000E+00
    0.80861E+04         0.28653E+08         0.00000E+00
    0.00000E+00         0.00000E+00         0.12328E+08
 
    0.12425E+08         0.83450E+04         0.00000E+00
    0.83450E+04         0.28610E+08         0.00000E+00
    0.00000E+00         0.00000E+00         0.12311E+08
 
    0.12409E+08         0.86052E+04         0.00000E+00
    0.86052E+04         0.28567E+08         0.00000E+00
    0.00000E+00         0.00000E+00         0.12293E+08
 
    0.12393E+08         0.88670E+04         0.00000E+00
    0.88670E+04         0.28521E+08         0.00000E+00
    0.00000E+00         0.00000E+00         0.12274E+08
 
    0.12377E+08         0.91310E+04         0.00000E+00
    0.91310E+04         0.28475E+08         0.00000E+00
    0.00000E+00         0.00000E+00         0.12256E+08
 
    0.12360E+08         0.93974E+04         0.00000E+00
    0.93974E+04         0.28427E+08         0.00000E+00
    0.00000E+00         0.00000E+00         0.12236E+08
 
    0.12343E+08         0.96664E+04         0.00000E+00
    0.96664E+04         0.28378E+08         0.00000E+00
    0.00000E+00         0.00000E+00         0.12216E+08
 
    0.12325E+08         0.99384E+04         0.00000E+00
    0.99384E+04         0.28328E+08         0.00000E+00
    0.00000E+00         0.00000E+00         0.12196E+08
 
    0.12306E+08         0.10213E+05         0.00000E+00
    0.10213E+05         0.28276E+08         0.00000E+00
    0.00000E+00         0.00000E+00         0.12175E+08
 
    0.12287E+08         0.10491E+05         0.00000E+00
    0.10491E+05         0.28222E+08         0.00000E+00
    0.00000E+00         0.00000E+00         0.12153E+08
 
    0.12268E+08         0.10773E+05         0.00000E+00
    0.10773E+05         0.28167E+08         0.00000E+00
    0.00000E+00         0.00000E+00         0.12130E+08
 
    0.12247E+08         0.11057E+05         0.00000E+00
    0.11057E+05         0.28111E+08         0.00000E+00
    0.00000E+00         0.00000E+00         0.12107E+08
 
    0.12226E+08         0.11345E+05         0.00000E+00
    0.11345E+05         0.28053E+08         0.00000E+00
    0.00000E+00         0.00000E+00         0.12084E+08
 
    0.12204E+08         0.11635E+05         0.00000E+00
    0.11635E+05         0.27993E+08         0.00000E+00
    0.00000E+00         0.00000E+00         0.12059E+08
 
    0.12182E+08         0.11929E+05         0.00000E+00
    0.11929E+05         0.27931E+08         0.00000E+00
    0.00000E+00         0.00000E+00         0.12034E+08
 
    0.12158E+08         0.12225E+05         0.00000E+00
    0.12225E+05         0.27867E+08         0.00000E+00
    0.00000E+00         0.00000E+00         0.12008E+08
 
    0.12134E+08         0.12524E+05         0.00000E+00
    0.12524E+05         0.27802E+08         0.00000E+00
    0.00000E+00         0.00000E+00         0.11981E+08
 
    0.12109E+08         0.12826E+05         0.00000E+00
    0.12826E+05         0.27734E+08         0.00000E+00
    0.00000E+00         0.00000E+00         0.11953E+08
 
    0.12083E+08         0.13129E+05         0.00000E+00
    0.13129E+05         0.27665E+08         0.00000E+00
    0.00000E+00         0.00000E+00         0.11924E+08
 
    0.12055E+08         0.13434E+05         0.00000E+00
    0.13434E+05         0.27594E+08         0.00000E+00
    0.00000E+00         0.00000E+00         0.11895E+08
 
    0.12027E+08         0.13741E+05         0.00000E+00
    0.13741E+05         0.27520E+08         0.00000E+00
    0.00000E+00         0.00000E+00         0.11864E+08
 
    0.11998E+08         0.14048E+05         0.00000E+00
    0.14048E+05         0.27445E+08         0.00000E+00
    0.00000E+00         0.00000E+00         0.11833E+08
 
    0.11967E+08         0.14356E+05         0.00000E+00
    0.14356E+05         0.27367E+08         0.00000E+00
    0.00000E+00         0.00000E+00         0.11800E+08
 
    0.11936E+08         0.14663E+05         0.00000E+00
    0.14663E+05         0.27287E+08         0.00000E+00
    0.00000E+00         0.00000E+00         0.11767E+08
 
    0.11903E+08         0.14970E+05         0.00000E+00
    0.14970E+05         0.27205E+08         0.00000E+00
    0.00000E+00         0.00000E+00         0.11732E+08
 
    0.11868E+08         0.15275E+05         0.00000E+00
    0.15275E+05         0.27120E+08         0.00000E+00
    0.00000E+00         0.00000E+00         0.11697E+08
 
    0.11833E+08         0.15579E+05         0.00000E+00
    0.15579E+05         0.27033E+08         0.00000E+00
    0.00000E+00         0.00000E+00         0.11660E+08
 
    0.11796E+08         0.15879E+05         0.00000E+00
    0.15879E+05         0.26944E+08         0.00000E+00
    0.00000E+00         0.00000E+00         0.11622E+08
 
    0.11757E+08         0.16175E+05         0.00000E+00
    0.16175E+05         0.26852E+08         0.00000E+00
    0.00000E+00         0.00000E+00         0.11583E+08
 
    0.11717E+08         0.16467E+05         0.00000E+00
    0.16467E+05         0.26757E+08         0.00000E+00
    0.00000E+00         0.00000E+00         0.11542E+08
 
    0.11675E+08         0.16753E+05         0.00000E+00
    0.16753E+05         0.26660E+08         0.00000E+00
    0.00000E+00         0.00000E+00         0.11501E+08
 
    0.11632E+08         0.17032E+05         0.00000E+00
    0.17032E+05         0.26561E+08         0.00000E+00
    0.00000E+00         0.00000E+00         0.11458E+08
 
    0.11587E+08         0.17303E+05         0.00000E+00
    0.17303E+05         0.26458E+08         0.00000E+00
    0.00000E+00         0.00000E+00         0.11414E+08
 
    0.11540E+08         0.17564E+05         0.00000E+00
    0.17564E+05         0.26354E+08         0.00000E+00
    0.00000E+00         0.00000E+00         0.11368E+08
 
    0.11491E+08         0.17815E+05         0.00000E+00
    0.17815E+05         0.26246E+08         0.00000E+00
    0.00000E+00         0.00000E+00         0.11321E+08
 
    0.11441E+08         0.18054E+05         0.00000E+00
    0.18054E+05         0.26136E+08         0.00000E+00
    0.00000E+00         0.00000E+00         0.11273E+08
 
    0.11388E+08         0.18279E+05         0.00000E+00
    0.18279E+05         0.26022E+08         0.00000E+00
    0.00000E+00         0.00000E+00         0.11223E+08
 
    0.11333E+08         0.18488E+05         0.00000E+00
    0.18488E+05         0.25906E+08         0.00000E+00
    0.00000E+00         0.00000E+00         0.11172E+08
 
    0.11276E+08         0.18679E+05         0.00000E+00
    0.18679E+05         0.25787E+08         0.00000E+00
    0.00000E+00         0.00000E+00         0.11119E+08
 
    0.11217E+08         0.18852E+05         0.00000E+00
    0.18852E+05         0.25666E+08         0.00000E+00
    0.00000E+00         0.00000E+00         0.11065E+08
 
    0.11156E+08         0.19002E+05         0.00000E+00
    0.19002E+05         0.25541E+08         0.00000E+00
    0.00000E+00         0.00000E+00         0.11009E+08
 
    0.11092E+08         0.19128E+05         0.00000E+00
    0.19128E+05         0.25413E+08         0.00000E+00
    0.00000E+00         0.00000E+00         0.10952E+08
 
    0.11025E+08         0.19228E+05         0.00000E+00
    0.19228E+05         0.25283E+08         0.00000E+00
    0.00000E+00         0.00000E+00         0.10892E+08
 
    0.10956E+08         0.19297E+05         0.00000E+00
    0.19297E+05         0.25150E+08         0.00000E+00
    0.00000E+00         0.00000E+00         0.10832E+08
 
    0.10884E+08         0.19333E+05         0.00000E+00
    0.19333E+05         0.25013E+08         0.00000E+00
    0.00000E+00         0.00000E+00         0.10769E+08
 
    0.10809E+08         0.19331E+05         0.00000E+00
    0.19331E+05         0.24874E+08         0.00000E+00
    0.00000E+00         0.00000E+00         0.10705E+08
 
    0.10732E+08         0.19287E+05         0.00000E+00
    0.19287E+05         0.24732E+08         0.00000E+00
    0.00000E+00         0.00000E+00         0.10639E+08
 
    0.10651E+08         0.19196E+05         0.00000E+00
    0.19196E+05         0.24587E+08         0.00000E+00
    0.00000E+00         0.00000E+00         0.10571E+08
 
    0.10567E+08         0.19051E+05         0.00000E+00
    0.19051E+05         0.24439E+08         0.00000E+00
    0.00000E+00         0.00000E+00         0.10502E+08
 
    0.10479E+08         0.18845E+05         0.00000E+00
    0.18845E+05         0.24288E+08         0.00000E+00
    0.00000E+00         0.00000E+00         0.10430E+08
 
    0.10388E+08         0.18570E+05         0.00000E+00
    0.18570E+05         0.24134E+08         0.00000E+00
    0.00000E+00         0.00000E+00         0.10356E+08
 
    0.10292E+08         0.18214E+05         0.00000E+00
    0.18214E+05         0.23977E+08         0.00000E+00
    0.00000E+00         0.00000E+00         0.10281E+08
 
    0.10193E+08         0.17766E+05         0.00000E+00
    0.17766E+05         0.23818E+08         0.00000E+00
    0.00000E+00         0.00000E+00         0.10203E+08
 
    0.10090E+08         0.17210E+05         0.00000E+00
    0.17210E+05         0.23656E+08         0.00000E+00
    0.00000E+00         0.00000E+00         0.10124E+08
 
    0.99814E+07         0.16532E+05         0.00000E+00
    0.16532E+05         0.23491E+08         0.00000E+00
    0.00000E+00         0.00000E+00         0.10042E+08
 
    0.98681E+07         0.15710E+05         0.00000E+00
    0.15710E+05         0.23324E+08         0.00000E+00
    0.00000E+00         0.00000E+00         0.99576E+07
 
    0.97494E+07         0.14723E+05         0.00000E+00
    0.14723E+05         0.23154E+08         0.00000E+00
    0.00000E+00         0.00000E+00         0.98710E+07
 
    0.96247E+07         0.13547E+05         0.00000E+00
    0.13547E+05         0.22982E+08         0.00000E+00
    0.00000E+00         0.00000E+00         0.97819E+07
 
    0.94934E+07         0.12157E+05         0.00000E+00
    0.12157E+05         0.22807E+08         0.00000E+00
    0.00000E+00         0.00000E+00         0.96901E+07
 
    0.93551E+07         0.10524E+05         0.00000E+00
    0.10524E+05         0.22630E+08         0.00000E+00
    0.00000E+00         0.00000E+00         0.95955E+07
 
    0.92089E+07         0.86256E+04         0.00000E+00
    0.86256E+04         0.22451E+08         0.00000E+00
    0.00000E+00         0.00000E+00         0.94979E+07
 
    0.90541E+07         0.64382E+04         0.00000E+00
    0.64382E+04         0.22270E+08         0.00000E+00
    0.00000E+00         0.00000E+00         0.93971E+07
 
    0.88900E+07         0.39488E+04         0.00000E+00
    0.39488E+04         0.22087E+08         0.00000E+00
    0.00000E+00         0.00000E+00         0.92930E+07
 
    0.87158E+07         0.11517E+04         0.00000E+00
    0.11517E+04         0.21902E+08         0.00000E+00
    0.00000E+00         0.00000E+00         0.91853E+07
 
    0.85307E+07        -0.19338E+04         0.00000E+00
   -0.19338E+04         0.21715E+08         0.00000E+00
    0.00000E+00         0.00000E+00         0.90738E+07
 
    0.83340E+07        -0.52901E+04         0.00000E+00
   -0.52901E+04         0.21527E+08         0.00000E+00
    0.00000E+00         0.00000E+00         0.89584E+07
 
    0.81254E+07        -0.88236E+04         0.00000E+00
   -0.88236E+04         0.21338E+08         0.00000E+00
    0.00000E+00         0.00000E+00         0.88391E+07
 
    0.79045E+07        -0.12548E+05         0.00000E+00
   -0.12548E+05         0.21148E+08         0.00000E+00
    0.00000E+00         0.00000E+00         0.87157E+07
 
    0.76719E+07        -0.16142E+05         0.00000E+00
   -0.16142E+05         0.20957E+08         0.00000E+00
    0.00000E+00         0.00000E+00         0.85886E+07
 
    0.74276E+07        -0.20048E+05         0.00000E+00
   -0.20048E+05         0.20764E+08         0.00000E+00
    0.00000E+00         0.00000E+00         0.84576E+07
 
    0.71747E+07        -0.22802E+05         0.00000E+00
   -0.22802E+05         0.20572E+08         0.00000E+00
    0.00000E+00         0.00000E+00         0.83239E+07
 
    0.69131E+07        -0.27276E+05         0.00000E+00
   -0.27276E+05         0.20380E+08         0.00000E+00
    0.00000E+00         0.00000E+00         0.81879E+07
 
    0.66671E+07        -0.25613E+05         0.00000E+00
   -0.25613E+05         0.20177E+08         0.00000E+00
    0.00000E+00         0.00000E+00         0.80532E+07
 
    0.13019E+08        -0.30247E+04         0.00000E+00
   -0.30247E+04         0.29528E+08         0.00000E+00
    0.00000E+00         0.00000E+00         0.12764E+08
 
    0.12980E+08        -0.11814E+04         0.00000E+00
   -0.11814E+04         0.29497E+08         0.00000E+00
    0.00000E+00         0.00000E+00         0.12743E+08
 
    0.12942E+08        -0.12272E+04         0.00000E+00
   -0.12272E+04         0.29471E+08         0.00000E+00
    0.00000E+00         0.00000E+00         0.12724E+08
 
    0.12907E+08        -0.82668E+03         0.00000E+00
   -0.82668E+03         0.29442E+08         0.00000E+00
    0.00000E+00         0.00000E+00         0.12705E+08
 
    0.12873E+08        -0.59573E+03         0.00000E+00
   -0.59573E+03         0.29415E+08         0.00000E+00
    0.00000E+00         0.00000E+00         0.12686E+08
 
    0.12842E+08        -0.32291E+03         0.00000E+00
   -0.32291E+03         0.29387E+08         0.00000E+00
    0.00000E+00         0.00000E+00         0.12669E+08
 
    0.12812E+08        -0.76645E+02         0.00000E+00
   -0.76645E+02         0.29359E+08         0.00000E+00
    0.00000E+00         0.00000E+00         0.12651E+08
 
    0.12785E+08         0.16480E+03         0.00000E+00
    0.16480E+03         0.29331E+08         0.00000E+00
    0.00000E+00         0.00000E+00         0.12635E+08
 
    0.12760E+08         0.39060E+03         0.00000E+00
    0.39060E+03         0.29302E+08         0.00000E+00
    0.00000E+00         0.00000E+00         0.12619E+08
 
    0.12736E+08         0.60218E+03         0.00000E+00
    0.60218E+03         0.29273E+08         0.00000E+00
    0.00000E+00         0.00000E+00         0.12603E+08
 
    0.12714E+08         0.79759E+03         0.00000E+00
    0.79759E+03         0.29244E+08         0.00000E+00
    0.00000E+00         0.00000E+00         0.12587E+08
 
    0.12694E+08         0.97730E+03         0.00000E+00
    0.97730E+03         0.29214E+08         0.00000E+00
    0.00000E+00         0.00000E+00         0.12572E+08
 
    0.12674E+08         0.11419E+04         0.00000E+00
    0.11419E+04         0.29184E+08         0.00000E+00
    0.00000E+00         0.00000E+00         0.12558E+08
 
    0.12656E+08         0.12927E+04         0.00000E+00
    0.12927E+04         0.29154E+08         0.00000E+00
    0.00000E+00         0.00000E+00         0.12543E+08
 
    0.12639E+08         0.14311E+04         0.00000E+00
    0.14311E+04         0.29123E+08         0.00000E+00
    0.00000E+00         0.00000E+00         0.12528E+08
 
    0.12622E+08         0.15587E+04         0.00000E+00
    0.15587E+04         0.29091E+08         0.00000E+00
    0.00000E+00         0.00000E+00         0.12514E+08
 
    0.12606E+08         0.16772E+04         0.00000E+00
    0.16772E+04         0.29059E+08         0.00000E+00
    0.00000E+00         0.00000E+00         0.12499E+08
 
    0.12590E+08         0.17881E+04         0.00000E+00
    0.17881E+04         0.29026E+08         0.00000E+00
    0.00000E+00         0.00000E+00         0.12485E+08
 
    0.12575E+08         0.18926E+04         0.00000E+00
    0.18926E+04         0.28993E+08         0.00000E+00
    0.00000E+00         0.00000E+00         0.12470E+08
 
    0.12560E+08         0.19921E+04         0.00000E+00
    0.19921E+04         0.28958E+08         0.00000E+00
    0.00000E+00         0.00000E+00         0.12456E+08
 
    0.12545E+08         0.20876E+04         0.00000E+00
    0.20876E+04         0.28923E+08         0.00000E+00
    0.00000E+00         0.00000E+00         0.12441E+08
 
    0.12531E+08         0.21800E+04         0.00000E+00
    0.21800E+04         0.28887E+08         0.00000E+00
    0.00000E+00         0.00000E+00         0.12425E+08
 
    0.12516E+08         0.22701E+04         0.00000E+00
    0.22701E+04         0.28851E+08         0.00000E+00
    0.00000E+00         0.00000E+00         0.12410E+08
 
    0.12502E+08         0.23586E+04         0.00000E+00
    0.23586E+04         0.28813E+08         0.00000E+00
    0.00000E+00         0.00000E+00         0.12395E+08
 
    0.12487E+08         0.24459E+04         0.00000E+00
    0.24459E+04         0.28775E+08         0.00000E+00
    0.00000E+00         0.00000E+00         0.12379E+08
 
    0.12472E+08         0.25324E+04         0.00000E+00
    0.25324E+04         0.28735E+08         0.00000E+00
    0.00000E+00         0.00000E+00         0.12362E+08
 
    0.12458E+08         0.26187E+04         0.00000E+00
    0.26187E+04         0.28695E+08         0.00000E+00
    0.00000E+00         0.00000E+00         0.12346E+08
 
    0.12443E+08         0.27049E+04         0.00000E+00
    0.27049E+04         0.28653E+08         0.00000E+00
    0.00000E+00         0.00000E+00         0.12329E+08
 
    0.12427E+08         0.27913E+04         0.00000E+00
    0.27913E+04         0.28610E+08         0.00000E+00
    0.00000E+00         0.00000E+00         0.12311E+08
 
    0.12411E+08         0.28781E+04         0.00000E+00
    0.28781E+04         0.28567E+08         0.00000E+00
    0.00000E+00         0.00000E+00         0.12293E+08
 
    0.12395E+08         0.29655E+04         0.00000E+00
    0.29655E+04         0.28521E+08         0.00000E+00
    0.00000E+00         0.00000E+00         0.12275E+08
 
    0.12379E+08         0.30536E+04         0.00000E+00
    0.30536E+04         0.28475E+08         0.00000E+00
    0.00000E+00         0.00000E+00         0.12256E+08
 
    0.12362E+08         0.31425E+04         0.00000E+00
    0.31425E+04         0.28427E+08         0.00000E+00
    0.00000E+00         0.00000E+00         0.12237E+08
 
    0.12345E+08         0.32323E+04         0.00000E+00
    0.32323E+04         0.28378E+08         0.00000E+00
    0.00000E+00         0.00000E+00         0.12217E+08
 
    0.12327E+08         0.33230E+04         0.00000E+00
    0.33230E+04         0.28328E+08         0.00000E+00
    0.00000E+00         0.00000E+00         0.12196E+08
 
    0.12309E+08         0.34147E+04         0.00000E+00
    0.34147E+04         0.28276E+08         0.00000E+00
    0.00000E+00         0.00000E+00         0.12175E+08
 
    0.12290E+08         0.35075E+04         0.00000E+00
    0.35075E+04         0.28222E+08         0.00000E+00
    0.00000E+00         0.00000E+00         0.12154E+08
 
    0.12270E+08         0.36013E+04         0.00000E+00
    0.36013E+04         0.28167E+08         0.00000E+00
    0.00000E+00         0.00000E+00         0.12131E+08
 
    0.12250E+08         0.36962E+04         0.00000E+00
    0.36962E+04         0.28111E+08         0.00000E+00
    0.00000E+00         0.00000E+00         0.12108E+08
 
    0.12229E+08         0.37921E+04         0.00000E+00
    0.37921E+04         0.28053E+08         0.00000E+00
    0.00000E+00         0.00000E+00         0.12084E+08
 
    0.12207E+08         0.38890E+04         0.00000E+00
    0.38890E+04         0.27993E+08         0.00000E+00
    0.00000E+00         0.00000E+00         0.12060E+08
 
    0.12185E+08         0.39868E+04         0.00000E+00
    0.39868E+04         0.27931E+08         0.00000E+00
    0.00000E+00         0.00000E+00         0.12035E+08
 
    0.12161E+08         0.40856E+04         0.00000E+00
    0.40856E+04         0.27867E+08         0.00000E+00
    0.00000E+00         0.00000E+00         0.12009E+08
 
    0.12137E+08         0.41852E+04         0.00000E+00
    0.41852E+04         0.27802E+08         0.00000E+00
    0.00000E+00         0.00000E+00         0.11982E+08
 
    0.12112E+08         0.42856E+04         0.00000E+00
    0.42856E+04         0.27734E+08         0.00000E+00
    0.00000E+00         0.00000E+00         0.11954E+08
 
    0.12086E+08         0.43867E+04         0.00000E+00
    0.43867E+04         0.27665E+08         0.00000E+00
    0.00000E+00         0.00000E+00         0.11925E+08
 
    0.12059E+08         0.44883E+04         0.00000E+00
    0.44883E+04         0.27594E+08         0.00000E+00
    0.00000E+00         0.00000E+00         0.11896E+08
 
    0.12031E+08         0.45903E+04         0.00000E+00
    0.45903E+04         0.27520E+08         0.00000E+00
    0.00000E+00         0.00000E+00         0.11865E+08
 
    0.12001E+08         0.46926E+04         0.00000E+00
    0.46926E+04         0.27445E+08         0.00000E+00
    0.00000E+00         0.00000E+00         0.11834E+08
 
    0.11971E+08         0.47950E+04         0.00000E+00
    0.47950E+04         0.27367E+08         0.00000E+00
    0.00000E+00         0.00000E+00         0.11801E+08
 
    0.11939E+08         0.48973E+04         0.00000E+00
    0.48973E+04         0.27287E+08         0.00000E+00
    0.00000E+00         0.00000E+00         0.11768E+08
 
    0.11906E+08         0.49993E+04         0.00000E+00
    0.49993E+04         0.27205E+08         0.00000E+00
    0.00000E+00         0.00000E+00         0.11733E+08
 
    0.11872E+08         0.51008E+04         0.00000E+00
    0.51008E+04         0.27120E+08         0.00000E+00
    0.00000E+00         0.00000E+00         0.11698E+08
 
    0.11837E+08         0.52016E+04         0.00000E+00
    0.52016E+04         0.27033E+08         0.00000E+00
    0.00000E+00         0.00000E+00         0.11661E+08
 
    0.11800E+08         0.53013E+04         0.00000E+00
    0.53013E+04         0.26944E+08         0.00000E+00
    0.00000E+00         0.00000E+00         0.11623E+08
 
    0.11761E+08         0.53997E+04         0.00000E+00
    0.53997E+04         0.26852E+08         0.00000E+00
    0.00000E+00         0.00000E+00         0.11584E+08
 
    0.11721E+08         0.54965E+04         0.00000E+00
    0.54965E+04         0.26757E+08         0.00000E+00
    0.00000E+00         0.00000E+00         0.11543E+08
 
    0.11679E+08         0.55913E+04         0.00000E+00
    0.55913E+04         0.26660E+08         0.00000E+00
    0.00000E+00         0.00000E+00         0.11502E+08
 
    0.11636E+08         0.56838E+04         0.00000E+00
    0.56838E+04         0.26561E+08         0.00000E+00
    0.00000E+00         0.00000E+00         0.11459E+08
 
    0.11591E+08         0.57735E+04         0.00000E+00
    0.57735E+04         0.26458E+08         0.00000E+00
    0.00000E+00         0.00000E+00         0.11415E+08
 
    0.11544E+08         0.58600E+04         0.00000E+00
    0.58600E+04         0.26354E+08         0.00000E+00
    0.00000E+00         0.00000E+00         0.11369E+08
 
    0.11496E+08         0.59429E+04         0.00000E+00
    0.59429E+04         0.26246E+08         0.00000E+00
    0.00000E+00         0.00000E+00         0.11322E+08
 
    0.11445E+08         0.60217E+04         0.00000E+00
    0.60217E+04         0.26135E+08         0.00000E+00
    0.00000E+00         0.00000E+00         0.11274E+08
 
    0.11392E+08         0.60959E+04         0.00000E+00
    0.60959E+04         0.26022E+08         0.00000E+00
    0.00000E+00         0.00000E+00         0.11224E+08
 
    0.11338E+08         0.61647E+04         0.00000E+00
    0.61647E+04         0.25906E+08         0.00000E+00
    0.00000E+00         0.00000E+00         0.11173E+08
 
    0.11281E+08         0.62277E+04         0.00000E+00
    0.62277E+04         0.25787E+08         0.00000E+00
    0.00000E+00         0.00000E+00         0.11120E+08
 
    0.11222E+08         0.62842E+04         0.00000E+00
    0.62842E+04         0.25666E+08         0.00000E+00
    0.00000E+00         0.00000E+00         0.11066E+08
 
    0.11160E+08         0.63334E+04         0.00000E+00
    0.63334E+04         0.25541E+08         0.00000E+00
    0.00000E+00         0.00000E+00         0.11010E+08
 
    0.11096E+08         0.63744E+04         0.00000E+00
    0.63744E+04         0.25413E+08         0.00000E+00
    0.00000E+00         0.00000E+00         0.10953E+08
 
    0.11029E+08         0.64065E+04         0.00000E+00
    0.64065E+04         0.25283E+08         0.00000E+00
    0.00000E+00         0.00000E+00         0.10894E+08
 
    0.10960E+08         0.64284E+04         0.00000E+00
    0.64284E+04         0.25150E+08         0.00000E+00
    0.00000E+00         0.00000E+00         0.10833E+08
 
    0.10888E+08         0.64393E+04         0.00000E+00
    0.64393E+04         0.25013E+08         0.00000E+00
    0.00000E+00         0.00000E+00         0.10770E+08
 
    0.10814E+08         0.64375E+04         0.00000E+00
    0.64375E+04         0.24874E+08         0.00000E+00
    0.00000E+00         0.00000E+00         0.10706E+08
 
    0.10736E+08         0.64218E+04         0.00000E+00
    0.64218E+04         0.24732E+08         0.00000E+00
    0.00000E+00         0.00000E+00         0.10640E+08
 
    0.10655E+08         0.63902E+04         0.00000E+00
    0.63902E+04         0.24587E+08         0.00000E+00
    0.00000E+00         0.00000E+00         0.10572E+08
 
    0.10570E+08         0.63406E+04         0.00000E+00
    0.63406E+04         0.24439E+08         0.00000E+00
    0.00000E+00         0.00000E+00         0.10503E+08
 
    0.10483E+08         0.62705E+04         0.00000E+00
    0.62705E+04         0.24288E+08         0.00000E+00
    0.00000E+00         0.00000E+00         0.10431E+08
 
    0.10391E+08         0.61770E+04         0.00000E+00
    0.61770E+04         0.24134E+08         0.00000E+00
    0.00000E+00         0.00000E+00         0.10358E+08
 
    0.10296E+08         0.60564E+04         0.00000E+00
    0.60564E+04         0.23977E+08         0.00000E+00
    0.00000E+00         0.00000E+00         0.10282E+08
 
    0.10197E+08         0.59044E+04         0.00000E+00
    0.59044E+04         0.23818E+08         0.00000E+00
    0.00000E+00         0.00000E+00         0.10204E+08
 
    0.10093E+08         0.57161E+04         0.00000E+00
    0.57161E+04         0.23656E+08         0.00000E+00
    0.00000E+00         0.00000E+00         0.10125E+08
 
    0.99846E+07         0.54854E+04         0.00000E+00
    0.54854E+04         0.23491E+08         0.00000E+00
    0.00000E+00         0.00000E+00         0.10043E+08
 
    0.98711E+07         0.52054E+04         0.00000E+00
    0.52054E+04         0.23324E+08         0.00000E+00
    0.00000E+00         0.00000E+00         0.99585E+07
 
    0.97520E+07         0.48682E+04         0.00000E+00
    0.48682E+04         0.23154E+08         0.00000E+00
    0.00000E+00         0.00000E+00         0.98718E+07
 
    0.96269E+07         0.44651E+04         0.00000E+00
    0.44651E+04         0.22982E+08         0.00000E+00
    0.00000E+00         0.00000E+00         0.97826E+07
 
    0.94952E+07         0.39863E+04         0.00000E+00
    0.39863E+04         0.22807E+08         0.00000E+00
    0.00000E+00         0.00000E+00         0.96907E+07
 
    0.93562E+07         0.34219E+04         0.00000E+00
    0.34219E+04         0.22630E+08         0.00000E+00
    0.00000E+00         0.00000E+00         0.95959E+07
 
    0.92093E+07         0.27619E+04         0.00000E+00
    0.27619E+04         0.22451E+08         0.00000E+00
    0.00000E+00         0.00000E+00         0.94981E+07
 
    0.90535E+07         0.19978E+04         0.00000E+00
    0.19978E+04         0.22270E+08         0.00000E+00
    0.00000E+00         0.00000E+00         0.93971E+07
 
    0.88881E+07         0.11224E+04         0.00000E+00
    0.11224E+04         0.22087E+08         0.00000E+00
    0.00000E+00         0.00000E+00         0.92925E+07
 
    0.87122E+07         0.13391E+03         0.00000E+00
    0.13391E+03         0.21902E+08         0.00000E+00
    0.00000E+00         0.00000E+00         0.91843E+07
 
    0.85249E+07        -0.96869E+03         0.00000E+00
   -0.96869E+03         0.21716E+08         0.00000E+00
    0.00000E+00         0.00000E+00         0.90722E+07
 
    0.83255E+07        -0.21688E+04         0.00000E+00
   -0.21688E+04         0.21528E+08         0.00000E+00
    0.00000E+00         0.00000E+00         0.89561E+07
 
    0.81134E+07        -0.34734E+04         0.00000E+00
   -0.34734E+04         0.21339E+08         0.00000E+00
    0.00000E+00         0.00000E+00         0.88356E+07
 
    0.78883E+07        -0.48031E+04         0.00000E+00
   -0.48031E+04         0.21149E+08         0.00000E+00
    0.00000E+00         0.00000E+00         0.87111E+07
 
    0.76500E+07        -0.63067E+04         0.00000E+00
   -0.63067E+04         0.20957E+08         0.00000E+00
    0.00000E+00         0.00000E+00         0.85820E+07
 
    0.73993E+07        -0.75004E+04         0.00000E+00
   -0.75004E+04         0.20766E+08         0.00000E+00
    0.00000E+00         0.00000E+00         0.84496E+07
 
    0.71357E+07        -0.98632E+04         0.00000E+00
   -0.98632E+04         0.20570E+08         0.00000E+00
    0.00000E+00         0.00000E+00         0.83116E+07
 
    0.68640E+07        -0.90692E+04         0.00000E+00
   -0.90692E+04         0.20385E+08         0.00000E+00
    0.00000E+00         0.00000E+00         0.81748E+07
 
    0.65812E+07        -0.21497E+05         0.00000E+00
   -0.21497E+05         0.20170E+08         0.00000E+00
    0.00000E+00         0.00000E+00         0.80252E+07
 
TENSORS stresstot double 
   -0.18812E+08         0.12846E+05         0.00000E+00
    0.12846E+05        -0.19312E+07         0.00000E+00
    0.00000E+00         0.00000E+00        -0.18817E+08
 
   -0.18794E+08         0.33761E+05         0.00000E+00
    0.33761E+05        -0.19197E+07         0.00000E+00
    0.00000E+00         0.00000E+00        -0.18797E+08
 
   -0.18776E+08         0.48300E+05         0.00000E+00
    0.48300E+05        -0.19124E+07         0.00000E+00
    0.00000E+00         0.00000E+00        -0.18779E+08
 
   -0.18759E+08         0.60285E+05         0.00000E+00
    0.60285E+05        -0.19071E+07         0.00000E+00
    0.00000E+00         0.00000E+00        -0.18761E+08
 
   -0.18742E+08         0.70741E+05         0.00000E+00
    0.70741E+05        -0.19038E+07         0.00000E+00
    0.00000E+00         0.00000E+00        -0.18744E+08
 
   -0.18725E+08         0.80283E+05         0.00000E+00
    0.80283E+05        -0.19021E+07         0.00000E+00
    0.00000E+00         0.00000E+00        -0.18727E+08
 
   -0.18709E+08         0.89270E+05         0.00000E+00
    0.89270E+05        -0.19017E+07         0.00000E+00
    0.00000E+00         0.00000E+00        -0.18711E+08
 
   -0.18693E+08         0.97913E+05         0.00000E+00
    0.97913E+05        -0.19022E+07         0.00000E+00
    0.00000E+00         0.00000E+00        -0.18695E+08
 
   -0.18677E+08         0.10633E+06         0.00000E+00
    0.10633E+06        -0.19033E+07         0.00000E+00
    0.00000E+00         0.00000E+00        -0.18679E+08
 
   -0.18662E+08         0.11460E+06         0.00000E+00
    0.11460E+06        -0.19048E+07         0.00000E+00
    0.00000E+00         0.00000E+00        -0.18663E+08
 
   -0.18646E+08         0.12275E+06         0.00000E+00
    0.12275E+06        -0.19065E+07         0.00000E+00
    0.00000E+00         0.00000E+00        -0.18647E+08
 
   -0.18630E+08         0.13079E+06         0.00000E+00
    0.13079E+06        -0.19084E+07         0.00000E+00
    0.00000E+00         0.00000E+00        -0.18631E+08
 
   -0.18613E+08         0.13874E+06         0.00000E+00
    0.13874E+06        -0.19102E+07         0.00000E+00
    0.00000E+00         0.00000E+00        -0.18615E+08
 
   -0.18596E+08         0.14660E+06         0.00000E+00
    0.14660E+06        -0.19119E+07         0.00000E+00
    0.00000E+00         0.00000E+00        -0.18598E+08
 
   -0.18579E+08         0.15438E+06         0.00000E+00
    0.15438E+06        -0.19136E+07         0.00000E+00
    0.00000E+00         0.00000E+00        -0.18581E+08
 
   -0.18562E+08         0.16207E+06         0.00000E+00
    0.16207E+06        -0.19150E+07         0.00000E+00
    0.00000E+00         0.00000E+00        -0.18564E+08
 
   -0.18544E+08         0.16969E+06         0.00000E+00
    0.16969E+06        -0.19163E+07         0.00000E+00
    0.00000E+00         0.00000E+00        -0.18546E+08
 
   -0.18526E+08         0.17725E+06         0.00000E+00
    0.17725E+06        -0.19173E+07         0.00000E+00
    0.00000E+00         0.00000E+00        -0.18527E+08
 
   -0.18507E+08         0.18476E+06         0.00000E+00
    0.18476E+06        -0.19182E+07         0.00000E+00
    0.00000E+00         0.00000E+00        -0.18509E+08
 
   -0.18488E+08         0.19224E+06         0.00000E+00
    0.19224E+06        -0.19190E+07         0.00000E+00
    0.00000E+00         0.00000E+00        -0.18489E+08
 
   -0.18468E+08         0.19970E+06         0.00000E+00
    0.19970E+06        -0.19195E+07         0.00000E+00
    0.00000E+00         0.00000E+00        -0.18470E+08
 
   -0.18448E+08         0.20716E+06         0.00000E+00
    0.20716E+06        -0.19199E+07         0.00000E+00
    0.00000E+00         0.00000E+00        -0.18449E+08
 
   -0.18427E+08         0.21463E+06         0.00000E+00
    0.21463E+06        -0.19201E+07         0.00000E+00
    0.00000E+00         0.00000E+00        -0.18428E+08
 
   -0.18406E+08         0.22214E+06         0.00000E+00
    0.22214E+06        -0.19203E+07         0.00000E+00
    0.00000E+00         0.00000E+00        -0.18407E+08
 
   -0.18384E+08         0.22968E+06         0.00000E+00
    0.22968E+06        -0.19203E+07         0.00000E+00
    0.00000E+00         0.00000E+00        -0.18385E+08
 
   -0.18361E+08         0.23730E+06         0.00000E+00
    0.23730E+06        -0.19202E+07         0.00000E+00
    0.00000E+00         0.00000E+00        -0.18362E+08
 
   -0.18338E+08         0.24498E+06         0.00000E+00
    0.24498E+06        -0.19200E+07         0.00000E+00
    0.00000E+00         0.00000E+00        -0.18339E+08
 
   -0.18314E+08         0.25276E+06         0.00000E+00
    0.25276E+06        -0.19197E+07         0.00000E+00
    0.00000E+00         0.00000E+00        -0.18315E+08
 
   -0.18289E+08         0.26063E+06         0.00000E+00
    0.26063E+06        -0.19193E+07         0.00000E+00
    0.00000E+00         0.00000E+00        -0.18291E+08
 
   -0.18264E+08         0.26862E+06         0.00000E+00
    0.26862E+06        -0.19189E+07         0.00000E+00
    0.00000E+00         0.00000E+00        -0.18265E+08
 
   -0.18238E+08         0.27673E+06         0.00000E+00
    0.27673E+06        -0.19184E+07         0.00000E+00
    0.00000E+00         0.00000E+00        -0.18239E+08
 
   -0.18211E+08         0.28498E+06         0.00000E+00
    0.28498E+06        -0.19179E+07         0.00000E+00
    0.00000E+00         0.00000E+00        -0.18213E+08
 
   -0.18183E+08         0.29336E+06         0.00000E+00
    0.29336E+06        -0.19173E+07         0.00000E+00
    0.00000E+00         0.00000E+00        -0.18185E+08
 
   -0.18155E+08         0.30189E+06         0.00000E+00
    0.30189E+06        -0.19167E+07         0.00000E+00
    0.00000E+00         0.00000E+00        -0.18157E+08
 
   -0.18126E+08         0.31057E+06         0.00000E+00
    0.31057E+06        -0.19160E+07         0.00000E+00
    0.00000E+00         0.00000E+00        -0.18128E+08
 
   -0.18096E+08         0.31941E+06         0.00000E+00
    0.31941E+06        -0.19154E+07         0.00000E+00
    0.00000E+00         0.00000E+00        -0.18098E+08
 
   -0.18065E+08         0.32842E+06         0.00000E+00
    0.32842E+06        -0.19147E+07         0.00000E+00
    0.00000E+00         0.00000E+00        -0.18067E+08
 
   -0.18033E+08         0.33758E+06         0.00000E+00
    0.33758E+06        -0.19140E+07         0.00000E+00
    0.00000E+00         0.00000E+00        -0.18035E+08
 
   -0.18001E+08         0.34691E+06         0.00000E+00
    0.34691E+06        -0.19133E+07         0.00000E+00
    0.00000E+00         0.00000E+00        -0.18002E+08
 
   -0.17967E+08         0.35640E+06         0.00000E+00
    0.35640E+06        -0.19126E+07         0.00000E+00
    0.00000E+00         0.00000E+00        -0.17969E+08
 
   -0.17932E+08         0.36606E+06         0.00000E+00
    0.36606E+06        -0.19119E+07         0.00000E+00
    0.00000E+00         0.00000E+00        -0.17934E+08
 
   -0.17897E+08         0.37589E+06         0.00000E+00
    0.37589E+06        -0.19113E+07         0.00000E+00
    0.00000E+00         0.00000E+00        -0.17899E+08
 
   -0.17860E+08         0.38587E+06         0.00000E+00
    0.38587E+06        -0.19106E+07         0.00000E+00
    0.00000E+00         0.00000E+00        -0.17862E+08
 
   -0.17822E+08         0.39602E+06         0.00000E+00
    0.39602E+06        -0.19100E+07         0.00000E+00
    0.00000E+00         0.00000E+00        -0.17824E+08
 
   -0.17783E+08         0.40631E+06         0.00000E+00
    0.40631E+06        -0.19094E+07         0.00000E+00
    0.00000E+00         0.00000E+00        -0.17786E+08
 
   -0.17744E+08         0.41676E+06         0.00000E+00
    0.41676E+06        -0.19089E+07         0.00000E+00
    0.00000E+00         0.00000E+00        -0.17746E+08
 
   -0.17702E+08         0.42734E+06         0.00000E+00
    0.42734E+06        -0.19084E+07         0.00000E+00
    0.00000E+00         0.00000E+00        -0.17705E+08
 
   -0.17660E+08         0.43805E+06         0.00000E+00
    0.43805E+06        -0.19079E+07         0.00000E+00
    0.00000E+00         0.00000E+00        -0.17662E+08
 
   -0.17617E+08         0.44889E+06         0.00000E+00
    0.44889E+06        -0.19075E+07         0.00000E+00
    0.00000E+00         0.00000E+00        -0.17619E+08
 
   -0.17572E+08         0.45984E+06         0.00000E+00
    0.45984E+06        -0.19072E+07         0.00000E+00
    0.00000E+00         0.00000E+00        -0.17574E+08
 
   -0.17526E+08         0.47088E+06         0.00000E+00
    0.47088E+06        -0.19070E+07         0.00000E+00
    0.00000E+00         0.00000E+00        -0.17529E+08
 
   -0.17479E+08         0.48201E+06         0.00000E+00
    0.48201E+06        -0.19068E+07         0.00000E+00
    0.00000E+00         0.00000E+00        -0.17482E+08
 
   -0.17431E+08         0.49321E+06         0.00000E+00
    0.49321E+06        -0.19067E+07         0.00000E+00
    0.00000E+00         0.00000E+00        -0.17433E+08
 
   -0.17381E+08         0.50447E+06         0.00000E+00
    0.50447E+06        -0.19068E+07         0.00000E+00
    0.00000E+00         0.00000E+00        -0.17383E+08
 
   -0.17330E+08         0.51575E+06         0.00000E+00
    0.51575E+06        -0.19069E+07         0.00000E+00
    0.00000E+00         0.00000E+00        -0.17332E+08
 
   -0.17278E+08         0.52705E+06         0.00000E+00
    0.52705E+06        -0.19072E+07         0.00000E+00
    0.00000E+00         0.00000E+00        -0.17280E+08
 
   -0.17224E+08         0.53833E+06         0.00000E+00
    0.53833E+06        -0.19076E+07         0.00000E+00
    0.00000E+00         0.00000E+00        -0.17226E+08
 
   -0.17169E+08         0.54958E+06         0.00000E+00
    0.54958E+06        -0.19082E+07         0.00000E+00
    0.00000E+00         0.00000E+00        -0.17171E+08
 
   -0.17112E+08         0.56076E+06         0.00000E+00
    0.56076E+06        -0.19089E+07         0.00000E+00
    0.00000E+00         0.00000E+00        -0.17115E+08
 
   -0.17054E+08         0.57185E+06         0.00000E+00
    0.57185E+06        -0.19099E+07         0.00000E+00
    0.00000E+00         0.00000E+00        -0.17056E+08
 
   -0.16995E+08         0.58282E+06         0.00000E+00
    0.58282E+06        -0.19110E+07         0.00000E+00
    0.00000E+00         0.00000E+00        -0.16997E+08
 
   -0.16934E+08         0.59361E+06         0.00000E+00
    0.59361E+06        -0.19123E+07         0.00000E+00
    0.00000E+00         0.00000E+00        -0.16936E+08
 
   -0.16872E+08         0.60421E+06         0.00000E+00
    0.60421E+06        -0.19138E+07         0.00000E+00
    0.00000E+00         0.00000E+00        -0.16874E+08
 
   -0.16808E+08         0.61457E+06         0.00000E+00
    0.61457E+06        -0.19156E+07         0.00000E+00
    0.00000E+00         0.00000E+00        -0.16810E+08
 
   -0.16742E+08         0.62463E+06         0.00000E+00
    0.62463E+06        -0.19176E+07         0.00000E+00
    0.00000E+00         0.00000E+00        -0.16744E+08
 
   -0.16676E+08         0.63436E+06         0.00000E+00
    0.63436E+06        -0.19200E+07         0.00000E+00
    0.00000E+00         0.00000E+00        -0.16677E+08
 
   -0.16607E+08         0.64369E+06         0.00000E+00
    0.64369E+06        -0.19226E+07         0.00000E+00
    0.00000E+00         0.00000E+00        -0.16609E+08
 
   -0.16537E+08         0.65257E+06         0.00000E+00
    0.65257E+06        -0.19256E+07         0.00000E+00
    0.00000E+00         0.00000E+00        -0.16539E+08
 
   -0.16466E+08         0.66094E+06         0.00000E+00
    0.66094E+06        -0.19289E+07         0.00000E+00
    0.00000E+00         0.00000E+00        -0.16468E+08
 
   -0.16393E+08         0.66873E+06         0.00000E+00
    0.66873E+06        -0.19327E+07         0.00000E+00
    0.00000E+00         0.00000E+00        -0.16395E+08
 
   -0.16319E+08         0.67587E+06         0.00000E+00
    0.67587E+06        -0.19369E+07         0.00000E+00
    0.00000E+00         0.00000E+00        -0.16320E+08
 
   -0.16243E+08         0.68227E+06         0.00000E+00
    0.68227E+06        -0.19415E+07         0.00000E+00
    0.00000E+00         0.00000E+00        -0.16245E+08
 
   -0.16166E+08         0.68786E+06         0.00000E+00
    0.68786E+06        -0.19467E+07         0.00000E+00
    0.00000E+00         0.00000E+00        -0.16167E+08
 
   -0.16088E+08         0.69255E+06         0.00000E+00
    0.69255E+06        -0.19525E+07         0.00000E+00
    0.00000E+00         0.00000E+00        -0.16089E+08
 
   -0.16008E+08         0.69624E+06         0.00000E+00
    0.69624E+06        -0.19589E+07         0.00000E+00
    0.00000E+00         0.00000E+00        -0.16008E+08
 
   -0.15927E+08         0.69884E+06         0.00000E+00
    0.69884E+06        -0.19659E+07         0.00000E+00
    0.00000E+00         0.00000E+00        -0.15927E+08
 
   -0.15844E+08         0.70024E+06         0.00000E+00
    0.70024E+06        -0.19737E+07         0.00000E+00
    0.00000E+00         0.00000E+00        -0.15844E+08
 
   -0.15760E+08         0.70034E+06         0.00000E+00
    0.70034E+06        -0.19823E+07         0.00000E+00
    0.00000E+00         0.00000E+00        -0.15760E+08
 
   -0.15675E+08         0.69903E+06         0.00000E+00
    0.69903E+06        -0.19917E+07         0.00000E+00
    0.00000E+00         0.00000E+00        -0.15675E+08
 
   -0.15589E+08         0.69621E+06         0.00000E+00
    0.69621E+06        -0.20021E+07         0.00000E+00
    0.00000E+00         0.00000E+00        -0.15588E+08
 
   -0.15502E+08         0.69176E+06         0.00000E+00
    0.69176E+06        -0.20135E+07         0.00000E+00
    0.00000E+00         0.00000E+00        -0.15501E+08
 
   -0.15414E+08         0.68558E+06         0.00000E+00
    0.68558E+06        -0.20259E+07         0.00000E+00
    0.00000E+00         0.00000E+00        -0.15412E+08
 
   -0.15324E+08         0.67759E+06         0.00000E+00
    0.67759E+06        -0.20394E+07         0.00000E+00
    0.00000E+00         0.00000E+00        -0.15322E+08
 
   -0.15234E+08         0.66770E+06         0.00000E+00
    0.66770E+06        -0.20540E+07         0.00000E+00
    0.00000E+00         0.00000E+00        -0.15232E+08
 
   -0.15143E+08         0.65585E+06         0.00000E+00
    0.65585E+06        -0.20697E+07         0.00000E+00
    0.00000E+00         0.00000E+00        -0.15140E+08
 
   -0.15051E+08         0.64199E+06         0.00000E+00
    0.64199E+06        -0.20864E+07         0.00000E+00
    0.00000E+00         0.00000E+00        -0.15048E+08
 
   -0.14958E+08         0.62609E+06         0.00000E+00
    0.62609E+06        -0.21039E+07         0.00000E+00
    0.00000E+00         0.00000E+00        -0.14954E+08
 
   -0.14864E+08         0.60814E+06         0.00000E+00
    0.60814E+06        -0.21220E+07         0.00000E+00
    0.00000E+00         0.00000E+00        -0.14860E+08
 
   -0.14769E+08         0.58815E+06         0.00000E+00
    0.58815E+06        -0.21404E+07         0.00000E+00
    0.00000E+00         0.00000E+00        -0.14765E+08
 
   -0.14673E+08         0.56615E+06         0.00000E+00
    0.56615E+06        -0.21584E+07         0.00000E+00
    0.00000E+00         0.00000E+00        -0.14668E+08
 
   -0.14575E+08         0.54211E+06         0.00000E+00
    0.54211E+06        -0.21753E+07         0.00000E+00
    0.00000E+00         0.00000E+00        -0.14570E+08
 
   -0.14475E+08         0.51597E+06         0.00000E+00
    0.51597E+06        -0.21900E+07         0.00000E+00
    0.00000E+00         0.00000E+00        -0.14470E+08
 
   -0.14374E+08         0.48756E+06         0.00000E+00
    0.48756E+06        -0.22014E+07         0.00000E+00
    0.00000E+00         0.00000E+00        -0.14368E+08
 
   -0.14269E+08         0.45647E+06         0.00000E+00
    0.45647E+06        -0.22076E+07         0.00000E+00
    0.00000E+00         0.00000E+00        -0.14263E+08
 
   -0.14161E+08         0.42188E+06         0.00000E+00
    0.42188E+06        -0.22069E+07         0.00000E+00
    0.00000E+00         0.00000E+00        -0.14154E+08
 
   -0.14049E+08         0.38242E+06         0.00000E+00
    0.38242E+06        -0.21968E+07         0.00000E+00
    0.00000E+00         0.00000E+00        -0.14041E+08
 
   -0.13933E+08         0.33563E+06         0.00000E+00
    0.33563E+06        -0.21753E+07         0.00000E+00
    0.00000E+00         0.00000E+00        -0.13923E+08
 
   -0.13811E+08         0.27731E+06         0.00000E+00
    0.27731E+06        -0.21385E+07         0.00000E+00
    0.00000E+00         0.00000E+00        -0.13798E+08
 
   -0.13685E+08         0.20036E+06         0.00000E+00
    0.20036E+06        -0.20875E+07         0.00000E+00
    0.00000E+00         0.00000E+00        -0.13668E+08
 
   -0.13561E+08         0.78063E+05         0.00000E+00
    0.78063E+05        -0.20068E+07         0.00000E+00
    0.00000E+00         0.00000E+00        -0.13529E+08
 
   -0.18800E+08         0.10893E+05         0.00000E+00
    0.10893E+05        -0.19357E+07         0.00000E+00
    0.00000E+00         0.00000E+00        -0.18815E+08
 
   -0.18786E+08         0.30141E+05         0.00000E+00
    0.30141E+05        -0.19233E+07         0.00000E+00
    0.00000E+00         0.00000E+00        -0.18796E+08
 
   -0.18770E+08         0.44911E+05         0.00000E+00
    0.44911E+05        -0.19149E+07         0.00000E+00
    0.00000E+00         0.00000E+00        -0.18778E+08
 
   -0.18753E+08         0.56904E+05         0.00000E+00
    0.56904E+05        -0.19094E+07         0.00000E+00
    0.00000E+00         0.00000E+00        -0.18760E+08
 
   -0.18737E+08         0.67453E+05         0.00000E+00
    0.67453E+05        -0.19058E+07         0.00000E+00
    0.00000E+00         0.00000E+00        -0.18743E+08
 
   -0.18721E+08         0.77055E+05         0.00000E+00
    0.77055E+05        -0.19040E+07         0.00000E+00
    0.00000E+00         0.00000E+00        -0.18726E+08
 
   -0.18705E+08         0.86090E+05         0.00000E+00
    0.86090E+05        -0.19035E+07         0.00000E+00
    0.00000E+00         0.00000E+00        -0.18710E+08
 
   -0.18689E+08         0.94756E+05         0.00000E+00
    0.94756E+05        -0.19039E+07         0.00000E+00
    0.00000E+00         0.00000E+00        -0.18694E+08
 
   -0.18673E+08         0.10318E+06         0.00000E+00
    0.10318E+06        -0.19049E+07         0.00000E+00
    0.00000E+00         0.00000E+00        -0.18678E+08
 
   -0.18658E+08         0.11144E+06         0.00000E+00
    0.11144E+06        -0.19064E+07         0.00000E+00
    0.00000E+00         0.00000E+00        -0.18663E+08
 
   -0.18642E+08         0.11955E+06         0.00000E+00
    0.11955E+06        -0.19082E+07         0.00000E+00
    0.00000E+00         0.00000E+00        -0.18647E+08
 
   -0.18626E+08         0.12755E+06         0.00000E+00
    0.12755E+06        -0.19100E+07         0.00000E+00
    0.00000E+00         0.00000E+00        -0.18630E+08
 
   -0.18609E+08         0.13545E+06         0.00000E+00
    0.13545E+06        -0.19118E+07         0.00000E+00
    0.00000E+00         0.00000E+00        -0.18614E+08
 
   -0.18593E+08         0.14324E+06         0.00000E+00
    0.14324E+06        -0.19135E+07         0.00000E+00
    0.00000E+00         0.00000E+00        -0.18597E+08
 
   -0.18576E+08         0.15094E+06         0.00000E+00
    0.15094E+06        -0.19151E+07         0.00000E+00
    0.00000E+00         0.00000E+00        -0.18580E+08
 
   -0.18558E+08         0.15855E+06         0.00000E+00
    0.15855E+06        -0.19165E+07         0.00000E+00
    0.00000E+00         0.00000E+00        -0.18563E+08
 
   -0.18540E+08         0.16608E+06         0.00000E+00
    0.16608E+06        -0.19178E+07         0.00000E+00
    0.00000E+00         0.00000E+00        -0.18545E+08
 
   -0.18522E+08         0.17355E+06         0.00000E+00
    0.17355E+06        -0.19188E+07         0.00000E+00
    0.00000E+00         0.00000E+00        -0.18527E+08
 
   -0.18503E+08         0.18097E+06         0.00000E+00
    0.18097E+06        -0.19197E+07         0.00000E+00
    0.00000E+00         0.00000E+00        -0.18508E+08
 
   -0.18484E+08         0.18834E+06         0.00000E+00
    0.18834E+06        -0.19204E+07         0.00000E+00
    0.00000E+00         0.00000E+00        -0.18489E+08
 
   -0.18464E+08         0.19570E+06         0.00000E+00
    0.19570E+06        -0.19210E+07         0.00000E+00
    0.00000E+00         0.00000E+00        -0.18469E+08
 
   -0.18444E+08         0.20305E+06         0.00000E+00
    0.20305E+06        -0.19214E+07         0.00000E+00
    0.00000E+00         0.00000E+00        -0.18449E+08
 
   -0.18423E+08         0.21040E+06         0.00000E+00
    0.21040E+06        -0.19216E+07         0.00000E+00
    0.00000E+00         0.00000E+00        -0.18428E+08
 
   -0.18402E+08         0.21779E+06         0.00000E+00
    0.21779E+06        -0.19218E+07         0.00000E+00
    0.00000E+00         0.00000E+00        -0.18406E+08
 
   -0.18380E+08         0.22522E+06         0.00000E+00
    0.22522E+06        -0.19218E+07         0.00000E+00
    0.00000E+00         0.00000E+00        -0.18384E+08
 
   -0.18357E+08         0.23270E+06         0.00000E+00
    0.23270E+06        -0.19217E+07         0.00000E+00
    0.00000E+00         0.00000E+00        -0.18362E+08
 
   -0.18334E+08         0.24026E+06         0.00000E+00
    0.24026E+06        -0.19215E+07         0.00000E+00
    0.00000E+00         0.00000E+00        -0.18338E+08
 
   -0.18310E+08         0.24790E+06         0.00000E+00
    0.24790E+06        -0.19212E+07         0.00000E+00
    0.00000E+00         0.00000E+00        -0.18315E+08
 
   -0.18285E+08         0.25564E+06         0.00000E+00
    0.25564E+06        -0.19209E+07         0.00000E+00
    0.00000E+00         0.00000E+00        -0.18290E+08
 
   -0.18260E+08         0.26348E+06         0.00000E+00
    0.26348E+06        -0.19205E+07         0.00000E+00
    0.00000E+00         0.00000E+00        -0.18265E+08
 
   -0.18234E+08         0.27145E+06         0.00000E+00
    0.27145E+06        -0.19200E+07         0.00000E+00
    0.00000E+00         0.00000E+00        -0.18239E+08
 
   -0.18207E+08         0.27954E+06         0.00000E+00
    0.27954E+06        -0.19195E+07         0.00000E+00
    0.00000E+00         0.00000E+00        -0.18212E+08
 
   -0.18179E+08         0.28777E+06         0.00000E+00
    0.28777E+06        -0.19189E+07         0.00000E+00
    0.00000E+00         0.00000E+00        -0.18184E+08
 
   -0.18151E+08         0.29613E+06         0.00000E+00
    0.29613E+06        -0.19184E+07         0.00000E+00
    0.00000E+00         0.00000E+00        -0.18156E+08
 
   -0.18122E+08         0.30465E+06         0.00000E+00
    0.30465E+06        -0.19178E+07         0.00000E+00
    0.00000E+00         0.00000E+00        -0.18127E+08
 
   -0.18092E+08         0.31332E+06         0.00000E+00
    0.31332E+06        -0.19171E+07         0.00000E+00
    0.00000E+00         0.00000E+00        -0.18097E+08
 
   -0.18061E+08         0.32214E+06         0.00000E+00
    0.32214E+06        -0.19165E+07         0.00000E+00
    0.00000E+00         0.00000E+00        -0.18066E+08
 
   -0.18029E+08         0.33112E+06         0.00000E+00
    0.33112E+06        -0.19158E+07         0.00000E+00
    0.00000E+00         0.00000E+00        -0.18034E+08
 
   -0.17996E+08         0.34027E+06         0.00000E+00
    0.34027E+06        -0.19152E+07         0.00000E+00
    0.00000E+00         0.00000E+00        -0.18002E+08
 
   -0.17962E+08         0.34957E+06         0.00000E+00
    0.34957E+06        -0.19145E+07         0.00000E+00
    0.00000E+00         0.00000E+00        -0.17968E+08
 
   -0.17928E+08         0.35903E+06         0.00000E+00
    0.35903E+06        -0.19139E+07         0.00000E+00
    0.00000E+00         0.00000E+00        -0.17933E+08
 
   -0.17892E+08         0.36865E+06         0.00000E+00
    0.36865E+06        -0.19132E+07         0.00000E+00
    0.00000E+00         0.00000E+00        -0.17898E+08
 
   -0.17855E+08         0.37843E+06         0.00000E+00
    0.37843E+06        -0.19126E+07         0.00000E+00
    0.00000E+00         0.00000E+00        -0.17861E+08
 
   -0.17817E+08         0.38836E+06         0.00000E+00
    0.38836E+06        -0.19120E+07         0.00000E+00
    0.00000E+00         0.00000E+00        -0.17823E+08
 
   -0.17778E+08         0.39844E+06         0.00000E+00
    0.39844E+06        -0.19115E+07         0.00000E+00
    0.00000E+00         0.00000E+00        -0.17785E+08
 
   -0.17738E+08         0.40865E+06         0.00000E+00
    0.40865E+06        -0.19109E+07         0.00000E+00
    0.00000E+00         0.00000E+00        -0.17745E+08
 
   -0.17697E+08         0.41901E+06         0.00000E+00
    0.41901E+06        -0.19105E+07         0.00000E+00
    0.00000E+00         0.00000E+00        -0.17704E+08
 
   -0.17655E+08         0.42949E+06         0.00000E+00
    0.42949E+06        -0.19100E+07         0.00000E+00
    0.00000E+00         0.00000E+00        -0.17662E+08
 
   -0.17612E+08         0.44008E+06         0.00000E+00
    0.44008E+06        -0.19097E+07         0.00000E+00
    0.00000E+00         0.00000E+00        -0.17618E+08
 
   -0.17567E+08         0.45079E+06         0.00000E+00
    0.45079E+06        -0.19094E+07         0.00000E+00
    0.00000E+00         0.00000E+00        -0.17574E+08
 
   -0.17521E+08         0.46158E+06         0.00000E+00
    0.46158E+06        -0.19092E+07         0.00000E+00
    0.00000E+00         0.00000E+00        -0.17528E+08
 
   -0.17474E+08         0.47246E+06         0.00000E+00
    0.47246E+06        -0.19090E+07         0.00000E+00
    0.00000E+00         0.00000E+00        -0.17481E+08
 
   -0.17425E+08         0.48340E+06         0.00000E+00
    0.48340E+06        -0.19090E+07         0.00000E+00
    0.00000E+00         0.00000E+00        -0.17432E+08
 
   -0.17376E+08         0.49439E+06         0.00000E+00
    0.49439E+06        -0.19090E+07         0.00000E+00
    0.00000E+00         0.00000E+00        -0.17383E+08
 
   -0.17325E+08         0.50541E+06         0.00000E+00
    0.50541E+06        -0.19092E+07         0.00000E+00
    0.00000E+00         0.00000E+00        -0.17331E+08
 
   -0.17272E+08         0.51643E+06         0.00000E+00
    0.51643E+06        -0.19095E+07         0.00000E+00
    0.00000E+00         0.00000E+00        -0.17279E+08
 
   -0.17219E+08         0.52744E+06         0.00000E+00
    0.52744E+06        -0.19099E+07         0.00000E+00
    0.00000E+00         0.00000E+00        -0.17225E+08
 
   -0.17163E+08         0.53841E+06         0.00000E+00
    0.53841E+06        -0.19104E+07         0.00000E+00
    0.00000E+00         0.00000E+00        -0.17170E+08
 
   -0.17107E+08         0.54931E+06         0.00000E+00
    0.54931E+06        -0.19111E+07         0.00000E+00
    0.00000E+00         0.00000E+00        -0.17114E+08
 
   -0.17049E+08         0.56011E+06         0.00000E+00
    0.56011E+06        -0.19120E+07         0.00000E+00
    0.00000E+00         0.00000E+00        -0.17056E+08
 
   -0.16990E+08         0.57079E+06         0.00000E+00
    0.57079E+06        -0.19131E+07         0.00000E+00
    0.00000E+00         0.00000E+00        -0.16996E+08
 
   -0.16929E+08         0.58130E+06         0.00000E+00
    0.58130E+06        -0.19144E+07         0.00000E+00
    0.00000E+00         0.00000E+00        -0.16935E+08
 
   -0.16866E+08         0.59160E+06         0.00000E+00
    0.59160E+06        -0.19159E+07         0.00000E+00
    0.00000E+00         0.00000E+00        -0.16873E+08
 
   -0.16803E+08         0.60166E+06         0.00000E+00
    0.60166E+06        -0.19176E+07         0.00000E+00
    0.00000E+00         0.00000E+00        -0.16809E+08
 
   -0.16738E+08         0.61143E+06         0.00000E+00
    0.61143E+06        -0.19196E+07         0.00000E+00
    0.00000E+00         0.00000E+00        -0.16743E+08
 
   -0.16671E+08         0.62086E+06         0.00000E+00
    0.62086E+06        -0.19218E+07         0.00000E+00
    0.00000E+00         0.00000E+00        -0.16677E+08
 
   -0.16603E+08         0.62990E+06         0.00000E+00
    0.62990E+06        -0.19244E+07         0.00000E+00
    0.00000E+00         0.00000E+00        -0.16608E+08
 
   -0.16533E+08         0.63849E+06         0.00000E+00
    0.63849E+06        -0.19273E+07         0.00000E+00
    0.00000E+00         0.00000E+00        -0.16538E+08
 
   -0.16462E+08         0.64656E+06         0.00000E+00
    0.64656E+06        -0.19305E+07         0.00000E+00
    0.00000E+00         0.00000E+00        -0.16467E+08
 
   -0.16390E+08         0.65406E+06         0.00000E+00
    0.65406E+06        -0.19342E+07         0.00000E+00
    0.00000E+00         0.00000E+00        -0.16394E+08
 
   -0.16316E+08         0.66091E+06         0.00000E+00
    0.66091E+06        -0.19382E+07         0.00000E+00
    0.00000E+00         0.00000E+00        -0.16320E+08
 
   -0.16240E+08         0.66703E+06         0.00000E+00
    0.66703E+06        -0.19427E+07         0.00000E+00
    0.00000E+00         0.00000E+00        -0.16244E+08
 
   -0.16164E+08         0.67234E+06         0.00000E+00
    0.67234E+06        -0.19477E+07         0.00000E+00
    0.00000E+00         0.00000E+00        -0.16167E+08
 
   -0.16086E+08         0.67675E+06         0.00000E+00
    0.67675E+06        -0.19533E+07         0.00000E+00
    0.00000E+00         0.00000E+00        -0.16088E+08
 
   -0.16006E+08         0.68018E+06         0.00000E+00
    0.68018E+06        -0.19595E+07         0.00000E+00
    0.00000E+00         0.00000E+00        -0.16008E+08
 
   -0.15926E+08         0.68252E+06         0.00000E+00
    0.68252E+06        -0.19663E+07         0.00000E+00
    0.00000E+00         0.00000E+00        -0.15927E+08
 
   -0.15844E+08         0.68367E+06         0.00000E+00
    0.68367E+06        -0.19738E+07         0.00000E+00
    0.00000E+00         0.00000E+00        -0.15844E+08
 
   -0.15760E+08         0.68353E+06         0.00000E+00
    0.68353E+06        -0.19821E+07         0.00000E+00
    0.00000E+00         0.00000E+00        -0.15760E+08
 
   -0.15676E+08         0.68199E+06         0.00000E+00
    0.68199E+06        -0.19913E+07         0.00000E+00
    0.00000E+00         0.00000E+00        -0.15675E+08
 
   -0.15591E+08         0.67894E+06         0.00000E+00
    0.67894E+06        -0.20013E+07         0.00000E+00
    0.00000E+00         0.00000E+00        -0.15589E+08
 
   -0.15504E+08         0.67428E+06         0.00000E+00
    0.67428E+06        -0.20124E+07         0.00000E+00
    0.00000E+00         0.00000E+00        -0.15501E+08
 
   -0.15417E+08         0.66791E+06         0.00000E+00
    0.66791E+06        -0.20244E+07         0.00000E+00
    0.00000E+00         0.00000E+00        -0.15413E+08
 
   -0.15328E+08         0.65973E+06         0.00000E+00
    0.65973E+06        -0.20376E+07         0.00000E+00
    0.00000E+00         0.00000E+00        -0.15323E+08
 
   -0.15239E+08         0.64966E+06         0.00000E+00
    0.64966E+06        -0.20518E+07         0.00000E+00
    0.00000E+00         0.00000E+00        -0.15233E+08
 
   -0.15149E+08         0.63763E+06         0.00000E+00
    0.63763E+06        -0.20671E+07         0.00000E+00
    0.00000E+00         0.00000E+00        -0.15141E+08
 
   -0.15058E+08         0.62359E+06         0.00000E+00
    0.62359E+06        -0.20834E+07         0.00000E+00
    0.00000E+00         0.00000E+00        -0.15049E+08
 
   -0.14966E+08         0.60750E+06         0.00000E+00
    0.60750E+06        -0.21005E+07         0.00000E+00
    0.00000E+00         0.00000E+00        -0.14956E+08
 
   -0.14873E+08         0.58935E+06         0.00000E+00
    0.58935E+06        -0.21182E+07         0.00000E+00
    0.00000E+00         0.00000E+00        -0.14862E+08
 
   -0.14779E+08         0.56913E+06         0.00000E+00
    0.56913E+06        -0.21362E+07         0.00000E+00
    0.00000E+00         0.00000E+00        -0.14766E+08
 
   -0.14684E+08         0.54686E+06         0.00000E+00
    0.54686E+06        -0.21538E+07         0.00000E+00
    0.00000E+00         0.00000E+00        -0.14670E+08
 
   -0.14587E+08         0.52249E+06         0.00000E+00
    0.52249E+06        -0.21702E+07         0.00000E+00
    0.00000E+00         0.00000E+00        -0.14572E+08
 
   -0.14489E+08         0.49597E+06         0.00000E+00
    0.49597E+06        -0.21846E+07         0.00000E+00
    0.00000E+00         0.00000E+00        -0.14472E+08
 
   -0.14388E+08         0.46708E+06         0.00000E+00
    0.46708E+06        -0.21954E+07         0.00000E+00
    0.00000E+00         0.00000E+00        -0.14370E+08
 
   -0.14285E+08         0.43541E+06         0.00000E+00
    0.43541E+06        -0.22011E+07         0.00000E+00
    0.00000E+00         0.00000E+00        -0.14265E+08
 
   -0.14179E+08         0.40014E+06         0.00000E+00
    0.40014E+06        -0.21995E+07         0.00000E+00
    0.00000E+00         0.00000E+00        -0.14157E+08
 
   -0.14070E+08         0.35996E+06         0.00000E+00
    0.35996E+06        -0.21883E+07         0.00000E+00
    0.00000E+00         0.00000E+00        -0.14045E+08
 
   -0.13958E+08         0.31227E+06         0.00000E+00
    0.31227E+06        -0.21646E+07         0.00000E+00
    0.00000E+00         0.00000E+00        -0.13927E+08
 
   -0.13844E+08         0.25369E+06         0.00000E+00
    0.25369E+06        -0.21259E+07         0.00000E+00
    0.00000E+00         0.00000E+00        -0.13804E+08
 
   -0.13729E+08         0.17498E+06         0.00000E+00
    0.17498E+06        -0.20677E+07         0.00000E+00
    0.00000E+00         0.00000E+00        -0.13675E+08
 
   -0.13635E+08         0.64333E+05         0.00000E+00
    0.64333E+05        -0.19800E+07         0.00000E+00
    0.00000E+00         0.00000E+00        -0.13543E+08
 
   -0.18789E+08         0.94968E+04         0.00000E+00
    0.94968E+04        -0.19397E+07         0.00000E+00
    0.00000E+00         0.00000E+00        -0.18813E+08
 
   -0.18778E+08         0.27128E+05         0.00000E+00
    0.27128E+05        -0.19266E+07         0.00000E+00
    0.00000E+00         0.00000E+00        -0.18795E+08
 
   -0.18763E+08         0.41695E+05         0.00000E+00
    0.41695E+05        -0.19175E+07         0.00000E+00
    0.00000E+00         0.00000E+00        -0.18776E+08
 
   -0.18748E+08         0.53688E+05         0.00000E+00
    0.53688E+05        -0.19116E+07         0.00000E+00
    0.00000E+00         0.00000E+00        -0.18759E+08
 
   -0.18732E+08         0.64246E+05         0.00000E+00
    0.64246E+05        -0.19078E+07         0.00000E+00
    0.00000E+00         0.00000E+00        -0.18742E+08
 
   -0.18716E+08         0.73886E+05         0.00000E+00
    0.73886E+05        -0.19059E+07         0.00000E+00
    0.00000E+00         0.00000E+00        -0.18725E+08
 
   -0.18700E+08         0.82944E+05         0.00000E+00
    0.82944E+05        -0.19052E+07         0.00000E+00
    0.00000E+00         0.00000E+00        -0.18709E+08
 
   -0.18685E+08         0.91625E+05         0.00000E+00
    0.91625E+05        -0.19056E+07         0.00000E+00
    0.00000E+00         0.00000E+00        -0.18693E+08
 
   -0.18669E+08         0.10005E+06         0.00000E+00
    0.10005E+06        -0.19066E+07         0.00000E+00
    0.00000E+00         0.00000E+00        -0.18678E+08
 
   -0.18654E+08         0.10828E+06         0.00000E+00
    0.10828E+06        -0.19081E+07         0.00000E+00
    0.00000E+00         0.00000E+00        -0.18662E+08
 
   -0.18638E+08         0.11637E+06         0.00000E+00
    0.11637E+06        -0.19098E+07         0.00000E+00
    0.00000E+00         0.00000E+00        -0.18646E+08
 
   -0.18622E+08         0.12432E+06         0.00000E+00
    0.12432E+06        -0.19116E+07         0.00000E+00
    0.00000E+00         0.00000E+00        -0.18630E+08
 
   -0.18605E+08         0.13216E+06         0.00000E+00
    0.13216E+06        -0.19133E+07         0.00000E+00
    0.00000E+00         0.00000E+00        -0.18613E+08
 
   -0.18589E+08         0.13988E+06         0.00000E+00
    0.13988E+06        -0.19150E+07         0.00000E+00
    0.00000E+00         0.00000E+00        -0.18597E+08
 
   -0.18572E+08         0.14751E+06         0.00000E+00
    0.14751E+06        -0.19166E+07         0.00000E+00
    0.00000E+00         0.00000E+00        -0.18580E+08
 
   -0.18555E+08         0.15503E+06         0.00000E+00
    0.15503E+06        -0.19180E+07         0.00000E+00
    0.00000E+00         0.00000E+00        -0.18562E+08
 
   -0.18537E+08         0.16248E+06         0.00000E+00
    0.16248E+06        -0.19193E+07         0.00000E+00
    0.00000E+00         0.00000E+00        -0.18544E+08
 
   -0.18519E+08         0.16985E+06         0.00000E+00
    0.16985E+06        -0.19203E+07         0.00000E+00
    0.00000E+00         0.00000E+00        -0.18526E+08
 
   -0.18500E+08         0.17717E+06         0.00000E+00
    0.17717E+06        -0.19212E+07         0.00000E+00
    0.00000E+00         0.00000E+00        -0.18507E+08
 
   -0.18481E+08         0.18444E+06         0.00000E+00
    0.18444E+06        -0.19219E+07         0.00000E+00
    0.00000E+00         0.00000E+00        -0.18488E+08
 
   -0.18461E+08         0.19169E+06         0.00000E+00
    0.19169E+06        -0.19224E+07         0.00000E+00
    0.00000E+00         0.00000E+00        -0.18468E+08
 
   -0.18441E+08         0.19893E+06         0.00000E+00
    0.19893E+06        -0.19228E+07         0.00000E+00
    0.00000E+00         0.00000E+00        -0.18448E+08
 
   -0.18420E+08         0.20617E+06         0.00000E+00
    0.20617E+06        -0.19231E+07         0.00000E+00
    0.00000E+00         0.00000E+00        -0.18427E+08
 
   -0.18398E+08         0.21344E+06         0.00000E+00
    0.21344E+06        -0.19232E+07         0.00000E+00
    0.00000E+00         0.00000E+00        -0.18406E+08
 
   -0.18376E+08         0.22074E+06         0.00000E+00
    0.22074E+06        -0.19232E+07         0.00000E+00
    0.00000E+00         0.00000E+00        -0.18384E+08
 
   -0.18353E+08         0.22810E+06         0.00000E+00
    0.22810E+06        -0.19232E+07         0.00000E+00
    0.00000E+00         0.00000E+00        -0.18361E+08
 
   -0.18330E+08         0.23553E+06         0.00000E+00
    0.23553E+06        -0.19230E+07         0.00000E+00
    0.00000E+00         0.00000E+00        -0.18338E+08
 
   -0.18306E+08         0.24303E+06         0.00000E+00
    0.24303E+06        -0.19227E+07         0.00000E+00
    0.00000E+00         0.00000E+00        -0.18314E+08
 
   -0.18281E+08         0.25063E+06         0.00000E+00
    0.25063E+06        -0.19224E+07         0.00000E+00
    0.00000E+00         0.00000E+00        -0.18289E+08
 
   -0.18256E+08         0.25833E+06         0.00000E+00
    0.25833E+06        -0.19220E+07         0.00000E+00
    0.00000E+00         0.00000E+00        -0.18264E+08
 
   -0.18230E+08         0.26615E+06         0.00000E+00
    0.26615E+06        -0.19216E+07         0.00000E+00
    0.00000E+00         0.00000E+00        -0.18238E+08
 
   -0.18203E+08         0.27409E+06         0.00000E+00
    0.27409E+06        -0.19211E+07         0.00000E+00
    0.00000E+00         0.00000E+00        -0.18211E+08
 
   -0.18175E+08         0.28216E+06         0.00000E+00
    0.28216E+06        -0.19206E+07         0.00000E+00
    0.00000E+00         0.00000E+00        -0.18184E+08
 
   -0.18147E+08         0.29036E+06         0.00000E+00
    0.29036E+06        -0.19200E+07         0.00000E+00
    0.00000E+00         0.00000E+00        -0.18155E+08
 
   -0.18117E+08         0.29871E+06         0.00000E+00
    0.29871E+06        -0.19195E+07         0.00000E+00
    0.00000E+00         0.00000E+00        -0.18126E+08
 
   -0.18087E+08         0.30721E+06         0.00000E+00
    0.30721E+06        -0.19189E+07         0.00000E+00
    0.00000E+00         0.00000E+00        -0.18096E+08
 
   -0.18056E+08         0.31585E+06         0.00000E+00
    0.31585E+06        -0.19182E+07         0.00000E+00
    0.00000E+00         0.00000E+00        -0.18065E+08
 
   -0.18024E+08         0.32465E+06         0.00000E+00
    0.32465E+06        -0.19176E+07         0.00000E+00
    0.00000E+00         0.00000E+00        -0.18033E+08
 
   -0.17991E+08         0.33361E+06         0.00000E+00
    0.33361E+06        -0.19170E+07         0.00000E+00
    0.00000E+00         0.00000E+00        -0.18001E+08
 
   -0.17958E+08         0.34272E+06         0.00000E+00
    0.34272E+06        -0.19164E+07         0.00000E+00
    0.00000E+00         0.00000E+00        -0.17967E+08
 
   -0.17923E+08         0.35198E+06         0.00000E+00
    0.35198E+06        -0.19157E+07         0.00000E+00
    0.00000E+00         0.00000E+00        -0.17933E+08
 
   -0.17887E+08         0.36140E+06         0.00000E+00
    0.36140E+06        -0.19151E+07         0.00000E+00
    0.00000E+00         0.00000E+00        -0.17897E+08
 
   -0.17850E+08         0.37097E+06         0.00000E+00
    0.37097E+06        -0.19146E+07         0.00000E+00
    0.00000E+00         0.00000E+00        -0.17860E+08
 
   -0.17812E+08         0.38069E+06         0.00000E+00
    0.38069E+06        -0.19140E+07         0.00000E+00
    0.00000E+00         0.00000E+00        -0.17823E+08
 
   -0.17773E+08         0.39054E+06         0.00000E+00
    0.39054E+06        -0.19135E+07         0.00000E+00
    0.00000E+00         0.00000E+00        -0.17784E+08
 
   -0.17733E+08         0.40054E+06         0.00000E+00
    0.40054E+06        -0.19130E+07         0.00000E+00
    0.00000E+00         0.00000E+00        -0.17744E+08
 
   -0.17692E+08         0.41066E+06         0.00000E+00
    0.41066E+06        -0.19125E+07         0.00000E+00
    0.00000E+00         0.00000E+00        -0.17703E+08
 
   -0.17650E+08         0.42091E+06         0.00000E+00
    0.42091E+06        -0.19121E+07         0.00000E+00
    0.00000E+00         0.00000E+00        -0.17661E+08
 
   -0.17606E+08         0.43127E+06         0.00000E+00
    0.43127E+06        -0.19118E+07         0.00000E+00
    0.00000E+00         0.00000E+00        -0.17617E+08
 
   -0.17562E+08         0.44173E+06         0.00000E+00
    0.44173E+06        -0.19115E+07         0.00000E+00
    0.00000E+00         0.00000E+00        -0.17573E+08
 
   -0.17516E+08         0.45228E+06         0.00000E+00
    0.45228E+06        -0.19113E+07         0.00000E+00
    0.00000E+00         0.00000E+00        -0.17527E+08
 
   -0.17468E+08         0.46290E+06         0.00000E+00
    0.46290E+06        -0.19112E+07         0.00000E+00
    0.00000E+00         0.00000E+00        -0.17480E+08
 
   -0.17420E+08         0.47358E+06         0.00000E+00
    0.47358E+06        -0.19111E+07         0.00000E+00
    0.00000E+00         0.00000E+00        -0.17431E+08
 
   -0.17370E+08         0.48431E+06         0.00000E+00
    0.48431E+06        -0.19112E+07         0.00000E+00
    0.00000E+00         0.00000E+00        -0.17382E+08
 
   -0.17319E+08         0.49506E+06         0.00000E+00
    0.49506E+06        -0.19114E+07         0.00000E+00
    0.00000E+00         0.00000E+00        -0.17330E+08
 
   -0.17267E+08         0.50582E+06         0.00000E+00
    0.50582E+06        -0.19116E+07         0.00000E+00
    0.00000E+00         0.00000E+00        -0.17278E+08
 
   -0.17213E+08         0.51655E+06         0.00000E+00
    0.51655E+06        -0.19120E+07         0.00000E+00
    0.00000E+00         0.00000E+00        -0.17224E+08
 
   -0.17158E+08         0.52725E+06         0.00000E+00
    0.52725E+06        -0.19126E+07         0.00000E+00
    0.00000E+00         0.00000E+00        -0.17169E+08
 
   -0.17101E+08         0.53787E+06         0.00000E+00
    0.53787E+06        -0.19133E+07         0.00000E+00
    0.00000E+00         0.00000E+00        -0.17113E+08
 
   -0.17044E+08         0.54839E+06         0.00000E+00
    0.54839E+06        -0.19142E+07         0.00000E+00
    0.00000E+00         0.00000E+00        -0.17055E+08
 
   -0.16984E+08         0.55878E+06         0.00000E+00
    0.55878E+06        -0.19152E+07         0.00000E+00
    0.00000E+00         0.00000E+00        -0.16995E+08
 
   -0.16924E+08         0.56900E+06         0.00000E+00
    0.56900E+06        -0.19164E+07         0.00000E+00
    0.00000E+00         0.00000E+00        -0.16934E+08
 
   -0.16861E+08         0.57902E+06         0.00000E+00
    0.57902E+06        -0.19179E+07         0.00000E+00
    0.00000E+00         0.00000E+00        -0.16872E+08
 
   -0.16798E+08         0.58879E+06         0.00000E+00
    0.58879E+06        -0.19195E+07         0.00000E+00
    0.00000E+00         0.00000E+00        -0.16808E+08
 
   -0.16733E+08         0.59826E+06         0.00000E+00
    0.59826E+06        -0.19215E+07         0.00000E+00
    0.00000E+00         0.00000E+00        -0.16743E+08
 
   -0.16666E+08         0.60740E+06         0.00000E+00
    0.60740E+06        -0.19237E+07         0.00000E+00
    0.00000E+00         0.00000E+00        -0.16676E+08
 
   -0.16598E+08         0.61615E+06         0.00000E+00
    0.61615E+06        -0.19261E+07         0.00000E+00
    0.00000E+00         0.00000E+00        -0.16607E+08
 
   -0.16529E+08         0.62445E+06         0.00000E+00
    0.62445E+06        -0.19289E+07         0.00000E+00
    0.00000E+00         0.00000E+00        -0.16538E+08
 
   -0.16458E+08         0.63224E+06         0.00000E+00
    0.63224E+06        -0.19321E+07         0.00000E+00
    0.00000E+00         0.00000E+00        -0.16466E+08
 
   -0.16386E+08         0.63945E+06         0.00000E+00
    0.63945E+06        -0.19356E+07         0.00000E+00
    0.00000E+00         0.00000E+00        -0.16394E+08
 
   -0.16312E+08         0.64602E+06         0.00000E+00
    0.64602E+06        -0.19395E+07         0.00000E+00
    0.00000E+00         0.00000E+00        -0.16319E+08
 
   -0.16237E+08         0.65186E+06         0.00000E+00
    0.65186E+06        -0.19438E+07         0.00000E+00
    0.00000E+00         0.00000E+00        -0.16244E+08
 
   -0.16161E+08         0.65690E+06         0.00000E+00
    0.65690E+06        -0.19487E+07         0.00000E+00
    0.00000E+00         0.00000E+00        -0.16166E+08
 
   -0.16084E+08         0.66105E+06         0.00000E+00
    0.66105E+06        -0.19541E+07         0.00000E+00
    0.00000E+00         0.00000E+00        -0.16088E+08
 
   -0.16005E+08         0.66422E+06         0.00000E+00
    0.66422E+06        -0.19600E+07         0.00000E+00
    0.00000E+00         0.00000E+00        -0.16008E+08
 
   -0.15925E+08         0.66631E+06         0.00000E+00
    0.66631E+06        -0.19666E+07         0.00000E+00
    0.00000E+00         0.00000E+00        -0.15927E+08
 
   -0.15843E+08         0.66722E+06         0.00000E+00
    0.66722E+06        -0.19739E+07         0.00000E+00
    0.00000E+00         0.00000E+00        -0.15844E+08
 
   -0.15761E+08         0.66685E+06         0.00000E+00
    0.66685E+06        -0.19819E+07         0.00000E+00
    0.00000E+00         0.00000E+00        -0.15760E+08
 
   -0.15677E+08         0.66509E+06         0.00000E+00
    0.66509E+06        -0.19908E+07         0.00000E+00
    0.00000E+00         0.00000E+00        -0.15675E+08
 
   -0.15592E+08         0.66183E+06         0.00000E+00
    0.66183E+06        -0.20006E+07         0.00000E+00
    0.00000E+00         0.00000E+00        -0.15589E+08
 
   -0.15507E+08         0.65698E+06         0.00000E+00
    0.65698E+06        -0.20113E+07         0.00000E+00
    0.00000E+00         0.00000E+00        -0.15502E+08
 
   -0.15420E+08         0.65041E+06         0.00000E+00
    0.65041E+06        -0.20230E+07         0.00000E+00
    0.00000E+00         0.00000E+00        -0.15413E+08
 
   -0.15333E+08         0.64205E+06         0.00000E+00
    0.64205E+06        -0.20357E+07         0.00000E+00
    0.00000E+00         0.00000E+00        -0.15324E+08
 
   -0.15244E+08         0.63181E+06         0.00000E+00
    0.63181E+06        -0.20496E+07         0.00000E+00
    0.00000E+00         0.00000E+00        -0.15234E+08
 
   -0.15155E+08         0.61960E+06         0.00000E+00
    0.61960E+06        -0.20645E+07         0.00000E+00
    0.00000E+00         0.00000E+00        -0.15142E+08
 
   -0.15065E+08         0.60539E+06         0.00000E+00
    0.60539E+06        -0.20803E+07         0.00000E+00
    0.00000E+00         0.00000E+00        -0.15050E+08
 
   -0.14974E+08         0.58911E+06         0.00000E+00
    0.58911E+06        -0.20971E+07         0.00000E+00
    0.00000E+00         0.00000E+00        -0.14957E+08
 
   -0.14882E+08         0.57076E+06         0.00000E+00
    0.57076E+06        -0.21144E+07         0.00000E+00
    0.00000E+00         0.00000E+00        -0.14863E+08
 
   -0.14789E+08         0.55032E+06         0.00000E+00
    0.55032E+06        -0.21319E+07         0.00000E+00
    0.00000E+00         0.00000E+00        -0.14768E+08
 
   -0.14695E+08         0.52778E+06         0.00000E+00
    0.52778E+06        -0.21491E+07         0.00000E+00
    0.00000E+00         0.00000E+00        -0.14672E+08
 
   -0.14600E+08         0.50310E+06         0.00000E+00
    0.50310E+06        -0.21651E+07         0.00000E+00
    0.00000E+00         0.00000E+00        -0.14574E+08
 
   -0.14502E+08         0.47621E+06         0.00000E+00
    0.47621E+06        -0.21790E+07         0.00000E+00
    0.00000E+00         0.00000E+00        -0.14475E+08
 
   -0.14403E+08         0.44688E+06         0.00000E+00
    0.44688E+06        -0.21893E+07         0.00000E+00
    0.00000E+00         0.00000E+00        -0.14373E+08
 
   -0.14302E+08         0.41471E+06         0.00000E+00
    0.41471E+06        -0.21944E+07         0.00000E+00
    0.00000E+00         0.00000E+00        -0.14268E+08
 
   -0.14198E+08         0.37891E+06         0.00000E+00
    0.37891E+06        -0.21919E+07         0.00000E+00
    0.00000E+00         0.00000E+00        -0.14161E+08
 
   -0.14092E+08         0.33815E+06         0.00000E+00
    0.33815E+06        -0.21796E+07         0.00000E+00
    0.00000E+00         0.00000E+00        -0.14049E+08
 
   -0.13985E+08         0.29013E+06         0.00000E+00
    0.29013E+06        -0.21541E+07         0.00000E+00
    0.00000E+00         0.00000E+00        -0.13932E+08
 
   -0.13877E+08         0.23135E+06         0.00000E+00
    0.23135E+06        -0.21128E+07         0.00000E+00
    0.00000E+00         0.00000E+00        -0.13810E+08
 
   -0.13774E+08         0.15391E+06         0.00000E+00
    0.15391E+06        -0.20490E+07         0.00000E+00
    0.00000E+00         0.00000E+00        -0.13683E+08
 
   -0.13700E+08         0.54540E+05         0.00000E+00
    0.54540E+05        -0.19571E+07         0.00000E+00
    0.00000E+00         0.00000E+00        -0.13556E+08
 
   -0.18778E+08         0.84357E+04         0.00000E+00
    0.84357E+04        -0.19432E+07         0.00000E+00
    0.00000E+00         0.00000E+00        -0.18811E+08
 
   -0.18770E+08         0.24593E+05         0.00000E+00
    0.24593E+05        -0.19298E+07         0.00000E+00
    0.00000E+00         0.00000E+00        -0.18793E+08
 
   -0.18757E+08         0.38702E+05         0.00000E+00
    0.38702E+05        -0.19201E+07         0.00000E+00
    0.00000E+00         0.00000E+00        -0.18775E+08
 
   -0.18742E+08         0.50612E+05         0.00000E+00
    0.50612E+05        -0.19138E+07         0.00000E+00
    0.00000E+00         0.00000E+00        -0.18758E+08
 
   -0.18727E+08         0.61133E+05         0.00000E+00
    0.61133E+05        -0.19098E+07         0.00000E+00
    0.00000E+00         0.00000E+00        -0.18741E+08
 
   -0.18711E+08         0.70776E+05         0.00000E+00
    0.70776E+05        -0.19077E+07         0.00000E+00
    0.00000E+00         0.00000E+00        -0.18725E+08
 
   -0.18696E+08         0.79840E+05         0.00000E+00
    0.79840E+05        -0.19070E+07         0.00000E+00
    0.00000E+00         0.00000E+00        -0.18709E+08
 
   -0.18681E+08         0.88522E+05         0.00000E+00
    0.88522E+05        -0.19073E+07         0.00000E+00
    0.00000E+00         0.00000E+00        -0.18693E+08
 
   -0.18665E+08         0.96935E+05         0.00000E+00
    0.96935E+05        -0.19083E+07         0.00000E+00
    0.00000E+00         0.00000E+00        -0.18677E+08
 
   -0.18650E+08         0.10515E+06         0.00000E+00
    0.10515E+06        -0.19097E+07         0.00000E+00
    0.00000E+00         0.00000E+00        -0.18661E+08
 
   -0.18634E+08         0.11320E+06         0.00000E+00
    0.11320E+06        -0.19114E+07         0.00000E+00
    0.00000E+00         0.00000E+00        -0.18645E+08
 
   -0.18618E+08         0.12110E+06         0.00000E+00
    0.12110E+06        -0.19131E+07         0.00000E+00
    0.00000E+00         0.00000E+00        -0.18629E+08
 
   -0.18602E+08         0.12888E+06         0.00000E+00
    0.12888E+06        -0.19149E+07         0.00000E+00
    0.00000E+00         0.00000E+00        -0.18613E+08
 
   -0.18585E+08         0.13654E+06         0.00000E+00
    0.13654E+06        -0.19166E+07         0.00000E+00
    0.00000E+00         0.00000E+00        -0.18596E+08
 
   -0.18568E+08         0.14408E+06         0.00000E+00
    0.14408E+06        -0.19181E+07         0.00000E+00
    0.00000E+00         0.00000E+00        -0.18579E+08
 
   -0.18551E+08         0.15153E+06         0.00000E+00
    0.15153E+06        -0.19195E+07         0.00000E+00
    0.00000E+00         0.00000E+00        -0.18562E+08
 
   -0.18533E+08         0.15888E+06         0.00000E+00
    0.15888E+06        -0.19207E+07         0.00000E+00
    0.00000E+00         0.00000E+00        -0.18544E+08
 
   -0.18515E+08         0.16616E+06         0.00000E+00
    0.16616E+06        -0.19218E+07         0.00000E+00
    0.00000E+00         0.00000E+00        -0.18525E+08
 
   -0.18496E+08         0.17338E+06         0.00000E+00
    0.17338E+06        -0.19226E+07         0.00000E+00
    0.00000E+00         0.00000E+00        -0.18507E+08
 
   -0.18477E+08         0.18055E+06         0.00000E+00
    0.18055E+06        -0.19233E+07         0.00000E+00
    0.00000E+00         0.00000E+00        -0.18487E+08
 
   -0.18457E+08         0.18769E+06         0.00000E+00
    0.18769E+06        -0.19239E+07         0.00000E+00
    0.00000E+00         0.00000E+00        -0.18468E+08
 
   -0.18437E+08         0.19481E+06         0.00000E+00
    0.19481E+06        -0.19243E+07         0.00000E+00
    0.00000E+00         0.00000E+00        -0.18447E+08
 
   -0.18416E+08         0.20194E+06         0.00000E+00
    0.20194E+06        -0.19245E+07         0.00000E+00
    0.00000E+00         0.00000E+00        -0.18427E+08
 
   -0.18395E+08         0.20908E+06         0.00000E+00
    0.20908E+06        -0.19247E+07         0.00000E+00
    0.00000E+00         0.00000E+00        -0.18405E+08
 
   -0.18373E+08         0.21626E+06         0.00000E+00
    0.21626E+06        -0.19247E+07         0.00000E+00
    0.00000E+00         0.00000E+00        -0.18383E+08
 
   -0.18350E+08         0.22349E+06         0.00000E+00
    0.22349E+06        -0.19246E+07         0.00000E+00
    0.00000E+00         0.00000E+00        -0.18360E+08
 
   -0.18326E+08         0.23079E+06         0.00000E+00
    0.23079E+06        -0.19245E+07         0.00000E+00
    0.00000E+00         0.00000E+00        -0.18337E+08
 
   -0.18302E+08         0.23816E+06         0.00000E+00
    0.23816E+06        -0.19242E+07         0.00000E+00
    0.00000E+00         0.00000E+00        -0.18313E+08
 
   -0.18278E+08         0.24561E+06         0.00000E+00
    0.24561E+06        -0.19239E+07         0.00000E+00
    0.00000E+00         0.00000E+00        -0.18289E+08
 
   -0.18252E+08         0.25317E+06         0.00000E+00
    0.25317E+06        -0.19236E+07         0.00000E+00
    0.00000E+00         0.00000E+00        -0.18263E+08
 
   -0.18226E+08         0.26084E+06         0.00000E+00
    0.26084E+06        -0.19232E+07         0.00000E+00
    0.00000E+00         0.00000E+00        -0.18237E+08
 
   -0.18199E+08         0.26862E+06         0.00000E+00
    0.26862E+06        -0.19227E+07         0.00000E+00
    0.00000E+00         0.00000E+00        -0.18210E+08
 
   -0.18171E+08         0.27653E+06         0.00000E+00
    0.27653E+06        -0.19222E+07         0.00000E+00
    0.00000E+00         0.00000E+00        -0.18183E+08
 
   -0.18143E+08         0.28458E+06         0.00000E+00
    0.28458E+06        -0.19217E+07         0.00000E+00
    0.00000E+00         0.00000E+00        -0.18155E+08
 
   -0.18113E+08         0.29276E+06         0.00000E+00
    0.29276E+06        -0.19211E+07         0.00000E+00
    0.00000E+00         0.00000E+00        -0.18125E+08
 
   -0.18083E+08         0.30108E+06         0.00000E+00
    0.30108E+06        -0.19206E+07         0.00000E+00
    0.00000E+00         0.00000E+00        -0.18095E+08
 
   -0.18052E+08         0.30955E+06         0.00000E+00
    0.30955E+06        -0.19200E+07         0.00000E+00
    0.00000E+00         0.00000E+00        -0.18064E+08
 
   -0.18020E+08         0.31817E+06         0.00000E+00
    0.31817E+06        -0.19194E+07         0.00000E+00
    0.00000E+00         0.00000E+00        -0.18033E+08
 
   -0.17987E+08         0.32693E+06         0.00000E+00
    0.32693E+06        -0.19188E+07         0.00000E+00
    0.00000E+00         0.00000E+00        -0.18000E+08
 
   -0.17953E+08         0.33585E+06         0.00000E+00
    0.33585E+06        -0.19182E+07         0.00000E+00
    0.00000E+00         0.00000E+00        -0.17966E+08
 
   -0.17918E+08         0.34492E+06         0.00000E+00
    0.34492E+06        -0.19176E+07         0.00000E+00
    0.00000E+00         0.00000E+00        -0.17932E+08
 
   -0.17882E+08         0.35413E+06         0.00000E+00
    0.35413E+06        -0.19170E+07         0.00000E+00
    0.00000E+00         0.00000E+00        -0.17896E+08
 
   -0.17845E+08         0.36349E+06         0.00000E+00
    0.36349E+06        -0.19165E+07         0.00000E+00
    0.00000E+00         0.00000E+00        -0.17859E+08
 
   -0.17807E+08         0.37300E+06         0.00000E+00
    0.37300E+06        -0.19159E+07         0.00000E+00
    0.00000E+00         0.00000E+00        -0.17822E+08
 
   -0.17768E+08         0.38264E+06         0.00000E+00
    0.38264E+06        -0.19154E+07         0.00000E+00
    0.00000E+00         0.00000E+00        -0.17783E+08
 
   -0.17728E+08         0.39241E+06         0.00000E+00
    0.39241E+06        -0.19150E+07         0.00000E+00
    0.00000E+00         0.00000E+00        -0.17743E+08
 
   -0.17687E+08         0.40231E+06         0.00000E+00
    0.40231E+06        -0.19145E+07         0.00000E+00
    0.00000E+00         0.00000E+00        -0.17702E+08
 
   -0.17645E+08         0.41232E+06         0.00000E+00
    0.41232E+06        -0.19142E+07         0.00000E+00
    0.00000E+00         0.00000E+00        -0.17660E+08
 
   -0.17601E+08         0.42244E+06         0.00000E+00
    0.42244E+06        -0.19138E+07         0.00000E+00
    0.00000E+00         0.00000E+00        -0.17616E+08
 
   -0.17556E+08         0.43266E+06         0.00000E+00
    0.43266E+06        -0.19136E+07         0.00000E+00
    0.00000E+00         0.00000E+00        -0.17572E+08
 
   -0.17510E+08         0.44296E+06         0.00000E+00
    0.44296E+06        -0.19134E+07         0.00000E+00
    0.00000E+00         0.00000E+00        -0.17526E+08
 
   -0.17463E+08         0.45333E+06         0.00000E+00
    0.45333E+06        -0.19133E+07         0.00000E+00
    0.00000E+00         0.00000E+00        -0.17479E+08
 
   -0.17415E+08         0.46376E+06         0.00000E+00
    0.46376E+06        -0.19132E+07         0.00000E+00
    0.00000E+00         0.00000E+00        -0.17430E+08
 
   -0.17365E+08         0.47423E+06         0.00000E+00
    0.47423E+06        -0.19133E+07         0.00000E+00
    0.00000E+00         0.00000E+00        -0.17381E+08
 
   -0.17314E+08         0.48472E+06         0.00000E+00
    0.48472E+06        -0.19135E+07         0.00000E+00
    0.00000E+00         0.00000E+00        -0.17329E+08
 
   -0.17261E+08         0.49520E+06         0.00000E+00
    0.49520E+06        -0.19138E+07         0.00000E+00
    0.00000E+00         0.00000E+00        -0.17277E+08
 
   -0.17208E+08         0.50567E+06         0.00000E+00
    0.50567E+06        -0.19142E+07         0.00000E+00
    0.00000E+00         0.00000E+00        -0.17223E+08
 
   -0.17153E+08         0.51609E+06         0.00000E+00
    0.51609E+06        -0.19147E+07         0.00000E+00
    0.00000E+00         0.00000E+00        -0.17168E+08
 
   -0.17096E+08         0.52643E+06         0.00000E+00
    0.52643E+06        -0.19154E+07         0.00000E+00
    0.00000E+00         0.00000E+00        -0.17112E+08
 
   -0.17038E+08         0.53667E+06         0.00000E+00
    0.53667E+06        -0.19162E+07         0.00000E+00
    0.00000E+00         0.00000E+00        -0.17054E+08
 
   -0.16979E+08         0.54678E+06         0.00000E+00
    0.54678E+06        -0.19172E+07         0.00000E+00
    0.00000E+00         0.00000E+00        -0.16994E+08
 
   -0.16918E+08         0.55672E+06         0.00000E+00
    0.55672E+06        -0.19184E+07         0.00000E+00
    0.00000E+00         0.00000E+00        -0.16933E+08
 
   -0.16856E+08         0.56645E+06         0.00000E+00
    0.56645E+06        -0.19198E+07         0.00000E+00
    0.00000E+00         0.00000E+00        -0.16871E+08
 
   -0.16793E+08         0.57594E+06         0.00000E+00
    0.57594E+06        -0.19214E+07         0.00000E+00
    0.00000E+00         0.00000E+00        -0.16807E+08
 
   -0.16728E+08         0.58513E+06         0.00000E+00
    0.58513E+06        -0.19233E+07         0.00000E+00
    0.00000E+00         0.00000E+00        -0.16742E+08
 
   -0.16662E+08         0.59398E+06         0.00000E+00
    0.59398E+06        -0.19254E+07         0.00000E+00
    0.00000E+00         0.00000E+00        -0.16675E+08
 
   -0.16594E+08         0.60244E+06         0.00000E+00
    0.60244E+06        -0.19278E+07         0.00000E+00
    0.00000E+00         0.00000E+00        -0.16607E+08
 
   -0.16525E+08         0.61046E+06         0.00000E+00
    0.61046E+06        -0.19305E+07         0.00000E+00
    0.00000E+00         0.00000E+00        -0.16537E+08
 
   -0.16454E+08         0.61797E+06         0.00000E+00
    0.61797E+06        -0.19335E+07         0.00000E+00
    0.00000E+00         0.00000E+00        -0.16466E+08
 
   -0.16382E+08         0.62490E+06         0.00000E+00
    0.62490E+06        -0.19369E+07         0.00000E+00
    0.00000E+00         0.00000E+00        -0.16393E+08
 
   -0.16309E+08         0.63120E+06         0.00000E+00
    0.63120E+06        -0.19407E+07         0.00000E+00
    0.00000E+00         0.00000E+00        -0.16319E+08
 
   -0.16235E+08         0.63677E+06         0.00000E+00
    0.63677E+06        -0.19449E+07         0.00000E+00
    0.00000E+00         0.00000E+00        -0.16243E+08
 
   -0.16159E+08         0.64155E+06         0.00000E+00
    0.64155E+06        -0.19496E+07         0.00000E+00
    0.00000E+00         0.00000E+00        -0.16166E+08
 
   -0.16081E+08         0.64545E+06         0.00000E+00
    0.64545E+06        -0.19548E+07         0.00000E+00
    0.00000E+00         0.00000E+00        -0.16087E+08
 
   -0.16003E+08         0.64837E+06         0.00000E+00
    0.64837E+06        -0.19605E+07         0.00000E+00
    0.00000E+00         0.00000E+00        -0.16008E+08
 
   -0.15923E+08         0.65022E+06         0.00000E+00
    0.65022E+06        -0.19669E+07         0.00000E+00
    0.00000E+00         0.00000E+00        -0.15926E+08
 
   -0.15843E+08         0.65090E+06         0.00000E+00
    0.65090E+06        -0.19739E+07         0.00000E+00
    0.00000E+00         0.00000E+00        -0.15844E+08
 
   -0.15761E+08         0.65031E+06         0.00000E+00
    0.65031E+06        -0.19817E+07         0.00000E+00
    0.00000E+00         0.00000E+00        -0.15760E+08
 
   -0.15678E+08         0.64834E+06         0.00000E+00
    0.64834E+06        -0.19903E+07         0.00000E+00
    0.00000E+00         0.00000E+00        -0.15675E+08
 
   -0.15594E+08         0.64488E+06         0.00000E+00
    0.64488E+06        -0.19997E+07         0.00000E+00
    0.00000E+00         0.00000E+00        -0.15589E+08
 
   -0.15509E+08         0.63984E+06         0.00000E+00
    0.63984E+06        -0.20101E+07         0.00000E+00
    0.00000E+00         0.00000E+00        -0.15502E+08
 
   -0.15424E+08         0.63309E+06         0.00000E+00
    0.63309E+06        -0.20215E+07         0.00000E+00
    0.00000E+00         0.00000E+00        -0.15414E+08
 
   -0.15337E+08         0.62456E+06         0.00000E+00
    0.62456E+06        -0.20339E+07         0.00000E+00
    0.00000E+00         0.00000E+00        -0.15325E+08
 
   -0.15250E+08         0.61415E+06         0.00000E+00
    0.61415E+06        -0.20473E+07         0.00000E+00
    0.00000E+00         0.00000E+00        -0.15234E+08
 
   -0.15161E+08         0.60178E+06         0.00000E+00
    0.60178E+06        -0.20618E+07         0.00000E+00
    0.00000E+00         0.00000E+00        -0.15143E+08
 
   -0.15072E+08         0.58739E+06         0.00000E+00
    0.58739E+06        -0.20773E+07         0.00000E+00
    0.00000E+00         0.00000E+00        -0.15052E+08
 
   -0.14982E+08         0.57094E+06         0.00000E+00
    0.57094E+06        -0.20936E+07         0.00000E+00
    0.00000E+00         0.00000E+00        -0.14959E+08
 
   -0.14892E+08         0.55239E+06         0.00000E+00
    0.55239E+06        -0.21105E+07         0.00000E+00
    0.00000E+00         0.00000E+00        -0.14865E+08
 
   -0.14800E+08         0.53172E+06         0.00000E+00
    0.53172E+06        -0.21276E+07         0.00000E+00
    0.00000E+00         0.00000E+00        -0.14770E+08
 
   -0.14707E+08         0.50892E+06         0.00000E+00
    0.50892E+06        -0.21443E+07         0.00000E+00
    0.00000E+00         0.00000E+00        -0.14674E+08
 
   -0.14612E+08         0.48395E+06         0.00000E+00
    0.48395E+06        -0.21599E+07         0.00000E+00
    0.00000E+00         0.00000E+00        -0.14577E+08
 
   -0.14516E+08         0.45671E+06         0.00000E+00
    0.45671E+06        -0.21733E+07         0.00000E+00
    0.00000E+00         0.00000E+00        -0.14477E+08
 
   -0.14419E+08         0.42699E+06         0.00000E+00
    0.42699E+06        -0.21831E+07         0.00000E+00
    0.00000E+00         0.00000E+00        -0.14376E+08
 
   -0.14319E+08         0.39439E+06         0.00000E+00
    0.39439E+06        -0.21875E+07         0.00000E+00
    0.00000E+00         0.00000E+00        -0.14272E+08
 
   -0.14218E+08         0.35819E+06         0.00000E+00
    0.35819E+06        -0.21843E+07         0.00000E+00
    0.00000E+00         0.00000E+00        -0.14164E+08
 
   -0.14115E+08         0.31709E+06         0.00000E+00
    0.31709E+06        -0.21707E+07         0.00000E+00
    0.00000E+00         0.00000E+00        -0.14053E+08
 
   -0.14012E+08         0.26906E+06         0.00000E+00
    0.26906E+06        -0.21436E+07         0.00000E+00
    0.00000E+00         0.00000E+00        -0.13937E+08
 
   -0.13911E+08         0.21064E+06         0.00000E+00
    0.21064E+06        -0.20995E+07         0.00000E+00
    0.00000E+00         0.00000E+00        -0.13816E+08
 
   -0.13819E+08         0.13625E+06         0.00000E+00
    0.13625E+06        -0.20315E+07         0.00000E+00
    0.00000E+00         0.00000E+00        -0.13691E+08
 
   -0.13759E+08         0.47124E+05         0.00000E+00
    0.47124E+05        -0.19372E+07         0.00000E+00
    0.00000E+00         0.00000E+00        -0.13567E+08
 
   -0.18769E+08         0.75904E+04         0.00000E+00
    0.75904E+04        -0.19464E+07         0.00000E+00
    0.00000E+00         0.00000E+00        -0.18809E+08
 
   -0.18762E+08         0.22428E+05         0.00000E+00
    0.22428E+05        -0.19328E+07         0.00000E+00
    0.00000E+00         0.00000E+00        -0.18792E+08
 
   -0.18750E+08         0.35940E+05         0.00000E+00
    0.35940E+05        -0.19227E+07         0.00000E+00
    0.00000E+00         0.00000E+00        -0.18774E+08
 
   -0.18736E+08         0.47674E+05         0.00000E+00
    0.47674E+05        -0.19160E+07         0.00000E+00
    0.00000E+00         0.00000E+00        -0.18757E+08
 
   -0.18722E+08         0.58116E+05         0.00000E+00
    0.58116E+05        -0.19118E+07         0.00000E+00
    0.00000E+00         0.00000E+00        -0.18740E+08
 
   -0.18707E+08         0.67728E+05         0.00000E+00
    0.67728E+05        -0.19096E+07         0.00000E+00
    0.00000E+00         0.00000E+00        -0.18724E+08
 
   -0.18692E+08         0.76779E+05         0.00000E+00
    0.76779E+05        -0.19088E+07         0.00000E+00
    0.00000E+00         0.00000E+00        -0.18708E+08
 
   -0.18676E+08         0.85449E+05         0.00000E+00
    0.85449E+05        -0.19090E+07         0.00000E+00
    0.00000E+00         0.00000E+00        -0.18692E+08
 
   -0.18661E+08         0.93845E+05         0.00000E+00
    0.93845E+05        -0.19099E+07         0.00000E+00
    0.00000E+00         0.00000E+00        -0.18676E+08
 
   -0.18646E+08         0.10203E+06         0.00000E+00
    0.10203E+06        -0.19113E+07         0.00000E+00
    0.00000E+00         0.00000E+00        -0.18660E+08
 
   -0.18630E+08         0.11004E+06         0.00000E+00
    0.11004E+06        -0.19130E+07         0.00000E+00
    0.00000E+00         0.00000E+00        -0.18644E+08
 
   -0.18614E+08         0.11790E+06         0.00000E+00
    0.11790E+06        -0.19147E+07         0.00000E+00
    0.00000E+00         0.00000E+00        -0.18628E+08
 
   -0.18598E+08         0.12561E+06         0.00000E+00
    0.12561E+06        -0.19164E+07         0.00000E+00
    0.00000E+00         0.00000E+00        -0.18612E+08
 
   -0.18581E+08         0.13320E+06         0.00000E+00
    0.13320E+06        -0.19181E+07         0.00000E+00
    0.00000E+00         0.00000E+00        -0.18595E+08
 
   -0.18565E+08         0.14067E+06         0.00000E+00
    0.14067E+06        -0.19196E+07         0.00000E+00
    0.00000E+00         0.00000E+00        -0.18578E+08
 
   -0.18547E+08         0.14803E+06         0.00000E+00
    0.14803E+06        -0.19210E+07         0.00000E+00
    0.00000E+00         0.00000E+00        -0.18561E+08
 
   -0.18530E+08         0.15529E+06         0.00000E+00
    0.15529E+06        -0.19222E+07         0.00000E+00
    0.00000E+00         0.00000E+00        -0.18543E+08
 
   -0.18511E+08         0.16248E+06         0.00000E+00
    0.16248E+06        -0.19232E+07         0.00000E+00
    0.00000E+00         0.00000E+00        -0.18525E+08
 
   -0.18493E+08         0.16959E+06         0.00000E+00
    0.16959E+06        -0.19241E+07         0.00000E+00
    0.00000E+00         0.00000E+00        -0.18506E+08
 
   -0.18474E+08         0.17665E+06         0.00000E+00
    0.17665E+06        -0.19248E+07         0.00000E+00
    0.00000E+00         0.00000E+00        -0.18487E+08
 
   -0.18454E+08         0.18368E+06         0.00000E+00
    0.18368E+06        -0.19253E+07         0.00000E+00
    0.00000E+00         0.00000E+00        -0.18467E+08
 
   -0.18434E+08         0.19069E+06         0.00000E+00
    0.19069E+06        -0.19257E+07         0.00000E+00
    0.00000E+00         0.00000E+00        -0.18447E+08
 
   -0.18413E+08         0.19770E+06         0.00000E+00
    0.19770E+06        -0.19259E+07         0.00000E+00
    0.00000E+00         0.00000E+00        -0.18426E+08
 
   -0.18391E+08         0.20472E+06         0.00000E+00
    0.20472E+06        -0.19261E+07         0.00000E+00
    0.00000E+00         0.00000E+00        -0.18404E+08
 
   -0.18369E+08         0.21178E+06         0.00000E+00
    0.21178E+06        -0.19261E+07         0.00000E+00
    0.00000E+00         0.00000E+00        -0.18382E+08
 
   -0.18346E+08         0.21888E+06         0.00000E+00
    0.21888E+06        -0.19261E+07         0.00000E+00
    0.00000E+00         0.00000E+00        -0.18360E+08
 
   -0.18323E+08         0.22604E+06         0.00000E+00
    0.22604E+06        -0.19259E+07         0.00000E+00
    0.00000E+00         0.00000E+00        -0.18336E+08
 
   -0.18299E+08         0.23327E+06         0.00000E+00
    0.23327E+06        -0.19257E+07         0.00000E+00
    0.00000E+00         0.00000E+00        -0.18313E+08
 
   -0.18274E+08         0.24058E+06         0.00000E+00
    0.24058E+06        -0.19254E+07         0.00000E+00
    0.00000E+00         0.00000E+00        -0.18288E+08
 
   -0.18248E+08         0.24800E+06         0.00000E+00
    0.24800E+06        -0.19251E+07         0.00000E+00
    0.00000E+00         0.00000E+00        -0.18263E+08
 
   -0.18222E+08         0.25551E+06         0.00000E+00
    0.25551E+06        -0.19247E+07         0.00000E+00
    0.00000E+00         0.00000E+00        -0.18237E+08
 
   -0.18195E+08         0.26314E+06         0.00000E+00
    0.26314E+06        -0.19243E+07         0.00000E+00
    0.00000E+00         0.00000E+00        -0.18210E+08
 
   -0.18167E+08         0.27090E+06         0.00000E+00
    0.27090E+06        -0.19238E+07         0.00000E+00
    0.00000E+00         0.00000E+00        -0.18182E+08
 
   -0.18139E+08         0.27878E+06         0.00000E+00
    0.27878E+06        -0.19233E+07         0.00000E+00
    0.00000E+00         0.00000E+00        -0.18154E+08
 
   -0.18109E+08         0.28679E+06         0.00000E+00
    0.28679E+06        -0.19228E+07         0.00000E+00
    0.00000E+00         0.00000E+00        -0.18125E+08
 
   -0.18079E+08         0.29494E+06         0.00000E+00
    0.29494E+06        -0.19222E+07         0.00000E+00
    0.00000E+00         0.00000E+00        -0.18095E+08
 
   -0.18048E+08         0.30323E+06         0.00000E+00
    0.30323E+06        -0.19217E+07         0.00000E+00
    0.00000E+00         0.00000E+00        -0.18064E+08
 
   -0.18015E+08         0.31166E+06         0.00000E+00
    0.31166E+06        -0.19211E+07         0.00000E+00
    0.00000E+00         0.00000E+00        -0.18032E+08
 
   -0.17982E+08         0.32024E+06         0.00000E+00
    0.32024E+06        -0.19205E+07         0.00000E+00
    0.00000E+00         0.00000E+00        -0.17999E+08
 
   -0.17948E+08         0.32897E+06         0.00000E+00
    0.32897E+06        -0.19200E+07         0.00000E+00
    0.00000E+00         0.00000E+00        -0.17965E+08
 
   -0.17914E+08         0.33784E+06         0.00000E+00
    0.33784E+06        -0.19194E+07         0.00000E+00
    0.00000E+00         0.00000E+00        -0.17931E+08
 
   -0.17878E+08         0.34685E+06         0.00000E+00
    0.34685E+06        -0.19189E+07         0.00000E+00
    0.00000E+00         0.00000E+00        -0.17895E+08
 
   -0.17841E+08         0.35600E+06         0.00000E+00
    0.35600E+06        -0.19183E+07         0.00000E+00
    0.00000E+00         0.00000E+00        -0.17858E+08
 
   -0.17803E+08         0.36529E+06         0.00000E+00
    0.36529E+06        -0.19178E+07         0.00000E+00
    0.00000E+00         0.00000E+00        -0.17821E+08
 
   -0.17763E+08         0.37472E+06         0.00000E+00
    0.37472E+06        -0.19174E+07         0.00000E+00
    0.00000E+00         0.00000E+00        -0.17782E+08
 
   -0.17723E+08         0.38427E+06         0.00000E+00
    0.38427E+06        -0.19169E+07         0.00000E+00
    0.00000E+00         0.00000E+00        -0.17742E+08
 
   -0.17682E+08         0.39394E+06         0.00000E+00
    0.39394E+06        -0.19165E+07         0.00000E+00
    0.00000E+00         0.00000E+00        -0.17701E+08
 
   -0.17640E+08         0.40372E+06         0.00000E+00
    0.40372E+06        -0.19162E+07         0.00000E+00
    0.00000E+00         0.00000E+00        -0.17659E+08
 
   -0.17596E+08         0.41361E+06         0.00000E+00
    0.41361E+06        -0.19159E+07         0.00000E+00
    0.00000E+00         0.00000E+00        -0.17615E+08
 
   -0.17551E+08         0.42358E+06         0.00000E+00
    0.42358E+06        -0.19156E+07         0.00000E+00
    0.00000E+00         0.00000E+00        -0.17571E+08
 
   -0.17505E+08         0.43364E+06         0.00000E+00
    0.43364E+06        -0.19154E+07         0.00000E+00
    0.00000E+00         0.00000E+00        -0.17525E+08
 
   -0.17458E+08         0.44376E+06         0.00000E+00
    0.44376E+06        -0.19153E+07         0.00000E+00
    0.00000E+00         0.00000E+00        -0.17478E+08
 
   -0.17409E+08         0.45394E+06         0.00000E+00
    0.45394E+06        -0.19153E+07         0.00000E+00
    0.00000E+00         0.00000E+00        -0.17429E+08
 
   -0.17360E+08         0.46414E+06         0.00000E+00
    0.46414E+06        -0.19154E+07         0.00000E+00
    0.00000E+00         0.00000E+00        -0.17380E+08
 
   -0.17308E+08         0.47437E+06         0.00000E+00
    0.47437E+06        -0.19156E+07         0.00000E+00
    0.00000E+00         0.00000E+00        -0.17329E+08
 
   -0.17256E+08         0.48459E+06         0.00000E+00
    0.48459E+06        -0.19158E+07         0.00000E+00
    0.00000E+00         0.00000E+00        -0.17276E+08
 
   -0.17202E+08         0.49479E+06         0.00000E+00
    0.49479E+06        -0.19162E+07         0.00000E+00
    0.00000E+00         0.00000E+00        -0.17222E+08
 
   -0.17147E+08         0.50494E+06         0.00000E+00
    0.50494E+06        -0.19167E+07         0.00000E+00
    0.00000E+00         0.00000E+00        -0.17167E+08
 
   -0.17091E+08         0.51501E+06         0.00000E+00
    0.51501E+06        -0.19174E+07         0.00000E+00
    0.00000E+00         0.00000E+00        -0.17111E+08
 
   -0.17033E+08         0.52497E+06         0.00000E+00
    0.52497E+06        -0.19182E+07         0.00000E+00
    0.00000E+00         0.00000E+00        -0.17053E+08
 
   -0.16974E+08         0.53480E+06         0.00000E+00
    0.53480E+06        -0.19192E+07         0.00000E+00
    0.00000E+00         0.00000E+00        -0.16993E+08
 
   -0.16913E+08         0.54446E+06         0.00000E+00
    0.54446E+06        -0.19204E+07         0.00000E+00
    0.00000E+00         0.00000E+00        -0.16932E+08
 
   -0.16851E+08         0.55391E+06         0.00000E+00
    0.55391E+06        -0.19217E+07         0.00000E+00
    0.00000E+00         0.00000E+00        -0.16870E+08
 
   -0.16788E+08         0.56311E+06         0.00000E+00
    0.56311E+06        -0.19233E+07         0.00000E+00
    0.00000E+00         0.00000E+00        -0.16806E+08
 
   -0.16723E+08         0.57202E+06         0.00000E+00
    0.57202E+06        -0.19251E+07         0.00000E+00
    0.00000E+00         0.00000E+00        -0.16741E+08
 
   -0.16657E+08         0.58060E+06         0.00000E+00
    0.58060E+06        -0.19271E+07         0.00000E+00
    0.00000E+00         0.00000E+00        -0.16674E+08
 
   -0.16590E+08         0.58878E+06         0.00000E+00
    0.58878E+06        -0.19294E+07         0.00000E+00
    0.00000E+00         0.00000E+00        -0.16606E+08
 
   -0.16521E+08         0.59652E+06         0.00000E+00
    0.59652E+06        -0.19320E+07         0.00000E+00
    0.00000E+00         0.00000E+00        -0.16536E+08
 
   -0.16450E+08         0.60375E+06         0.00000E+00
    0.60375E+06        -0.19350E+07         0.00000E+00
    0.00000E+00         0.00000E+00        -0.16465E+08
 
   -0.16379E+08         0.61042E+06         0.00000E+00
    0.61042E+06        -0.19382E+07         0.00000E+00
    0.00000E+00         0.00000E+00        -0.16392E+08
 
   -0.16306E+08         0.61645E+06         0.00000E+00
    0.61645E+06        -0.19419E+07         0.00000E+00
    0.00000E+00         0.00000E+00        -0.16318E+08
 
   -0.16232E+08         0.62176E+06         0.00000E+00
    0.62176E+06        -0.19459E+07         0.00000E+00
    0.00000E+00         0.00000E+00        -0.16242E+08
 
   -0.16156E+08         0.62629E+06         0.00000E+00
    0.62629E+06        -0.19504E+07         0.00000E+00
    0.00000E+00         0.00000E+00        -0.16165E+08
 
   -0.16079E+08         0.62993E+06         0.00000E+00
    0.62993E+06        -0.19554E+07         0.00000E+00
    0.00000E+00         0.00000E+00        -0.16087E+08
 
   -0.16002E+08         0.63262E+06         0.00000E+00
    0.63262E+06        -0.19610E+07         0.00000E+00
    0.00000E+00         0.00000E+00        -0.16007E+08
 
   -0.15922E+08         0.63424E+06         0.00000E+00
    0.63424E+06        -0.19671E+07         0.00000E+00
    0.00000E+00         0.00000E+00        -0.15926E+08
 
   -0.15842E+08         0.63470E+06         0.00000E+00
    0.63470E+06        -0.19739E+07         0.00000E+00
    0.00000E+00         0.00000E+00        -0.15844E+08
 
   -0.15761E+08         0.63390E+06         0.00000E+00
    0.63390E+06        -0.19814E+07         0.00000E+00
    0.00000E+00         0.00000E+00        -0.15760E+08
 
   -0.15679E+08         0.63173E+06         0.00000E+00
    0.63173E+06        -0.19897E+07         0.00000E+00
    0.00000E+00         0.00000E+00        -0.15675E+08
 
   -0.15596E+08         0.62809E+06         0.00000E+00
    0.62809E+06        -0.19989E+07         0.00000E+00
    0.00000E+00         0.00000E+00        -0.15589E+08
 
   -0.15512E+08         0.62286E+06         0.00000E+00
    0.62286E+06        -0.20089E+07         0.00000E+00
    0.00000E+00         0.00000E+00        -0.15502E+08
 
   -0.15427E+08         0.61595E+06         0.00000E+00
    0.61595E+06        -0.20199E+07         0.00000E+00
    0.00000E+00         0.00000E+00        -0.15414E+08
 
   -0.15341E+08         0.60725E+06         0.00000E+00
    0.60725E+06        -0.20320E+07         0.00000E+00
    0.00000E+00         0.00000E+00        -0.15325E+08
 
   -0.15255E+08         0.59668E+06         0.00000E+00
    0.59668E+06        -0.20450E+07         0.00000E+00
    0.00000E+00         0.00000E+00        -0.15235E+08
 
   -0.15167E+08         0.58415E+06         0.00000E+00
    0.58415E+06        -0.20591E+07         0.00000E+00
    0.00000E+00         0.00000E+00        -0.15144E+08
 
   -0.15079E+08         0.56960E+06         0.00000E+00
    0.56960E+06        -0.20742E+07         0.00000E+00
    0.00000E+00         0.00000E+00        -0.15053E+08
 
   -0.14991E+08         0.55298E+06         0.00000E+00
    0.55298E+06        -0.20901E+07         0.00000E+00
    0.00000E+00         0.00000E+00        -0.14960E+08
 
   -0.14901E+08         0.53423E+06         0.00000E+00
    0.53423E+06        -0.21065E+07         0.00000E+00
    0.00000E+00         0.00000E+00        -0.14867E+08
 
   -0.14810E+08         0.51335E+06         0.00000E+00
    0.51335E+06        -0.21232E+07         0.00000E+00
    0.00000E+00         0.00000E+00        -0.14772E+08
 
   -0.14718E+08         0.49030E+06         0.00000E+00
    0.49030E+06        -0.21395E+07         0.00000E+00
    0.00000E+00         0.00000E+00        -0.14676E+08
 
   -0.14625E+08         0.46504E+06         0.00000E+00
    0.46504E+06        -0.21547E+07         0.00000E+00
    0.00000E+00         0.00000E+00        -0.14579E+08
 
   -0.14530E+08         0.43748E+06         0.00000E+00
    0.43748E+06        -0.21676E+07         0.00000E+00
    0.00000E+00         0.00000E+00        -0.14480E+08
 
   -0.14434E+08         0.40742E+06         0.00000E+00
    0.40742E+06        -0.21769E+07         0.00000E+00
    0.00000E+00         0.00000E+00        -0.14379E+08
 
   -0.14337E+08         0.37448E+06         0.00000E+00
    0.37448E+06        -0.21807E+07         0.00000E+00
    0.00000E+00         0.00000E+00        -0.14275E+08
 
   -0.14238E+08         0.33799E+06         0.00000E+00
    0.33799E+06        -0.21766E+07         0.00000E+00
    0.00000E+00         0.00000E+00        -0.14168E+08
 
   -0.14138E+08         0.29678E+06         0.00000E+00
    0.29678E+06        -0.21619E+07         0.00000E+00
    0.00000E+00         0.00000E+00        -0.14057E+08
 
   -0.14039E+08         0.24903E+06         0.00000E+00
    0.24903E+06        -0.21332E+07         0.00000E+00
    0.00000E+00         0.00000E+00        -0.13942E+08
 
   -0.13945E+08         0.19161E+06         0.00000E+00
    0.19161E+06        -0.20865E+07         0.00000E+00
    0.00000E+00         0.00000E+00        -0.13822E+08
 
   -0.13863E+08         0.12123E+06         0.00000E+00
    0.12123E+06        -0.20155E+07         0.00000E+00
    0.00000E+00         0.00000E+00        -0.13699E+08
 
   -0.13813E+08         0.41243E+05         0.00000E+00
    0.41243E+05        -0.19198E+07         0.00000E+00
    0.00000E+00         0.00000E+00        -0.13578E+08
 
   -0.18760E+08         0.68919E+04         0.00000E+00
    0.68919E+04        -0.19492E+07         0.00000E+00
    0.00000E+00         0.00000E+00        -0.18807E+08
 
   -0.18754E+08         0.20551E+05         0.00000E+00
    0.20551E+05        -0.19356E+07         0.00000E+00
    0.00000E+00         0.00000E+00        -0.18790E+08
 
   -0.18743E+08         0.33400E+05         0.00000E+00
    0.33400E+05        -0.19252E+07         0.00000E+00
    0.00000E+00         0.00000E+00        -0.18773E+08
 
   -0.18731E+08         0.44871E+05         0.00000E+00
    0.44871E+05        -0.19182E+07         0.00000E+00
    0.00000E+00         0.00000E+00        -0.18756E+08
 
   -0.18716E+08         0.55194E+05         0.00000E+00
    0.55194E+05        -0.19138E+07         0.00000E+00
    0.00000E+00         0.00000E+00        -0.18739E+08
 
   -0.18702E+08         0.64744E+05         0.00000E+00
    0.64744E+05        -0.19114E+07         0.00000E+00
    0.00000E+00         0.00000E+00        -0.18723E+08
 
   -0.18687E+08         0.73764E+05         0.00000E+00
    0.73764E+05        -0.19105E+07         0.00000E+00
    0.00000E+00         0.00000E+00        -0.18707E+08
 
   -0.18672E+08         0.82410E+05         0.00000E+00
    0.82410E+05        -0.19107E+07         0.00000E+00
    0.00000E+00         0.00000E+00        -0.18691E+08
 
   -0.18657E+08         0.90781E+05         0.00000E+00
    0.90781E+05        -0.19116E+07         0.00000E+00
    0.00000E+00         0.00000E+00        -0.18675E+08
 
   -0.18642E+08         0.98933E+05         0.00000E+00
    0.98933E+05        -0.19129E+07         0.00000E+00
    0.00000E+00         0.00000E+00        -0.18660E+08
 
   -0.18626E+08         0.10690E+06         0.00000E+00
    0.10690E+06        -0.19145E+07         0.00000E+00
    0.00000E+00         0.00000E+00        -0.18644E+08
 
   -0.18610E+08         0.11471E+06         0.00000E+00
    0.11471E+06        -0.19162E+07         0.00000E+00
    0.00000E+00         0.00000E+00        -0.18628E+08
 
   -0.18594E+08         0.12236E+06         0.00000E+00
    0.12236E+06        -0.19180E+07         0.00000E+00
    0.00000E+00         0.00000E+00        -0.18611E+08
 
   -0.18578E+08         0.12988E+06         0.00000E+00
    0.12988E+06        -0.19196E+07         0.00000E+00
    0.00000E+00         0.00000E+00        -0.18595E+08
 
   -0.18561E+08         0.13727E+06         0.00000E+00
    0.13727E+06        -0.19211E+07         0.00000E+00
    0.00000E+00         0.00000E+00        -0.18578E+08
 
   -0.18544E+08         0.14454E+06         0.00000E+00
    0.14454E+06        -0.19224E+07         0.00000E+00
    0.00000E+00         0.00000E+00        -0.18560E+08
 
   -0.18526E+08         0.15171E+06         0.00000E+00
    0.15171E+06        -0.19236E+07         0.00000E+00
    0.00000E+00         0.00000E+00        -0.18542E+08
 
   -0.18508E+08         0.15879E+06         0.00000E+00
    0.15879E+06        -0.19246E+07         0.00000E+00
    0.00000E+00         0.00000E+00        -0.18524E+08
 
   -0.18489E+08         0.16580E+06         0.00000E+00
    0.16580E+06        -0.19255E+07         0.00000E+00
    0.00000E+00         0.00000E+00        -0.18505E+08
 
   -0.18470E+08         0.17276E+06         0.00000E+00
    0.17276E+06        -0.19262E+07         0.00000E+00
    0.00000E+00         0.00000E+00        -0.18486E+08
 
   -0.18450E+08         0.17967E+06         0.00000E+00
    0.17967E+06        -0.19267E+07         0.00000E+00
    0.00000E+00         0.00000E+00        -0.18466E+08
 
   -0.18430E+08         0.18657E+06         0.00000E+00
    0.18657E+06        -0.19271E+07         0.00000E+00
    0.00000E+00         0.00000E+00        -0.18446E+08
 
   -0.18409E+08         0.19346E+06         0.00000E+00
    0.19346E+06        -0.19273E+07         0.00000E+00
    0.00000E+00         0.00000E+00        -0.18425E+08
 
   -0.18388E+08         0.20036E+06         0.00000E+00
    0.20036E+06        -0.19275E+07         0.00000E+00
    0.00000E+00         0.00000E+00        -0.18404E+08
 
   -0.18365E+08         0.20728E+06         0.00000E+00
    0.20728E+06        -0.19275E+07         0.00000E+00
    0.00000E+00         0.00000E+00        -0.18382E+08
 
   -0.18343E+08         0.21425E+06         0.00000E+00
    0.21425E+06        -0.19275E+07         0.00000E+00
    0.00000E+00         0.00000E+00        -0.18359E+08
 
   -0.18319E+08         0.22128E+06         0.00000E+00
    0.22128E+06        -0.19273E+07         0.00000E+00
    0.00000E+00         0.00000E+00        -0.18336E+08
 
   -0.18295E+08         0.22837E+06         0.00000E+00
    0.22837E+06        -0.19271E+07         0.00000E+00
    0.00000E+00         0.00000E+00        -0.18312E+08
 
   -0.18270E+08         0.23555E+06         0.00000E+00
    0.23555E+06        -0.19269E+07         0.00000E+00
    0.00000E+00         0.00000E+00        -0.18287E+08
 
   -0.18245E+08         0.24281E+06         0.00000E+00
    0.24281E+06        -0.19266E+07         0.00000E+00
    0.00000E+00         0.00000E+00        -0.18262E+08
 
   -0.18218E+08         0.25018E+06         0.00000E+00
    0.25018E+06        -0.19262E+07         0.00000E+00
    0.00000E+00         0.00000E+00        -0.18236E+08
 
   -0.18191E+08         0.25765E+06         0.00000E+00
    0.25765E+06        -0.19258E+07         0.00000E+00
    0.00000E+00         0.00000E+00        -0.18209E+08
 
   -0.18163E+08         0.26524E+06         0.00000E+00
    0.26524E+06        -0.19253E+07         0.00000E+00
    0.00000E+00         0.00000E+00        -0.18181E+08
 
   -0.18134E+08         0.27296E+06         0.00000E+00
    0.27296E+06        -0.19249E+07         0.00000E+00
    0.00000E+00         0.00000E+00        -0.18153E+08
 
   -0.18105E+08         0.28080E+06         0.00000E+00
    0.28080E+06        -0.19244E+07         0.00000E+00
    0.00000E+00         0.00000E+00        -0.18124E+08
 
   -0.18075E+08         0.28878E+06         0.00000E+00
    0.28878E+06        -0.19238E+07         0.00000E+00
    0.00000E+00         0.00000E+00        -0.18094E+08
 
   -0.18043E+08         0.29689E+06         0.00000E+00
    0.29689E+06        -0.19233E+07         0.00000E+00
    0.00000E+00         0.00000E+00        -0.18063E+08
 
   -0.18011E+08         0.30514E+06         0.00000E+00
    0.30514E+06        -0.19228E+07         0.00000E+00
    0.00000E+00         0.00000E+00        -0.18031E+08
 
   -0.17978E+08         0.31354E+06         0.00000E+00
    0.31354E+06        -0.19222E+07         0.00000E+00
    0.00000E+00         0.00000E+00        -0.17998E+08
 
   -0.17944E+08         0.32207E+06         0.00000E+00
    0.32207E+06        -0.19217E+07         0.00000E+00
    0.00000E+00         0.00000E+00        -0.17965E+08
 
   -0.17909E+08         0.33074E+06         0.00000E+00
    0.33074E+06        -0.19212E+07         0.00000E+00
    0.00000E+00         0.00000E+00        -0.17930E+08
 
   -0.17873E+08         0.33955E+06         0.00000E+00
    0.33955E+06        -0.19207E+07         0.00000E+00
    0.00000E+00         0.00000E+00        -0.17894E+08
 
   -0.17836E+08         0.34850E+06         0.00000E+00
    0.34850E+06        -0.19202E+07         0.00000E+00
    0.00000E+00         0.00000E+00        -0.17858E+08
 
   -0.17798E+08         0.35758E+06         0.00000E+00
    0.35758E+06        -0.19197E+07         0.00000E+00
    0.00000E+00         0.00000E+00        -0.17820E+08
 
   -0.17759E+08         0.36678E+06         0.00000E+00
    0.36678E+06        -0.19192E+07         0.00000E+00
    0.00000E+00         0.00000E+00        -0.17781E+08
 
   -0.17718E+08         0.37611E+06         0.00000E+00
    0.37611E+06        -0.19188E+07         0.00000E+00
    0.00000E+00         0.00000E+00        -0.17741E+08
 
   -0.17677E+08         0.38556E+06         0.00000E+00
    0.38556E+06        -0.19184E+07         0.00000E+00
    0.00000E+00         0.00000E+00        -0.17700E+08
 
   -0.17634E+08         0.39511E+06         0.00000E+00
    0.39511E+06        -0.19181E+07         0.00000E+00
    0.00000E+00         0.00000E+00        -0.17658E+08
 
   -0.17591E+08         0.40476E+06         0.00000E+00
    0.40476E+06        -0.19178E+07         0.00000E+00
    0.00000E+00         0.00000E+00        -0.17614E+08
 
   -0.17546E+08         0.41449E+06         0.00000E+00
    0.41449E+06        -0.19176E+07         0.00000E+00
    0.00000E+00         0.00000E+00        -0.17570E+08
 
   -0.17500E+08         0.42431E+06         0.00000E+00
    0.42431E+06        -0.19174E+07         0.00000E+00
    0.00000E+00         0.00000E+00        -0.17524E+08
 
   -0.17453E+08         0.43418E+06         0.00000E+00
    0.43418E+06        -0.19173E+07         0.00000E+00
    0.00000E+00         0.00000E+00        -0.17477E+08
 
   -0.17404E+08         0.44410E+06         0.00000E+00
    0.44410E+06        -0.19173E+07         0.00000E+00
    0.00000E+00         0.00000E+00        -0.17428E+08
 
   -0.17354E+08         0.45406E+06         0.00000E+00
    0.45406E+06        -0.19174E+07         0.00000E+00
    0.00000E+00         0.00000E+00        -0.17379E+08
 
   -0.17303E+08         0.46402E+06         0.00000E+00
    0.46402E+06        -0.19176E+07         0.00000E+00
    0.00000E+00         0.00000E+00        -0.17328E+08
 
   -0.17251E+08         0.47398E+06         0.00000E+00
    0.47398E+06        -0.19178E+07         0.00000E+00
    0.00000E+00         0.00000E+00        -0.17275E+08
 
   -0.17197E+08         0.48391E+06         0.00000E+00
    0.48391E+06        -0.19182E+07         0.00000E+00
    0.00000E+00         0.00000E+00        -0.17221E+08
 
   -0.17142E+08         0.49379E+06         0.00000E+00
    0.49379E+06        -0.19187E+07         0.00000E+00
    0.00000E+00         0.00000E+00        -0.17166E+08
 
   -0.17086E+08         0.50359E+06         0.00000E+00
    0.50359E+06        -0.19194E+07         0.00000E+00
    0.00000E+00         0.00000E+00        -0.17110E+08
 
   -0.17028E+08         0.51328E+06         0.00000E+00
    0.51328E+06        -0.19202E+07         0.00000E+00
    0.00000E+00         0.00000E+00        -0.17052E+08
 
   -0.16969E+08         0.52284E+06         0.00000E+00
    0.52284E+06        -0.19211E+07         0.00000E+00
    0.00000E+00         0.00000E+00        -0.16992E+08
 
   -0.16908E+08         0.53222E+06         0.00000E+00
    0.53222E+06        -0.19223E+07         0.00000E+00
    0.00000E+00         0.00000E+00        -0.16931E+08
 
   -0.16846E+08         0.54139E+06         0.00000E+00
    0.54139E+06        -0.19236E+07         0.00000E+00
    0.00000E+00         0.00000E+00        -0.16869E+08
 
   -0.16783E+08         0.55032E+06         0.00000E+00
    0.55032E+06        -0.19251E+07         0.00000E+00
    0.00000E+00         0.00000E+00        -0.16805E+08
 
   -0.16719E+08         0.55895E+06         0.00000E+00
    0.55895E+06        -0.19268E+07         0.00000E+00
    0.00000E+00         0.00000E+00        -0.16740E+08
 
   -0.16653E+08         0.56725E+06         0.00000E+00
    0.56725E+06        -0.19288E+07         0.00000E+00
    0.00000E+00         0.00000E+00        -0.16673E+08
 
   -0.16585E+08         0.57516E+06         0.00000E+00
    0.57516E+06        -0.19310E+07         0.00000E+00
    0.00000E+00         0.00000E+00        -0.16605E+08
 
   -0.16517E+08         0.58263E+06         0.00000E+00
    0.58263E+06        -0.19335E+07         0.00000E+00
    0.00000E+00         0.00000E+00        -0.16535E+08
 
   -0.16447E+08         0.58959E+06         0.00000E+00
    0.58959E+06        -0.19363E+07         0.00000E+00
    0.00000E+00         0.00000E+00        -0.16464E+08
 
   -0.16375E+08         0.59600E+06         0.00000E+00
    0.59600E+06        -0.19395E+07         0.00000E+00
    0.00000E+00         0.00000E+00        -0.16391E+08
 
   -0.16303E+08         0.60176E+06         0.00000E+00
    0.60176E+06        -0.19430E+07         0.00000E+00
    0.00000E+00         0.00000E+00        -0.16317E+08
 
   -0.16229E+08         0.60683E+06         0.00000E+00
    0.60683E+06        -0.19469E+07         0.00000E+00
    0.00000E+00         0.00000E+00        -0.16242E+08
 
   -0.16154E+08         0.61110E+06         0.00000E+00
    0.61110E+06        -0.19512E+07         0.00000E+00
    0.00000E+00         0.00000E+00        -0.16165E+08
 
   -0.16077E+08         0.61451E+06         0.00000E+00
    0.61451E+06        -0.19560E+07         0.00000E+00
    0.00000E+00         0.00000E+00        -0.16087E+08
 
   -0.16000E+08         0.61697E+06         0.00000E+00
    0.61697E+06        -0.19614E+07         0.00000E+00
    0.00000E+00         0.00000E+00        -0.16007E+08
 
   -0.15921E+08         0.61837E+06         0.00000E+00
    0.61837E+06        -0.19673E+07         0.00000E+00
    0.00000E+00         0.00000E+00        -0.15926E+08
 
   -0.15842E+08         0.61862E+06         0.00000E+00
    0.61862E+06        -0.19739E+07         0.00000E+00
    0.00000E+00         0.00000E+00        -0.15844E+08
 
   -0.15761E+08         0.61762E+06         0.00000E+00
    0.61762E+06        -0.19811E+07         0.00000E+00
    0.00000E+00         0.00000E+00        -0.15760E+08
 
   -0.15680E+08         0.61526E+06         0.00000E+00
    0.61526E+06        -0.19891E+07         0.00000E+00
    0.00000E+00         0.00000E+00        -0.15675E+08
 
   -0.15597E+08         0.61144E+06         0.00000E+00
    0.61144E+06        -0.19980E+07         0.00000E+00
    0.00000E+00         0.00000E+00        -0.15590E+08
 
   -0.15514E+08         0.60605E+06         0.00000E+00
    0.60605E+06        -0.20077E+07         0.00000E+00
    0.00000E+00         0.00000E+00        -0.15503E+08
 
   -0.15430E+08         0.59898E+06         0.00000E+00
    0.59898E+06        -0.20184E+07         0.00000E+00
    0.00000E+00         0.00000E+00        -0.15415E+08
 
   -0.15345E+08         0.59013E+06         0.00000E+00
    0.59013E+06        -0.20300E+07         0.00000E+00
    0.00000E+00         0.00000E+00        -0.15326E+08
 
   -0.15260E+08         0.57941E+06         0.00000E+00
    0.57941E+06        -0.20427E+07         0.00000E+00
    0.00000E+00         0.00000E+00        -0.15236E+08
 
   -0.15173E+08         0.56673E+06         0.00000E+00
    0.56673E+06        -0.20564E+07         0.00000E+00
    0.00000E+00         0.00000E+00        -0.15145E+08
 
   -0.15086E+08         0.55202E+06         0.00000E+00
    0.55202E+06        -0.20711E+07         0.00000E+00
    0.00000E+00         0.00000E+00        -0.15054E+08
 
   -0.14999E+08         0.53523E+06         0.00000E+00
    0.53523E+06        -0.20865E+07         0.00000E+00
    0.00000E+00         0.00000E+00        -0.14961E+08
 
   -0.14910E+08         0.51630E+06         0.00000E+00
    0.51630E+06        -0.21025E+07         0.00000E+00
    0.00000E+00         0.00000E+00        -0.14868E+08
 
   -0.14821E+08         0.49522E+06         0.00000E+00
    0.49522E+06        -0.21188E+07         0.00000E+00
    0.00000E+00         0.00000E+00        -0.14774E+08
 
   -0.14730E+08         0.47193E+06         0.00000E+00
    0.47193E+06        -0.21347E+07         0.00000E+00
    0.00000E+00         0.00000E+00        -0.14678E+08
 
   -0.14638E+08         0.44640E+06         0.00000E+00
    0.44640E+06        -0.21494E+07         0.00000E+00
    0.00000E+00         0.00000E+00        -0.14581E+08
 
   -0.14545E+08         0.41855E+06         0.00000E+00
    0.41855E+06        -0.21618E+07         0.00000E+00
    0.00000E+00         0.00000E+00        -0.14482E+08
 
   -0.14450E+08         0.38819E+06         0.00000E+00
    0.38819E+06        -0.21706E+07         0.00000E+00
    0.00000E+00         0.00000E+00        -0.14381E+08
 
   -0.14355E+08         0.35499E+06         0.00000E+00
    0.35499E+06        -0.21737E+07         0.00000E+00
    0.00000E+00         0.00000E+00        -0.14278E+08
 
   -0.14258E+08         0.31834E+06         0.00000E+00
    0.31834E+06        -0.21689E+07         0.00000E+00
    0.00000E+00         0.00000E+00        -0.14171E+08
 
   -0.14161E+08         0.27722E+06         0.00000E+00
    0.27722E+06        -0.21531E+07         0.00000E+00
    0.00000E+00         0.00000E+00        -0.14061E+08
 
   -0.14067E+08         0.23001E+06         0.00000E+00
    0.23001E+06        -0.21229E+07         0.00000E+00
    0.00000E+00         0.00000E+00        -0.13947E+08
 
   -0.13979E+08         0.17419E+06         0.00000E+00
    0.17419E+06        -0.20740E+07         0.00000E+00
    0.00000E+00         0.00000E+00        -0.13829E+08
 
   -0.13906E+08         0.10827E+06         0.00000E+00
    0.10827E+06        -0.20008E+07         0.00000E+00
    0.00000E+00         0.00000E+00        -0.13708E+08
 
   -0.13863E+08         0.36407E+05         0.00000E+00
    0.36407E+05        -0.19044E+07         0.00000E+00
    0.00000E+00         0.00000E+00        -0.13589E+08
 
   -0.18752E+08         0.62973E+04         0.00000E+00
    0.62973E+04        -0.19519E+07         0.00000E+00
    0.00000E+00         0.00000E+00        -0.18805E+08
 
   -0.18747E+08         0.18899E+05         0.00000E+00
    0.18899E+05        -0.19382E+07         0.00000E+00
    0.00000E+00         0.00000E+00        -0.18789E+08
 
   -0.18737E+08         0.31059E+05         0.00000E+00
    0.31059E+05        -0.19276E+07         0.00000E+00
    0.00000E+00         0.00000E+00        -0.18771E+08
 
   -0.18725E+08         0.42202E+05         0.00000E+00
    0.42202E+05        -0.19203E+07         0.00000E+00
    0.00000E+00         0.00000E+00        -0.18755E+08
 
   -0.18711E+08         0.52365E+05         0.00000E+00
    0.52365E+05        -0.19158E+07         0.00000E+00
    0.00000E+00         0.00000E+00        -0.18738E+08
 
   -0.18697E+08         0.61828E+05         0.00000E+00
    0.61828E+05        -0.19133E+07         0.00000E+00
    0.00000E+00         0.00000E+00        -0.18722E+08
 
   -0.18683E+08         0.70797E+05         0.00000E+00
    0.70797E+05        -0.19123E+07         0.00000E+00
    0.00000E+00         0.00000E+00        -0.18706E+08
 
   -0.18668E+08         0.79407E+05         0.00000E+00
    0.79407E+05        -0.19124E+07         0.00000E+00
    0.00000E+00         0.00000E+00        -0.18690E+08
 
   -0.18653E+08         0.87744E+05         0.00000E+00
    0.87744E+05        -0.19132E+07         0.00000E+00
    0.00000E+00         0.00000E+00        -0.18675E+08
 
   -0.18637E+08         0.95859E+05         0.00000E+00
    0.95859E+05        -0.19145E+07         0.00000E+00
    0.00000E+00         0.00000E+00        -0.18659E+08
 
   -0.18622E+08         0.10378E+06         0.00000E+00
    0.10378E+06        -0.19161E+07         0.00000E+00
    0.00000E+00         0.00000E+00        -0.18643E+08
 
   -0.18606E+08         0.11153E+06         0.00000E+00
    0.11153E+06        -0.19178E+07         0.00000E+00
    0.00000E+00         0.00000E+00        -0.18627E+08
 
   -0.18590E+08         0.11912E+06         0.00000E+00
    0.11912E+06        -0.19195E+07         0.00000E+00
    0.00000E+00         0.00000E+00        -0.18611E+08
 
   -0.18574E+08         0.12657E+06         0.00000E+00
    0.12657E+06        -0.19211E+07         0.00000E+00
    0.00000E+00         0.00000E+00        -0.18594E+08
 
   -0.18557E+08         0.13387E+06         0.00000E+00
    0.13387E+06        -0.19225E+07         0.00000E+00
    0.00000E+00         0.00000E+00        -0.18577E+08
 
   -0.18540E+08         0.14106E+06         0.00000E+00
    0.14106E+06        -0.19239E+07         0.00000E+00
    0.00000E+00         0.00000E+00        -0.18560E+08
 
   -0.18523E+08         0.14813E+06         0.00000E+00
    0.14813E+06        -0.19250E+07         0.00000E+00
    0.00000E+00         0.00000E+00        -0.18542E+08
 
   -0.18504E+08         0.15512E+06         0.00000E+00
    0.15512E+06        -0.19260E+07         0.00000E+00
    0.00000E+00         0.00000E+00        -0.18524E+08
 
   -0.18486E+08         0.16202E+06         0.00000E+00
    0.16202E+06        -0.19269E+07         0.00000E+00
    0.00000E+00         0.00000E+00        -0.18505E+08
 
   -0.18467E+08         0.16887E+06         0.00000E+00
    0.16887E+06        -0.19275E+07         0.00000E+00
    0.00000E+00         0.00000E+00        -0.18486E+08
 
   -0.18447E+08         0.17567E+06         0.00000E+00
    0.17567E+06        -0.19281E+07         0.00000E+00
    0.00000E+00         0.00000E+00        -0.18466E+08
 
   -0.18427E+08         0.18245E+06         0.00000E+00
    0.18245E+06        -0.19284E+07         0.00000E+00
    0.00000E+00         0.00000E+00        -0.18445E+08
 
   -0.18406E+08         0.18921E+06         0.00000E+00
    0.18921E+06        -0.19287E+07         0.00000E+00
    0.00000E+00         0.00000E+00        -0.18425E+08
 
   -0.18384E+08         0.19599E+06         0.00000E+00
    0.19599E+06        -0.19289E+07         0.00000E+00
    0.00000E+00         0.00000E+00        -0.18403E+08
 
   -0.18362E+08         0.20279E+06         0.00000E+00
    0.20279E+06        -0.19289E+07         0.00000E+00
    0.00000E+00         0.00000E+00        -0.18381E+08
 
   -0.18339E+08         0.20962E+06         0.00000E+00
    0.20962E+06        -0.19289E+07         0.00000E+00
    0.00000E+00         0.00000E+00        -0.18358E+08
 
   -0.18316E+08         0.21651E+06         0.00000E+00
    0.21651E+06        -0.19287E+07         0.00000E+00
    0.00000E+00         0.00000E+00        -0.18335E+08
 
   -0.18291E+08         0.22347E+06         0.00000E+00
    0.22347E+06        -0.19286E+07         0.00000E+00
    0.00000E+00         0.00000E+00        -0.18311E+08
 
   -0.18266E+08         0.23050E+06         0.00000E+00
    0.23050E+06        -0.19283E+07         0.00000E+00
    0.00000E+00         0.00000E+00        -0.18287E+08
 
   -0.18241E+08         0.23761E+06         0.00000E+00
    0.23761E+06        -0.19280E+07         0.00000E+00
    0.00000E+00         0.00000E+00        -0.18261E+08
 
   -0.18214E+08         0.24483E+06         0.00000E+00
    0.24483E+06        -0.19277E+07         0.00000E+00
    0.00000E+00         0.00000E+00        -0.18235E+08
 
   -0.18187E+08         0.25215E+06         0.00000E+00
    0.25215E+06        -0.19273E+07         0.00000E+00
    0.00000E+00         0.00000E+00        -0.18208E+08
 
   -0.18159E+08         0.25958E+06         0.00000E+00
    0.25958E+06        -0.19268E+07         0.00000E+00
    0.00000E+00         0.00000E+00        -0.18181E+08
 
   -0.18130E+08         0.26713E+06         0.00000E+00
    0.26713E+06        -0.19264E+07         0.00000E+00
    0.00000E+00         0.00000E+00        -0.18152E+08
 
   -0.18101E+08         0.27480E+06         0.00000E+00
    0.27480E+06        -0.19259E+07         0.00000E+00
    0.00000E+00         0.00000E+00        -0.18123E+08
 
   -0.18070E+08         0.28261E+06         0.00000E+00
    0.28261E+06        -0.19254E+07         0.00000E+00
    0.00000E+00         0.00000E+00        -0.18093E+08
 
   -0.18039E+08         0.29054E+06         0.00000E+00
    0.29054E+06        -0.19249E+07         0.00000E+00
    0.00000E+00         0.00000E+00        -0.18062E+08
 
   -0.18007E+08         0.29861E+06         0.00000E+00
    0.29861E+06        -0.19244E+07         0.00000E+00
    0.00000E+00         0.00000E+00        -0.18030E+08
 
   -0.17974E+08         0.30681E+06         0.00000E+00
    0.30681E+06        -0.19239E+07         0.00000E+00
    0.00000E+00         0.00000E+00        -0.17998E+08
 
   -0.17939E+08         0.31515E+06         0.00000E+00
    0.31515E+06        -0.19234E+07         0.00000E+00
    0.00000E+00         0.00000E+00        -0.17964E+08
 
   -0.17904E+08         0.32363E+06         0.00000E+00
    0.32363E+06        -0.19229E+07         0.00000E+00
    0.00000E+00         0.00000E+00        -0.17929E+08
 
   -0.17868E+08         0.33224E+06         0.00000E+00
    0.33224E+06        -0.19224E+07         0.00000E+00
    0.00000E+00         0.00000E+00        -0.17893E+08
 
   -0.17831E+08         0.34098E+06         0.00000E+00
    0.34098E+06        -0.19219E+07         0.00000E+00
    0.00000E+00         0.00000E+00        -0.17857E+08
 
   -0.17793E+08         0.34985E+06         0.00000E+00
    0.34985E+06        -0.19215E+07         0.00000E+00
    0.00000E+00         0.00000E+00        -0.17819E+08
 
   -0.17754E+08         0.35884E+06         0.00000E+00
    0.35884E+06        -0.19211E+07         0.00000E+00
    0.00000E+00         0.00000E+00        -0.17780E+08
 
   -0.17713E+08         0.36794E+06         0.00000E+00
    0.36794E+06        -0.19207E+07         0.00000E+00
    0.00000E+00         0.00000E+00        -0.17740E+08
 
   -0.17672E+08         0.37716E+06         0.00000E+00
    0.37716E+06        -0.19203E+07         0.00000E+00
    0.00000E+00         0.00000E+00        -0.17699E+08
 
   -0.17629E+08         0.38648E+06         0.00000E+00
    0.38648E+06        -0.19200E+07         0.00000E+00
    0.00000E+00         0.00000E+00        -0.17657E+08
 
   -0.17586E+08         0.39590E+06         0.00000E+00
    0.39590E+06        -0.19197E+07         0.00000E+00
    0.00000E+00         0.00000E+00        -0.17613E+08
 
   -0.17541E+08         0.40540E+06         0.00000E+00
    0.40540E+06        -0.19195E+07         0.00000E+00
    0.00000E+00         0.00000E+00        -0.17569E+08
 
   -0.17495E+08         0.41497E+06         0.00000E+00
    0.41497E+06        -0.19194E+07         0.00000E+00
    0.00000E+00         0.00000E+00        -0.17523E+08
 
   -0.17447E+08         0.42459E+06         0.00000E+00
    0.42459E+06        -0.19193E+07         0.00000E+00
    0.00000E+00         0.00000E+00        -0.17476E+08
 
   -0.17399E+08         0.43427E+06         0.00000E+00
    0.43427E+06        -0.19193E+07         0.00000E+00
    0.00000E+00         0.00000E+00        -0.17427E+08
 
   -0.17349E+08         0.44396E+06         0.00000E+00
    0.44396E+06        -0.19194E+07         0.00000E+00
    0.00000E+00         0.00000E+00        -0.17378E+08
 
   -0.17298E+08         0.45367E+06         0.00000E+00
    0.45367E+06        -0.19195E+07         0.00000E+00
    0.00000E+00         0.00000E+00        -0.17327E+08
 
   -0.17245E+08         0.46337E+06         0.00000E+00
    0.46337E+06        -0.19198E+07         0.00000E+00
    0.00000E+00         0.00000E+00        -0.17274E+08
 
   -0.17192E+08         0.47304E+06         0.00000E+00
    0.47304E+06        -0.19202E+07         0.00000E+00
    0.00000E+00         0.00000E+00        -0.17220E+08
 
   -0.17137E+08         0.48265E+06         0.00000E+00
    0.48265E+06        -0.19207E+07         0.00000E+00
    0.00000E+00         0.00000E+00        -0.17165E+08
 
   -0.17080E+08         0.49218E+06         0.00000E+00
    0.49218E+06        -0.19213E+07         0.00000E+00
    0.00000E+00         0.00000E+00        -0.17109E+08
 
   -0.17023E+08         0.50160E+06         0.00000E+00
    0.50160E+06        -0.19221E+07         0.00000E+00
    0.00000E+00         0.00000E+00        -0.17051E+08
 
   -0.16964E+08         0.51088E+06         0.00000E+00
    0.51088E+06        -0.19230E+07         0.00000E+00
    0.00000E+00         0.00000E+00        -0.16991E+08
 
   -0.16903E+08         0.51999E+06         0.00000E+00
    0.51999E+06        -0.19241E+07         0.00000E+00
    0.00000E+00         0.00000E+00        -0.16930E+08
 
   -0.16841E+08         0.52890E+06         0.00000E+00
    0.52890E+06        -0.19253E+07         0.00000E+00
    0.00000E+00         0.00000E+00        -0.16868E+08
 
   -0.16778E+08         0.53755E+06         0.00000E+00
    0.53755E+06        -0.19268E+07         0.00000E+00
    0.00000E+00         0.00000E+00        -0.16804E+08
 
   -0.16714E+08         0.54591E+06         0.00000E+00
    0.54591E+06        -0.19285E+07         0.00000E+00
    0.00000E+00         0.00000E+00        -0.16739E+08
 
   -0.16648E+08         0.55394E+06         0.00000E+00
    0.55394E+06        -0.19304E+07         0.00000E+00
    0.00000E+00         0.00000E+00        -0.16672E+08
 
   -0.16581E+08         0.56158E+06         0.00000E+00
    0.56158E+06        -0.19325E+07         0.00000E+00
    0.00000E+00         0.00000E+00        -0.16604E+08
 
   -0.16513E+08         0.56878E+06         0.00000E+00
    0.56878E+06        -0.19349E+07         0.00000E+00
    0.00000E+00         0.00000E+00        -0.16534E+08
 
   -0.16443E+08         0.57549E+06         0.00000E+00
    0.57549E+06        -0.19376E+07         0.00000E+00
    0.00000E+00         0.00000E+00        -0.16463E+08
 
   -0.16372E+08         0.58163E+06         0.00000E+00
    0.58163E+06        -0.19407E+07         0.00000E+00
    0.00000E+00         0.00000E+00        -0.16391E+08
 
   -0.16299E+08         0.58715E+06         0.00000E+00
    0.58715E+06        -0.19440E+07         0.00000E+00
    0.00000E+00         0.00000E+00        -0.16317E+08
 
   -0.16226E+08         0.59197E+06         0.00000E+00
    0.59197E+06        -0.19478E+07         0.00000E+00
    0.00000E+00         0.00000E+00        -0.16241E+08
 
   -0.16151E+08         0.59601E+06         0.00000E+00
    0.59601E+06        -0.19520E+07         0.00000E+00
    0.00000E+00         0.00000E+00        -0.16164E+08
 
   -0.16075E+08         0.59919E+06         0.00000E+00
    0.59919E+06        -0.19566E+07         0.00000E+00
    0.00000E+00         0.00000E+00        -0.16086E+08
 
   -0.15998E+08         0.60142E+06         0.00000E+00
    0.60142E+06        -0.19618E+07         0.00000E+00
    0.00000E+00         0.00000E+00        -0.16007E+08
 
   -0.15920E+08         0.60261E+06         0.00000E+00
    0.60261E+06        -0.19675E+07         0.00000E+00
    0.00000E+00         0.00000E+00        -0.15926E+08
 
   -0.15841E+08         0.60266E+06         0.00000E+00
    0.60266E+06        -0.19738E+07         0.00000E+00
    0.00000E+00         0.00000E+00        -0.15843E+08
 
   -0.15761E+08         0.60147E+06         0.00000E+00
    0.60147E+06        -0.19808E+07         0.00000E+00
    0.00000E+00         0.00000E+00        -0.15760E+08
 
   -0.15681E+08         0.59894E+06         0.00000E+00
    0.59894E+06        -0.19885E+07         0.00000E+00
    0.00000E+00         0.00000E+00        -0.15675E+08
 
   -0.15599E+08         0.59495E+06         0.00000E+00
    0.59495E+06        -0.19970E+07         0.00000E+00
    0.00000E+00         0.00000E+00        -0.15590E+08
 
   -0.15516E+08         0.58940E+06         0.00000E+00
    0.58940E+06        -0.20064E+07         0.00000E+00
    0.00000E+00         0.00000E+00        -0.15503E+08
 
   -0.15433E+08         0.58218E+06         0.00000E+00
    0.58218E+06        -0.20168E+07         0.00000E+00
    0.00000E+00         0.00000E+00        -0.15415E+08
 
   -0.15349E+08         0.57319E+06         0.00000E+00
    0.57319E+06        -0.20281E+07         0.00000E+00
    0.00000E+00         0.00000E+00        -0.15327E+08
 
   -0.15265E+08         0.56233E+06         0.00000E+00
    0.56233E+06        -0.20404E+07         0.00000E+00
    0.00000E+00         0.00000E+00        -0.15237E+08
 
   -0.15179E+08         0.54951E+06         0.00000E+00
    0.54951E+06        -0.20537E+07         0.00000E+00
    0.00000E+00         0.00000E+00        -0.15146E+08
 
   -0.15094E+08         0.53466E+06         0.00000E+00
    0.53466E+06        -0.20679E+07         0.00000E+00
    0.00000E+00         0.00000E+00        -0.15055E+08
 
   -0.15007E+08         0.51771E+06         0.00000E+00
    0.51771E+06        -0.20829E+07         0.00000E+00
    0.00000E+00         0.00000E+00        -0.14963E+08
 
   -0.14919E+08         0.49861E+06         0.00000E+00
    0.49861E+06        -0.20985E+07         0.00000E+00
    0.00000E+00         0.00000E+00        -0.14870E+08
 
   -0.14831E+08         0.47732E+06         0.00000E+00
    0.47732E+06        -0.21143E+07         0.00000E+00
    0.00000E+00         0.00000E+00        -0.14776E+08
 
   -0.14742E+08         0.45381E+06         0.00000E+00
    0.45381E+06        -0.21297E+07         0.00000E+00
    0.00000E+00         0.00000E+00        -0.14680E+08
 
   -0.14651E+08         0.42804E+06         0.00000E+00
    0.42804E+06        -0.21440E+07         0.00000E+00
    0.00000E+00         0.00000E+00        -0.14583E+08
 
   -0.14560E+08         0.39992E+06         0.00000E+00
    0.39992E+06        -0.21560E+07         0.00000E+00
    0.00000E+00         0.00000E+00        -0.14485E+08
 
   -0.14467E+08         0.36932E+06         0.00000E+00
    0.36932E+06        -0.21642E+07         0.00000E+00
    0.00000E+00         0.00000E+00        -0.14384E+08
 
   -0.14373E+08         0.33593E+06         0.00000E+00
    0.33593E+06        -0.21668E+07         0.00000E+00
    0.00000E+00         0.00000E+00        -0.14281E+08
 
   -0.14279E+08         0.29925E+06         0.00000E+00
    0.29925E+06        -0.21612E+07         0.00000E+00
    0.00000E+00         0.00000E+00        -0.14175E+08
 
   -0.14185E+08         0.25839E+06         0.00000E+00
    0.25839E+06        -0.21444E+07         0.00000E+00
    0.00000E+00         0.00000E+00        -0.14066E+08
 
   -0.14095E+08         0.21201E+06         0.00000E+00
    0.21201E+06        -0.21129E+07         0.00000E+00
    0.00000E+00         0.00000E+00        -0.13953E+08
 
   -0.14013E+08         0.15824E+06         0.00000E+00
    0.15824E+06        -0.20620E+07         0.00000E+00
    0.00000E+00         0.00000E+00        -0.13836E+08
 
   -0.13947E+08         0.96937E+05         0.00000E+00
    0.96937E+05        -0.19874E+07         0.00000E+00
    0.00000E+00         0.00000E+00        -0.13716E+08
 
   -0.13910E+08         0.32314E+05         0.00000E+00
    0.32314E+05        -0.18908E+07         0.00000E+00
    0.00000E+00         0.00000E+00        -0.13599E+08
 
   -0.18744E+08         0.57791E+04         0.00000E+00
    0.57791E+04        -0.19543E+07         0.00000E+00
    0.00000E+00         0.00000E+00        -0.18804E+08
 
   -0.18739E+08         0.17426E+05         0.00000E+00
    0.17426E+05        -0.19406E+07         0.00000E+00
    0.00000E+00         0.00000E+00        -0.18787E+08
 
   -0.18730E+08         0.28898E+05         0.00000E+00
    0.28898E+05        -0.19299E+07         0.00000E+00
    0.00000E+00         0.00000E+00        -0.18770E+08
 
   -0.18719E+08         0.39662E+05         0.00000E+00
    0.39662E+05        -0.19224E+07         0.00000E+00
    0.00000E+00         0.00000E+00        -0.18753E+08
 
   -0.18706E+08         0.49628E+05         0.00000E+00
    0.49628E+05        -0.19177E+07         0.00000E+00
    0.00000E+00         0.00000E+00        -0.18737E+08
 
   -0.18692E+08         0.58978E+05         0.00000E+00
    0.58978E+05        -0.19151E+07         0.00000E+00
    0.00000E+00         0.00000E+00        -0.18721E+08
 
   -0.18678E+08         0.67879E+05         0.00000E+00
    0.67879E+05        -0.19140E+07         0.00000E+00
    0.00000E+00         0.00000E+00        -0.18705E+08
 
   -0.18663E+08         0.76442E+05         0.00000E+00
    0.76442E+05        -0.19141E+07         0.00000E+00
    0.00000E+00         0.00000E+00        -0.18690E+08
 
   -0.18649E+08         0.84738E+05         0.00000E+00
    0.84738E+05        -0.19149E+07         0.00000E+00
    0.00000E+00         0.00000E+00        -0.18674E+08
 
   -0.18633E+08         0.92809E+05         0.00000E+00
    0.92809E+05        -0.19161E+07         0.00000E+00
    0.00000E+00         0.00000E+00        -0.18658E+08
 
   -0.18618E+08         0.10068E+06         0.00000E+00
    0.10068E+06        -0.19177E+07         0.00000E+00
    0.00000E+00         0.00000E+00        -0.18642E+08
 
   -0.18603E+08         0.10837E+06         0.00000E+00
    0.10837E+06        -0.19193E+07         0.00000E+00
    0.00000E+00         0.00000E+00        -0.18626E+08
 
   -0.18587E+08         0.11590E+06         0.00000E+00
    0.11590E+06        -0.19210E+07         0.00000E+00
    0.00000E+00         0.00000E+00        -0.18610E+08
 
   -0.18570E+08         0.12327E+06         0.00000E+00
    0.12327E+06        -0.19225E+07         0.00000E+00
    0.00000E+00         0.00000E+00        -0.18593E+08
 
   -0.18554E+08         0.13049E+06         0.00000E+00
    0.13049E+06        -0.19240E+07         0.00000E+00
    0.00000E+00         0.00000E+00        -0.18576E+08
 
   -0.18537E+08         0.13759E+06         0.00000E+00
    0.13759E+06        -0.19253E+07         0.00000E+00
    0.00000E+00         0.00000E+00        -0.18559E+08
 
   -0.18519E+08         0.14457E+06         0.00000E+00
    0.14457E+06        -0.19264E+07         0.00000E+00
    0.00000E+00         0.00000E+00        -0.18541E+08
 
   -0.18501E+08         0.15145E+06         0.00000E+00
    0.15145E+06        -0.19274E+07         0.00000E+00
    0.00000E+00         0.00000E+00        -0.18523E+08
 
   -0.18482E+08         0.15824E+06         0.00000E+00
    0.15824E+06        -0.19282E+07         0.00000E+00
    0.00000E+00         0.00000E+00        -0.18504E+08
 
   -0.18463E+08         0.16498E+06         0.00000E+00
    0.16498E+06        -0.19289E+07         0.00000E+00
    0.00000E+00         0.00000E+00        -0.18485E+08
 
   -0.18443E+08         0.17166E+06         0.00000E+00
    0.17166E+06        -0.19294E+07         0.00000E+00
    0.00000E+00         0.00000E+00        -0.18465E+08
 
   -0.18423E+08         0.17832E+06         0.00000E+00
    0.17832E+06        -0.19298E+07         0.00000E+00
    0.00000E+00         0.00000E+00        -0.18445E+08
 
   -0.18402E+08         0.18496E+06         0.00000E+00
    0.18496E+06        -0.19300E+07         0.00000E+00
    0.00000E+00         0.00000E+00        -0.18424E+08
 
   -0.18381E+08         0.19161E+06         0.00000E+00
    0.19161E+06        -0.19302E+07         0.00000E+00
    0.00000E+00         0.00000E+00        -0.18403E+08
 
   -0.18358E+08         0.19828E+06         0.00000E+00
    0.19828E+06        -0.19303E+07         0.00000E+00
    0.00000E+00         0.00000E+00        -0.18380E+08
 
   -0.18336E+08         0.20498E+06         0.00000E+00
    0.20498E+06        -0.19302E+07         0.00000E+00
    0.00000E+00         0.00000E+00        -0.18358E+08
 
   -0.18312E+08         0.21174E+06         0.00000E+00
    0.21174E+06        -0.19301E+07         0.00000E+00
    0.00000E+00         0.00000E+00        -0.18335E+08
 
   -0.18288E+08         0.21855E+06         0.00000E+00
    0.21855E+06        -0.19299E+07         0.00000E+00
    0.00000E+00         0.00000E+00        -0.18311E+08
 
   -0.18263E+08         0.22543E+06         0.00000E+00
    0.22543E+06        -0.19297E+07         0.00000E+00
    0.00000E+00         0.00000E+00        -0.18286E+08
 
   -0.18237E+08         0.23240E+06         0.00000E+00
    0.23240E+06        -0.19294E+07         0.00000E+00
    0.00000E+00         0.00000E+00        -0.18261E+08
 
   -0.18211E+08         0.23947E+06         0.00000E+00
    0.23947E+06        -0.19291E+07         0.00000E+00
    0.00000E+00         0.00000E+00        -0.18234E+08
 
   -0.18183E+08         0.24663E+06         0.00000E+00
    0.24663E+06        -0.19287E+07         0.00000E+00
    0.00000E+00         0.00000E+00        -0.18208E+08
 
   -0.18155E+08         0.25390E+06         0.00000E+00
    0.25390E+06        -0.19283E+07         0.00000E+00
    0.00000E+00         0.00000E+00        -0.18180E+08
 
   -0.18127E+08         0.26128E+06         0.00000E+00
    0.26128E+06        -0.19279E+07         0.00000E+00
    0.00000E+00         0.00000E+00        -0.18152E+08
 
   -0.18097E+08         0.26879E+06         0.00000E+00
    0.26879E+06        -0.19275E+07         0.00000E+00
    0.00000E+00         0.00000E+00        -0.18122E+08
 
   -0.18066E+08         0.27642E+06         0.00000E+00
    0.27642E+06        -0.19270E+07         0.00000E+00
    0.00000E+00         0.00000E+00        -0.18092E+08
 
   -0.18035E+08         0.28417E+06         0.00000E+00
    0.28417E+06        -0.19265E+07         0.00000E+00
    0.00000E+00         0.00000E+00        -0.18061E+08
 
   -0.18003E+08         0.29206E+06         0.00000E+00
    0.29206E+06        -0.19260E+07         0.00000E+00
    0.00000E+00         0.00000E+00        -0.18029E+08
 
   -0.17969E+08         0.30008E+06         0.00000E+00
    0.30008E+06        -0.19255E+07         0.00000E+00
    0.00000E+00         0.00000E+00        -0.17997E+08
 
   -0.17935E+08         0.30822E+06         0.00000E+00
    0.30822E+06        -0.19251E+07         0.00000E+00
    0.00000E+00         0.00000E+00        -0.17963E+08
 
   -0.17900E+08         0.31650E+06         0.00000E+00
    0.31650E+06        -0.19246E+07         0.00000E+00
    0.00000E+00         0.00000E+00        -0.17928E+08
 
   -0.17864E+08         0.32491E+06         0.00000E+00
    0.32491E+06        -0.19241E+07         0.00000E+00
    0.00000E+00         0.00000E+00        -0.17893E+08
 
   -0.17827E+08         0.33344E+06         0.00000E+00
    0.33344E+06        -0.19237E+07         0.00000E+00
    0.00000E+00         0.00000E+00        -0.17856E+08
 
   -0.17788E+08         0.34210E+06         0.00000E+00
    0.34210E+06        -0.19233E+07         0.00000E+00
    0.00000E+00         0.00000E+00        -0.17818E+08
 
   -0.17749E+08         0.35087E+06         0.00000E+00
    0.35087E+06        -0.19228E+07         0.00000E+00
    0.00000E+00         0.00000E+00        -0.17779E+08
 
   -0.17709E+08         0.35976E+06         0.00000E+00
    0.35976E+06        -0.19225E+07         0.00000E+00
    0.00000E+00         0.00000E+00        -0.17739E+08
 
   -0.17667E+08         0.36876E+06         0.00000E+00
    0.36876E+06        -0.19221E+07         0.00000E+00
    0.00000E+00         0.00000E+00        -0.17698E+08
 
   -0.17624E+08         0.37785E+06         0.00000E+00
    0.37785E+06        -0.19218E+07         0.00000E+00
    0.00000E+00         0.00000E+00        -0.17656E+08
 
   -0.17581E+08         0.38703E+06         0.00000E+00
    0.38703E+06        -0.19216E+07         0.00000E+00
    0.00000E+00         0.00000E+00        -0.17612E+08
 
   -0.17536E+08         0.39629E+06         0.00000E+00
    0.39629E+06        -0.19214E+07         0.00000E+00
    0.00000E+00         0.00000E+00        -0.17568E+08
 
   -0.17490E+08         0.40562E+06         0.00000E+00
    0.40562E+06        -0.19213E+07         0.00000E+00
    0.00000E+00         0.00000E+00        -0.17522E+08
 
   -0.17442E+08         0.41500E+06         0.00000E+00
    0.41500E+06        -0.19212E+07         0.00000E+00
    0.00000E+00         0.00000E+00        -0.17475E+08
 
   -0.17394E+08         0.42442E+06         0.00000E+00
    0.42442E+06        -0.19212E+07         0.00000E+00
    0.00000E+00         0.00000E+00        -0.17426E+08
 
   -0.17344E+08         0.43387E+06         0.00000E+00
    0.43387E+06        -0.19213E+07         0.00000E+00
    0.00000E+00         0.00000E+00        -0.17377E+08
 
   -0.17293E+08         0.44332E+06         0.00000E+00
    0.44332E+06        -0.19215E+07         0.00000E+00
    0.00000E+00         0.00000E+00        -0.17326E+08
 
   -0.17240E+08         0.45276E+06         0.00000E+00
    0.45276E+06        -0.19217E+07         0.00000E+00
    0.00000E+00         0.00000E+00        -0.17273E+08
 
   -0.17186E+08         0.46217E+06         0.00000E+00
    0.46217E+06        -0.19221E+07         0.00000E+00
    0.00000E+00         0.00000E+00        -0.17219E+08
 
   -0.17131E+08         0.47151E+06         0.00000E+00
    0.47151E+06        -0.19226E+07         0.00000E+00
    0.00000E+00         0.00000E+00        -0.17164E+08
 
   -0.17075E+08         0.48078E+06         0.00000E+00
    0.48078E+06        -0.19232E+07         0.00000E+00
    0.00000E+00         0.00000E+00        -0.17108E+08
 
   -0.17018E+08         0.48993E+06         0.00000E+00
    0.48993E+06        -0.19239E+07         0.00000E+00
    0.00000E+00         0.00000E+00        -0.17050E+08
 
   -0.16959E+08         0.49895E+06         0.00000E+00
    0.49895E+06        -0.19248E+07         0.00000E+00
    0.00000E+00         0.00000E+00        -0.16990E+08
 
   -0.16898E+08         0.50779E+06         0.00000E+00
    0.50779E+06        -0.19259E+07         0.00000E+00
    0.00000E+00         0.00000E+00        -0.16929E+08
 
   -0.16837E+08         0.51642E+06         0.00000E+00
    0.51642E+06        -0.19271E+07         0.00000E+00
    0.00000E+00         0.00000E+00        -0.16867E+08
 
   -0.16774E+08         0.52481E+06         0.00000E+00
    0.52481E+06        -0.19285E+07         0.00000E+00
    0.00000E+00         0.00000E+00        -0.16803E+08
 
   -0.16709E+08         0.53290E+06         0.00000E+00
    0.53290E+06        -0.19301E+07         0.00000E+00
    0.00000E+00         0.00000E+00        -0.16738E+08
 
   -0.16644E+08         0.54066E+06         0.00000E+00
    0.54066E+06        -0.19319E+07         0.00000E+00
    0.00000E+00         0.00000E+00        -0.16671E+08
 
   -0.16577E+08         0.54804E+06         0.00000E+00
    0.54804E+06        -0.19340E+07         0.00000E+00
    0.00000E+00         0.00000E+00        -0.16603E+08
 
   -0.16508E+08         0.55498E+06         0.00000E+00
    0.55498E+06        -0.19363E+07         0.00000E+00
    0.00000E+00         0.00000E+00        -0.16534E+08
 
   -0.16439E+08         0.56143E+06         0.00000E+00
    0.56143E+06        -0.19389E+07         0.00000E+00
    0.00000E+00         0.00000E+00        -0.16463E+08
 
   -0.16368E+08         0.56733E+06         0.00000E+00
    0.56733E+06        -0.19418E+07         0.00000E+00
    0.00000E+00         0.00000E+00        -0.16390E+08
 
   -0.16296E+08         0.57260E+06         0.00000E+00
    0.57260E+06        -0.19450E+07         0.00000E+00
    0.00000E+00         0.00000E+00        -0.16316E+08
 
   -0.16223E+08         0.57718E+06         0.00000E+00
    0.57718E+06        -0.19487E+07         0.00000E+00
    0.00000E+00         0.00000E+00        -0.16241E+08
 
   -0.16149E+08         0.58099E+06         0.00000E+00
    0.58099E+06        -0.19527E+07         0.00000E+00
    0.00000E+00         0.00000E+00        -0.16164E+08
 
   -0.16073E+08         0.58395E+06         0.00000E+00
    0.58395E+06        -0.19571E+07         0.00000E+00
    0.00000E+00         0.00000E+00        -0.16086E+08
 
   -0.15997E+08         0.58597E+06         0.00000E+00
    0.58597E+06        -0.19621E+07         0.00000E+00
    0.00000E+00         0.00000E+00        -0.16006E+08
 
   -0.15919E+08         0.58696E+06         0.00000E+00
    0.58696E+06        -0.19676E+07         0.00000E+00
    0.00000E+00         0.00000E+00        -0.15925E+08
 
   -0.15841E+08         0.58682E+06         0.00000E+00
    0.58682E+06        -0.19736E+07         0.00000E+00
    0.00000E+00         0.00000E+00        -0.15843E+08
 
   -0.15762E+08         0.58545E+06         0.00000E+00
    0.58545E+06        -0.19804E+07         0.00000E+00
    0.00000E+00         0.00000E+00        -0.15760E+08
 
   -0.15681E+08         0.58275E+06         0.00000E+00
    0.58275E+06        -0.19878E+07         0.00000E+00
    0.00000E+00         0.00000E+00        -0.15676E+08
 
   -0.15600E+08         0.57861E+06         0.00000E+00
    0.57861E+06        -0.19961E+07         0.00000E+00
    0.00000E+00         0.00000E+00        -0.15590E+08
 
   -0.15519E+08         0.57291E+06         0.00000E+00
    0.57291E+06        -0.20051E+07         0.00000E+00
    0.00000E+00         0.00000E+00        -0.15503E+08
 
   -0.15436E+08         0.56556E+06         0.00000E+00
    0.56556E+06        -0.20151E+07         0.00000E+00
    0.00000E+00         0.00000E+00        -0.15416E+08
 
   -0.15353E+08         0.55643E+06         0.00000E+00
    0.55643E+06        -0.20261E+07         0.00000E+00
    0.00000E+00         0.00000E+00        -0.15327E+08
 
   -0.15270E+08         0.54544E+06         0.00000E+00
    0.54544E+06        -0.20380E+07         0.00000E+00
    0.00000E+00         0.00000E+00        -0.15238E+08
 
   -0.15185E+08         0.53250E+06         0.00000E+00
    0.53250E+06        -0.20509E+07         0.00000E+00
    0.00000E+00         0.00000E+00        -0.15147E+08
 
   -0.15101E+08         0.51751E+06         0.00000E+00
    0.51751E+06        -0.20647E+07         0.00000E+00
    0.00000E+00         0.00000E+00        -0.15056E+08
 
   -0.15015E+08         0.50041E+06         0.00000E+00
    0.50041E+06        -0.20793E+07         0.00000E+00
    0.00000E+00         0.00000E+00        -0.14964E+08
 
   -0.14929E+08         0.48114E+06         0.00000E+00
    0.48114E+06        -0.20945E+07         0.00000E+00
    0.00000E+00         0.00000E+00        -0.14871E+08
 
   -0.14842E+08         0.45967E+06         0.00000E+00
    0.45967E+06        -0.21098E+07         0.00000E+00
    0.00000E+00         0.00000E+00        -0.14777E+08
 
   -0.14754E+08         0.43595E+06         0.00000E+00
    0.43595E+06        -0.21248E+07         0.00000E+00
    0.00000E+00         0.00000E+00        -0.14682E+08
 
   -0.14664E+08         0.40996E+06         0.00000E+00
    0.40996E+06        -0.21386E+07         0.00000E+00
    0.00000E+00         0.00000E+00        -0.14586E+08
 
   -0.14574E+08         0.38162E+06         0.00000E+00
    0.38162E+06        -0.21501E+07         0.00000E+00
    0.00000E+00         0.00000E+00        -0.14488E+08
 
   -0.14483E+08         0.35081E+06         0.00000E+00
    0.35081E+06        -0.21578E+07         0.00000E+00
    0.00000E+00         0.00000E+00        -0.14387E+08
 
   -0.14391E+08         0.31732E+06         0.00000E+00
    0.31732E+06        -0.21598E+07         0.00000E+00
    0.00000E+00         0.00000E+00        -0.14285E+08
 
   -0.14300E+08         0.28071E+06         0.00000E+00
    0.28071E+06        -0.21535E+07         0.00000E+00
    0.00000E+00         0.00000E+00        -0.14179E+08
 
   -0.14210E+08         0.24029E+06         0.00000E+00
    0.24029E+06        -0.21358E+07         0.00000E+00
    0.00000E+00         0.00000E+00        -0.14071E+08
 
   -0.14124E+08         0.19497E+06         0.00000E+00
    0.19497E+06        -0.21031E+07         0.00000E+00
    0.00000E+00         0.00000E+00        -0.13958E+08
 
   -0.14047E+08         0.14358E+06         0.00000E+00
    0.14358E+06        -0.20508E+07         0.00000E+00
    0.00000E+00         0.00000E+00        -0.13842E+08
 
   -0.13987E+08         0.86890E+05         0.00000E+00
    0.86890E+05        -0.19752E+07         0.00000E+00
    0.00000E+00         0.00000E+00        -0.13724E+08
 
   -0.13954E+08         0.28771E+05         0.00000E+00
    0.28771E+05        -0.18786E+07         0.00000E+00
    0.00000E+00         0.00000E+00        -0.13608E+08
 
   -0.18736E+08         0.53187E+04         0.00000E+00
    0.53187E+04        -0.19565E+07         0.00000E+00
    0.00000E+00         0.00000E+00        -0.18802E+08
 
   -0.18732E+08         0.16096E+05         0.00000E+00
    0.16096E+05        -0.19428E+07         0.00000E+00
    0.00000E+00         0.00000E+00        -0.18786E+08
 
   -0.18724E+08         0.26892E+05         0.00000E+00
    0.26892E+05        -0.19321E+07         0.00000E+00
    0.00000E+00         0.00000E+00        -0.18769E+08
 
   -0.18713E+08         0.37245E+05         0.00000E+00
    0.37245E+05        -0.19245E+07         0.00000E+00
    0.00000E+00         0.00000E+00        -0.18752E+08
 
   -0.18701E+08         0.46981E+05         0.00000E+00
    0.46981E+05        -0.19196E+07         0.00000E+00
    0.00000E+00         0.00000E+00        -0.18736E+08
 
   -0.18687E+08         0.56196E+05         0.00000E+00
    0.56196E+05        -0.19169E+07         0.00000E+00
    0.00000E+00         0.00000E+00        -0.18720E+08
 
   -0.18673E+08         0.65013E+05         0.00000E+00
    0.65013E+05        -0.19158E+07         0.00000E+00
    0.00000E+00         0.00000E+00        -0.18704E+08
 
   -0.18659E+08         0.73517E+05         0.00000E+00
    0.73517E+05        -0.19158E+07         0.00000E+00
    0.00000E+00         0.00000E+00        -0.18689E+08
 
   -0.18644E+08         0.81763E+05         0.00000E+00
    0.81763E+05        -0.19165E+07         0.00000E+00
    0.00000E+00         0.00000E+00        -0.18673E+08
 
   -0.18629E+08         0.89786E+05         0.00000E+00
    0.89786E+05        -0.19177E+07         0.00000E+00
    0.00000E+00         0.00000E+00        -0.18657E+08
 
   -0.18614E+08         0.97605E+05         0.00000E+00
    0.97605E+05        -0.19192E+07         0.00000E+00
    0.00000E+00         0.00000E+00        -0.18642E+08
 
   -0.18599E+08         0.10524E+06         0.00000E+00
    0.10524E+06        -0.19208E+07         0.00000E+00
    0.00000E+00         0.00000E+00        -0.18626E+08
 
   -0.18583E+08         0.11269E+06         0.00000E+00
    0.11269E+06        -0.19224E+07         0.00000E+00
    0.00000E+00         0.00000E+00        -0.18609E+08
 
   -0.18567E+08         0.11998E+06         0.00000E+00
    0.11998E+06        -0.19240E+07         0.00000E+00
    0.00000E+00         0.00000E+00        -0.18593E+08
 
   -0.18550E+08         0.12712E+06         0.00000E+00
    0.12712E+06        -0.19254E+07         0.00000E+00
    0.00000E+00         0.00000E+00        -0.18576E+08
 
   -0.18533E+08         0.13412E+06         0.00000E+00
    0.13412E+06        -0.19267E+07         0.00000E+00
    0.00000E+00         0.00000E+00        -0.18558E+08
 
   -0.18516E+08         0.14100E+06         0.00000E+00
    0.14100E+06        -0.19278E+07         0.00000E+00
    0.00000E+00         0.00000E+00        -0.18541E+08
 
   -0.18498E+08         0.14778E+06         0.00000E+00
    0.14778E+06        -0.19288E+07         0.00000E+00
    0.00000E+00         0.00000E+00        -0.18522E+08
 
   -0.18479E+08         0.15447E+06         0.00000E+00
    0.15447E+06        -0.19296E+07         0.00000E+00
    0.00000E+00         0.00000E+00        -0.18504E+08
 
   -0.18460E+08         0.16109E+06         0.00000E+00
    0.16109E+06        -0.19302E+07         0.00000E+00
    0.00000E+00         0.00000E+00        -0.18484E+08
 
   -0.18440E+08         0.16766E+06         0.00000E+00
    0.16766E+06        -0.19307E+07         0.00000E+00
    0.00000E+00         0.00000E+00        -0.18465E+08
 
   -0.18420E+08         0.17419E+06         0.00000E+00
    0.17419E+06        -0.19311E+07         0.00000E+00
    0.00000E+00         0.00000E+00        -0.18444E+08
 
   -0.18399E+08         0.18071E+06         0.00000E+00
    0.18071E+06        -0.19314E+07         0.00000E+00
    0.00000E+00         0.00000E+00        -0.18423E+08
 
   -0.18377E+08         0.18723E+06         0.00000E+00
    0.18723E+06        -0.19315E+07         0.00000E+00
    0.00000E+00         0.00000E+00        -0.18402E+08
 
   -0.18355E+08         0.19377E+06         0.00000E+00
    0.19377E+06        -0.19316E+07         0.00000E+00
    0.00000E+00         0.00000E+00        -0.18380E+08
 
   -0.18332E+08         0.20034E+06         0.00000E+00
    0.20034E+06        -0.19316E+07         0.00000E+00
    0.00000E+00         0.00000E+00        -0.18357E+08
 
   -0.18308E+08         0.20695E+06         0.00000E+00
    0.20695E+06        -0.19315E+07         0.00000E+00
    0.00000E+00         0.00000E+00        -0.18334E+08
 
   -0.18284E+08         0.21362E+06         0.00000E+00
    0.21362E+06        -0.19313E+07         0.00000E+00
    0.00000E+00         0.00000E+00        -0.18310E+08
 
   -0.18259E+08         0.22036E+06         0.00000E+00
    0.22036E+06        -0.19311E+07         0.00000E+00
    0.00000E+00         0.00000E+00        -0.18285E+08
 
   -0.18233E+08         0.22718E+06         0.00000E+00
    0.22718E+06        -0.19308E+07         0.00000E+00
    0.00000E+00         0.00000E+00        -0.18260E+08
 
   -0.18207E+08         0.23409E+06         0.00000E+00
    0.23409E+06        -0.19305E+07         0.00000E+00
    0.00000E+00         0.00000E+00        -0.18234E+08
 
   -0.18180E+08         0.24110E+06         0.00000E+00
    0.24110E+06        -0.19302E+07         0.00000E+00
    0.00000E+00         0.00000E+00        -0.18207E+08
 
   -0.18151E+08         0.24821E+06         0.00000E+00
    0.24821E+06        -0.19298E+07         0.00000E+00
    0.00000E+00         0.00000E+00        -0.18179E+08
 
   -0.18123E+08         0.25543E+06         0.00000E+00
    0.25543E+06        -0.19294E+07         0.00000E+00
    0.00000E+00         0.00000E+00        -0.18151E+08
 
   -0.18093E+08         0.26276E+06         0.00000E+00
    0.26276E+06        -0.19289E+07         0.00000E+00
    0.00000E+00         0.00000E+00        -0.18122E+08
 
   -0.18062E+08         0.27022E+06         0.00000E+00
    0.27022E+06        -0.19285E+07         0.00000E+00
    0.00000E+00         0.00000E+00        -0.18092E+08
 
   -0.18031E+08         0.27779E+06         0.00000E+00
    0.27779E+06        -0.19281E+07         0.00000E+00
    0.00000E+00         0.00000E+00        -0.18061E+08
 
   -0.17998E+08         0.28550E+06         0.00000E+00
    0.28550E+06        -0.19276E+07         0.00000E+00
    0.00000E+00         0.00000E+00        -0.18029E+08
 
   -0.17965E+08         0.29332E+06         0.00000E+00
    0.29332E+06        -0.19271E+07         0.00000E+00
    0.00000E+00         0.00000E+00        -0.17996E+08
 
   -0.17931E+08         0.30128E+06         0.00000E+00
    0.30128E+06        -0.19267E+07         0.00000E+00
    0.00000E+00         0.00000E+00        -0.17962E+08
 
   -0.17895E+08         0.30936E+06         0.00000E+00
    0.30936E+06        -0.19262E+07         0.00000E+00
    0.00000E+00         0.00000E+00        -0.17927E+08
 
   -0.17859E+08         0.31757E+06         0.00000E+00
    0.31757E+06        -0.19258E+07         0.00000E+00
    0.00000E+00         0.00000E+00        -0.17892E+08
 
   -0.17822E+08         0.32589E+06         0.00000E+00
    0.32589E+06        -0.19254E+07         0.00000E+00
    0.00000E+00         0.00000E+00        -0.17855E+08
 
   -0.17784E+08         0.33434E+06         0.00000E+00
    0.33434E+06        -0.19250E+07         0.00000E+00
    0.00000E+00         0.00000E+00        -0.17817E+08
 
   -0.17744E+08         0.34290E+06         0.00000E+00
    0.34290E+06        -0.19246E+07         0.00000E+00
    0.00000E+00         0.00000E+00        -0.17778E+08
 
   -0.17704E+08         0.35157E+06         0.00000E+00
    0.35157E+06        -0.19242E+07         0.00000E+00
    0.00000E+00         0.00000E+00        -0.17738E+08
 
   -0.17662E+08         0.36034E+06         0.00000E+00
    0.36034E+06        -0.19239E+07         0.00000E+00
    0.00000E+00         0.00000E+00        -0.17697E+08
 
   -0.17619E+08         0.36920E+06         0.00000E+00
    0.36920E+06        -0.19237E+07         0.00000E+00
    0.00000E+00         0.00000E+00        -0.17655E+08
 
   -0.17576E+08         0.37815E+06         0.00000E+00
    0.37815E+06        -0.19234E+07         0.00000E+00
    0.00000E+00         0.00000E+00        -0.17611E+08
 
   -0.17531E+08         0.38717E+06         0.00000E+00
    0.38717E+06        -0.19232E+07         0.00000E+00
    0.00000E+00         0.00000E+00        -0.17567E+08
 
   -0.17484E+08         0.39626E+06         0.00000E+00
    0.39626E+06        -0.19231E+07         0.00000E+00
    0.00000E+00         0.00000E+00        -0.17521E+08
 
   -0.17437E+08         0.40540E+06         0.00000E+00
    0.40540E+06        -0.19231E+07         0.00000E+00
    0.00000E+00         0.00000E+00        -0.17474E+08
 
   -0.17388E+08         0.41457E+06         0.00000E+00
    0.41457E+06        -0.19231E+07         0.00000E+00
    0.00000E+00         0.00000E+00        -0.17425E+08
 
   -0.17339E+08         0.42377E+06         0.00000E+00
    0.42377E+06        -0.19231E+07         0.00000E+00
    0.00000E+00         0.00000E+00        -0.17376E+08
 
   -0.17287E+08         0.43297E+06         0.00000E+00
    0.43297E+06        -0.19233E+07         0.00000E+00
    0.00000E+00         0.00000E+00        -0.17325E+08
 
   -0.17235E+08         0.44215E+06         0.00000E+00
    0.44215E+06        -0.19236E+07         0.00000E+00
    0.00000E+00         0.00000E+00        -0.17272E+08
 
   -0.17181E+08         0.45130E+06         0.00000E+00
    0.45130E+06        -0.19239E+07         0.00000E+00
    0.00000E+00         0.00000E+00        -0.17218E+08
 
   -0.17126E+08         0.46039E+06         0.00000E+00
    0.46039E+06        -0.19244E+07         0.00000E+00
    0.00000E+00         0.00000E+00        -0.17163E+08
 
   -0.17070E+08         0.46939E+06         0.00000E+00
    0.46939E+06        -0.19250E+07         0.00000E+00
    0.00000E+00         0.00000E+00        -0.17107E+08
 
   -0.17012E+08         0.47828E+06         0.00000E+00
    0.47828E+06        -0.19257E+07         0.00000E+00
    0.00000E+00         0.00000E+00        -0.17049E+08
 
   -0.16954E+08         0.48703E+06         0.00000E+00
    0.48703E+06        -0.19266E+07         0.00000E+00
    0.00000E+00         0.00000E+00        -0.16989E+08
 
   -0.16893E+08         0.49560E+06         0.00000E+00
    0.49560E+06        -0.19276E+07         0.00000E+00
    0.00000E+00         0.00000E+00        -0.16928E+08
 
   -0.16832E+08         0.50397E+06         0.00000E+00
    0.50397E+06        -0.19288E+07         0.00000E+00
    0.00000E+00         0.00000E+00        -0.16866E+08
 
   -0.16769E+08         0.51209E+06         0.00000E+00
    0.51209E+06        -0.19301E+07         0.00000E+00
    0.00000E+00         0.00000E+00        -0.16802E+08
 
   -0.16705E+08         0.51992E+06         0.00000E+00
    0.51992E+06        -0.19316E+07         0.00000E+00
    0.00000E+00         0.00000E+00        -0.16737E+08
 
   -0.16639E+08         0.52742E+06         0.00000E+00
    0.52742E+06        -0.19334E+07         0.00000E+00
    0.00000E+00         0.00000E+00        -0.16671E+08
 
   -0.16572E+08         0.53454E+06         0.00000E+00
    0.53454E+06        -0.19354E+07         0.00000E+00
    0.00000E+00         0.00000E+00        -0.16602E+08
 
   -0.16504E+08         0.54123E+06         0.00000E+00
    0.54123E+06        -0.19376E+07         0.00000E+00
    0.00000E+00         0.00000E+00        -0.16533E+08
 
   -0.16435E+08         0.54743E+06         0.00000E+00
    0.54743E+06        -0.19401E+07         0.00000E+00
    0.00000E+00         0.00000E+00        -0.16462E+08
 
   -0.16365E+08         0.55308E+06         0.00000E+00
    0.55308E+06        -0.19429E+07         0.00000E+00
    0.00000E+00         0.00000E+00        -0.16389E+08
 
   -0.16293E+08         0.55811E+06         0.00000E+00
    0.55811E+06        -0.19460E+07         0.00000E+00
    0.00000E+00         0.00000E+00        -0.16315E+08
 
   -0.16220E+08         0.56246E+06         0.00000E+00
    0.56246E+06        -0.19495E+07         0.00000E+00
    0.00000E+00         0.00000E+00        -0.16240E+08
 
   -0.16146E+08         0.56605E+06         0.00000E+00
    0.56605E+06        -0.19533E+07         0.00000E+00
    0.00000E+00         0.00000E+00        -0.16163E+08
 
   -0.16071E+08         0.56880E+06         0.00000E+00
    0.56880E+06        -0.19576E+07         0.00000E+00
    0.00000E+00         0.00000E+00        -0.16085E+08
 
   -0.15995E+08         0.57062E+06         0.00000E+00
    0.57062E+06        -0.19624E+07         0.00000E+00
    0.00000E+00         0.00000E+00        -0.16006E+08
 
   -0.15918E+08         0.57142E+06         0.00000E+00
    0.57142E+06        -0.19676E+07         0.00000E+00
    0.00000E+00         0.00000E+00        -0.15925E+08
 
   -0.15840E+08         0.57110E+06         0.00000E+00
    0.57110E+06        -0.19735E+07         0.00000E+00
    0.00000E+00         0.00000E+00        -0.15843E+08
 
   -0.15762E+08         0.56957E+06         0.00000E+00
    0.56957E+06        -0.19800E+07         0.00000E+00
    0.00000E+00         0.00000E+00        -0.15760E+08
 
   -0.15682E+08         0.56671E+06         0.00000E+00
    0.56671E+06        -0.19871E+07         0.00000E+00
    0.00000E+00         0.00000E+00        -0.15676E+08
 
   -0.15602E+08         0.56242E+06         0.00000E+00
    0.56242E+06        -0.19951E+07         0.00000E+00
    0.00000E+00         0.00000E+00        -0.15590E+08
 
   -0.15521E+08         0.55659E+06         0.00000E+00
    0.55659E+06        -0.20038E+07         0.00000E+00
    0.00000E+00         0.00000E+00        -0.15504E+08
 
   -0.15439E+08         0.54910E+06         0.00000E+00
    0.54910E+06        -0.20135E+07         0.00000E+00
    0.00000E+00         0.00000E+00        -0.15416E+08
 
   -0.15357E+08         0.53986E+06         0.00000E+00
    0.53986E+06        -0.20240E+07         0.00000E+00
    0.00000E+00         0.00000E+00        -0.15328E+08
 
   -0.15275E+08         0.52875E+06         0.00000E+00
    0.52875E+06        -0.20356E+07         0.00000E+00
    0.00000E+00         0.00000E+00        -0.15239E+08
 
   -0.15191E+08         0.51569E+06         0.00000E+00
    0.51569E+06        -0.20481E+07         0.00000E+00
    0.00000E+00         0.00000E+00        -0.15148E+08
 
   -0.15108E+08         0.50057E+06         0.00000E+00
    0.50057E+06        -0.20615E+07         0.00000E+00
    0.00000E+00         0.00000E+00        -0.15057E+08
 
   -0.15023E+08         0.48334E+06         0.00000E+00
    0.48334E+06        -0.20757E+07         0.00000E+00
    0.00000E+00         0.00000E+00        -0.14966E+08
 
   -0.14938E+08         0.46392E+06         0.00000E+00
    0.46392E+06        -0.20904E+07         0.00000E+00
    0.00000E+00         0.00000E+00        -0.14873E+08
 
   -0.14852E+08         0.44228E+06         0.00000E+00
    0.44228E+06        -0.21053E+07         0.00000E+00
    0.00000E+00         0.00000E+00        -0.14779E+08
 
   -0.14766E+08         0.41838E+06         0.00000E+00
    0.41838E+06        -0.21198E+07         0.00000E+00
    0.00000E+00         0.00000E+00        -0.14684E+08
 
   -0.14678E+08         0.39218E+06         0.00000E+00
    0.39218E+06        -0.21331E+07         0.00000E+00
    0.00000E+00         0.00000E+00        -0.14588E+08
 
   -0.14589E+08         0.36364E+06         0.00000E+00
    0.36364E+06        -0.21442E+07         0.00000E+00
    0.00000E+00         0.00000E+00        -0.14490E+08
 
   -0.14500E+08         0.33269E+06         0.00000E+00
    0.33269E+06        -0.21514E+07         0.00000E+00
    0.00000E+00         0.00000E+00        -0.14391E+08
 
   -0.14410E+08         0.29916E+06         0.00000E+00
    0.29916E+06        -0.21528E+07         0.00000E+00
    0.00000E+00         0.00000E+00        -0.14288E+08
 
   -0.14321E+08         0.26273E+06         0.00000E+00
    0.26273E+06        -0.21458E+07         0.00000E+00
    0.00000E+00         0.00000E+00        -0.14184E+08
 
   -0.14234E+08         0.22289E+06         0.00000E+00
    0.22289E+06        -0.21273E+07         0.00000E+00
    0.00000E+00         0.00000E+00        -0.14075E+08
 
   -0.14152E+08         0.17886E+06         0.00000E+00
    0.17886E+06        -0.20936E+07         0.00000E+00
    0.00000E+00         0.00000E+00        -0.13964E+08
 
   -0.14080E+08         0.13008E+06         0.00000E+00
    0.13008E+06        -0.20402E+07         0.00000E+00
    0.00000E+00         0.00000E+00        -0.13849E+08
 
   -0.14026E+08         0.77878E+05         0.00000E+00
    0.77878E+05        -0.19641E+07         0.00000E+00
    0.00000E+00         0.00000E+00        -0.13733E+08
 
   -0.13997E+08         0.25644E+05         0.00000E+00
    0.25644E+05        -0.18678E+07         0.00000E+00
    0.00000E+00         0.00000E+00        -0.13618E+08
 
   -0.18729E+08         0.49028E+04         0.00000E+00
    0.49028E+04        -0.19585E+07         0.00000E+00
    0.00000E+00         0.00000E+00        -0.18800E+08
 
   -0.18725E+08         0.14881E+05         0.00000E+00
    0.14881E+05        -0.19449E+07         0.00000E+00
    0.00000E+00         0.00000E+00        -0.18784E+08
 
   -0.18718E+08         0.25022E+05         0.00000E+00
    0.25022E+05        -0.19341E+07         0.00000E+00
    0.00000E+00         0.00000E+00        -0.18768E+08
 
   -0.18707E+08         0.34943E+05         0.00000E+00
    0.34943E+05        -0.19264E+07         0.00000E+00
    0.00000E+00         0.00000E+00        -0.18751E+08
 
   -0.18695E+08         0.44422E+05         0.00000E+00
    0.44422E+05        -0.19215E+07         0.00000E+00
    0.00000E+00         0.00000E+00        -0.18735E+08
 
   -0.18682E+08         0.53482E+05         0.00000E+00
    0.53482E+05        -0.19187E+07         0.00000E+00
    0.00000E+00         0.00000E+00        -0.18719E+08
 
   -0.18669E+08         0.62199E+05         0.00000E+00
    0.62199E+05        -0.19175E+07         0.00000E+00
    0.00000E+00         0.00000E+00        -0.18703E+08
 
   -0.18655E+08         0.70633E+05         0.00000E+00
    0.70633E+05        -0.19174E+07         0.00000E+00
    0.00000E+00         0.00000E+00        -0.18688E+08
 
   -0.18640E+08         0.78823E+05         0.00000E+00
    0.78823E+05        -0.19181E+07         0.00000E+00
    0.00000E+00         0.00000E+00        -0.18672E+08
 
   -0.18625E+08         0.86790E+05         0.00000E+00
    0.86790E+05        -0.19193E+07         0.00000E+00
    0.00000E+00         0.00000E+00        -0.18657E+08
 
   -0.18610E+08         0.94551E+05         0.00000E+00
    0.94551E+05        -0.19208E+07         0.00000E+00
    0.00000E+00         0.00000E+00        -0.18641E+08
 
   -0.18595E+08         0.10212E+06         0.00000E+00
    0.10212E+06        -0.19223E+07         0.00000E+00
    0.00000E+00         0.00000E+00        -0.18625E+08
 
   -0.18579E+08         0.10950E+06         0.00000E+00
    0.10950E+06        -0.19239E+07         0.00000E+00
    0.00000E+00         0.00000E+00        -0.18609E+08
 
   -0.18563E+08         0.11671E+06         0.00000E+00
    0.11671E+06        -0.19254E+07         0.00000E+00
    0.00000E+00         0.00000E+00        -0.18592E+08
 
   -0.18547E+08         0.12376E+06         0.00000E+00
    0.12376E+06        -0.19268E+07         0.00000E+00
    0.00000E+00         0.00000E+00        -0.18575E+08
 
   -0.18530E+08         0.13067E+06         0.00000E+00
    0.13067E+06        -0.19281E+07         0.00000E+00
    0.00000E+00         0.00000E+00        -0.18558E+08
 
   -0.18512E+08         0.13745E+06         0.00000E+00
    0.13745E+06        -0.19292E+07         0.00000E+00
    0.00000E+00         0.00000E+00        -0.18540E+08
 
   -0.18494E+08         0.14412E+06         0.00000E+00
    0.14412E+06        -0.19301E+07         0.00000E+00
    0.00000E+00         0.00000E+00        -0.18522E+08
 
   -0.18476E+08         0.15070E+06         0.00000E+00
    0.15070E+06        -0.19309E+07         0.00000E+00
    0.00000E+00         0.00000E+00        -0.18503E+08
 
   -0.18456E+08         0.15720E+06         0.00000E+00
    0.15720E+06        -0.19315E+07         0.00000E+00
    0.00000E+00         0.00000E+00        -0.18484E+08
 
   -0.18437E+08         0.16365E+06         0.00000E+00
    0.16365E+06        -0.19320E+07         0.00000E+00
    0.00000E+00         0.00000E+00        -0.18464E+08
 
   -0.18416E+08         0.17007E+06         0.00000E+00
    0.17007E+06        -0.19324E+07         0.00000E+00
    0.00000E+00         0.00000E+00        -0.18444E+08
 
   -0.18395E+08         0.17646E+06         0.00000E+00
    0.17646E+06        -0.19327E+07         0.00000E+00
    0.00000E+00         0.00000E+00        -0.18423E+08
 
   -0.18374E+08         0.18285E+06         0.00000E+00
    0.18285E+06        -0.19328E+07         0.00000E+00
    0.00000E+00         0.00000E+00        -0.18401E+08
 
   -0.18352E+08         0.18925E+06         0.00000E+00
    0.18925E+06        -0.19329E+07         0.00000E+00
    0.00000E+00         0.00000E+00        -0.18379E+08
 
   -0.18329E+08         0.19569E+06         0.00000E+00
    0.19569E+06        -0.19329E+07         0.00000E+00
    0.00000E+00         0.00000E+00        -0.18357E+08
 
   -0.18305E+08         0.20216E+06         0.00000E+00
    0.20216E+06        -0.19328E+07         0.00000E+00
    0.00000E+00         0.00000E+00        -0.18333E+08
 
   -0.18281E+08         0.20869E+06         0.00000E+00
    0.20869E+06        -0.19326E+07         0.00000E+00
    0.00000E+00         0.00000E+00        -0.18309E+08
 
   -0.18256E+08         0.21528E+06         0.00000E+00
    0.21528E+06        -0.19324E+07         0.00000E+00
    0.00000E+00         0.00000E+00        -0.18285E+08
 
   -0.18230E+08         0.22195E+06         0.00000E+00
    0.22195E+06        -0.19322E+07         0.00000E+00
    0.00000E+00         0.00000E+00        -0.18259E+08
 
   -0.18203E+08         0.22870E+06         0.00000E+00
    0.22870E+06        -0.19319E+07         0.00000E+00
    0.00000E+00         0.00000E+00        -0.18233E+08
 
   -0.18176E+08         0.23555E+06         0.00000E+00
    0.23555E+06        -0.19315E+07         0.00000E+00
    0.00000E+00         0.00000E+00        -0.18206E+08
 
   -0.18148E+08         0.24250E+06         0.00000E+00
    0.24250E+06        -0.19312E+07         0.00000E+00
    0.00000E+00         0.00000E+00        -0.18179E+08
 
   -0.18119E+08         0.24955E+06         0.00000E+00
    0.24955E+06        -0.19308E+07         0.00000E+00
    0.00000E+00         0.00000E+00        -0.18150E+08
 
   -0.18089E+08         0.25672E+06         0.00000E+00
    0.25672E+06        -0.19304E+07         0.00000E+00
    0.00000E+00         0.00000E+00        -0.18121E+08
 
   -0.18058E+08         0.26400E+06         0.00000E+00
    0.26400E+06        -0.19300E+07         0.00000E+00
    0.00000E+00         0.00000E+00        -0.18091E+08
 
   -0.18027E+08         0.27140E+06         0.00000E+00
    0.27140E+06        -0.19296E+07         0.00000E+00
    0.00000E+00         0.00000E+00        -0.18060E+08
 
   -0.17994E+08         0.27891E+06         0.00000E+00
    0.27891E+06        -0.19291E+07         0.00000E+00
    0.00000E+00         0.00000E+00        -0.18028E+08
 
   -0.17961E+08         0.28656E+06         0.00000E+00
    0.28656E+06        -0.19287E+07         0.00000E+00
    0.00000E+00         0.00000E+00        -0.17995E+08
 
   -0.17926E+08         0.29432E+06         0.00000E+00
    0.29432E+06        -0.19283E+07         0.00000E+00
    0.00000E+00         0.00000E+00        -0.17961E+08
 
   -0.17891E+08         0.30220E+06         0.00000E+00
    0.30220E+06        -0.19278E+07         0.00000E+00
    0.00000E+00         0.00000E+00        -0.17927E+08
 
   -0.17855E+08         0.31021E+06         0.00000E+00
    0.31021E+06        -0.19274E+07         0.00000E+00
    0.00000E+00         0.00000E+00        -0.17891E+08
 
   -0.17817E+08         0.31833E+06         0.00000E+00
    0.31833E+06        -0.19270E+07         0.00000E+00
    0.00000E+00         0.00000E+00        -0.17854E+08
 
   -0.17779E+08         0.32657E+06         0.00000E+00
    0.32657E+06        -0.19267E+07         0.00000E+00
    0.00000E+00         0.00000E+00        -0.17816E+08
 
   -0.17739E+08         0.33491E+06         0.00000E+00
    0.33491E+06        -0.19263E+07         0.00000E+00
    0.00000E+00         0.00000E+00        -0.17777E+08
 
   -0.17699E+08         0.34336E+06         0.00000E+00
    0.34336E+06        -0.19260E+07         0.00000E+00
    0.00000E+00         0.00000E+00        -0.17737E+08
 
   -0.17657E+08         0.35191E+06         0.00000E+00
    0.35191E+06        -0.19257E+07         0.00000E+00
    0.00000E+00         0.00000E+00        -0.17696E+08
 
   -0.17615E+08         0.36054E+06         0.00000E+00
    0.36054E+06        -0.19254E+07         0.00000E+00
    0.00000E+00         0.00000E+00        -0.17654E+08
 
   -0.17571E+08         0.36926E+06         0.00000E+00
    0.36926E+06        -0.19252E+07         0.00000E+00
    0.00000E+00         0.00000E+00        -0.17611E+08
 
   -0.17526E+08         0.37805E+06         0.00000E+00
    0.37805E+06        -0.19250E+07         0.00000E+00
    0.00000E+00         0.00000E+00        -0.17566E+08
 
   -0.17479E+08         0.38690E+06         0.00000E+00
    0.38690E+06        -0.19249E+07         0.00000E+00
    0.00000E+00         0.00000E+00        -0.17520E+08
 
   -0.17432E+08         0.39579E+06         0.00000E+00
    0.39579E+06        -0.19249E+07         0.00000E+00
    0.00000E+00         0.00000E+00        -0.17473E+08
 
   -0.17383E+08         0.40472E+06         0.00000E+00
    0.40472E+06        -0.19249E+07         0.00000E+00
    0.00000E+00         0.00000E+00        -0.17424E+08
 
   -0.17333E+08         0.41367E+06         0.00000E+00
    0.41367E+06        -0.19250E+07         0.00000E+00
    0.00000E+00         0.00000E+00        -0.17375E+08
 
   -0.17282E+08         0.42262E+06         0.00000E+00
    0.42262E+06        -0.19251E+07         0.00000E+00
    0.00000E+00         0.00000E+00        -0.17324E+08
 
   -0.17230E+08         0.43154E+06         0.00000E+00
    0.43154E+06        -0.19254E+07         0.00000E+00
    0.00000E+00         0.00000E+00        -0.17271E+08
 
   -0.17176E+08         0.44043E+06         0.00000E+00
    0.44043E+06        -0.19257E+07         0.00000E+00
    0.00000E+00         0.00000E+00        -0.17217E+08
 
   -0.17121E+08         0.44926E+06         0.00000E+00
    0.44926E+06        -0.19262E+07         0.00000E+00
    0.00000E+00         0.00000E+00        -0.17162E+08
 
   -0.17065E+08         0.45800E+06         0.00000E+00
    0.45800E+06        -0.19268E+07         0.00000E+00
    0.00000E+00         0.00000E+00        -0.17106E+08
 
   -0.17007E+08         0.46663E+06         0.00000E+00
    0.46663E+06        -0.19275E+07         0.00000E+00
    0.00000E+00         0.00000E+00        -0.17048E+08
 
   -0.16949E+08         0.47512E+06         0.00000E+00
    0.47512E+06        -0.19283E+07         0.00000E+00
    0.00000E+00         0.00000E+00        -0.16988E+08
 
   -0.16888E+08         0.48343E+06         0.00000E+00
    0.48343E+06        -0.19292E+07         0.00000E+00
    0.00000E+00         0.00000E+00        -0.16928E+08
 
   -0.16827E+08         0.49154E+06         0.00000E+00
    0.49154E+06        -0.19304E+07         0.00000E+00
    0.00000E+00         0.00000E+00        -0.16865E+08
 
   -0.16764E+08         0.49940E+06         0.00000E+00
    0.49940E+06        -0.19317E+07         0.00000E+00
    0.00000E+00         0.00000E+00        -0.16802E+08
 
   -0.16700E+08         0.50697E+06         0.00000E+00
    0.50697E+06        -0.19332E+07         0.00000E+00
    0.00000E+00         0.00000E+00        -0.16736E+08
 
   -0.16635E+08         0.51422E+06         0.00000E+00
    0.51422E+06        -0.19348E+07         0.00000E+00
    0.00000E+00         0.00000E+00        -0.16670E+08
 
   -0.16568E+08         0.52108E+06         0.00000E+00
    0.52108E+06        -0.19367E+07         0.00000E+00
    0.00000E+00         0.00000E+00        -0.16602E+08
 
   -0.16500E+08         0.52752E+06         0.00000E+00
    0.52752E+06        -0.19389E+07         0.00000E+00
    0.00000E+00         0.00000E+00        -0.16532E+08
 
   -0.16431E+08         0.53348E+06         0.00000E+00
    0.53348E+06        -0.19413E+07         0.00000E+00
    0.00000E+00         0.00000E+00        -0.16461E+08
 
   -0.16361E+08         0.53889E+06         0.00000E+00
    0.53889E+06        -0.19439E+07         0.00000E+00
    0.00000E+00         0.00000E+00        -0.16389E+08
 
   -0.16290E+08         0.54370E+06         0.00000E+00
    0.54370E+06        -0.19469E+07         0.00000E+00
    0.00000E+00         0.00000E+00        -0.16315E+08
 
   -0.16217E+08         0.54782E+06         0.00000E+00
    0.54782E+06        -0.19502E+07         0.00000E+00
    0.00000E+00         0.00000E+00        -0.16239E+08
 
   -0.16144E+08         0.55120E+06         0.00000E+00
    0.55120E+06        -0.19539E+07         0.00000E+00
    0.00000E+00         0.00000E+00        -0.16163E+08
 
   -0.16069E+08         0.55374E+06         0.00000E+00
    0.55374E+06        -0.19580E+07         0.00000E+00
    0.00000E+00         0.00000E+00        -0.16085E+08
 
   -0.15994E+08         0.55537E+06         0.00000E+00
    0.55537E+06        -0.19626E+07         0.00000E+00
    0.00000E+00         0.00000E+00        -0.16005E+08
 
   -0.15917E+08         0.55598E+06         0.00000E+00
    0.55598E+06        -0.19677E+07         0.00000E+00
    0.00000E+00         0.00000E+00        -0.15925E+08
 
   -0.15840E+08         0.55550E+06         0.00000E+00
    0.55550E+06        -0.19733E+07         0.00000E+00
    0.00000E+00         0.00000E+00        -0.15843E+08
 
   -0.15762E+08         0.55380E+06         0.00000E+00
    0.55380E+06        -0.19795E+07         0.00000E+00
    0.00000E+00         0.00000E+00        -0.15760E+08
 
   -0.15683E+08         0.55080E+06         0.00000E+00
    0.55080E+06        -0.19864E+07         0.00000E+00
    0.00000E+00         0.00000E+00        -0.15676E+08
 
   -0.15603E+08         0.54638E+06         0.00000E+00
    0.54638E+06        -0.19940E+07         0.00000E+00
    0.00000E+00         0.00000E+00        -0.15590E+08
 
   -0.15523E+08         0.54042E+06         0.00000E+00
    0.54042E+06        -0.20025E+07         0.00000E+00
    0.00000E+00         0.00000E+00        -0.15504E+08
 
   -0.15443E+08         0.53282E+06         0.00000E+00
    0.53282E+06        -0.20118E+07         0.00000E+00
    0.00000E+00         0.00000E+00        -0.15417E+08
 
   -0.15361E+08         0.52347E+06         0.00000E+00
    0.52347E+06        -0.20220E+07         0.00000E+00
    0.00000E+00         0.00000E+00        -0.15328E+08
 
   -0.15280E+08         0.51226E+06         0.00000E+00
    0.51226E+06        -0.20332E+07         0.00000E+00
    0.00000E+00         0.00000E+00        -0.15239E+08
 
   -0.15197E+08         0.49909E+06         0.00000E+00
    0.49909E+06        -0.20452E+07         0.00000E+00
    0.00000E+00         0.00000E+00        -0.15149E+08
 
   -0.15115E+08         0.48386E+06         0.00000E+00
    0.48386E+06        -0.20582E+07         0.00000E+00
    0.00000E+00         0.00000E+00        -0.15059E+08
 
   -0.15031E+08         0.46651E+06         0.00000E+00
    0.46651E+06        -0.20720E+07         0.00000E+00
    0.00000E+00         0.00000E+00        -0.14967E+08
 
   -0.14947E+08         0.44695E+06         0.00000E+00
    0.44695E+06        -0.20863E+07         0.00000E+00
    0.00000E+00         0.00000E+00        -0.14874E+08
 
   -0.14863E+08         0.42515E+06         0.00000E+00
    0.42515E+06        -0.21007E+07         0.00000E+00
    0.00000E+00         0.00000E+00        -0.14781E+08
 
   -0.14778E+08         0.40108E+06         0.00000E+00
    0.40108E+06        -0.21148E+07         0.00000E+00
    0.00000E+00         0.00000E+00        -0.14686E+08
 
   -0.14691E+08         0.37471E+06         0.00000E+00
    0.37471E+06        -0.21277E+07         0.00000E+00
    0.00000E+00         0.00000E+00        -0.14591E+08
 
   -0.14605E+08         0.34601E+06         0.00000E+00
    0.34601E+06        -0.21382E+07         0.00000E+00
    0.00000E+00         0.00000E+00        -0.14493E+08
 
   -0.14517E+08         0.31496E+06         0.00000E+00
    0.31496E+06        -0.21449E+07         0.00000E+00
    0.00000E+00         0.00000E+00        -0.14394E+08
 
   -0.14430E+08         0.28146E+06         0.00000E+00
    0.28146E+06        -0.21458E+07         0.00000E+00
    0.00000E+00         0.00000E+00        -0.14292E+08
 
   -0.14343E+08         0.24531E+06         0.00000E+00
    0.24531E+06        -0.21382E+07         0.00000E+00
    0.00000E+00         0.00000E+00        -0.14188E+08
 
   -0.14259E+08         0.20618E+06         0.00000E+00
    0.20618E+06        -0.21191E+07         0.00000E+00
    0.00000E+00         0.00000E+00        -0.14080E+08
 
   -0.14181E+08         0.16362E+06         0.00000E+00
    0.16362E+06        -0.20845E+07         0.00000E+00
    0.00000E+00         0.00000E+00        -0.13970E+08
 
   -0.14113E+08         0.11757E+06         0.00000E+00
    0.11757E+06        -0.20303E+07         0.00000E+00
    0.00000E+00         0.00000E+00        -0.13856E+08
 
   -0.14063E+08         0.69708E+05         0.00000E+00
    0.69708E+05        -0.19540E+07         0.00000E+00
    0.00000E+00         0.00000E+00        -0.13741E+08
 
   -0.14037E+08         0.22841E+05         0.00000E+00
    0.22841E+05        -0.18581E+07         0.00000E+00
    0.00000E+00         0.00000E+00        -0.13627E+08
 
   -0.18722E+08         0.45221E+04         0.00000E+00
    0.45221E+04        -0.19604E+07         0.00000E+00
    0.00000E+00         0.00000E+00        -0.18799E+08
 
   -0.18718E+08         0.13761E+05         0.00000E+00
    0.13761E+05        -0.19469E+07         0.00000E+00
    0.00000E+00         0.00000E+00        -0.18783E+08
 
   -0.18711E+08         0.23271E+05         0.00000E+00
    0.23271E+05        -0.19361E+07         0.00000E+00
    0.00000E+00         0.00000E+00        -0.18766E+08
 
   -0.18702E+08         0.32747E+05         0.00000E+00
    0.32747E+05        -0.19284E+07         0.00000E+00
    0.00000E+00         0.00000E+00        -0.18750E+08
 
   -0.18690E+08         0.41948E+05         0.00000E+00
    0.41948E+05        -0.19233E+07         0.00000E+00
    0.00000E+00         0.00000E+00        -0.18734E+08
 
   -0.18678E+08         0.50834E+05         0.00000E+00
    0.50834E+05        -0.19205E+07         0.00000E+00
    0.00000E+00         0.00000E+00        -0.18718E+08
 
   -0.18664E+08         0.59439E+05         0.00000E+00
    0.59439E+05        -0.19192E+07         0.00000E+00
    0.00000E+00         0.00000E+00        -0.18703E+08
 
   -0.18650E+08         0.67793E+05         0.00000E+00
    0.67793E+05        -0.19191E+07         0.00000E+00
    0.00000E+00         0.00000E+00        -0.18687E+08
 
   -0.18636E+08         0.75917E+05         0.00000E+00
    0.75917E+05        -0.19197E+07         0.00000E+00
    0.00000E+00         0.00000E+00        -0.18672E+08
 
   -0.18621E+08         0.83824E+05         0.00000E+00
    0.83824E+05        -0.19209E+07         0.00000E+00
    0.00000E+00         0.00000E+00        -0.18656E+08
 
   -0.18607E+08         0.91523E+05         0.00000E+00
    0.91523E+05        -0.19223E+07         0.00000E+00
    0.00000E+00         0.00000E+00        -0.18640E+08
 
   -0.18591E+08         0.99021E+05         0.00000E+00
    0.99021E+05        -0.19238E+07         0.00000E+00
    0.00000E+00         0.00000E+00        -0.18624E+08
 
   -0.18576E+08         0.10633E+06         0.00000E+00
    0.10633E+06        -0.19254E+07         0.00000E+00
    0.00000E+00         0.00000E+00        -0.18608E+08
 
   -0.18560E+08         0.11346E+06         0.00000E+00
    0.11346E+06        -0.19268E+07         0.00000E+00
    0.00000E+00         0.00000E+00        -0.18591E+08
 
   -0.18543E+08         0.12042E+06         0.00000E+00
    0.12042E+06        -0.19282E+07         0.00000E+00
    0.00000E+00         0.00000E+00        -0.18574E+08
 
   -0.18526E+08         0.12723E+06         0.00000E+00
    0.12723E+06        -0.19294E+07         0.00000E+00
    0.00000E+00         0.00000E+00        -0.18557E+08
 
   -0.18509E+08         0.13390E+06         0.00000E+00
    0.13390E+06        -0.19305E+07         0.00000E+00
    0.00000E+00         0.00000E+00        -0.18539E+08
 
   -0.18491E+08         0.14047E+06         0.00000E+00
    0.14047E+06        -0.19314E+07         0.00000E+00
    0.00000E+00         0.00000E+00        -0.18521E+08
 
   -0.18472E+08         0.14693E+06         0.00000E+00
    0.14693E+06        -0.19322E+07         0.00000E+00
    0.00000E+00         0.00000E+00        -0.18502E+08
 
   -0.18453E+08         0.15332E+06         0.00000E+00
    0.15332E+06        -0.19328E+07         0.00000E+00
    0.00000E+00         0.00000E+00        -0.18483E+08
 
   -0.18433E+08         0.15965E+06         0.00000E+00
    0.15965E+06        -0.19333E+07         0.00000E+00
    0.00000E+00         0.00000E+00        -0.18463E+08
 
   -0.18413E+08         0.16594E+06         0.00000E+00
    0.16594E+06        -0.19337E+07         0.00000E+00
    0.00000E+00         0.00000E+00        -0.18443E+08
 
   -0.18392E+08         0.17220E+06         0.00000E+00
    0.17220E+06        -0.19339E+07         0.00000E+00
    0.00000E+00         0.00000E+00        -0.18422E+08
 
   -0.18370E+08         0.17846E+06         0.00000E+00
    0.17846E+06        -0.19341E+07         0.00000E+00
    0.00000E+00         0.00000E+00        -0.18401E+08
 
   -0.18348E+08         0.18473E+06         0.00000E+00
    0.18473E+06        -0.19341E+07         0.00000E+00
    0.00000E+00         0.00000E+00        -0.18379E+08
 
   -0.18325E+08         0.19103E+06         0.00000E+00
    0.19103E+06        -0.19341E+07         0.00000E+00
    0.00000E+00         0.00000E+00        -0.18356E+08
 
   -0.18302E+08         0.19736E+06         0.00000E+00
    0.19736E+06        -0.19341E+07         0.00000E+00
    0.00000E+00         0.00000E+00        -0.18333E+08
 
   -0.18277E+08         0.20374E+06         0.00000E+00
    0.20374E+06        -0.19339E+07         0.00000E+00
    0.00000E+00         0.00000E+00        -0.18309E+08
 
   -0.18252E+08         0.21019E+06         0.00000E+00
    0.21019E+06        -0.19337E+07         0.00000E+00
    0.00000E+00         0.00000E+00        -0.18284E+08
 
   -0.18226E+08         0.21671E+06         0.00000E+00
    0.21671E+06        -0.19335E+07         0.00000E+00
    0.00000E+00         0.00000E+00        -0.18258E+08
 
   -0.18200E+08         0.22330E+06         0.00000E+00
    0.22330E+06        -0.19332E+07         0.00000E+00
    0.00000E+00         0.00000E+00        -0.18232E+08
 
   -0.18172E+08         0.22999E+06         0.00000E+00
    0.22999E+06        -0.19329E+07         0.00000E+00
    0.00000E+00         0.00000E+00        -0.18205E+08
 
   -0.18144E+08         0.23678E+06         0.00000E+00
    0.23678E+06        -0.19326E+07         0.00000E+00
    0.00000E+00         0.00000E+00        -0.18178E+08
 
   -0.18115E+08         0.24366E+06         0.00000E+00
    0.24366E+06        -0.19322E+07         0.00000E+00
    0.00000E+00         0.00000E+00        -0.18149E+08
 
   -0.18085E+08         0.25066E+06         0.00000E+00
    0.25066E+06        -0.19318E+07         0.00000E+00
    0.00000E+00         0.00000E+00        -0.18120E+08
 
   -0.18054E+08         0.25776E+06         0.00000E+00
    0.25776E+06        -0.19314E+07         0.00000E+00
    0.00000E+00         0.00000E+00        -0.18090E+08
 
   -0.18022E+08         0.26498E+06         0.00000E+00
    0.26498E+06        -0.19310E+07         0.00000E+00
    0.00000E+00         0.00000E+00        -0.18059E+08
 
   -0.17990E+08         0.27232E+06         0.00000E+00
    0.27232E+06        -0.19306E+07         0.00000E+00
    0.00000E+00         0.00000E+00        -0.18027E+08
 
   -0.17956E+08         0.27977E+06         0.00000E+00
    0.27977E+06        -0.19302E+07         0.00000E+00
    0.00000E+00         0.00000E+00        -0.17994E+08
 
   -0.17922E+08         0.28734E+06         0.00000E+00
    0.28734E+06        -0.19298E+07         0.00000E+00
    0.00000E+00         0.00000E+00        -0.17961E+08
 
   -0.17887E+08         0.29503E+06         0.00000E+00
    0.29503E+06        -0.19294E+07         0.00000E+00
    0.00000E+00         0.00000E+00        -0.17926E+08
 
   -0.17850E+08         0.30283E+06         0.00000E+00
    0.30283E+06        -0.19290E+07         0.00000E+00
    0.00000E+00         0.00000E+00        -0.17890E+08
 
   -0.17813E+08         0.31075E+06         0.00000E+00
    0.31075E+06        -0.19286E+07         0.00000E+00
    0.00000E+00         0.00000E+00        -0.17853E+08
 
   -0.17774E+08         0.31878E+06         0.00000E+00
    0.31878E+06        -0.19283E+07         0.00000E+00
    0.00000E+00         0.00000E+00        -0.17815E+08
 
   -0.17735E+08         0.32691E+06         0.00000E+00
    0.32691E+06        -0.19280E+07         0.00000E+00
    0.00000E+00         0.00000E+00        -0.17777E+08
 
   -0.17694E+08         0.33514E+06         0.00000E+00
    0.33514E+06        -0.19276E+07         0.00000E+00
    0.00000E+00         0.00000E+00        -0.17736E+08
 
   -0.17653E+08         0.34346E+06         0.00000E+00
    0.34346E+06        -0.19274E+07         0.00000E+00
    0.00000E+00         0.00000E+00        -0.17695E+08
 
   -0.17610E+08         0.35187E+06         0.00000E+00
    0.35187E+06        -0.19271E+07         0.00000E+00
    0.00000E+00         0.00000E+00        -0.17653E+08
 
   -0.17566E+08         0.36036E+06         0.00000E+00
    0.36036E+06        -0.19269E+07         0.00000E+00
    0.00000E+00         0.00000E+00        -0.17610E+08
 
   -0.17521E+08         0.36891E+06         0.00000E+00
    0.36891E+06        -0.19268E+07         0.00000E+00
    0.00000E+00         0.00000E+00        -0.17565E+08
 
   -0.17474E+08         0.37753E+06         0.00000E+00
    0.37753E+06        -0.19267E+07         0.00000E+00
    0.00000E+00         0.00000E+00        -0.17519E+08
 
   -0.17427E+08         0.38618E+06         0.00000E+00
    0.38618E+06        -0.19266E+07         0.00000E+00
    0.00000E+00         0.00000E+00        -0.17472E+08
 
   -0.17378E+08         0.39486E+06         0.00000E+00
    0.39486E+06        -0.19266E+07         0.00000E+00
    0.00000E+00         0.00000E+00        -0.17423E+08
 
   -0.17328E+08         0.40356E+06         0.00000E+00
    0.40356E+06        -0.19267E+07         0.00000E+00
    0.00000E+00         0.00000E+00        -0.17374E+08
 
   -0.17277E+08         0.41226E+06         0.00000E+00
    0.41226E+06        -0.19269E+07         0.00000E+00
    0.00000E+00         0.00000E+00        -0.17323E+08
 
   -0.17225E+08         0.42094E+06         0.00000E+00
    0.42094E+06        -0.19271E+07         0.00000E+00
    0.00000E+00         0.00000E+00        -0.17270E+08
 
   -0.17171E+08         0.42957E+06         0.00000E+00
    0.42957E+06        -0.19275E+07         0.00000E+00
    0.00000E+00         0.00000E+00        -0.17216E+08
 
   -0.17116E+08         0.43814E+06         0.00000E+00
    0.43814E+06        -0.19279E+07         0.00000E+00
    0.00000E+00         0.00000E+00        -0.17161E+08
 
   -0.17060E+08         0.44663E+06         0.00000E+00
    0.44663E+06        -0.19285E+07         0.00000E+00
    0.00000E+00         0.00000E+00        -0.17105E+08
 
   -0.17002E+08         0.45500E+06         0.00000E+00
    0.45500E+06        -0.19291E+07         0.00000E+00
    0.00000E+00         0.00000E+00        -0.17047E+08
 
   -0.16944E+08         0.46323E+06         0.00000E+00
    0.46323E+06        -0.19299E+07         0.00000E+00
    0.00000E+00         0.00000E+00        -0.16987E+08
 
   -0.16883E+08         0.47128E+06         0.00000E+00
    0.47128E+06        -0.19309E+07         0.00000E+00
    0.00000E+00         0.00000E+00        -0.16927E+08
 
   -0.16822E+08         0.47913E+06         0.00000E+00
    0.47913E+06        -0.19319E+07         0.00000E+00
    0.00000E+00         0.00000E+00        -0.16864E+08
 
   -0.16760E+08         0.48673E+06         0.00000E+00
    0.48673E+06        -0.19332E+07         0.00000E+00
    0.00000E+00         0.00000E+00        -0.16801E+08
 
   -0.16696E+08         0.49405E+06         0.00000E+00
    0.49405E+06        -0.19346E+07         0.00000E+00
    0.00000E+00         0.00000E+00        -0.16735E+08
 
   -0.16630E+08         0.50105E+06         0.00000E+00
    0.50105E+06        -0.19362E+07         0.00000E+00
    0.00000E+00         0.00000E+00        -0.16669E+08
 
   -0.16564E+08         0.50767E+06         0.00000E+00
    0.50767E+06        -0.19380E+07         0.00000E+00
    0.00000E+00         0.00000E+00        -0.16601E+08
 
   -0.16496E+08         0.51386E+06         0.00000E+00
    0.51386E+06        -0.19401E+07         0.00000E+00
    0.00000E+00         0.00000E+00        -0.16531E+08
 
   -0.16428E+08         0.51958E+06         0.00000E+00
    0.51958E+06        -0.19424E+07         0.00000E+00
    0.00000E+00         0.00000E+00        -0.16460E+08
 
   -0.16358E+08         0.52476E+06         0.00000E+00
    0.52476E+06        -0.19449E+07         0.00000E+00
    0.00000E+00         0.00000E+00        -0.16388E+08
 
   -0.16287E+08         0.52934E+06         0.00000E+00
    0.52934E+06        -0.19478E+07         0.00000E+00
    0.00000E+00         0.00000E+00        -0.16314E+08
 
   -0.16214E+08         0.53325E+06         0.00000E+00
    0.53325E+06        -0.19510E+07         0.00000E+00
    0.00000E+00         0.00000E+00        -0.16239E+08
 
   -0.16141E+08         0.53642E+06         0.00000E+00
    0.53642E+06        -0.19545E+07         0.00000E+00
    0.00000E+00         0.00000E+00        -0.16162E+08
 
   -0.16067E+08         0.53877E+06         0.00000E+00
    0.53877E+06        -0.19585E+07         0.00000E+00
    0.00000E+00         0.00000E+00        -0.16084E+08
 
   -0.15992E+08         0.54021E+06         0.00000E+00
    0.54021E+06        -0.19628E+07         0.00000E+00
    0.00000E+00         0.00000E+00        -0.16005E+08
 
   -0.15916E+08         0.54065E+06         0.00000E+00
    0.54065E+06        -0.19677E+07         0.00000E+00
    0.00000E+00         0.00000E+00        -0.15924E+08
 
   -0.15839E+08         0.54001E+06         0.00000E+00
    0.54001E+06        -0.19731E+07         0.00000E+00
    0.00000E+00         0.00000E+00        -0.15843E+08
 
   -0.15762E+08         0.53817E+06         0.00000E+00
    0.53817E+06        -0.19790E+07         0.00000E+00
    0.00000E+00         0.00000E+00        -0.15760E+08
 
   -0.15684E+08         0.53503E+06         0.00000E+00
    0.53503E+06        -0.19857E+07         0.00000E+00
    0.00000E+00         0.00000E+00        -0.15676E+08
 
   -0.15605E+08         0.53048E+06         0.00000E+00
    0.53048E+06        -0.19930E+07         0.00000E+00
    0.00000E+00         0.00000E+00        -0.15590E+08
 
   -0.15525E+08         0.52442E+06         0.00000E+00
    0.52442E+06        -0.20011E+07         0.00000E+00
    0.00000E+00         0.00000E+00        -0.15504E+08
 
   -0.15446E+08         0.51672E+06         0.00000E+00
    0.51672E+06        -0.20101E+07         0.00000E+00
    0.00000E+00         0.00000E+00        -0.15417E+08
 
   -0.15365E+08         0.50727E+06         0.00000E+00
    0.50727E+06        -0.20199E+07         0.00000E+00
    0.00000E+00         0.00000E+00        -0.15329E+08
 
   -0.15284E+08         0.49597E+06         0.00000E+00
    0.49597E+06        -0.20307E+07         0.00000E+00
    0.00000E+00         0.00000E+00        -0.15240E+08
 
   -0.15203E+08         0.48270E+06         0.00000E+00
    0.48270E+06        -0.20424E+07         0.00000E+00
    0.00000E+00         0.00000E+00        -0.15150E+08
 
   -0.15122E+08         0.46738E+06         0.00000E+00
    0.46738E+06        -0.20550E+07         0.00000E+00
    0.00000E+00         0.00000E+00        -0.15060E+08
 
   -0.15039E+08         0.44991E+06         0.00000E+00
    0.44991E+06        -0.20683E+07         0.00000E+00
    0.00000E+00         0.00000E+00        -0.14968E+08
 
   -0.14957E+08         0.43023E+06         0.00000E+00
    0.43023E+06        -0.20821E+07         0.00000E+00
    0.00000E+00         0.00000E+00        -0.14876E+08
 
   -0.14874E+08         0.40830E+06         0.00000E+00
    0.40830E+06        -0.20961E+07         0.00000E+00
    0.00000E+00         0.00000E+00        -0.14783E+08
 
   -0.14790E+08         0.38408E+06         0.00000E+00
    0.38408E+06        -0.21097E+07         0.00000E+00
    0.00000E+00         0.00000E+00        -0.14689E+08
 
   -0.14705E+08         0.35756E+06         0.00000E+00
    0.35756E+06        -0.21221E+07         0.00000E+00
    0.00000E+00         0.00000E+00        -0.14593E+08
 
   -0.14620E+08         0.32874E+06         0.00000E+00
    0.32874E+06        -0.21322E+07         0.00000E+00
    0.00000E+00         0.00000E+00        -0.14496E+08
 
   -0.14534E+08         0.29763E+06         0.00000E+00
    0.29763E+06        -0.21385E+07         0.00000E+00
    0.00000E+00         0.00000E+00        -0.14397E+08
 
   -0.14449E+08         0.26422E+06         0.00000E+00
    0.26422E+06        -0.21389E+07         0.00000E+00
    0.00000E+00         0.00000E+00        -0.14296E+08
 
   -0.14365E+08         0.22844E+06         0.00000E+00
    0.22844E+06        -0.21308E+07         0.00000E+00
    0.00000E+00         0.00000E+00        -0.14192E+08
 
   -0.14284E+08         0.19014E+06         0.00000E+00
    0.19014E+06        -0.21110E+07         0.00000E+00
    0.00000E+00         0.00000E+00        -0.14085E+08
 
   -0.14210E+08         0.14918E+06         0.00000E+00
    0.14918E+06        -0.20758E+07         0.00000E+00
    0.00000E+00         0.00000E+00        -0.13976E+08
 
   -0.14146E+08         0.10594E+06         0.00000E+00
    0.10594E+06        -0.20211E+07         0.00000E+00
    0.00000E+00         0.00000E+00        -0.13863E+08
 
   -0.14100E+08         0.62228E+05         0.00000E+00
    0.62228E+05        -0.19450E+07         0.00000E+00
    0.00000E+00         0.00000E+00        -0.13749E+08
 
   -0.14075E+08         0.20294E+05         0.00000E+00
    0.20294E+05        -0.18495E+07         0.00000E+00
    0.00000E+00         0.00000E+00        -0.13636E+08
 
   -0.18715E+08         0.41695E+04         0.00000E+00
    0.41695E+04        -0.19621E+07         0.00000E+00
    0.00000E+00         0.00000E+00        -0.18797E+08
 
   -0.18712E+08         0.12718E+05         0.00000E+00
    0.12718E+05        -0.19487E+07         0.00000E+00
    0.00000E+00         0.00000E+00        -0.18781E+08
 
   -0.18705E+08         0.21622E+05         0.00000E+00
    0.21622E+05        -0.19380E+07         0.00000E+00
    0.00000E+00         0.00000E+00        -0.18765E+08
 
   -0.18696E+08         0.30649E+05         0.00000E+00
    0.30649E+05        -0.19302E+07         0.00000E+00
    0.00000E+00         0.00000E+00        -0.18749E+08
 
   -0.18685E+08         0.39556E+05         0.00000E+00
    0.39556E+05        -0.19251E+07         0.00000E+00
    0.00000E+00         0.00000E+00        -0.18733E+08
 
   -0.18673E+08         0.48253E+05         0.00000E+00
    0.48253E+05        -0.19222E+07         0.00000E+00
    0.00000E+00         0.00000E+00        -0.18717E+08
 
   -0.18660E+08         0.56732E+05         0.00000E+00
    0.56732E+05        -0.19209E+07         0.00000E+00
    0.00000E+00         0.00000E+00        -0.18702E+08
 
   -0.18646E+08         0.64997E+05         0.00000E+00
    0.64997E+05        -0.19207E+07         0.00000E+00
    0.00000E+00         0.00000E+00        -0.18686E+08
 
   -0.18632E+08         0.73049E+05         0.00000E+00
    0.73049E+05        -0.19213E+07         0.00000E+00
    0.00000E+00         0.00000E+00        -0.18671E+08
 
   -0.18617E+08         0.80889E+05         0.00000E+00
    0.80889E+05        -0.19224E+07         0.00000E+00
    0.00000E+00         0.00000E+00        -0.18655E+08
 
   -0.18603E+08         0.88520E+05         0.00000E+00
    0.88520E+05        -0.19238E+07         0.00000E+00
    0.00000E+00         0.00000E+00        -0.18640E+08
 
   -0.18588E+08         0.95946E+05         0.00000E+00
    0.95946E+05        -0.19253E+07         0.00000E+00
    0.00000E+00         0.00000E+00        -0.18624E+08
 
   -0.18572E+08         0.10317E+06         0.00000E+00
    0.10317E+06        -0.19268E+07         0.00000E+00
    0.00000E+00         0.00000E+00        -0.18607E+08
 
   -0.18556E+08         0.11022E+06         0.00000E+00
    0.11022E+06        -0.19282E+07         0.00000E+00
    0.00000E+00         0.00000E+00        -0.18591E+08
 
   -0.18540E+08         0.11708E+06         0.00000E+00
    0.11708E+06        -0.19296E+07         0.00000E+00
    0.00000E+00         0.00000E+00        -0.18574E+08
 
   -0.18523E+08         0.12380E+06         0.00000E+00
    0.12380E+06        -0.19308E+07         0.00000E+00
    0.00000E+00         0.00000E+00        -0.18557E+08
 
   -0.18505E+08         0.13037E+06         0.00000E+00
    0.13037E+06        -0.19318E+07         0.00000E+00
    0.00000E+00         0.00000E+00        -0.18539E+08
 
   -0.18487E+08         0.13682E+06         0.00000E+00
    0.13682E+06        -0.19327E+07         0.00000E+00
    0.00000E+00         0.00000E+00        -0.18520E+08
 
   -0.18469E+08         0.14317E+06         0.00000E+00
    0.14317E+06        -0.19335E+07         0.00000E+00
    0.00000E+00         0.00000E+00        -0.18502E+08
 
   -0.18450E+08         0.14944E+06         0.00000E+00
    0.14944E+06        -0.19341E+07         0.00000E+00
    0.00000E+00         0.00000E+00        -0.18482E+08
 
   -0.18430E+08         0.15564E+06         0.00000E+00
    0.15564E+06        -0.19345E+07         0.00000E+00
    0.00000E+00         0.00000E+00        -0.18463E+08
 
   -0.18410E+08         0.16181E+06         0.00000E+00
    0.16181E+06        -0.19349E+07         0.00000E+00
    0.00000E+00         0.00000E+00        -0.18442E+08
 
   -0.18389E+08         0.16794E+06         0.00000E+00
    0.16794E+06        -0.19352E+07         0.00000E+00
    0.00000E+00         0.00000E+00        -0.18422E+08
 
   -0.18367E+08         0.17407E+06         0.00000E+00
    0.17407E+06        -0.19353E+07         0.00000E+00
    0.00000E+00         0.00000E+00        -0.18400E+08
 
   -0.18345E+08         0.18020E+06         0.00000E+00
    0.18020E+06        -0.19354E+07         0.00000E+00
    0.00000E+00         0.00000E+00        -0.18378E+08
 
   -0.18322E+08         0.18636E+06         0.00000E+00
    0.18636E+06        -0.19354E+07         0.00000E+00
    0.00000E+00         0.00000E+00        -0.18355E+08
 
   -0.18298E+08         0.19255E+06         0.00000E+00
    0.19255E+06        -0.19353E+07         0.00000E+00
    0.00000E+00         0.00000E+00        -0.18332E+08
 
   -0.18274E+08         0.19879E+06         0.00000E+00
    0.19879E+06        -0.19352E+07         0.00000E+00
    0.00000E+00         0.00000E+00        -0.18308E+08
 
   -0.18248E+08         0.20508E+06         0.00000E+00
    0.20508E+06        -0.19350E+07         0.00000E+00
    0.00000E+00         0.00000E+00        -0.18283E+08
 
   -0.18223E+08         0.21145E+06         0.00000E+00
    0.21145E+06        -0.19348E+07         0.00000E+00
    0.00000E+00         0.00000E+00        -0.18258E+08
 
   -0.18196E+08         0.21789E+06         0.00000E+00
    0.21789E+06        -0.19345E+07         0.00000E+00
    0.00000E+00         0.00000E+00        -0.18232E+08
 
   -0.18168E+08         0.22442E+06         0.00000E+00
    0.22442E+06        -0.19342E+07         0.00000E+00
    0.00000E+00         0.00000E+00        -0.18205E+08
 
   -0.18140E+08         0.23104E+06         0.00000E+00
    0.23104E+06        -0.19339E+07         0.00000E+00
    0.00000E+00         0.00000E+00        -0.18177E+08
 
   -0.18111E+08         0.23776E+06         0.00000E+00
    0.23776E+06        -0.19336E+07         0.00000E+00
    0.00000E+00         0.00000E+00        -0.18149E+08
 
   -0.18081E+08         0.24459E+06         0.00000E+00
    0.24459E+06        -0.19332E+07         0.00000E+00
    0.00000E+00         0.00000E+00        -0.18119E+08
 
   -0.18050E+08         0.25152E+06         0.00000E+00
    0.25152E+06        -0.19329E+07         0.00000E+00
    0.00000E+00         0.00000E+00        -0.18089E+08
 
   -0.18018E+08         0.25856E+06         0.00000E+00
    0.25856E+06        -0.19325E+07         0.00000E+00
    0.00000E+00         0.00000E+00        -0.18058E+08
 
   -0.17986E+08         0.26571E+06         0.00000E+00
    0.26571E+06        -0.19321E+07         0.00000E+00
    0.00000E+00         0.00000E+00        -0.18026E+08
 
   -0.17952E+08         0.27297E+06         0.00000E+00
    0.27297E+06        -0.19317E+07         0.00000E+00
    0.00000E+00         0.00000E+00        -0.17993E+08
 
   -0.17918E+08         0.28035E+06         0.00000E+00
    0.28035E+06        -0.19313E+07         0.00000E+00
    0.00000E+00         0.00000E+00        -0.17960E+08
 
   -0.17882E+08         0.28784E+06         0.00000E+00
    0.28784E+06        -0.19309E+07         0.00000E+00
    0.00000E+00         0.00000E+00        -0.17925E+08
 
   -0.17846E+08         0.29545E+06         0.00000E+00
    0.29545E+06        -0.19306E+07         0.00000E+00
    0.00000E+00         0.00000E+00        -0.17889E+08
 
   -0.17808E+08         0.30316E+06         0.00000E+00
    0.30316E+06        -0.19302E+07         0.00000E+00
    0.00000E+00         0.00000E+00        -0.17852E+08
 
   -0.17770E+08         0.31097E+06         0.00000E+00
    0.31097E+06        -0.19299E+07         0.00000E+00
    0.00000E+00         0.00000E+00        -0.17815E+08
 
   -0.17730E+08         0.31889E+06         0.00000E+00
    0.31889E+06        -0.19296E+07         0.00000E+00
    0.00000E+00         0.00000E+00        -0.17776E+08
 
   -0.17690E+08         0.32690E+06         0.00000E+00
    0.32690E+06        -0.19293E+07         0.00000E+00
    0.00000E+00         0.00000E+00        -0.17736E+08
 
   -0.17648E+08         0.33501E+06         0.00000E+00
    0.33501E+06        -0.19290E+07         0.00000E+00
    0.00000E+00         0.00000E+00        -0.17694E+08
 
   -0.17605E+08         0.34319E+06         0.00000E+00
    0.34319E+06        -0.19288E+07         0.00000E+00
    0.00000E+00         0.00000E+00        -0.17652E+08
 
   -0.17561E+08         0.35145E+06         0.00000E+00
    0.35145E+06        -0.19286E+07         0.00000E+00
    0.00000E+00         0.00000E+00        -0.17609E+08
 
   -0.17516E+08         0.35977E+06         0.00000E+00
    0.35977E+06        -0.19285E+07         0.00000E+00
    0.00000E+00         0.00000E+00        -0.17564E+08
 
   -0.17469E+08         0.36815E+06         0.00000E+00
    0.36815E+06        -0.19284E+07         0.00000E+00
    0.00000E+00         0.00000E+00        -0.17518E+08
 
   -0.17422E+08         0.37656E+06         0.00000E+00
    0.37656E+06        -0.19283E+07         0.00000E+00
    0.00000E+00         0.00000E+00        -0.17471E+08
 
   -0.17373E+08         0.38500E+06         0.00000E+00
    0.38500E+06        -0.19284E+07         0.00000E+00
    0.00000E+00         0.00000E+00        -0.17422E+08
 
   -0.17323E+08         0.39345E+06         0.00000E+00
    0.39345E+06        -0.19284E+07         0.00000E+00
    0.00000E+00         0.00000E+00        -0.17373E+08
 
   -0.17272E+08         0.40190E+06         0.00000E+00
    0.40190E+06        -0.19286E+07         0.00000E+00
    0.00000E+00         0.00000E+00        -0.17322E+08
 
   -0.17220E+08         0.41033E+06         0.00000E+00
    0.41033E+06        -0.19288E+07         0.00000E+00
    0.00000E+00         0.00000E+00        -0.17269E+08
 
   -0.17166E+08         0.41871E+06         0.00000E+00
    0.41871E+06        -0.19292E+07         0.00000E+00
    0.00000E+00         0.00000E+00        -0.17215E+08
 
   -0.17111E+08         0.42703E+06         0.00000E+00
    0.42703E+06        -0.19296E+07         0.00000E+00
    0.00000E+00         0.00000E+00        -0.17160E+08
 
   -0.17055E+08         0.43526E+06         0.00000E+00
    0.43526E+06        -0.19301E+07         0.00000E+00
    0.00000E+00         0.00000E+00        -0.17104E+08
 
   -0.16997E+08         0.44337E+06         0.00000E+00
    0.44337E+06        -0.19308E+07         0.00000E+00
    0.00000E+00         0.00000E+00        -0.17046E+08
 
   -0.16939E+08         0.45135E+06         0.00000E+00
    0.45135E+06        -0.19315E+07         0.00000E+00
    0.00000E+00         0.00000E+00        -0.16986E+08
 
   -0.16879E+08         0.45915E+06         0.00000E+00
    0.45915E+06        -0.19324E+07         0.00000E+00
    0.00000E+00         0.00000E+00        -0.16926E+08
 
   -0.16817E+08         0.46674E+06         0.00000E+00
    0.46674E+06        -0.19335E+07         0.00000E+00
    0.00000E+00         0.00000E+00        -0.16863E+08
 
   -0.16755E+08         0.47409E+06         0.00000E+00
    0.47409E+06        -0.19347E+07         0.00000E+00
    0.00000E+00         0.00000E+00        -0.16800E+08
 
   -0.16691E+08         0.48116E+06         0.00000E+00
    0.48116E+06        -0.19360E+07         0.00000E+00
    0.00000E+00         0.00000E+00        -0.16735E+08
 
   -0.16626E+08         0.48791E+06         0.00000E+00
    0.48791E+06        -0.19376E+07         0.00000E+00
    0.00000E+00         0.00000E+00        -0.16668E+08
 
   -0.16560E+08         0.49428E+06         0.00000E+00
    0.49428E+06        -0.19393E+07         0.00000E+00
    0.00000E+00         0.00000E+00        -0.16600E+08
 
   -0.16492E+08         0.50024E+06         0.00000E+00
    0.50024E+06        -0.19413E+07         0.00000E+00
    0.00000E+00         0.00000E+00        -0.16530E+08
 
   -0.16424E+08         0.50573E+06         0.00000E+00
    0.50573E+06        -0.19435E+07         0.00000E+00
    0.00000E+00         0.00000E+00        -0.16459E+08
 
   -0.16354E+08         0.51068E+06         0.00000E+00
    0.51068E+06        -0.19459E+07         0.00000E+00
    0.00000E+00         0.00000E+00        -0.16387E+08
 
   -0.16283E+08         0.51505E+06         0.00000E+00
    0.51505E+06        -0.19486E+07         0.00000E+00
    0.00000E+00         0.00000E+00        -0.16313E+08
 
   -0.16212E+08         0.51875E+06         0.00000E+00
    0.51875E+06        -0.19517E+07         0.00000E+00
    0.00000E+00         0.00000E+00        -0.16238E+08
 
   -0.16139E+08         0.52172E+06         0.00000E+00
    0.52172E+06        -0.19551E+07         0.00000E+00
    0.00000E+00         0.00000E+00        -0.16162E+08
 
   -0.16065E+08         0.52388E+06         0.00000E+00
    0.52388E+06        -0.19588E+07         0.00000E+00
    0.00000E+00         0.00000E+00        -0.16084E+08
 
   -0.15990E+08         0.52515E+06         0.00000E+00
    0.52515E+06        -0.19630E+07         0.00000E+00
    0.00000E+00         0.00000E+00        -0.16005E+08
 
   -0.15915E+08         0.52543E+06         0.00000E+00
    0.52543E+06        -0.19676E+07         0.00000E+00
    0.00000E+00         0.00000E+00        -0.15924E+08
 
   -0.15839E+08         0.52463E+06         0.00000E+00
    0.52463E+06        -0.19728E+07         0.00000E+00
    0.00000E+00         0.00000E+00        -0.15842E+08
 
   -0.15762E+08         0.52265E+06         0.00000E+00
    0.52265E+06        -0.19785E+07         0.00000E+00
    0.00000E+00         0.00000E+00        -0.15759E+08
 
   -0.15684E+08         0.51939E+06         0.00000E+00
    0.51939E+06        -0.19849E+07         0.00000E+00
    0.00000E+00         0.00000E+00        -0.15676E+08
 
   -0.15606E+08         0.51474E+06         0.00000E+00
    0.51474E+06        -0.19919E+07         0.00000E+00
    0.00000E+00         0.00000E+00        -0.15590E+08
 
   -0.15528E+08         0.50857E+06         0.00000E+00
    0.50857E+06        -0.19997E+07         0.00000E+00
    0.00000E+00         0.00000E+00        -0.15504E+08
 
   -0.15448E+08         0.50078E+06         0.00000E+00
    0.50078E+06        -0.20084E+07         0.00000E+00
    0.00000E+00         0.00000E+00        -0.15417E+08
 
   -0.15369E+08         0.49125E+06         0.00000E+00
    0.49125E+06        -0.20179E+07         0.00000E+00
    0.00000E+00         0.00000E+00        -0.15329E+08
 
   -0.15289E+08         0.47987E+06         0.00000E+00
    0.47987E+06        -0.20282E+07         0.00000E+00
    0.00000E+00         0.00000E+00        -0.15241E+08
 
   -0.15209E+08         0.46652E+06         0.00000E+00
    0.46652E+06        -0.20395E+07         0.00000E+00
    0.00000E+00         0.00000E+00        -0.15151E+08
 
   -0.15128E+08         0.45111E+06         0.00000E+00
    0.45111E+06        -0.20517E+07         0.00000E+00
    0.00000E+00         0.00000E+00        -0.15061E+08
 
   -0.15048E+08         0.43355E+06         0.00000E+00
    0.43355E+06        -0.20646E+07         0.00000E+00
    0.00000E+00         0.00000E+00        -0.14970E+08
 
   -0.14966E+08         0.41377E+06         0.00000E+00
    0.41377E+06        -0.20779E+07         0.00000E+00
    0.00000E+00         0.00000E+00        -0.14878E+08
 
   -0.14884E+08         0.39172E+06         0.00000E+00
    0.39172E+06        -0.20915E+07         0.00000E+00
    0.00000E+00         0.00000E+00        -0.14785E+08
 
   -0.14802E+08         0.36738E+06         0.00000E+00
    0.36738E+06        -0.21046E+07         0.00000E+00
    0.00000E+00         0.00000E+00        -0.14691E+08
 
   -0.14719E+08         0.34073E+06         0.00000E+00
    0.34073E+06        -0.21166E+07         0.00000E+00
    0.00000E+00         0.00000E+00        -0.14595E+08
 
   -0.14635E+08         0.31183E+06         0.00000E+00
    0.31183E+06        -0.21262E+07         0.00000E+00
    0.00000E+00         0.00000E+00        -0.14499E+08
 
   -0.14552E+08         0.28072E+06         0.00000E+00
    0.28072E+06        -0.21320E+07         0.00000E+00
    0.00000E+00         0.00000E+00        -0.14400E+08
 
   -0.14469E+08         0.24746E+06         0.00000E+00
    0.24746E+06        -0.21320E+07         0.00000E+00
    0.00000E+00         0.00000E+00        -0.14300E+08
 
   -0.14387E+08         0.21212E+06         0.00000E+00
    0.21212E+06        -0.21234E+07         0.00000E+00
    0.00000E+00         0.00000E+00        -0.14197E+08
 
   -0.14309E+08         0.17474E+06         0.00000E+00
    0.17474E+06        -0.21032E+07         0.00000E+00
    0.00000E+00         0.00000E+00        -0.14091E+08
 
   -0.14238E+08         0.13549E+06         0.00000E+00
    0.13549E+06        -0.20676E+07         0.00000E+00
    0.00000E+00         0.00000E+00        -0.13982E+08
 
   -0.14178E+08         0.95079E+05         0.00000E+00
    0.95079E+05        -0.20127E+07         0.00000E+00
    0.00000E+00         0.00000E+00        -0.13870E+08
 
   -0.14135E+08         0.55322E+05         0.00000E+00
    0.55322E+05        -0.19368E+07         0.00000E+00
    0.00000E+00         0.00000E+00        -0.13757E+08
 
   -0.14112E+08         0.17955E+05         0.00000E+00
    0.17955E+05        -0.18418E+07         0.00000E+00
    0.00000E+00         0.00000E+00        -0.13645E+08
 
   -0.18708E+08         0.38398E+04         0.00000E+00
    0.38398E+04        -0.19637E+07         0.00000E+00
    0.00000E+00         0.00000E+00        -0.18796E+08
 
   -0.18705E+08         0.11740E+05         0.00000E+00
    0.11740E+05        -0.19504E+07         0.00000E+00
    0.00000E+00         0.00000E+00        -0.18780E+08
 
   -0.18699E+08         0.20062E+05         0.00000E+00
    0.20062E+05        -0.19397E+07         0.00000E+00
    0.00000E+00         0.00000E+00        -0.18764E+08
 
   -0.18690E+08         0.28641E+05         0.00000E+00
    0.28641E+05        -0.19320E+07         0.00000E+00
    0.00000E+00         0.00000E+00        -0.18748E+08
 
   -0.18680E+08         0.37242E+05         0.00000E+00
    0.37242E+05        -0.19269E+07         0.00000E+00
    0.00000E+00         0.00000E+00        -0.18732E+08
 
   -0.18668E+08         0.45738E+05         0.00000E+00
    0.45738E+05        -0.19239E+07         0.00000E+00
    0.00000E+00         0.00000E+00        -0.18716E+08
 
   -0.18655E+08         0.54080E+05         0.00000E+00
    0.54080E+05        -0.19226E+07         0.00000E+00
    0.00000E+00         0.00000E+00        -0.18701E+08
 
   -0.18641E+08         0.62246E+05         0.00000E+00
    0.62246E+05        -0.19223E+07         0.00000E+00
    0.00000E+00         0.00000E+00        -0.18685E+08
 
   -0.18628E+08         0.70218E+05         0.00000E+00
    0.70218E+05        -0.19229E+07         0.00000E+00
    0.00000E+00         0.00000E+00        -0.18670E+08
 
   -0.18613E+08         0.77986E+05         0.00000E+00
    0.77986E+05        -0.19240E+07         0.00000E+00
    0.00000E+00         0.00000E+00        -0.18655E+08
 
   -0.18599E+08         0.85545E+05         0.00000E+00
    0.85545E+05        -0.19253E+07         0.00000E+00
    0.00000E+00         0.00000E+00        -0.18639E+08
 
   -0.18584E+08         0.92894E+05         0.00000E+00
    0.92894E+05        -0.19267E+07         0.00000E+00
    0.00000E+00         0.00000E+00        -0.18623E+08
 
   -0.18568E+08         0.10004E+06         0.00000E+00
    0.10004E+06        -0.19282E+07         0.00000E+00
    0.00000E+00         0.00000E+00        -0.18607E+08
 
   -0.18553E+08         0.10699E+06         0.00000E+00
    0.10699E+06        -0.19296E+07         0.00000E+00
    0.00000E+00         0.00000E+00        -0.18590E+08
 
   -0.18536E+08         0.11376E+06         0.00000E+00
    0.11376E+06        -0.19309E+07         0.00000E+00
    0.00000E+00         0.00000E+00        -0.18573E+08
 
   -0.18519E+08         0.12037E+06         0.00000E+00
    0.12037E+06        -0.19321E+07         0.00000E+00
    0.00000E+00         0.00000E+00        -0.18556E+08
 
   -0.18502E+08         0.12684E+06         0.00000E+00
    0.12684E+06        -0.19331E+07         0.00000E+00
    0.00000E+00         0.00000E+00        -0.18538E+08
 
   -0.18484E+08         0.13318E+06         0.00000E+00
    0.13318E+06        -0.19340E+07         0.00000E+00
    0.00000E+00         0.00000E+00        -0.18520E+08
 
   -0.18466E+08         0.13941E+06         0.00000E+00
    0.13941E+06        -0.19347E+07         0.00000E+00
    0.00000E+00         0.00000E+00        -0.18501E+08
 
   -0.18447E+08         0.14556E+06         0.00000E+00
    0.14556E+06        -0.19353E+07         0.00000E+00
    0.00000E+00         0.00000E+00        -0.18482E+08
 
   -0.18427E+08         0.15164E+06         0.00000E+00
    0.15164E+06        -0.19358E+07         0.00000E+00
    0.00000E+00         0.00000E+00        -0.18462E+08
 
   -0.18407E+08         0.15767E+06         0.00000E+00
    0.15767E+06        -0.19361E+07         0.00000E+00
    0.00000E+00         0.00000E+00        -0.18442E+08
 
   -0.18386E+08         0.16368E+06         0.00000E+00
    0.16368E+06        -0.19364E+07         0.00000E+00
    0.00000E+00         0.00000E+00        -0.18421E+08
 
   -0.18364E+08         0.16967E+06         0.00000E+00
    0.16967E+06        -0.19365E+07         0.00000E+00
    0.00000E+00         0.00000E+00        -0.18399E+08
 
   -0.18342E+08         0.17567E+06         0.00000E+00
    0.17567E+06        -0.19366E+07         0.00000E+00
    0.00000E+00         0.00000E+00        -0.18377E+08
 
   -0.18318E+08         0.18168E+06         0.00000E+00
    0.18168E+06        -0.19366E+07         0.00000E+00
    0.00000E+00         0.00000E+00        -0.18355E+08
 
   -0.18295E+08         0.18773E+06         0.00000E+00
    0.18773E+06        -0.19365E+07         0.00000E+00
    0.00000E+00         0.00000E+00        -0.18331E+08
 
   -0.18270E+08         0.19382E+06         0.00000E+00
    0.19382E+06        -0.19364E+07         0.00000E+00
    0.00000E+00         0.00000E+00        -0.18307E+08
 
   -0.18245E+08         0.19997E+06         0.00000E+00
    0.19997E+06        -0.19363E+07         0.00000E+00
    0.00000E+00         0.00000E+00        -0.18283E+08
 
   -0.18219E+08         0.20618E+06         0.00000E+00
    0.20618E+06        -0.19361E+07         0.00000E+00
    0.00000E+00         0.00000E+00        -0.18257E+08
 
   -0.18192E+08         0.21247E+06         0.00000E+00
    0.21247E+06        -0.19358E+07         0.00000E+00
    0.00000E+00         0.00000E+00        -0.18231E+08
 
   -0.18165E+08         0.21884E+06         0.00000E+00
    0.21884E+06        -0.19355E+07         0.00000E+00
    0.00000E+00         0.00000E+00        -0.18204E+08
 
   -0.18136E+08         0.22530E+06         0.00000E+00
    0.22530E+06        -0.19352E+07         0.00000E+00
    0.00000E+00         0.00000E+00        -0.18176E+08
 
   -0.18107E+08         0.23185E+06         0.00000E+00
    0.23185E+06        -0.19349E+07         0.00000E+00
    0.00000E+00         0.00000E+00        -0.18148E+08
 
   -0.18077E+08         0.23850E+06         0.00000E+00
    0.23850E+06        -0.19346E+07         0.00000E+00
    0.00000E+00         0.00000E+00        -0.18119E+08
 
   -0.18046E+08         0.24525E+06         0.00000E+00
    0.24525E+06        -0.19342E+07         0.00000E+00
    0.00000E+00         0.00000E+00        -0.18088E+08
 
   -0.18014E+08         0.25211E+06         0.00000E+00
    0.25211E+06        -0.19339E+07         0.00000E+00
    0.00000E+00         0.00000E+00        -0.18057E+08
 
   -0.17982E+08         0.25908E+06         0.00000E+00
    0.25908E+06        -0.19335E+07         0.00000E+00
    0.00000E+00         0.00000E+00        -0.18025E+08
 
   -0.17948E+08         0.26616E+06         0.00000E+00
    0.26616E+06        -0.19332E+07         0.00000E+00
    0.00000E+00         0.00000E+00        -0.17993E+08
 
   -0.17913E+08         0.27335E+06         0.00000E+00
    0.27335E+06        -0.19328E+07         0.00000E+00
    0.00000E+00         0.00000E+00        -0.17959E+08
 
   -0.17878E+08         0.28064E+06         0.00000E+00
    0.28064E+06        -0.19324E+07         0.00000E+00
    0.00000E+00         0.00000E+00        -0.17924E+08
 
   -0.17841E+08         0.28804E+06         0.00000E+00
    0.28804E+06        -0.19321E+07         0.00000E+00
    0.00000E+00         0.00000E+00        -0.17888E+08
 
   -0.17804E+08         0.29555E+06         0.00000E+00
    0.29555E+06        -0.19318E+07         0.00000E+00
    0.00000E+00         0.00000E+00        -0.17851E+08
 
   -0.17765E+08         0.30316E+06         0.00000E+00
    0.30316E+06        -0.19314E+07         0.00000E+00
    0.00000E+00         0.00000E+00        -0.17814E+08
 
   -0.17726E+08         0.31086E+06         0.00000E+00
    0.31086E+06        -0.19311E+07         0.00000E+00
    0.00000E+00         0.00000E+00        -0.17775E+08
 
   -0.17685E+08         0.31866E+06         0.00000E+00
    0.31866E+06        -0.19309E+07         0.00000E+00
    0.00000E+00         0.00000E+00        -0.17735E+08
 
   -0.17643E+08         0.32654E+06         0.00000E+00
    0.32654E+06        -0.19306E+07         0.00000E+00
    0.00000E+00         0.00000E+00        -0.17693E+08
 
   -0.17600E+08         0.33450E+06         0.00000E+00
    0.33450E+06        -0.19304E+07         0.00000E+00
    0.00000E+00         0.00000E+00        -0.17651E+08
 
   -0.17556E+08         0.34253E+06         0.00000E+00
    0.34253E+06        -0.19302E+07         0.00000E+00
    0.00000E+00         0.00000E+00        -0.17608E+08
 
   -0.17511E+08         0.35062E+06         0.00000E+00
    0.35062E+06        -0.19301E+07         0.00000E+00
    0.00000E+00         0.00000E+00        -0.17563E+08
 
   -0.17464E+08         0.35876E+06         0.00000E+00
    0.35876E+06        -0.19300E+07         0.00000E+00
    0.00000E+00         0.00000E+00        -0.17517E+08
 
   -0.17417E+08         0.36693E+06         0.00000E+00
    0.36693E+06        -0.19300E+07         0.00000E+00
    0.00000E+00         0.00000E+00        -0.17470E+08
 
   -0.17368E+08         0.37513E+06         0.00000E+00
    0.37513E+06        -0.19300E+07         0.00000E+00
    0.00000E+00         0.00000E+00        -0.17421E+08
 
   -0.17318E+08         0.38334E+06         0.00000E+00
    0.38334E+06        -0.19301E+07         0.00000E+00
    0.00000E+00         0.00000E+00        -0.17372E+08
 
   -0.17267E+08         0.39154E+06         0.00000E+00
    0.39154E+06        -0.19303E+07         0.00000E+00
    0.00000E+00         0.00000E+00        -0.17321E+08
 
   -0.17215E+08         0.39972E+06         0.00000E+00
    0.39972E+06        -0.19305E+07         0.00000E+00
    0.00000E+00         0.00000E+00        -0.17268E+08
 
   -0.17161E+08         0.40785E+06         0.00000E+00
    0.40785E+06        -0.19308E+07         0.00000E+00
    0.00000E+00         0.00000E+00        -0.17214E+08
 
   -0.17106E+08         0.41592E+06         0.00000E+00
    0.41592E+06        -0.19312E+07         0.00000E+00
    0.00000E+00         0.00000E+00        -0.17159E+08
 
   -0.17050E+08         0.42390E+06         0.00000E+00
    0.42390E+06        -0.19317E+07         0.00000E+00
    0.00000E+00         0.00000E+00        -0.17103E+08
 
   -0.16992E+08         0.43176E+06         0.00000E+00
    0.43176E+06        -0.19324E+07         0.00000E+00
    0.00000E+00         0.00000E+00        -0.17045E+08
 
   -0.16934E+08         0.43948E+06         0.00000E+00
    0.43948E+06        -0.19331E+07         0.00000E+00
    0.00000E+00         0.00000E+00        -0.16985E+08
 
   -0.16874E+08         0.44703E+06         0.00000E+00
    0.44703E+06        -0.19339E+07         0.00000E+00
    0.00000E+00         0.00000E+00        -0.16925E+08
 
   -0.16813E+08         0.45437E+06         0.00000E+00
    0.45437E+06        -0.19349E+07         0.00000E+00
    0.00000E+00         0.00000E+00        -0.16862E+08
 
   -0.16750E+08         0.46147E+06         0.00000E+00
    0.46147E+06        -0.19361E+07         0.00000E+00
    0.00000E+00         0.00000E+00        -0.16799E+08
 
   -0.16687E+08         0.46830E+06         0.00000E+00
    0.46830E+06        -0.19374E+07         0.00000E+00
    0.00000E+00         0.00000E+00        -0.16734E+08
 
   -0.16622E+08         0.47480E+06         0.00000E+00
    0.47480E+06        -0.19389E+07         0.00000E+00
    0.00000E+00         0.00000E+00        -0.16667E+08
 
   -0.16556E+08         0.48094E+06         0.00000E+00
    0.48094E+06        -0.19405E+07         0.00000E+00
    0.00000E+00         0.00000E+00        -0.16599E+08
 
   -0.16489E+08         0.48667E+06         0.00000E+00
    0.48667E+06        -0.19424E+07         0.00000E+00
    0.00000E+00         0.00000E+00        -0.16530E+08
 
   -0.16420E+08         0.49193E+06         0.00000E+00
    0.49193E+06        -0.19445E+07         0.00000E+00
    0.00000E+00         0.00000E+00        -0.16459E+08
 
   -0.16351E+08         0.49666E+06         0.00000E+00
    0.49666E+06        -0.19468E+07         0.00000E+00
    0.00000E+00         0.00000E+00        -0.16386E+08
 
   -0.16280E+08         0.50082E+06         0.00000E+00
    0.50082E+06        -0.19494E+07         0.00000E+00
    0.00000E+00         0.00000E+00        -0.16313E+08
 
   -0.16209E+08         0.50432E+06         0.00000E+00
    0.50432E+06        -0.19523E+07         0.00000E+00
    0.00000E+00         0.00000E+00        -0.16237E+08
 
   -0.16136E+08         0.50710E+06         0.00000E+00
    0.50710E+06        -0.19556E+07         0.00000E+00
    0.00000E+00         0.00000E+00        -0.16161E+08
 
   -0.16063E+08         0.50908E+06         0.00000E+00
    0.50908E+06        -0.19591E+07         0.00000E+00
    0.00000E+00         0.00000E+00        -0.16083E+08
 
   -0.15989E+08         0.51018E+06         0.00000E+00
    0.51018E+06        -0.19631E+07         0.00000E+00
    0.00000E+00         0.00000E+00        -0.16004E+08
 
   -0.15914E+08         0.51030E+06         0.00000E+00
    0.51030E+06        -0.19676E+07         0.00000E+00
    0.00000E+00         0.00000E+00        -0.15924E+08
 
   -0.15838E+08         0.50937E+06         0.00000E+00
    0.50937E+06        -0.19725E+07         0.00000E+00
    0.00000E+00         0.00000E+00        -0.15842E+08
 
   -0.15762E+08         0.50726E+06         0.00000E+00
    0.50726E+06        -0.19780E+07         0.00000E+00
    0.00000E+00         0.00000E+00        -0.15759E+08
 
   -0.15685E+08         0.50389E+06         0.00000E+00
    0.50389E+06        -0.19841E+07         0.00000E+00
    0.00000E+00         0.00000E+00        -0.15675E+08
 
   -0.15607E+08         0.49913E+06         0.00000E+00
    0.49913E+06        -0.19908E+07         0.00000E+00
    0.00000E+00         0.00000E+00        -0.15591E+08
 
   -0.15530E+08         0.49288E+06         0.00000E+00
    0.49288E+06        -0.19983E+07         0.00000E+00
    0.00000E+00         0.00000E+00        -0.15505E+08
 
   -0.15451E+08         0.48502E+06         0.00000E+00
    0.48502E+06        -0.20066E+07         0.00000E+00
    0.00000E+00         0.00000E+00        -0.15418E+08
 
   -0.15373E+08         0.47542E+06         0.00000E+00
    0.47542E+06        -0.20158E+07         0.00000E+00
    0.00000E+00         0.00000E+00        -0.15330E+08
 
   -0.15294E+08         0.46397E+06         0.00000E+00
    0.46397E+06        -0.20258E+07         0.00000E+00
    0.00000E+00         0.00000E+00        -0.15241E+08
 
   -0.15215E+08         0.45056E+06         0.00000E+00
    0.45056E+06        -0.20367E+07         0.00000E+00
    0.00000E+00         0.00000E+00        -0.15152E+08
 
   -0.15135E+08         0.43508E+06         0.00000E+00
    0.43508E+06        -0.20484E+07         0.00000E+00
    0.00000E+00         0.00000E+00        -0.15062E+08
 
   -0.15056E+08         0.41745E+06         0.00000E+00
    0.41745E+06        -0.20608E+07         0.00000E+00
    0.00000E+00         0.00000E+00        -0.14971E+08
 
   -0.14975E+08         0.39758E+06         0.00000E+00
    0.39758E+06        -0.20737E+07         0.00000E+00
    0.00000E+00         0.00000E+00        -0.14879E+08
 
   -0.14895E+08         0.37543E+06         0.00000E+00
    0.37543E+06        -0.20868E+07         0.00000E+00
    0.00000E+00         0.00000E+00        -0.14786E+08
 
   -0.14814E+08         0.35098E+06         0.00000E+00
    0.35098E+06        -0.20995E+07         0.00000E+00
    0.00000E+00         0.00000E+00        -0.14693E+08
 
   -0.14733E+08         0.32425E+06         0.00000E+00
    0.32425E+06        -0.21110E+07         0.00000E+00
    0.00000E+00         0.00000E+00        -0.14598E+08
 
   -0.14651E+08         0.29529E+06         0.00000E+00
    0.29529E+06        -0.21202E+07         0.00000E+00
    0.00000E+00         0.00000E+00        -0.14502E+08
 
   -0.14569E+08         0.26421E+06         0.00000E+00
    0.26421E+06        -0.21256E+07         0.00000E+00
    0.00000E+00         0.00000E+00        -0.14404E+08
 
   -0.14489E+08         0.23116E+06         0.00000E+00
    0.23116E+06        -0.21251E+07         0.00000E+00
    0.00000E+00         0.00000E+00        -0.14304E+08
 
   -0.14410E+08         0.19633E+06         0.00000E+00
    0.19633E+06        -0.21162E+07         0.00000E+00
    0.00000E+00         0.00000E+00        -0.14201E+08
 
   -0.14334E+08         0.15996E+06         0.00000E+00
    0.15996E+06        -0.20957E+07         0.00000E+00
    0.00000E+00         0.00000E+00        -0.14096E+08
 
   -0.14266E+08         0.12249E+06         0.00000E+00
    0.12249E+06        -0.20598E+07         0.00000E+00
    0.00000E+00         0.00000E+00        -0.13988E+08
 
   -0.14210E+08         0.84881E+05         0.00000E+00
    0.84881E+05        -0.20049E+07         0.00000E+00
    0.00000E+00         0.00000E+00        -0.13877E+08
 
   -0.14169E+08         0.48895E+05         0.00000E+00
    0.48895E+05        -0.19295E+07         0.00000E+00
    0.00000E+00         0.00000E+00        -0.13765E+08
 
   -0.14148E+08         0.15785E+05         0.00000E+00
    0.15785E+05        -0.18351E+07         0.00000E+00
    0.00000E+00         0.00000E+00        -0.13653E+08
 
   -0.18702E+08         0.35288E+04         0.00000E+00
    0.35288E+04        -0.19652E+07         0.00000E+00
    0.00000E+00         0.00000E+00        -0.18794E+08
 
   -0.18699E+08         0.10816E+05         0.00000E+00
    0.10816E+05        -0.19519E+07         0.00000E+00
    0.00000E+00         0.00000E+00        -0.18778E+08
 
   -0.18693E+08         0.18579E+05         0.00000E+00
    0.18579E+05        -0.19414E+07         0.00000E+00
    0.00000E+00         0.00000E+00        -0.18762E+08
 
   -0.18685E+08         0.26715E+05         0.00000E+00
    0.26715E+05        -0.19336E+07         0.00000E+00
    0.00000E+00         0.00000E+00        -0.18747E+08
 
   -0.18674E+08         0.35002E+05         0.00000E+00
    0.35002E+05        -0.19286E+07         0.00000E+00
    0.00000E+00         0.00000E+00        -0.18731E+08
 
   -0.18663E+08         0.43286E+05         0.00000E+00
    0.43286E+05        -0.19256E+07         0.00000E+00
    0.00000E+00         0.00000E+00        -0.18715E+08
 
   -0.18650E+08         0.51483E+05         0.00000E+00
    0.51483E+05        -0.19242E+07         0.00000E+00
    0.00000E+00         0.00000E+00        -0.18700E+08
 
   -0.18637E+08         0.59541E+05         0.00000E+00
    0.59541E+05        -0.19239E+07         0.00000E+00
    0.00000E+00         0.00000E+00        -0.18685E+08
 
   -0.18623E+08         0.67427E+05         0.00000E+00
    0.67427E+05        -0.19245E+07         0.00000E+00
    0.00000E+00         0.00000E+00        -0.18669E+08
 
   -0.18609E+08         0.75117E+05         0.00000E+00
    0.75117E+05        -0.19255E+07         0.00000E+00
    0.00000E+00         0.00000E+00        -0.18654E+08
 
   -0.18595E+08         0.82598E+05         0.00000E+00
    0.82598E+05        -0.19268E+07         0.00000E+00
    0.00000E+00         0.00000E+00        -0.18638E+08
 
   -0.18580E+08         0.89867E+05         0.00000E+00
    0.89867E+05        -0.19282E+07         0.00000E+00
    0.00000E+00         0.00000E+00        -0.18622E+08
 
   -0.18565E+08         0.96926E+05         0.00000E+00
    0.96926E+05        -0.19296E+07         0.00000E+00
    0.00000E+00         0.00000E+00        -0.18606E+08
 
   -0.18549E+08         0.10379E+06         0.00000E+00
    0.10379E+06        -0.19310E+07         0.00000E+00
    0.00000E+00         0.00000E+00        -0.18590E+08
 
   -0.18533E+08         0.11046E+06         0.00000E+00
    0.11046E+06        -0.19322E+07         0.00000E+00
    0.00000E+00         0.00000E+00        -0.18573E+08
 
   -0.18516E+08         0.11696E+06         0.00000E+00
    0.11696E+06        -0.19334E+07         0.00000E+00
    0.00000E+00         0.00000E+00        -0.18555E+08
 
   -0.18499E+08         0.12332E+06         0.00000E+00
    0.12332E+06        -0.19344E+07         0.00000E+00
    0.00000E+00         0.00000E+00        -0.18538E+08
 
   -0.18481E+08         0.12954E+06         0.00000E+00
    0.12954E+06        -0.19352E+07         0.00000E+00
    0.00000E+00         0.00000E+00        -0.18519E+08
 
   -0.18462E+08         0.13566E+06         0.00000E+00
    0.13566E+06        -0.19359E+07         0.00000E+00
    0.00000E+00         0.00000E+00        -0.18501E+08
 
   -0.18443E+08         0.14168E+06         0.00000E+00
    0.14168E+06        -0.19365E+07         0.00000E+00
    0.00000E+00         0.00000E+00        -0.18481E+08
 
   -0.18424E+08         0.14763E+06         0.00000E+00
    0.14763E+06        -0.19370E+07         0.00000E+00
    0.00000E+00         0.00000E+00        -0.18462E+08
 
   -0.18403E+08         0.15354E+06         0.00000E+00
    0.15354E+06        -0.19373E+07         0.00000E+00
    0.00000E+00         0.00000E+00        -0.18441E+08
 
   -0.18382E+08         0.15941E+06         0.00000E+00
    0.15941E+06        -0.19376E+07         0.00000E+00
    0.00000E+00         0.00000E+00        -0.18420E+08
 
   -0.18361E+08         0.16527E+06         0.00000E+00
    0.16527E+06        -0.19377E+07         0.00000E+00
    0.00000E+00         0.00000E+00        -0.18399E+08
 
   -0.18338E+08         0.17113E+06         0.00000E+00
    0.17113E+06        -0.19378E+07         0.00000E+00
    0.00000E+00         0.00000E+00        -0.18377E+08
 
   -0.18315E+08         0.17700E+06         0.00000E+00
    0.17700E+06        -0.19378E+07         0.00000E+00
    0.00000E+00         0.00000E+00        -0.18354E+08
 
   -0.18291E+08         0.18290E+06         0.00000E+00
    0.18290E+06        -0.19377E+07         0.00000E+00
    0.00000E+00         0.00000E+00        -0.18331E+08
 
   -0.18267E+08         0.18885E+06         0.00000E+00
    0.18885E+06        -0.19376E+07         0.00000E+00
    0.00000E+00         0.00000E+00        -0.18307E+08
 
   -0.18242E+08         0.19484E+06         0.00000E+00
    0.19484E+06        -0.19375E+07         0.00000E+00
    0.00000E+00         0.00000E+00        -0.18282E+08
 
   -0.18216E+08         0.20090E+06         0.00000E+00
    0.20090E+06        -0.19373E+07         0.00000E+00
    0.00000E+00         0.00000E+00        -0.18256E+08
 
   -0.18189E+08         0.20703E+06         0.00000E+00
    0.20703E+06        -0.19371E+07         0.00000E+00
    0.00000E+00         0.00000E+00        -0.18230E+08
 
   -0.18161E+08         0.21324E+06         0.00000E+00
    0.21324E+06        -0.19368E+07         0.00000E+00
    0.00000E+00         0.00000E+00        -0.18203E+08
 
   -0.18133E+08         0.21953E+06         0.00000E+00
    0.21953E+06        -0.19365E+07         0.00000E+00
    0.00000E+00         0.00000E+00        -0.18176E+08
 
   -0.18103E+08         0.22592E+06         0.00000E+00
    0.22592E+06        -0.19362E+07         0.00000E+00
    0.00000E+00         0.00000E+00        -0.18147E+08
 
   -0.18073E+08         0.23240E+06         0.00000E+00
    0.23240E+06        -0.19359E+07         0.00000E+00
    0.00000E+00         0.00000E+00        -0.18118E+08
 
   -0.18042E+08         0.23898E+06         0.00000E+00
    0.23898E+06        -0.19356E+07         0.00000E+00
    0.00000E+00         0.00000E+00        -0.18088E+08
 
   -0.18010E+08         0.24566E+06         0.00000E+00
    0.24566E+06        -0.19352E+07         0.00000E+00
    0.00000E+00         0.00000E+00        -0.18057E+08
 
   -0.17978E+08         0.25244E+06         0.00000E+00
    0.25244E+06        -0.19349E+07         0.00000E+00
    0.00000E+00         0.00000E+00        -0.18025E+08
 
   -0.17944E+08         0.25933E+06         0.00000E+00
    0.25933E+06        -0.19346E+07         0.00000E+00
    0.00000E+00         0.00000E+00        -0.17992E+08
 
   -0.17909E+08         0.26632E+06         0.00000E+00
    0.26632E+06        -0.19342E+07         0.00000E+00
    0.00000E+00         0.00000E+00        -0.17958E+08
 
   -0.17874E+08         0.27342E+06         0.00000E+00
    0.27342E+06        -0.19339E+07         0.00000E+00
    0.00000E+00         0.00000E+00        -0.17923E+08
 
   -0.17837E+08         0.28063E+06         0.00000E+00
    0.28063E+06        -0.19336E+07         0.00000E+00
    0.00000E+00         0.00000E+00        -0.17887E+08
 
   -0.17799E+08         0.28793E+06         0.00000E+00
    0.28793E+06        -0.19332E+07         0.00000E+00
    0.00000E+00         0.00000E+00        -0.17851E+08
 
   -0.17761E+08         0.29533E+06         0.00000E+00
    0.29533E+06        -0.19329E+07         0.00000E+00
    0.00000E+00         0.00000E+00        -0.17813E+08
 
   -0.17721E+08         0.30282E+06         0.00000E+00
    0.30282E+06        -0.19327E+07         0.00000E+00
    0.00000E+00         0.00000E+00        -0.17774E+08
 
   -0.17680E+08         0.31040E+06         0.00000E+00
    0.31040E+06        -0.19324E+07         0.00000E+00
    0.00000E+00         0.00000E+00        -0.17734E+08
 
   -0.17638E+08         0.31806E+06         0.00000E+00
    0.31806E+06        -0.19322E+07         0.00000E+00
    0.00000E+00         0.00000E+00        -0.17693E+08
 
   -0.17595E+08         0.32580E+06         0.00000E+00
    0.32580E+06        -0.19320E+07         0.00000E+00
    0.00000E+00         0.00000E+00        -0.17650E+08
 
   -0.17551E+08         0.33360E+06         0.00000E+00
    0.33360E+06        -0.19318E+07         0.00000E+00
    0.00000E+00         0.00000E+00        -0.17607E+08
 
   -0.17506E+08         0.34146E+06         0.00000E+00
    0.34146E+06        -0.19317E+07         0.00000E+00
    0.00000E+00         0.00000E+00        -0.17562E+08
 
   -0.17460E+08         0.34936E+06         0.00000E+00
    0.34936E+06        -0.19316E+07         0.00000E+00
    0.00000E+00         0.00000E+00        -0.17516E+08
 
   -0.17412E+08         0.35730E+06         0.00000E+00
    0.35730E+06        -0.19316E+07         0.00000E+00
    0.00000E+00         0.00000E+00        -0.17469E+08
 
   -0.17363E+08         0.36526E+06         0.00000E+00
    0.36526E+06        -0.19316E+07         0.00000E+00
    0.00000E+00         0.00000E+00        -0.17420E+08
 
   -0.17313E+08         0.37323E+06         0.00000E+00
    0.37323E+06        -0.19317E+07         0.00000E+00
    0.00000E+00         0.00000E+00        -0.17371E+08
 
   -0.17262E+08         0.38118E+06         0.00000E+00
    0.38118E+06        -0.19319E+07         0.00000E+00
    0.00000E+00         0.00000E+00        -0.17319E+08
 
   -0.17210E+08         0.38911E+06         0.00000E+00
    0.38911E+06        -0.19321E+07         0.00000E+00
    0.00000E+00         0.00000E+00        -0.17267E+08
 
   -0.17156E+08         0.39700E+06         0.00000E+00
    0.39700E+06        -0.19324E+07         0.00000E+00
    0.00000E+00         0.00000E+00        -0.17213E+08
 
   -0.17101E+08         0.40482E+06         0.00000E+00
    0.40482E+06        -0.19328E+07         0.00000E+00
    0.00000E+00         0.00000E+00        -0.17158E+08
 
   -0.17045E+08         0.41254E+06         0.00000E+00
    0.41254E+06        -0.19333E+07         0.00000E+00
    0.00000E+00         0.00000E+00        -0.17102E+08
 
   -0.16988E+08         0.42016E+06         0.00000E+00
    0.42016E+06        -0.19339E+07         0.00000E+00
    0.00000E+00         0.00000E+00        -0.17044E+08
 
   -0.16929E+08         0.42763E+06         0.00000E+00
    0.42763E+06        -0.19346E+07         0.00000E+00
    0.00000E+00         0.00000E+00        -0.16984E+08
 
   -0.16869E+08         0.43493E+06         0.00000E+00
    0.43493E+06        -0.19354E+07         0.00000E+00
    0.00000E+00         0.00000E+00        -0.16924E+08
 
   -0.16808E+08         0.44202E+06         0.00000E+00
    0.44202E+06        -0.19364E+07         0.00000E+00
    0.00000E+00         0.00000E+00        -0.16861E+08
 
   -0.16746E+08         0.44888E+06         0.00000E+00
    0.44888E+06        -0.19374E+07         0.00000E+00
    0.00000E+00         0.00000E+00        -0.16798E+08
 
   -0.16682E+08         0.45546E+06         0.00000E+00
    0.45546E+06        -0.19387E+07         0.00000E+00
    0.00000E+00         0.00000E+00        -0.16733E+08
 
   -0.16617E+08         0.46173E+06         0.00000E+00
    0.46173E+06        -0.19401E+07         0.00000E+00
    0.00000E+00         0.00000E+00        -0.16666E+08
 
   -0.16552E+08         0.46764E+06         0.00000E+00
    0.46764E+06        -0.19417E+07         0.00000E+00
    0.00000E+00         0.00000E+00        -0.16598E+08
 
   -0.16485E+08         0.47314E+06         0.00000E+00
    0.47314E+06        -0.19435E+07         0.00000E+00
    0.00000E+00         0.00000E+00        -0.16529E+08
 
   -0.16417E+08         0.47817E+06         0.00000E+00
    0.47817E+06        -0.19455E+07         0.00000E+00
    0.00000E+00         0.00000E+00        -0.16458E+08
 
   -0.16347E+08         0.48270E+06         0.00000E+00
    0.48270E+06        -0.19477E+07         0.00000E+00
    0.00000E+00         0.00000E+00        -0.16386E+08
 
   -0.16277E+08         0.48665E+06         0.00000E+00
    0.48665E+06        -0.19502E+07         0.00000E+00
    0.00000E+00         0.00000E+00        -0.16312E+08
 
   -0.16206E+08         0.48996E+06         0.00000E+00
    0.48996E+06        -0.19529E+07         0.00000E+00
    0.00000E+00         0.00000E+00        -0.16237E+08
 
   -0.16134E+08         0.49255E+06         0.00000E+00
    0.49255E+06        -0.19560E+07         0.00000E+00
    0.00000E+00         0.00000E+00        -0.16160E+08
 
   -0.16061E+08         0.49436E+06         0.00000E+00
    0.49436E+06        -0.19594E+07         0.00000E+00
    0.00000E+00         0.00000E+00        -0.16083E+08
 
   -0.15987E+08         0.49530E+06         0.00000E+00
    0.49530E+06        -0.19632E+07         0.00000E+00
    0.00000E+00         0.00000E+00        -0.16004E+08
 
   -0.15913E+08         0.49528E+06         0.00000E+00
    0.49528E+06        -0.19675E+07         0.00000E+00
    0.00000E+00         0.00000E+00        -0.15923E+08
 
   -0.15837E+08         0.49422E+06         0.00000E+00
    0.49422E+06        -0.19722E+07         0.00000E+00
    0.00000E+00         0.00000E+00        -0.15842E+08
 
   -0.15762E+08         0.49200E+06         0.00000E+00
    0.49200E+06        -0.19774E+07         0.00000E+00
    0.00000E+00         0.00000E+00        -0.15759E+08
 
   -0.15685E+08         0.48852E+06         0.00000E+00
    0.48852E+06        -0.19833E+07         0.00000E+00
    0.00000E+00         0.00000E+00        -0.15675E+08
 
   -0.15609E+08         0.48368E+06         0.00000E+00
    0.48368E+06        -0.19897E+07         0.00000E+00
    0.00000E+00         0.00000E+00        -0.15591E+08
 
   -0.15532E+08         0.47735E+06         0.00000E+00
    0.47735E+06        -0.19969E+07         0.00000E+00
    0.00000E+00         0.00000E+00        -0.15505E+08
 
   -0.15454E+08         0.46942E+06         0.00000E+00
    0.46942E+06        -0.20049E+07         0.00000E+00
    0.00000E+00         0.00000E+00        -0.15418E+08
 
   -0.15376E+08         0.45976E+06         0.00000E+00
    0.45976E+06        -0.20137E+07         0.00000E+00
    0.00000E+00         0.00000E+00        -0.15330E+08
 
   -0.15299E+08         0.44827E+06         0.00000E+00
    0.44827E+06        -0.20233E+07         0.00000E+00
    0.00000E+00         0.00000E+00        -0.15242E+08
 
   -0.15220E+08         0.43481E+06         0.00000E+00
    0.43481E+06        -0.20338E+07         0.00000E+00
    0.00000E+00         0.00000E+00        -0.15153E+08
 
   -0.15142E+08         0.41928E+06         0.00000E+00
    0.41928E+06        -0.20451E+07         0.00000E+00
    0.00000E+00         0.00000E+00        -0.15063E+08
 
   -0.15064E+08         0.40159E+06         0.00000E+00
    0.40159E+06        -0.20571E+07         0.00000E+00
    0.00000E+00         0.00000E+00        -0.14972E+08
 
   -0.14985E+08         0.38165E+06         0.00000E+00
    0.38165E+06        -0.20695E+07         0.00000E+00
    0.00000E+00         0.00000E+00        -0.14881E+08
 
   -0.14906E+08         0.35943E+06         0.00000E+00
    0.35943E+06        -0.20822E+07         0.00000E+00
    0.00000E+00         0.00000E+00        -0.14788E+08
 
   -0.14826E+08         0.33491E+06         0.00000E+00
    0.33491E+06        -0.20944E+07         0.00000E+00
    0.00000E+00         0.00000E+00        -0.14695E+08
 
   -0.14747E+08         0.30811E+06         0.00000E+00
    0.30811E+06        -0.21054E+07         0.00000E+00
    0.00000E+00         0.00000E+00        -0.14600E+08
 
   -0.14667E+08         0.27913E+06         0.00000E+00
    0.27913E+06        -0.21142E+07         0.00000E+00
    0.00000E+00         0.00000E+00        -0.14505E+08
 
   -0.14587E+08         0.24813E+06         0.00000E+00
    0.24813E+06        -0.21192E+07         0.00000E+00
    0.00000E+00         0.00000E+00        -0.14407E+08
 
   -0.14509E+08         0.21534E+06         0.00000E+00
    0.21534E+06        -0.21184E+07         0.00000E+00
    0.00000E+00         0.00000E+00        -0.14308E+08
 
   -0.14432E+08         0.18107E+06         0.00000E+00
    0.18107E+06        -0.21092E+07         0.00000E+00
    0.00000E+00         0.00000E+00        -0.14206E+08
 
   -0.14360E+08         0.14578E+06         0.00000E+00
    0.14578E+06        -0.20884E+07         0.00000E+00
    0.00000E+00         0.00000E+00        -0.14101E+08
 
   -0.14295E+08         0.11012E+06         0.00000E+00
    0.11012E+06        -0.20524E+07         0.00000E+00
    0.00000E+00         0.00000E+00        -0.13994E+08
 
   -0.14241E+08         0.75267E+05         0.00000E+00
    0.75267E+05        -0.19978E+07         0.00000E+00
    0.00000E+00         0.00000E+00        -0.13885E+08
 
   -0.14203E+08         0.42874E+05         0.00000E+00
    0.42874E+05        -0.19230E+07         0.00000E+00
    0.00000E+00         0.00000E+00        -0.13773E+08
 
   -0.14183E+08         0.13755E+05         0.00000E+00
    0.13755E+05        -0.18292E+07         0.00000E+00
    0.00000E+00         0.00000E+00        -0.13662E+08
 
   -0.18695E+08         0.32334E+04         0.00000E+00
    0.32334E+04        -0.19666E+07         0.00000E+00
    0.00000E+00         0.00000E+00        -0.18793E+08
 
   -0.18693E+08         0.99372E+04         0.00000E+00
    0.99372E+04        -0.19534E+07         0.00000E+00
    0.00000E+00         0.00000E+00        -0.18777E+08
 
   -0.18687E+08         0.17164E+05         0.00000E+00
    0.17164E+05        -0.19429E+07         0.00000E+00
    0.00000E+00         0.00000E+00        -0.18761E+08
 
   -0.18679E+08         0.24864E+05         0.00000E+00
    0.24864E+05        -0.19353E+07         0.00000E+00
    0.00000E+00         0.00000E+00        -0.18745E+08
 
   -0.18669E+08         0.32834E+05         0.00000E+00
    0.32834E+05        -0.19302E+07         0.00000E+00
    0.00000E+00         0.00000E+00        -0.18730E+08
 
   -0.18658E+08         0.40897E+05         0.00000E+00
    0.40897E+05        -0.19272E+07         0.00000E+00
    0.00000E+00         0.00000E+00        -0.18714E+08
 
   -0.18646E+08         0.48940E+05         0.00000E+00
    0.48940E+05        -0.19258E+07         0.00000E+00
    0.00000E+00         0.00000E+00        -0.18699E+08
 
   -0.18633E+08         0.56884E+05         0.00000E+00
    0.56884E+05        -0.19255E+07         0.00000E+00
    0.00000E+00         0.00000E+00        -0.18684E+08
 
   -0.18619E+08         0.64677E+05         0.00000E+00
    0.64677E+05        -0.19260E+07         0.00000E+00
    0.00000E+00         0.00000E+00        -0.18668E+08
 
   -0.18605E+08         0.72283E+05         0.00000E+00
    0.72283E+05        -0.19270E+07         0.00000E+00
    0.00000E+00         0.00000E+00        -0.18653E+08
 
   -0.18591E+08         0.79681E+05         0.00000E+00
    0.79681E+05        -0.19282E+07         0.00000E+00
    0.00000E+00         0.00000E+00        -0.18637E+08
 
   -0.18576E+08         0.86864E+05         0.00000E+00
    0.86864E+05        -0.19296E+07         0.00000E+00
    0.00000E+00         0.00000E+00        -0.18622E+08
 
   -0.18561E+08         0.93834E+05         0.00000E+00
    0.93834E+05        -0.19310E+07         0.00000E+00
    0.00000E+00         0.00000E+00        -0.18605E+08
 
   -0.18546E+08         0.10060E+06         0.00000E+00
    0.10060E+06        -0.19323E+07         0.00000E+00
    0.00000E+00         0.00000E+00        -0.18589E+08
 
   -0.18529E+08         0.10717E+06         0.00000E+00
    0.10717E+06        -0.19335E+07         0.00000E+00
    0.00000E+00         0.00000E+00        -0.18572E+08
 
   -0.18513E+08         0.11357E+06         0.00000E+00
    0.11357E+06        -0.19347E+07         0.00000E+00
    0.00000E+00         0.00000E+00        -0.18555E+08
 
   -0.18496E+08         0.11981E+06         0.00000E+00
    0.11981E+06        -0.19356E+07         0.00000E+00
    0.00000E+00         0.00000E+00        -0.18537E+08
 
   -0.18478E+08         0.12591E+06         0.00000E+00
    0.12591E+06        -0.19364E+07         0.00000E+00
    0.00000E+00         0.00000E+00        -0.18519E+08
 
   -0.18459E+08         0.13190E+06         0.00000E+00
    0.13190E+06        -0.19371E+07         0.00000E+00
    0.00000E+00         0.00000E+00        -0.18500E+08
 
   -0.18440E+08         0.13780E+06         0.00000E+00
    0.13780E+06        -0.19377E+07         0.00000E+00
    0.00000E+00         0.00000E+00        -0.18481E+08
 
   -0.18420E+08         0.14363E+06         0.00000E+00
    0.14363E+06        -0.19381E+07         0.00000E+00
    0.00000E+00         0.00000E+00        -0.18461E+08
 
   -0.18400E+08         0.14940E+06         0.00000E+00
    0.14940E+06        -0.19385E+07         0.00000E+00
    0.00000E+00         0.00000E+00        -0.18441E+08
 
   -0.18379E+08         0.15514E+06         0.00000E+00
    0.15514E+06        -0.19387E+07         0.00000E+00
    0.00000E+00         0.00000E+00        -0.18420E+08
 
   -0.18357E+08         0.16086E+06         0.00000E+00
    0.16086E+06        -0.19389E+07         0.00000E+00
    0.00000E+00         0.00000E+00        -0.18398E+08
 
   -0.18335E+08         0.16658E+06         0.00000E+00
    0.16658E+06        -0.19389E+07         0.00000E+00
    0.00000E+00         0.00000E+00        -0.18376E+08
 
   -0.18312E+08         0.17231E+06         0.00000E+00
    0.17231E+06        -0.19390E+07         0.00000E+00
    0.00000E+00         0.00000E+00        -0.18353E+08
 
   -0.18288E+08         0.17807E+06         0.00000E+00
    0.17807E+06        -0.19389E+07         0.00000E+00
    0.00000E+00         0.00000E+00        -0.18330E+08
 
   -0.18263E+08         0.18386E+06         0.00000E+00
    0.18386E+06        -0.19388E+07         0.00000E+00
    0.00000E+00         0.00000E+00        -0.18306E+08
 
   -0.18238E+08         0.18971E+06         0.00000E+00
    0.18971E+06        -0.19387E+07         0.00000E+00
    0.00000E+00         0.00000E+00        -0.18281E+08
 
   -0.18212E+08         0.19561E+06         0.00000E+00
    0.19561E+06        -0.19385E+07         0.00000E+00
    0.00000E+00         0.00000E+00        -0.18256E+08
 
   -0.18185E+08         0.20158E+06         0.00000E+00
    0.20158E+06        -0.19383E+07         0.00000E+00
    0.00000E+00         0.00000E+00        -0.18230E+08
 
   -0.18158E+08         0.20763E+06         0.00000E+00
    0.20763E+06        -0.19380E+07         0.00000E+00
    0.00000E+00         0.00000E+00        -0.18203E+08
 
   -0.18129E+08         0.21376E+06         0.00000E+00
    0.21376E+06        -0.19378E+07         0.00000E+00
    0.00000E+00         0.00000E+00        -0.18175E+08
 
   -0.18100E+08         0.21998E+06         0.00000E+00
    0.21998E+06        -0.19375E+07         0.00000E+00
    0.00000E+00         0.00000E+00        -0.18146E+08
 
   -0.18070E+08         0.22628E+06         0.00000E+00
    0.22628E+06        -0.19372E+07         0.00000E+00
    0.00000E+00         0.00000E+00        -0.18117E+08
 
   -0.18038E+08         0.23268E+06         0.00000E+00
    0.23268E+06        -0.19369E+07         0.00000E+00
    0.00000E+00         0.00000E+00        -0.18087E+08
 
   -0.18007E+08         0.23919E+06         0.00000E+00
    0.23919E+06        -0.19366E+07         0.00000E+00
    0.00000E+00         0.00000E+00        -0.18056E+08
 
   -0.17974E+08         0.24579E+06         0.00000E+00
    0.24579E+06        -0.19363E+07         0.00000E+00
    0.00000E+00         0.00000E+00        -0.18024E+08
 
   -0.17940E+08         0.25249E+06         0.00000E+00
    0.25249E+06        -0.19359E+07         0.00000E+00
    0.00000E+00         0.00000E+00        -0.17991E+08
 
   -0.17905E+08         0.25929E+06         0.00000E+00
    0.25929E+06        -0.19356E+07         0.00000E+00
    0.00000E+00         0.00000E+00        -0.17957E+08
 
   -0.17869E+08         0.26619E+06         0.00000E+00
    0.26619E+06        -0.19353E+07         0.00000E+00
    0.00000E+00         0.00000E+00        -0.17922E+08
 
   -0.17833E+08         0.27319E+06         0.00000E+00
    0.27319E+06        -0.19350E+07         0.00000E+00
    0.00000E+00         0.00000E+00        -0.17887E+08
 
   -0.17795E+08         0.28029E+06         0.00000E+00
    0.28029E+06        -0.19347E+07         0.00000E+00
    0.00000E+00         0.00000E+00        -0.17850E+08
 
   -0.17756E+08         0.28748E+06         0.00000E+00
    0.28748E+06        -0.19344E+07         0.00000E+00
    0.00000E+00         0.00000E+00        -0.17812E+08
 
   -0.17716E+08         0.29476E+06         0.00000E+00
    0.29476E+06        -0.19342E+07         0.00000E+00
    0.00000E+00         0.00000E+00        -0.17773E+08
 
   -0.17676E+08         0.30213E+06         0.00000E+00
    0.30213E+06        -0.19339E+07         0.00000E+00
    0.00000E+00         0.00000E+00        -0.17733E+08
 
   -0.17634E+08         0.30957E+06         0.00000E+00
    0.30957E+06        -0.19337E+07         0.00000E+00
    0.00000E+00         0.00000E+00        -0.17692E+08
 
   -0.17591E+08         0.31708E+06         0.00000E+00
    0.31708E+06        -0.19335E+07         0.00000E+00
    0.00000E+00         0.00000E+00        -0.17649E+08
 
   -0.17546E+08         0.32466E+06         0.00000E+00
    0.32466E+06        -0.19334E+07         0.00000E+00
    0.00000E+00         0.00000E+00        -0.17606E+08
 
   -0.17501E+08         0.33228E+06         0.00000E+00
    0.33228E+06        -0.19333E+07         0.00000E+00
    0.00000E+00         0.00000E+00        -0.17561E+08
 
   -0.17455E+08         0.33996E+06         0.00000E+00
    0.33996E+06        -0.19332E+07         0.00000E+00
    0.00000E+00         0.00000E+00        -0.17515E+08
 
   -0.17407E+08         0.34766E+06         0.00000E+00
    0.34766E+06        -0.19332E+07         0.00000E+00
    0.00000E+00         0.00000E+00        -0.17468E+08
 
   -0.17358E+08         0.35538E+06         0.00000E+00
    0.35538E+06        -0.19332E+07         0.00000E+00
    0.00000E+00         0.00000E+00        -0.17419E+08
 
   -0.17308E+08         0.36311E+06         0.00000E+00
    0.36311E+06        -0.19333E+07         0.00000E+00
    0.00000E+00         0.00000E+00        -0.17370E+08
 
   -0.17257E+08         0.37082E+06         0.00000E+00
    0.37082E+06        -0.19334E+07         0.00000E+00
    0.00000E+00         0.00000E+00        -0.17318E+08
 
   -0.17205E+08         0.37851E+06         0.00000E+00
    0.37851E+06        -0.19337E+07         0.00000E+00
    0.00000E+00         0.00000E+00        -0.17266E+08
 
   -0.17151E+08         0.38615E+06         0.00000E+00
    0.38615E+06        -0.19340E+07         0.00000E+00
    0.00000E+00         0.00000E+00        -0.17212E+08
 
   -0.17096E+08         0.39372E+06         0.00000E+00
    0.39372E+06        -0.19343E+07         0.00000E+00
    0.00000E+00         0.00000E+00        -0.17157E+08
 
   -0.17040E+08         0.40120E+06         0.00000E+00
    0.40120E+06        -0.19348E+07         0.00000E+00
    0.00000E+00         0.00000E+00        -0.17101E+08
 
   -0.16983E+08         0.40856E+06         0.00000E+00
    0.40856E+06        -0.19354E+07         0.00000E+00
    0.00000E+00         0.00000E+00        -0.17043E+08
 
   -0.16924E+08         0.41579E+06         0.00000E+00
    0.41579E+06        -0.19360E+07         0.00000E+00
    0.00000E+00         0.00000E+00        -0.16983E+08
 
   -0.16864E+08         0.42284E+06         0.00000E+00
    0.42284E+06        -0.19368E+07         0.00000E+00
    0.00000E+00         0.00000E+00        -0.16923E+08
 
   -0.16803E+08         0.42969E+06         0.00000E+00
    0.42969E+06        -0.19377E+07         0.00000E+00
    0.00000E+00         0.00000E+00        -0.16860E+08
 
   -0.16741E+08         0.43631E+06         0.00000E+00
    0.43631E+06        -0.19388E+07         0.00000E+00
    0.00000E+00         0.00000E+00        -0.16797E+08
 
   -0.16678E+08         0.44266E+06         0.00000E+00
    0.44266E+06        -0.19400E+07         0.00000E+00
    0.00000E+00         0.00000E+00        -0.16732E+08
 
   -0.16613E+08         0.44869E+06         0.00000E+00
    0.44869E+06        -0.19413E+07         0.00000E+00
    0.00000E+00         0.00000E+00        -0.16665E+08
 
   -0.16548E+08         0.45437E+06         0.00000E+00
    0.45437E+06        -0.19428E+07         0.00000E+00
    0.00000E+00         0.00000E+00        -0.16597E+08
 
   -0.16481E+08         0.45964E+06         0.00000E+00
    0.45964E+06        -0.19445E+07         0.00000E+00
    0.00000E+00         0.00000E+00        -0.16528E+08
 
   -0.16413E+08         0.46447E+06         0.00000E+00
    0.46447E+06        -0.19464E+07         0.00000E+00
    0.00000E+00         0.00000E+00        -0.16457E+08
 
   -0.16344E+08         0.46879E+06         0.00000E+00
    0.46879E+06        -0.19485E+07         0.00000E+00
    0.00000E+00         0.00000E+00        -0.16385E+08
 
   -0.16274E+08         0.47254E+06         0.00000E+00
    0.47254E+06        -0.19509E+07         0.00000E+00
    0.00000E+00         0.00000E+00        -0.16311E+08
 
   -0.16203E+08         0.47566E+06         0.00000E+00
    0.47566E+06        -0.19535E+07         0.00000E+00
    0.00000E+00         0.00000E+00        -0.16236E+08
 
   -0.16131E+08         0.47808E+06         0.00000E+00
    0.47808E+06        -0.19564E+07         0.00000E+00
    0.00000E+00         0.00000E+00        -0.16160E+08
 
   -0.16059E+08         0.47972E+06         0.00000E+00
    0.47972E+06        -0.19597E+07         0.00000E+00
    0.00000E+00         0.00000E+00        -0.16082E+08
 
   -0.15985E+08         0.48051E+06         0.00000E+00
    0.48051E+06        -0.19633E+07         0.00000E+00
    0.00000E+00         0.00000E+00        -0.16003E+08
 
   -0.15911E+08         0.48036E+06         0.00000E+00
    0.48036E+06        -0.19674E+07         0.00000E+00
    0.00000E+00         0.00000E+00        -0.15923E+08
 
   -0.15837E+08         0.47917E+06         0.00000E+00
    0.47917E+06        -0.19719E+07         0.00000E+00
    0.00000E+00         0.00000E+00        -0.15841E+08
 
   -0.15762E+08         0.47685E+06         0.00000E+00
    0.47685E+06        -0.19769E+07         0.00000E+00
    0.00000E+00         0.00000E+00        -0.15759E+08
 
   -0.15686E+08         0.47328E+06         0.00000E+00
    0.47328E+06        -0.19824E+07         0.00000E+00
    0.00000E+00         0.00000E+00        -0.15675E+08
 
   -0.15610E+08         0.46836E+06         0.00000E+00
    0.46836E+06        -0.19886E+07         0.00000E+00
    0.00000E+00         0.00000E+00        -0.15591E+08
 
   -0.15533E+08         0.46197E+06         0.00000E+00
    0.46197E+06        -0.19955E+07         0.00000E+00
    0.00000E+00         0.00000E+00        -0.15505E+08
 
   -0.15457E+08         0.45399E+06         0.00000E+00
    0.45399E+06        -0.20031E+07         0.00000E+00
    0.00000E+00         0.00000E+00        -0.15418E+08
 
   -0.15380E+08         0.44430E+06         0.00000E+00
    0.44430E+06        -0.20115E+07         0.00000E+00
    0.00000E+00         0.00000E+00        -0.15331E+08
 
   -0.15303E+08         0.43276E+06         0.00000E+00
    0.43276E+06        -0.20208E+07         0.00000E+00
    0.00000E+00         0.00000E+00        -0.15243E+08
 
   -0.15226E+08         0.41927E+06         0.00000E+00
    0.41927E+06        -0.20309E+07         0.00000E+00
    0.00000E+00         0.00000E+00        -0.15154E+08
 
   -0.15149E+08         0.40371E+06         0.00000E+00
    0.40371E+06        -0.20417E+07         0.00000E+00
    0.00000E+00         0.00000E+00        -0.15064E+08
 
   -0.15072E+08         0.38598E+06         0.00000E+00
    0.38598E+06        -0.20533E+07         0.00000E+00
    0.00000E+00         0.00000E+00        -0.14973E+08
 
   -0.14994E+08         0.36600E+06         0.00000E+00
    0.36600E+06        -0.20653E+07         0.00000E+00
    0.00000E+00         0.00000E+00        -0.14882E+08
 
   -0.14916E+08         0.34373E+06         0.00000E+00
    0.34373E+06        -0.20775E+07         0.00000E+00
    0.00000E+00         0.00000E+00        -0.14790E+08
 
   -0.14839E+08         0.31915E+06         0.00000E+00
    0.31915E+06        -0.20892E+07         0.00000E+00
    0.00000E+00         0.00000E+00        -0.14697E+08
 
   -0.14761E+08         0.29233E+06         0.00000E+00
    0.29233E+06        -0.20999E+07         0.00000E+00
    0.00000E+00         0.00000E+00        -0.14603E+08
 
   -0.14683E+08         0.26336E+06         0.00000E+00
    0.26336E+06        -0.21082E+07         0.00000E+00
    0.00000E+00         0.00000E+00        -0.14508E+08
 
   -0.14605E+08         0.23247E+06         0.00000E+00
    0.23247E+06        -0.21128E+07         0.00000E+00
    0.00000E+00         0.00000E+00        -0.14411E+08
 
   -0.14529E+08         0.19998E+06         0.00000E+00
    0.19998E+06        -0.21117E+07         0.00000E+00
    0.00000E+00         0.00000E+00        -0.14312E+08
 
   -0.14455E+08         0.16633E+06         0.00000E+00
    0.16633E+06        -0.21023E+07         0.00000E+00
    0.00000E+00         0.00000E+00        -0.14211E+08
 
   -0.14385E+08         0.13215E+06         0.00000E+00
    0.13215E+06        -0.20814E+07         0.00000E+00
    0.00000E+00         0.00000E+00        -0.14107E+08
 
   -0.14323E+08         0.98323E+05         0.00000E+00
    0.98323E+05        -0.20455E+07         0.00000E+00
    0.00000E+00         0.00000E+00        -0.14001E+08
 
   -0.14271E+08         0.66169E+05         0.00000E+00
    0.66169E+05        -0.19913E+07         0.00000E+00
    0.00000E+00         0.00000E+00        -0.13892E+08
 
   -0.14235E+08         0.37198E+05         0.00000E+00
    0.37198E+05        -0.19172E+07         0.00000E+00
    0.00000E+00         0.00000E+00        -0.13782E+08
 
   -0.14217E+08         0.11843E+05         0.00000E+00
    0.11843E+05        -0.18240E+07         0.00000E+00
    0.00000E+00         0.00000E+00        -0.13671E+08
 
   -0.18689E+08         0.29509E+04         0.00000E+00
    0.29509E+04        -0.19678E+07         0.00000E+00
    0.00000E+00         0.00000E+00        -0.18791E+08
 
   -0.18686E+08         0.90974E+04         0.00000E+00
    0.90974E+04        -0.19547E+07         0.00000E+00
    0.00000E+00         0.00000E+00        -0.18775E+08
 
   -0.18681E+08         0.15809E+05         0.00000E+00
    0.15809E+05        -0.19444E+07         0.00000E+00
    0.00000E+00         0.00000E+00        -0.18760E+08
 
   -0.18673E+08         0.23081E+05         0.00000E+00
    0.23081E+05        -0.19368E+07         0.00000E+00
    0.00000E+00         0.00000E+00        -0.18744E+08
 
   -0.18664E+08         0.30732E+05         0.00000E+00
    0.30732E+05        -0.19318E+07         0.00000E+00
    0.00000E+00         0.00000E+00        -0.18729E+08
 
   -0.18653E+08         0.38571E+05         0.00000E+00
    0.38571E+05        -0.19288E+07         0.00000E+00
    0.00000E+00         0.00000E+00        -0.18713E+08
 
   -0.18641E+08         0.46452E+05         0.00000E+00
    0.46452E+05        -0.19274E+07         0.00000E+00
    0.00000E+00         0.00000E+00        -0.18698E+08
 
   -0.18628E+08         0.54276E+05         0.00000E+00
    0.54276E+05        -0.19271E+07         0.00000E+00
    0.00000E+00         0.00000E+00        -0.18683E+08
 
   -0.18615E+08         0.61969E+05         0.00000E+00
    0.61969E+05        -0.19276E+07         0.00000E+00
    0.00000E+00         0.00000E+00        -0.18668E+08
 
   -0.18601E+08         0.69485E+05         0.00000E+00
    0.69485E+05        -0.19285E+07         0.00000E+00
    0.00000E+00         0.00000E+00        -0.18652E+08
 
   -0.18587E+08         0.76795E+05         0.00000E+00
    0.76795E+05        -0.19297E+07         0.00000E+00
    0.00000E+00         0.00000E+00        -0.18637E+08
 
   -0.18573E+08         0.83888E+05         0.00000E+00
    0.83888E+05        -0.19310E+07         0.00000E+00
    0.00000E+00         0.00000E+00        -0.18621E+08
 
   -0.18558E+08         0.90763E+05         0.00000E+00
    0.90763E+05        -0.19324E+07         0.00000E+00
    0.00000E+00         0.00000E+00        -0.18605E+08
 
   -0.18542E+08         0.97427E+05         0.00000E+00
    0.97427E+05        -0.19336E+07         0.00000E+00
    0.00000E+00         0.00000E+00        -0.18588E+08
 
   -0.18526E+08         0.10389E+06         0.00000E+00
    0.10389E+06        -0.19348E+07         0.00000E+00
    0.00000E+00         0.00000E+00        -0.18571E+08
 
   -0.18509E+08         0.11018E+06         0.00000E+00
    0.11018E+06        -0.19359E+07         0.00000E+00
    0.00000E+00         0.00000E+00        -0.18554E+08
 
   -0.18492E+08         0.11630E+06         0.00000E+00
    0.11630E+06        -0.19368E+07         0.00000E+00
    0.00000E+00         0.00000E+00        -0.18536E+08
 
   -0.18475E+08         0.12229E+06         0.00000E+00
    0.12229E+06        -0.19376E+07         0.00000E+00
    0.00000E+00         0.00000E+00        -0.18518E+08
 
   -0.18456E+08         0.12816E+06         0.00000E+00
    0.12816E+06        -0.19383E+07         0.00000E+00
    0.00000E+00         0.00000E+00        -0.18499E+08
 
   -0.18437E+08         0.13393E+06         0.00000E+00
    0.13393E+06        -0.19389E+07         0.00000E+00
    0.00000E+00         0.00000E+00        -0.18480E+08
 
   -0.18417E+08         0.13962E+06         0.00000E+00
    0.13962E+06        -0.19393E+07         0.00000E+00
    0.00000E+00         0.00000E+00        -0.18460E+08
 
   -0.18397E+08         0.14526E+06         0.00000E+00
    0.14526E+06        -0.19396E+07         0.00000E+00
    0.00000E+00         0.00000E+00        -0.18440E+08
 
   -0.18376E+08         0.15087E+06         0.00000E+00
    0.15087E+06        -0.19398E+07         0.00000E+00
    0.00000E+00         0.00000E+00        -0.18419E+08
 
   -0.18354E+08         0.15645E+06         0.00000E+00
    0.15645E+06        -0.19400E+07         0.00000E+00
    0.00000E+00         0.00000E+00        -0.18398E+08
 
   -0.18332E+08         0.16202E+06         0.00000E+00
    0.16202E+06        -0.19401E+07         0.00000E+00
    0.00000E+00         0.00000E+00        -0.18375E+08
 
   -0.18309E+08         0.16761E+06         0.00000E+00
    0.16761E+06        -0.19401E+07         0.00000E+00
    0.00000E+00         0.00000E+00        -0.18353E+08
 
   -0.18285E+08         0.17322E+06         0.00000E+00
    0.17322E+06        -0.19401E+07         0.00000E+00
    0.00000E+00         0.00000E+00        -0.18329E+08
 
   -0.18260E+08         0.17887E+06         0.00000E+00
    0.17887E+06        -0.19400E+07         0.00000E+00
    0.00000E+00         0.00000E+00        -0.18305E+08
 
   -0.18235E+08         0.18456E+06         0.00000E+00
    0.18456E+06        -0.19398E+07         0.00000E+00
    0.00000E+00         0.00000E+00        -0.18281E+08
 
   -0.18209E+08         0.19031E+06         0.00000E+00
    0.19031E+06        -0.19397E+07         0.00000E+00
    0.00000E+00         0.00000E+00        -0.18255E+08
 
   -0.18182E+08         0.19612E+06         0.00000E+00
    0.19612E+06        -0.19395E+07         0.00000E+00
    0.00000E+00         0.00000E+00        -0.18229E+08
 
   -0.18154E+08         0.20201E+06         0.00000E+00
    0.20201E+06        -0.19392E+07         0.00000E+00
    0.00000E+00         0.00000E+00        -0.18202E+08
 
   -0.18125E+08         0.20797E+06         0.00000E+00
    0.20797E+06        -0.19390E+07         0.00000E+00
    0.00000E+00         0.00000E+00        -0.18174E+08
 
   -0.18096E+08         0.21402E+06         0.00000E+00
    0.21402E+06        -0.19387E+07         0.00000E+00
    0.00000E+00         0.00000E+00        -0.18146E+08
 
   -0.18066E+08         0.22015E+06         0.00000E+00
    0.22015E+06        -0.19385E+07         0.00000E+00
    0.00000E+00         0.00000E+00        -0.18116E+08
 
   -0.18035E+08         0.22638E+06         0.00000E+00
    0.22638E+06        -0.19382E+07         0.00000E+00
    0.00000E+00         0.00000E+00        -0.18086E+08
 
   -0.18003E+08         0.23270E+06         0.00000E+00
    0.23270E+06        -0.19379E+07         0.00000E+00
    0.00000E+00         0.00000E+00        -0.18055E+08
 
   -0.17970E+08         0.23911E+06         0.00000E+00
    0.23911E+06        -0.19376E+07         0.00000E+00
    0.00000E+00         0.00000E+00        -0.18023E+08
 
   -0.17936E+08         0.24563E+06         0.00000E+00
    0.24563E+06        -0.19373E+07         0.00000E+00
    0.00000E+00         0.00000E+00        -0.17990E+08
 
   -0.17901E+08         0.25224E+06         0.00000E+00
    0.25224E+06        -0.19370E+07         0.00000E+00
    0.00000E+00         0.00000E+00        -0.17956E+08
 
   -0.17865E+08         0.25894E+06         0.00000E+00
    0.25894E+06        -0.19367E+07         0.00000E+00
    0.00000E+00         0.00000E+00        -0.17922E+08
 
   -0.17828E+08         0.26575E+06         0.00000E+00
    0.26575E+06        -0.19364E+07         0.00000E+00
    0.00000E+00         0.00000E+00        -0.17886E+08
 
   -0.17791E+08         0.27264E+06         0.00000E+00
    0.27264E+06        -0.19361E+07         0.00000E+00
    0.00000E+00         0.00000E+00        -0.17849E+08
 
   -0.17752E+08         0.27962E+06         0.00000E+00
    0.27962E+06        -0.19358E+07         0.00000E+00
    0.00000E+00         0.00000E+00        -0.17811E+08
 
   -0.17712E+08         0.28669E+06         0.00000E+00
    0.28669E+06        -0.19356E+07         0.00000E+00
    0.00000E+00         0.00000E+00        -0.17772E+08
 
   -0.17671E+08         0.29384E+06         0.00000E+00
    0.29384E+06        -0.19354E+07         0.00000E+00
    0.00000E+00         0.00000E+00        -0.17732E+08
 
   -0.17629E+08         0.30106E+06         0.00000E+00
    0.30106E+06        -0.19352E+07         0.00000E+00
    0.00000E+00         0.00000E+00        -0.17691E+08
 
   -0.17586E+08         0.30835E+06         0.00000E+00
    0.30835E+06        -0.19350E+07         0.00000E+00
    0.00000E+00         0.00000E+00        -0.17648E+08
 
   -0.17542E+08         0.31570E+06         0.00000E+00
    0.31570E+06        -0.19349E+07         0.00000E+00
    0.00000E+00         0.00000E+00        -0.17605E+08
 
   -0.17496E+08         0.32310E+06         0.00000E+00
    0.32310E+06        -0.19348E+07         0.00000E+00
    0.00000E+00         0.00000E+00        -0.17560E+08
 
   -0.17450E+08         0.33054E+06         0.00000E+00
    0.33054E+06        -0.19347E+07         0.00000E+00
    0.00000E+00         0.00000E+00        -0.17514E+08
 
   -0.17402E+08         0.33801E+06         0.00000E+00
    0.33801E+06        -0.19347E+07         0.00000E+00
    0.00000E+00         0.00000E+00        -0.17467E+08
 
   -0.17353E+08         0.34550E+06         0.00000E+00
    0.34550E+06        -0.19347E+07         0.00000E+00
    0.00000E+00         0.00000E+00        -0.17418E+08
 
   -0.17303E+08         0.35298E+06         0.00000E+00
    0.35298E+06        -0.19348E+07         0.00000E+00
    0.00000E+00         0.00000E+00        -0.17369E+08
 
   -0.17252E+08         0.36046E+06         0.00000E+00
    0.36046E+06        -0.19350E+07         0.00000E+00
    0.00000E+00         0.00000E+00        -0.17317E+08
 
   -0.17200E+08         0.36790E+06         0.00000E+00
    0.36790E+06        -0.19352E+07         0.00000E+00
    0.00000E+00         0.00000E+00        -0.17265E+08
 
   -0.17146E+08         0.37530E+06         0.00000E+00
    0.37530E+06        -0.19355E+07         0.00000E+00
    0.00000E+00         0.00000E+00        -0.17211E+08
 
   -0.17091E+08         0.38262E+06         0.00000E+00
    0.38262E+06        -0.19358E+07         0.00000E+00
    0.00000E+00         0.00000E+00        -0.17156E+08
 
   -0.17035E+08         0.38986E+06         0.00000E+00
    0.38986E+06        -0.19363E+07         0.00000E+00
    0.00000E+00         0.00000E+00        -0.17100E+08
 
   -0.16978E+08         0.39698E+06         0.00000E+00
    0.39698E+06        -0.19368E+07         0.00000E+00
    0.00000E+00         0.00000E+00        -0.17042E+08
 
   -0.16919E+08         0.40396E+06         0.00000E+00
    0.40396E+06        -0.19375E+07         0.00000E+00
    0.00000E+00         0.00000E+00        -0.16982E+08
 
   -0.16860E+08         0.41077E+06         0.00000E+00
    0.41077E+06        -0.19382E+07         0.00000E+00
    0.00000E+00         0.00000E+00        -0.16922E+08
 
   -0.16799E+08         0.41738E+06         0.00000E+00
    0.41738E+06        -0.19391E+07         0.00000E+00
    0.00000E+00         0.00000E+00        -0.16859E+08
 
   -0.16737E+08         0.42376E+06         0.00000E+00
    0.42376E+06        -0.19400E+07         0.00000E+00
    0.00000E+00         0.00000E+00        -0.16796E+08
 
   -0.16673E+08         0.42988E+06         0.00000E+00
    0.42988E+06        -0.19412E+07         0.00000E+00
    0.00000E+00         0.00000E+00        -0.16731E+08
 
   -0.16609E+08         0.43568E+06         0.00000E+00
    0.43568E+06        -0.19424E+07         0.00000E+00
    0.00000E+00         0.00000E+00        -0.16664E+08
 
   -0.16543E+08         0.44114E+06         0.00000E+00
    0.44114E+06        -0.19439E+07         0.00000E+00
    0.00000E+00         0.00000E+00        -0.16596E+08
 
   -0.16477E+08         0.44620E+06         0.00000E+00
    0.44620E+06        -0.19455E+07         0.00000E+00
    0.00000E+00         0.00000E+00        -0.16527E+08
 
   -0.16409E+08         0.45081E+06         0.00000E+00
    0.45081E+06        -0.19473E+07         0.00000E+00
    0.00000E+00         0.00000E+00        -0.16456E+08
 
   -0.16340E+08         0.45493E+06         0.00000E+00
    0.45493E+06        -0.19493E+07         0.00000E+00
    0.00000E+00         0.00000E+00        -0.16384E+08
 
   -0.16271E+08         0.45849E+06         0.00000E+00
    0.45849E+06        -0.19515E+07         0.00000E+00
    0.00000E+00         0.00000E+00        -0.16310E+08
 
   -0.16200E+08         0.46143E+06         0.00000E+00
    0.46143E+06        -0.19540E+07         0.00000E+00
    0.00000E+00         0.00000E+00        -0.16235E+08
 
   -0.16129E+08         0.46368E+06         0.00000E+00
    0.46368E+06        -0.19568E+07         0.00000E+00
    0.00000E+00         0.00000E+00        -0.16159E+08
 
   -0.16057E+08         0.46517E+06         0.00000E+00
    0.46517E+06        -0.19599E+07         0.00000E+00
    0.00000E+00         0.00000E+00        -0.16082E+08
 
   -0.15984E+08         0.46582E+06         0.00000E+00
    0.46582E+06        -0.19634E+07         0.00000E+00
    0.00000E+00         0.00000E+00        -0.16003E+08
 
   -0.15910E+08         0.46554E+06         0.00000E+00
    0.46554E+06        -0.19672E+07         0.00000E+00
    0.00000E+00         0.00000E+00        -0.15922E+08
 
   -0.15836E+08         0.46424E+06         0.00000E+00
    0.46424E+06        -0.19715E+07         0.00000E+00
    0.00000E+00         0.00000E+00        -0.15841E+08
 
   -0.15761E+08         0.46182E+06         0.00000E+00
    0.46182E+06        -0.19763E+07         0.00000E+00
    0.00000E+00         0.00000E+00        -0.15759E+08
 
   -0.15686E+08         0.45818E+06         0.00000E+00
    0.45818E+06        -0.19816E+07         0.00000E+00
    0.00000E+00         0.00000E+00        -0.15675E+08
 
   -0.15611E+08         0.45319E+06         0.00000E+00
    0.45319E+06        -0.19875E+07         0.00000E+00
    0.00000E+00         0.00000E+00        -0.15591E+08
 
   -0.15535E+08         0.44675E+06         0.00000E+00
    0.44675E+06        -0.19941E+07         0.00000E+00
    0.00000E+00         0.00000E+00        -0.15505E+08
 
   -0.15460E+08         0.43873E+06         0.00000E+00
    0.43873E+06        -0.20014E+07         0.00000E+00
    0.00000E+00         0.00000E+00        -0.15419E+08
 
   -0.15384E+08         0.42901E+06         0.00000E+00
    0.42901E+06        -0.20094E+07         0.00000E+00
    0.00000E+00         0.00000E+00        -0.15331E+08
 
   -0.15308E+08         0.41746E+06         0.00000E+00
    0.41746E+06        -0.20183E+07         0.00000E+00
    0.00000E+00         0.00000E+00        -0.15243E+08
 
   -0.15232E+08         0.40395E+06         0.00000E+00
    0.40395E+06        -0.20280E+07         0.00000E+00
    0.00000E+00         0.00000E+00        -0.15154E+08
 
   -0.15156E+08         0.38837E+06         0.00000E+00
    0.38837E+06        -0.20384E+07         0.00000E+00
    0.00000E+00         0.00000E+00        -0.15065E+08
 
   -0.15079E+08         0.37063E+06         0.00000E+00
    0.37063E+06        -0.20495E+07         0.00000E+00
    0.00000E+00         0.00000E+00        -0.14975E+08
 
   -0.15003E+08         0.35063E+06         0.00000E+00
    0.35063E+06        -0.20611E+07         0.00000E+00
    0.00000E+00         0.00000E+00        -0.14884E+08
 
   -0.14927E+08         0.32833E+06         0.00000E+00
    0.32833E+06        -0.20728E+07         0.00000E+00
    0.00000E+00         0.00000E+00        -0.14792E+08
 
   -0.14851E+08         0.30373E+06         0.00000E+00
    0.30373E+06        -0.20841E+07         0.00000E+00
    0.00000E+00         0.00000E+00        -0.14699E+08
 
   -0.14775E+08         0.27690E+06         0.00000E+00
    0.27690E+06        -0.20943E+07         0.00000E+00
    0.00000E+00         0.00000E+00        -0.14606E+08
 
   -0.14699E+08         0.24799E+06         0.00000E+00
    0.24799E+06        -0.21022E+07         0.00000E+00
    0.00000E+00         0.00000E+00        -0.14511E+08
 
   -0.14623E+08         0.21725E+06         0.00000E+00
    0.21725E+06        -0.21065E+07         0.00000E+00
    0.00000E+00         0.00000E+00        -0.14414E+08
 
   -0.14549E+08         0.18510E+06         0.00000E+00
    0.18510E+06        -0.21051E+07         0.00000E+00
    0.00000E+00         0.00000E+00        -0.14316E+08
 
   -0.14477E+08         0.15210E+06         0.00000E+00
    0.15210E+06        -0.20955E+07         0.00000E+00
    0.00000E+00         0.00000E+00        -0.14215E+08
 
   -0.14410E+08         0.11906E+06         0.00000E+00
    0.11906E+06        -0.20747E+07         0.00000E+00
    0.00000E+00         0.00000E+00        -0.14112E+08
 
   -0.14351E+08         0.87062E+05         0.00000E+00
    0.87062E+05        -0.20391E+07         0.00000E+00
    0.00000E+00         0.00000E+00        -0.14007E+08
 
   -0.14302E+08         0.57526E+05         0.00000E+00
    0.57526E+05        -0.19855E+07         0.00000E+00
    0.00000E+00         0.00000E+00        -0.13899E+08
 
   -0.14267E+08         0.31817E+05         0.00000E+00
    0.31817E+05        -0.19122E+07         0.00000E+00
    0.00000E+00         0.00000E+00        -0.13790E+08
 
   -0.14250E+08         0.10030E+05         0.00000E+00
    0.10030E+05        -0.18196E+07         0.00000E+00
    0.00000E+00         0.00000E+00        -0.13679E+08
 
   -0.18683E+08         0.26794E+04         0.00000E+00
    0.26794E+04        -0.19689E+07         0.00000E+00
    0.00000E+00         0.00000E+00        -0.18790E+08
 
   -0.18680E+08         0.82907E+04         0.00000E+00
    0.82907E+04        -0.19559E+07         0.00000E+00
    0.00000E+00         0.00000E+00        -0.18774E+08
 
   -0.18675E+08         0.14505E+05         0.00000E+00
    0.14505E+05        -0.19457E+07         0.00000E+00
    0.00000E+00         0.00000E+00        -0.18758E+08
 
   -0.18668E+08         0.21361E+05         0.00000E+00
    0.21361E+05        -0.19383E+07         0.00000E+00
    0.00000E+00         0.00000E+00        -0.18743E+08
 
   -0.18659E+08         0.28695E+05         0.00000E+00
    0.28695E+05        -0.19333E+07         0.00000E+00
    0.00000E+00         0.00000E+00        -0.18728E+08
 
   -0.18648E+08         0.36304E+05         0.00000E+00
    0.36304E+05        -0.19304E+07         0.00000E+00
    0.00000E+00         0.00000E+00        -0.18712E+08
 
   -0.18636E+08         0.44019E+05         0.00000E+00
    0.44019E+05        -0.19290E+07         0.00000E+00
    0.00000E+00         0.00000E+00        -0.18697E+08
 
   -0.18624E+08         0.51715E+05         0.00000E+00
    0.51715E+05        -0.19286E+07         0.00000E+00
    0.00000E+00         0.00000E+00        -0.18682E+08
 
   -0.18611E+08         0.59303E+05         0.00000E+00
    0.59303E+05        -0.19291E+07         0.00000E+00
    0.00000E+00         0.00000E+00        -0.18667E+08
 
   -0.18598E+08         0.66723E+05         0.00000E+00
    0.66723E+05        -0.19300E+07         0.00000E+00
    0.00000E+00         0.00000E+00        -0.18652E+08
 
   -0.18584E+08         0.73941E+05         0.00000E+00
    0.73941E+05        -0.19311E+07         0.00000E+00
    0.00000E+00         0.00000E+00        -0.18636E+08
 
   -0.18569E+08         0.80939E+05         0.00000E+00
    0.80939E+05        -0.19324E+07         0.00000E+00
    0.00000E+00         0.00000E+00        -0.18620E+08
 
   -0.18554E+08         0.87715E+05         0.00000E+00
    0.87715E+05        -0.19337E+07         0.00000E+00
    0.00000E+00         0.00000E+00        -0.18604E+08
 
   -0.18539E+08         0.94275E+05         0.00000E+00
    0.94275E+05        -0.19349E+07         0.00000E+00
    0.00000E+00         0.00000E+00        -0.18588E+08
 
   -0.18523E+08         0.10063E+06         0.00000E+00
    0.10063E+06        -0.19361E+07         0.00000E+00
    0.00000E+00         0.00000E+00        -0.18571E+08
 
   -0.18506E+08         0.10680E+06         0.00000E+00
    0.10680E+06        -0.19371E+07         0.00000E+00
    0.00000E+00         0.00000E+00        -0.18553E+08
 
   -0.18489E+08         0.11281E+06         0.00000E+00
    0.11281E+06        -0.19380E+07         0.00000E+00
    0.00000E+00         0.00000E+00        -0.18536E+08
 
   -0.18471E+08         0.11867E+06         0.00000E+00
    0.11867E+06        -0.19388E+07         0.00000E+00
    0.00000E+00         0.00000E+00        -0.18517E+08
 
   -0.18453E+08         0.12442E+06         0.00000E+00
    0.12442E+06        -0.19395E+07         0.00000E+00
    0.00000E+00         0.00000E+00        -0.18499E+08
 
   -0.18434E+08         0.13006E+06         0.00000E+00
    0.13006E+06        -0.19400E+07         0.00000E+00
    0.00000E+00         0.00000E+00        -0.18480E+08
 
   -0.18414E+08         0.13562E+06         0.00000E+00
    0.13562E+06        -0.19404E+07         0.00000E+00
    0.00000E+00         0.00000E+00        -0.18460E+08
 
   -0.18394E+08         0.14112E+06         0.00000E+00
    0.14112E+06        -0.19407E+07         0.00000E+00
    0.00000E+00         0.00000E+00        -0.18439E+08
 
   -0.18373E+08         0.14659E+06         0.00000E+00
    0.14659E+06        -0.19409E+07         0.00000E+00
    0.00000E+00         0.00000E+00        -0.18418E+08
 
   -0.18351E+08         0.15203E+06         0.00000E+00
    0.15203E+06        -0.19411E+07         0.00000E+00
    0.00000E+00         0.00000E+00        -0.18397E+08
 
   -0.18329E+08         0.15746E+06         0.00000E+00
    0.15746E+06        -0.19412E+07         0.00000E+00
    0.00000E+00         0.00000E+00        -0.18375E+08
 
   -0.18305E+08         0.16291E+06         0.00000E+00
    0.16291E+06        -0.19412E+07         0.00000E+00
    0.00000E+00         0.00000E+00        -0.18352E+08
 
   -0.18282E+08         0.16837E+06         0.00000E+00
    0.16837E+06        -0.19412E+07         0.00000E+00
    0.00000E+00         0.00000E+00        -0.18329E+08
 
   -0.18257E+08         0.17387E+06         0.00000E+00
    0.17387E+06        -0.19411E+07         0.00000E+00
    0.00000E+00         0.00000E+00        -0.18305E+08
 
   -0.18231E+08         0.17940E+06         0.00000E+00
    0.17940E+06        -0.19410E+07         0.00000E+00
    0.00000E+00         0.00000E+00        -0.18280E+08
 
   -0.18205E+08         0.18500E+06         0.00000E+00
    0.18500E+06        -0.19408E+07         0.00000E+00
    0.00000E+00         0.00000E+00        -0.18254E+08
 
   -0.18178E+08         0.19065E+06         0.00000E+00
    0.19065E+06        -0.19406E+07         0.00000E+00
    0.00000E+00         0.00000E+00        -0.18228E+08
 
   -0.18150E+08         0.19637E+06         0.00000E+00
    0.19637E+06        -0.19404E+07         0.00000E+00
    0.00000E+00         0.00000E+00        -0.18201E+08
 
   -0.18122E+08         0.20217E+06         0.00000E+00
    0.20217E+06        -0.19402E+07         0.00000E+00
    0.00000E+00         0.00000E+00        -0.18174E+08
 
   -0.18092E+08         0.20805E+06         0.00000E+00
    0.20805E+06        -0.19399E+07         0.00000E+00
    0.00000E+00         0.00000E+00        -0.18145E+08
 
   -0.18062E+08         0.21401E+06         0.00000E+00
    0.21401E+06        -0.19397E+07         0.00000E+00
    0.00000E+00         0.00000E+00        -0.18116E+08
 
   -0.18031E+08         0.22006E+06         0.00000E+00
    0.22006E+06        -0.19394E+07         0.00000E+00
    0.00000E+00         0.00000E+00        -0.18085E+08
 
   -0.17999E+08         0.22620E+06         0.00000E+00
    0.22620E+06        -0.19391E+07         0.00000E+00
    0.00000E+00         0.00000E+00        -0.18054E+08
 
   -0.17966E+08         0.23243E+06         0.00000E+00
    0.23243E+06        -0.19388E+07         0.00000E+00
    0.00000E+00         0.00000E+00        -0.18022E+08
 
   -0.17932E+08         0.23875E+06         0.00000E+00
    0.23875E+06        -0.19386E+07         0.00000E+00
    0.00000E+00         0.00000E+00        -0.17989E+08
 
   -0.17897E+08         0.24517E+06         0.00000E+00
    0.24517E+06        -0.19383E+07         0.00000E+00
    0.00000E+00         0.00000E+00        -0.17956E+08
 
   -0.17861E+08         0.25168E+06         0.00000E+00
    0.25168E+06        -0.19380E+07         0.00000E+00
    0.00000E+00         0.00000E+00        -0.17921E+08
 
   -0.17824E+08         0.25829E+06         0.00000E+00
    0.25829E+06        -0.19377E+07         0.00000E+00
    0.00000E+00         0.00000E+00        -0.17885E+08
 
   -0.17786E+08         0.26498E+06         0.00000E+00
    0.26498E+06        -0.19375E+07         0.00000E+00
    0.00000E+00         0.00000E+00        -0.17848E+08
 
   -0.17747E+08         0.27175E+06         0.00000E+00
    0.27175E+06        -0.19372E+07         0.00000E+00
    0.00000E+00         0.00000E+00        -0.17810E+08
 
   -0.17708E+08         0.27861E+06         0.00000E+00
    0.27861E+06        -0.19370E+07         0.00000E+00
    0.00000E+00         0.00000E+00        -0.17771E+08
 
   -0.17667E+08         0.28554E+06         0.00000E+00
    0.28554E+06        -0.19368E+07         0.00000E+00
    0.00000E+00         0.00000E+00        -0.17731E+08
 
   -0.17625E+08         0.29255E+06         0.00000E+00
    0.29255E+06        -0.19366E+07         0.00000E+00
    0.00000E+00         0.00000E+00        -0.17690E+08
 
   -0.17581E+08         0.29962E+06         0.00000E+00
    0.29962E+06        -0.19364E+07         0.00000E+00
    0.00000E+00         0.00000E+00        -0.17647E+08
 
   -0.17537E+08         0.30674E+06         0.00000E+00
    0.30674E+06        -0.19363E+07         0.00000E+00
    0.00000E+00         0.00000E+00        -0.17604E+08
 
   -0.17492E+08         0.31391E+06         0.00000E+00
    0.31391E+06        -0.19362E+07         0.00000E+00
    0.00000E+00         0.00000E+00        -0.17559E+08
 
   -0.17445E+08         0.32112E+06         0.00000E+00
    0.32112E+06        -0.19362E+07         0.00000E+00
    0.00000E+00         0.00000E+00        -0.17513E+08
 
   -0.17397E+08         0.32836E+06         0.00000E+00
    0.32836E+06        -0.19362E+07         0.00000E+00
    0.00000E+00         0.00000E+00        -0.17466E+08
 
   -0.17349E+08         0.33561E+06         0.00000E+00
    0.33561E+06        -0.19362E+07         0.00000E+00
    0.00000E+00         0.00000E+00        -0.17417E+08
 
   -0.17299E+08         0.34286E+06         0.00000E+00
    0.34286E+06        -0.19363E+07         0.00000E+00
    0.00000E+00         0.00000E+00        -0.17368E+08
 
   -0.17247E+08         0.35009E+06         0.00000E+00
    0.35009E+06        -0.19364E+07         0.00000E+00
    0.00000E+00         0.00000E+00        -0.17316E+08
 
   -0.17195E+08         0.35729E+06         0.00000E+00
    0.35729E+06        -0.19366E+07         0.00000E+00
    0.00000E+00         0.00000E+00        -0.17264E+08
 
   -0.17141E+08         0.36445E+06         0.00000E+00
    0.36445E+06        -0.19369E+07         0.00000E+00
    0.00000E+00         0.00000E+00        -0.17210E+08
 
   -0.17086E+08         0.37153E+06         0.00000E+00
    0.37153E+06        -0.19373E+07         0.00000E+00
    0.00000E+00         0.00000E+00        -0.17155E+08
 
   -0.17030E+08         0.37852E+06         0.00000E+00
    0.37852E+06        -0.19377E+07         0.00000E+00
    0.00000E+00         0.00000E+00        -0.17099E+08
 
   -0.16973E+08         0.38540E+06         0.00000E+00
    0.38540E+06        -0.19382E+07         0.00000E+00
    0.00000E+00         0.00000E+00        -0.17041E+08
 
   -0.16915E+08         0.39214E+06         0.00000E+00
    0.39214E+06        -0.19388E+07         0.00000E+00
    0.00000E+00         0.00000E+00        -0.16981E+08
 
   -0.16855E+08         0.39872E+06         0.00000E+00
    0.39872E+06        -0.19395E+07         0.00000E+00
    0.00000E+00         0.00000E+00        -0.16921E+08
 
   -0.16794E+08         0.40509E+06         0.00000E+00
    0.40509E+06        -0.19403E+07         0.00000E+00
    0.00000E+00         0.00000E+00        -0.16858E+08
 
   -0.16732E+08         0.41124E+06         0.00000E+00
    0.41124E+06        -0.19413E+07         0.00000E+00
    0.00000E+00         0.00000E+00        -0.16795E+08
 
   -0.16669E+08         0.41712E+06         0.00000E+00
    0.41712E+06        -0.19423E+07         0.00000E+00
    0.00000E+00         0.00000E+00        -0.16730E+08
 
   -0.16605E+08         0.42270E+06         0.00000E+00
    0.42270E+06        -0.19435E+07         0.00000E+00
    0.00000E+00         0.00000E+00        -0.16663E+08
 
   -0.16539E+08         0.42794E+06         0.00000E+00
    0.42794E+06        -0.19449E+07         0.00000E+00
    0.00000E+00         0.00000E+00        -0.16595E+08
 
   -0.16473E+08         0.43279E+06         0.00000E+00
    0.43279E+06        -0.19464E+07         0.00000E+00
    0.00000E+00         0.00000E+00        -0.16526E+08
 
   -0.16405E+08         0.43720E+06         0.00000E+00
    0.43720E+06        -0.19481E+07         0.00000E+00
    0.00000E+00         0.00000E+00        -0.16455E+08
 
   -0.16337E+08         0.44112E+06         0.00000E+00
    0.44112E+06        -0.19501E+07         0.00000E+00
    0.00000E+00         0.00000E+00        -0.16383E+08
 
   -0.16268E+08         0.44449E+06         0.00000E+00
    0.44449E+06        -0.19522E+07         0.00000E+00
    0.00000E+00         0.00000E+00        -0.16310E+08
 
   -0.16197E+08         0.44726E+06         0.00000E+00
    0.44726E+06        -0.19546E+07         0.00000E+00
    0.00000E+00         0.00000E+00        -0.16235E+08
 
   -0.16126E+08         0.44935E+06         0.00000E+00
    0.44935E+06        -0.19572E+07         0.00000E+00
    0.00000E+00         0.00000E+00        -0.16158E+08
 
   -0.16055E+08         0.45069E+06         0.00000E+00
    0.45069E+06        -0.19601E+07         0.00000E+00
    0.00000E+00         0.00000E+00        -0.16081E+08
 
   -0.15982E+08         0.45121E+06         0.00000E+00
    0.45121E+06        -0.19634E+07         0.00000E+00
    0.00000E+00         0.00000E+00        -0.16002E+08
 
   -0.15909E+08         0.45081E+06         0.00000E+00
    0.45081E+06        -0.19671E+07         0.00000E+00
    0.00000E+00         0.00000E+00        -0.15922E+08
 
   -0.15835E+08         0.44941E+06         0.00000E+00
    0.44941E+06        -0.19711E+07         0.00000E+00
    0.00000E+00         0.00000E+00        -0.15841E+08
 
   -0.15761E+08         0.44691E+06         0.00000E+00
    0.44691E+06        -0.19757E+07         0.00000E+00
    0.00000E+00         0.00000E+00        -0.15758E+08
 
   -0.15687E+08         0.44320E+06         0.00000E+00
    0.44320E+06        -0.19807E+07         0.00000E+00
    0.00000E+00         0.00000E+00        -0.15675E+08
 
   -0.15612E+08         0.43816E+06         0.00000E+00
    0.43816E+06        -0.19863E+07         0.00000E+00
    0.00000E+00         0.00000E+00        -0.15591E+08
 
   -0.15537E+08         0.43168E+06         0.00000E+00
    0.43168E+06        -0.19926E+07         0.00000E+00
    0.00000E+00         0.00000E+00        -0.15505E+08
 
   -0.15462E+08         0.42364E+06         0.00000E+00
    0.42364E+06        -0.19996E+07         0.00000E+00
    0.00000E+00         0.00000E+00        -0.15419E+08
 
   -0.15387E+08         0.41391E+06         0.00000E+00
    0.41391E+06        -0.20073E+07         0.00000E+00
    0.00000E+00         0.00000E+00        -0.15332E+08
 
   -0.15312E+08         0.40235E+06         0.00000E+00
    0.40235E+06        -0.20158E+07         0.00000E+00
    0.00000E+00         0.00000E+00        -0.15244E+08
 
   -0.15237E+08         0.38885E+06         0.00000E+00
    0.38885E+06        -0.20251E+07         0.00000E+00
    0.00000E+00         0.00000E+00        -0.15155E+08
 
   -0.15162E+08         0.37328E+06         0.00000E+00
    0.37328E+06        -0.20351E+07         0.00000E+00
    0.00000E+00         0.00000E+00        -0.15066E+08
 
   -0.15087E+08         0.35553E+06         0.00000E+00
    0.35553E+06        -0.20457E+07         0.00000E+00
    0.00000E+00         0.00000E+00        -0.14976E+08
 
   -0.15012E+08         0.33553E+06         0.00000E+00
    0.33553E+06        -0.20569E+07         0.00000E+00
    0.00000E+00         0.00000E+00        -0.14885E+08
 
   -0.14938E+08         0.31324E+06         0.00000E+00
    0.31324E+06        -0.20681E+07         0.00000E+00
    0.00000E+00         0.00000E+00        -0.14794E+08
 
   -0.14863E+08         0.28865E+06         0.00000E+00
    0.28865E+06        -0.20790E+07         0.00000E+00
    0.00000E+00         0.00000E+00        -0.14701E+08
 
   -0.14789E+08         0.26185E+06         0.00000E+00
    0.26185E+06        -0.20887E+07         0.00000E+00
    0.00000E+00         0.00000E+00        -0.14608E+08
 
   -0.14715E+08         0.23301E+06         0.00000E+00
    0.23301E+06        -0.20962E+07         0.00000E+00
    0.00000E+00         0.00000E+00        -0.14514E+08
 
   -0.14641E+08         0.20246E+06         0.00000E+00
    0.20246E+06        -0.21002E+07         0.00000E+00
    0.00000E+00         0.00000E+00        -0.14418E+08
 
   -0.14569E+08         0.17068E+06         0.00000E+00
    0.17068E+06        -0.20986E+07         0.00000E+00
    0.00000E+00         0.00000E+00        -0.14320E+08
 
   -0.14500E+08         0.13837E+06         0.00000E+00
    0.13837E+06        -0.20890E+07         0.00000E+00
    0.00000E+00         0.00000E+00        -0.14220E+08
 
   -0.14436E+08         0.10649E+06         0.00000E+00
    0.10649E+06        -0.20683E+07         0.00000E+00
    0.00000E+00         0.00000E+00        -0.14118E+08
 
   -0.14378E+08         0.76293E+05         0.00000E+00
    0.76293E+05        -0.20331E+07         0.00000E+00
    0.00000E+00         0.00000E+00        -0.14014E+08
 
   -0.14332E+08         0.49287E+05         0.00000E+00
    0.49287E+05        -0.19802E+07         0.00000E+00
    0.00000E+00         0.00000E+00        -0.13907E+08
 
   -0.14299E+08         0.26692E+05         0.00000E+00
    0.26692E+05        -0.19078E+07         0.00000E+00
    0.00000E+00         0.00000E+00        -0.13798E+08
 
   -0.14282E+08         0.83015E+04         0.00000E+00
    0.83015E+04        -0.18159E+07         0.00000E+00
    0.00000E+00         0.00000E+00        -0.13688E+08
 
   -0.18677E+08         0.24171E+04         0.00000E+00
    0.24171E+04        -0.19700E+07         0.00000E+00
    0.00000E+00         0.00000E+00        -0.18788E+08
 
   -0.18675E+08         0.75124E+04         0.00000E+00
    0.75124E+04        -0.19571E+07         0.00000E+00
    0.00000E+00         0.00000E+00        -0.18773E+08
 
   -0.18670E+08         0.13248E+05         0.00000E+00
    0.13248E+05        -0.19470E+07         0.00000E+00
    0.00000E+00         0.00000E+00        -0.18757E+08
 
   -0.18662E+08         0.19698E+05         0.00000E+00
    0.19698E+05        -0.19397E+07         0.00000E+00
    0.00000E+00         0.00000E+00        -0.18742E+08
 
   -0.18653E+08         0.26719E+05         0.00000E+00
    0.26719E+05        -0.19348E+07         0.00000E+00
    0.00000E+00         0.00000E+00        -0.18726E+08
 
   -0.18643E+08         0.34097E+05         0.00000E+00
    0.34097E+05        -0.19319E+07         0.00000E+00
    0.00000E+00         0.00000E+00        -0.18711E+08
 
   -0.18632E+08         0.41641E+05         0.00000E+00
    0.41641E+05        -0.19305E+07         0.00000E+00
    0.00000E+00         0.00000E+00        -0.18696E+08
 
   -0.18620E+08         0.49205E+05         0.00000E+00
    0.49205E+05        -0.19302E+07         0.00000E+00
    0.00000E+00         0.00000E+00        -0.18681E+08
 
   -0.18607E+08         0.56681E+05         0.00000E+00
    0.56681E+05        -0.19306E+07         0.00000E+00
    0.00000E+00         0.00000E+00        -0.18666E+08
 
   -0.18594E+08         0.64000E+05         0.00000E+00
    0.64000E+05        -0.19314E+07         0.00000E+00
    0.00000E+00         0.00000E+00        -0.18651E+08
 
   -0.18580E+08         0.71119E+05         0.00000E+00
    0.71119E+05        -0.19325E+07         0.00000E+00
    0.00000E+00         0.00000E+00        -0.18635E+08
 
   -0.18566E+08         0.78018E+05         0.00000E+00
    0.78018E+05        -0.19338E+07         0.00000E+00
    0.00000E+00         0.00000E+00        -0.18620E+08
 
   -0.18551E+08         0.84690E+05         0.00000E+00
    0.84690E+05        -0.19350E+07         0.00000E+00
    0.00000E+00         0.00000E+00        -0.18603E+08
 
   -0.18535E+08         0.91142E+05         0.00000E+00
    0.91142E+05        -0.19362E+07         0.00000E+00
    0.00000E+00         0.00000E+00        -0.18587E+08
 
   -0.18520E+08         0.97387E+05         0.00000E+00
    0.97387E+05        -0.19373E+07         0.00000E+00
    0.00000E+00         0.00000E+00        -0.18570E+08
 
   -0.18503E+08         0.10344E+06         0.00000E+00
    0.10344E+06        -0.19383E+07         0.00000E+00
    0.00000E+00         0.00000E+00        -0.18553E+08
 
   -0.18486E+08         0.10933E+06         0.00000E+00
    0.10933E+06        -0.19392E+07         0.00000E+00
    0.00000E+00         0.00000E+00        -0.18535E+08
 
   -0.18468E+08         0.11506E+06         0.00000E+00
    0.11506E+06        -0.19400E+07         0.00000E+00
    0.00000E+00         0.00000E+00        -0.18517E+08
 
   -0.18450E+08         0.12068E+06         0.00000E+00
    0.12068E+06        -0.19406E+07         0.00000E+00
    0.00000E+00         0.00000E+00        -0.18498E+08
 
   -0.18431E+08         0.12619E+06         0.00000E+00
    0.12619E+06        -0.19411E+07         0.00000E+00
    0.00000E+00         0.00000E+00        -0.18479E+08
 
   -0.18411E+08         0.13162E+06         0.00000E+00
    0.13162E+06        -0.19415E+07         0.00000E+00
    0.00000E+00         0.00000E+00        -0.18459E+08
 
   -0.18391E+08         0.13698E+06         0.00000E+00
    0.13698E+06        -0.19418E+07         0.00000E+00
    0.00000E+00         0.00000E+00        -0.18439E+08
 
   -0.18370E+08         0.14231E+06         0.00000E+00
    0.14231E+06        -0.19420E+07         0.00000E+00
    0.00000E+00         0.00000E+00        -0.18418E+08
 
   -0.18348E+08         0.14761E+06         0.00000E+00
    0.14761E+06        -0.19422E+07         0.00000E+00
    0.00000E+00         0.00000E+00        -0.18396E+08
 
   -0.18326E+08         0.15290E+06         0.00000E+00
    0.15290E+06        -0.19423E+07         0.00000E+00
    0.00000E+00         0.00000E+00        -0.18374E+08
 
   -0.18302E+08         0.15819E+06         0.00000E+00
    0.15819E+06        -0.19423E+07         0.00000E+00
    0.00000E+00         0.00000E+00        -0.18351E+08
 
   -0.18278E+08         0.16351E+06         0.00000E+00
    0.16351E+06        -0.19422E+07         0.00000E+00
    0.00000E+00         0.00000E+00        -0.18328E+08
 
   -0.18254E+08         0.16885E+06         0.00000E+00
    0.16885E+06        -0.19422E+07         0.00000E+00
    0.00000E+00         0.00000E+00        -0.18304E+08
 
   -0.18228E+08         0.17424E+06         0.00000E+00
    0.17424E+06        -0.19421E+07         0.00000E+00
    0.00000E+00         0.00000E+00        -0.18279E+08
 
   -0.18202E+08         0.17967E+06         0.00000E+00
    0.17967E+06        -0.19419E+07         0.00000E+00
    0.00000E+00         0.00000E+00        -0.18254E+08
 
   -0.18175E+08         0.18517E+06         0.00000E+00
    0.18517E+06        -0.19417E+07         0.00000E+00
    0.00000E+00         0.00000E+00        -0.18228E+08
 
   -0.18147E+08         0.19072E+06         0.00000E+00
    0.19072E+06        -0.19415E+07         0.00000E+00
    0.00000E+00         0.00000E+00        -0.18201E+08
 
   -0.18118E+08         0.19636E+06         0.00000E+00
    0.19636E+06        -0.19413E+07         0.00000E+00
    0.00000E+00         0.00000E+00        -0.18173E+08
 
   -0.18089E+08         0.20206E+06         0.00000E+00
    0.20206E+06        -0.19411E+07         0.00000E+00
    0.00000E+00         0.00000E+00        -0.18144E+08
 
   -0.18058E+08         0.20785E+06         0.00000E+00
    0.20785E+06        -0.19409E+07         0.00000E+00
    0.00000E+00         0.00000E+00        -0.18115E+08
 
   -0.18027E+08         0.21372E+06         0.00000E+00
    0.21372E+06        -0.19406E+07         0.00000E+00
    0.00000E+00         0.00000E+00        -0.18085E+08
 
   -0.17995E+08         0.21968E+06         0.00000E+00
    0.21968E+06        -0.19403E+07         0.00000E+00
    0.00000E+00         0.00000E+00        -0.18054E+08
 
   -0.17962E+08         0.22573E+06         0.00000E+00
    0.22573E+06        -0.19401E+07         0.00000E+00
    0.00000E+00         0.00000E+00        -0.18022E+08
 
   -0.17928E+08         0.23187E+06         0.00000E+00
    0.23187E+06        -0.19398E+07         0.00000E+00
    0.00000E+00         0.00000E+00        -0.17989E+08
 
   -0.17893E+08         0.23809E+06         0.00000E+00
    0.23809E+06        -0.19395E+07         0.00000E+00
    0.00000E+00         0.00000E+00        -0.17955E+08
 
   -0.17857E+08         0.24441E+06         0.00000E+00
    0.24441E+06        -0.19393E+07         0.00000E+00
    0.00000E+00         0.00000E+00        -0.17920E+08
 
   -0.17820E+08         0.25081E+06         0.00000E+00
    0.25081E+06        -0.19390E+07         0.00000E+00
    0.00000E+00         0.00000E+00        -0.17884E+08
 
   -0.17782E+08         0.25730E+06         0.00000E+00
    0.25730E+06        -0.19388E+07         0.00000E+00
    0.00000E+00         0.00000E+00        -0.17847E+08
 
   -0.17743E+08         0.26387E+06         0.00000E+00
    0.26387E+06        -0.19386E+07         0.00000E+00
    0.00000E+00         0.00000E+00        -0.17809E+08
 
   -0.17703E+08         0.27051E+06         0.00000E+00
    0.27051E+06        -0.19384E+07         0.00000E+00
    0.00000E+00         0.00000E+00        -0.17770E+08
 
   -0.17662E+08         0.27723E+06         0.00000E+00
    0.27723E+06        -0.19382E+07         0.00000E+00
    0.00000E+00         0.00000E+00        -0.17730E+08
 
   -0.17620E+08         0.28402E+06         0.00000E+00
    0.28402E+06        -0.19380E+07         0.00000E+00
    0.00000E+00         0.00000E+00        -0.17689E+08
 
   -0.17577E+08         0.29087E+06         0.00000E+00
    0.29087E+06        -0.19378E+07         0.00000E+00
    0.00000E+00         0.00000E+00        -0.17646E+08
 
   -0.17532E+08         0.29777E+06         0.00000E+00
    0.29777E+06        -0.19377E+07         0.00000E+00
    0.00000E+00         0.00000E+00        -0.17603E+08
 
   -0.17487E+08         0.30471E+06         0.00000E+00
    0.30471E+06        -0.19376E+07         0.00000E+00
    0.00000E+00         0.00000E+00        -0.17558E+08
 
   -0.17440E+08         0.31169E+06         0.00000E+00
    0.31169E+06        -0.19376E+07         0.00000E+00
    0.00000E+00         0.00000E+00        -0.17512E+08
 
   -0.17393E+08         0.31870E+06         0.00000E+00
    0.31870E+06        -0.19376E+07         0.00000E+00
    0.00000E+00         0.00000E+00        -0.17465E+08
 
   -0.17344E+08         0.32571E+06         0.00000E+00
    0.32571E+06        -0.19376E+07         0.00000E+00
    0.00000E+00         0.00000E+00        -0.17416E+08
 
   -0.17294E+08         0.33272E+06         0.00000E+00
    0.33272E+06        -0.19377E+07         0.00000E+00
    0.00000E+00         0.00000E+00        -0.17367E+08
 
   -0.17242E+08         0.33972E+06         0.00000E+00
    0.33972E+06        -0.19379E+07         0.00000E+00
    0.00000E+00         0.00000E+00        -0.17315E+08
 
   -0.17190E+08         0.34668E+06         0.00000E+00
    0.34668E+06        -0.19381E+07         0.00000E+00
    0.00000E+00         0.00000E+00        -0.17263E+08
 
   -0.17136E+08         0.35360E+06         0.00000E+00
    0.35360E+06        -0.19383E+07         0.00000E+00
    0.00000E+00         0.00000E+00        -0.17209E+08
 
   -0.17081E+08         0.36044E+06         0.00000E+00
    0.36044E+06        -0.19386E+07         0.00000E+00
    0.00000E+00         0.00000E+00        -0.17154E+08
 
   -0.17025E+08         0.36720E+06         0.00000E+00
    0.36720E+06        -0.19391E+07         0.00000E+00
    0.00000E+00         0.00000E+00        -0.17098E+08
 
   -0.16968E+08         0.37384E+06         0.00000E+00
    0.37384E+06        -0.19395E+07         0.00000E+00
    0.00000E+00         0.00000E+00        -0.17040E+08
 
   -0.16910E+08         0.38034E+06         0.00000E+00
    0.38034E+06        -0.19401E+07         0.00000E+00
    0.00000E+00         0.00000E+00        -0.16980E+08
 
   -0.16850E+08         0.38668E+06         0.00000E+00
    0.38668E+06        -0.19408E+07         0.00000E+00
    0.00000E+00         0.00000E+00        -0.16920E+08
 
   -0.16790E+08         0.39282E+06         0.00000E+00
    0.39282E+06        -0.19416E+07         0.00000E+00
    0.00000E+00         0.00000E+00        -0.16857E+08
 
   -0.16728E+08         0.39874E+06         0.00000E+00
    0.39874E+06        -0.19425E+07         0.00000E+00
    0.00000E+00         0.00000E+00        -0.16794E+08
 
   -0.16665E+08         0.40439E+06         0.00000E+00
    0.40439E+06        -0.19435E+07         0.00000E+00
    0.00000E+00         0.00000E+00        -0.16729E+08
 
   -0.16600E+08         0.40975E+06         0.00000E+00
    0.40975E+06        -0.19446E+07         0.00000E+00
    0.00000E+00         0.00000E+00        -0.16662E+08
 
   -0.16535E+08         0.41478E+06         0.00000E+00
    0.41478E+06        -0.19459E+07         0.00000E+00
    0.00000E+00         0.00000E+00        -0.16594E+08
 
   -0.16469E+08         0.41942E+06         0.00000E+00
    0.41942E+06        -0.19473E+07         0.00000E+00
    0.00000E+00         0.00000E+00        -0.16525E+08
 
   -0.16402E+08         0.42363E+06         0.00000E+00
    0.42363E+06        -0.19490E+07         0.00000E+00
    0.00000E+00         0.00000E+00        -0.16454E+08
 
   -0.16334E+08         0.42736E+06         0.00000E+00
    0.42736E+06        -0.19508E+07         0.00000E+00
    0.00000E+00         0.00000E+00        -0.16382E+08
 
   -0.16264E+08         0.43056E+06         0.00000E+00
    0.43056E+06        -0.19528E+07         0.00000E+00
    0.00000E+00         0.00000E+00        -0.16309E+08
 
   -0.16195E+08         0.43316E+06         0.00000E+00
    0.43316E+06        -0.19550E+07         0.00000E+00
    0.00000E+00         0.00000E+00        -0.16234E+08
 
   -0.16124E+08         0.43509E+06         0.00000E+00
    0.43509E+06        -0.19575E+07         0.00000E+00
    0.00000E+00         0.00000E+00        -0.16158E+08
 
   -0.16052E+08         0.43630E+06         0.00000E+00
    0.43630E+06        -0.19603E+07         0.00000E+00
    0.00000E+00         0.00000E+00        -0.16080E+08
 
   -0.15980E+08         0.43669E+06         0.00000E+00
    0.43669E+06        -0.19634E+07         0.00000E+00
    0.00000E+00         0.00000E+00        -0.16002E+08
 
   -0.15908E+08         0.43618E+06         0.00000E+00
    0.43618E+06        -0.19669E+07         0.00000E+00
    0.00000E+00         0.00000E+00        -0.15922E+08
 
   -0.15834E+08         0.43469E+06         0.00000E+00
    0.43469E+06        -0.19707E+07         0.00000E+00
    0.00000E+00         0.00000E+00        -0.15840E+08
 
   -0.15761E+08         0.43211E+06         0.00000E+00
    0.43211E+06        -0.19750E+07         0.00000E+00
    0.00000E+00         0.00000E+00        -0.15758E+08
 
   -0.15687E+08         0.42834E+06         0.00000E+00
    0.42834E+06        -0.19798E+07         0.00000E+00
    0.00000E+00         0.00000E+00        -0.15675E+08
 
   -0.15613E+08         0.42327E+06         0.00000E+00
    0.42327E+06        -0.19852E+07         0.00000E+00
    0.00000E+00         0.00000E+00        -0.15591E+08
 
   -0.15539E+08         0.41677E+06         0.00000E+00
    0.41677E+06        -0.19912E+07         0.00000E+00
    0.00000E+00         0.00000E+00        -0.15505E+08
 
   -0.15465E+08         0.40872E+06         0.00000E+00
    0.40872E+06        -0.19978E+07         0.00000E+00
    0.00000E+00         0.00000E+00        -0.15419E+08
 
   -0.15390E+08         0.39899E+06         0.00000E+00
    0.39899E+06        -0.20052E+07         0.00000E+00
    0.00000E+00         0.00000E+00        -0.15332E+08
 
   -0.15316E+08         0.38745E+06         0.00000E+00
    0.38745E+06        -0.20133E+07         0.00000E+00
    0.00000E+00         0.00000E+00        -0.15244E+08
 
   -0.15242E+08         0.37396E+06         0.00000E+00
    0.37396E+06        -0.20222E+07         0.00000E+00
    0.00000E+00         0.00000E+00        -0.15156E+08
 
   -0.15169E+08         0.35842E+06         0.00000E+00
    0.35842E+06        -0.20318E+07         0.00000E+00
    0.00000E+00         0.00000E+00        -0.15067E+08
 
   -0.15095E+08         0.34070E+06         0.00000E+00
    0.34070E+06        -0.20420E+07         0.00000E+00
    0.00000E+00         0.00000E+00        -0.14977E+08
 
   -0.15022E+08         0.32073E+06         0.00000E+00
    0.32073E+06        -0.20526E+07         0.00000E+00
    0.00000E+00         0.00000E+00        -0.14887E+08
 
   -0.14948E+08         0.29846E+06         0.00000E+00
    0.29846E+06        -0.20634E+07         0.00000E+00
    0.00000E+00         0.00000E+00        -0.14795E+08
 
   -0.14875E+08         0.27390E+06         0.00000E+00
    0.27390E+06        -0.20738E+07         0.00000E+00
    0.00000E+00         0.00000E+00        -0.14704E+08
 
   -0.14803E+08         0.24716E+06         0.00000E+00
    0.24716E+06        -0.20831E+07         0.00000E+00
    0.00000E+00         0.00000E+00        -0.14611E+08
 
   -0.14731E+08         0.21845E+06         0.00000E+00
    0.21845E+06        -0.20903E+07         0.00000E+00
    0.00000E+00         0.00000E+00        -0.14517E+08
 
   -0.14660E+08         0.18812E+06         0.00000E+00
    0.18812E+06        -0.20940E+07         0.00000E+00
    0.00000E+00         0.00000E+00        -0.14421E+08
 
   -0.14590E+08         0.15674E+06         0.00000E+00
    0.15674E+06        -0.20922E+07         0.00000E+00
    0.00000E+00         0.00000E+00        -0.14324E+08
 
   -0.14523E+08         0.12513E+06         0.00000E+00
    0.12513E+06        -0.20826E+07         0.00000E+00
    0.00000E+00         0.00000E+00        -0.14225E+08
 
   -0.14461E+08         0.94405E+05         0.00000E+00
    0.94405E+05        -0.20622E+07         0.00000E+00
    0.00000E+00         0.00000E+00        -0.14124E+08
 
   -0.14406E+08         0.65978E+05         0.00000E+00
    0.65978E+05        -0.20275E+07         0.00000E+00
    0.00000E+00         0.00000E+00        -0.14020E+08
 
   -0.14361E+08         0.41410E+05         0.00000E+00
    0.41410E+05        -0.19755E+07         0.00000E+00
    0.00000E+00         0.00000E+00        -0.13914E+08
 
   -0.14330E+08         0.21789E+05         0.00000E+00
    0.21789E+05        -0.19041E+07         0.00000E+00
    0.00000E+00         0.00000E+00        -0.13806E+08
 
   -0.14314E+08         0.66454E+04         0.00000E+00
    0.66454E+04        -0.18129E+07         0.00000E+00
    0.00000E+00         0.00000E+00        -0.13696E+08
 
   -0.18671E+08         0.21626E+04         0.00000E+00
    0.21626E+04        -0.19709E+07         0.00000E+00
    0.00000E+00         0.00000E+00        -0.18787E+08
 
   -0.18669E+08         0.67586E+04         0.00000E+00
    0.67586E+04        -0.19581E+07         0.00000E+00
    0.00000E+00         0.00000E+00        -0.18771E+08
 
   -0.18664E+08         0.12032E+05         0.00000E+00
    0.12032E+05        -0.19482E+07         0.00000E+00
    0.00000E+00         0.00000E+00        -0.18756E+08
 
   -0.18657E+08         0.18089E+05         0.00000E+00
    0.18089E+05        -0.19410E+07         0.00000E+00
    0.00000E+00         0.00000E+00        -0.18740E+08
 
   -0.18648E+08         0.24801E+05         0.00000E+00
    0.24801E+05        -0.19362E+07         0.00000E+00
    0.00000E+00         0.00000E+00        -0.18725E+08
 
   -0.18638E+08         0.31948E+05         0.00000E+00
    0.31948E+05        -0.19334E+07         0.00000E+00
    0.00000E+00         0.00000E+00        -0.18710E+08
 
   -0.18627E+08         0.39318E+05         0.00000E+00
    0.39318E+05        -0.19320E+07         0.00000E+00
    0.00000E+00         0.00000E+00        -0.18695E+08
 
   -0.18615E+08         0.46744E+05         0.00000E+00
    0.46744E+05        -0.19317E+07         0.00000E+00
    0.00000E+00         0.00000E+00        -0.18680E+08
 
   -0.18603E+08         0.54104E+05         0.00000E+00
    0.54104E+05        -0.19320E+07         0.00000E+00
    0.00000E+00         0.00000E+00        -0.18665E+08
 
   -0.18590E+08         0.61316E+05         0.00000E+00
    0.61316E+05        -0.19329E+07         0.00000E+00
    0.00000E+00         0.00000E+00        -0.18650E+08
 
   -0.18576E+08         0.68331E+05         0.00000E+00
    0.68331E+05        -0.19339E+07         0.00000E+00
    0.00000E+00         0.00000E+00        -0.18635E+08
 
   -0.18562E+08         0.75125E+05         0.00000E+00
    0.75125E+05        -0.19351E+07         0.00000E+00
    0.00000E+00         0.00000E+00        -0.18619E+08
 
   -0.18547E+08         0.81690E+05         0.00000E+00
    0.81690E+05        -0.19363E+07         0.00000E+00
    0.00000E+00         0.00000E+00        -0.18603E+08
 
   -0.18532E+08         0.88030E+05         0.00000E+00
    0.88030E+05        -0.19375E+07         0.00000E+00
    0.00000E+00         0.00000E+00        -0.18586E+08
 
   -0.18516E+08         0.94157E+05         0.00000E+00
    0.94157E+05        -0.19386E+07         0.00000E+00
    0.00000E+00         0.00000E+00        -0.18570E+08
 
   -0.18500E+08         0.10009E+06         0.00000E+00
    0.10009E+06        -0.19395E+07         0.00000E+00
    0.00000E+00         0.00000E+00        -0.18552E+08
 
   -0.18483E+08         0.10585E+06         0.00000E+00
    0.10585E+06        -0.19404E+07         0.00000E+00
    0.00000E+00         0.00000E+00        -0.18535E+08
 
   -0.18465E+08         0.11146E+06         0.00000E+00
    0.11146E+06        -0.19411E+07         0.00000E+00
    0.00000E+00         0.00000E+00        -0.18516E+08
 
   -0.18447E+08         0.11694E+06         0.00000E+00
    0.11694E+06        -0.19417E+07         0.00000E+00
    0.00000E+00         0.00000E+00        -0.18498E+08
 
   -0.18428E+08         0.12232E+06         0.00000E+00
    0.12232E+06        -0.19422E+07         0.00000E+00
    0.00000E+00         0.00000E+00        -0.18478E+08
 
   -0.18408E+08         0.12761E+06         0.00000E+00
    0.12761E+06        -0.19426E+07         0.00000E+00
    0.00000E+00         0.00000E+00        -0.18459E+08
 
   -0.18388E+08         0.13284E+06         0.00000E+00
    0.13284E+06        -0.19429E+07         0.00000E+00
    0.00000E+00         0.00000E+00        -0.18438E+08
 
   -0.18367E+08         0.13802E+06         0.00000E+00
    0.13802E+06        -0.19431E+07         0.00000E+00
    0.00000E+00         0.00000E+00        -0.18417E+08
 
   -0.18345E+08         0.14318E+06         0.00000E+00
    0.14318E+06        -0.19432E+07         0.00000E+00
    0.00000E+00         0.00000E+00        -0.18396E+08
 
   -0.18322E+08         0.14832E+06         0.00000E+00
    0.14832E+06        -0.19433E+07         0.00000E+00
    0.00000E+00         0.00000E+00        -0.18374E+08
 
   -0.18299E+08         0.15347E+06         0.00000E+00
    0.15347E+06        -0.19433E+07         0.00000E+00
    0.00000E+00         0.00000E+00        -0.18351E+08
 
   -0.18275E+08         0.15864E+06         0.00000E+00
    0.15864E+06        -0.19433E+07         0.00000E+00
    0.00000E+00         0.00000E+00        -0.18327E+08
 
   -0.18250E+08         0.16383E+06         0.00000E+00
    0.16383E+06        -0.19432E+07         0.00000E+00
    0.00000E+00         0.00000E+00        -0.18303E+08
 
   -0.18225E+08         0.16906E+06         0.00000E+00
    0.16906E+06        -0.19431E+07         0.00000E+00
    0.00000E+00         0.00000E+00        -0.18279E+08
 
   -0.18199E+08         0.17434E+06         0.00000E+00
    0.17434E+06        -0.19430E+07         0.00000E+00
    0.00000E+00         0.00000E+00        -0.18253E+08
 
   -0.18171E+08         0.17967E+06         0.00000E+00
    0.17967E+06        -0.19428E+07         0.00000E+00
    0.00000E+00         0.00000E+00        -0.18227E+08
 
   -0.18144E+08         0.18506E+06         0.00000E+00
    0.18506E+06        -0.19426E+07         0.00000E+00
    0.00000E+00         0.00000E+00        -0.18200E+08
 
   -0.18115E+08         0.19053E+06         0.00000E+00
    0.19053E+06        -0.19424E+07         0.00000E+00
    0.00000E+00         0.00000E+00        -0.18172E+08
 
   -0.18085E+08         0.19606E+06         0.00000E+00
    0.19606E+06        -0.19422E+07         0.00000E+00
    0.00000E+00         0.00000E+00        -0.18143E+08
 
   -0.18055E+08         0.20168E+06         0.00000E+00
    0.20168E+06        -0.19420E+07         0.00000E+00
    0.00000E+00         0.00000E+00        -0.18114E+08
 
   -0.18023E+08         0.20737E+06         0.00000E+00
    0.20737E+06        -0.19418E+07         0.00000E+00
    0.00000E+00         0.00000E+00        -0.18084E+08
 
   -0.17991E+08         0.21315E+06         0.00000E+00
    0.21315E+06        -0.19415E+07         0.00000E+00
    0.00000E+00         0.00000E+00        -0.18053E+08
 
   -0.17958E+08         0.21901E+06         0.00000E+00
    0.21901E+06        -0.19413E+07         0.00000E+00
    0.00000E+00         0.00000E+00        -0.18021E+08
 
   -0.17924E+08         0.22496E+06         0.00000E+00
    0.22496E+06        -0.19410E+07         0.00000E+00
    0.00000E+00         0.00000E+00        -0.17988E+08
 
   -0.17889E+08         0.23100E+06         0.00000E+00
    0.23100E+06        -0.19408E+07         0.00000E+00
    0.00000E+00         0.00000E+00        -0.17954E+08
 
   -0.17853E+08         0.23712E+06         0.00000E+00
    0.23712E+06        -0.19405E+07         0.00000E+00
    0.00000E+00         0.00000E+00        -0.17919E+08
 
   -0.17816E+08         0.24332E+06         0.00000E+00
    0.24332E+06        -0.19403E+07         0.00000E+00
    0.00000E+00         0.00000E+00        -0.17883E+08
 
   -0.17778E+08         0.24960E+06         0.00000E+00
    0.24960E+06        -0.19401E+07         0.00000E+00
    0.00000E+00         0.00000E+00        -0.17846E+08
 
   -0.17739E+08         0.25597E+06         0.00000E+00
    0.25597E+06        -0.19399E+07         0.00000E+00
    0.00000E+00         0.00000E+00        -0.17808E+08
 
   -0.17699E+08         0.26240E+06         0.00000E+00
    0.26240E+06        -0.19397E+07         0.00000E+00
    0.00000E+00         0.00000E+00        -0.17769E+08
 
   -0.17658E+08         0.26891E+06         0.00000E+00
    0.26891E+06        -0.19395E+07         0.00000E+00
    0.00000E+00         0.00000E+00        -0.17729E+08
 
   -0.17616E+08         0.27548E+06         0.00000E+00
    0.27548E+06        -0.19393E+07         0.00000E+00
    0.00000E+00         0.00000E+00        -0.17688E+08
 
   -0.17572E+08         0.28211E+06         0.00000E+00
    0.28211E+06        -0.19392E+07         0.00000E+00
    0.00000E+00         0.00000E+00        -0.17645E+08
 
   -0.17528E+08         0.28879E+06         0.00000E+00
    0.28879E+06        -0.19391E+07         0.00000E+00
    0.00000E+00         0.00000E+00        -0.17602E+08
 
   -0.17482E+08         0.29551E+06         0.00000E+00
    0.29551E+06        -0.19390E+07         0.00000E+00
    0.00000E+00         0.00000E+00        -0.17557E+08
 
   -0.17436E+08         0.30226E+06         0.00000E+00
    0.30226E+06        -0.19390E+07         0.00000E+00
    0.00000E+00         0.00000E+00        -0.17511E+08
 
   -0.17388E+08         0.30903E+06         0.00000E+00
    0.30903E+06        -0.19390E+07         0.00000E+00
    0.00000E+00         0.00000E+00        -0.17464E+08
 
   -0.17339E+08         0.31581E+06         0.00000E+00
    0.31581E+06        -0.19390E+07         0.00000E+00
    0.00000E+00         0.00000E+00        -0.17415E+08
 
   -0.17289E+08         0.32259E+06         0.00000E+00
    0.32259E+06        -0.19391E+07         0.00000E+00
    0.00000E+00         0.00000E+00        -0.17365E+08
 
   -0.17238E+08         0.32935E+06         0.00000E+00
    0.32935E+06        -0.19392E+07         0.00000E+00
    0.00000E+00         0.00000E+00        -0.17314E+08
 
   -0.17185E+08         0.33608E+06         0.00000E+00
    0.33608E+06        -0.19394E+07         0.00000E+00
    0.00000E+00         0.00000E+00        -0.17262E+08
 
   -0.17132E+08         0.34275E+06         0.00000E+00
    0.34275E+06        -0.19397E+07         0.00000E+00
    0.00000E+00         0.00000E+00        -0.17208E+08
 
   -0.17077E+08         0.34936E+06         0.00000E+00
    0.34936E+06        -0.19400E+07         0.00000E+00
    0.00000E+00         0.00000E+00        -0.17153E+08
 
   -0.17021E+08         0.35587E+06         0.00000E+00
    0.35587E+06        -0.19404E+07         0.00000E+00
    0.00000E+00         0.00000E+00        -0.17096E+08
 
   -0.16964E+08         0.36228E+06         0.00000E+00
    0.36228E+06        -0.19408E+07         0.00000E+00
    0.00000E+00         0.00000E+00        -0.17039E+08
 
   -0.16905E+08         0.36855E+06         0.00000E+00
    0.36855E+06        -0.19414E+07         0.00000E+00
    0.00000E+00         0.00000E+00        -0.16979E+08
 
   -0.16846E+08         0.37465E+06         0.00000E+00
    0.37465E+06        -0.19420E+07         0.00000E+00
    0.00000E+00         0.00000E+00        -0.16919E+08
 
   -0.16785E+08         0.38056E+06         0.00000E+00
    0.38056E+06        -0.19427E+07         0.00000E+00
    0.00000E+00         0.00000E+00        -0.16856E+08
 
   -0.16723E+08         0.38625E+06         0.00000E+00
    0.38625E+06        -0.19436E+07         0.00000E+00
    0.00000E+00         0.00000E+00        -0.16793E+08
 
   -0.16660E+08         0.39169E+06         0.00000E+00
    0.39169E+06        -0.19445E+07         0.00000E+00
    0.00000E+00         0.00000E+00        -0.16728E+08
 
   -0.16596E+08         0.39683E+06         0.00000E+00
    0.39683E+06        -0.19456E+07         0.00000E+00
    0.00000E+00         0.00000E+00        -0.16661E+08
 
   -0.16531E+08         0.40165E+06         0.00000E+00
    0.40165E+06        -0.19468E+07         0.00000E+00
    0.00000E+00         0.00000E+00        -0.16594E+08
 
   -0.16465E+08         0.40609E+06         0.00000E+00
    0.40609E+06        -0.19482E+07         0.00000E+00
    0.00000E+00         0.00000E+00        -0.16524E+08
 
   -0.16398E+08         0.41010E+06         0.00000E+00
    0.41010E+06        -0.19497E+07         0.00000E+00
    0.00000E+00         0.00000E+00        -0.16454E+08
 
   -0.16330E+08         0.41365E+06         0.00000E+00
    0.41365E+06        -0.19514E+07         0.00000E+00
    0.00000E+00         0.00000E+00        -0.16382E+08
 
   -0.16261E+08         0.41668E+06         0.00000E+00
    0.41668E+06        -0.19533E+07         0.00000E+00
    0.00000E+00         0.00000E+00        -0.16308E+08
 
   -0.16192E+08         0.41912E+06         0.00000E+00
    0.41912E+06        -0.19555E+07         0.00000E+00
    0.00000E+00         0.00000E+00        -0.16233E+08
 
   -0.16121E+08         0.42091E+06         0.00000E+00
    0.42091E+06        -0.19578E+07         0.00000E+00
    0.00000E+00         0.00000E+00        -0.16157E+08
 
   -0.16050E+08         0.42198E+06         0.00000E+00
    0.42198E+06        -0.19605E+07         0.00000E+00
    0.00000E+00         0.00000E+00        -0.16080E+08
 
   -0.15978E+08         0.42225E+06         0.00000E+00
    0.42225E+06        -0.19634E+07         0.00000E+00
    0.00000E+00         0.00000E+00        -0.16001E+08
 
   -0.15906E+08         0.42165E+06         0.00000E+00
    0.42165E+06        -0.19667E+07         0.00000E+00
    0.00000E+00         0.00000E+00        -0.15921E+08
 
   -0.15834E+08         0.42007E+06         0.00000E+00
    0.42007E+06        -0.19703E+07         0.00000E+00
    0.00000E+00         0.00000E+00        -0.15840E+08
 
   -0.15761E+08         0.41743E+06         0.00000E+00
    0.41743E+06        -0.19744E+07         0.00000E+00
    0.00000E+00         0.00000E+00        -0.15758E+08
 
   -0.15687E+08         0.41361E+06         0.00000E+00
    0.41361E+06        -0.19789E+07         0.00000E+00
    0.00000E+00         0.00000E+00        -0.15675E+08
 
   -0.15614E+08         0.40851E+06         0.00000E+00
    0.40851E+06        -0.19840E+07         0.00000E+00
    0.00000E+00         0.00000E+00        -0.15590E+08
 
   -0.15540E+08         0.40200E+06         0.00000E+00
    0.40200E+06        -0.19897E+07         0.00000E+00
    0.00000E+00         0.00000E+00        -0.15505E+08
 
   -0.15467E+08         0.39396E+06         0.00000E+00
    0.39396E+06        -0.19960E+07         0.00000E+00
    0.00000E+00         0.00000E+00        -0.15419E+08
 
   -0.15394E+08         0.38425E+06         0.00000E+00
    0.38425E+06        -0.20030E+07         0.00000E+00
    0.00000E+00         0.00000E+00        -0.15332E+08
 
   -0.15321E+08         0.37274E+06         0.00000E+00
    0.37274E+06        -0.20108E+07         0.00000E+00
    0.00000E+00         0.00000E+00        -0.15245E+08
 
   -0.15248E+08         0.35930E+06         0.00000E+00
    0.35930E+06        -0.20193E+07         0.00000E+00
    0.00000E+00         0.00000E+00        -0.15157E+08
 
   -0.15175E+08         0.34380E+06         0.00000E+00
    0.34380E+06        -0.20284E+07         0.00000E+00
    0.00000E+00         0.00000E+00        -0.15068E+08
 
   -0.15103E+08         0.32613E+06         0.00000E+00
    0.32613E+06        -0.20382E+07         0.00000E+00
    0.00000E+00         0.00000E+00        -0.14978E+08
 
   -0.15031E+08         0.30621E+06         0.00000E+00
    0.30621E+06        -0.20484E+07         0.00000E+00
    0.00000E+00         0.00000E+00        -0.14888E+08
 
   -0.14959E+08         0.28400E+06         0.00000E+00
    0.28400E+06        -0.20587E+07         0.00000E+00
    0.00000E+00         0.00000E+00        -0.14797E+08
 
   -0.14888E+08         0.25951E+06         0.00000E+00
    0.25951E+06        -0.20687E+07         0.00000E+00
    0.00000E+00         0.00000E+00        -0.14706E+08
 
   -0.14817E+08         0.23286E+06         0.00000E+00
    0.23286E+06        -0.20776E+07         0.00000E+00
    0.00000E+00         0.00000E+00        -0.14613E+08
 
   -0.14747E+08         0.20429E+06         0.00000E+00
    0.20429E+06        -0.20844E+07         0.00000E+00
    0.00000E+00         0.00000E+00        -0.14520E+08
 
   -0.14678E+08         0.17421E+06         0.00000E+00
    0.17421E+06        -0.20878E+07         0.00000E+00
    0.00000E+00         0.00000E+00        -0.14425E+08
 
   -0.14610E+08         0.14326E+06         0.00000E+00
    0.14326E+06        -0.20859E+07         0.00000E+00
    0.00000E+00         0.00000E+00        -0.14328E+08
 
   -0.14546E+08         0.11237E+06         0.00000E+00
    0.11237E+06        -0.20764E+07         0.00000E+00
    0.00000E+00         0.00000E+00        -0.14230E+08
 
   -0.14486E+08         0.82792E+05         0.00000E+00
    0.82792E+05        -0.20563E+07         0.00000E+00
    0.00000E+00         0.00000E+00        -0.14130E+08
 
   -0.14433E+08         0.56085E+05         0.00000E+00
    0.56085E+05        -0.20224E+07         0.00000E+00
    0.00000E+00         0.00000E+00        -0.14027E+08
 
   -0.14391E+08         0.33858E+05         0.00000E+00
    0.33858E+05        -0.19713E+07         0.00000E+00
    0.00000E+00         0.00000E+00        -0.13922E+08
 
   -0.14360E+08         0.17081E+05         0.00000E+00
    0.17081E+05        -0.19010E+07         0.00000E+00
    0.00000E+00         0.00000E+00        -0.13814E+08
 
   -0.14345E+08         0.50520E+04         0.00000E+00
    0.50520E+04        -0.18106E+07         0.00000E+00
    0.00000E+00         0.00000E+00        -0.13705E+08
 
   -0.18665E+08         0.19148E+04         0.00000E+00
    0.19148E+04        -0.19717E+07         0.00000E+00
    0.00000E+00         0.00000E+00        -0.18785E+08
 
   -0.18663E+08         0.60261E+04         0.00000E+00
    0.60261E+04        -0.19590E+07         0.00000E+00
    0.00000E+00         0.00000E+00        -0.18770E+08
 
   -0.18658E+08         0.10852E+05         0.00000E+00
    0.10852E+05        -0.19492E+07         0.00000E+00
    0.00000E+00         0.00000E+00        -0.18754E+08
 
   -0.18651E+08         0.16528E+05         0.00000E+00
    0.16528E+05        -0.19422E+07         0.00000E+00
    0.00000E+00         0.00000E+00        -0.18739E+08
 
   -0.18643E+08         0.22938E+05         0.00000E+00
    0.22938E+05        -0.19376E+07         0.00000E+00
    0.00000E+00         0.00000E+00        -0.18724E+08
 
   -0.18633E+08         0.29856E+05         0.00000E+00
    0.29856E+05        -0.19348E+07         0.00000E+00
    0.00000E+00         0.00000E+00        -0.18709E+08
 
   -0.18622E+08         0.37050E+05         0.00000E+00
    0.37050E+05        -0.19335E+07         0.00000E+00
    0.00000E+00         0.00000E+00        -0.18694E+08
 
   -0.18611E+08         0.44335E+05         0.00000E+00
    0.44335E+05        -0.19331E+07         0.00000E+00
    0.00000E+00         0.00000E+00        -0.18679E+08
 
   -0.18599E+08         0.51572E+05         0.00000E+00
    0.51572E+05        -0.19335E+07         0.00000E+00
    0.00000E+00         0.00000E+00        -0.18664E+08
 
   -0.18586E+08         0.58672E+05         0.00000E+00
    0.58672E+05        -0.19343E+07         0.00000E+00
    0.00000E+00         0.00000E+00        -0.18649E+08
 
   -0.18572E+08         0.65578E+05         0.00000E+00
    0.65578E+05        -0.19353E+07         0.00000E+00
    0.00000E+00         0.00000E+00        -0.18634E+08
 
   -0.18559E+08         0.72262E+05         0.00000E+00
    0.72262E+05        -0.19364E+07         0.00000E+00
    0.00000E+00         0.00000E+00        -0.18618E+08
 
   -0.18544E+08         0.78714E+05         0.00000E+00
    0.78714E+05        -0.19376E+07         0.00000E+00
    0.00000E+00         0.00000E+00        -0.18602E+08
 
   -0.18529E+08         0.84937E+05         0.00000E+00
    0.84937E+05        -0.19387E+07         0.00000E+00
    0.00000E+00         0.00000E+00        -0.18586E+08
 
   -0.18513E+08         0.90944E+05         0.00000E+00
    0.90944E+05        -0.19397E+07         0.00000E+00
    0.00000E+00         0.00000E+00        -0.18569E+08
 
   -0.18497E+08         0.96753E+05         0.00000E+00
    0.96753E+05        -0.19407E+07         0.00000E+00
    0.00000E+00         0.00000E+00        -0.18552E+08
 
   -0.18480E+08         0.10239E+06         0.00000E+00
    0.10239E+06        -0.19415E+07         0.00000E+00
    0.00000E+00         0.00000E+00        -0.18534E+08
 
   -0.18462E+08         0.10786E+06         0.00000E+00
    0.10786E+06        -0.19422E+07         0.00000E+00
    0.00000E+00         0.00000E+00        -0.18516E+08
 
   -0.18444E+08         0.11321E+06         0.00000E+00
    0.11321E+06        -0.19428E+07         0.00000E+00
    0.00000E+00         0.00000E+00        -0.18497E+08
 
   -0.18425E+08         0.11845E+06         0.00000E+00
    0.11845E+06        -0.19432E+07         0.00000E+00
    0.00000E+00         0.00000E+00        -0.18478E+08
 
   -0.18405E+08         0.12360E+06         0.00000E+00
    0.12360E+06        -0.19436E+07         0.00000E+00
    0.00000E+00         0.00000E+00        -0.18458E+08
 
   -0.18385E+08         0.12869E+06         0.00000E+00
    0.12869E+06        -0.19439E+07         0.00000E+00
    0.00000E+00         0.00000E+00        -0.18438E+08
 
   -0.18364E+08         0.13373E+06         0.00000E+00
    0.13373E+06        -0.19441E+07         0.00000E+00
    0.00000E+00         0.00000E+00        -0.18417E+08
 
   -0.18342E+08         0.13874E+06         0.00000E+00
    0.13874E+06        -0.19442E+07         0.00000E+00
    0.00000E+00         0.00000E+00        -0.18395E+08
 
   -0.18319E+08         0.14374E+06         0.00000E+00
    0.14374E+06        -0.19443E+07         0.00000E+00
    0.00000E+00         0.00000E+00        -0.18373E+08
 
   -0.18296E+08         0.14874E+06         0.00000E+00
    0.14874E+06        -0.19443E+07         0.00000E+00
    0.00000E+00         0.00000E+00        -0.18350E+08
 
   -0.18272E+08         0.15376E+06         0.00000E+00
    0.15376E+06        -0.19443E+07         0.00000E+00
    0.00000E+00         0.00000E+00        -0.18327E+08
 
   -0.18247E+08         0.15879E+06         0.00000E+00
    0.15879E+06        -0.19443E+07         0.00000E+00
    0.00000E+00         0.00000E+00        -0.18303E+08
 
   -0.18222E+08         0.16387E+06         0.00000E+00
    0.16387E+06        -0.19442E+07         0.00000E+00
    0.00000E+00         0.00000E+00        -0.18278E+08
 
   -0.18195E+08         0.16899E+06         0.00000E+00
    0.16899E+06        -0.19440E+07         0.00000E+00
    0.00000E+00         0.00000E+00        -0.18252E+08
 
   -0.18168E+08         0.17416E+06         0.00000E+00
    0.17416E+06        -0.19439E+07         0.00000E+00
    0.00000E+00         0.00000E+00        -0.18226E+08
 
   -0.18140E+08         0.17939E+06         0.00000E+00
    0.17939E+06        -0.19437E+07         0.00000E+00
    0.00000E+00         0.00000E+00        -0.18199E+08
 
   -0.18111E+08         0.18469E+06         0.00000E+00
    0.18469E+06        -0.19435E+07         0.00000E+00
    0.00000E+00         0.00000E+00        -0.18171E+08
 
   -0.18082E+08         0.19005E+06         0.00000E+00
    0.19005E+06        -0.19433E+07         0.00000E+00
    0.00000E+00         0.00000E+00        -0.18143E+08
 
   -0.18051E+08         0.19549E+06         0.00000E+00
    0.19549E+06        -0.19431E+07         0.00000E+00
    0.00000E+00         0.00000E+00        -0.18113E+08
 
   -0.18020E+08         0.20101E+06         0.00000E+00
    0.20101E+06        -0.19429E+07         0.00000E+00
    0.00000E+00         0.00000E+00        -0.18083E+08
 
   -0.17987E+08         0.20661E+06         0.00000E+00
    0.20661E+06        -0.19427E+07         0.00000E+00
    0.00000E+00         0.00000E+00        -0.18052E+08
 
   -0.17954E+08         0.21228E+06         0.00000E+00
    0.21228E+06        -0.19424E+07         0.00000E+00
    0.00000E+00         0.00000E+00        -0.18020E+08
 
   -0.17920E+08         0.21804E+06         0.00000E+00
    0.21804E+06        -0.19422E+07         0.00000E+00
    0.00000E+00         0.00000E+00        -0.17987E+08
 
   -0.17885E+08         0.22389E+06         0.00000E+00
    0.22389E+06        -0.19420E+07         0.00000E+00
    0.00000E+00         0.00000E+00        -0.17953E+08
 
   -0.17849E+08         0.22981E+06         0.00000E+00
    0.22981E+06        -0.19418E+07         0.00000E+00
    0.00000E+00         0.00000E+00        -0.17918E+08
 
   -0.17812E+08         0.23582E+06         0.00000E+00
    0.23582E+06        -0.19415E+07         0.00000E+00
    0.00000E+00         0.00000E+00        -0.17882E+08
 
   -0.17774E+08         0.24190E+06         0.00000E+00
    0.24190E+06        -0.19413E+07         0.00000E+00
    0.00000E+00         0.00000E+00        -0.17845E+08
 
   -0.17735E+08         0.24805E+06         0.00000E+00
    0.24805E+06        -0.19411E+07         0.00000E+00
    0.00000E+00         0.00000E+00        -0.17807E+08
 
   -0.17694E+08         0.25428E+06         0.00000E+00
    0.25428E+06        -0.19409E+07         0.00000E+00
    0.00000E+00         0.00000E+00        -0.17768E+08
 
   -0.17653E+08         0.26057E+06         0.00000E+00
    0.26057E+06        -0.19408E+07         0.00000E+00
    0.00000E+00         0.00000E+00        -0.17728E+08
 
   -0.17611E+08         0.26693E+06         0.00000E+00
    0.26693E+06        -0.19406E+07         0.00000E+00
    0.00000E+00         0.00000E+00        -0.17687E+08
 
   -0.17568E+08         0.27334E+06         0.00000E+00
    0.27334E+06        -0.19405E+07         0.00000E+00
    0.00000E+00         0.00000E+00        -0.17644E+08
 
   -0.17523E+08         0.27979E+06         0.00000E+00
    0.27979E+06        -0.19404E+07         0.00000E+00
    0.00000E+00         0.00000E+00        -0.17601E+08
 
   -0.17478E+08         0.28629E+06         0.00000E+00
    0.28629E+06        -0.19403E+07         0.00000E+00
    0.00000E+00         0.00000E+00        -0.17556E+08
 
   -0.17431E+08         0.29281E+06         0.00000E+00
    0.29281E+06        -0.19403E+07         0.00000E+00
    0.00000E+00         0.00000E+00        -0.17510E+08
 
   -0.17383E+08         0.29935E+06         0.00000E+00
    0.29935E+06        -0.19403E+07         0.00000E+00
    0.00000E+00         0.00000E+00        -0.17463E+08
 
   -0.17334E+08         0.30590E+06         0.00000E+00
    0.30590E+06        -0.19403E+07         0.00000E+00
    0.00000E+00         0.00000E+00        -0.17414E+08
 
   -0.17284E+08         0.31245E+06         0.00000E+00
    0.31245E+06        -0.19404E+07         0.00000E+00
    0.00000E+00         0.00000E+00        -0.17364E+08
 
   -0.17233E+08         0.31898E+06         0.00000E+00
    0.31898E+06        -0.19406E+07         0.00000E+00
    0.00000E+00         0.00000E+00        -0.17313E+08
 
   -0.17180E+08         0.32547E+06         0.00000E+00
    0.32547E+06        -0.19407E+07         0.00000E+00
    0.00000E+00         0.00000E+00        -0.17261E+08
 
   -0.17127E+08         0.33191E+06         0.00000E+00
    0.33191E+06        -0.19410E+07         0.00000E+00
    0.00000E+00         0.00000E+00        -0.17207E+08
 
   -0.17072E+08         0.33828E+06         0.00000E+00
    0.33828E+06        -0.19413E+07         0.00000E+00
    0.00000E+00         0.00000E+00        -0.17152E+08
 
   -0.17016E+08         0.34456E+06         0.00000E+00
    0.34456E+06        -0.19416E+07         0.00000E+00
    0.00000E+00         0.00000E+00        -0.17095E+08
 
   -0.16959E+08         0.35073E+06         0.00000E+00
    0.35073E+06        -0.19421E+07         0.00000E+00
    0.00000E+00         0.00000E+00        -0.17038E+08
 
   -0.16900E+08         0.35676E+06         0.00000E+00
    0.35676E+06        -0.19426E+07         0.00000E+00
    0.00000E+00         0.00000E+00        -0.16978E+08
 
   -0.16841E+08         0.36264E+06         0.00000E+00
    0.36264E+06        -0.19432E+07         0.00000E+00
    0.00000E+00         0.00000E+00        -0.16918E+08
 
   -0.16780E+08         0.36832E+06         0.00000E+00
    0.36832E+06        -0.19439E+07         0.00000E+00
    0.00000E+00         0.00000E+00        -0.16855E+08
 
   -0.16719E+08         0.37379E+06         0.00000E+00
    0.37379E+06        -0.19447E+07         0.00000E+00
    0.00000E+00         0.00000E+00        -0.16792E+08
 
   -0.16656E+08         0.37901E+06         0.00000E+00
    0.37901E+06        -0.19456E+07         0.00000E+00
    0.00000E+00         0.00000E+00        -0.16727E+08
 
   -0.16592E+08         0.38394E+06         0.00000E+00
    0.38394E+06        -0.19466E+07         0.00000E+00
    0.00000E+00         0.00000E+00        -0.16660E+08
 
   -0.16527E+08         0.38855E+06         0.00000E+00
    0.38855E+06        -0.19477E+07         0.00000E+00
    0.00000E+00         0.00000E+00        -0.16593E+08
 
   -0.16461E+08         0.39279E+06         0.00000E+00
    0.39279E+06        -0.19490E+07         0.00000E+00
    0.00000E+00         0.00000E+00        -0.16523E+08
 
   -0.16394E+08         0.39662E+06         0.00000E+00
    0.39662E+06        -0.19505E+07         0.00000E+00
    0.00000E+00         0.00000E+00        -0.16453E+08
 
   -0.16327E+08         0.39999E+06         0.00000E+00
    0.39999E+06        -0.19521E+07         0.00000E+00
    0.00000E+00         0.00000E+00        -0.16381E+08
 
   -0.16258E+08         0.40285E+06         0.00000E+00
    0.40285E+06        -0.19539E+07         0.00000E+00
    0.00000E+00         0.00000E+00        -0.16307E+08
 
   -0.16189E+08         0.40514E+06         0.00000E+00
    0.40514E+06        -0.19559E+07         0.00000E+00
    0.00000E+00         0.00000E+00        -0.16233E+08
 
   -0.16119E+08         0.40679E+06         0.00000E+00
    0.40679E+06        -0.19581E+07         0.00000E+00
    0.00000E+00         0.00000E+00        -0.16156E+08
 
   -0.16048E+08         0.40773E+06         0.00000E+00
    0.40773E+06        -0.19606E+07         0.00000E+00
    0.00000E+00         0.00000E+00        -0.16079E+08
 
   -0.15977E+08         0.40790E+06         0.00000E+00
    0.40790E+06        -0.19634E+07         0.00000E+00
    0.00000E+00         0.00000E+00        -0.16000E+08
 
   -0.15905E+08         0.40720E+06         0.00000E+00
    0.40720E+06        -0.19664E+07         0.00000E+00
    0.00000E+00         0.00000E+00        -0.15921E+08
 
   -0.15833E+08         0.40555E+06         0.00000E+00
    0.40555E+06        -0.19699E+07         0.00000E+00
    0.00000E+00         0.00000E+00        -0.15840E+08
 
   -0.15760E+08         0.40286E+06         0.00000E+00
    0.40286E+06        -0.19737E+07         0.00000E+00
    0.00000E+00         0.00000E+00        -0.15758E+08
 
   -0.15687E+08         0.39901E+06         0.00000E+00
    0.39901E+06        -0.19781E+07         0.00000E+00
    0.00000E+00         0.00000E+00        -0.15674E+08
 
   -0.15615E+08         0.39389E+06         0.00000E+00
    0.39389E+06        -0.19829E+07         0.00000E+00
    0.00000E+00         0.00000E+00        -0.15590E+08
 
   -0.15542E+08         0.38739E+06         0.00000E+00
    0.38739E+06        -0.19883E+07         0.00000E+00
    0.00000E+00         0.00000E+00        -0.15505E+08
 
   -0.15469E+08         0.37936E+06         0.00000E+00
    0.37936E+06        -0.19943E+07         0.00000E+00
    0.00000E+00         0.00000E+00        -0.15419E+08
 
   -0.15397E+08         0.36969E+06         0.00000E+00
    0.36969E+06        -0.20009E+07         0.00000E+00
    0.00000E+00         0.00000E+00        -0.15333E+08
 
   -0.15325E+08         0.35823E+06         0.00000E+00
    0.35823E+06        -0.20083E+07         0.00000E+00
    0.00000E+00         0.00000E+00        -0.15245E+08
 
   -0.15253E+08         0.34485E+06         0.00000E+00
    0.34485E+06        -0.20164E+07         0.00000E+00
    0.00000E+00         0.00000E+00        -0.15157E+08
 
   -0.15181E+08         0.32942E+06         0.00000E+00
    0.32942E+06        -0.20251E+07         0.00000E+00
    0.00000E+00         0.00000E+00        -0.15069E+08
 
   -0.15110E+08         0.31183E+06         0.00000E+00
    0.31183E+06        -0.20345E+07         0.00000E+00
    0.00000E+00         0.00000E+00        -0.14979E+08
 
   -0.15040E+08         0.29198E+06         0.00000E+00
    0.29198E+06        -0.20442E+07         0.00000E+00
    0.00000E+00         0.00000E+00        -0.14890E+08
 
   -0.14970E+08         0.26986E+06         0.00000E+00
    0.26986E+06        -0.20541E+07         0.00000E+00
    0.00000E+00         0.00000E+00        -0.14799E+08
 
   -0.14900E+08         0.24547E+06         0.00000E+00
    0.24547E+06        -0.20636E+07         0.00000E+00
    0.00000E+00         0.00000E+00        -0.14708E+08
 
   -0.14831E+08         0.21895E+06         0.00000E+00
    0.21895E+06        -0.20720E+07         0.00000E+00
    0.00000E+00         0.00000E+00        -0.14616E+08
 
   -0.14763E+08         0.19056E+06         0.00000E+00
    0.19056E+06        -0.20785E+07         0.00000E+00
    0.00000E+00         0.00000E+00        -0.14523E+08
 
   -0.14696E+08         0.16076E+06         0.00000E+00
    0.16076E+06        -0.20817E+07         0.00000E+00
    0.00000E+00         0.00000E+00        -0.14428E+08
 
   -0.14631E+08         0.13025E+06         0.00000E+00
    0.13025E+06        -0.20797E+07         0.00000E+00
    0.00000E+00         0.00000E+00        -0.14333E+08
 
   -0.14569E+08         0.10008E+06         0.00000E+00
    0.10008E+06        -0.20704E+07         0.00000E+00
    0.00000E+00         0.00000E+00        -0.14235E+08
 
   -0.14511E+08         0.71634E+05         0.00000E+00
    0.71634E+05        -0.20508E+07         0.00000E+00
    0.00000E+00         0.00000E+00        -0.14136E+08
 
   -0.14461E+08         0.46586E+05         0.00000E+00
    0.46586E+05        -0.20176E+07         0.00000E+00
    0.00000E+00         0.00000E+00        -0.14034E+08
 
   -0.14420E+08         0.26600E+05         0.00000E+00
    0.26600E+05        -0.19677E+07         0.00000E+00
    0.00000E+00         0.00000E+00        -0.13929E+08
 
   -0.14390E+08         0.12545E+05         0.00000E+00
    0.12545E+05        -0.18985E+07         0.00000E+00
    0.00000E+00         0.00000E+00        -0.13822E+08
 
   -0.14375E+08         0.35127E+04         0.00000E+00
    0.35127E+04        -0.18088E+07         0.00000E+00
    0.00000E+00         0.00000E+00        -0.13714E+08
 
   -0.18660E+08         0.16727E+04         0.00000E+00
    0.16727E+04        -0.19724E+07         0.00000E+00
    0.00000E+00         0.00000E+00        -0.18784E+08
 
   -0.18657E+08         0.53123E+04         0.00000E+00
    0.53123E+04        -0.19598E+07         0.00000E+00
    0.00000E+00         0.00000E+00        -0.18768E+08
 
   -0.18653E+08         0.97059E+04         0.00000E+00
    0.97059E+04        -0.19503E+07         0.00000E+00
    0.00000E+00         0.00000E+00        -0.18753E+08
 
   -0.18646E+08         0.15014E+05         0.00000E+00
    0.15014E+05        -0.19434E+07         0.00000E+00
    0.00000E+00         0.00000E+00        -0.18738E+08
 
   -0.18638E+08         0.21130E+05         0.00000E+00
    0.21130E+05        -0.19389E+07         0.00000E+00
    0.00000E+00         0.00000E+00        -0.18723E+08
 
   -0.18628E+08         0.27820E+05         0.00000E+00
    0.27820E+05        -0.19362E+07         0.00000E+00
    0.00000E+00         0.00000E+00        -0.18708E+08
 
   -0.18618E+08         0.34837E+05         0.00000E+00
    0.34837E+05        -0.19349E+07         0.00000E+00
    0.00000E+00         0.00000E+00        -0.18693E+08
 
   -0.18607E+08         0.41976E+05         0.00000E+00
    0.41976E+05        -0.19346E+07         0.00000E+00
    0.00000E+00         0.00000E+00        -0.18679E+08
 
   -0.18595E+08         0.49087E+05         0.00000E+00
    0.49087E+05        -0.19349E+07         0.00000E+00
    0.00000E+00         0.00000E+00        -0.18664E+08
 
   -0.18582E+08         0.56069E+05         0.00000E+00
    0.56069E+05        -0.19357E+07         0.00000E+00
    0.00000E+00         0.00000E+00        -0.18649E+08
 
   -0.18569E+08         0.62860E+05         0.00000E+00
    0.62860E+05        -0.19367E+07         0.00000E+00
    0.00000E+00         0.00000E+00        -0.18633E+08
 
   -0.18555E+08         0.69428E+05         0.00000E+00
    0.69428E+05        -0.19377E+07         0.00000E+00
    0.00000E+00         0.00000E+00        -0.18618E+08
 
   -0.18541E+08         0.75762E+05         0.00000E+00
    0.75762E+05        -0.19389E+07         0.00000E+00
    0.00000E+00         0.00000E+00        -0.18602E+08
 
   -0.18526E+08         0.81865E+05         0.00000E+00
    0.81865E+05        -0.19399E+07         0.00000E+00
    0.00000E+00         0.00000E+00        -0.18585E+08
 
   -0.18510E+08         0.87747E+05         0.00000E+00
    0.87747E+05        -0.19409E+07         0.00000E+00
    0.00000E+00         0.00000E+00        -0.18568E+08
 
   -0.18494E+08         0.93428E+05         0.00000E+00
    0.93428E+05        -0.19418E+07         0.00000E+00
    0.00000E+00         0.00000E+00        -0.18551E+08
 
   -0.18477E+08         0.98930E+05         0.00000E+00
    0.98930E+05        -0.19426E+07         0.00000E+00
    0.00000E+00         0.00000E+00        -0.18533E+08
 
   -0.18459E+08         0.10427E+06         0.00000E+00
    0.10427E+06        -0.19432E+07         0.00000E+00
    0.00000E+00         0.00000E+00        -0.18515E+08
 
   -0.18441E+08         0.10949E+06         0.00000E+00
    0.10949E+06        -0.19438E+07         0.00000E+00
    0.00000E+00         0.00000E+00        -0.18496E+08
 
   -0.18422E+08         0.11459E+06         0.00000E+00
    0.11459E+06        -0.19442E+07         0.00000E+00
    0.00000E+00         0.00000E+00        -0.18477E+08
 
   -0.18402E+08         0.11960E+06         0.00000E+00
    0.11960E+06        -0.19446E+07         0.00000E+00
    0.00000E+00         0.00000E+00        -0.18457E+08
 
   -0.18382E+08         0.12454E+06         0.00000E+00
    0.12454E+06        -0.19449E+07         0.00000E+00
    0.00000E+00         0.00000E+00        -0.18437E+08
 
   -0.18361E+08         0.12944E+06         0.00000E+00
    0.12944E+06        -0.19451E+07         0.00000E+00
    0.00000E+00         0.00000E+00        -0.18416E+08
 
   -0.18339E+08         0.13431E+06         0.00000E+00
    0.13431E+06        -0.19452E+07         0.00000E+00
    0.00000E+00         0.00000E+00        -0.18395E+08
 
   -0.18316E+08         0.13916E+06         0.00000E+00
    0.13916E+06        -0.19453E+07         0.00000E+00
    0.00000E+00         0.00000E+00        -0.18372E+08
 
   -0.18293E+08         0.14401E+06         0.00000E+00
    0.14401E+06        -0.19453E+07         0.00000E+00
    0.00000E+00         0.00000E+00        -0.18350E+08
 
   -0.18269E+08         0.14887E+06         0.00000E+00
    0.14887E+06        -0.19453E+07         0.00000E+00
    0.00000E+00         0.00000E+00        -0.18326E+08
 
   -0.18244E+08         0.15375E+06         0.00000E+00
    0.15375E+06        -0.19452E+07         0.00000E+00
    0.00000E+00         0.00000E+00        -0.18302E+08
 
   -0.18218E+08         0.15867E+06         0.00000E+00
    0.15867E+06        -0.19452E+07         0.00000E+00
    0.00000E+00         0.00000E+00        -0.18277E+08
 
   -0.18192E+08         0.16363E+06         0.00000E+00
    0.16363E+06        -0.19450E+07         0.00000E+00
    0.00000E+00         0.00000E+00        -0.18252E+08
 
   -0.18165E+08         0.16864E+06         0.00000E+00
    0.16864E+06        -0.19449E+07         0.00000E+00
    0.00000E+00         0.00000E+00        -0.18225E+08
 
   -0.18137E+08         0.17370E+06         0.00000E+00
    0.17370E+06        -0.19448E+07         0.00000E+00
    0.00000E+00         0.00000E+00        -0.18198E+08
 
   -0.18108E+08         0.17883E+06         0.00000E+00
    0.17883E+06        -0.19446E+07         0.00000E+00
    0.00000E+00         0.00000E+00        -0.18171E+08
 
   -0.18078E+08         0.18403E+06         0.00000E+00
    0.18403E+06        -0.19444E+07         0.00000E+00
    0.00000E+00         0.00000E+00        -0.18142E+08
 
   -0.18048E+08         0.18929E+06         0.00000E+00
    0.18929E+06        -0.19442E+07         0.00000E+00
    0.00000E+00         0.00000E+00        -0.18113E+08
 
   -0.18016E+08         0.19463E+06         0.00000E+00
    0.19463E+06        -0.19440E+07         0.00000E+00
    0.00000E+00         0.00000E+00        -0.18082E+08
 
   -0.17984E+08         0.20005E+06         0.00000E+00
    0.20005E+06        -0.19438E+07         0.00000E+00
    0.00000E+00         0.00000E+00        -0.18051E+08
 
   -0.17950E+08         0.20554E+06         0.00000E+00
    0.20554E+06        -0.19436E+07         0.00000E+00
    0.00000E+00         0.00000E+00        -0.18019E+08
 
   -0.17916E+08         0.21111E+06         0.00000E+00
    0.21111E+06        -0.19433E+07         0.00000E+00
    0.00000E+00         0.00000E+00        -0.17986E+08
 
   -0.17881E+08         0.21676E+06         0.00000E+00
    0.21676E+06        -0.19431E+07         0.00000E+00
    0.00000E+00         0.00000E+00        -0.17952E+08
 
   -0.17845E+08         0.22249E+06         0.00000E+00
    0.22249E+06        -0.19429E+07         0.00000E+00
    0.00000E+00         0.00000E+00        -0.17917E+08
 
   -0.17808E+08         0.22830E+06         0.00000E+00
    0.22830E+06        -0.19427E+07         0.00000E+00
    0.00000E+00         0.00000E+00        -0.17881E+08
 
   -0.17770E+08         0.23418E+06         0.00000E+00
    0.23418E+06        -0.19425E+07         0.00000E+00
    0.00000E+00         0.00000E+00        -0.17844E+08
 
   -0.17730E+08         0.24013E+06         0.00000E+00
    0.24013E+06        -0.19423E+07         0.00000E+00
    0.00000E+00         0.00000E+00        -0.17806E+08
 
   -0.17690E+08         0.24614E+06         0.00000E+00
    0.24614E+06        -0.19422E+07         0.00000E+00
    0.00000E+00         0.00000E+00        -0.17767E+08
 
   -0.17649E+08         0.25223E+06         0.00000E+00
    0.25223E+06        -0.19420E+07         0.00000E+00
    0.00000E+00         0.00000E+00        -0.17727E+08
 
   -0.17607E+08         0.25836E+06         0.00000E+00
    0.25836E+06        -0.19419E+07         0.00000E+00
    0.00000E+00         0.00000E+00        -0.17686E+08
 
   -0.17563E+08         0.26455E+06         0.00000E+00
    0.26455E+06        -0.19418E+07         0.00000E+00
    0.00000E+00         0.00000E+00        -0.17644E+08
 
   -0.17519E+08         0.27079E+06         0.00000E+00
    0.27079E+06        -0.19417E+07         0.00000E+00
    0.00000E+00         0.00000E+00        -0.17600E+08
 
   -0.17473E+08         0.27706E+06         0.00000E+00
    0.27706E+06        -0.19416E+07         0.00000E+00
    0.00000E+00         0.00000E+00        -0.17555E+08
 
   -0.17426E+08         0.28336E+06         0.00000E+00
    0.28336E+06        -0.19416E+07         0.00000E+00
    0.00000E+00         0.00000E+00        -0.17509E+08
 
   -0.17379E+08         0.28967E+06         0.00000E+00
    0.28967E+06        -0.19416E+07         0.00000E+00
    0.00000E+00         0.00000E+00        -0.17462E+08
 
   -0.17330E+08         0.29599E+06         0.00000E+00
    0.29599E+06        -0.19416E+07         0.00000E+00
    0.00000E+00         0.00000E+00        -0.17413E+08
 
   -0.17279E+08         0.30231E+06         0.00000E+00
    0.30231E+06        -0.19417E+07         0.00000E+00
    0.00000E+00         0.00000E+00        -0.17363E+08
 
   -0.17228E+08         0.30860E+06         0.00000E+00
    0.30860E+06        -0.19418E+07         0.00000E+00
    0.00000E+00         0.00000E+00        -0.17312E+08
 
   -0.17176E+08         0.31486E+06         0.00000E+00
    0.31486E+06        -0.19420E+07         0.00000E+00
    0.00000E+00         0.00000E+00        -0.17260E+08
 
   -0.17122E+08         0.32106E+06         0.00000E+00
    0.32106E+06        -0.19422E+07         0.00000E+00
    0.00000E+00         0.00000E+00        -0.17206E+08
 
   -0.17067E+08         0.32720E+06         0.00000E+00
    0.32720E+06        -0.19425E+07         0.00000E+00
    0.00000E+00         0.00000E+00        -0.17151E+08
 
   -0.17011E+08         0.33325E+06         0.00000E+00
    0.33325E+06        -0.19429E+07         0.00000E+00
    0.00000E+00         0.00000E+00        -0.17094E+08
 
   -0.16954E+08         0.33919E+06         0.00000E+00
    0.33919E+06        -0.19433E+07         0.00000E+00
    0.00000E+00         0.00000E+00        -0.17036E+08
 
   -0.16896E+08         0.34499E+06         0.00000E+00
    0.34499E+06        -0.19438E+07         0.00000E+00
    0.00000E+00         0.00000E+00        -0.16977E+08
 
   -0.16836E+08         0.35064E+06         0.00000E+00
    0.35064E+06        -0.19443E+07         0.00000E+00
    0.00000E+00         0.00000E+00        -0.16916E+08
 
   -0.16776E+08         0.35610E+06         0.00000E+00
    0.35610E+06        -0.19450E+07         0.00000E+00
    0.00000E+00         0.00000E+00        -0.16854E+08
 
   -0.16714E+08         0.36135E+06         0.00000E+00
    0.36135E+06        -0.19457E+07         0.00000E+00
    0.00000E+00         0.00000E+00        -0.16791E+08
 
   -0.16652E+08         0.36636E+06         0.00000E+00
    0.36636E+06        -0.19466E+07         0.00000E+00
    0.00000E+00         0.00000E+00        -0.16726E+08
 
   -0.16588E+08         0.37108E+06         0.00000E+00
    0.37108E+06        -0.19475E+07         0.00000E+00
    0.00000E+00         0.00000E+00        -0.16659E+08
 
   -0.16523E+08         0.37549E+06         0.00000E+00
    0.37549E+06        -0.19486E+07         0.00000E+00
    0.00000E+00         0.00000E+00        -0.16592E+08
 
   -0.16457E+08         0.37954E+06         0.00000E+00
    0.37954E+06        -0.19498E+07         0.00000E+00
    0.00000E+00         0.00000E+00        -0.16522E+08
 
   -0.16391E+08         0.38318E+06         0.00000E+00
    0.38318E+06        -0.19512E+07         0.00000E+00
    0.00000E+00         0.00000E+00        -0.16452E+08
 
   -0.16323E+08         0.38638E+06         0.00000E+00
    0.38638E+06        -0.19527E+07         0.00000E+00
    0.00000E+00         0.00000E+00        -0.16380E+08
 
   -0.16255E+08         0.38908E+06         0.00000E+00
    0.38908E+06        -0.19544E+07         0.00000E+00
    0.00000E+00         0.00000E+00        -0.16306E+08
 
   -0.16186E+08         0.39121E+06         0.00000E+00
    0.39121E+06        -0.19563E+07         0.00000E+00
    0.00000E+00         0.00000E+00        -0.16232E+08
 
   -0.16116E+08         0.39273E+06         0.00000E+00
    0.39273E+06        -0.19584E+07         0.00000E+00
    0.00000E+00         0.00000E+00        -0.16156E+08
 
   -0.16046E+08         0.39356E+06         0.00000E+00
    0.39356E+06        -0.19607E+07         0.00000E+00
    0.00000E+00         0.00000E+00        -0.16078E+08
 
   -0.15975E+08         0.39362E+06         0.00000E+00
    0.39362E+06        -0.19633E+07         0.00000E+00
    0.00000E+00         0.00000E+00        -0.16000E+08
 
   -0.15903E+08         0.39285E+06         0.00000E+00
    0.39285E+06        -0.19662E+07         0.00000E+00
    0.00000E+00         0.00000E+00        -0.15920E+08
 
   -0.15832E+08         0.39114E+06         0.00000E+00
    0.39114E+06        -0.19695E+07         0.00000E+00
    0.00000E+00         0.00000E+00        -0.15839E+08
 
   -0.15760E+08         0.38840E+06         0.00000E+00
    0.38840E+06        -0.19731E+07         0.00000E+00
    0.00000E+00         0.00000E+00        -0.15757E+08
 
   -0.15688E+08         0.38453E+06         0.00000E+00
    0.38453E+06        -0.19772E+07         0.00000E+00
    0.00000E+00         0.00000E+00        -0.15674E+08
 
   -0.15615E+08         0.37941E+06         0.00000E+00
    0.37941E+06        -0.19817E+07         0.00000E+00
    0.00000E+00         0.00000E+00        -0.15590E+08
 
   -0.15543E+08         0.37292E+06         0.00000E+00
    0.37292E+06        -0.19868E+07         0.00000E+00
    0.00000E+00         0.00000E+00        -0.15505E+08
 
   -0.15472E+08         0.36493E+06         0.00000E+00
    0.36493E+06        -0.19925E+07         0.00000E+00
    0.00000E+00         0.00000E+00        -0.15420E+08
 
   -0.15400E+08         0.35531E+06         0.00000E+00
    0.35531E+06        -0.19988E+07         0.00000E+00
    0.00000E+00         0.00000E+00        -0.15333E+08
 
   -0.15329E+08         0.34392E+06         0.00000E+00
    0.34392E+06        -0.20058E+07         0.00000E+00
    0.00000E+00         0.00000E+00        -0.15246E+08
 
   -0.15258E+08         0.33062E+06         0.00000E+00
    0.33062E+06        -0.20135E+07         0.00000E+00
    0.00000E+00         0.00000E+00        -0.15158E+08
 
   -0.15188E+08         0.31528E+06         0.00000E+00
    0.31528E+06        -0.20218E+07         0.00000E+00
    0.00000E+00         0.00000E+00        -0.15070E+08
 
   -0.15118E+08         0.29779E+06         0.00000E+00
    0.29779E+06        -0.20307E+07         0.00000E+00
    0.00000E+00         0.00000E+00        -0.14980E+08
 
   -0.15049E+08         0.27806E+06         0.00000E+00
    0.27806E+06        -0.20400E+07         0.00000E+00
    0.00000E+00         0.00000E+00        -0.14891E+08
 
   -0.14980E+08         0.25604E+06         0.00000E+00
    0.25604E+06        -0.20494E+07         0.00000E+00
    0.00000E+00         0.00000E+00        -0.14801E+08
 
   -0.14912E+08         0.23179E+06         0.00000E+00
    0.23179E+06        -0.20585E+07         0.00000E+00
    0.00000E+00         0.00000E+00        -0.14710E+08
 
   -0.14845E+08         0.20542E+06         0.00000E+00
    0.20542E+06        -0.20666E+07         0.00000E+00
    0.00000E+00         0.00000E+00        -0.14618E+08
 
   -0.14779E+08         0.17725E+06         0.00000E+00
    0.17725E+06        -0.20727E+07         0.00000E+00
    0.00000E+00         0.00000E+00        -0.14526E+08
 
   -0.14714E+08         0.14775E+06         0.00000E+00
    0.14775E+06        -0.20757E+07         0.00000E+00
    0.00000E+00         0.00000E+00        -0.14432E+08
 
   -0.14652E+08         0.11772E+06         0.00000E+00
    0.11772E+06        -0.20737E+07         0.00000E+00
    0.00000E+00         0.00000E+00        -0.14337E+08
 
   -0.14592E+08         0.88267E+05         0.00000E+00
    0.88267E+05        -0.20646E+07         0.00000E+00
    0.00000E+00         0.00000E+00        -0.14240E+08
 
   -0.14537E+08         0.60914E+05         0.00000E+00
    0.60914E+05        -0.20455E+07         0.00000E+00
    0.00000E+00         0.00000E+00        -0.14142E+08
 
   -0.14488E+08         0.37460E+05         0.00000E+00
    0.37460E+05        -0.20132E+07         0.00000E+00
    0.00000E+00         0.00000E+00        -0.14040E+08
 
   -0.14448E+08         0.19611E+05         0.00000E+00
    0.19611E+05        -0.19645E+07         0.00000E+00
    0.00000E+00         0.00000E+00        -0.13937E+08
 
   -0.14420E+08         0.81603E+04         0.00000E+00
    0.81603E+04        -0.18966E+07         0.00000E+00
    0.00000E+00         0.00000E+00        -0.13831E+08
 
   -0.14406E+08         0.20208E+04         0.00000E+00
    0.20208E+04        -0.18077E+07         0.00000E+00
    0.00000E+00         0.00000E+00        -0.13722E+08
 
   -0.18654E+08         0.14354E+04         0.00000E+00
    0.14354E+04        -0.19731E+07         0.00000E+00
    0.00000E+00         0.00000E+00        -0.18782E+08
 
   -0.18652E+08         0.46147E+04         0.00000E+00
    0.46147E+04        -0.19606E+07         0.00000E+00
    0.00000E+00         0.00000E+00        -0.18767E+08
 
   -0.18647E+08         0.85900E+04         0.00000E+00
    0.85900E+04        -0.19512E+07         0.00000E+00
    0.00000E+00         0.00000E+00        -0.18752E+08
 
   -0.18641E+08         0.13543E+05         0.00000E+00
    0.13543E+05        -0.19445E+07         0.00000E+00
    0.00000E+00         0.00000E+00        -0.18737E+08
 
   -0.18633E+08         0.19374E+05         0.00000E+00
    0.19374E+05        -0.19401E+07         0.00000E+00
    0.00000E+00         0.00000E+00        -0.18722E+08
 
   -0.18624E+08         0.25841E+05         0.00000E+00
    0.25841E+05        -0.19376E+07         0.00000E+00
    0.00000E+00         0.00000E+00        -0.18707E+08
 
   -0.18613E+08         0.32680E+05         0.00000E+00
    0.32680E+05        -0.19363E+07         0.00000E+00
    0.00000E+00         0.00000E+00        -0.18692E+08
 
   -0.18602E+08         0.39670E+05         0.00000E+00
    0.39670E+05        -0.19360E+07         0.00000E+00
    0.00000E+00         0.00000E+00        -0.18678E+08
 
   -0.18591E+08         0.46649E+05         0.00000E+00
    0.46649E+05        -0.19363E+07         0.00000E+00
    0.00000E+00         0.00000E+00        -0.18663E+08
 
   -0.18578E+08         0.53507E+05         0.00000E+00
    0.53507E+05        -0.19370E+07         0.00000E+00
    0.00000E+00         0.00000E+00        -0.18648E+08
 
   -0.18565E+08         0.60178E+05         0.00000E+00
    0.60178E+05        -0.19380E+07         0.00000E+00
    0.00000E+00         0.00000E+00        -0.18633E+08
 
   -0.18552E+08         0.66625E+05         0.00000E+00
    0.66625E+05        -0.19390E+07         0.00000E+00
    0.00000E+00         0.00000E+00        -0.18617E+08
 
   -0.18537E+08         0.72836E+05         0.00000E+00
    0.72836E+05        -0.19401E+07         0.00000E+00
    0.00000E+00         0.00000E+00        -0.18601E+08
 
   -0.18522E+08         0.78813E+05         0.00000E+00
    0.78813E+05        -0.19411E+07         0.00000E+00
    0.00000E+00         0.00000E+00        -0.18585E+08
 
   -0.18507E+08         0.84567E+05         0.00000E+00
    0.84567E+05        -0.19421E+07         0.00000E+00
    0.00000E+00         0.00000E+00        -0.18568E+08
 
   -0.18491E+08         0.90116E+05         0.00000E+00
    0.90116E+05        -0.19429E+07         0.00000E+00
    0.00000E+00         0.00000E+00        -0.18551E+08
 
   -0.18474E+08         0.95483E+05         0.00000E+00
    0.95483E+05        -0.19436E+07         0.00000E+00
    0.00000E+00         0.00000E+00        -0.18533E+08
 
   -0.18456E+08         0.10069E+06         0.00000E+00
    0.10069E+06        -0.19443E+07         0.00000E+00
    0.00000E+00         0.00000E+00        -0.18515E+08
 
   -0.18438E+08         0.10576E+06         0.00000E+00
    0.10576E+06        -0.19448E+07         0.00000E+00
    0.00000E+00         0.00000E+00        -0.18496E+08
 
   -0.18419E+08         0.11072E+06         0.00000E+00
    0.11072E+06        -0.19452E+07         0.00000E+00
    0.00000E+00         0.00000E+00        -0.18477E+08
 
   -0.18399E+08         0.11559E+06         0.00000E+00
    0.11559E+06        -0.19456E+07         0.00000E+00
    0.00000E+00         0.00000E+00        -0.18457E+08
 
   -0.18379E+08         0.12039E+06         0.00000E+00
    0.12039E+06        -0.19459E+07         0.00000E+00
    0.00000E+00         0.00000E+00        -0.18436E+08
 
   -0.18358E+08         0.12514E+06         0.00000E+00
    0.12514E+06        -0.19460E+07         0.00000E+00
    0.00000E+00         0.00000E+00        -0.18415E+08
 
   -0.18336E+08         0.12986E+06         0.00000E+00
    0.12986E+06        -0.19462E+07         0.00000E+00
    0.00000E+00         0.00000E+00        -0.18394E+08
 
   -0.18313E+08         0.13456E+06         0.00000E+00
    0.13456E+06        -0.19462E+07         0.00000E+00
    0.00000E+00         0.00000E+00        -0.18372E+08
 
   -0.18290E+08         0.13926E+06         0.00000E+00
    0.13926E+06        -0.19463E+07         0.00000E+00
    0.00000E+00         0.00000E+00        -0.18349E+08
 
   -0.18266E+08         0.14397E+06         0.00000E+00
    0.14397E+06        -0.19463E+07         0.00000E+00
    0.00000E+00         0.00000E+00        -0.18326E+08
 
   -0.18241E+08         0.14870E+06         0.00000E+00
    0.14870E+06        -0.19462E+07         0.00000E+00
    0.00000E+00         0.00000E+00        -0.18301E+08
 
   -0.18215E+08         0.15346E+06         0.00000E+00
    0.15346E+06        -0.19461E+07         0.00000E+00
    0.00000E+00         0.00000E+00        -0.18277E+08
 
   -0.18189E+08         0.15826E+06         0.00000E+00
    0.15826E+06        -0.19460E+07         0.00000E+00
    0.00000E+00         0.00000E+00        -0.18251E+08
 
   -0.18162E+08         0.16310E+06         0.00000E+00
    0.16310E+06        -0.19459E+07         0.00000E+00
    0.00000E+00         0.00000E+00        -0.18225E+08
 
   -0.18133E+08         0.16800E+06         0.00000E+00
    0.16800E+06        -0.19458E+07         0.00000E+00
    0.00000E+00         0.00000E+00        -0.18198E+08
 
   -0.18104E+08         0.17296E+06         0.00000E+00
    0.17296E+06        -0.19456E+07         0.00000E+00
    0.00000E+00         0.00000E+00        -0.18170E+08
 
   -0.18075E+08         0.17799E+06         0.00000E+00
    0.17799E+06        -0.19454E+07         0.00000E+00
    0.00000E+00         0.00000E+00        -0.18141E+08
 
   -0.18044E+08         0.18308E+06         0.00000E+00
    0.18308E+06        -0.19452E+07         0.00000E+00
    0.00000E+00         0.00000E+00        -0.18112E+08
 
   -0.18012E+08         0.18824E+06         0.00000E+00
    0.18824E+06        -0.19450E+07         0.00000E+00
    0.00000E+00         0.00000E+00        -0.18082E+08
 
   -0.17980E+08         0.19347E+06         0.00000E+00
    0.19347E+06        -0.19448E+07         0.00000E+00
    0.00000E+00         0.00000E+00        -0.18050E+08
 
   -0.17947E+08         0.19878E+06         0.00000E+00
    0.19878E+06        -0.19447E+07         0.00000E+00
    0.00000E+00         0.00000E+00        -0.18018E+08
 
   -0.17912E+08         0.20417E+06         0.00000E+00
    0.20417E+06        -0.19445E+07         0.00000E+00
    0.00000E+00         0.00000E+00        -0.17985E+08
 
   -0.17877E+08         0.20962E+06         0.00000E+00
    0.20962E+06        -0.19443E+07         0.00000E+00
    0.00000E+00         0.00000E+00        -0.17951E+08
 
   -0.17841E+08         0.21516E+06         0.00000E+00
    0.21516E+06        -0.19441E+07         0.00000E+00
    0.00000E+00         0.00000E+00        -0.17916E+08
 
   -0.17804E+08         0.22076E+06         0.00000E+00
    0.22076E+06        -0.19439E+07         0.00000E+00
    0.00000E+00         0.00000E+00        -0.17881E+08
 
   -0.17765E+08         0.22644E+06         0.00000E+00
    0.22644E+06        -0.19437E+07         0.00000E+00
    0.00000E+00         0.00000E+00        -0.17844E+08
 
   -0.17726E+08         0.23219E+06         0.00000E+00
    0.23219E+06        -0.19435E+07         0.00000E+00
    0.00000E+00         0.00000E+00        -0.17806E+08
 
   -0.17686E+08         0.23800E+06         0.00000E+00
    0.23800E+06        -0.19434E+07         0.00000E+00
    0.00000E+00         0.00000E+00        -0.17766E+08
 
   -0.17645E+08         0.24386E+06         0.00000E+00
    0.24386E+06        -0.19432E+07         0.00000E+00
    0.00000E+00         0.00000E+00        -0.17726E+08
 
   -0.17602E+08         0.24979E+06         0.00000E+00
    0.24979E+06        -0.19431E+07         0.00000E+00
    0.00000E+00         0.00000E+00        -0.17685E+08
 
   -0.17559E+08         0.25576E+06         0.00000E+00
    0.25576E+06        -0.19430E+07         0.00000E+00
    0.00000E+00         0.00000E+00        -0.17643E+08
 
   -0.17514E+08         0.26177E+06         0.00000E+00
    0.26177E+06        -0.19429E+07         0.00000E+00
    0.00000E+00         0.00000E+00        -0.17599E+08
 
   -0.17469E+08         0.26782E+06         0.00000E+00
    0.26782E+06        -0.19429E+07         0.00000E+00
    0.00000E+00         0.00000E+00        -0.17554E+08
 
   -0.17422E+08         0.27389E+06         0.00000E+00
    0.27389E+06        -0.19428E+07         0.00000E+00
    0.00000E+00         0.00000E+00        -0.17508E+08
 
   -0.17374E+08         0.27998E+06         0.00000E+00
    0.27998E+06        -0.19428E+07         0.00000E+00
    0.00000E+00         0.00000E+00        -0.17461E+08
 
   -0.17325E+08         0.28607E+06         0.00000E+00
    0.28607E+06        -0.19429E+07         0.00000E+00
    0.00000E+00         0.00000E+00        -0.17412E+08
 
   -0.17275E+08         0.29216E+06         0.00000E+00
    0.29216E+06        -0.19429E+07         0.00000E+00
    0.00000E+00         0.00000E+00        -0.17362E+08
 
   -0.17223E+08         0.29822E+06         0.00000E+00
    0.29822E+06        -0.19431E+07         0.00000E+00
    0.00000E+00         0.00000E+00        -0.17311E+08
 
   -0.17171E+08         0.30425E+06         0.00000E+00
    0.30425E+06        -0.19432E+07         0.00000E+00
    0.00000E+00         0.00000E+00        -0.17259E+08
 
   -0.17117E+08         0.31022E+06         0.00000E+00
    0.31022E+06        -0.19434E+07         0.00000E+00
    0.00000E+00         0.00000E+00        -0.17205E+08
 
   -0.17062E+08         0.31613E+06         0.00000E+00
    0.31613E+06        -0.19437E+07         0.00000E+00
    0.00000E+00         0.00000E+00        -0.17150E+08
 
   -0.17007E+08         0.32194E+06         0.00000E+00
    0.32194E+06        -0.19440E+07         0.00000E+00
    0.00000E+00         0.00000E+00        -0.17093E+08
 
   -0.16949E+08         0.32765E+06         0.00000E+00
    0.32765E+06        -0.19444E+07         0.00000E+00
    0.00000E+00         0.00000E+00        -0.17035E+08
 
   -0.16891E+08         0.33323E+06         0.00000E+00
    0.33323E+06        -0.19449E+07         0.00000E+00
    0.00000E+00         0.00000E+00        -0.16976E+08
 
   -0.16832E+08         0.33865E+06         0.00000E+00
    0.33865E+06        -0.19454E+07         0.00000E+00
    0.00000E+00         0.00000E+00        -0.16915E+08
 
   -0.16771E+08         0.34390E+06         0.00000E+00
    0.34390E+06        -0.19460E+07         0.00000E+00
    0.00000E+00         0.00000E+00        -0.16853E+08
 
   -0.16710E+08         0.34893E+06         0.00000E+00
    0.34893E+06        -0.19467E+07         0.00000E+00
    0.00000E+00         0.00000E+00        -0.16790E+08
 
   -0.16647E+08         0.35372E+06         0.00000E+00
    0.35372E+06        -0.19475E+07         0.00000E+00
    0.00000E+00         0.00000E+00        -0.16725E+08
 
   -0.16584E+08         0.35824E+06         0.00000E+00
    0.35824E+06        -0.19484E+07         0.00000E+00
    0.00000E+00         0.00000E+00        -0.16658E+08
 
   -0.16519E+08         0.36245E+06         0.00000E+00
    0.36245E+06        -0.19494E+07         0.00000E+00
    0.00000E+00         0.00000E+00        -0.16591E+08
 
   -0.16454E+08         0.36632E+06         0.00000E+00
    0.36632E+06        -0.19506E+07         0.00000E+00
    0.00000E+00         0.00000E+00        -0.16522E+08
 
   -0.16387E+08         0.36978E+06         0.00000E+00
    0.36978E+06        -0.19518E+07         0.00000E+00
    0.00000E+00         0.00000E+00        -0.16451E+08
 
   -0.16320E+08         0.37281E+06         0.00000E+00
    0.37281E+06        -0.19533E+07         0.00000E+00
    0.00000E+00         0.00000E+00        -0.16379E+08
 
   -0.16252E+08         0.37536E+06         0.00000E+00
    0.37536E+06        -0.19548E+07         0.00000E+00
    0.00000E+00         0.00000E+00        -0.16306E+08
 
   -0.16183E+08         0.37735E+06         0.00000E+00
    0.37735E+06        -0.19566E+07         0.00000E+00
    0.00000E+00         0.00000E+00        -0.16231E+08
 
   -0.16113E+08         0.37874E+06         0.00000E+00
    0.37874E+06        -0.19586E+07         0.00000E+00
    0.00000E+00         0.00000E+00        -0.16155E+08
 
   -0.16043E+08         0.37946E+06         0.00000E+00
    0.37946E+06        -0.19608E+07         0.00000E+00
    0.00000E+00         0.00000E+00        -0.16078E+08
 
   -0.15973E+08         0.37943E+06         0.00000E+00
    0.37943E+06        -0.19632E+07         0.00000E+00
    0.00000E+00         0.00000E+00        -0.15999E+08
 
   -0.15902E+08         0.37858E+06         0.00000E+00
    0.37858E+06        -0.19659E+07         0.00000E+00
    0.00000E+00         0.00000E+00        -0.15920E+08
 
   -0.15831E+08         0.37682E+06         0.00000E+00
    0.37682E+06        -0.19690E+07         0.00000E+00
    0.00000E+00         0.00000E+00        -0.15839E+08
 
   -0.15759E+08         0.37405E+06         0.00000E+00
    0.37405E+06        -0.19724E+07         0.00000E+00
    0.00000E+00         0.00000E+00        -0.15757E+08
 
   -0.15688E+08         0.37016E+06         0.00000E+00
    0.37016E+06        -0.19763E+07         0.00000E+00
    0.00000E+00         0.00000E+00        -0.15674E+08
 
   -0.15616E+08         0.36505E+06         0.00000E+00
    0.36505E+06        -0.19806E+07         0.00000E+00
    0.00000E+00         0.00000E+00        -0.15590E+08
 
   -0.15545E+08         0.35860E+06         0.00000E+00
    0.35860E+06        -0.19854E+07         0.00000E+00
    0.00000E+00         0.00000E+00        -0.15505E+08
 
   -0.15474E+08         0.35066E+06         0.00000E+00
    0.35066E+06        -0.19908E+07         0.00000E+00
    0.00000E+00         0.00000E+00        -0.15420E+08
 
   -0.15403E+08         0.34111E+06         0.00000E+00
    0.34111E+06        -0.19967E+07         0.00000E+00
    0.00000E+00         0.00000E+00        -0.15333E+08
 
   -0.15333E+08         0.32981E+06         0.00000E+00
    0.32981E+06        -0.20034E+07         0.00000E+00
    0.00000E+00         0.00000E+00        -0.15246E+08
 
   -0.15263E+08         0.31662E+06         0.00000E+00
    0.31662E+06        -0.20107E+07         0.00000E+00
    0.00000E+00         0.00000E+00        -0.15159E+08
 
   -0.15194E+08         0.30139E+06         0.00000E+00
    0.30139E+06        -0.20186E+07         0.00000E+00
    0.00000E+00         0.00000E+00        -0.15070E+08
 
   -0.15125E+08         0.28402E+06         0.00000E+00
    0.28402E+06        -0.20270E+07         0.00000E+00
    0.00000E+00         0.00000E+00        -0.14982E+08
 
   -0.15057E+08         0.26443E+06         0.00000E+00
    0.26443E+06        -0.20359E+07         0.00000E+00
    0.00000E+00         0.00000E+00        -0.14892E+08
 
   -0.14990E+08         0.24256E+06         0.00000E+00
    0.24256E+06        -0.20448E+07         0.00000E+00
    0.00000E+00         0.00000E+00        -0.14802E+08
 
   -0.14924E+08         0.21847E+06         0.00000E+00
    0.21847E+06        -0.20534E+07         0.00000E+00
    0.00000E+00         0.00000E+00        -0.14712E+08
 
   -0.14859E+08         0.19230E+06         0.00000E+00
    0.19230E+06        -0.20611E+07         0.00000E+00
    0.00000E+00         0.00000E+00        -0.14621E+08
 
   -0.14795E+08         0.16436E+06         0.00000E+00
    0.16436E+06        -0.20669E+07         0.00000E+00
    0.00000E+00         0.00000E+00        -0.14529E+08
 
   -0.14733E+08         0.13520E+06         0.00000E+00
    0.13520E+06        -0.20697E+07         0.00000E+00
    0.00000E+00         0.00000E+00        -0.14436E+08
 
   -0.14672E+08         0.10565E+06         0.00000E+00
    0.10565E+06        -0.20677E+07         0.00000E+00
    0.00000E+00         0.00000E+00        -0.14342E+08
 
   -0.14615E+08         0.76913E+05         0.00000E+00
    0.76913E+05        -0.20589E+07         0.00000E+00
    0.00000E+00         0.00000E+00        -0.14246E+08
 
   -0.14562E+08         0.50622E+05         0.00000E+00
    0.50622E+05        -0.20405E+07         0.00000E+00
    0.00000E+00         0.00000E+00        -0.14148E+08
 
   -0.14515E+08         0.28686E+05         0.00000E+00
    0.28686E+05        -0.20092E+07         0.00000E+00
    0.00000E+00         0.00000E+00        -0.14047E+08
 
   -0.14477E+08         0.12870E+05         0.00000E+00
    0.12870E+05        -0.19618E+07         0.00000E+00
    0.00000E+00         0.00000E+00        -0.13945E+08
 
   -0.14450E+08         0.39122E+04         0.00000E+00
    0.39122E+04        -0.18952E+07         0.00000E+00
    0.00000E+00         0.00000E+00        -0.13839E+08
 
   -0.14436E+08         0.57037E+03         0.00000E+00
    0.57037E+03        -0.18071E+07         0.00000E+00
    0.00000E+00         0.00000E+00        -0.13731E+08
 
   -0.18648E+08         0.12024E+04         0.00000E+00
    0.12024E+04        -0.19736E+07         0.00000E+00
    0.00000E+00         0.00000E+00        -0.18781E+08
 
   -0.18646E+08         0.39317E+04         0.00000E+00
    0.39317E+04        -0.19612E+07         0.00000E+00
    0.00000E+00         0.00000E+00        -0.18765E+08
 
   -0.18642E+08         0.75019E+04         0.00000E+00
    0.75019E+04        -0.19520E+07         0.00000E+00
    0.00000E+00         0.00000E+00        -0.18750E+08
 
   -0.18635E+08         0.12113E+05         0.00000E+00
    0.12113E+05        -0.19456E+07         0.00000E+00
    0.00000E+00         0.00000E+00        -0.18735E+08
 
   -0.18628E+08         0.17669E+05         0.00000E+00
    0.17669E+05        -0.19414E+07         0.00000E+00
    0.00000E+00         0.00000E+00        -0.18721E+08
 
   -0.18619E+08         0.23917E+05         0.00000E+00
    0.23917E+05        -0.19389E+07         0.00000E+00
    0.00000E+00         0.00000E+00        -0.18706E+08
 
   -0.18609E+08         0.30578E+05         0.00000E+00
    0.30578E+05        -0.19377E+07         0.00000E+00
    0.00000E+00         0.00000E+00        -0.18692E+08
 
   -0.18598E+08         0.37416E+05         0.00000E+00
    0.37416E+05        -0.19374E+07         0.00000E+00
    0.00000E+00         0.00000E+00        -0.18677E+08
 
   -0.18587E+08         0.44259E+05         0.00000E+00
    0.44259E+05        -0.19377E+07         0.00000E+00
    0.00000E+00         0.00000E+00        -0.18662E+08
 
   -0.18574E+08         0.50988E+05         0.00000E+00
    0.50988E+05        -0.19384E+07         0.00000E+00
    0.00000E+00         0.00000E+00        -0.18647E+08
 
   -0.18562E+08         0.57532E+05         0.00000E+00
    0.57532E+05        -0.19393E+07         0.00000E+00
    0.00000E+00         0.00000E+00        -0.18632E+08
 
   -0.18548E+08         0.63853E+05         0.00000E+00
    0.63853E+05        -0.19403E+07         0.00000E+00
    0.00000E+00         0.00000E+00        -0.18616E+08
 
   -0.18534E+08         0.69937E+05         0.00000E+00
    0.69937E+05        -0.19413E+07         0.00000E+00
    0.00000E+00         0.00000E+00        -0.18600E+08
 
   -0.18519E+08         0.75783E+05         0.00000E+00
    0.75783E+05        -0.19423E+07         0.00000E+00
    0.00000E+00         0.00000E+00        -0.18584E+08
 
   -0.18504E+08         0.81403E+05         0.00000E+00
    0.81403E+05        -0.19432E+07         0.00000E+00
    0.00000E+00         0.00000E+00        -0.18567E+08
 
   -0.18488E+08         0.86817E+05         0.00000E+00
    0.86817E+05        -0.19440E+07         0.00000E+00
    0.00000E+00         0.00000E+00        -0.18550E+08
 
   -0.18471E+08         0.92046E+05         0.00000E+00
    0.92046E+05        -0.19447E+07         0.00000E+00
    0.00000E+00         0.00000E+00        -0.18532E+08
 
   -0.18453E+08         0.97113E+05         0.00000E+00
    0.97113E+05        -0.19453E+07         0.00000E+00
    0.00000E+00         0.00000E+00        -0.18514E+08
 
   -0.18435E+08         0.10204E+06         0.00000E+00
    0.10204E+06        -0.19458E+07         0.00000E+00
    0.00000E+00         0.00000E+00        -0.18495E+08
 
   -0.18416E+08         0.10686E+06         0.00000E+00
    0.10686E+06        -0.19462E+07         0.00000E+00
    0.00000E+00         0.00000E+00        -0.18476E+08
 
   -0.18397E+08         0.11159E+06         0.00000E+00
    0.11159E+06        -0.19465E+07         0.00000E+00
    0.00000E+00         0.00000E+00        -0.18456E+08
 
   -0.18376E+08         0.11624E+06         0.00000E+00
    0.11624E+06        -0.19468E+07         0.00000E+00
    0.00000E+00         0.00000E+00        -0.18436E+08
 
   -0.18355E+08         0.12084E+06         0.00000E+00
    0.12084E+06        -0.19470E+07         0.00000E+00
    0.00000E+00         0.00000E+00        -0.18415E+08
 
   -0.18333E+08         0.12541E+06         0.00000E+00
    0.12541E+06        -0.19471E+07         0.00000E+00
    0.00000E+00         0.00000E+00        -0.18393E+08
 
   -0.18310E+08         0.12996E+06         0.00000E+00
    0.12996E+06        -0.19472E+07         0.00000E+00
    0.00000E+00         0.00000E+00        -0.18371E+08
 
   -0.18287E+08         0.13451E+06         0.00000E+00
    0.13451E+06        -0.19472E+07         0.00000E+00
    0.00000E+00         0.00000E+00        -0.18348E+08
 
   -0.18263E+08         0.13906E+06         0.00000E+00
    0.13906E+06        -0.19472E+07         0.00000E+00
    0.00000E+00         0.00000E+00        -0.18325E+08
 
   -0.18238E+08         0.14363E+06         0.00000E+00
    0.14363E+06        -0.19471E+07         0.00000E+00
    0.00000E+00         0.00000E+00        -0.18301E+08
 
   -0.18212E+08         0.14824E+06         0.00000E+00
    0.14824E+06        -0.19471E+07         0.00000E+00
    0.00000E+00         0.00000E+00        -0.18276E+08
 
   -0.18186E+08         0.15287E+06         0.00000E+00
    0.15287E+06        -0.19470E+07         0.00000E+00
    0.00000E+00         0.00000E+00        -0.18250E+08
 
   -0.18158E+08         0.15756E+06         0.00000E+00
    0.15756E+06        -0.19469E+07         0.00000E+00
    0.00000E+00         0.00000E+00        -0.18224E+08
 
   -0.18130E+08         0.16229E+06         0.00000E+00
    0.16229E+06        -0.19467E+07         0.00000E+00
    0.00000E+00         0.00000E+00        -0.18197E+08
 
   -0.18101E+08         0.16708E+06         0.00000E+00
    0.16708E+06        -0.19466E+07         0.00000E+00
    0.00000E+00         0.00000E+00        -0.18169E+08
 
   -0.18071E+08         0.17193E+06         0.00000E+00
    0.17193E+06        -0.19464E+07         0.00000E+00
    0.00000E+00         0.00000E+00        -0.18141E+08
 
   -0.18040E+08         0.17685E+06         0.00000E+00
    0.17685E+06        -0.19462E+07         0.00000E+00
    0.00000E+00         0.00000E+00        -0.18111E+08
 
   -0.18009E+08         0.18183E+06         0.00000E+00
    0.18183E+06        -0.19461E+07         0.00000E+00
    0.00000E+00         0.00000E+00        -0.18081E+08
 
   -0.17976E+08         0.18688E+06         0.00000E+00
    0.18688E+06        -0.19459E+07         0.00000E+00
    0.00000E+00         0.00000E+00        -0.18050E+08
 
   -0.17943E+08         0.19201E+06         0.00000E+00
    0.19201E+06        -0.19457E+07         0.00000E+00
    0.00000E+00         0.00000E+00        -0.18018E+08
 
   -0.17909E+08         0.19720E+06         0.00000E+00
    0.19720E+06        -0.19455E+07         0.00000E+00
    0.00000E+00         0.00000E+00        -0.17984E+08
 
   -0.17873E+08         0.20247E+06         0.00000E+00
    0.20247E+06        -0.19453E+07         0.00000E+00
    0.00000E+00         0.00000E+00        -0.17951E+08
 
   -0.17837E+08         0.20781E+06         0.00000E+00
    0.20781E+06        -0.19452E+07         0.00000E+00
    0.00000E+00         0.00000E+00        -0.17916E+08
 
   -0.17800E+08         0.21322E+06         0.00000E+00
    0.21322E+06        -0.19450E+07         0.00000E+00
    0.00000E+00         0.00000E+00        -0.17880E+08
 
   -0.17761E+08         0.21869E+06         0.00000E+00
    0.21869E+06        -0.19448E+07         0.00000E+00
    0.00000E+00         0.00000E+00        -0.17843E+08
 
   -0.17722E+08         0.22423E+06         0.00000E+00
    0.22423E+06        -0.19447E+07         0.00000E+00
    0.00000E+00         0.00000E+00        -0.17805E+08
 
   -0.17682E+08         0.22983E+06         0.00000E+00
    0.22983E+06        -0.19445E+07         0.00000E+00
    0.00000E+00         0.00000E+00        -0.17766E+08
 
   -0.17640E+08         0.23549E+06         0.00000E+00
    0.23549E+06        -0.19444E+07         0.00000E+00
    0.00000E+00         0.00000E+00        -0.17725E+08
 
   -0.17598E+08         0.24120E+06         0.00000E+00
    0.24120E+06        -0.19443E+07         0.00000E+00
    0.00000E+00         0.00000E+00        -0.17684E+08
 
   -0.17554E+08         0.24696E+06         0.00000E+00
    0.24696E+06        -0.19442E+07         0.00000E+00
    0.00000E+00         0.00000E+00        -0.17642E+08
 
   -0.17510E+08         0.25275E+06         0.00000E+00
    0.25275E+06        -0.19441E+07         0.00000E+00
    0.00000E+00         0.00000E+00        -0.17598E+08
 
   -0.17464E+08         0.25858E+06         0.00000E+00
    0.25858E+06        -0.19440E+07         0.00000E+00
    0.00000E+00         0.00000E+00        -0.17553E+08
 
   -0.17417E+08         0.26442E+06         0.00000E+00
    0.26442E+06        -0.19440E+07         0.00000E+00
    0.00000E+00         0.00000E+00        -0.17507E+08
 
   -0.17369E+08         0.27028E+06         0.00000E+00
    0.27028E+06        -0.19440E+07         0.00000E+00
    0.00000E+00         0.00000E+00        -0.17460E+08
 
   -0.17320E+08         0.27615E+06         0.00000E+00
    0.27615E+06        -0.19441E+07         0.00000E+00
    0.00000E+00         0.00000E+00        -0.17411E+08
 
   -0.17270E+08         0.28200E+06         0.00000E+00
    0.28200E+06        -0.19441E+07         0.00000E+00
    0.00000E+00         0.00000E+00        -0.17361E+08
 
   -0.17219E+08         0.28784E+06         0.00000E+00
    0.28784E+06        -0.19443E+07         0.00000E+00
    0.00000E+00         0.00000E+00        -0.17310E+08
 
   -0.17166E+08         0.29363E+06         0.00000E+00
    0.29363E+06        -0.19444E+07         0.00000E+00
    0.00000E+00         0.00000E+00        -0.17258E+08
 
   -0.17113E+08         0.29938E+06         0.00000E+00
    0.29938E+06        -0.19446E+07         0.00000E+00
    0.00000E+00         0.00000E+00        -0.17204E+08
 
   -0.17058E+08         0.30505E+06         0.00000E+00
    0.30505E+06        -0.19449E+07         0.00000E+00
    0.00000E+00         0.00000E+00        -0.17149E+08
 
   -0.17002E+08         0.31064E+06         0.00000E+00
    0.31064E+06        -0.19452E+07         0.00000E+00
    0.00000E+00         0.00000E+00        -0.17092E+08
 
   -0.16945E+08         0.31612E+06         0.00000E+00
    0.31612E+06        -0.19455E+07         0.00000E+00
    0.00000E+00         0.00000E+00        -0.17034E+08
 
   -0.16887E+08         0.32148E+06         0.00000E+00
    0.32148E+06        -0.19460E+07         0.00000E+00
    0.00000E+00         0.00000E+00        -0.16975E+08
 
   -0.16827E+08         0.32668E+06         0.00000E+00
    0.32668E+06        -0.19465E+07         0.00000E+00
    0.00000E+00         0.00000E+00        -0.16914E+08
 
   -0.16767E+08         0.33171E+06         0.00000E+00
    0.33171E+06        -0.19470E+07         0.00000E+00
    0.00000E+00         0.00000E+00        -0.16852E+08
 
   -0.16706E+08         0.33653E+06         0.00000E+00
    0.33653E+06        -0.19477E+07         0.00000E+00
    0.00000E+00         0.00000E+00        -0.16789E+08
 
   -0.16643E+08         0.34112E+06         0.00000E+00
    0.34112E+06        -0.19484E+07         0.00000E+00
    0.00000E+00         0.00000E+00        -0.16724E+08
 
   -0.16580E+08         0.34543E+06         0.00000E+00
    0.34543E+06        -0.19493E+07         0.00000E+00
    0.00000E+00         0.00000E+00        -0.16657E+08
 
   -0.16515E+08         0.34945E+06         0.00000E+00
    0.34945E+06        -0.19502E+07         0.00000E+00
    0.00000E+00         0.00000E+00        -0.16590E+08
 
   -0.16450E+08         0.35313E+06         0.00000E+00
    0.35313E+06        -0.19513E+07         0.00000E+00
    0.00000E+00         0.00000E+00        -0.16521E+08
 
   -0.16383E+08         0.35642E+06         0.00000E+00
    0.35642E+06        -0.19525E+07         0.00000E+00
    0.00000E+00         0.00000E+00        -0.16450E+08
 
   -0.16316E+08         0.35929E+06         0.00000E+00
    0.35929E+06        -0.19538E+07         0.00000E+00
    0.00000E+00         0.00000E+00        -0.16378E+08
 
   -0.16248E+08         0.36168E+06         0.00000E+00
    0.36168E+06        -0.19553E+07         0.00000E+00
    0.00000E+00         0.00000E+00        -0.16305E+08
 
   -0.16180E+08         0.36354E+06         0.00000E+00
    0.36354E+06        -0.19569E+07         0.00000E+00
    0.00000E+00         0.00000E+00        -0.16230E+08
 
   -0.16111E+08         0.36482E+06         0.00000E+00
    0.36482E+06        -0.19588E+07         0.00000E+00
    0.00000E+00         0.00000E+00        -0.16154E+08
 
   -0.16041E+08         0.36543E+06         0.00000E+00
    0.36543E+06        -0.19608E+07         0.00000E+00
    0.00000E+00         0.00000E+00        -0.16077E+08
 
   -0.15971E+08         0.36532E+06         0.00000E+00
    0.36532E+06        -0.19631E+07         0.00000E+00
    0.00000E+00         0.00000E+00        -0.15999E+08
 
   -0.15900E+08         0.36440E+06         0.00000E+00
    0.36440E+06        -0.19657E+07         0.00000E+00
    0.00000E+00         0.00000E+00        -0.15919E+08
 
   -0.15829E+08         0.36259E+06         0.00000E+00
    0.36259E+06        -0.19686E+07         0.00000E+00
    0.00000E+00         0.00000E+00        -0.15838E+08
 
   -0.15759E+08         0.35980E+06         0.00000E+00
    0.35980E+06        -0.19718E+07         0.00000E+00
    0.00000E+00         0.00000E+00        -0.15757E+08
 
   -0.15688E+08         0.35592E+06         0.00000E+00
    0.35592E+06        -0.19754E+07         0.00000E+00
    0.00000E+00         0.00000E+00        -0.15674E+08
 
   -0.15617E+08         0.35083E+06         0.00000E+00
    0.35083E+06        -0.19794E+07         0.00000E+00
    0.00000E+00         0.00000E+00        -0.15590E+08
 
   -0.15546E+08         0.34442E+06         0.00000E+00
    0.34442E+06        -0.19839E+07         0.00000E+00
    0.00000E+00         0.00000E+00        -0.15505E+08
 
   -0.15476E+08         0.33655E+06         0.00000E+00
    0.33655E+06        -0.19890E+07         0.00000E+00
    0.00000E+00         0.00000E+00        -0.15420E+08
 
   -0.15406E+08         0.32709E+06         0.00000E+00
    0.32709E+06        -0.19947E+07         0.00000E+00
    0.00000E+00         0.00000E+00        -0.15334E+08
 
   -0.15336E+08         0.31590E+06         0.00000E+00
    0.31590E+06        -0.20009E+07         0.00000E+00
    0.00000E+00         0.00000E+00        -0.15247E+08
 
   -0.15268E+08         0.30283E+06         0.00000E+00
    0.30283E+06        -0.20078E+07         0.00000E+00
    0.00000E+00         0.00000E+00        -0.15159E+08
 
   -0.15200E+08         0.28774E+06         0.00000E+00
    0.28774E+06        -0.20153E+07         0.00000E+00
    0.00000E+00         0.00000E+00        -0.15071E+08
 
   -0.15132E+08         0.27053E+06         0.00000E+00
    0.27053E+06        -0.20233E+07         0.00000E+00
    0.00000E+00         0.00000E+00        -0.14983E+08
 
   -0.15066E+08         0.25110E+06         0.00000E+00
    0.25110E+06        -0.20317E+07         0.00000E+00
    0.00000E+00         0.00000E+00        -0.14894E+08
 
   -0.15001E+08         0.22941E+06         0.00000E+00
    0.22941E+06        -0.20402E+07         0.00000E+00
    0.00000E+00         0.00000E+00        -0.14804E+08
 
   -0.14936E+08         0.20552E+06         0.00000E+00
    0.20552E+06        -0.20484E+07         0.00000E+00
    0.00000E+00         0.00000E+00        -0.14714E+08
 
   -0.14873E+08         0.17957E+06         0.00000E+00
    0.17957E+06        -0.20557E+07         0.00000E+00
    0.00000E+00         0.00000E+00        -0.14623E+08
 
   -0.14811E+08         0.15192E+06         0.00000E+00
    0.15192E+06        -0.20612E+07         0.00000E+00
    0.00000E+00         0.00000E+00        -0.14532E+08
 
   -0.14751E+08         0.12311E+06         0.00000E+00
    0.12311E+06        -0.20638E+07         0.00000E+00
    0.00000E+00         0.00000E+00        -0.14440E+08
 
   -0.14693E+08         0.94050E+05         0.00000E+00
    0.94050E+05        -0.20619E+07         0.00000E+00
    0.00000E+00         0.00000E+00        -0.14346E+08
 
   -0.14638E+08         0.66021E+05         0.00000E+00
    0.66021E+05        -0.20534E+07         0.00000E+00
    0.00000E+00         0.00000E+00        -0.14251E+08
 
   -0.14587E+08         0.40747E+05         0.00000E+00
    0.40747E+05        -0.20357E+07         0.00000E+00
    0.00000E+00         0.00000E+00        -0.14154E+08
 
   -0.14542E+08         0.20250E+05         0.00000E+00
    0.20250E+05        -0.20056E+07         0.00000E+00
    0.00000E+00         0.00000E+00        -0.14054E+08
 
   -0.14505E+08         0.63586E+04         0.00000E+00
    0.63586E+04        -0.19596E+07         0.00000E+00
    0.00000E+00         0.00000E+00        -0.13953E+08
 
   -0.14479E+08        -0.21312E+03         0.00000E+00
   -0.21312E+03        -0.18943E+07         0.00000E+00
    0.00000E+00         0.00000E+00        -0.13848E+08
 
   -0.14466E+08        -0.84359E+03         0.00000E+00
   -0.84359E+03        -0.18072E+07         0.00000E+00
    0.00000E+00         0.00000E+00        -0.13740E+08
 
   -0.18643E+08         0.97295E+03         0.00000E+00
    0.97295E+03        -0.19740E+07         0.00000E+00
    0.00000E+00         0.00000E+00        -0.18779E+08
 
   -0.18640E+08         0.32616E+04         0.00000E+00
    0.32616E+04        -0.19618E+07         0.00000E+00
    0.00000E+00         0.00000E+00        -0.18764E+08
 
   -0.18636E+08         0.64398E+04         0.00000E+00
    0.64398E+04        -0.19528E+07         0.00000E+00
    0.00000E+00         0.00000E+00        -0.18749E+08
 
   -0.18630E+08         0.10723E+05         0.00000E+00
    0.10723E+05        -0.19466E+07         0.00000E+00
    0.00000E+00         0.00000E+00        -0.18734E+08
 
   -0.18623E+08         0.16014E+05         0.00000E+00
    0.16014E+05        -0.19425E+07         0.00000E+00
    0.00000E+00         0.00000E+00        -0.18720E+08
 
   -0.18614E+08         0.22049E+05         0.00000E+00
    0.22049E+05        -0.19402E+07         0.00000E+00
    0.00000E+00         0.00000E+00        -0.18705E+08
 
   -0.18604E+08         0.28532E+05         0.00000E+00
    0.28532E+05        -0.19390E+07         0.00000E+00
    0.00000E+00         0.00000E+00        -0.18691E+08
 
   -0.18594E+08         0.35216E+05         0.00000E+00
    0.35216E+05        -0.19387E+07         0.00000E+00
    0.00000E+00         0.00000E+00        -0.18676E+08
 
   -0.18583E+08         0.41917E+05         0.00000E+00
    0.41917E+05        -0.19390E+07         0.00000E+00
    0.00000E+00         0.00000E+00        -0.18661E+08
 
   -0.18571E+08         0.48512E+05         0.00000E+00
    0.48512E+05        -0.19397E+07         0.00000E+00
    0.00000E+00         0.00000E+00        -0.18646E+08
 
   -0.18558E+08         0.54924E+05         0.00000E+00
    0.54924E+05        -0.19406E+07         0.00000E+00
    0.00000E+00         0.00000E+00        -0.18631E+08
 
   -0.18545E+08         0.61113E+05         0.00000E+00
    0.61113E+05        -0.19415E+07         0.00000E+00
    0.00000E+00         0.00000E+00        -0.18616E+08
 
   -0.18531E+08         0.67063E+05         0.00000E+00
    0.67063E+05        -0.19425E+07         0.00000E+00
    0.00000E+00         0.00000E+00        -0.18600E+08
 
   -0.18516E+08         0.72773E+05         0.00000E+00
    0.72773E+05        -0.19434E+07         0.00000E+00
    0.00000E+00         0.00000E+00        -0.18583E+08
 
   -0.18501E+08         0.78256E+05         0.00000E+00
    0.78256E+05        -0.19443E+07         0.00000E+00
    0.00000E+00         0.00000E+00        -0.18567E+08
 
   -0.18485E+08         0.83531E+05         0.00000E+00
    0.83531E+05        -0.19450E+07         0.00000E+00
    0.00000E+00         0.00000E+00        -0.18549E+08
 
   -0.18468E+08         0.88618E+05         0.00000E+00
    0.88618E+05        -0.19457E+07         0.00000E+00
    0.00000E+00         0.00000E+00        -0.18532E+08
 
   -0.18451E+08         0.93542E+05         0.00000E+00
    0.93542E+05        -0.19463E+07         0.00000E+00
    0.00000E+00         0.00000E+00        -0.18513E+08
 
   -0.18432E+08         0.98328E+05         0.00000E+00
    0.98328E+05        -0.19468E+07         0.00000E+00
    0.00000E+00         0.00000E+00        -0.18495E+08
 
   -0.18413E+08         0.10300E+06         0.00000E+00
    0.10300E+06        -0.19472E+07         0.00000E+00
    0.00000E+00         0.00000E+00        -0.18475E+08
 
   -0.18394E+08         0.10758E+06         0.00000E+00
    0.10758E+06        -0.19475E+07         0.00000E+00
    0.00000E+00         0.00000E+00        -0.18456E+08
 
   -0.18373E+08         0.11208E+06         0.00000E+00
    0.11208E+06        -0.19477E+07         0.00000E+00
    0.00000E+00         0.00000E+00        -0.18435E+08
 
   -0.18352E+08         0.11654E+06         0.00000E+00
    0.11654E+06        -0.19479E+07         0.00000E+00
    0.00000E+00         0.00000E+00        -0.18414E+08
 
   -0.18330E+08         0.12096E+06         0.00000E+00
    0.12096E+06        -0.19480E+07         0.00000E+00
    0.00000E+00         0.00000E+00        -0.18393E+08
 
   -0.18308E+08         0.12535E+06         0.00000E+00
    0.12535E+06        -0.19481E+07         0.00000E+00
    0.00000E+00         0.00000E+00        -0.18371E+08
 
   -0.18284E+08         0.12975E+06         0.00000E+00
    0.12975E+06        -0.19481E+07         0.00000E+00
    0.00000E+00         0.00000E+00        -0.18348E+08
 
   -0.18260E+08         0.13414E+06         0.00000E+00
    0.13414E+06        -0.19481E+07         0.00000E+00
    0.00000E+00         0.00000E+00        -0.18324E+08
 
   -0.18235E+08         0.13856E+06         0.00000E+00
    0.13856E+06        -0.19480E+07         0.00000E+00
    0.00000E+00         0.00000E+00        -0.18300E+08
 
   -0.18209E+08         0.14300E+06         0.00000E+00
    0.14300E+06        -0.19480E+07         0.00000E+00
    0.00000E+00         0.00000E+00        -0.18275E+08
 
   -0.18183E+08         0.14748E+06         0.00000E+00
    0.14748E+06        -0.19479E+07         0.00000E+00
    0.00000E+00         0.00000E+00        -0.18250E+08
 
   -0.18155E+08         0.15200E+06         0.00000E+00
    0.15200E+06        -0.19478E+07         0.00000E+00
    0.00000E+00         0.00000E+00        -0.18223E+08
 
   -0.18127E+08         0.15657E+06         0.00000E+00
    0.15657E+06        -0.19477E+07         0.00000E+00
    0.00000E+00         0.00000E+00        -0.18196E+08
 
   -0.18098E+08         0.16119E+06         0.00000E+00
    0.16119E+06        -0.19475E+07         0.00000E+00
    0.00000E+00         0.00000E+00        -0.18168E+08
 
   -0.18068E+08         0.16587E+06         0.00000E+00
    0.16587E+06        -0.19474E+07         0.00000E+00
    0.00000E+00         0.00000E+00        -0.18140E+08
 
   -0.18037E+08         0.17061E+06         0.00000E+00
    0.17061E+06        -0.19472E+07         0.00000E+00
    0.00000E+00         0.00000E+00        -0.18110E+08
 
   -0.18005E+08         0.17541E+06         0.00000E+00
    0.17541E+06        -0.19471E+07         0.00000E+00
    0.00000E+00         0.00000E+00        -0.18080E+08
 
   -0.17973E+08         0.18028E+06         0.00000E+00
    0.18028E+06        -0.19469E+07         0.00000E+00
    0.00000E+00         0.00000E+00        -0.18049E+08
 
   -0.17939E+08         0.18522E+06         0.00000E+00
    0.18522E+06        -0.19467E+07         0.00000E+00
    0.00000E+00         0.00000E+00        -0.18017E+08
 
   -0.17905E+08         0.19023E+06         0.00000E+00
    0.19023E+06        -0.19465E+07         0.00000E+00
    0.00000E+00         0.00000E+00        -0.17984E+08
 
   -0.17869E+08         0.19530E+06         0.00000E+00
    0.19530E+06        -0.19464E+07         0.00000E+00
    0.00000E+00         0.00000E+00        -0.17950E+08
 
   -0.17833E+08         0.20045E+06         0.00000E+00
    0.20045E+06        -0.19462E+07         0.00000E+00
    0.00000E+00         0.00000E+00        -0.17915E+08
 
   -0.17796E+08         0.20565E+06         0.00000E+00
    0.20565E+06        -0.19460E+07         0.00000E+00
    0.00000E+00         0.00000E+00        -0.17879E+08
 
   -0.17757E+08         0.21093E+06         0.00000E+00
    0.21093E+06        -0.19459E+07         0.00000E+00
    0.00000E+00         0.00000E+00        -0.17842E+08
 
   -0.17718E+08         0.21626E+06         0.00000E+00
    0.21626E+06        -0.19458E+07         0.00000E+00
    0.00000E+00         0.00000E+00        -0.17804E+08
 
   -0.17678E+08         0.22166E+06         0.00000E+00
    0.22166E+06        -0.19456E+07         0.00000E+00
    0.00000E+00         0.00000E+00        -0.17765E+08
 
   -0.17636E+08         0.22710E+06         0.00000E+00
    0.22710E+06        -0.19455E+07         0.00000E+00
    0.00000E+00         0.00000E+00        -0.17724E+08
 
   -0.17594E+08         0.23260E+06         0.00000E+00
    0.23260E+06        -0.19454E+07         0.00000E+00
    0.00000E+00         0.00000E+00        -0.17683E+08
 
   -0.17550E+08         0.23814E+06         0.00000E+00
    0.23814E+06        -0.19453E+07         0.00000E+00
    0.00000E+00         0.00000E+00        -0.17641E+08
 
   -0.17505E+08         0.24371E+06         0.00000E+00
    0.24371E+06        -0.19452E+07         0.00000E+00
    0.00000E+00         0.00000E+00        -0.17597E+08
 
   -0.17460E+08         0.24932E+06         0.00000E+00
    0.24932E+06        -0.19452E+07         0.00000E+00
    0.00000E+00         0.00000E+00        -0.17552E+08
 
   -0.17413E+08         0.25494E+06         0.00000E+00
    0.25494E+06        -0.19452E+07         0.00000E+00
    0.00000E+00         0.00000E+00        -0.17506E+08
 
   -0.17365E+08         0.26058E+06         0.00000E+00
    0.26058E+06        -0.19452E+07         0.00000E+00
    0.00000E+00         0.00000E+00        -0.17459E+08
 
   -0.17316E+08         0.26622E+06         0.00000E+00
    0.26622E+06        -0.19452E+07         0.00000E+00
    0.00000E+00         0.00000E+00        -0.17410E+08
 
   -0.17265E+08         0.27184E+06         0.00000E+00
    0.27184E+06        -0.19453E+07         0.00000E+00
    0.00000E+00         0.00000E+00        -0.17360E+08
 
   -0.17214E+08         0.27745E+06         0.00000E+00
    0.27745E+06        -0.19454E+07         0.00000E+00
    0.00000E+00         0.00000E+00        -0.17309E+08
 
   -0.17162E+08         0.28302E+06         0.00000E+00
    0.28302E+06        -0.19455E+07         0.00000E+00
    0.00000E+00         0.00000E+00        -0.17257E+08
 
   -0.17108E+08         0.28853E+06         0.00000E+00
    0.28853E+06        -0.19457E+07         0.00000E+00
    0.00000E+00         0.00000E+00        -0.17203E+08
 
   -0.17053E+08         0.29398E+06         0.00000E+00
    0.29398E+06        -0.19460E+07         0.00000E+00
    0.00000E+00         0.00000E+00        -0.17148E+08
 
   -0.16997E+08         0.29935E+06         0.00000E+00
    0.29935E+06        -0.19463E+07         0.00000E+00
    0.00000E+00         0.00000E+00        -0.17091E+08
 
   -0.16940E+08         0.30460E+06         0.00000E+00
    0.30460E+06        -0.19466E+07         0.00000E+00
    0.00000E+00         0.00000E+00        -0.17033E+08
 
   -0.16882E+08         0.30974E+06         0.00000E+00
    0.30974E+06        -0.19470E+07         0.00000E+00
    0.00000E+00         0.00000E+00        -0.16974E+08
 
   -0.16823E+08         0.31472E+06         0.00000E+00
    0.31472E+06        -0.19475E+07         0.00000E+00
    0.00000E+00         0.00000E+00        -0.16913E+08
 
   -0.16763E+08         0.31953E+06         0.00000E+00
    0.31953E+06        -0.19480E+07         0.00000E+00
    0.00000E+00         0.00000E+00        -0.16851E+08
 
   -0.16701E+08         0.32414E+06         0.00000E+00
    0.32414E+06        -0.19486E+07         0.00000E+00
    0.00000E+00         0.00000E+00        -0.16788E+08
 
   -0.16639E+08         0.32853E+06         0.00000E+00
    0.32853E+06        -0.19493E+07         0.00000E+00
    0.00000E+00         0.00000E+00        -0.16723E+08
 
   -0.16575E+08         0.33265E+06         0.00000E+00
    0.33265E+06        -0.19501E+07         0.00000E+00
    0.00000E+00         0.00000E+00        -0.16656E+08
 
   -0.16511E+08         0.33648E+06         0.00000E+00
    0.33648E+06        -0.19510E+07         0.00000E+00
    0.00000E+00         0.00000E+00        -0.16589E+08
 
   -0.16446E+08         0.33998E+06         0.00000E+00
    0.33998E+06        -0.19520E+07         0.00000E+00
    0.00000E+00         0.00000E+00        -0.16520E+08
 
   -0.16380E+08         0.34310E+06         0.00000E+00
    0.34310E+06        -0.19531E+07         0.00000E+00
    0.00000E+00         0.00000E+00        -0.16449E+08
 
   -0.16313E+08         0.34582E+06         0.00000E+00
    0.34582E+06        -0.19543E+07         0.00000E+00
    0.00000E+00         0.00000E+00        -0.16377E+08
 
   -0.16245E+08         0.34806E+06         0.00000E+00
    0.34806E+06        -0.19557E+07         0.00000E+00
    0.00000E+00         0.00000E+00        -0.16304E+08
 
   -0.16177E+08         0.34979E+06         0.00000E+00
    0.34979E+06        -0.19572E+07         0.00000E+00
    0.00000E+00         0.00000E+00        -0.16229E+08
 
   -0.16108E+08         0.35095E+06         0.00000E+00
    0.35095E+06        -0.19590E+07         0.00000E+00
    0.00000E+00         0.00000E+00        -0.16154E+08
 
   -0.16039E+08         0.35147E+06         0.00000E+00
    0.35147E+06        -0.19609E+07         0.00000E+00
    0.00000E+00         0.00000E+00        -0.16076E+08
 
   -0.15969E+08         0.35128E+06         0.00000E+00
    0.35128E+06        -0.19630E+07         0.00000E+00
    0.00000E+00         0.00000E+00        -0.15998E+08
 
   -0.15899E+08         0.35031E+06         0.00000E+00
    0.35031E+06        -0.19654E+07         0.00000E+00
    0.00000E+00         0.00000E+00        -0.15919E+08
 
   -0.15828E+08         0.34847E+06         0.00000E+00
    0.34847E+06        -0.19681E+07         0.00000E+00
    0.00000E+00         0.00000E+00        -0.15838E+08
 
   -0.15758E+08         0.34566E+06         0.00000E+00
    0.34566E+06        -0.19711E+07         0.00000E+00
    0.00000E+00         0.00000E+00        -0.15756E+08
 
   -0.15687E+08         0.34179E+06         0.00000E+00
    0.34179E+06        -0.19745E+07         0.00000E+00
    0.00000E+00         0.00000E+00        -0.15673E+08
 
   -0.15617E+08         0.33673E+06         0.00000E+00
    0.33673E+06        -0.19783E+07         0.00000E+00
    0.00000E+00         0.00000E+00        -0.15590E+08
 
   -0.15547E+08         0.33038E+06         0.00000E+00
    0.33038E+06        -0.19825E+07         0.00000E+00
    0.00000E+00         0.00000E+00        -0.15505E+08
 
   -0.15478E+08         0.32260E+06         0.00000E+00
    0.32260E+06        -0.19873E+07         0.00000E+00
    0.00000E+00         0.00000E+00        -0.15420E+08
 
   -0.15408E+08         0.31324E+06         0.00000E+00
    0.31324E+06        -0.19926E+07         0.00000E+00
    0.00000E+00         0.00000E+00        -0.15334E+08
 
   -0.15340E+08         0.30218E+06         0.00000E+00
    0.30218E+06        -0.19985E+07         0.00000E+00
    0.00000E+00         0.00000E+00        -0.15247E+08
 
   -0.15272E+08         0.28925E+06         0.00000E+00
    0.28925E+06        -0.20050E+07         0.00000E+00
    0.00000E+00         0.00000E+00        -0.15160E+08
 
   -0.15205E+08         0.27434E+06         0.00000E+00
    0.27434E+06        -0.20121E+07         0.00000E+00
    0.00000E+00         0.00000E+00        -0.15072E+08
 
   -0.15139E+08         0.25731E+06         0.00000E+00
    0.25731E+06        -0.20197E+07         0.00000E+00
    0.00000E+00         0.00000E+00        -0.14984E+08
 
   -0.15075E+08         0.23807E+06         0.00000E+00
    0.23807E+06        -0.20276E+07         0.00000E+00
    0.00000E+00         0.00000E+00        -0.14895E+08
 
   -0.15011E+08         0.21660E+06         0.00000E+00
    0.21660E+06        -0.20357E+07         0.00000E+00
    0.00000E+00         0.00000E+00        -0.14806E+08
 
   -0.14948E+08         0.19294E+06         0.00000E+00
    0.19294E+06        -0.20434E+07         0.00000E+00
    0.00000E+00         0.00000E+00        -0.14716E+08
 
   -0.14887E+08         0.16726E+06         0.00000E+00
    0.16726E+06        -0.20503E+07         0.00000E+00
    0.00000E+00         0.00000E+00        -0.14626E+08
 
   -0.14827E+08         0.13991E+06         0.00000E+00
    0.13991E+06        -0.20556E+07         0.00000E+00
    0.00000E+00         0.00000E+00        -0.14535E+08
 
   -0.14769E+08         0.11149E+06         0.00000E+00
    0.11149E+06        -0.20580E+07         0.00000E+00
    0.00000E+00         0.00000E+00        -0.14443E+08
 
   -0.14714E+08         0.82929E+05         0.00000E+00
    0.82929E+05        -0.20562E+07         0.00000E+00
    0.00000E+00         0.00000E+00        -0.14350E+08
 
   -0.14661E+08         0.55591E+05         0.00000E+00
    0.55591E+05        -0.20481E+07         0.00000E+00
    0.00000E+00         0.00000E+00        -0.14256E+08
 
   -0.14612E+08         0.31286E+05         0.00000E+00
    0.31286E+05        -0.20311E+07         0.00000E+00
    0.00000E+00         0.00000E+00        -0.14160E+08
 
   -0.14569E+08         0.12141E+05         0.00000E+00
    0.12141E+05        -0.20022E+07         0.00000E+00
    0.00000E+00         0.00000E+00        -0.14062E+08
 
   -0.14534E+08         0.64717E+02         0.00000E+00
    0.64717E+02        -0.19578E+07         0.00000E+00
    0.00000E+00         0.00000E+00        -0.13960E+08
 
   -0.14508E+08        -0.42267E+04         0.00000E+00
   -0.42267E+04        -0.18940E+07         0.00000E+00
    0.00000E+00         0.00000E+00        -0.13856E+08
 
   -0.14495E+08        -0.22253E+04         0.00000E+00
   -0.22253E+04        -0.18077E+07         0.00000E+00
    0.00000E+00         0.00000E+00        -0.13749E+08
 
   -0.18637E+08         0.74658E+03         0.00000E+00
    0.74658E+03        -0.19744E+07         0.00000E+00
    0.00000E+00         0.00000E+00        -0.18778E+08
 
   -0.18635E+08         0.26031E+04         0.00000E+00
    0.26031E+04        -0.19623E+07         0.00000E+00
    0.00000E+00         0.00000E+00        -0.18762E+08
 
   -0.18631E+08         0.54022E+04         0.00000E+00
    0.54022E+04        -0.19535E+07         0.00000E+00
    0.00000E+00         0.00000E+00        -0.18747E+08
 
   -0.18625E+08         0.93718E+04         0.00000E+00
    0.93718E+04        -0.19475E+07         0.00000E+00
    0.00000E+00         0.00000E+00        -0.18733E+08
 
   -0.18618E+08         0.14409E+05         0.00000E+00
    0.14409E+05        -0.19437E+07         0.00000E+00
    0.00000E+00         0.00000E+00        -0.18718E+08
 
   -0.18609E+08         0.20236E+05         0.00000E+00
    0.20236E+05        -0.19414E+07         0.00000E+00
    0.00000E+00         0.00000E+00        -0.18704E+08
 
   -0.18600E+08         0.26544E+05         0.00000E+00
    0.26544E+05        -0.19403E+07         0.00000E+00
    0.00000E+00         0.00000E+00        -0.18690E+08
 
   -0.18590E+08         0.33071E+05         0.00000E+00
    0.33071E+05        -0.19401E+07         0.00000E+00
    0.00000E+00         0.00000E+00        -0.18675E+08
 
   -0.18579E+08         0.39626E+05         0.00000E+00
    0.39626E+05        -0.19404E+07         0.00000E+00
    0.00000E+00         0.00000E+00        -0.18661E+08
 
   -0.18567E+08         0.46080E+05         0.00000E+00
    0.46080E+05        -0.19410E+07         0.00000E+00
    0.00000E+00         0.00000E+00        -0.18646E+08
 
   -0.18555E+08         0.52354E+05         0.00000E+00
    0.52354E+05        -0.19418E+07         0.00000E+00
    0.00000E+00         0.00000E+00        -0.18630E+08
 
   -0.18541E+08         0.58405E+05         0.00000E+00
    0.58405E+05        -0.19427E+07         0.00000E+00
    0.00000E+00         0.00000E+00        -0.18615E+08
 
   -0.18528E+08         0.64215E+05         0.00000E+00
    0.64215E+05        -0.19436E+07         0.00000E+00
    0.00000E+00         0.00000E+00        -0.18599E+08
 
   -0.18513E+08         0.69785E+05         0.00000E+00
    0.69785E+05        -0.19445E+07         0.00000E+00
    0.00000E+00         0.00000E+00        -0.18583E+08
 
   -0.18498E+08         0.75127E+05         0.00000E+00
    0.75127E+05        -0.19453E+07         0.00000E+00
    0.00000E+00         0.00000E+00        -0.18566E+08
 
   -0.18482E+08         0.80257E+05         0.00000E+00
    0.80257E+05        -0.19461E+07         0.00000E+00
    0.00000E+00         0.00000E+00        -0.18549E+08
 
   -0.18465E+08         0.85199E+05         0.00000E+00
    0.85199E+05        -0.19467E+07         0.00000E+00
    0.00000E+00         0.00000E+00        -0.18531E+08
 
   -0.18448E+08         0.89978E+05         0.00000E+00
    0.89978E+05        -0.19472E+07         0.00000E+00
    0.00000E+00         0.00000E+00        -0.18513E+08
 
   -0.18430E+08         0.94616E+05         0.00000E+00
    0.94616E+05        -0.19477E+07         0.00000E+00
    0.00000E+00         0.00000E+00        -0.18494E+08
 
   -0.18411E+08         0.99139E+05         0.00000E+00
    0.99139E+05        -0.19481E+07         0.00000E+00
    0.00000E+00         0.00000E+00        -0.18475E+08
 
   -0.18391E+08         0.10357E+06         0.00000E+00
    0.10357E+06        -0.19484E+07         0.00000E+00
    0.00000E+00         0.00000E+00        -0.18455E+08
 
   -0.18371E+08         0.10792E+06         0.00000E+00
    0.10792E+06        -0.19486E+07         0.00000E+00
    0.00000E+00         0.00000E+00        -0.18435E+08
 
   -0.18349E+08         0.11223E+06         0.00000E+00
    0.11223E+06        -0.19487E+07         0.00000E+00
    0.00000E+00         0.00000E+00        -0.18414E+08
 
   -0.18327E+08         0.11649E+06         0.00000E+00
    0.11649E+06        -0.19489E+07         0.00000E+00
    0.00000E+00         0.00000E+00        -0.18392E+08
 
   -0.18305E+08         0.12074E+06         0.00000E+00
    0.12074E+06        -0.19489E+07         0.00000E+00
    0.00000E+00         0.00000E+00        -0.18370E+08
 
   -0.18281E+08         0.12498E+06         0.00000E+00
    0.12498E+06        -0.19490E+07         0.00000E+00
    0.00000E+00         0.00000E+00        -0.18347E+08
 
   -0.18257E+08         0.12922E+06         0.00000E+00
    0.12922E+06        -0.19490E+07         0.00000E+00
    0.00000E+00         0.00000E+00        -0.18324E+08
 
   -0.18232E+08         0.13348E+06         0.00000E+00
    0.13348E+06        -0.19489E+07         0.00000E+00
    0.00000E+00         0.00000E+00        -0.18299E+08
 
   -0.18206E+08         0.13776E+06         0.00000E+00
    0.13776E+06        -0.19489E+07         0.00000E+00
    0.00000E+00         0.00000E+00        -0.18275E+08
 
   -0.18179E+08         0.14207E+06         0.00000E+00
    0.14207E+06        -0.19488E+07         0.00000E+00
    0.00000E+00         0.00000E+00        -0.18249E+08
 
   -0.18152E+08         0.14643E+06         0.00000E+00
    0.14643E+06        -0.19487E+07         0.00000E+00
    0.00000E+00         0.00000E+00        -0.18223E+08
 
   -0.18124E+08         0.15083E+06         0.00000E+00
    0.15083E+06        -0.19486E+07         0.00000E+00
    0.00000E+00         0.00000E+00        -0.18196E+08
 
   -0.18094E+08         0.15528E+06         0.00000E+00
    0.15528E+06        -0.19484E+07         0.00000E+00
    0.00000E+00         0.00000E+00        -0.18168E+08
 
   -0.18064E+08         0.15978E+06         0.00000E+00
    0.15978E+06        -0.19483E+07         0.00000E+00
    0.00000E+00         0.00000E+00        -0.18139E+08
 
   -0.18034E+08         0.16435E+06         0.00000E+00
    0.16435E+06        -0.19482E+07         0.00000E+00
    0.00000E+00         0.00000E+00        -0.18110E+08
 
   -0.18002E+08         0.16897E+06         0.00000E+00
    0.16897E+06        -0.19480E+07         0.00000E+00
    0.00000E+00         0.00000E+00        -0.18079E+08
 
   -0.17969E+08         0.17366E+06         0.00000E+00
    0.17366E+06        -0.19478E+07         0.00000E+00
    0.00000E+00         0.00000E+00        -0.18048E+08
 
   -0.17936E+08         0.17842E+06         0.00000E+00
    0.17842E+06        -0.19477E+07         0.00000E+00
    0.00000E+00         0.00000E+00        -0.18016E+08
 
   -0.17901E+08         0.18324E+06         0.00000E+00
    0.18324E+06        -0.19475E+07         0.00000E+00
    0.00000E+00         0.00000E+00        -0.17983E+08
 
   -0.17866E+08         0.18812E+06         0.00000E+00
    0.18812E+06        -0.19474E+07         0.00000E+00
    0.00000E+00         0.00000E+00        -0.17949E+08
 
   -0.17829E+08         0.19307E+06         0.00000E+00
    0.19307E+06        -0.19472E+07         0.00000E+00
    0.00000E+00         0.00000E+00        -0.17914E+08
 
   -0.17792E+08         0.19808E+06         0.00000E+00
    0.19808E+06        -0.19471E+07         0.00000E+00
    0.00000E+00         0.00000E+00        -0.17878E+08
 
   -0.17753E+08         0.20315E+06         0.00000E+00
    0.20315E+06        -0.19469E+07         0.00000E+00
    0.00000E+00         0.00000E+00        -0.17841E+08
 
   -0.17714E+08         0.20828E+06         0.00000E+00
    0.20828E+06        -0.19468E+07         0.00000E+00
    0.00000E+00         0.00000E+00        -0.17803E+08
 
   -0.17673E+08         0.21347E+06         0.00000E+00
    0.21347E+06        -0.19467E+07         0.00000E+00
    0.00000E+00         0.00000E+00        -0.17764E+08
 
   -0.17632E+08         0.21870E+06         0.00000E+00
    0.21870E+06        -0.19466E+07         0.00000E+00
    0.00000E+00         0.00000E+00        -0.17723E+08
 
   -0.17589E+08         0.22399E+06         0.00000E+00
    0.22399E+06        -0.19465E+07         0.00000E+00
    0.00000E+00         0.00000E+00        -0.17682E+08
 
   -0.17546E+08         0.22931E+06         0.00000E+00
    0.22931E+06        -0.19464E+07         0.00000E+00
    0.00000E+00         0.00000E+00        -0.17640E+08
 
   -0.17501E+08         0.23467E+06         0.00000E+00
    0.23467E+06        -0.19463E+07         0.00000E+00
    0.00000E+00         0.00000E+00        -0.17596E+08
 
   -0.17455E+08         0.24005E+06         0.00000E+00
    0.24005E+06        -0.19463E+07         0.00000E+00
    0.00000E+00         0.00000E+00        -0.17551E+08
 
   -0.17408E+08         0.24545E+06         0.00000E+00
    0.24545E+06        -0.19463E+07         0.00000E+00
    0.00000E+00         0.00000E+00        -0.17505E+08
 
   -0.17360E+08         0.25087E+06         0.00000E+00
    0.25087E+06        -0.19463E+07         0.00000E+00
    0.00000E+00         0.00000E+00        -0.17458E+08
 
   -0.17311E+08         0.25628E+06         0.00000E+00
    0.25628E+06        -0.19463E+07         0.00000E+00
    0.00000E+00         0.00000E+00        -0.17409E+08
 
   -0.17261E+08         0.26168E+06         0.00000E+00
    0.26168E+06        -0.19464E+07         0.00000E+00
    0.00000E+00         0.00000E+00        -0.17359E+08
 
   -0.17209E+08         0.26706E+06         0.00000E+00
    0.26706E+06        -0.19465E+07         0.00000E+00
    0.00000E+00         0.00000E+00        -0.17308E+08
 
   -0.17157E+08         0.27240E+06         0.00000E+00
    0.27240E+06        -0.19466E+07         0.00000E+00
    0.00000E+00         0.00000E+00        -0.17256E+08
 
   -0.17103E+08         0.27769E+06         0.00000E+00
    0.27769E+06        -0.19468E+07         0.00000E+00
    0.00000E+00         0.00000E+00        -0.17202E+08
 
   -0.17049E+08         0.28291E+06         0.00000E+00
    0.28291E+06        -0.19470E+07         0.00000E+00
    0.00000E+00         0.00000E+00        -0.17147E+08
 
   -0.16993E+08         0.28805E+06         0.00000E+00
    0.28805E+06        -0.19473E+07         0.00000E+00
    0.00000E+00         0.00000E+00        -0.17090E+08
 
   -0.16936E+08         0.29309E+06         0.00000E+00
    0.29309E+06        -0.19476E+07         0.00000E+00
    0.00000E+00         0.00000E+00        -0.17032E+08
 
   -0.16878E+08         0.29800E+06         0.00000E+00
    0.29800E+06        -0.19480E+07         0.00000E+00
    0.00000E+00         0.00000E+00        -0.16973E+08
 
   -0.16818E+08         0.30277E+06         0.00000E+00
    0.30277E+06        -0.19484E+07         0.00000E+00
    0.00000E+00         0.00000E+00        -0.16912E+08
 
   -0.16758E+08         0.30737E+06         0.00000E+00
    0.30737E+06        -0.19489E+07         0.00000E+00
    0.00000E+00         0.00000E+00        -0.16850E+08
 
   -0.16697E+08         0.31178E+06         0.00000E+00
    0.31178E+06        -0.19495E+07         0.00000E+00
    0.00000E+00         0.00000E+00        -0.16787E+08
 
   -0.16635E+08         0.31596E+06         0.00000E+00
    0.31596E+06        -0.19501E+07         0.00000E+00
    0.00000E+00         0.00000E+00        -0.16722E+08
 
   -0.16571E+08         0.31989E+06         0.00000E+00
    0.31989E+06        -0.19509E+07         0.00000E+00
    0.00000E+00         0.00000E+00        -0.16655E+08
 
   -0.16507E+08         0.32354E+06         0.00000E+00
    0.32354E+06        -0.19517E+07         0.00000E+00
    0.00000E+00         0.00000E+00        -0.16588E+08
 
   -0.16442E+08         0.32686E+06         0.00000E+00
    0.32686E+06        -0.19526E+07         0.00000E+00
    0.00000E+00         0.00000E+00        -0.16519E+08
 
   -0.16376E+08         0.32982E+06         0.00000E+00
    0.32982E+06        -0.19537E+07         0.00000E+00
    0.00000E+00         0.00000E+00        -0.16448E+08
 
   -0.16309E+08         0.33238E+06         0.00000E+00
    0.33238E+06        -0.19548E+07         0.00000E+00
    0.00000E+00         0.00000E+00        -0.16376E+08
 
   -0.16242E+08         0.33449E+06         0.00000E+00
    0.33449E+06        -0.19561E+07         0.00000E+00
    0.00000E+00         0.00000E+00        -0.16303E+08
 
   -0.16174E+08         0.33610E+06         0.00000E+00
    0.33610E+06        -0.19575E+07         0.00000E+00
    0.00000E+00         0.00000E+00        -0.16229E+08
 
   -0.16105E+08         0.33715E+06         0.00000E+00
    0.33715E+06        -0.19591E+07         0.00000E+00
    0.00000E+00         0.00000E+00        -0.16153E+08
 
   -0.16036E+08         0.33758E+06         0.00000E+00
    0.33758E+06        -0.19609E+07         0.00000E+00
    0.00000E+00         0.00000E+00        -0.16076E+08
 
   -0.15967E+08         0.33732E+06         0.00000E+00
    0.33732E+06        -0.19629E+07         0.00000E+00
    0.00000E+00         0.00000E+00        -0.15997E+08
 
   -0.15897E+08         0.33630E+06         0.00000E+00
    0.33630E+06        -0.19651E+07         0.00000E+00
    0.00000E+00         0.00000E+00        -0.15918E+08
 
   -0.15827E+08         0.33443E+06         0.00000E+00
    0.33443E+06        -0.19676E+07         0.00000E+00
    0.00000E+00         0.00000E+00        -0.15837E+08
 
   -0.15757E+08         0.33162E+06         0.00000E+00
    0.33162E+06        -0.19704E+07         0.00000E+00
    0.00000E+00         0.00000E+00        -0.15756E+08
 
   -0.15687E+08         0.32777E+06         0.00000E+00
    0.32777E+06        -0.19736E+07         0.00000E+00
    0.00000E+00         0.00000E+00        -0.15673E+08
 
   -0.15618E+08         0.32277E+06         0.00000E+00
    0.32277E+06        -0.19771E+07         0.00000E+00
    0.00000E+00         0.00000E+00        -0.15589E+08
 
   -0.15548E+08         0.31649E+06         0.00000E+00
    0.31649E+06        -0.19811E+07         0.00000E+00
    0.00000E+00         0.00000E+00        -0.15505E+08
 
   -0.15479E+08         0.30880E+06         0.00000E+00
    0.30880E+06        -0.19856E+07         0.00000E+00
    0.00000E+00         0.00000E+00        -0.15420E+08
 
   -0.15411E+08         0.29957E+06         0.00000E+00
    0.29957E+06        -0.19906E+07         0.00000E+00
    0.00000E+00         0.00000E+00        -0.15334E+08
 
   -0.15343E+08         0.28865E+06         0.00000E+00
    0.28865E+06        -0.19962E+07         0.00000E+00
    0.00000E+00         0.00000E+00        -0.15247E+08
 
   -0.15277E+08         0.27590E+06         0.00000E+00
    0.27590E+06        -0.20023E+07         0.00000E+00
    0.00000E+00         0.00000E+00        -0.15160E+08
 
   -0.15211E+08         0.26118E+06         0.00000E+00
    0.26118E+06        -0.20089E+07         0.00000E+00
    0.00000E+00         0.00000E+00        -0.15073E+08
 
   -0.15146E+08         0.24436E+06         0.00000E+00
    0.24436E+06        -0.20161E+07         0.00000E+00
    0.00000E+00         0.00000E+00        -0.14985E+08
 
   -0.15083E+08         0.22535E+06         0.00000E+00
    0.22535E+06        -0.20236E+07         0.00000E+00
    0.00000E+00         0.00000E+00        -0.14896E+08
 
   -0.15021E+08         0.20413E+06         0.00000E+00
    0.20413E+06        -0.20312E+07         0.00000E+00
    0.00000E+00         0.00000E+00        -0.14808E+08
 
   -0.14960E+08         0.18074E+06         0.00000E+00
    0.18074E+06        -0.20385E+07         0.00000E+00
    0.00000E+00         0.00000E+00        -0.14718E+08
 
   -0.14901E+08         0.15536E+06         0.00000E+00
    0.15536E+06        -0.20450E+07         0.00000E+00
    0.00000E+00         0.00000E+00        -0.14629E+08
 
   -0.14843E+08         0.12835E+06         0.00000E+00
    0.12835E+06        -0.20500E+07         0.00000E+00
    0.00000E+00         0.00000E+00        -0.14538E+08
 
   -0.14788E+08         0.10034E+06         0.00000E+00
    0.10034E+06        -0.20523E+07         0.00000E+00
    0.00000E+00         0.00000E+00        -0.14447E+08
 
   -0.14734E+08         0.72289E+05         0.00000E+00
    0.72289E+05        -0.20506E+07         0.00000E+00
    0.00000E+00         0.00000E+00        -0.14355E+08
 
   -0.14684E+08         0.45624E+05         0.00000E+00
    0.45624E+05        -0.20429E+07         0.00000E+00
    0.00000E+00         0.00000E+00        -0.14261E+08
 
   -0.14638E+08         0.22236E+05         0.00000E+00
    0.22236E+05        -0.20268E+07         0.00000E+00
    0.00000E+00         0.00000E+00        -0.14166E+08
 
   -0.14596E+08         0.43525E+04         0.00000E+00
    0.43525E+04        -0.19992E+07         0.00000E+00
    0.00000E+00         0.00000E+00        -0.14069E+08
 
   -0.14562E+08        -0.60222E+04         0.00000E+00
   -0.60222E+04        -0.19563E+07         0.00000E+00
    0.00000E+00         0.00000E+00        -0.13969E+08
 
   -0.14538E+08        -0.81375E+04         0.00000E+00
   -0.81375E+04        -0.18941E+07         0.00000E+00
    0.00000E+00         0.00000E+00        -0.13865E+08
 
   -0.14525E+08        -0.35784E+04         0.00000E+00
   -0.35784E+04        -0.18089E+07         0.00000E+00
    0.00000E+00         0.00000E+00        -0.13758E+08
 
   -0.18632E+08         0.52285E+03         0.00000E+00
    0.52285E+03        -0.19746E+07         0.00000E+00
    0.00000E+00         0.00000E+00        -0.18776E+08
 
   -0.18629E+08         0.19553E+04         0.00000E+00
    0.19553E+04        -0.19627E+07         0.00000E+00
    0.00000E+00         0.00000E+00        -0.18761E+08
 
   -0.18625E+08         0.43883E+04         0.00000E+00
    0.43883E+04        -0.19542E+07         0.00000E+00
    0.00000E+00         0.00000E+00        -0.18746E+08
 
   -0.18620E+08         0.80590E+04         0.00000E+00
    0.80590E+04        -0.19484E+07         0.00000E+00
    0.00000E+00         0.00000E+00        -0.18731E+08
 
   -0.18613E+08         0.12855E+05         0.00000E+00
    0.12855E+05        -0.19447E+07         0.00000E+00
    0.00000E+00         0.00000E+00        -0.18717E+08
 
   -0.18604E+08         0.18480E+05         0.00000E+00
    0.18480E+05        -0.19426E+07         0.00000E+00
    0.00000E+00         0.00000E+00        -0.18703E+08
 
   -0.18595E+08         0.24613E+05         0.00000E+00
    0.24613E+05        -0.19416E+07         0.00000E+00
    0.00000E+00         0.00000E+00        -0.18689E+08
 
   -0.18585E+08         0.30980E+05         0.00000E+00
    0.30980E+05        -0.19414E+07         0.00000E+00
    0.00000E+00         0.00000E+00        -0.18674E+08
 
   -0.18575E+08         0.37385E+05         0.00000E+00
    0.37385E+05        -0.19416E+07         0.00000E+00
    0.00000E+00         0.00000E+00        -0.18660E+08
 
   -0.18563E+08         0.43693E+05         0.00000E+00
    0.43693E+05        -0.19422E+07         0.00000E+00
    0.00000E+00         0.00000E+00        -0.18645E+08
 
   -0.18551E+08         0.49822E+05         0.00000E+00
    0.49822E+05        -0.19430E+07         0.00000E+00
    0.00000E+00         0.00000E+00        -0.18630E+08
 
   -0.18538E+08         0.55729E+05         0.00000E+00
    0.55729E+05        -0.19439E+07         0.00000E+00
    0.00000E+00         0.00000E+00        -0.18614E+08
 
   -0.18525E+08         0.61395E+05         0.00000E+00
    0.61395E+05        -0.19448E+07         0.00000E+00
    0.00000E+00         0.00000E+00        -0.18598E+08
 
   -0.18510E+08         0.66819E+05         0.00000E+00
    0.66819E+05        -0.19456E+07         0.00000E+00
    0.00000E+00         0.00000E+00        -0.18582E+08
 
   -0.18495E+08         0.72014E+05         0.00000E+00
    0.72014E+05        -0.19464E+07         0.00000E+00
    0.00000E+00         0.00000E+00        -0.18565E+08
 
   -0.18479E+08         0.76996E+05         0.00000E+00
    0.76996E+05        -0.19470E+07         0.00000E+00
    0.00000E+00         0.00000E+00        -0.18548E+08
 
   -0.18462E+08         0.81790E+05         0.00000E+00
    0.81790E+05        -0.19476E+07         0.00000E+00
    0.00000E+00         0.00000E+00        -0.18531E+08
 
   -0.18445E+08         0.86419E+05         0.00000E+00
    0.86419E+05        -0.19482E+07         0.00000E+00
    0.00000E+00         0.00000E+00        -0.18512E+08
 
   -0.18427E+08         0.90907E+05         0.00000E+00
    0.90907E+05        -0.19486E+07         0.00000E+00
    0.00000E+00         0.00000E+00        -0.18494E+08
 
   -0.18408E+08         0.95280E+05         0.00000E+00
    0.95280E+05        -0.19489E+07         0.00000E+00
    0.00000E+00         0.00000E+00        -0.18474E+08
 
   -0.18388E+08         0.99558E+05         0.00000E+00
    0.99558E+05        -0.19492E+07         0.00000E+00
    0.00000E+00         0.00000E+00        -0.18455E+08
 
   -0.18368E+08         0.10376E+06         0.00000E+00
    0.10376E+06        -0.19494E+07         0.00000E+00
    0.00000E+00         0.00000E+00        -0.18434E+08
 
   -0.18347E+08         0.10791E+06         0.00000E+00
    0.10791E+06        -0.19496E+07         0.00000E+00
    0.00000E+00         0.00000E+00        -0.18413E+08
 
   -0.18325E+08         0.11203E+06         0.00000E+00
    0.11203E+06        -0.19497E+07         0.00000E+00
    0.00000E+00         0.00000E+00        -0.18392E+08
 
   -0.18302E+08         0.11612E+06         0.00000E+00
    0.11612E+06        -0.19498E+07         0.00000E+00
    0.00000E+00         0.00000E+00        -0.18369E+08
 
   -0.18278E+08         0.12020E+06         0.00000E+00
    0.12020E+06        -0.19498E+07         0.00000E+00
    0.00000E+00         0.00000E+00        -0.18347E+08
 
   -0.18254E+08         0.12428E+06         0.00000E+00
    0.12428E+06        -0.19498E+07         0.00000E+00
    0.00000E+00         0.00000E+00        -0.18323E+08
 
   -0.18229E+08         0.12838E+06         0.00000E+00
    0.12838E+06        -0.19498E+07         0.00000E+00
    0.00000E+00         0.00000E+00        -0.18299E+08
 
   -0.18203E+08         0.13250E+06         0.00000E+00
    0.13250E+06        -0.19497E+07         0.00000E+00
    0.00000E+00         0.00000E+00        -0.18274E+08
 
   -0.18176E+08         0.13665E+06         0.00000E+00
    0.13665E+06        -0.19496E+07         0.00000E+00
    0.00000E+00         0.00000E+00        -0.18248E+08
 
   -0.18149E+08         0.14084E+06         0.00000E+00
    0.14084E+06        -0.19495E+07         0.00000E+00
    0.00000E+00         0.00000E+00        -0.18222E+08
 
   -0.18120E+08         0.14508E+06         0.00000E+00
    0.14508E+06        -0.19494E+07         0.00000E+00
    0.00000E+00         0.00000E+00        -0.18195E+08
 
   -0.18091E+08         0.14936E+06         0.00000E+00
    0.14936E+06        -0.19493E+07         0.00000E+00
    0.00000E+00         0.00000E+00        -0.18167E+08
 
   -0.18061E+08         0.15369E+06         0.00000E+00
    0.15369E+06        -0.19492E+07         0.00000E+00
    0.00000E+00         0.00000E+00        -0.18138E+08
 
   -0.18030E+08         0.15808E+06         0.00000E+00
    0.15808E+06        -0.19491E+07         0.00000E+00
    0.00000E+00         0.00000E+00        -0.18109E+08
 
   -0.17998E+08         0.16253E+06         0.00000E+00
    0.16253E+06        -0.19489E+07         0.00000E+00
    0.00000E+00         0.00000E+00        -0.18079E+08
 
   -0.17966E+08         0.16703E+06         0.00000E+00
    0.16703E+06        -0.19488E+07         0.00000E+00
    0.00000E+00         0.00000E+00        -0.18047E+08
 
   -0.17932E+08         0.17160E+06         0.00000E+00
    0.17160E+06        -0.19486E+07         0.00000E+00
    0.00000E+00         0.00000E+00        -0.18015E+08
 
   -0.17897E+08         0.17623E+06         0.00000E+00
    0.17623E+06        -0.19485E+07         0.00000E+00
    0.00000E+00         0.00000E+00        -0.17982E+08
 
   -0.17862E+08         0.18092E+06         0.00000E+00
    0.18092E+06        -0.19483E+07         0.00000E+00
    0.00000E+00         0.00000E+00        -0.17948E+08
 
   -0.17825E+08         0.18568E+06         0.00000E+00
    0.18568E+06        -0.19482E+07         0.00000E+00
    0.00000E+00         0.00000E+00        -0.17913E+08
 
   -0.17788E+08         0.19049E+06         0.00000E+00
    0.19049E+06        -0.19481E+07         0.00000E+00
    0.00000E+00         0.00000E+00        -0.17877E+08
 
   -0.17749E+08         0.19536E+06         0.00000E+00
    0.19536E+06        -0.19479E+07         0.00000E+00
    0.00000E+00         0.00000E+00        -0.17840E+08
 
   -0.17710E+08         0.20029E+06         0.00000E+00
    0.20029E+06        -0.19478E+07         0.00000E+00
    0.00000E+00         0.00000E+00        -0.17802E+08
 
   -0.17669E+08         0.20527E+06         0.00000E+00
    0.20527E+06        -0.19477E+07         0.00000E+00
    0.00000E+00         0.00000E+00        -0.17763E+08
 
   -0.17628E+08         0.21029E+06         0.00000E+00
    0.21029E+06        -0.19476E+07         0.00000E+00
    0.00000E+00         0.00000E+00        -0.17723E+08
 
   -0.17585E+08         0.21536E+06         0.00000E+00
    0.21536E+06        -0.19475E+07         0.00000E+00
    0.00000E+00         0.00000E+00        -0.17681E+08
 
   -0.17541E+08         0.22047E+06         0.00000E+00
    0.22047E+06        -0.19474E+07         0.00000E+00
    0.00000E+00         0.00000E+00        -0.17639E+08
 
   -0.17497E+08         0.22561E+06         0.00000E+00
    0.22561E+06        -0.19474E+07         0.00000E+00
    0.00000E+00         0.00000E+00        -0.17595E+08
 
   -0.17451E+08         0.23078E+06         0.00000E+00
    0.23078E+06        -0.19473E+07         0.00000E+00
    0.00000E+00         0.00000E+00        -0.17550E+08
 
   -0.17404E+08         0.23596E+06         0.00000E+00
    0.23596E+06        -0.19473E+07         0.00000E+00
    0.00000E+00         0.00000E+00        -0.17504E+08
 
   -0.17356E+08         0.24115E+06         0.00000E+00
    0.24115E+06        -0.19473E+07         0.00000E+00
    0.00000E+00         0.00000E+00        -0.17457E+08
 
   -0.17307E+08         0.24634E+06         0.00000E+00
    0.24634E+06        -0.19474E+07         0.00000E+00
    0.00000E+00         0.00000E+00        -0.17408E+08
 
   -0.17256E+08         0.25151E+06         0.00000E+00
    0.25151E+06        -0.19474E+07         0.00000E+00
    0.00000E+00         0.00000E+00        -0.17358E+08
 
   -0.17205E+08         0.25666E+06         0.00000E+00
    0.25666E+06        -0.19475E+07         0.00000E+00
    0.00000E+00         0.00000E+00        -0.17307E+08
 
   -0.17152E+08         0.26178E+06         0.00000E+00
    0.26178E+06        -0.19477E+07         0.00000E+00
    0.00000E+00         0.00000E+00        -0.17255E+08
 
   -0.17099E+08         0.26685E+06         0.00000E+00
    0.26685E+06        -0.19478E+07         0.00000E+00
    0.00000E+00         0.00000E+00        -0.17201E+08
 
   -0.17044E+08         0.27185E+06         0.00000E+00
    0.27185E+06        -0.19480E+07         0.00000E+00
    0.00000E+00         0.00000E+00        -0.17146E+08
 
   -0.16988E+08         0.27676E+06         0.00000E+00
    0.27676E+06        -0.19483E+07         0.00000E+00
    0.00000E+00         0.00000E+00        -0.17089E+08
 
   -0.16931E+08         0.28158E+06         0.00000E+00
    0.28158E+06        -0.19486E+07         0.00000E+00
    0.00000E+00         0.00000E+00        -0.17031E+08
 
   -0.16873E+08         0.28628E+06         0.00000E+00
    0.28628E+06        -0.19489E+07         0.00000E+00
    0.00000E+00         0.00000E+00        -0.16972E+08
 
   -0.16814E+08         0.29083E+06         0.00000E+00
    0.29083E+06        -0.19493E+07         0.00000E+00
    0.00000E+00         0.00000E+00        -0.16911E+08
 
   -0.16754E+08         0.29523E+06         0.00000E+00
    0.29523E+06        -0.19498E+07         0.00000E+00
    0.00000E+00         0.00000E+00        -0.16849E+08
 
   -0.16692E+08         0.29943E+06         0.00000E+00
    0.29943E+06        -0.19503E+07         0.00000E+00
    0.00000E+00         0.00000E+00        -0.16786E+08
 
   -0.16630E+08         0.30341E+06         0.00000E+00
    0.30341E+06        -0.19509E+07         0.00000E+00
    0.00000E+00         0.00000E+00        -0.16721E+08
 
   -0.16567E+08         0.30716E+06         0.00000E+00
    0.30716E+06        -0.19516E+07         0.00000E+00
    0.00000E+00         0.00000E+00        -0.16654E+08
 
   -0.16503E+08         0.31062E+06         0.00000E+00
    0.31062E+06        -0.19524E+07         0.00000E+00
    0.00000E+00         0.00000E+00        -0.16587E+08
 
   -0.16438E+08         0.31377E+06         0.00000E+00
    0.31377E+06        -0.19532E+07         0.00000E+00
    0.00000E+00         0.00000E+00        -0.16518E+08
 
   -0.16372E+08         0.31658E+06         0.00000E+00
    0.31658E+06        -0.19542E+07         0.00000E+00
    0.00000E+00         0.00000E+00        -0.16447E+08
 
   -0.16306E+08         0.31899E+06         0.00000E+00
    0.31899E+06        -0.19553E+07         0.00000E+00
    0.00000E+00         0.00000E+00        -0.16375E+08
 
   -0.16239E+08         0.32096E+06         0.00000E+00
    0.32096E+06        -0.19564E+07         0.00000E+00
    0.00000E+00         0.00000E+00        -0.16302E+08
 
   -0.16171E+08         0.32245E+06         0.00000E+00
    0.32245E+06        -0.19578E+07         0.00000E+00
    0.00000E+00         0.00000E+00        -0.16228E+08
 
   -0.16102E+08         0.32340E+06         0.00000E+00
    0.32340E+06        -0.19593E+07         0.00000E+00
    0.00000E+00         0.00000E+00        -0.16152E+08
 
   -0.16034E+08         0.32375E+06         0.00000E+00
    0.32375E+06        -0.19609E+07         0.00000E+00
    0.00000E+00         0.00000E+00        -0.16075E+08
 
   -0.15965E+08         0.32343E+06         0.00000E+00
    0.32343E+06        -0.19628E+07         0.00000E+00
    0.00000E+00         0.00000E+00        -0.15997E+08
 
   -0.15895E+08         0.32237E+06         0.00000E+00
    0.32237E+06        -0.19648E+07         0.00000E+00
    0.00000E+00         0.00000E+00        -0.15917E+08
 
   -0.15826E+08         0.32048E+06         0.00000E+00
    0.32048E+06        -0.19672E+07         0.00000E+00
    0.00000E+00         0.00000E+00        -0.15837E+08
 
   -0.15756E+08         0.31768E+06         0.00000E+00
    0.31768E+06        -0.19698E+07         0.00000E+00
    0.00000E+00         0.00000E+00        -0.15755E+08
 
   -0.15687E+08         0.31386E+06         0.00000E+00
    0.31386E+06        -0.19727E+07         0.00000E+00
    0.00000E+00         0.00000E+00        -0.15673E+08
 
   -0.15618E+08         0.30892E+06         0.00000E+00
    0.30892E+06        -0.19760E+07         0.00000E+00
    0.00000E+00         0.00000E+00        -0.15589E+08
 
   -0.15549E+08         0.30273E+06         0.00000E+00
    0.30273E+06        -0.19798E+07         0.00000E+00
    0.00000E+00         0.00000E+00        -0.15505E+08
 
   -0.15481E+08         0.29516E+06         0.00000E+00
    0.29516E+06        -0.19839E+07         0.00000E+00
    0.00000E+00         0.00000E+00        -0.15420E+08
 
   -0.15413E+08         0.28607E+06         0.00000E+00
    0.28607E+06        -0.19886E+07         0.00000E+00
    0.00000E+00         0.00000E+00        -0.15334E+08
 
   -0.15347E+08         0.27532E+06         0.00000E+00
    0.27532E+06        -0.19938E+07         0.00000E+00
    0.00000E+00         0.00000E+00        -0.15248E+08
 
   -0.15281E+08         0.26277E+06         0.00000E+00
    0.26277E+06        -0.19995E+07         0.00000E+00
    0.00000E+00         0.00000E+00        -0.15161E+08
 
   -0.15217E+08         0.24826E+06         0.00000E+00
    0.24826E+06        -0.20058E+07         0.00000E+00
    0.00000E+00         0.00000E+00        -0.15073E+08
 
   -0.15153E+08         0.23168E+06         0.00000E+00
    0.23168E+06        -0.20125E+07         0.00000E+00
    0.00000E+00         0.00000E+00        -0.14986E+08
 
   -0.15091E+08         0.21294E+06         0.00000E+00
    0.21294E+06        -0.20196E+07         0.00000E+00
    0.00000E+00         0.00000E+00        -0.14898E+08
 
   -0.15031E+08         0.19200E+06         0.00000E+00
    0.19200E+06        -0.20267E+07         0.00000E+00
    0.00000E+00         0.00000E+00        -0.14809E+08
 
   -0.14972E+08         0.16891E+06         0.00000E+00
    0.16891E+06        -0.20337E+07         0.00000E+00
    0.00000E+00         0.00000E+00        -0.14720E+08
 
   -0.14914E+08         0.14387E+06         0.00000E+00
    0.14387E+06        -0.20398E+07         0.00000E+00
    0.00000E+00         0.00000E+00        -0.14631E+08
 
   -0.14859E+08         0.11724E+06         0.00000E+00
    0.11724E+06        -0.20445E+07         0.00000E+00
    0.00000E+00         0.00000E+00        -0.14541E+08
 
   -0.14806E+08         0.89659E+05         0.00000E+00
    0.89659E+05        -0.20467E+07         0.00000E+00
    0.00000E+00         0.00000E+00        -0.14451E+08
 
   -0.14755E+08         0.62134E+05         0.00000E+00
    0.62134E+05        -0.20451E+07         0.00000E+00
    0.00000E+00         0.00000E+00        -0.14360E+08
 
   -0.14707E+08         0.36124E+05         0.00000E+00
    0.36124E+05        -0.20379E+07         0.00000E+00
    0.00000E+00         0.00000E+00        -0.14267E+08
 
   -0.14663E+08         0.13598E+05         0.00000E+00
    0.13598E+05        -0.20227E+07         0.00000E+00
    0.00000E+00         0.00000E+00        -0.14173E+08
 
   -0.14623E+08        -0.31195E+04         0.00000E+00
   -0.31195E+04        -0.19965E+07         0.00000E+00
    0.00000E+00         0.00000E+00        -0.14076E+08
 
   -0.14591E+08        -0.11909E+05         0.00000E+00
   -0.11909E+05        -0.19553E+07         0.00000E+00
    0.00000E+00         0.00000E+00        -0.13977E+08
 
   -0.14567E+08        -0.11953E+05         0.00000E+00
   -0.11953E+05        -0.18947E+07         0.00000E+00
    0.00000E+00         0.00000E+00        -0.13874E+08
 
   -0.14554E+08        -0.49060E+04         0.00000E+00
   -0.49060E+04        -0.18105E+07         0.00000E+00
    0.00000E+00         0.00000E+00        -0.13768E+08
 
   -0.18626E+08         0.30139E+03         0.00000E+00
    0.30139E+03        -0.19748E+07         0.00000E+00
    0.00000E+00         0.00000E+00        -0.18774E+08
 
   -0.18624E+08         0.13174E+04         0.00000E+00
    0.13174E+04        -0.19630E+07         0.00000E+00
    0.00000E+00         0.00000E+00        -0.18759E+08
 
   -0.18620E+08         0.33975E+04         0.00000E+00
    0.33975E+04        -0.19547E+07         0.00000E+00
    0.00000E+00         0.00000E+00        -0.18745E+08
 
   -0.18614E+08         0.67846E+04         0.00000E+00
    0.67846E+04        -0.19492E+07         0.00000E+00
    0.00000E+00         0.00000E+00        -0.18730E+08
 
   -0.18608E+08         0.11351E+05         0.00000E+00
    0.11351E+05        -0.19458E+07         0.00000E+00
    0.00000E+00         0.00000E+00        -0.18716E+08
 
   -0.18600E+08         0.16782E+05         0.00000E+00
    0.16782E+05        -0.19438E+07         0.00000E+00
    0.00000E+00         0.00000E+00        -0.18702E+08
 
   -0.18591E+08         0.22740E+05         0.00000E+00
    0.22740E+05        -0.19429E+07         0.00000E+00
    0.00000E+00         0.00000E+00        -0.18688E+08
 
   -0.18581E+08         0.28946E+05         0.00000E+00
    0.28946E+05        -0.19426E+07         0.00000E+00
    0.00000E+00         0.00000E+00        -0.18673E+08
 
   -0.18571E+08         0.35195E+05         0.00000E+00
    0.35195E+05        -0.19429E+07         0.00000E+00
    0.00000E+00         0.00000E+00        -0.18659E+08
 
   -0.18560E+08         0.41350E+05         0.00000E+00
    0.41350E+05        -0.19435E+07         0.00000E+00
    0.00000E+00         0.00000E+00        -0.18644E+08
 
   -0.18548E+08         0.47330E+05         0.00000E+00
    0.47330E+05        -0.19442E+07         0.00000E+00
    0.00000E+00         0.00000E+00        -0.18629E+08
 
   -0.18535E+08         0.53086E+05         0.00000E+00
    0.53086E+05        -0.19450E+07         0.00000E+00
    0.00000E+00         0.00000E+00        -0.18614E+08
 
   -0.18521E+08         0.58601E+05         0.00000E+00
    0.58601E+05        -0.19458E+07         0.00000E+00
    0.00000E+00         0.00000E+00        -0.18598E+08
 
   -0.18507E+08         0.63875E+05         0.00000E+00
    0.63875E+05        -0.19466E+07         0.00000E+00
    0.00000E+00         0.00000E+00        -0.18582E+08
 
   -0.18492E+08         0.68917E+05         0.00000E+00
    0.68917E+05        -0.19474E+07         0.00000E+00
    0.00000E+00         0.00000E+00        -0.18565E+08
 
   -0.18476E+08         0.73748E+05         0.00000E+00
    0.73748E+05        -0.19480E+07         0.00000E+00
    0.00000E+00         0.00000E+00        -0.18548E+08
 
   -0.18460E+08         0.78390E+05         0.00000E+00
    0.78390E+05        -0.19486E+07         0.00000E+00
    0.00000E+00         0.00000E+00        -0.18530E+08
 
   -0.18442E+08         0.82866E+05         0.00000E+00
    0.82866E+05        -0.19491E+07         0.00000E+00
    0.00000E+00         0.00000E+00        -0.18512E+08
 
   -0.18424E+08         0.87202E+05         0.00000E+00
    0.87202E+05        -0.19495E+07         0.00000E+00
    0.00000E+00         0.00000E+00        -0.18493E+08
 
   -0.18405E+08         0.91421E+05         0.00000E+00
    0.91421E+05        -0.19498E+07         0.00000E+00
    0.00000E+00         0.00000E+00        -0.18474E+08
 
   -0.18386E+08         0.95546E+05         0.00000E+00
    0.95546E+05        -0.19501E+07         0.00000E+00
    0.00000E+00         0.00000E+00        -0.18454E+08
 
   -0.18365E+08         0.99597E+05         0.00000E+00
    0.99597E+05        -0.19503E+07         0.00000E+00
    0.00000E+00         0.00000E+00        -0.18434E+08
 
   -0.18344E+08         0.10359E+06         0.00000E+00
    0.10359E+06        -0.19504E+07         0.00000E+00
    0.00000E+00         0.00000E+00        -0.18413E+08
 
   -0.18322E+08         0.10755E+06         0.00000E+00
    0.10755E+06        -0.19505E+07         0.00000E+00
    0.00000E+00         0.00000E+00        -0.18391E+08
 
   -0.18299E+08         0.11149E+06         0.00000E+00
    0.11149E+06        -0.19506E+07         0.00000E+00
    0.00000E+00         0.00000E+00        -0.18369E+08
 
   -0.18276E+08         0.11541E+06         0.00000E+00
    0.11541E+06        -0.19506E+07         0.00000E+00
    0.00000E+00         0.00000E+00        -0.18346E+08
 
   -0.18251E+08         0.11934E+06         0.00000E+00
    0.11934E+06        -0.19506E+07         0.00000E+00
    0.00000E+00         0.00000E+00        -0.18322E+08
 
   -0.18226E+08         0.12328E+06         0.00000E+00
    0.12328E+06        -0.19506E+07         0.00000E+00
    0.00000E+00         0.00000E+00        -0.18298E+08
 
   -0.18200E+08         0.12724E+06         0.00000E+00
    0.12724E+06        -0.19505E+07         0.00000E+00
    0.00000E+00         0.00000E+00        -0.18273E+08
 
   -0.18173E+08         0.13123E+06         0.00000E+00
    0.13123E+06        -0.19504E+07         0.00000E+00
    0.00000E+00         0.00000E+00        -0.18248E+08
 
   -0.18146E+08         0.13525E+06         0.00000E+00
    0.13525E+06        -0.19504E+07         0.00000E+00
    0.00000E+00         0.00000E+00        -0.18221E+08
 
   -0.18117E+08         0.13931E+06         0.00000E+00
    0.13931E+06        -0.19503E+07         0.00000E+00
    0.00000E+00         0.00000E+00        -0.18194E+08
 
   -0.18088E+08         0.14342E+06         0.00000E+00
    0.14342E+06        -0.19502E+07         0.00000E+00
    0.00000E+00         0.00000E+00        -0.18166E+08
 
   -0.18058E+08         0.14758E+06         0.00000E+00
    0.14758E+06        -0.19500E+07         0.00000E+00
    0.00000E+00         0.00000E+00        -0.18138E+08
 
   -0.18027E+08         0.15179E+06         0.00000E+00
    0.15179E+06        -0.19499E+07         0.00000E+00
    0.00000E+00         0.00000E+00        -0.18108E+08
 
   -0.17995E+08         0.15606E+06         0.00000E+00
    0.15606E+06        -0.19498E+07         0.00000E+00
    0.00000E+00         0.00000E+00        -0.18078E+08
 
   -0.17962E+08         0.16039E+06         0.00000E+00
    0.16039E+06        -0.19497E+07         0.00000E+00
    0.00000E+00         0.00000E+00        -0.18046E+08
 
   -0.17928E+08         0.16477E+06         0.00000E+00
    0.16477E+06        -0.19495E+07         0.00000E+00
    0.00000E+00         0.00000E+00        -0.18014E+08
 
   -0.17894E+08         0.16921E+06         0.00000E+00
    0.16921E+06        -0.19494E+07         0.00000E+00
    0.00000E+00         0.00000E+00        -0.17981E+08
 
   -0.17858E+08         0.17371E+06         0.00000E+00
    0.17371E+06        -0.19493E+07         0.00000E+00
    0.00000E+00         0.00000E+00        -0.17947E+08
 
   -0.17822E+08         0.17827E+06         0.00000E+00
    0.17827E+06        -0.19491E+07         0.00000E+00
    0.00000E+00         0.00000E+00        -0.17912E+08
 
   -0.17784E+08         0.18289E+06         0.00000E+00
    0.18289E+06        -0.19490E+07         0.00000E+00
    0.00000E+00         0.00000E+00        -0.17876E+08
 
   -0.17745E+08         0.18756E+06         0.00000E+00
    0.18756E+06        -0.19489E+07         0.00000E+00
    0.00000E+00         0.00000E+00        -0.17839E+08
 
   -0.17706E+08         0.19228E+06         0.00000E+00
    0.19228E+06        -0.19488E+07         0.00000E+00
    0.00000E+00         0.00000E+00        -0.17801E+08
 
   -0.17665E+08         0.19705E+06         0.00000E+00
    0.19705E+06        -0.19487E+07         0.00000E+00
    0.00000E+00         0.00000E+00        -0.17762E+08
 
   -0.17624E+08         0.20187E+06         0.00000E+00
    0.20187E+06        -0.19486E+07         0.00000E+00
    0.00000E+00         0.00000E+00        -0.17722E+08
 
   -0.17581E+08         0.20673E+06         0.00000E+00
    0.20673E+06        -0.19485E+07         0.00000E+00
    0.00000E+00         0.00000E+00        -0.17680E+08
 
   -0.17537E+08         0.21162E+06         0.00000E+00
    0.21162E+06        -0.19484E+07         0.00000E+00
    0.00000E+00         0.00000E+00        -0.17638E+08
 
   -0.17492E+08         0.21654E+06         0.00000E+00
    0.21654E+06        -0.19484E+07         0.00000E+00
    0.00000E+00         0.00000E+00        -0.17594E+08
 
   -0.17446E+08         0.22149E+06         0.00000E+00
    0.22149E+06        -0.19484E+07         0.00000E+00
    0.00000E+00         0.00000E+00        -0.17549E+08
 
   -0.17399E+08         0.22645E+06         0.00000E+00
    0.22645E+06        -0.19483E+07         0.00000E+00
    0.00000E+00         0.00000E+00        -0.17503E+08
 
   -0.17351E+08         0.23142E+06         0.00000E+00
    0.23142E+06        -0.19484E+07         0.00000E+00
    0.00000E+00         0.00000E+00        -0.17456E+08
 
   -0.17302E+08         0.23638E+06         0.00000E+00
    0.23638E+06        -0.19484E+07         0.00000E+00
    0.00000E+00         0.00000E+00        -0.17407E+08
 
   -0.17252E+08         0.24134E+06         0.00000E+00
    0.24134E+06        -0.19485E+07         0.00000E+00
    0.00000E+00         0.00000E+00        -0.17357E+08
 
   -0.17200E+08         0.24627E+06         0.00000E+00
    0.24627E+06        -0.19485E+07         0.00000E+00
    0.00000E+00         0.00000E+00        -0.17306E+08
 
   -0.17148E+08         0.25116E+06         0.00000E+00
    0.25116E+06        -0.19487E+07         0.00000E+00
    0.00000E+00         0.00000E+00        -0.17254E+08
 
   -0.17094E+08         0.25600E+06         0.00000E+00
    0.25600E+06        -0.19488E+07         0.00000E+00
    0.00000E+00         0.00000E+00        -0.17200E+08
 
   -0.17039E+08         0.26078E+06         0.00000E+00
    0.26078E+06        -0.19490E+07         0.00000E+00
    0.00000E+00         0.00000E+00        -0.17145E+08
 
   -0.16983E+08         0.26548E+06         0.00000E+00
    0.26548E+06        -0.19492E+07         0.00000E+00
    0.00000E+00         0.00000E+00        -0.17088E+08
 
   -0.16927E+08         0.27008E+06         0.00000E+00
    0.27008E+06        -0.19495E+07         0.00000E+00
    0.00000E+00         0.00000E+00        -0.17030E+08
 
   -0.16868E+08         0.27456E+06         0.00000E+00
    0.27456E+06        -0.19498E+07         0.00000E+00
    0.00000E+00         0.00000E+00        -0.16971E+08
 
   -0.16809E+08         0.27891E+06         0.00000E+00
    0.27891E+06        -0.19502E+07         0.00000E+00
    0.00000E+00         0.00000E+00        -0.16910E+08
 
   -0.16749E+08         0.28309E+06         0.00000E+00
    0.28309E+06        -0.19506E+07         0.00000E+00
    0.00000E+00         0.00000E+00        -0.16848E+08
 
   -0.16688E+08         0.28709E+06         0.00000E+00
    0.28709E+06        -0.19511E+07         0.00000E+00
    0.00000E+00         0.00000E+00        -0.16785E+08
 
   -0.16626E+08         0.29089E+06         0.00000E+00
    0.29089E+06        -0.19517E+07         0.00000E+00
    0.00000E+00         0.00000E+00        -0.16720E+08
 
   -0.16563E+08         0.29444E+06         0.00000E+00
    0.29444E+06        -0.19523E+07         0.00000E+00
    0.00000E+00         0.00000E+00        -0.16653E+08
 
   -0.16499E+08         0.29773E+06         0.00000E+00
    0.29773E+06        -0.19530E+07         0.00000E+00
    0.00000E+00         0.00000E+00        -0.16586E+08
 
   -0.16434E+08         0.30072E+06         0.00000E+00
    0.30072E+06        -0.19538E+07         0.00000E+00
    0.00000E+00         0.00000E+00        -0.16517E+08
 
   -0.16369E+08         0.30336E+06         0.00000E+00
    0.30336E+06        -0.19547E+07         0.00000E+00
    0.00000E+00         0.00000E+00        -0.16446E+08
 
   -0.16302E+08         0.30563E+06         0.00000E+00
    0.30563E+06        -0.19557E+07         0.00000E+00
    0.00000E+00         0.00000E+00        -0.16374E+08
 
   -0.16235E+08         0.30748E+06         0.00000E+00
    0.30748E+06        -0.19568E+07         0.00000E+00
    0.00000E+00         0.00000E+00        -0.16301E+08
 
   -0.16168E+08         0.30886E+06         0.00000E+00
    0.30886E+06        -0.19580E+07         0.00000E+00
    0.00000E+00         0.00000E+00        -0.16227E+08
 
   -0.16100E+08         0.30971E+06         0.00000E+00
    0.30971E+06        -0.19594E+07         0.00000E+00
    0.00000E+00         0.00000E+00        -0.16151E+08
 
   -0.16031E+08         0.30999E+06         0.00000E+00
    0.30999E+06        -0.19609E+07         0.00000E+00
    0.00000E+00         0.00000E+00        -0.16074E+08
 
   -0.15962E+08         0.30961E+06         0.00000E+00
    0.30961E+06        -0.19626E+07         0.00000E+00
    0.00000E+00         0.00000E+00        -0.15996E+08
 
   -0.15893E+08         0.30852E+06         0.00000E+00
    0.30852E+06        -0.19645E+07         0.00000E+00
    0.00000E+00         0.00000E+00        -0.15917E+08
 
   -0.15824E+08         0.30662E+06         0.00000E+00
    0.30662E+06        -0.19667E+07         0.00000E+00
    0.00000E+00         0.00000E+00        -0.15836E+08
 
   -0.15755E+08         0.30384E+06         0.00000E+00
    0.30384E+06        -0.19691E+07         0.00000E+00
    0.00000E+00         0.00000E+00        -0.15755E+08
 
   -0.15686E+08         0.30007E+06         0.00000E+00
    0.30007E+06        -0.19719E+07         0.00000E+00
    0.00000E+00         0.00000E+00        -0.15672E+08
 
   -0.15618E+08         0.29520E+06         0.00000E+00
    0.29520E+06        -0.19749E+07         0.00000E+00
    0.00000E+00         0.00000E+00        -0.15589E+08
 
   -0.15550E+08         0.28911E+06         0.00000E+00
    0.28911E+06        -0.19784E+07         0.00000E+00
    0.00000E+00         0.00000E+00        -0.15505E+08
 
   -0.15482E+08         0.28167E+06         0.00000E+00
    0.28167E+06        -0.19823E+07         0.00000E+00
    0.00000E+00         0.00000E+00        -0.15420E+08
 
   -0.15416E+08         0.27274E+06         0.00000E+00
    0.27274E+06        -0.19866E+07         0.00000E+00
    0.00000E+00         0.00000E+00        -0.15334E+08
 
   -0.15350E+08         0.26219E+06         0.00000E+00
    0.26219E+06        -0.19915E+07         0.00000E+00
    0.00000E+00         0.00000E+00        -0.15248E+08
 
   -0.15285E+08         0.24985E+06         0.00000E+00
    0.24985E+06        -0.19969E+07         0.00000E+00
    0.00000E+00         0.00000E+00        -0.15161E+08
 
   -0.15222E+08         0.23558E+06         0.00000E+00
    0.23558E+06        -0.20027E+07         0.00000E+00
    0.00000E+00         0.00000E+00        -0.15074E+08
 
   -0.15160E+08         0.21927E+06         0.00000E+00
    0.21927E+06        -0.20090E+07         0.00000E+00
    0.00000E+00         0.00000E+00        -0.14987E+08
 
   -0.15099E+08         0.20083E+06         0.00000E+00
    0.20083E+06        -0.20156E+07         0.00000E+00
    0.00000E+00         0.00000E+00        -0.14899E+08
 
   -0.15040E+08         0.18021E+06         0.00000E+00
    0.18021E+06        -0.20224E+07         0.00000E+00
    0.00000E+00         0.00000E+00        -0.14811E+08
 
   -0.14983E+08         0.15747E+06         0.00000E+00
    0.15747E+06        -0.20289E+07         0.00000E+00
    0.00000E+00         0.00000E+00        -0.14722E+08
 
   -0.14928E+08         0.13281E+06         0.00000E+00
    0.13281E+06        -0.20347E+07         0.00000E+00
    0.00000E+00         0.00000E+00        -0.14634E+08
 
   -0.14875E+08         0.10659E+06         0.00000E+00
    0.10659E+06        -0.20391E+07         0.00000E+00
    0.00000E+00         0.00000E+00        -0.14544E+08
 
   -0.14824E+08         0.79467E+05         0.00000E+00
    0.79467E+05        -0.20412E+07         0.00000E+00
    0.00000E+00         0.00000E+00        -0.14455E+08
 
   -0.14776E+08         0.52472E+05         0.00000E+00
    0.52472E+05        -0.20397E+07         0.00000E+00
    0.00000E+00         0.00000E+00        -0.14364E+08
 
   -0.14730E+08         0.27099E+05         0.00000E+00
    0.27099E+05        -0.20330E+07         0.00000E+00
    0.00000E+00         0.00000E+00        -0.14272E+08
 
   -0.14688E+08         0.53752E+04         0.00000E+00
    0.53752E+04        -0.20188E+07         0.00000E+00
    0.00000E+00         0.00000E+00        -0.14179E+08
 
   -0.14651E+08        -0.10274E+05         0.00000E+00
   -0.10274E+05        -0.19940E+07         0.00000E+00
    0.00000E+00         0.00000E+00        -0.14083E+08
 
   -0.14619E+08        -0.17599E+05         0.00000E+00
   -0.17599E+05        -0.19546E+07         0.00000E+00
    0.00000E+00         0.00000E+00        -0.13985E+08
 
   -0.14596E+08        -0.15678E+05         0.00000E+00
   -0.15678E+05        -0.18958E+07         0.00000E+00
    0.00000E+00         0.00000E+00        -0.13883E+08
 
   -0.14583E+08        -0.62107E+04         0.00000E+00
   -0.62107E+04        -0.18127E+07         0.00000E+00
    0.00000E+00         0.00000E+00        -0.13777E+08
 
   -0.18621E+08         0.81873E+02         0.00000E+00
    0.81873E+02        -0.19749E+07         0.00000E+00
    0.00000E+00         0.00000E+00        -0.18773E+08
 
   -0.18619E+08         0.68877E+03         0.00000E+00
    0.68877E+03        -0.19633E+07         0.00000E+00
    0.00000E+00         0.00000E+00        -0.18758E+08
 
   -0.18615E+08         0.24298E+04         0.00000E+00
    0.24298E+04        -0.19553E+07         0.00000E+00
    0.00000E+00         0.00000E+00        -0.18743E+08
 
   -0.18609E+08         0.55495E+04         0.00000E+00
    0.55495E+04        -0.19500E+07         0.00000E+00
    0.00000E+00         0.00000E+00        -0.18729E+08
 
   -0.18603E+08         0.98991E+04         0.00000E+00
    0.98991E+04        -0.19468E+07         0.00000E+00
    0.00000E+00         0.00000E+00        -0.18715E+08
 
   -0.18595E+08         0.15142E+05         0.00000E+00
    0.15142E+05        -0.19449E+07         0.00000E+00
    0.00000E+00         0.00000E+00        -0.18701E+08
 
   -0.18587E+08         0.20928E+05         0.00000E+00
    0.20928E+05        -0.19441E+07         0.00000E+00
    0.00000E+00         0.00000E+00        -0.18687E+08
 
   -0.18577E+08         0.26968E+05         0.00000E+00
    0.26968E+05        -0.19439E+07         0.00000E+00
    0.00000E+00         0.00000E+00        -0.18673E+08
 
   -0.18567E+08         0.33057E+05         0.00000E+00
    0.33057E+05        -0.19441E+07         0.00000E+00
    0.00000E+00         0.00000E+00        -0.18658E+08
 
   -0.18556E+08         0.39054E+05         0.00000E+00
    0.39054E+05        -0.19447E+07         0.00000E+00
    0.00000E+00         0.00000E+00        -0.18644E+08
 
   -0.18544E+08         0.44876E+05         0.00000E+00
    0.44876E+05        -0.19454E+07         0.00000E+00
    0.00000E+00         0.00000E+00        -0.18628E+08
 
   -0.18532E+08         0.50476E+05         0.00000E+00
    0.50476E+05        -0.19461E+07         0.00000E+00
    0.00000E+00         0.00000E+00        -0.18613E+08
 
   -0.18518E+08         0.55835E+05         0.00000E+00
    0.55835E+05        -0.19469E+07         0.00000E+00
    0.00000E+00         0.00000E+00        -0.18597E+08
 
   -0.18504E+08         0.60952E+05         0.00000E+00
    0.60952E+05        -0.19477E+07         0.00000E+00
    0.00000E+00         0.00000E+00        -0.18581E+08
 
   -0.18489E+08         0.65838E+05         0.00000E+00
    0.65838E+05        -0.19483E+07         0.00000E+00
    0.00000E+00         0.00000E+00        -0.18564E+08
 
   -0.18474E+08         0.70513E+05         0.00000E+00
    0.70513E+05        -0.19489E+07         0.00000E+00
    0.00000E+00         0.00000E+00        -0.18547E+08
 
   -0.18457E+08         0.74998E+05         0.00000E+00
    0.74998E+05        -0.19495E+07         0.00000E+00
    0.00000E+00         0.00000E+00        -0.18529E+08
 
   -0.18440E+08         0.79319E+05         0.00000E+00
    0.79319E+05        -0.19499E+07         0.00000E+00
    0.00000E+00         0.00000E+00        -0.18511E+08
 
   -0.18422E+08         0.83499E+05         0.00000E+00
    0.83499E+05        -0.19503E+07         0.00000E+00
    0.00000E+00         0.00000E+00        -0.18493E+08
 
   -0.18403E+08         0.87563E+05         0.00000E+00
    0.87563E+05        -0.19506E+07         0.00000E+00
    0.00000E+00         0.00000E+00        -0.18473E+08
 
   -0.18383E+08         0.91533E+05         0.00000E+00
    0.91533E+05        -0.19509E+07         0.00000E+00
    0.00000E+00         0.00000E+00        -0.18453E+08
 
   -0.18362E+08         0.95428E+05         0.00000E+00
    0.95428E+05        -0.19510E+07         0.00000E+00
    0.00000E+00         0.00000E+00        -0.18433E+08
 
   -0.18341E+08         0.99269E+05         0.00000E+00
    0.99269E+05        -0.19512E+07         0.00000E+00
    0.00000E+00         0.00000E+00        -0.18412E+08
 
   -0.18319E+08         0.10307E+06         0.00000E+00
    0.10307E+06        -0.19513E+07         0.00000E+00
    0.00000E+00         0.00000E+00        -0.18390E+08
 
   -0.18296E+08         0.10685E+06         0.00000E+00
    0.10685E+06        -0.19513E+07         0.00000E+00
    0.00000E+00         0.00000E+00        -0.18368E+08
 
   -0.18273E+08         0.11062E+06         0.00000E+00
    0.11062E+06        -0.19514E+07         0.00000E+00
    0.00000E+00         0.00000E+00        -0.18345E+08
 
   -0.18248E+08         0.11438E+06         0.00000E+00
    0.11438E+06        -0.19514E+07         0.00000E+00
    0.00000E+00         0.00000E+00        -0.18322E+08
 
   -0.18223E+08         0.11816E+06         0.00000E+00
    0.11816E+06        -0.19513E+07         0.00000E+00
    0.00000E+00         0.00000E+00        -0.18298E+08
 
   -0.18197E+08         0.12196E+06         0.00000E+00
    0.12196E+06        -0.19513E+07         0.00000E+00
    0.00000E+00         0.00000E+00        -0.18273E+08
 
   -0.18170E+08         0.12578E+06         0.00000E+00
    0.12578E+06        -0.19512E+07         0.00000E+00
    0.00000E+00         0.00000E+00        -0.18247E+08
 
   -0.18143E+08         0.12964E+06         0.00000E+00
    0.12964E+06        -0.19512E+07         0.00000E+00
    0.00000E+00         0.00000E+00        -0.18221E+08
 
   -0.18114E+08         0.13354E+06         0.00000E+00
    0.13354E+06        -0.19511E+07         0.00000E+00
    0.00000E+00         0.00000E+00        -0.18194E+08
 
   -0.18085E+08         0.13747E+06         0.00000E+00
    0.13747E+06        -0.19510E+07         0.00000E+00
    0.00000E+00         0.00000E+00        -0.18166E+08
 
   -0.18055E+08         0.14146E+06         0.00000E+00
    0.14146E+06        -0.19509E+07         0.00000E+00
    0.00000E+00         0.00000E+00        -0.18137E+08
 
   -0.18024E+08         0.14550E+06         0.00000E+00
    0.14550E+06        -0.19507E+07         0.00000E+00
    0.00000E+00         0.00000E+00        -0.18107E+08
 
   -0.17992E+08         0.14958E+06         0.00000E+00
    0.14958E+06        -0.19506E+07         0.00000E+00
    0.00000E+00         0.00000E+00        -0.18077E+08
 
   -0.17959E+08         0.15373E+06         0.00000E+00
    0.15373E+06        -0.19505E+07         0.00000E+00
    0.00000E+00         0.00000E+00        -0.18046E+08
 
   -0.17925E+08         0.15792E+06         0.00000E+00
    0.15792E+06        -0.19504E+07         0.00000E+00
    0.00000E+00         0.00000E+00        -0.18014E+08
 
   -0.17890E+08         0.16218E+06         0.00000E+00
    0.16218E+06        -0.19503E+07         0.00000E+00
    0.00000E+00         0.00000E+00        -0.17980E+08
 
   -0.17854E+08         0.16648E+06         0.00000E+00
    0.16648E+06        -0.19502E+07         0.00000E+00
    0.00000E+00         0.00000E+00        -0.17946E+08
 
   -0.17818E+08         0.17085E+06         0.00000E+00
    0.17085E+06        -0.19500E+07         0.00000E+00
    0.00000E+00         0.00000E+00        -0.17911E+08
 
   -0.17780E+08         0.17527E+06         0.00000E+00
    0.17527E+06        -0.19499E+07         0.00000E+00
    0.00000E+00         0.00000E+00        -0.17875E+08
 
   -0.17742E+08         0.17974E+06         0.00000E+00
    0.17974E+06        -0.19498E+07         0.00000E+00
    0.00000E+00         0.00000E+00        -0.17838E+08
 
   -0.17702E+08         0.18426E+06         0.00000E+00
    0.18426E+06        -0.19497E+07         0.00000E+00
    0.00000E+00         0.00000E+00        -0.17800E+08
 
   -0.17661E+08         0.18882E+06         0.00000E+00
    0.18882E+06        -0.19496E+07         0.00000E+00
    0.00000E+00         0.00000E+00        -0.17761E+08
 
   -0.17620E+08         0.19343E+06         0.00000E+00
    0.19343E+06        -0.19495E+07         0.00000E+00
    0.00000E+00         0.00000E+00        -0.17721E+08
 
   -0.17577E+08         0.19808E+06         0.00000E+00
    0.19808E+06        -0.19495E+07         0.00000E+00
    0.00000E+00         0.00000E+00        -0.17679E+08
 
   -0.17533E+08         0.20276E+06         0.00000E+00
    0.20276E+06        -0.19494E+07         0.00000E+00
    0.00000E+00         0.00000E+00        -0.17637E+08
 
   -0.17488E+08         0.20746E+06         0.00000E+00
    0.20746E+06        -0.19494E+07         0.00000E+00
    0.00000E+00         0.00000E+00        -0.17593E+08
 
   -0.17442E+08         0.21219E+06         0.00000E+00
    0.21219E+06        -0.19493E+07         0.00000E+00
    0.00000E+00         0.00000E+00        -0.17548E+08
 
   -0.17395E+08         0.21693E+06         0.00000E+00
    0.21693E+06        -0.19493E+07         0.00000E+00
    0.00000E+00         0.00000E+00        -0.17502E+08
 
   -0.17347E+08         0.22168E+06         0.00000E+00
    0.22168E+06        -0.19493E+07         0.00000E+00
    0.00000E+00         0.00000E+00        -0.17455E+08
 
   -0.17298E+08         0.22643E+06         0.00000E+00
    0.22643E+06        -0.19494E+07         0.00000E+00
    0.00000E+00         0.00000E+00        -0.17406E+08
 
   -0.17247E+08         0.23116E+06         0.00000E+00
    0.23116E+06        -0.19494E+07         0.00000E+00
    0.00000E+00         0.00000E+00        -0.17356E+08
 
   -0.17196E+08         0.23586E+06         0.00000E+00
    0.23586E+06        -0.19495E+07         0.00000E+00
    0.00000E+00         0.00000E+00        -0.17305E+08
 
   -0.17143E+08         0.24053E+06         0.00000E+00
    0.24053E+06        -0.19496E+07         0.00000E+00
    0.00000E+00         0.00000E+00        -0.17252E+08
 
   -0.17090E+08         0.24516E+06         0.00000E+00
    0.24516E+06        -0.19498E+07         0.00000E+00
    0.00000E+00         0.00000E+00        -0.17199E+08
 
   -0.17035E+08         0.24971E+06         0.00000E+00
    0.24971E+06        -0.19499E+07         0.00000E+00
    0.00000E+00         0.00000E+00        -0.17143E+08
 
   -0.16979E+08         0.25419E+06         0.00000E+00
    0.25419E+06        -0.19501E+07         0.00000E+00
    0.00000E+00         0.00000E+00        -0.17087E+08
 
   -0.16922E+08         0.25858E+06         0.00000E+00
    0.25858E+06        -0.19504E+07         0.00000E+00
    0.00000E+00         0.00000E+00        -0.17029E+08
 
   -0.16864E+08         0.26285E+06         0.00000E+00
    0.26285E+06        -0.19507E+07         0.00000E+00
    0.00000E+00         0.00000E+00        -0.16970E+08
 
   -0.16805E+08         0.26699E+06         0.00000E+00
    0.26699E+06        -0.19510E+07         0.00000E+00
    0.00000E+00         0.00000E+00        -0.16909E+08
 
   -0.16745E+08         0.27097E+06         0.00000E+00
    0.27097E+06        -0.19514E+07         0.00000E+00
    0.00000E+00         0.00000E+00        -0.16847E+08
 
   -0.16684E+08         0.27478E+06         0.00000E+00
    0.27478E+06        -0.19519E+07         0.00000E+00
    0.00000E+00         0.00000E+00        -0.16784E+08
 
   -0.16622E+08         0.27838E+06         0.00000E+00
    0.27838E+06        -0.19524E+07         0.00000E+00
    0.00000E+00         0.00000E+00        -0.16719E+08
 
   -0.16559E+08         0.28175E+06         0.00000E+00
    0.28175E+06        -0.19530E+07         0.00000E+00
    0.00000E+00         0.00000E+00        -0.16652E+08
 
   -0.16495E+08         0.28487E+06         0.00000E+00
    0.28487E+06        -0.19536E+07         0.00000E+00
    0.00000E+00         0.00000E+00        -0.16585E+08
 
   -0.16430E+08         0.28769E+06         0.00000E+00
    0.28769E+06        -0.19544E+07         0.00000E+00
    0.00000E+00         0.00000E+00        -0.16516E+08
 
   -0.16365E+08         0.29019E+06         0.00000E+00
    0.29019E+06        -0.19552E+07         0.00000E+00
    0.00000E+00         0.00000E+00        -0.16445E+08
 
   -0.16299E+08         0.29232E+06         0.00000E+00
    0.29232E+06        -0.19561E+07         0.00000E+00
    0.00000E+00         0.00000E+00        -0.16374E+08
 
   -0.16232E+08         0.29404E+06         0.00000E+00
    0.29404E+06        -0.19571E+07         0.00000E+00
    0.00000E+00         0.00000E+00        -0.16300E+08
 
   -0.16165E+08         0.29531E+06         0.00000E+00
    0.29531E+06        -0.19582E+07         0.00000E+00
    0.00000E+00         0.00000E+00        -0.16226E+08
 
   -0.16097E+08         0.29608E+06         0.00000E+00
    0.29608E+06        -0.19595E+07         0.00000E+00
    0.00000E+00         0.00000E+00        -0.16150E+08
 
   -0.16029E+08         0.29628E+06         0.00000E+00
    0.29628E+06        -0.19609E+07         0.00000E+00
    0.00000E+00         0.00000E+00        -0.16073E+08
 
   -0.15960E+08         0.29586E+06         0.00000E+00
    0.29586E+06        -0.19625E+07         0.00000E+00
    0.00000E+00         0.00000E+00        -0.15995E+08
 
   -0.15891E+08         0.29474E+06         0.00000E+00
    0.29474E+06        -0.19642E+07         0.00000E+00
    0.00000E+00         0.00000E+00        -0.15916E+08
 
   -0.15823E+08         0.29285E+06         0.00000E+00
    0.29285E+06        -0.19662E+07         0.00000E+00
    0.00000E+00         0.00000E+00        -0.15836E+08
 
   -0.15754E+08         0.29009E+06         0.00000E+00
    0.29009E+06        -0.19685E+07         0.00000E+00
    0.00000E+00         0.00000E+00        -0.15754E+08
 
   -0.15686E+08         0.28638E+06         0.00000E+00
    0.28638E+06        -0.19710E+07         0.00000E+00
    0.00000E+00         0.00000E+00        -0.15672E+08
 
   -0.15618E+08         0.28159E+06         0.00000E+00
    0.28159E+06        -0.19738E+07         0.00000E+00
    0.00000E+00         0.00000E+00        -0.15589E+08
 
   -0.15550E+08         0.27562E+06         0.00000E+00
    0.27562E+06        -0.19771E+07         0.00000E+00
    0.00000E+00         0.00000E+00        -0.15505E+08
 
   -0.15484E+08         0.26833E+06         0.00000E+00
    0.26833E+06        -0.19807E+07         0.00000E+00
    0.00000E+00         0.00000E+00        -0.15420E+08
 
   -0.15418E+08         0.25958E+06         0.00000E+00
    0.25958E+06        -0.19847E+07         0.00000E+00
    0.00000E+00         0.00000E+00        -0.15334E+08
 
   -0.15353E+08         0.24924E+06         0.00000E+00
    0.24924E+06        -0.19892E+07         0.00000E+00
    0.00000E+00         0.00000E+00        -0.15248E+08
 
   -0.15289E+08         0.23714E+06         0.00000E+00
    0.23714E+06        -0.19942E+07         0.00000E+00
    0.00000E+00         0.00000E+00        -0.15162E+08
 
   -0.15227E+08         0.22315E+06         0.00000E+00
    0.22315E+06        -0.19997E+07         0.00000E+00
    0.00000E+00         0.00000E+00        -0.15075E+08
 
   -0.15166E+08         0.20714E+06         0.00000E+00
    0.20714E+06        -0.20056E+07         0.00000E+00
    0.00000E+00         0.00000E+00        -0.14988E+08
 
   -0.15107E+08         0.18903E+06         0.00000E+00
    0.18903E+06        -0.20118E+07         0.00000E+00
    0.00000E+00         0.00000E+00        -0.14900E+08
 
   -0.15050E+08         0.16877E+06         0.00000E+00
    0.16877E+06        -0.20181E+07         0.00000E+00
    0.00000E+00         0.00000E+00        -0.14812E+08
 
   -0.14995E+08         0.14642E+06         0.00000E+00
    0.14642E+06        -0.20241E+07         0.00000E+00
    0.00000E+00         0.00000E+00        -0.14724E+08
 
   -0.14941E+08         0.12217E+06         0.00000E+00
    0.12217E+06        -0.20296E+07         0.00000E+00
    0.00000E+00         0.00000E+00        -0.14636E+08
 
   -0.14891E+08         0.96396E+05         0.00000E+00
    0.96396E+05        -0.20338E+07         0.00000E+00
    0.00000E+00         0.00000E+00        -0.14548E+08
 
   -0.14842E+08         0.69765E+05         0.00000E+00
    0.69765E+05        -0.20358E+07         0.00000E+00
    0.00000E+00         0.00000E+00        -0.14459E+08
 
   -0.14796E+08         0.43311E+05         0.00000E+00
    0.43311E+05        -0.20345E+07         0.00000E+00
    0.00000E+00         0.00000E+00        -0.14369E+08
 
   -0.14753E+08         0.18556E+05         0.00000E+00
    0.18556E+05        -0.20283E+07         0.00000E+00
    0.00000E+00         0.00000E+00        -0.14278E+08
 
   -0.14714E+08        -0.24229E+04         0.00000E+00
   -0.24229E+04        -0.20150E+07         0.00000E+00
    0.00000E+00         0.00000E+00        -0.14185E+08
 
   -0.14678E+08        -0.17106E+05         0.00000E+00
   -0.17106E+05        -0.19917E+07         0.00000E+00
    0.00000E+00         0.00000E+00        -0.14091E+08
 
   -0.14648E+08        -0.23092E+05         0.00000E+00
   -0.23092E+05        -0.19542E+07         0.00000E+00
    0.00000E+00         0.00000E+00        -0.13994E+08
 
   -0.14625E+08        -0.19316E+05         0.00000E+00
   -0.19316E+05        -0.18973E+07         0.00000E+00
    0.00000E+00         0.00000E+00        -0.13892E+08
 
   -0.14613E+08        -0.74947E+04         0.00000E+00
   -0.74947E+04        -0.18154E+07         0.00000E+00
    0.00000E+00         0.00000E+00        -0.13787E+08
 
   -0.18615E+08        -0.13597E+03         0.00000E+00
   -0.13597E+03        -0.19749E+07         0.00000E+00
    0.00000E+00         0.00000E+00        -0.18771E+08
 
   -0.18613E+08         0.69231E+02         0.00000E+00
    0.69231E+02        -0.19635E+07         0.00000E+00
    0.00000E+00         0.00000E+00        -0.18756E+08
 
   -0.18609E+08         0.14855E+04         0.00000E+00
    0.14855E+04        -0.19557E+07         0.00000E+00
    0.00000E+00         0.00000E+00        -0.18742E+08
 
   -0.18604E+08         0.43547E+04         0.00000E+00
    0.43547E+04        -0.19507E+07         0.00000E+00
    0.00000E+00         0.00000E+00        -0.18727E+08
 
   -0.18598E+08         0.85007E+04         0.00000E+00
    0.85007E+04        -0.19477E+07         0.00000E+00
    0.00000E+00         0.00000E+00        -0.18714E+08
 
   -0.18590E+08         0.13563E+05         0.00000E+00
    0.13563E+05        -0.19460E+07         0.00000E+00
    0.00000E+00         0.00000E+00        -0.18700E+08
 
   -0.18582E+08         0.19176E+05         0.00000E+00
    0.19176E+05        -0.19452E+07         0.00000E+00
    0.00000E+00         0.00000E+00        -0.18686E+08
 
   -0.18573E+08         0.25049E+05         0.00000E+00
    0.25049E+05        -0.19451E+07         0.00000E+00
    0.00000E+00         0.00000E+00        -0.18672E+08
 
   -0.18563E+08         0.30972E+05         0.00000E+00
    0.30972E+05        -0.19453E+07         0.00000E+00
    0.00000E+00         0.00000E+00        -0.18657E+08
 
   -0.18553E+08         0.36804E+05         0.00000E+00
    0.36804E+05        -0.19458E+07         0.00000E+00
    0.00000E+00         0.00000E+00        -0.18643E+08
 
   -0.18541E+08         0.42463E+05         0.00000E+00
    0.42463E+05        -0.19465E+07         0.00000E+00
    0.00000E+00         0.00000E+00        -0.18628E+08
 
   -0.18529E+08         0.47899E+05         0.00000E+00
    0.47899E+05        -0.19472E+07         0.00000E+00
    0.00000E+00         0.00000E+00        -0.18612E+08
 
   -0.18515E+08         0.53095E+05         0.00000E+00
    0.53095E+05        -0.19479E+07         0.00000E+00
    0.00000E+00         0.00000E+00        -0.18597E+08
 
   -0.18501E+08         0.58050E+05         0.00000E+00
    0.58050E+05        -0.19486E+07         0.00000E+00
    0.00000E+00         0.00000E+00        -0.18580E+08
 
   -0.18487E+08         0.62776E+05         0.00000E+00
    0.62776E+05        -0.19493E+07         0.00000E+00
    0.00000E+00         0.00000E+00        -0.18564E+08
 
   -0.18471E+08         0.67290E+05         0.00000E+00
    0.67290E+05        -0.19498E+07         0.00000E+00
    0.00000E+00         0.00000E+00        -0.18547E+08
 
   -0.18454E+08         0.71615E+05         0.00000E+00
    0.71615E+05        -0.19503E+07         0.00000E+00
    0.00000E+00         0.00000E+00        -0.18529E+08
 
   -0.18437E+08         0.75777E+05         0.00000E+00
    0.75777E+05        -0.19508E+07         0.00000E+00
    0.00000E+00         0.00000E+00        -0.18511E+08
 
   -0.18419E+08         0.79799E+05         0.00000E+00
    0.79799E+05        -0.19511E+07         0.00000E+00
    0.00000E+00         0.00000E+00        -0.18492E+08
 
   -0.18400E+08         0.83705E+05         0.00000E+00
    0.83705E+05        -0.19514E+07         0.00000E+00
    0.00000E+00         0.00000E+00        -0.18473E+08
 
   -0.18380E+08         0.87517E+05         0.00000E+00
    0.87517E+05        -0.19516E+07         0.00000E+00
    0.00000E+00         0.00000E+00        -0.18453E+08
 
   -0.18360E+08         0.91256E+05         0.00000E+00
    0.91256E+05        -0.19518E+07         0.00000E+00
    0.00000E+00         0.00000E+00        -0.18432E+08
 
   -0.18339E+08         0.94939E+05         0.00000E+00
    0.94939E+05        -0.19519E+07         0.00000E+00
    0.00000E+00         0.00000E+00        -0.18411E+08
 
   -0.18317E+08         0.98584E+05         0.00000E+00
    0.98584E+05        -0.19520E+07         0.00000E+00
    0.00000E+00         0.00000E+00        -0.18390E+08
 
   -0.18294E+08         0.10220E+06         0.00000E+00
    0.10220E+06        -0.19521E+07         0.00000E+00
    0.00000E+00         0.00000E+00        -0.18368E+08
 
   -0.18270E+08         0.10581E+06         0.00000E+00
    0.10581E+06        -0.19521E+07         0.00000E+00
    0.00000E+00         0.00000E+00        -0.18345E+08
 
   -0.18246E+08         0.10942E+06         0.00000E+00
    0.10942E+06        -0.19521E+07         0.00000E+00
    0.00000E+00         0.00000E+00        -0.18321E+08
 
   -0.18220E+08         0.11304E+06         0.00000E+00
    0.11304E+06        -0.19521E+07         0.00000E+00
    0.00000E+00         0.00000E+00        -0.18297E+08
 
   -0.18194E+08         0.11667E+06         0.00000E+00
    0.11667E+06        -0.19520E+07         0.00000E+00
    0.00000E+00         0.00000E+00        -0.18272E+08
 
   -0.18167E+08         0.12033E+06         0.00000E+00
    0.12033E+06        -0.19520E+07         0.00000E+00
    0.00000E+00         0.00000E+00        -0.18246E+08
 
   -0.18140E+08         0.12402E+06         0.00000E+00
    0.12402E+06        -0.19519E+07         0.00000E+00
    0.00000E+00         0.00000E+00        -0.18220E+08
 
   -0.18111E+08         0.12775E+06         0.00000E+00
    0.12775E+06        -0.19518E+07         0.00000E+00
    0.00000E+00         0.00000E+00        -0.18193E+08
 
   -0.18082E+08         0.13151E+06         0.00000E+00
    0.13151E+06        -0.19517E+07         0.00000E+00
    0.00000E+00         0.00000E+00        -0.18165E+08
 
   -0.18051E+08         0.13532E+06         0.00000E+00
    0.13532E+06        -0.19516E+07         0.00000E+00
    0.00000E+00         0.00000E+00        -0.18136E+08
 
   -0.18020E+08         0.13918E+06         0.00000E+00
    0.13918E+06        -0.19515E+07         0.00000E+00
    0.00000E+00         0.00000E+00        -0.18107E+08
 
   -0.17988E+08         0.14309E+06         0.00000E+00
    0.14309E+06        -0.19514E+07         0.00000E+00
    0.00000E+00         0.00000E+00        -0.18076E+08
 
   -0.17955E+08         0.14705E+06         0.00000E+00
    0.14705E+06        -0.19513E+07         0.00000E+00
    0.00000E+00         0.00000E+00        -0.18045E+08
 
   -0.17921E+08         0.15106E+06         0.00000E+00
    0.15106E+06        -0.19512E+07         0.00000E+00
    0.00000E+00         0.00000E+00        -0.18013E+08
 
   -0.17887E+08         0.15513E+06         0.00000E+00
    0.15513E+06        -0.19511E+07         0.00000E+00
    0.00000E+00         0.00000E+00        -0.17980E+08
 
   -0.17851E+08         0.15924E+06         0.00000E+00
    0.15924E+06        -0.19510E+07         0.00000E+00
    0.00000E+00         0.00000E+00        -0.17946E+08
 
   -0.17814E+08         0.16341E+06         0.00000E+00
    0.16341E+06        -0.19509E+07         0.00000E+00
    0.00000E+00         0.00000E+00        -0.17910E+08
 
   -0.17776E+08         0.16763E+06         0.00000E+00
    0.16763E+06        -0.19508E+07         0.00000E+00
    0.00000E+00         0.00000E+00        -0.17874E+08
 
   -0.17738E+08         0.17190E+06         0.00000E+00
    0.17190E+06        -0.19507E+07         0.00000E+00
    0.00000E+00         0.00000E+00        -0.17837E+08
 
   -0.17698E+08         0.17622E+06         0.00000E+00
    0.17622E+06        -0.19506E+07         0.00000E+00
    0.00000E+00         0.00000E+00        -0.17799E+08
 
   -0.17657E+08         0.18058E+06         0.00000E+00
    0.18058E+06        -0.19505E+07         0.00000E+00
    0.00000E+00         0.00000E+00        -0.17760E+08
 
   -0.17616E+08         0.18498E+06         0.00000E+00
    0.18498E+06        -0.19504E+07         0.00000E+00
    0.00000E+00         0.00000E+00        -0.17720E+08
 
   -0.17573E+08         0.18941E+06         0.00000E+00
    0.18941E+06        -0.19504E+07         0.00000E+00
    0.00000E+00         0.00000E+00        -0.17678E+08
 
   -0.17529E+08         0.19388E+06         0.00000E+00
    0.19388E+06        -0.19503E+07         0.00000E+00
    0.00000E+00         0.00000E+00        -0.17636E+08
 
   -0.17484E+08         0.19837E+06         0.00000E+00
    0.19837E+06        -0.19503E+07         0.00000E+00
    0.00000E+00         0.00000E+00        -0.17592E+08
 
   -0.17438E+08         0.20289E+06         0.00000E+00
    0.20289E+06        -0.19503E+07         0.00000E+00
    0.00000E+00         0.00000E+00        -0.17547E+08
 
   -0.17391E+08         0.20741E+06         0.00000E+00
    0.20741E+06        -0.19502E+07         0.00000E+00
    0.00000E+00         0.00000E+00        -0.17501E+08
 
   -0.17343E+08         0.21194E+06         0.00000E+00
    0.21194E+06        -0.19503E+07         0.00000E+00
    0.00000E+00         0.00000E+00        -0.17454E+08
 
   -0.17293E+08         0.21646E+06         0.00000E+00
    0.21646E+06        -0.19503E+07         0.00000E+00
    0.00000E+00         0.00000E+00        -0.17405E+08
 
   -0.17243E+08         0.22097E+06         0.00000E+00
    0.22097E+06        -0.19503E+07         0.00000E+00
    0.00000E+00         0.00000E+00        -0.17355E+08
 
   -0.17191E+08         0.22546E+06         0.00000E+00
    0.22546E+06        -0.19504E+07         0.00000E+00
    0.00000E+00         0.00000E+00        -0.17304E+08
 
   -0.17139E+08         0.22991E+06         0.00000E+00
    0.22991E+06        -0.19505E+07         0.00000E+00
    0.00000E+00         0.00000E+00        -0.17251E+08
 
   -0.17085E+08         0.23431E+06         0.00000E+00
    0.23431E+06        -0.19507E+07         0.00000E+00
    0.00000E+00         0.00000E+00        -0.17198E+08
 
   -0.17030E+08         0.23865E+06         0.00000E+00
    0.23865E+06        -0.19508E+07         0.00000E+00
    0.00000E+00         0.00000E+00        -0.17142E+08
 
   -0.16974E+08         0.24291E+06         0.00000E+00
    0.24291E+06        -0.19510E+07         0.00000E+00
    0.00000E+00         0.00000E+00        -0.17086E+08
 
   -0.16918E+08         0.24708E+06         0.00000E+00
    0.24708E+06        -0.19512E+07         0.00000E+00
    0.00000E+00         0.00000E+00        -0.17028E+08
 
   -0.16860E+08         0.25115E+06         0.00000E+00
    0.25115E+06        -0.19515E+07         0.00000E+00
    0.00000E+00         0.00000E+00        -0.16969E+08
 
   -0.16801E+08         0.25508E+06         0.00000E+00
    0.25508E+06        -0.19518E+07         0.00000E+00
    0.00000E+00         0.00000E+00        -0.16908E+08
 
   -0.16740E+08         0.25886E+06         0.00000E+00
    0.25886E+06        -0.19522E+07         0.00000E+00
    0.00000E+00         0.00000E+00        -0.16846E+08
 
   -0.16679E+08         0.26247E+06         0.00000E+00
    0.26247E+06        -0.19526E+07         0.00000E+00
    0.00000E+00         0.00000E+00        -0.16782E+08
 
   -0.16618E+08         0.26589E+06         0.00000E+00
    0.26589E+06        -0.19531E+07         0.00000E+00
    0.00000E+00         0.00000E+00        -0.16718E+08
 
   -0.16555E+08         0.26908E+06         0.00000E+00
    0.26908E+06        -0.19536E+07         0.00000E+00
    0.00000E+00         0.00000E+00        -0.16651E+08
 
   -0.16491E+08         0.27203E+06         0.00000E+00
    0.27203E+06        -0.19542E+07         0.00000E+00
    0.00000E+00         0.00000E+00        -0.16584E+08
 
   -0.16426E+08         0.27469E+06         0.00000E+00
    0.27469E+06        -0.19549E+07         0.00000E+00
    0.00000E+00         0.00000E+00        -0.16515E+08
 
   -0.16361E+08         0.27704E+06         0.00000E+00
    0.27704E+06        -0.19556E+07         0.00000E+00
    0.00000E+00         0.00000E+00        -0.16444E+08
 
   -0.16295E+08         0.27904E+06         0.00000E+00
    0.27904E+06        -0.19565E+07         0.00000E+00
    0.00000E+00         0.00000E+00        -0.16373E+08
 
   -0.16229E+08         0.28065E+06         0.00000E+00
    0.28065E+06        -0.19574E+07         0.00000E+00
    0.00000E+00         0.00000E+00        -0.16300E+08
 
   -0.16161E+08         0.28182E+06         0.00000E+00
    0.28182E+06        -0.19584E+07         0.00000E+00
    0.00000E+00         0.00000E+00        -0.16225E+08
 
   -0.16094E+08         0.28250E+06         0.00000E+00
    0.28250E+06        -0.19596E+07         0.00000E+00
    0.00000E+00         0.00000E+00        -0.16150E+08
 
   -0.16026E+08         0.28264E+06         0.00000E+00
    0.28264E+06        -0.19609E+07         0.00000E+00
    0.00000E+00         0.00000E+00        -0.16073E+08
 
   -0.15958E+08         0.28218E+06         0.00000E+00
    0.28218E+06        -0.19623E+07         0.00000E+00
    0.00000E+00         0.00000E+00        -0.15995E+08
 
   -0.15890E+08         0.28105E+06         0.00000E+00
    0.28105E+06        -0.19639E+07         0.00000E+00
    0.00000E+00         0.00000E+00        -0.15915E+08
 
   -0.15821E+08         0.27916E+06         0.00000E+00
    0.27916E+06        -0.19658E+07         0.00000E+00
    0.00000E+00         0.00000E+00        -0.15835E+08
 
   -0.15753E+08         0.27644E+06         0.00000E+00
    0.27644E+06        -0.19678E+07         0.00000E+00
    0.00000E+00         0.00000E+00        -0.15754E+08
 
   -0.15685E+08         0.27279E+06         0.00000E+00
    0.27279E+06        -0.19702E+07         0.00000E+00
    0.00000E+00         0.00000E+00        -0.15671E+08
 
   -0.15618E+08         0.26811E+06         0.00000E+00
    0.26811E+06        -0.19728E+07         0.00000E+00
    0.00000E+00         0.00000E+00        -0.15588E+08
 
   -0.15551E+08         0.26226E+06         0.00000E+00
    0.26226E+06        -0.19757E+07         0.00000E+00
    0.00000E+00         0.00000E+00        -0.15504E+08
 
   -0.15485E+08         0.25514E+06         0.00000E+00
    0.25514E+06        -0.19791E+07         0.00000E+00
    0.00000E+00         0.00000E+00        -0.15420E+08
 
   -0.15420E+08         0.24659E+06         0.00000E+00
    0.24659E+06        -0.19828E+07         0.00000E+00
    0.00000E+00         0.00000E+00        -0.15334E+08
 
   -0.15356E+08         0.23647E+06         0.00000E+00
    0.23647E+06        -0.19870E+07         0.00000E+00
    0.00000E+00         0.00000E+00        -0.15248E+08
 
   -0.15293E+08         0.22464E+06         0.00000E+00
    0.22464E+06        -0.19917E+07         0.00000E+00
    0.00000E+00         0.00000E+00        -0.15162E+08
 
   -0.15232E+08         0.21096E+06         0.00000E+00
    0.21096E+06        -0.19967E+07         0.00000E+00
    0.00000E+00         0.00000E+00        -0.15075E+08
 
   -0.15173E+08         0.19529E+06         0.00000E+00
    0.19529E+06        -0.20022E+07         0.00000E+00
    0.00000E+00         0.00000E+00        -0.14988E+08
 
   -0.15115E+08         0.17754E+06         0.00000E+00
    0.17754E+06        -0.20080E+07         0.00000E+00
    0.00000E+00         0.00000E+00        -0.14901E+08
 
   -0.15059E+08         0.15768E+06         0.00000E+00
    0.15768E+06        -0.20138E+07         0.00000E+00
    0.00000E+00         0.00000E+00        -0.14814E+08
 
   -0.15006E+08         0.13576E+06         0.00000E+00
    0.13576E+06        -0.20195E+07         0.00000E+00
    0.00000E+00         0.00000E+00        -0.14726E+08
 
   -0.14955E+08         0.11196E+06         0.00000E+00
    0.11196E+06        -0.20246E+07         0.00000E+00
    0.00000E+00         0.00000E+00        -0.14639E+08
 
   -0.14906E+08         0.86674E+05         0.00000E+00
    0.86674E+05        -0.20285E+07         0.00000E+00
    0.00000E+00         0.00000E+00        -0.14551E+08
 
   -0.14860E+08         0.60562E+05         0.00000E+00
    0.60562E+05        -0.20305E+07         0.00000E+00
    0.00000E+00         0.00000E+00        -0.14462E+08
 
   -0.14817E+08         0.34661E+05         0.00000E+00
    0.34661E+05        -0.20293E+07         0.00000E+00
    0.00000E+00         0.00000E+00        -0.14373E+08
 
   -0.14776E+08         0.10508E+05         0.00000E+00
    0.10508E+05        -0.20237E+07         0.00000E+00
    0.00000E+00         0.00000E+00        -0.14283E+08
 
   -0.14739E+08        -0.97852E+04         0.00000E+00
   -0.97852E+04        -0.20114E+07         0.00000E+00
    0.00000E+00         0.00000E+00        -0.14192E+08
 
   -0.14705E+08        -0.23607E+05         0.00000E+00
   -0.23607E+05        -0.19897E+07         0.00000E+00
    0.00000E+00         0.00000E+00        -0.14099E+08
 
   -0.14676E+08        -0.28386E+05         0.00000E+00
   -0.28386E+05        -0.19542E+07         0.00000E+00
    0.00000E+00         0.00000E+00        -0.14002E+08
 
   -0.14655E+08        -0.22870E+05         0.00000E+00
   -0.22870E+05        -0.18992E+07         0.00000E+00
    0.00000E+00         0.00000E+00        -0.13902E+08
 
   -0.14643E+08        -0.87599E+04         0.00000E+00
   -0.87599E+04        -0.18186E+07         0.00000E+00
    0.00000E+00         0.00000E+00        -0.13797E+08
 
   -0.18610E+08        -0.35236E+03         0.00000E+00
   -0.35236E+03        -0.19748E+07         0.00000E+00
    0.00000E+00         0.00000E+00        -0.18769E+08
 
   -0.18608E+08        -0.54131E+03         0.00000E+00
   -0.54131E+03        -0.19636E+07         0.00000E+00
    0.00000E+00         0.00000E+00        -0.18754E+08
 
   -0.18604E+08         0.56580E+03         0.00000E+00
    0.56580E+03        -0.19561E+07         0.00000E+00
    0.00000E+00         0.00000E+00        -0.18740E+08
 
   -0.18599E+08         0.32022E+04         0.00000E+00
    0.32022E+04        -0.19514E+07         0.00000E+00
    0.00000E+00         0.00000E+00        -0.18726E+08
 
   -0.18593E+08         0.71580E+04         0.00000E+00
    0.71580E+04        -0.19486E+07         0.00000E+00
    0.00000E+00         0.00000E+00        -0.18712E+08
 
   -0.18586E+08         0.12046E+05         0.00000E+00
    0.12046E+05        -0.19471E+07         0.00000E+00
    0.00000E+00         0.00000E+00        -0.18699E+08
 
   -0.18578E+08         0.17488E+05         0.00000E+00
    0.17488E+05        -0.19464E+07         0.00000E+00
    0.00000E+00         0.00000E+00        -0.18685E+08
 
   -0.18569E+08         0.23189E+05         0.00000E+00
    0.23189E+05        -0.19462E+07         0.00000E+00
    0.00000E+00         0.00000E+00        -0.18671E+08
 
   -0.18560E+08         0.28940E+05         0.00000E+00
    0.28940E+05        -0.19465E+07         0.00000E+00
    0.00000E+00         0.00000E+00        -0.18657E+08
 
   -0.18549E+08         0.34602E+05         0.00000E+00
    0.34602E+05        -0.19470E+07         0.00000E+00
    0.00000E+00         0.00000E+00        -0.18642E+08
 
   -0.18538E+08         0.40089E+05         0.00000E+00
    0.40089E+05        -0.19476E+07         0.00000E+00
    0.00000E+00         0.00000E+00        -0.18627E+08
 
   -0.18526E+08         0.45356E+05         0.00000E+00
    0.45356E+05        -0.19483E+07         0.00000E+00
    0.00000E+00         0.00000E+00        -0.18612E+08
 
   -0.18513E+08         0.50383E+05         0.00000E+00
    0.50383E+05        -0.19489E+07         0.00000E+00
    0.00000E+00         0.00000E+00        -0.18596E+08
 
   -0.18499E+08         0.55171E+05         0.00000E+00
    0.55171E+05        -0.19496E+07         0.00000E+00
    0.00000E+00         0.00000E+00        -0.18580E+08
 
   -0.18484E+08         0.59730E+05         0.00000E+00
    0.59730E+05        -0.19502E+07         0.00000E+00
    0.00000E+00         0.00000E+00        -0.18563E+08
 
   -0.18468E+08         0.64079E+05         0.00000E+00
    0.64079E+05        -0.19507E+07         0.00000E+00
    0.00000E+00         0.00000E+00        -0.18546E+08
 
   -0.18452E+08         0.68241E+05         0.00000E+00
    0.68241E+05        -0.19512E+07         0.00000E+00
    0.00000E+00         0.00000E+00        -0.18528E+08
 
   -0.18435E+08         0.72240E+05         0.00000E+00
    0.72240E+05        -0.19516E+07         0.00000E+00
    0.00000E+00         0.00000E+00        -0.18510E+08
 
   -0.18416E+08         0.76101E+05         0.00000E+00
    0.76101E+05        -0.19519E+07         0.00000E+00
    0.00000E+00         0.00000E+00        -0.18492E+08
 
   -0.18398E+08         0.79847E+05         0.00000E+00
    0.79847E+05        -0.19521E+07         0.00000E+00
    0.00000E+00         0.00000E+00        -0.18472E+08
 
   -0.18378E+08         0.83499E+05         0.00000E+00
    0.83499E+05        -0.19524E+07         0.00000E+00
    0.00000E+00         0.00000E+00        -0.18452E+08
 
   -0.18357E+08         0.87079E+05         0.00000E+00
    0.87079E+05        -0.19525E+07         0.00000E+00
    0.00000E+00         0.00000E+00        -0.18432E+08
 
   -0.18336E+08         0.90604E+05         0.00000E+00
    0.90604E+05        -0.19526E+07         0.00000E+00
    0.00000E+00         0.00000E+00        -0.18411E+08
 
   -0.18314E+08         0.94089E+05         0.00000E+00
    0.94089E+05        -0.19527E+07         0.00000E+00
    0.00000E+00         0.00000E+00        -0.18389E+08
 
   -0.18291E+08         0.97550E+05         0.00000E+00
    0.97550E+05        -0.19528E+07         0.00000E+00
    0.00000E+00         0.00000E+00        -0.18367E+08
 
   -0.18267E+08         0.10100E+06         0.00000E+00
    0.10100E+06        -0.19528E+07         0.00000E+00
    0.00000E+00         0.00000E+00        -0.18344E+08
 
   -0.18243E+08         0.10445E+06         0.00000E+00
    0.10445E+06        -0.19528E+07         0.00000E+00
    0.00000E+00         0.00000E+00        -0.18321E+08
 
   -0.18218E+08         0.10790E+06         0.00000E+00
    0.10790E+06        -0.19528E+07         0.00000E+00
    0.00000E+00         0.00000E+00        -0.18296E+08
 
   -0.18191E+08         0.11137E+06         0.00000E+00
    0.11137E+06        -0.19527E+07         0.00000E+00
    0.00000E+00         0.00000E+00        -0.18271E+08
 
   -0.18165E+08         0.11486E+06         0.00000E+00
    0.11486E+06        -0.19527E+07         0.00000E+00
    0.00000E+00         0.00000E+00        -0.18246E+08
 
   -0.18137E+08         0.11839E+06         0.00000E+00
    0.11839E+06        -0.19526E+07         0.00000E+00
    0.00000E+00         0.00000E+00        -0.18219E+08
 
   -0.18108E+08         0.12194E+06         0.00000E+00
    0.12194E+06        -0.19526E+07         0.00000E+00
    0.00000E+00         0.00000E+00        -0.18192E+08
 
   -0.18079E+08         0.12554E+06         0.00000E+00
    0.12554E+06        -0.19525E+07         0.00000E+00
    0.00000E+00         0.00000E+00        -0.18164E+08
 
   -0.18048E+08         0.12917E+06         0.00000E+00
    0.12917E+06        -0.19524E+07         0.00000E+00
    0.00000E+00         0.00000E+00        -0.18135E+08
 
   -0.18017E+08         0.13286E+06         0.00000E+00
    0.13286E+06        -0.19523E+07         0.00000E+00
    0.00000E+00         0.00000E+00        -0.18106E+08
 
   -0.17985E+08         0.13658E+06         0.00000E+00
    0.13658E+06        -0.19522E+07         0.00000E+00
    0.00000E+00         0.00000E+00        -0.18075E+08
 
   -0.17952E+08         0.14036E+06         0.00000E+00
    0.14036E+06        -0.19521E+07         0.00000E+00
    0.00000E+00         0.00000E+00        -0.18044E+08
 
   -0.17918E+08         0.14419E+06         0.00000E+00
    0.14419E+06        -0.19520E+07         0.00000E+00
    0.00000E+00         0.00000E+00        -0.18012E+08
 
   -0.17883E+08         0.14806E+06         0.00000E+00
    0.14806E+06        -0.19519E+07         0.00000E+00
    0.00000E+00         0.00000E+00        -0.17979E+08
 
   -0.17847E+08         0.15199E+06         0.00000E+00
    0.15199E+06        -0.19518E+07         0.00000E+00
    0.00000E+00         0.00000E+00        -0.17945E+08
 
   -0.17810E+08         0.15596E+06         0.00000E+00
    0.15596E+06        -0.19517E+07         0.00000E+00
    0.00000E+00         0.00000E+00        -0.17910E+08
 
   -0.17773E+08         0.15999E+06         0.00000E+00
    0.15999E+06        -0.19516E+07         0.00000E+00
    0.00000E+00         0.00000E+00        -0.17874E+08
 
   -0.17734E+08         0.16406E+06         0.00000E+00
    0.16406E+06        -0.19515E+07         0.00000E+00
    0.00000E+00         0.00000E+00        -0.17836E+08
 
   -0.17694E+08         0.16817E+06         0.00000E+00
    0.16817E+06        -0.19514E+07         0.00000E+00
    0.00000E+00         0.00000E+00        -0.17798E+08
 
   -0.17653E+08         0.17232E+06         0.00000E+00
    0.17232E+06        -0.19514E+07         0.00000E+00
    0.00000E+00         0.00000E+00        -0.17759E+08
 
   -0.17612E+08         0.17652E+06         0.00000E+00
    0.17652E+06        -0.19513E+07         0.00000E+00
    0.00000E+00         0.00000E+00        -0.17719E+08
 
   -0.17569E+08         0.18074E+06         0.00000E+00
    0.18074E+06        -0.19512E+07         0.00000E+00
    0.00000E+00         0.00000E+00        -0.17677E+08
 
   -0.17525E+08         0.18499E+06         0.00000E+00
    0.18499E+06        -0.19512E+07         0.00000E+00
    0.00000E+00         0.00000E+00        -0.17635E+08
 
   -0.17480E+08         0.18927E+06         0.00000E+00
    0.18927E+06        -0.19512E+07         0.00000E+00
    0.00000E+00         0.00000E+00        -0.17591E+08
 
   -0.17434E+08         0.19357E+06         0.00000E+00
    0.19357E+06        -0.19511E+07         0.00000E+00
    0.00000E+00         0.00000E+00        -0.17546E+08
 
   -0.17386E+08         0.19787E+06         0.00000E+00
    0.19787E+06        -0.19511E+07         0.00000E+00
    0.00000E+00         0.00000E+00        -0.17500E+08
 
   -0.17338E+08         0.20218E+06         0.00000E+00
    0.20218E+06        -0.19511E+07         0.00000E+00
    0.00000E+00         0.00000E+00        -0.17453E+08
 
   -0.17289E+08         0.20649E+06         0.00000E+00
    0.20649E+06        -0.19512E+07         0.00000E+00
    0.00000E+00         0.00000E+00        -0.17404E+08
 
   -0.17238E+08         0.21078E+06         0.00000E+00
    0.21078E+06        -0.19512E+07         0.00000E+00
    0.00000E+00         0.00000E+00        -0.17354E+08
 
   -0.17187E+08         0.21505E+06         0.00000E+00
    0.21505E+06        -0.19513E+07         0.00000E+00
    0.00000E+00         0.00000E+00        -0.17303E+08
 
   -0.17134E+08         0.21928E+06         0.00000E+00
    0.21928E+06        -0.19514E+07         0.00000E+00
    0.00000E+00         0.00000E+00        -0.17250E+08
 
   -0.17081E+08         0.22346E+06         0.00000E+00
    0.22346E+06        -0.19515E+07         0.00000E+00
    0.00000E+00         0.00000E+00        -0.17196E+08
 
   -0.17026E+08         0.22758E+06         0.00000E+00
    0.22758E+06        -0.19517E+07         0.00000E+00
    0.00000E+00         0.00000E+00        -0.17141E+08
 
   -0.16970E+08         0.23163E+06         0.00000E+00
    0.23163E+06        -0.19518E+07         0.00000E+00
    0.00000E+00         0.00000E+00        -0.17085E+08
 
   -0.16913E+08         0.23559E+06         0.00000E+00
    0.23559E+06        -0.19521E+07         0.00000E+00
    0.00000E+00         0.00000E+00        -0.17027E+08
 
   -0.16855E+08         0.23945E+06         0.00000E+00
    0.23945E+06        -0.19523E+07         0.00000E+00
    0.00000E+00         0.00000E+00        -0.16968E+08
 
   -0.16796E+08         0.24318E+06         0.00000E+00
    0.24318E+06        -0.19526E+07         0.00000E+00
    0.00000E+00         0.00000E+00        -0.16907E+08
 
   -0.16736E+08         0.24676E+06         0.00000E+00
    0.24676E+06        -0.19529E+07         0.00000E+00
    0.00000E+00         0.00000E+00        -0.16845E+08
 
   -0.16675E+08         0.25018E+06         0.00000E+00
    0.25018E+06        -0.19533E+07         0.00000E+00
    0.00000E+00         0.00000E+00        -0.16781E+08
 
   -0.16613E+08         0.25342E+06         0.00000E+00
    0.25342E+06        -0.19537E+07         0.00000E+00
    0.00000E+00         0.00000E+00        -0.16717E+08
 
   -0.16551E+08         0.25644E+06         0.00000E+00
    0.25644E+06        -0.19542E+07         0.00000E+00
    0.00000E+00         0.00000E+00        -0.16650E+08
 
   -0.16487E+08         0.25922E+06         0.00000E+00
    0.25922E+06        -0.19548E+07         0.00000E+00
    0.00000E+00         0.00000E+00        -0.16583E+08
 
   -0.16423E+08         0.26172E+06         0.00000E+00
    0.26172E+06        -0.19554E+07         0.00000E+00
    0.00000E+00         0.00000E+00        -0.16514E+08
 
   -0.16357E+08         0.26393E+06         0.00000E+00
    0.26393E+06        -0.19561E+07         0.00000E+00
    0.00000E+00         0.00000E+00        -0.16443E+08
 
   -0.16292E+08         0.26580E+06         0.00000E+00
    0.26580E+06        -0.19568E+07         0.00000E+00
    0.00000E+00         0.00000E+00        -0.16372E+08
 
   -0.16225E+08         0.26730E+06         0.00000E+00
    0.26730E+06        -0.19577E+07         0.00000E+00
    0.00000E+00         0.00000E+00        -0.16299E+08
 
   -0.16158E+08         0.26837E+06         0.00000E+00
    0.26837E+06        -0.19586E+07         0.00000E+00
    0.00000E+00         0.00000E+00        -0.16224E+08
 
   -0.16091E+08         0.26897E+06         0.00000E+00
    0.26897E+06        -0.19597E+07         0.00000E+00
    0.00000E+00         0.00000E+00        -0.16149E+08
 
   -0.16023E+08         0.26906E+06         0.00000E+00
    0.26906E+06        -0.19608E+07         0.00000E+00
    0.00000E+00         0.00000E+00        -0.16072E+08
 
   -0.15955E+08         0.26856E+06         0.00000E+00
    0.26856E+06        -0.19622E+07         0.00000E+00
    0.00000E+00         0.00000E+00        -0.15994E+08
 
   -0.15888E+08         0.26742E+06         0.00000E+00
    0.26742E+06        -0.19637E+07         0.00000E+00
    0.00000E+00         0.00000E+00        -0.15915E+08
 
   -0.15820E+08         0.26555E+06         0.00000E+00
    0.26555E+06        -0.19653E+07         0.00000E+00
    0.00000E+00         0.00000E+00        -0.15834E+08
 
   -0.15752E+08         0.26288E+06         0.00000E+00
    0.26288E+06        -0.19672E+07         0.00000E+00
    0.00000E+00         0.00000E+00        -0.15753E+08
 
   -0.15685E+08         0.25931E+06         0.00000E+00
    0.25931E+06        -0.19693E+07         0.00000E+00
    0.00000E+00         0.00000E+00        -0.15671E+08
 
   -0.15618E+08         0.25473E+06         0.00000E+00
    0.25473E+06        -0.19718E+07         0.00000E+00
    0.00000E+00         0.00000E+00        -0.15588E+08
 
   -0.15551E+08         0.24903E+06         0.00000E+00
    0.24903E+06        -0.19745E+07         0.00000E+00
    0.00000E+00         0.00000E+00        -0.15504E+08
 
   -0.15486E+08         0.24209E+06         0.00000E+00
    0.24209E+06        -0.19775E+07         0.00000E+00
    0.00000E+00         0.00000E+00        -0.15419E+08
 
   -0.15422E+08         0.23376E+06         0.00000E+00
    0.23376E+06        -0.19810E+07         0.00000E+00
    0.00000E+00         0.00000E+00        -0.15334E+08
 
   -0.15359E+08         0.22390E+06         0.00000E+00
    0.22390E+06        -0.19849E+07         0.00000E+00
    0.00000E+00         0.00000E+00        -0.15249E+08
 
   -0.15297E+08         0.21236E+06         0.00000E+00
    0.21236E+06        -0.19891E+07         0.00000E+00
    0.00000E+00         0.00000E+00        -0.15162E+08
 
   -0.15237E+08         0.19901E+06         0.00000E+00
    0.19901E+06        -0.19938E+07         0.00000E+00
    0.00000E+00         0.00000E+00        -0.15076E+08
 
   -0.15179E+08         0.18370E+06         0.00000E+00
    0.18370E+06        -0.19989E+07         0.00000E+00
    0.00000E+00         0.00000E+00        -0.14989E+08
 
   -0.15122E+08         0.16636E+06         0.00000E+00
    0.16636E+06        -0.20042E+07         0.00000E+00
    0.00000E+00         0.00000E+00        -0.14902E+08
 
   -0.15068E+08         0.14693E+06         0.00000E+00
    0.14693E+06        -0.20097E+07         0.00000E+00
    0.00000E+00         0.00000E+00        -0.14815E+08
 
   -0.15017E+08         0.12548E+06         0.00000E+00
    0.12548E+06        -0.20150E+07         0.00000E+00
    0.00000E+00         0.00000E+00        -0.14728E+08
 
   -0.14968E+08         0.10219E+06         0.00000E+00
    0.10219E+06        -0.20197E+07         0.00000E+00
    0.00000E+00         0.00000E+00        -0.14641E+08
 
   -0.14921E+08         0.77428E+05         0.00000E+00
    0.77428E+05        -0.20234E+07         0.00000E+00
    0.00000E+00         0.00000E+00        -0.14554E+08
 
   -0.14878E+08         0.51865E+05         0.00000E+00
    0.51865E+05        -0.20253E+07         0.00000E+00
    0.00000E+00         0.00000E+00        -0.14466E+08
 
   -0.14837E+08         0.26533E+05         0.00000E+00
    0.26533E+05        -0.20243E+07         0.00000E+00
    0.00000E+00         0.00000E+00        -0.14378E+08
 
   -0.14799E+08         0.29673E+04         0.00000E+00
    0.29673E+04        -0.20192E+07         0.00000E+00
    0.00000E+00         0.00000E+00        -0.14289E+08
 
   -0.14764E+08        -0.16696E+05         0.00000E+00
   -0.16696E+05        -0.20080E+07         0.00000E+00
    0.00000E+00         0.00000E+00        -0.14199E+08
 
   -0.14733E+08        -0.29762E+05         0.00000E+00
   -0.29762E+05        -0.19878E+07         0.00000E+00
    0.00000E+00         0.00000E+00        -0.14106E+08
 
   -0.14705E+08        -0.33473E+05         0.00000E+00
   -0.33473E+05        -0.19544E+07         0.00000E+00
    0.00000E+00         0.00000E+00        -0.14011E+08
 
   -0.14684E+08        -0.26340E+05         0.00000E+00
   -0.26340E+05        -0.19015E+07         0.00000E+00
    0.00000E+00         0.00000E+00        -0.13912E+08
 
   -0.14673E+08        -0.10008E+05         0.00000E+00
   -0.10008E+05        -0.18223E+07         0.00000E+00
    0.00000E+00         0.00000E+00        -0.13807E+08
 
   -0.18604E+08        -0.56747E+03         0.00000E+00
   -0.56747E+03        -0.19746E+07         0.00000E+00
    0.00000E+00         0.00000E+00        -0.18768E+08
 
   -0.18602E+08        -0.11427E+04         0.00000E+00
   -0.11427E+04        -0.19636E+07         0.00000E+00
    0.00000E+00         0.00000E+00        -0.18753E+08
 
   -0.18599E+08        -0.32794E+03         0.00000E+00
   -0.32794E+03        -0.19565E+07         0.00000E+00
    0.00000E+00         0.00000E+00        -0.18739E+08
 
   -0.18594E+08         0.20946E+04         0.00000E+00
    0.20946E+04        -0.19521E+07         0.00000E+00
    0.00000E+00         0.00000E+00        -0.18725E+08
 
   -0.18588E+08         0.58737E+04         0.00000E+00
    0.58737E+04        -0.19495E+07         0.00000E+00
    0.00000E+00         0.00000E+00        -0.18711E+08
 
   -0.18581E+08         0.10593E+05         0.00000E+00
    0.10593E+05        -0.19481E+07         0.00000E+00
    0.00000E+00         0.00000E+00        -0.18698E+08
 
   -0.18574E+08         0.15864E+05         0.00000E+00
    0.15864E+05        -0.19475E+07         0.00000E+00
    0.00000E+00         0.00000E+00        -0.18684E+08
 
   -0.18565E+08         0.21390E+05         0.00000E+00
    0.21390E+05        -0.19474E+07         0.00000E+00
    0.00000E+00         0.00000E+00        -0.18670E+08
 
   -0.18556E+08         0.26963E+05         0.00000E+00
    0.26963E+05        -0.19476E+07         0.00000E+00
    0.00000E+00         0.00000E+00        -0.18656E+08
 
   -0.18546E+08         0.32446E+05         0.00000E+00
    0.32446E+05        -0.19481E+07         0.00000E+00
    0.00000E+00         0.00000E+00        -0.18641E+08
 
   -0.18535E+08         0.37756E+05         0.00000E+00
    0.37756E+05        -0.19487E+07         0.00000E+00
    0.00000E+00         0.00000E+00        -0.18627E+08
 
   -0.18523E+08         0.42846E+05         0.00000E+00
    0.42846E+05        -0.19493E+07         0.00000E+00
    0.00000E+00         0.00000E+00        -0.18611E+08
 
   -0.18510E+08         0.47698E+05         0.00000E+00
    0.47698E+05        -0.19499E+07         0.00000E+00
    0.00000E+00         0.00000E+00        -0.18596E+08
 
   -0.18496E+08         0.52312E+05         0.00000E+00
    0.52312E+05        -0.19505E+07         0.00000E+00
    0.00000E+00         0.00000E+00        -0.18579E+08
 
   -0.18481E+08         0.56700E+05         0.00000E+00
    0.56700E+05        -0.19511E+07         0.00000E+00
    0.00000E+00         0.00000E+00        -0.18563E+08
 
   -0.18466E+08         0.60880E+05         0.00000E+00
    0.60880E+05        -0.19515E+07         0.00000E+00
    0.00000E+00         0.00000E+00        -0.18546E+08
 
   -0.18449E+08         0.64874E+05         0.00000E+00
    0.64874E+05        -0.19520E+07         0.00000E+00
    0.00000E+00         0.00000E+00        -0.18528E+08
 
   -0.18432E+08         0.68708E+05         0.00000E+00
    0.68708E+05        -0.19523E+07         0.00000E+00
    0.00000E+00         0.00000E+00        -0.18510E+08
 
   -0.18414E+08         0.72405E+05         0.00000E+00
    0.72405E+05        -0.19526E+07         0.00000E+00
    0.00000E+00         0.00000E+00        -0.18491E+08
 
   -0.18395E+08         0.75988E+05         0.00000E+00
    0.75988E+05        -0.19529E+07         0.00000E+00
    0.00000E+00         0.00000E+00        -0.18472E+08
 
   -0.18375E+08         0.79479E+05         0.00000E+00
    0.79479E+05        -0.19531E+07         0.00000E+00
    0.00000E+00         0.00000E+00        -0.18452E+08
 
   -0.18355E+08         0.82898E+05         0.00000E+00
    0.82898E+05        -0.19532E+07         0.00000E+00
    0.00000E+00         0.00000E+00        -0.18431E+08
 
   -0.18334E+08         0.86262E+05         0.00000E+00
    0.86262E+05        -0.19533E+07         0.00000E+00
    0.00000E+00         0.00000E+00        -0.18410E+08
 
   -0.18311E+08         0.89588E+05         0.00000E+00
    0.89588E+05        -0.19534E+07         0.00000E+00
    0.00000E+00         0.00000E+00        -0.18389E+08
 
   -0.18288E+08         0.92888E+05         0.00000E+00
    0.92888E+05        -0.19535E+07         0.00000E+00
    0.00000E+00         0.00000E+00        -0.18366E+08
 
   -0.18265E+08         0.96176E+05         0.00000E+00
    0.96176E+05        -0.19535E+07         0.00000E+00
    0.00000E+00         0.00000E+00        -0.18344E+08
 
   -0.18240E+08         0.99461E+05         0.00000E+00
    0.99461E+05        -0.19535E+07         0.00000E+00
    0.00000E+00         0.00000E+00        -0.18320E+08
 
   -0.18215E+08         0.10275E+06         0.00000E+00
    0.10275E+06        -0.19535E+07         0.00000E+00
    0.00000E+00         0.00000E+00        -0.18296E+08
 
   -0.18189E+08         0.10606E+06         0.00000E+00
    0.10606E+06        -0.19534E+07         0.00000E+00
    0.00000E+00         0.00000E+00        -0.18271E+08
 
   -0.18162E+08         0.10939E+06         0.00000E+00
    0.10939E+06        -0.19534E+07         0.00000E+00
    0.00000E+00         0.00000E+00        -0.18245E+08
 
   -0.18134E+08         0.11274E+06         0.00000E+00
    0.11274E+06        -0.19533E+07         0.00000E+00
    0.00000E+00         0.00000E+00        -0.18219E+08
 
   -0.18105E+08         0.11613E+06         0.00000E+00
    0.11613E+06        -0.19533E+07         0.00000E+00
    0.00000E+00         0.00000E+00        -0.18192E+08
 
   -0.18076E+08         0.11955E+06         0.00000E+00
    0.11955E+06        -0.19532E+07         0.00000E+00
    0.00000E+00         0.00000E+00        -0.18164E+08
 
   -0.18045E+08         0.12301E+06         0.00000E+00
    0.12301E+06        -0.19531E+07         0.00000E+00
    0.00000E+00         0.00000E+00        -0.18135E+08
 
   -0.18014E+08         0.12652E+06         0.00000E+00
    0.12652E+06        -0.19530E+07         0.00000E+00
    0.00000E+00         0.00000E+00        -0.18105E+08
 
   -0.17982E+08         0.13006E+06         0.00000E+00
    0.13006E+06        -0.19529E+07         0.00000E+00
    0.00000E+00         0.00000E+00        -0.18075E+08
 
   -0.17949E+08         0.13366E+06         0.00000E+00
    0.13366E+06        -0.19529E+07         0.00000E+00
    0.00000E+00         0.00000E+00        -0.18043E+08
 
   -0.17915E+08         0.13730E+06         0.00000E+00
    0.13730E+06        -0.19528E+07         0.00000E+00
    0.00000E+00         0.00000E+00        -0.18011E+08
 
   -0.17880E+08         0.14098E+06         0.00000E+00
    0.14098E+06        -0.19527E+07         0.00000E+00
    0.00000E+00         0.00000E+00        -0.17978E+08
 
   -0.17844E+08         0.14472E+06         0.00000E+00
    0.14472E+06        -0.19526E+07         0.00000E+00
    0.00000E+00         0.00000E+00        -0.17944E+08
 
   -0.17807E+08         0.14850E+06         0.00000E+00
    0.14850E+06        -0.19525E+07         0.00000E+00
    0.00000E+00         0.00000E+00        -0.17909E+08
 
   -0.17769E+08         0.15233E+06         0.00000E+00
    0.15233E+06        -0.19524E+07         0.00000E+00
    0.00000E+00         0.00000E+00        -0.17873E+08
 
   -0.17730E+08         0.15619E+06         0.00000E+00
    0.15619E+06        -0.19523E+07         0.00000E+00
    0.00000E+00         0.00000E+00        -0.17836E+08
 
   -0.17690E+08         0.16011E+06         0.00000E+00
    0.16011E+06        -0.19523E+07         0.00000E+00
    0.00000E+00         0.00000E+00        -0.17797E+08
 
   -0.17649E+08         0.16405E+06         0.00000E+00
    0.16405E+06        -0.19522E+07         0.00000E+00
    0.00000E+00         0.00000E+00        -0.17758E+08
 
   -0.17608E+08         0.16804E+06         0.00000E+00
    0.16804E+06        -0.19521E+07         0.00000E+00
    0.00000E+00         0.00000E+00        -0.17718E+08
 
   -0.17565E+08         0.17205E+06         0.00000E+00
    0.17205E+06        -0.19521E+07         0.00000E+00
    0.00000E+00         0.00000E+00        -0.17676E+08
 
   -0.17521E+08         0.17610E+06         0.00000E+00
    0.17610E+06        -0.19520E+07         0.00000E+00
    0.00000E+00         0.00000E+00        -0.17634E+08
 
   -0.17476E+08         0.18016E+06         0.00000E+00
    0.18016E+06        -0.19520E+07         0.00000E+00
    0.00000E+00         0.00000E+00        -0.17590E+08
 
   -0.17429E+08         0.18424E+06         0.00000E+00
    0.18424E+06        -0.19520E+07         0.00000E+00
    0.00000E+00         0.00000E+00        -0.17545E+08
 
   -0.17382E+08         0.18833E+06         0.00000E+00
    0.18833E+06        -0.19520E+07         0.00000E+00
    0.00000E+00         0.00000E+00        -0.17499E+08
 
   -0.17334E+08         0.19242E+06         0.00000E+00
    0.19242E+06        -0.19520E+07         0.00000E+00
    0.00000E+00         0.00000E+00        -0.17452E+08
 
   -0.17285E+08         0.19651E+06         0.00000E+00
    0.19651E+06        -0.19520E+07         0.00000E+00
    0.00000E+00         0.00000E+00        -0.17403E+08
 
   -0.17234E+08         0.20058E+06         0.00000E+00
    0.20058E+06        -0.19521E+07         0.00000E+00
    0.00000E+00         0.00000E+00        -0.17353E+08
 
   -0.17183E+08         0.20463E+06         0.00000E+00
    0.20463E+06        -0.19521E+07         0.00000E+00
    0.00000E+00         0.00000E+00        -0.17302E+08
 
   -0.17130E+08         0.20864E+06         0.00000E+00
    0.20864E+06        -0.19522E+07         0.00000E+00
    0.00000E+00         0.00000E+00        -0.17249E+08
 
   -0.17076E+08         0.21261E+06         0.00000E+00
    0.21261E+06        -0.19523E+07         0.00000E+00
    0.00000E+00         0.00000E+00        -0.17195E+08
 
   -0.17021E+08         0.21652E+06         0.00000E+00
    0.21652E+06        -0.19525E+07         0.00000E+00
    0.00000E+00         0.00000E+00        -0.17140E+08
 
   -0.16966E+08         0.22036E+06         0.00000E+00
    0.22036E+06        -0.19526E+07         0.00000E+00
    0.00000E+00         0.00000E+00        -0.17084E+08
 
   -0.16909E+08         0.22411E+06         0.00000E+00
    0.22411E+06        -0.19528E+07         0.00000E+00
    0.00000E+00         0.00000E+00        -0.17026E+08
 
   -0.16851E+08         0.22776E+06         0.00000E+00
    0.22776E+06        -0.19530E+07         0.00000E+00
    0.00000E+00         0.00000E+00        -0.16966E+08
 
   -0.16792E+08         0.23128E+06         0.00000E+00
    0.23128E+06        -0.19533E+07         0.00000E+00
    0.00000E+00         0.00000E+00        -0.16906E+08
 
   -0.16732E+08         0.23468E+06         0.00000E+00
    0.23468E+06        -0.19536E+07         0.00000E+00
    0.00000E+00         0.00000E+00        -0.16844E+08
 
   -0.16671E+08         0.23791E+06         0.00000E+00
    0.23791E+06        -0.19540E+07         0.00000E+00
    0.00000E+00         0.00000E+00        -0.16780E+08
 
   -0.16609E+08         0.24096E+06         0.00000E+00
    0.24096E+06        -0.19543E+07         0.00000E+00
    0.00000E+00         0.00000E+00        -0.16715E+08
 
   -0.16546E+08         0.24381E+06         0.00000E+00
    0.24381E+06        -0.19548E+07         0.00000E+00
    0.00000E+00         0.00000E+00        -0.16649E+08
 
   -0.16483E+08         0.24642E+06         0.00000E+00
    0.24642E+06        -0.19553E+07         0.00000E+00
    0.00000E+00         0.00000E+00        -0.16582E+08
 
   -0.16419E+08         0.24878E+06         0.00000E+00
    0.24878E+06        -0.19558E+07         0.00000E+00
    0.00000E+00         0.00000E+00        -0.16513E+08
 
   -0.16354E+08         0.25085E+06         0.00000E+00
    0.25085E+06        -0.19564E+07         0.00000E+00
    0.00000E+00         0.00000E+00        -0.16442E+08
 
   -0.16288E+08         0.25260E+06         0.00000E+00
    0.25260E+06        -0.19571E+07         0.00000E+00
    0.00000E+00         0.00000E+00        -0.16371E+08
 
   -0.16222E+08         0.25398E+06         0.00000E+00
    0.25398E+06        -0.19579E+07         0.00000E+00
    0.00000E+00         0.00000E+00        -0.16298E+08
 
   -0.16155E+08         0.25496E+06         0.00000E+00
    0.25496E+06        -0.19588E+07         0.00000E+00
    0.00000E+00         0.00000E+00        -0.16223E+08
 
   -0.16088E+08         0.25550E+06         0.00000E+00
    0.25550E+06        -0.19597E+07         0.00000E+00
    0.00000E+00         0.00000E+00        -0.16148E+08
 
   -0.16021E+08         0.25553E+06         0.00000E+00
    0.25553E+06        -0.19608E+07         0.00000E+00
    0.00000E+00         0.00000E+00        -0.16071E+08
 
   -0.15953E+08         0.25501E+06         0.00000E+00
    0.25501E+06        -0.19620E+07         0.00000E+00
    0.00000E+00         0.00000E+00        -0.15993E+08
 
   -0.15885E+08         0.25386E+06         0.00000E+00
    0.25386E+06        -0.19634E+07         0.00000E+00
    0.00000E+00         0.00000E+00        -0.15914E+08
 
   -0.15818E+08         0.25202E+06         0.00000E+00
    0.25202E+06        -0.19649E+07         0.00000E+00
    0.00000E+00         0.00000E+00        -0.15834E+08
 
   -0.15751E+08         0.24941E+06         0.00000E+00
    0.24941E+06        -0.19666E+07         0.00000E+00
    0.00000E+00         0.00000E+00        -0.15753E+08
 
   -0.15684E+08         0.24592E+06         0.00000E+00
    0.24592E+06        -0.19685E+07         0.00000E+00
    0.00000E+00         0.00000E+00        -0.15670E+08
 
   -0.15617E+08         0.24147E+06         0.00000E+00
    0.24147E+06        -0.19707E+07         0.00000E+00
    0.00000E+00         0.00000E+00        -0.15587E+08
 
   -0.15552E+08         0.23593E+06         0.00000E+00
    0.23593E+06        -0.19732E+07         0.00000E+00
    0.00000E+00         0.00000E+00        -0.15504E+08
 
   -0.15487E+08         0.22918E+06         0.00000E+00
    0.22918E+06        -0.19760E+07         0.00000E+00
    0.00000E+00         0.00000E+00        -0.15419E+08
 
   -0.15423E+08         0.22109E+06         0.00000E+00
    0.22109E+06        -0.19792E+07         0.00000E+00
    0.00000E+00         0.00000E+00        -0.15334E+08
 
   -0.15361E+08         0.21150E+06         0.00000E+00
    0.21150E+06        -0.19828E+07         0.00000E+00
    0.00000E+00         0.00000E+00        -0.15249E+08
 
   -0.15300E+08         0.20029E+06         0.00000E+00
    0.20029E+06        -0.19867E+07         0.00000E+00
    0.00000E+00         0.00000E+00        -0.15163E+08
 
   -0.15241E+08         0.18729E+06         0.00000E+00
    0.18729E+06        -0.19910E+07         0.00000E+00
    0.00000E+00         0.00000E+00        -0.15076E+08
 
   -0.15184E+08         0.17239E+06         0.00000E+00
    0.17239E+06        -0.19957E+07         0.00000E+00
    0.00000E+00         0.00000E+00        -0.14990E+08
 
   -0.15130E+08         0.15548E+06         0.00000E+00
    0.15548E+06        -0.20006E+07         0.00000E+00
    0.00000E+00         0.00000E+00        -0.14903E+08
 
   -0.15077E+08         0.13654E+06         0.00000E+00
    0.13654E+06        -0.20056E+07         0.00000E+00
    0.00000E+00         0.00000E+00        -0.14817E+08
 
   -0.15028E+08         0.11560E+06         0.00000E+00
    0.11560E+06        -0.20105E+07         0.00000E+00
    0.00000E+00         0.00000E+00        -0.14730E+08
 
   -0.14981E+08         0.92850E+05         0.00000E+00
    0.92850E+05        -0.20150E+07         0.00000E+00
    0.00000E+00         0.00000E+00        -0.14644E+08
 
   -0.14937E+08         0.68661E+05         0.00000E+00
    0.68661E+05        -0.20184E+07         0.00000E+00
    0.00000E+00         0.00000E+00        -0.14557E+08
 
   -0.14895E+08         0.43683E+05         0.00000E+00
    0.43683E+05        -0.20202E+07         0.00000E+00
    0.00000E+00         0.00000E+00        -0.14470E+08
 
   -0.14857E+08         0.18938E+05         0.00000E+00
    0.18938E+05        -0.20194E+07         0.00000E+00
    0.00000E+00         0.00000E+00        -0.14383E+08
 
   -0.14822E+08        -0.40493E+04         0.00000E+00
   -0.40493E+04        -0.20148E+07         0.00000E+00
    0.00000E+00         0.00000E+00        -0.14294E+08
 
   -0.14790E+08        -0.23137E+05         0.00000E+00
   -0.23137E+05        -0.20046E+07         0.00000E+00
    0.00000E+00         0.00000E+00        -0.14205E+08
 
   -0.14761E+08        -0.35554E+05         0.00000E+00
   -0.35554E+05        -0.19861E+07         0.00000E+00
    0.00000E+00         0.00000E+00        -0.14114E+08
 
   -0.14735E+08        -0.38342E+05         0.00000E+00
   -0.38342E+05        -0.19548E+07         0.00000E+00
    0.00000E+00         0.00000E+00        -0.14020E+08
 
   -0.14714E+08        -0.29724E+05         0.00000E+00
   -0.29724E+05        -0.19042E+07         0.00000E+00
    0.00000E+00         0.00000E+00        -0.13921E+08
 
   -0.14703E+08        -0.11240E+05         0.00000E+00
   -0.11240E+05        -0.18264E+07         0.00000E+00
    0.00000E+00         0.00000E+00        -0.13817E+08
 
   -0.18599E+08        -0.78145E+03         0.00000E+00
   -0.78145E+03        -0.19744E+07         0.00000E+00
    0.00000E+00         0.00000E+00        -0.18766E+08
 
   -0.18597E+08        -0.17343E+04         0.00000E+00
   -0.17343E+04        -0.19636E+07         0.00000E+00
    0.00000E+00         0.00000E+00        -0.18751E+08
 
   -0.18593E+08        -0.11935E+04         0.00000E+00
   -0.11935E+04        -0.19568E+07         0.00000E+00
    0.00000E+00         0.00000E+00        -0.18737E+08
 
   -0.18588E+08         0.10351E+04         0.00000E+00
    0.10351E+04        -0.19527E+07         0.00000E+00
    0.00000E+00         0.00000E+00        -0.18723E+08
 
   -0.18583E+08         0.46510E+04         0.00000E+00
    0.46510E+04        -0.19504E+07         0.00000E+00
    0.00000E+00         0.00000E+00        -0.18710E+08
 
   -0.18577E+08         0.92065E+04         0.00000E+00
    0.92065E+04        -0.19491E+07         0.00000E+00
    0.00000E+00         0.00000E+00        -0.18696E+08
 
   -0.18569E+08         0.14305E+05         0.00000E+00
    0.14305E+05        -0.19486E+07         0.00000E+00
    0.00000E+00         0.00000E+00        -0.18683E+08
 
   -0.18561E+08         0.19652E+05         0.00000E+00
    0.19652E+05        -0.19485E+07         0.00000E+00
    0.00000E+00         0.00000E+00        -0.18669E+08
 
   -0.18552E+08         0.25041E+05         0.00000E+00
    0.25041E+05        -0.19487E+07         0.00000E+00
    0.00000E+00         0.00000E+00        -0.18655E+08
 
   -0.18542E+08         0.30339E+05         0.00000E+00
    0.30339E+05        -0.19491E+07         0.00000E+00
    0.00000E+00         0.00000E+00        -0.18641E+08
 
   -0.18531E+08         0.35463E+05         0.00000E+00
    0.35463E+05        -0.19497E+07         0.00000E+00
    0.00000E+00         0.00000E+00        -0.18626E+08
 
   -0.18520E+08         0.40369E+05         0.00000E+00
    0.40369E+05        -0.19503E+07         0.00000E+00
    0.00000E+00         0.00000E+00        -0.18611E+08
 
   -0.18507E+08         0.45040E+05         0.00000E+00
    0.45040E+05        -0.19508E+07         0.00000E+00
    0.00000E+00         0.00000E+00        -0.18595E+08
 
   -0.18493E+08         0.49475E+05         0.00000E+00
    0.49475E+05        -0.19514E+07         0.00000E+00
    0.00000E+00         0.00000E+00        -0.18579E+08
 
   -0.18479E+08         0.53686E+05         0.00000E+00
    0.53686E+05        -0.19519E+07         0.00000E+00
    0.00000E+00         0.00000E+00        -0.18562E+08
 
   -0.18463E+08         0.57692E+05         0.00000E+00
    0.57692E+05        -0.19523E+07         0.00000E+00
    0.00000E+00         0.00000E+00        -0.18545E+08
 
   -0.18447E+08         0.61515E+05         0.00000E+00
    0.61515E+05        -0.19527E+07         0.00000E+00
    0.00000E+00         0.00000E+00        -0.18527E+08
 
   -0.18430E+08         0.65180E+05         0.00000E+00
    0.65180E+05        -0.19531E+07         0.00000E+00
    0.00000E+00         0.00000E+00        -0.18509E+08
 
   -0.18412E+08         0.68710E+05         0.00000E+00
    0.68710E+05        -0.19533E+07         0.00000E+00
    0.00000E+00         0.00000E+00        -0.18490E+08
 
   -0.18393E+08         0.72129E+05         0.00000E+00
    0.72129E+05        -0.19536E+07         0.00000E+00
    0.00000E+00         0.00000E+00        -0.18471E+08
 
   -0.18373E+08         0.75456E+05         0.00000E+00
    0.75456E+05        -0.19537E+07         0.00000E+00
    0.00000E+00         0.00000E+00        -0.18451E+08
 
   -0.18352E+08         0.78713E+05         0.00000E+00
    0.78713E+05        -0.19539E+07         0.00000E+00
    0.00000E+00         0.00000E+00        -0.18431E+08
 
   -0.18331E+08         0.81915E+05         0.00000E+00
    0.81915E+05        -0.19540E+07         0.00000E+00
    0.00000E+00         0.00000E+00        -0.18410E+08
 
   -0.18309E+08         0.85079E+05         0.00000E+00
    0.85079E+05        -0.19540E+07         0.00000E+00
    0.00000E+00         0.00000E+00        -0.18388E+08
 
   -0.18286E+08         0.88218E+05         0.00000E+00
    0.88218E+05        -0.19541E+07         0.00000E+00
    0.00000E+00         0.00000E+00        -0.18366E+08
 
   -0.18262E+08         0.91344E+05         0.00000E+00
    0.91344E+05        -0.19541E+07         0.00000E+00
    0.00000E+00         0.00000E+00        -0.18343E+08
 
   -0.18238E+08         0.94466E+05         0.00000E+00
    0.94466E+05        -0.19541E+07         0.00000E+00
    0.00000E+00         0.00000E+00        -0.18319E+08
 
   -0.18212E+08         0.97594E+05         0.00000E+00
    0.97594E+05        -0.19541E+07         0.00000E+00
    0.00000E+00         0.00000E+00        -0.18295E+08
 
   -0.18186E+08         0.10074E+06         0.00000E+00
    0.10074E+06        -0.19541E+07         0.00000E+00
    0.00000E+00         0.00000E+00        -0.18270E+08
 
   -0.18159E+08         0.10390E+06         0.00000E+00
    0.10390E+06        -0.19540E+07         0.00000E+00
    0.00000E+00         0.00000E+00        -0.18244E+08
 
   -0.18131E+08         0.10708E+06         0.00000E+00
    0.10708E+06        -0.19540E+07         0.00000E+00
    0.00000E+00         0.00000E+00        -0.18218E+08
 
   -0.18102E+08         0.11030E+06         0.00000E+00
    0.11030E+06        -0.19539E+07         0.00000E+00
    0.00000E+00         0.00000E+00        -0.18191E+08
 
   -0.18073E+08         0.11355E+06         0.00000E+00
    0.11355E+06        -0.19539E+07         0.00000E+00
    0.00000E+00         0.00000E+00        -0.18163E+08
 
   -0.18042E+08         0.11683E+06         0.00000E+00
    0.11683E+06        -0.19538E+07         0.00000E+00
    0.00000E+00         0.00000E+00        -0.18134E+08
 
   -0.18011E+08         0.12016E+06         0.00000E+00
    0.12016E+06        -0.19537E+07         0.00000E+00
    0.00000E+00         0.00000E+00        -0.18104E+08
 
   -0.17978E+08         0.12353E+06         0.00000E+00
    0.12353E+06        -0.19536E+07         0.00000E+00
    0.00000E+00         0.00000E+00        -0.18074E+08
 
   -0.17945E+08         0.12694E+06         0.00000E+00
    0.12694E+06        -0.19536E+07         0.00000E+00
    0.00000E+00         0.00000E+00        -0.18043E+08
 
   -0.17911E+08         0.13039E+06         0.00000E+00
    0.13039E+06        -0.19535E+07         0.00000E+00
    0.00000E+00         0.00000E+00        -0.18010E+08
 
   -0.17876E+08         0.13389E+06         0.00000E+00
    0.13389E+06        -0.19534E+07         0.00000E+00
    0.00000E+00         0.00000E+00        -0.17977E+08
 
   -0.17840E+08         0.13743E+06         0.00000E+00
    0.13743E+06        -0.19533E+07         0.00000E+00
    0.00000E+00         0.00000E+00        -0.17943E+08
 
   -0.17803E+08         0.14102E+06         0.00000E+00
    0.14102E+06        -0.19532E+07         0.00000E+00
    0.00000E+00         0.00000E+00        -0.17908E+08
 
   -0.17765E+08         0.14465E+06         0.00000E+00
    0.14465E+06        -0.19532E+07         0.00000E+00
    0.00000E+00         0.00000E+00        -0.17872E+08
 
   -0.17726E+08         0.14832E+06         0.00000E+00
    0.14832E+06        -0.19531E+07         0.00000E+00
    0.00000E+00         0.00000E+00        -0.17835E+08
 
   -0.17687E+08         0.15203E+06         0.00000E+00
    0.15203E+06        -0.19530E+07         0.00000E+00
    0.00000E+00         0.00000E+00        -0.17796E+08
 
   -0.17646E+08         0.15577E+06         0.00000E+00
    0.15577E+06        -0.19530E+07         0.00000E+00
    0.00000E+00         0.00000E+00        -0.17757E+08
 
   -0.17604E+08         0.15955E+06         0.00000E+00
    0.15955E+06        -0.19529E+07         0.00000E+00
    0.00000E+00         0.00000E+00        -0.17717E+08
 
   -0.17561E+08         0.16335E+06         0.00000E+00
    0.16335E+06        -0.19529E+07         0.00000E+00
    0.00000E+00         0.00000E+00        -0.17675E+08
 
   -0.17517E+08         0.16719E+06         0.00000E+00
    0.16719E+06        -0.19528E+07         0.00000E+00
    0.00000E+00         0.00000E+00        -0.17633E+08
 
   -0.17471E+08         0.17104E+06         0.00000E+00
    0.17104E+06        -0.19528E+07         0.00000E+00
    0.00000E+00         0.00000E+00        -0.17589E+08
 
   -0.17425E+08         0.17490E+06         0.00000E+00
    0.17490E+06        -0.19528E+07         0.00000E+00
    0.00000E+00         0.00000E+00        -0.17544E+08
 
   -0.17378E+08         0.17878E+06         0.00000E+00
    0.17878E+06        -0.19528E+07         0.00000E+00
    0.00000E+00         0.00000E+00        -0.17498E+08
 
   -0.17330E+08         0.18265E+06         0.00000E+00
    0.18265E+06        -0.19528E+07         0.00000E+00
    0.00000E+00         0.00000E+00        -0.17450E+08
 
   -0.17280E+08         0.18652E+06         0.00000E+00
    0.18652E+06        -0.19528E+07         0.00000E+00
    0.00000E+00         0.00000E+00        -0.17402E+08
 
   -0.17230E+08         0.19037E+06         0.00000E+00
    0.19037E+06        -0.19528E+07         0.00000E+00
    0.00000E+00         0.00000E+00        -0.17352E+08
 
   -0.17178E+08         0.19421E+06         0.00000E+00
    0.19421E+06        -0.19529E+07         0.00000E+00
    0.00000E+00         0.00000E+00        -0.17301E+08
 
   -0.17125E+08         0.19800E+06         0.00000E+00
    0.19800E+06        -0.19530E+07         0.00000E+00
    0.00000E+00         0.00000E+00        -0.17248E+08
 
   -0.17072E+08         0.20176E+06         0.00000E+00
    0.20176E+06        -0.19531E+07         0.00000E+00
    0.00000E+00         0.00000E+00        -0.17194E+08
 
   -0.17017E+08         0.20545E+06         0.00000E+00
    0.20545E+06        -0.19532E+07         0.00000E+00
    0.00000E+00         0.00000E+00        -0.17139E+08
 
   -0.16961E+08         0.20908E+06         0.00000E+00
    0.20908E+06        -0.19534E+07         0.00000E+00
    0.00000E+00         0.00000E+00        -0.17083E+08
 
   -0.16904E+08         0.21262E+06         0.00000E+00
    0.21262E+06        -0.19535E+07         0.00000E+00
    0.00000E+00         0.00000E+00        -0.17025E+08
 
   -0.16846E+08         0.21607E+06         0.00000E+00
    0.21607E+06        -0.19537E+07         0.00000E+00
    0.00000E+00         0.00000E+00        -0.16965E+08
 
   -0.16787E+08         0.21940E+06         0.00000E+00
    0.21940E+06        -0.19540E+07         0.00000E+00
    0.00000E+00         0.00000E+00        -0.16905E+08
 
   -0.16727E+08         0.22260E+06         0.00000E+00
    0.22260E+06        -0.19543E+07         0.00000E+00
    0.00000E+00         0.00000E+00        -0.16843E+08
 
   -0.16667E+08         0.22564E+06         0.00000E+00
    0.22564E+06        -0.19546E+07         0.00000E+00
    0.00000E+00         0.00000E+00        -0.16779E+08
 
   -0.16605E+08         0.22852E+06         0.00000E+00
    0.22852E+06        -0.19549E+07         0.00000E+00
    0.00000E+00         0.00000E+00        -0.16714E+08
 
   -0.16542E+08         0.23120E+06         0.00000E+00
    0.23120E+06        -0.19553E+07         0.00000E+00
    0.00000E+00         0.00000E+00        -0.16648E+08
 
   -0.16479E+08         0.23365E+06         0.00000E+00
    0.23365E+06        -0.19558E+07         0.00000E+00
    0.00000E+00         0.00000E+00        -0.16581E+08
 
   -0.16415E+08         0.23587E+06         0.00000E+00
    0.23587E+06        -0.19563E+07         0.00000E+00
    0.00000E+00         0.00000E+00        -0.16512E+08
 
   -0.16350E+08         0.23780E+06         0.00000E+00
    0.23780E+06        -0.19568E+07         0.00000E+00
    0.00000E+00         0.00000E+00        -0.16441E+08
 
   -0.16284E+08         0.23942E+06         0.00000E+00
    0.23942E+06        -0.19574E+07         0.00000E+00
    0.00000E+00         0.00000E+00        -0.16370E+08
 
   -0.16218E+08         0.24071E+06         0.00000E+00
    0.24071E+06        -0.19581E+07         0.00000E+00
    0.00000E+00         0.00000E+00        -0.16297E+08
 
   -0.16152E+08         0.24160E+06         0.00000E+00
    0.24160E+06        -0.19589E+07         0.00000E+00
    0.00000E+00         0.00000E+00        -0.16222E+08
 
   -0.16085E+08         0.24207E+06         0.00000E+00
    0.24207E+06        -0.19598E+07         0.00000E+00
    0.00000E+00         0.00000E+00        -0.16147E+08
 
   -0.16018E+08         0.24206E+06         0.00000E+00
    0.24206E+06        -0.19607E+07         0.00000E+00
    0.00000E+00         0.00000E+00        -0.16070E+08
 
   -0.15951E+08         0.24152E+06         0.00000E+00
    0.24152E+06        -0.19618E+07         0.00000E+00
    0.00000E+00         0.00000E+00        -0.15992E+08
 
   -0.15883E+08         0.24038E+06         0.00000E+00
    0.24038E+06        -0.19631E+07         0.00000E+00
    0.00000E+00         0.00000E+00        -0.15913E+08
 
   -0.15816E+08         0.23857E+06         0.00000E+00
    0.23857E+06        -0.19644E+07         0.00000E+00
    0.00000E+00         0.00000E+00        -0.15833E+08
 
   -0.15749E+08         0.23602E+06         0.00000E+00
    0.23602E+06        -0.19660E+07         0.00000E+00
    0.00000E+00         0.00000E+00        -0.15752E+08
 
   -0.15683E+08         0.23264E+06         0.00000E+00
    0.23264E+06        -0.19678E+07         0.00000E+00
    0.00000E+00         0.00000E+00        -0.15670E+08
 
   -0.15617E+08         0.22832E+06         0.00000E+00
    0.22832E+06        -0.19698E+07         0.00000E+00
    0.00000E+00         0.00000E+00        -0.15587E+08
 
   -0.15552E+08         0.22295E+06         0.00000E+00
    0.22295E+06        -0.19720E+07         0.00000E+00
    0.00000E+00         0.00000E+00        -0.15503E+08
 
   -0.15488E+08         0.21641E+06         0.00000E+00
    0.21641E+06        -0.19746E+07         0.00000E+00
    0.00000E+00         0.00000E+00        -0.15419E+08
 
   -0.15425E+08         0.20857E+06         0.00000E+00
    0.20857E+06        -0.19775E+07         0.00000E+00
    0.00000E+00         0.00000E+00        -0.15334E+08
 
   -0.15363E+08         0.19929E+06         0.00000E+00
    0.19929E+06        -0.19807E+07         0.00000E+00
    0.00000E+00         0.00000E+00        -0.15249E+08
 
   -0.15304E+08         0.18842E+06         0.00000E+00
    0.18842E+06        -0.19843E+07         0.00000E+00
    0.00000E+00         0.00000E+00        -0.15163E+08
 
   -0.15246E+08         0.17581E+06         0.00000E+00
    0.17581E+06        -0.19883E+07         0.00000E+00
    0.00000E+00         0.00000E+00        -0.15077E+08
 
   -0.15190E+08         0.16134E+06         0.00000E+00
    0.16134E+06        -0.19925E+07         0.00000E+00
    0.00000E+00         0.00000E+00        -0.14991E+08
 
   -0.15137E+08         0.14492E+06         0.00000E+00
    0.14492E+06        -0.19971E+07         0.00000E+00
    0.00000E+00         0.00000E+00        -0.14904E+08
 
   -0.15086E+08         0.12649E+06         0.00000E+00
    0.12649E+06        -0.20017E+07         0.00000E+00
    0.00000E+00         0.00000E+00        -0.14818E+08
 
   -0.15038E+08         0.10611E+06         0.00000E+00
    0.10611E+06        -0.20062E+07         0.00000E+00
    0.00000E+00         0.00000E+00        -0.14732E+08
 
   -0.14993E+08         0.83955E+05         0.00000E+00
    0.83955E+05        -0.20103E+07         0.00000E+00
    0.00000E+00         0.00000E+00        -0.14646E+08
 
   -0.14951E+08         0.60381E+05         0.00000E+00
    0.60381E+05        -0.20135E+07         0.00000E+00
    0.00000E+00         0.00000E+00        -0.14560E+08
 
   -0.14913E+08         0.36025E+05         0.00000E+00
    0.36025E+05        -0.20152E+07         0.00000E+00
    0.00000E+00         0.00000E+00        -0.14474E+08
 
   -0.14878E+08         0.11891E+05         0.00000E+00
    0.11891E+05        -0.20146E+07         0.00000E+00
    0.00000E+00         0.00000E+00        -0.14387E+08
 
   -0.14845E+08        -0.10523E+05         0.00000E+00
   -0.10523E+05        -0.20106E+07         0.00000E+00
    0.00000E+00         0.00000E+00        -0.14300E+08
 
   -0.14816E+08        -0.29083E+05         0.00000E+00
   -0.29083E+05        -0.20014E+07         0.00000E+00
    0.00000E+00         0.00000E+00        -0.14212E+08
 
   -0.14788E+08        -0.40960E+05         0.00000E+00
   -0.40960E+05        -0.19846E+07         0.00000E+00
    0.00000E+00         0.00000E+00        -0.14122E+08
 
   -0.14764E+08        -0.42978E+05         0.00000E+00
   -0.42978E+05        -0.19555E+07         0.00000E+00
    0.00000E+00         0.00000E+00        -0.14029E+08
 
   -0.14745E+08        -0.33017E+05         0.00000E+00
   -0.33017E+05        -0.19073E+07         0.00000E+00
    0.00000E+00         0.00000E+00        -0.13931E+08
 
   -0.14734E+08        -0.12456E+05         0.00000E+00
   -0.12456E+05        -0.18311E+07         0.00000E+00
    0.00000E+00         0.00000E+00        -0.13828E+08
 
   -0.18593E+08        -0.99437E+03         0.00000E+00
   -0.99437E+03        -0.19740E+07         0.00000E+00
    0.00000E+00         0.00000E+00        -0.18764E+08
 
   -0.18591E+08        -0.23153E+04         0.00000E+00
   -0.23153E+04        -0.19635E+07         0.00000E+00
    0.00000E+00         0.00000E+00        -0.18750E+08
 
   -0.18588E+08        -0.20280E+04         0.00000E+00
   -0.20280E+04        -0.19570E+07         0.00000E+00
    0.00000E+00         0.00000E+00        -0.18736E+08
 
   -0.18583E+08         0.27843E+02         0.00000E+00
    0.27843E+02        -0.19533E+07         0.00000E+00
    0.00000E+00         0.00000E+00        -0.18722E+08
 
   -0.18578E+08         0.34936E+04         0.00000E+00
    0.34936E+04        -0.19512E+07         0.00000E+00
    0.00000E+00         0.00000E+00        -0.18709E+08
 
   -0.18572E+08         0.78902E+04         0.00000E+00
    0.78902E+04        -0.19501E+07         0.00000E+00
    0.00000E+00         0.00000E+00        -0.18695E+08
 
   -0.18565E+08         0.12816E+05         0.00000E+00
    0.12816E+05        -0.19496E+07         0.00000E+00
    0.00000E+00         0.00000E+00        -0.18682E+08
 
   -0.18557E+08         0.17977E+05         0.00000E+00
    0.17977E+05        -0.19495E+07         0.00000E+00
    0.00000E+00         0.00000E+00        -0.18668E+08
 
   -0.18549E+08         0.23176E+05         0.00000E+00
    0.23176E+05        -0.19498E+07         0.00000E+00
    0.00000E+00         0.00000E+00        -0.18654E+08
 
   -0.18539E+08         0.28280E+05         0.00000E+00
    0.28280E+05        -0.19502E+07         0.00000E+00
    0.00000E+00         0.00000E+00        -0.18640E+08
 
   -0.18528E+08         0.33211E+05         0.00000E+00
    0.33211E+05        -0.19507E+07         0.00000E+00
    0.00000E+00         0.00000E+00        -0.18625E+08
 
   -0.18517E+08         0.37926E+05         0.00000E+00
    0.37926E+05        -0.19512E+07         0.00000E+00
    0.00000E+00         0.00000E+00        -0.18610E+08
 
   -0.18504E+08         0.42408E+05         0.00000E+00
    0.42408E+05        -0.19517E+07         0.00000E+00
    0.00000E+00         0.00000E+00        -0.18594E+08
 
   -0.18491E+08         0.46658E+05         0.00000E+00
    0.46658E+05        -0.19522E+07         0.00000E+00
    0.00000E+00         0.00000E+00        -0.18578E+08
 
   -0.18476E+08         0.50688E+05         0.00000E+00
    0.50688E+05        -0.19527E+07         0.00000E+00
    0.00000E+00         0.00000E+00        -0.18562E+08
 
   -0.18461E+08         0.54515E+05         0.00000E+00
    0.54515E+05        -0.19531E+07         0.00000E+00
    0.00000E+00         0.00000E+00        -0.18545E+08
 
   -0.18444E+08         0.58164E+05         0.00000E+00
    0.58164E+05        -0.19535E+07         0.00000E+00
    0.00000E+00         0.00000E+00        -0.18527E+08
 
   -0.18427E+08         0.61656E+05         0.00000E+00
    0.61656E+05        -0.19538E+07         0.00000E+00
    0.00000E+00         0.00000E+00        -0.18509E+08
 
   -0.18409E+08         0.65017E+05         0.00000E+00
    0.65017E+05        -0.19540E+07         0.00000E+00
    0.00000E+00         0.00000E+00        -0.18490E+08
 
   -0.18390E+08         0.68268E+05         0.00000E+00
    0.68268E+05        -0.19542E+07         0.00000E+00
    0.00000E+00         0.00000E+00        -0.18471E+08
 
   -0.18371E+08         0.71430E+05         0.00000E+00
    0.71430E+05        -0.19544E+07         0.00000E+00
    0.00000E+00         0.00000E+00        -0.18451E+08
 
   -0.18350E+08         0.74522E+05         0.00000E+00
    0.74522E+05        -0.19545E+07         0.00000E+00
    0.00000E+00         0.00000E+00        -0.18430E+08
 
   -0.18329E+08         0.77562E+05         0.00000E+00
    0.77562E+05        -0.19546E+07         0.00000E+00
    0.00000E+00         0.00000E+00        -0.18409E+08
 
   -0.18306E+08         0.80563E+05         0.00000E+00
    0.80563E+05        -0.19547E+07         0.00000E+00
    0.00000E+00         0.00000E+00        -0.18388E+08
 
   -0.18283E+08         0.83539E+05         0.00000E+00
    0.83539E+05        -0.19547E+07         0.00000E+00
    0.00000E+00         0.00000E+00        -0.18365E+08
 
   -0.18260E+08         0.86502E+05         0.00000E+00
    0.86502E+05        -0.19547E+07         0.00000E+00
    0.00000E+00         0.00000E+00        -0.18342E+08
 
   -0.18235E+08         0.89461E+05         0.00000E+00
    0.89461E+05        -0.19547E+07         0.00000E+00
    0.00000E+00         0.00000E+00        -0.18319E+08
 
   -0.18209E+08         0.92424E+05         0.00000E+00
    0.92424E+05        -0.19547E+07         0.00000E+00
    0.00000E+00         0.00000E+00        -0.18294E+08
 
   -0.18183E+08         0.95400E+05         0.00000E+00
    0.95400E+05        -0.19547E+07         0.00000E+00
    0.00000E+00         0.00000E+00        -0.18270E+08
 
   -0.18156E+08         0.98394E+05         0.00000E+00
    0.98394E+05        -0.19546E+07         0.00000E+00
    0.00000E+00         0.00000E+00        -0.18244E+08
 
   -0.18128E+08         0.10141E+06         0.00000E+00
    0.10141E+06        -0.19546E+07         0.00000E+00
    0.00000E+00         0.00000E+00        -0.18217E+08
 
   -0.18099E+08         0.10446E+06         0.00000E+00
    0.10446E+06        -0.19546E+07         0.00000E+00
    0.00000E+00         0.00000E+00        -0.18190E+08
 
   -0.18070E+08         0.10753E+06         0.00000E+00
    0.10753E+06        -0.19545E+07         0.00000E+00
    0.00000E+00         0.00000E+00        -0.18162E+08
 
   -0.18039E+08         0.11064E+06         0.00000E+00
    0.11064E+06        -0.19544E+07         0.00000E+00
    0.00000E+00         0.00000E+00        -0.18133E+08
 
   -0.18008E+08         0.11379E+06         0.00000E+00
    0.11379E+06        -0.19544E+07         0.00000E+00
    0.00000E+00         0.00000E+00        -0.18104E+08
 
   -0.17975E+08         0.11698E+06         0.00000E+00
    0.11698E+06        -0.19543E+07         0.00000E+00
    0.00000E+00         0.00000E+00        -0.18073E+08
 
   -0.17942E+08         0.12021E+06         0.00000E+00
    0.12021E+06        -0.19542E+07         0.00000E+00
    0.00000E+00         0.00000E+00        -0.18042E+08
 
   -0.17908E+08         0.12347E+06         0.00000E+00
    0.12347E+06        -0.19542E+07         0.00000E+00
    0.00000E+00         0.00000E+00        -0.18010E+08
 
   -0.17873E+08         0.12678E+06         0.00000E+00
    0.12678E+06        -0.19541E+07         0.00000E+00
    0.00000E+00         0.00000E+00        -0.17976E+08
 
   -0.17837E+08         0.13014E+06         0.00000E+00
    0.13014E+06        -0.19540E+07         0.00000E+00
    0.00000E+00         0.00000E+00        -0.17942E+08
 
   -0.17800E+08         0.13353E+06         0.00000E+00
    0.13353E+06        -0.19539E+07         0.00000E+00
    0.00000E+00         0.00000E+00        -0.17907E+08
 
   -0.17762E+08         0.13696E+06         0.00000E+00
    0.13696E+06        -0.19539E+07         0.00000E+00
    0.00000E+00         0.00000E+00        -0.17871E+08
 
   -0.17723E+08         0.14043E+06         0.00000E+00
    0.14043E+06        -0.19538E+07         0.00000E+00
    0.00000E+00         0.00000E+00        -0.17834E+08
 
   -0.17683E+08         0.14394E+06         0.00000E+00
    0.14394E+06        -0.19537E+07         0.00000E+00
    0.00000E+00         0.00000E+00        -0.17796E+08
 
   -0.17642E+08         0.14748E+06         0.00000E+00
    0.14748E+06        -0.19537E+07         0.00000E+00
    0.00000E+00         0.00000E+00        -0.17756E+08
 
   -0.17600E+08         0.15105E+06         0.00000E+00
    0.15105E+06        -0.19536E+07         0.00000E+00
    0.00000E+00         0.00000E+00        -0.17716E+08
 
   -0.17557E+08         0.15464E+06         0.00000E+00
    0.15464E+06        -0.19536E+07         0.00000E+00
    0.00000E+00         0.00000E+00        -0.17674E+08
 
   -0.17513E+08         0.15826E+06         0.00000E+00
    0.15826E+06        -0.19536E+07         0.00000E+00
    0.00000E+00         0.00000E+00        -0.17632E+08
 
   -0.17467E+08         0.16190E+06         0.00000E+00
    0.16190E+06        -0.19535E+07         0.00000E+00
    0.00000E+00         0.00000E+00        -0.17588E+08
 
   -0.17421E+08         0.16555E+06         0.00000E+00
    0.16555E+06        -0.19535E+07         0.00000E+00
    0.00000E+00         0.00000E+00        -0.17543E+08
 
   -0.17374E+08         0.16921E+06         0.00000E+00
    0.16921E+06        -0.19535E+07         0.00000E+00
    0.00000E+00         0.00000E+00        -0.17497E+08
 
   -0.17325E+08         0.17287E+06         0.00000E+00
    0.17287E+06        -0.19535E+07         0.00000E+00
    0.00000E+00         0.00000E+00        -0.17449E+08
 
   -0.17276E+08         0.17652E+06         0.00000E+00
    0.17652E+06        -0.19536E+07         0.00000E+00
    0.00000E+00         0.00000E+00        -0.17401E+08
 
   -0.17225E+08         0.18016E+06         0.00000E+00
    0.18016E+06        -0.19536E+07         0.00000E+00
    0.00000E+00         0.00000E+00        -0.17351E+08
 
   -0.17174E+08         0.18378E+06         0.00000E+00
    0.18378E+06        -0.19536E+07         0.00000E+00
    0.00000E+00         0.00000E+00        -0.17300E+08
 
   -0.17121E+08         0.18736E+06         0.00000E+00
    0.18736E+06        -0.19537E+07         0.00000E+00
    0.00000E+00         0.00000E+00        -0.17247E+08
 
   -0.17067E+08         0.19090E+06         0.00000E+00
    0.19090E+06        -0.19538E+07         0.00000E+00
    0.00000E+00         0.00000E+00        -0.17193E+08
 
   -0.17013E+08         0.19438E+06         0.00000E+00
    0.19438E+06        -0.19539E+07         0.00000E+00
    0.00000E+00         0.00000E+00        -0.17138E+08
 
   -0.16957E+08         0.19780E+06         0.00000E+00
    0.19780E+06        -0.19541E+07         0.00000E+00
    0.00000E+00         0.00000E+00        -0.17081E+08
 
   -0.16900E+08         0.20114E+06         0.00000E+00
    0.20114E+06        -0.19542E+07         0.00000E+00
    0.00000E+00         0.00000E+00        -0.17023E+08
 
   -0.16842E+08         0.20439E+06         0.00000E+00
    0.20439E+06        -0.19544E+07         0.00000E+00
    0.00000E+00         0.00000E+00        -0.16964E+08
 
   -0.16783E+08         0.20752E+06         0.00000E+00
    0.20752E+06        -0.19546E+07         0.00000E+00
    0.00000E+00         0.00000E+00        -0.16904E+08
 
   -0.16723E+08         0.21053E+06         0.00000E+00
    0.21053E+06        -0.19549E+07         0.00000E+00
    0.00000E+00         0.00000E+00        -0.16841E+08
 
   -0.16662E+08         0.21339E+06         0.00000E+00
    0.21339E+06        -0.19551E+07         0.00000E+00
    0.00000E+00         0.00000E+00        -0.16778E+08
 
   -0.16601E+08         0.21609E+06         0.00000E+00
    0.21609E+06        -0.19555E+07         0.00000E+00
    0.00000E+00         0.00000E+00        -0.16713E+08
 
   -0.16538E+08         0.21860E+06         0.00000E+00
    0.21860E+06        -0.19558E+07         0.00000E+00
    0.00000E+00         0.00000E+00        -0.16647E+08
 
   -0.16475E+08         0.22091E+06         0.00000E+00
    0.22091E+06        -0.19562E+07         0.00000E+00
    0.00000E+00         0.00000E+00        -0.16579E+08
 
   -0.16411E+08         0.22297E+06         0.00000E+00
    0.22297E+06        -0.19567E+07         0.00000E+00
    0.00000E+00         0.00000E+00        -0.16511E+08
 
   -0.16346E+08         0.22478E+06         0.00000E+00
    0.22478E+06        -0.19572E+07         0.00000E+00
    0.00000E+00         0.00000E+00        -0.16440E+08
 
   -0.16281E+08         0.22629E+06         0.00000E+00
    0.22629E+06        -0.19577E+07         0.00000E+00
    0.00000E+00         0.00000E+00        -0.16369E+08
 
   -0.16215E+08         0.22747E+06         0.00000E+00
    0.22747E+06        -0.19583E+07         0.00000E+00
    0.00000E+00         0.00000E+00        -0.16296E+08
 
   -0.16149E+08         0.22828E+06         0.00000E+00
    0.22828E+06        -0.19590E+07         0.00000E+00
    0.00000E+00         0.00000E+00        -0.16221E+08
 
   -0.16082E+08         0.22869E+06         0.00000E+00
    0.22869E+06        -0.19598E+07         0.00000E+00
    0.00000E+00         0.00000E+00        -0.16146E+08
 
   -0.16015E+08         0.22864E+06         0.00000E+00
    0.22864E+06        -0.19607E+07         0.00000E+00
    0.00000E+00         0.00000E+00        -0.16069E+08
 
   -0.15948E+08         0.22808E+06         0.00000E+00
    0.22808E+06        -0.19617E+07         0.00000E+00
    0.00000E+00         0.00000E+00        -0.15991E+08
 
   -0.15881E+08         0.22696E+06         0.00000E+00
    0.22696E+06        -0.19628E+07         0.00000E+00
    0.00000E+00         0.00000E+00        -0.15912E+08
 
   -0.15814E+08         0.22519E+06         0.00000E+00
    0.22519E+06        -0.19640E+07         0.00000E+00
    0.00000E+00         0.00000E+00        -0.15832E+08
 
   -0.15748E+08         0.22272E+06         0.00000E+00
    0.22272E+06        -0.19654E+07         0.00000E+00
    0.00000E+00         0.00000E+00        -0.15751E+08
 
   -0.15682E+08         0.21944E+06         0.00000E+00
    0.21944E+06        -0.19670E+07         0.00000E+00
    0.00000E+00         0.00000E+00        -0.15669E+08
 
   -0.15616E+08         0.21527E+06         0.00000E+00
    0.21527E+06        -0.19688E+07         0.00000E+00
    0.00000E+00         0.00000E+00        -0.15587E+08
 
   -0.15552E+08         0.21009E+06         0.00000E+00
    0.21009E+06        -0.19709E+07         0.00000E+00
    0.00000E+00         0.00000E+00        -0.15503E+08
 
   -0.15488E+08         0.20378E+06         0.00000E+00
    0.20378E+06        -0.19732E+07         0.00000E+00
    0.00000E+00         0.00000E+00        -0.15419E+08
 
   -0.15426E+08         0.19622E+06         0.00000E+00
    0.19622E+06        -0.19758E+07         0.00000E+00
    0.00000E+00         0.00000E+00        -0.15334E+08
 
   -0.15365E+08         0.18725E+06         0.00000E+00
    0.18725E+06        -0.19787E+07         0.00000E+00
    0.00000E+00         0.00000E+00        -0.15249E+08
 
   -0.15307E+08         0.17675E+06         0.00000E+00
    0.17675E+06        -0.19820E+07         0.00000E+00
    0.00000E+00         0.00000E+00        -0.15163E+08
 
   -0.15250E+08         0.16456E+06         0.00000E+00
    0.16456E+06        -0.19856E+07         0.00000E+00
    0.00000E+00         0.00000E+00        -0.15077E+08
 
   -0.15195E+08         0.15056E+06         0.00000E+00
    0.15056E+06        -0.19895E+07         0.00000E+00
    0.00000E+00         0.00000E+00        -0.14991E+08
 
   -0.15144E+08         0.13465E+06         0.00000E+00
    0.13465E+06        -0.19936E+07         0.00000E+00
    0.00000E+00         0.00000E+00        -0.14905E+08
 
   -0.15094E+08         0.11679E+06         0.00000E+00
    0.11679E+06        -0.19979E+07         0.00000E+00
    0.00000E+00         0.00000E+00        -0.14820E+08
 
   -0.15048E+08         0.97022E+05         0.00000E+00
    0.97022E+05        -0.20020E+07         0.00000E+00
    0.00000E+00         0.00000E+00        -0.14734E+08
 
   -0.15006E+08         0.75505E+05         0.00000E+00
    0.75505E+05        -0.20058E+07         0.00000E+00
    0.00000E+00         0.00000E+00        -0.14648E+08
 
   -0.14966E+08         0.52593E+05         0.00000E+00
    0.52593E+05        -0.20087E+07         0.00000E+00
    0.00000E+00         0.00000E+00        -0.14563E+08
 
   -0.14930E+08         0.28902E+05         0.00000E+00
    0.28902E+05        -0.20104E+07         0.00000E+00
    0.00000E+00         0.00000E+00        -0.14477E+08
 
   -0.14898E+08         0.54050E+04         0.00000E+00
    0.54050E+04        -0.20100E+07         0.00000E+00
    0.00000E+00         0.00000E+00        -0.14392E+08
 
   -0.14868E+08        -0.16434E+05         0.00000E+00
   -0.16434E+05        -0.20064E+07         0.00000E+00
    0.00000E+00         0.00000E+00        -0.14306E+08
 
   -0.14841E+08        -0.34508E+05         0.00000E+00
   -0.34508E+05        -0.19983E+07         0.00000E+00
    0.00000E+00         0.00000E+00        -0.14219E+08
 
   -0.14817E+08        -0.45948E+05         0.00000E+00
   -0.45948E+05        -0.19831E+07         0.00000E+00
    0.00000E+00         0.00000E+00        -0.14130E+08
 
   -0.14794E+08        -0.47359E+05         0.00000E+00
   -0.47359E+05        -0.19564E+07         0.00000E+00
    0.00000E+00         0.00000E+00        -0.14038E+08
 
   -0.14776E+08        -0.36215E+05         0.00000E+00
   -0.36215E+05        -0.19107E+07         0.00000E+00
    0.00000E+00         0.00000E+00        -0.13942E+08
 
   -0.14765E+08        -0.13658E+05         0.00000E+00
   -0.13658E+05        -0.18362E+07         0.00000E+00
    0.00000E+00         0.00000E+00        -0.13839E+08
 
   -0.18588E+08        -0.12063E+04         0.00000E+00
   -0.12063E+04        -0.19736E+07         0.00000E+00
    0.00000E+00         0.00000E+00        -0.18762E+08
 
   -0.18586E+08        -0.28845E+04         0.00000E+00
   -0.28845E+04        -0.19633E+07         0.00000E+00
    0.00000E+00         0.00000E+00        -0.18748E+08
 
   -0.18582E+08        -0.28277E+04         0.00000E+00
   -0.28277E+04        -0.19573E+07         0.00000E+00
    0.00000E+00         0.00000E+00        -0.18734E+08
 
   -0.18578E+08        -0.92227E+03         0.00000E+00
   -0.92227E+03        -0.19539E+07         0.00000E+00
    0.00000E+00         0.00000E+00        -0.18721E+08
 
   -0.18573E+08         0.24060E+04         0.00000E+00
    0.24060E+04        -0.19520E+07         0.00000E+00
    0.00000E+00         0.00000E+00        -0.18707E+08
 
   -0.18567E+08         0.66469E+04         0.00000E+00
    0.66469E+04        -0.19510E+07         0.00000E+00
    0.00000E+00         0.00000E+00        -0.18694E+08
 
   -0.18561E+08         0.11396E+05         0.00000E+00
    0.11396E+05        -0.19506E+07         0.00000E+00
    0.00000E+00         0.00000E+00        -0.18681E+08
 
   -0.18554E+08         0.16367E+05         0.00000E+00
    0.16367E+05        -0.19506E+07         0.00000E+00
    0.00000E+00         0.00000E+00        -0.18668E+08
 
   -0.18545E+08         0.21367E+05         0.00000E+00
    0.21367E+05        -0.19508E+07         0.00000E+00
    0.00000E+00         0.00000E+00        -0.18654E+08
 
   -0.18536E+08         0.26270E+05         0.00000E+00
    0.26270E+05        -0.19512E+07         0.00000E+00
    0.00000E+00         0.00000E+00        -0.18639E+08
 
   -0.18525E+08         0.31000E+05         0.00000E+00
    0.31000E+05        -0.19516E+07         0.00000E+00
    0.00000E+00         0.00000E+00        -0.18625E+08
 
   -0.18514E+08         0.35516E+05         0.00000E+00
    0.35516E+05        -0.19521E+07         0.00000E+00
    0.00000E+00         0.00000E+00        -0.18610E+08
 
   -0.18501E+08         0.39803E+05         0.00000E+00
    0.39803E+05        -0.19526E+07         0.00000E+00
    0.00000E+00         0.00000E+00        -0.18594E+08
 
   -0.18488E+08         0.43862E+05         0.00000E+00
    0.43862E+05        -0.19530E+07         0.00000E+00
    0.00000E+00         0.00000E+00        -0.18578E+08
 
   -0.18474E+08         0.47705E+05         0.00000E+00
    0.47705E+05        -0.19535E+07         0.00000E+00
    0.00000E+00         0.00000E+00        -0.18561E+08
 
   -0.18458E+08         0.51350E+05         0.00000E+00
    0.51350E+05        -0.19538E+07         0.00000E+00
    0.00000E+00         0.00000E+00        -0.18544E+08
 
   -0.18442E+08         0.54819E+05         0.00000E+00
    0.54819E+05        -0.19542E+07         0.00000E+00
    0.00000E+00         0.00000E+00        -0.18526E+08
 
   -0.18425E+08         0.58136E+05         0.00000E+00
    0.58136E+05        -0.19544E+07         0.00000E+00
    0.00000E+00         0.00000E+00        -0.18508E+08
 
   -0.18407E+08         0.61324E+05         0.00000E+00
    0.61324E+05        -0.19547E+07         0.00000E+00
    0.00000E+00         0.00000E+00        -0.18489E+08
 
   -0.18388E+08         0.64406E+05         0.00000E+00
    0.64406E+05        -0.19548E+07         0.00000E+00
    0.00000E+00         0.00000E+00        -0.18470E+08
 
   -0.18368E+08         0.67401E+05         0.00000E+00
    0.67401E+05        -0.19550E+07         0.00000E+00
    0.00000E+00         0.00000E+00        -0.18450E+08
 
   -0.18348E+08         0.70327E+05         0.00000E+00
    0.70327E+05        -0.19551E+07         0.00000E+00
    0.00000E+00         0.00000E+00        -0.18430E+08
 
   -0.18326E+08         0.73202E+05         0.00000E+00
    0.73202E+05        -0.19552E+07         0.00000E+00
    0.00000E+00         0.00000E+00        -0.18409E+08
 
   -0.18304E+08         0.76039E+05         0.00000E+00
    0.76039E+05        -0.19552E+07         0.00000E+00
    0.00000E+00         0.00000E+00        -0.18387E+08
 
   -0.18281E+08         0.78852E+05         0.00000E+00
    0.78852E+05        -0.19553E+07         0.00000E+00
    0.00000E+00         0.00000E+00        -0.18365E+08
 
   -0.18257E+08         0.81651E+05         0.00000E+00
    0.81651E+05        -0.19553E+07         0.00000E+00
    0.00000E+00         0.00000E+00        -0.18342E+08
 
   -0.18232E+08         0.84445E+05         0.00000E+00
    0.84445E+05        -0.19553E+07         0.00000E+00
    0.00000E+00         0.00000E+00        -0.18318E+08
 
   -0.18207E+08         0.87244E+05         0.00000E+00
    0.87244E+05        -0.19553E+07         0.00000E+00
    0.00000E+00         0.00000E+00        -0.18294E+08
 
   -0.18181E+08         0.90053E+05         0.00000E+00
    0.90053E+05        -0.19553E+07         0.00000E+00
    0.00000E+00         0.00000E+00        -0.18269E+08
 
   -0.18153E+08         0.92879E+05         0.00000E+00
    0.92879E+05        -0.19552E+07         0.00000E+00
    0.00000E+00         0.00000E+00        -0.18243E+08
 
   -0.18125E+08         0.95727E+05         0.00000E+00
    0.95727E+05        -0.19552E+07         0.00000E+00
    0.00000E+00         0.00000E+00        -0.18217E+08
 
   -0.18096E+08         0.98600E+05         0.00000E+00
    0.98600E+05        -0.19551E+07         0.00000E+00
    0.00000E+00         0.00000E+00        -0.18189E+08
 
   -0.18067E+08         0.10150E+06         0.00000E+00
    0.10150E+06        -0.19551E+07         0.00000E+00
    0.00000E+00         0.00000E+00        -0.18161E+08
 
   -0.18036E+08         0.10444E+06         0.00000E+00
    0.10444E+06        -0.19550E+07         0.00000E+00
    0.00000E+00         0.00000E+00        -0.18133E+08
 
   -0.18005E+08         0.10741E+06         0.00000E+00
    0.10741E+06        -0.19550E+07         0.00000E+00
    0.00000E+00         0.00000E+00        -0.18103E+08
 
   -0.17972E+08         0.11042E+06         0.00000E+00
    0.11042E+06        -0.19549E+07         0.00000E+00
    0.00000E+00         0.00000E+00        -0.18072E+08
 
   -0.17939E+08         0.11346E+06         0.00000E+00
    0.11346E+06        -0.19549E+07         0.00000E+00
    0.00000E+00         0.00000E+00        -0.18041E+08
 
   -0.17905E+08         0.11654E+06         0.00000E+00
    0.11654E+06        -0.19548E+07         0.00000E+00
    0.00000E+00         0.00000E+00        -0.18009E+08
 
   -0.17869E+08         0.11966E+06         0.00000E+00
    0.11966E+06        -0.19547E+07         0.00000E+00
    0.00000E+00         0.00000E+00        -0.17976E+08
 
   -0.17833E+08         0.12282E+06         0.00000E+00
    0.12282E+06        -0.19547E+07         0.00000E+00
    0.00000E+00         0.00000E+00        -0.17941E+08
 
   -0.17796E+08         0.12602E+06         0.00000E+00
    0.12602E+06        -0.19546E+07         0.00000E+00
    0.00000E+00         0.00000E+00        -0.17906E+08
 
   -0.17758E+08         0.12926E+06         0.00000E+00
    0.12926E+06        -0.19545E+07         0.00000E+00
    0.00000E+00         0.00000E+00        -0.17870E+08
 
   -0.17719E+08         0.13253E+06         0.00000E+00
    0.13253E+06        -0.19545E+07         0.00000E+00
    0.00000E+00         0.00000E+00        -0.17833E+08
 
   -0.17679E+08         0.13583E+06         0.00000E+00
    0.13583E+06        -0.19544E+07         0.00000E+00
    0.00000E+00         0.00000E+00        -0.17795E+08
 
   -0.17638E+08         0.13917E+06         0.00000E+00
    0.13917E+06        -0.19544E+07         0.00000E+00
    0.00000E+00         0.00000E+00        -0.17755E+08
 
   -0.17596E+08         0.14253E+06         0.00000E+00
    0.14253E+06        -0.19543E+07         0.00000E+00
    0.00000E+00         0.00000E+00        -0.17715E+08
 
   -0.17553E+08         0.14592E+06         0.00000E+00
    0.14592E+06        -0.19543E+07         0.00000E+00
    0.00000E+00         0.00000E+00        -0.17673E+08
 
   -0.17509E+08         0.14933E+06         0.00000E+00
    0.14933E+06        -0.19543E+07         0.00000E+00
    0.00000E+00         0.00000E+00        -0.17631E+08
 
   -0.17463E+08         0.15275E+06         0.00000E+00
    0.15275E+06        -0.19542E+07         0.00000E+00
    0.00000E+00         0.00000E+00        -0.17587E+08
 
   -0.17417E+08         0.15619E+06         0.00000E+00
    0.15619E+06        -0.19542E+07         0.00000E+00
    0.00000E+00         0.00000E+00        -0.17542E+08
 
   -0.17370E+08         0.15964E+06         0.00000E+00
    0.15964E+06        -0.19542E+07         0.00000E+00
    0.00000E+00         0.00000E+00        -0.17496E+08
 
   -0.17321E+08         0.16308E+06         0.00000E+00
    0.16308E+06        -0.19542E+07         0.00000E+00
    0.00000E+00         0.00000E+00        -0.17448E+08
 
   -0.17272E+08         0.16652E+06         0.00000E+00
    0.16652E+06        -0.19543E+07         0.00000E+00
    0.00000E+00         0.00000E+00        -0.17400E+08
 
   -0.17221E+08         0.16994E+06         0.00000E+00
    0.16994E+06        -0.19543E+07         0.00000E+00
    0.00000E+00         0.00000E+00        -0.17350E+08
 
   -0.17169E+08         0.17334E+06         0.00000E+00
    0.17334E+06        -0.19543E+07         0.00000E+00
    0.00000E+00         0.00000E+00        -0.17298E+08
 
   -0.17117E+08         0.17671E+06         0.00000E+00
    0.17671E+06        -0.19544E+07         0.00000E+00
    0.00000E+00         0.00000E+00        -0.17246E+08
 
   -0.17063E+08         0.18004E+06         0.00000E+00
    0.18004E+06        -0.19545E+07         0.00000E+00
    0.00000E+00         0.00000E+00        -0.17192E+08
 
   -0.17008E+08         0.18331E+06         0.00000E+00
    0.18331E+06        -0.19546E+07         0.00000E+00
    0.00000E+00         0.00000E+00        -0.17137E+08
 
   -0.16952E+08         0.18653E+06         0.00000E+00
    0.18653E+06        -0.19547E+07         0.00000E+00
    0.00000E+00         0.00000E+00        -0.17080E+08
 
   -0.16895E+08         0.18966E+06         0.00000E+00
    0.18966E+06        -0.19549E+07         0.00000E+00
    0.00000E+00         0.00000E+00        -0.17022E+08
 
   -0.16837E+08         0.19271E+06         0.00000E+00
    0.19271E+06        -0.19550E+07         0.00000E+00
    0.00000E+00         0.00000E+00        -0.16963E+08
 
   -0.16779E+08         0.19565E+06         0.00000E+00
    0.19565E+06        -0.19552E+07         0.00000E+00
    0.00000E+00         0.00000E+00        -0.16902E+08
 
   -0.16719E+08         0.19847E+06         0.00000E+00
    0.19847E+06        -0.19554E+07         0.00000E+00
    0.00000E+00         0.00000E+00        -0.16840E+08
 
   -0.16658E+08         0.20115E+06         0.00000E+00
    0.20115E+06        -0.19557E+07         0.00000E+00
    0.00000E+00         0.00000E+00        -0.16777E+08
 
   -0.16596E+08         0.20368E+06         0.00000E+00
    0.20368E+06        -0.19560E+07         0.00000E+00
    0.00000E+00         0.00000E+00        -0.16712E+08
 
   -0.16534E+08         0.20603E+06         0.00000E+00
    0.20603E+06        -0.19563E+07         0.00000E+00
    0.00000E+00         0.00000E+00        -0.16646E+08
 
   -0.16471E+08         0.20818E+06         0.00000E+00
    0.20818E+06        -0.19566E+07         0.00000E+00
    0.00000E+00         0.00000E+00        -0.16578E+08
 
   -0.16407E+08         0.21010E+06         0.00000E+00
    0.21010E+06        -0.19570E+07         0.00000E+00
    0.00000E+00         0.00000E+00        -0.16509E+08
 
   -0.16342E+08         0.21178E+06         0.00000E+00
    0.21178E+06        -0.19575E+07         0.00000E+00
    0.00000E+00         0.00000E+00        -0.16439E+08
 
   -0.16277E+08         0.21318E+06         0.00000E+00
    0.21318E+06        -0.19580E+07         0.00000E+00
    0.00000E+00         0.00000E+00        -0.16368E+08
 
   -0.16211E+08         0.21426E+06         0.00000E+00
    0.21426E+06        -0.19585E+07         0.00000E+00
    0.00000E+00         0.00000E+00        -0.16295E+08
 
   -0.16145E+08         0.21500E+06         0.00000E+00
    0.21500E+06        -0.19592E+07         0.00000E+00
    0.00000E+00         0.00000E+00        -0.16221E+08
 
   -0.16079E+08         0.21535E+06         0.00000E+00
    0.21535E+06        -0.19599E+07         0.00000E+00
    0.00000E+00         0.00000E+00        -0.16145E+08
 
   -0.16012E+08         0.21527E+06         0.00000E+00
    0.21527E+06        -0.19606E+07         0.00000E+00
    0.00000E+00         0.00000E+00        -0.16068E+08
 
   -0.15945E+08         0.21470E+06         0.00000E+00
    0.21470E+06        -0.19615E+07         0.00000E+00
    0.00000E+00         0.00000E+00        -0.15991E+08
 
   -0.15879E+08         0.21360E+06         0.00000E+00
    0.21360E+06        -0.19625E+07         0.00000E+00
    0.00000E+00         0.00000E+00        -0.15912E+08
 
   -0.15812E+08         0.21189E+06         0.00000E+00
    0.21189E+06        -0.19636E+07         0.00000E+00
    0.00000E+00         0.00000E+00        -0.15832E+08
 
   -0.15746E+08         0.20949E+06         0.00000E+00
    0.20949E+06        -0.19649E+07         0.00000E+00
    0.00000E+00         0.00000E+00        -0.15751E+08
 
   -0.15680E+08         0.20634E+06         0.00000E+00
    0.20634E+06        -0.19663E+07         0.00000E+00
    0.00000E+00         0.00000E+00        -0.15669E+08
 
   -0.15615E+08         0.20232E+06         0.00000E+00
    0.20232E+06        -0.19679E+07         0.00000E+00
    0.00000E+00         0.00000E+00        -0.15586E+08
 
   -0.15551E+08         0.19734E+06         0.00000E+00
    0.19734E+06        -0.19697E+07         0.00000E+00
    0.00000E+00         0.00000E+00        -0.15503E+08
 
   -0.15489E+08         0.19128E+06         0.00000E+00
    0.19128E+06        -0.19718E+07         0.00000E+00
    0.00000E+00         0.00000E+00        -0.15419E+08
 
   -0.15427E+08         0.18401E+06         0.00000E+00
    0.18401E+06        -0.19742E+07         0.00000E+00
    0.00000E+00         0.00000E+00        -0.15334E+08
 
   -0.15367E+08         0.17539E+06         0.00000E+00
    0.17539E+06        -0.19768E+07         0.00000E+00
    0.00000E+00         0.00000E+00        -0.15249E+08
 
   -0.15309E+08         0.16528E+06         0.00000E+00
    0.16528E+06        -0.19798E+07         0.00000E+00
    0.00000E+00         0.00000E+00        -0.15163E+08
 
   -0.15254E+08         0.15354E+06         0.00000E+00
    0.15354E+06        -0.19830E+07         0.00000E+00
    0.00000E+00         0.00000E+00        -0.15078E+08
 
   -0.15200E+08         0.14004E+06         0.00000E+00
    0.14004E+06        -0.19866E+07         0.00000E+00
    0.00000E+00         0.00000E+00        -0.14992E+08
 
   -0.15150E+08         0.12469E+06         0.00000E+00
    0.12469E+06        -0.19903E+07         0.00000E+00
    0.00000E+00         0.00000E+00        -0.14906E+08
 
   -0.15103E+08         0.10744E+06         0.00000E+00
    0.10744E+06        -0.19942E+07         0.00000E+00
    0.00000E+00         0.00000E+00        -0.14821E+08
 
   -0.15058E+08         0.88327E+05         0.00000E+00
    0.88327E+05        -0.19979E+07         0.00000E+00
    0.00000E+00         0.00000E+00        -0.14736E+08
 
   -0.15018E+08         0.67501E+05         0.00000E+00
    0.67501E+05        -0.20014E+07         0.00000E+00
    0.00000E+00         0.00000E+00        -0.14651E+08
 
   -0.14981E+08         0.45303E+05         0.00000E+00
    0.45303E+05        -0.20041E+07         0.00000E+00
    0.00000E+00         0.00000E+00        -0.14566E+08
 
   -0.14947E+08         0.22322E+05         0.00000E+00
    0.22322E+05        -0.20057E+07         0.00000E+00
    0.00000E+00         0.00000E+00        -0.14481E+08
 
   -0.14918E+08        -0.50361E+03         0.00000E+00
   -0.50361E+03        -0.20054E+07         0.00000E+00
    0.00000E+00         0.00000E+00        -0.14396E+08
 
   -0.14891E+08        -0.21758E+05         0.00000E+00
   -0.21758E+05        -0.20024E+07         0.00000E+00
    0.00000E+00         0.00000E+00        -0.14311E+08
 
   -0.14867E+08        -0.39381E+05         0.00000E+00
   -0.39381E+05        -0.19952E+07         0.00000E+00
    0.00000E+00         0.00000E+00        -0.14226E+08
 
   -0.14845E+08        -0.50485E+05         0.00000E+00
   -0.50485E+05        -0.19817E+07         0.00000E+00
    0.00000E+00         0.00000E+00        -0.14138E+08
 
   -0.14825E+08        -0.51459E+05         0.00000E+00
   -0.51459E+05        -0.19574E+07         0.00000E+00
    0.00000E+00         0.00000E+00        -0.14048E+08
 
   -0.14807E+08        -0.39307E+05         0.00000E+00
   -0.39307E+05        -0.19143E+07         0.00000E+00
    0.00000E+00         0.00000E+00        -0.13952E+08
 
   -0.14797E+08        -0.14845E+05         0.00000E+00
   -0.14845E+05        -0.18419E+07         0.00000E+00
    0.00000E+00         0.00000E+00        -0.13850E+08
 
   -0.18582E+08        -0.14172E+04         0.00000E+00
   -0.14172E+04        -0.19731E+07         0.00000E+00
    0.00000E+00         0.00000E+00        -0.18761E+08
 
   -0.18580E+08        -0.34401E+04         0.00000E+00
   -0.34401E+04        -0.19631E+07         0.00000E+00
    0.00000E+00         0.00000E+00        -0.18746E+08
 
   -0.18577E+08        -0.35877E+04         0.00000E+00
   -0.35877E+04        -0.19574E+07         0.00000E+00
    0.00000E+00         0.00000E+00        -0.18732E+08
 
   -0.18573E+08        -0.18093E+04         0.00000E+00
   -0.18093E+04        -0.19544E+07         0.00000E+00
    0.00000E+00         0.00000E+00        -0.18719E+08
 
   -0.18568E+08         0.13930E+04         0.00000E+00
    0.13930E+04        -0.19527E+07         0.00000E+00
    0.00000E+00         0.00000E+00        -0.18706E+08
 
   -0.18563E+08         0.54800E+04         0.00000E+00
    0.54800E+04        -0.19519E+07         0.00000E+00
    0.00000E+00         0.00000E+00        -0.18693E+08
 
   -0.18557E+08         0.10048E+05         0.00000E+00
    0.10048E+05        -0.19516E+07         0.00000E+00
    0.00000E+00         0.00000E+00        -0.18680E+08
 
   -0.18550E+08         0.14822E+05         0.00000E+00
    0.14822E+05        -0.19516E+07         0.00000E+00
    0.00000E+00         0.00000E+00        -0.18667E+08
 
   -0.18542E+08         0.19615E+05         0.00000E+00
    0.19615E+05        -0.19518E+07         0.00000E+00
    0.00000E+00         0.00000E+00        -0.18653E+08
 
   -0.18533E+08         0.24308E+05         0.00000E+00
    0.24308E+05        -0.19521E+07         0.00000E+00
    0.00000E+00         0.00000E+00        -0.18639E+08
 
   -0.18522E+08         0.28829E+05         0.00000E+00
    0.28829E+05        -0.19525E+07         0.00000E+00
    0.00000E+00         0.00000E+00        -0.18624E+08
 
   -0.18511E+08         0.33140E+05         0.00000E+00
    0.33140E+05        -0.19530E+07         0.00000E+00
    0.00000E+00         0.00000E+00        -0.18609E+08
 
   -0.18499E+08         0.37225E+05         0.00000E+00
    0.37225E+05        -0.19534E+07         0.00000E+00
    0.00000E+00         0.00000E+00        -0.18593E+08
 
   -0.18486E+08         0.41086E+05         0.00000E+00
    0.41086E+05        -0.19538E+07         0.00000E+00
    0.00000E+00         0.00000E+00        -0.18577E+08
 
   -0.18471E+08         0.44736E+05         0.00000E+00
    0.44736E+05        -0.19542E+07         0.00000E+00
    0.00000E+00         0.00000E+00        -0.18561E+08
 
   -0.18456E+08         0.48194E+05         0.00000E+00
    0.48194E+05        -0.19545E+07         0.00000E+00
    0.00000E+00         0.00000E+00        -0.18544E+08
 
   -0.18440E+08         0.51481E+05         0.00000E+00
    0.51481E+05        -0.19548E+07         0.00000E+00
    0.00000E+00         0.00000E+00        -0.18526E+08
 
   -0.18423E+08         0.54619E+05         0.00000E+00
    0.54619E+05        -0.19551E+07         0.00000E+00
    0.00000E+00         0.00000E+00        -0.18508E+08
 
   -0.18405E+08         0.57632E+05         0.00000E+00
    0.57632E+05        -0.19553E+07         0.00000E+00
    0.00000E+00         0.00000E+00        -0.18489E+08
 
   -0.18386E+08         0.60542E+05         0.00000E+00
    0.60542E+05        -0.19554E+07         0.00000E+00
    0.00000E+00         0.00000E+00        -0.18470E+08
 
   -0.18366E+08         0.63367E+05         0.00000E+00
    0.63367E+05        -0.19556E+07         0.00000E+00
    0.00000E+00         0.00000E+00        -0.18450E+08
 
   -0.18345E+08         0.66126E+05         0.00000E+00
    0.66126E+05        -0.19557E+07         0.00000E+00
    0.00000E+00         0.00000E+00        -0.18429E+08
 
   -0.18324E+08         0.68835E+05         0.00000E+00
    0.68835E+05        -0.19557E+07         0.00000E+00
    0.00000E+00         0.00000E+00        -0.18408E+08
 
   -0.18302E+08         0.71507E+05         0.00000E+00
    0.71507E+05        -0.19558E+07         0.00000E+00
    0.00000E+00         0.00000E+00        -0.18387E+08
 
   -0.18279E+08         0.74155E+05         0.00000E+00
    0.74155E+05        -0.19558E+07         0.00000E+00
    0.00000E+00         0.00000E+00        -0.18364E+08
 
   -0.18255E+08         0.76790E+05         0.00000E+00
    0.76790E+05        -0.19558E+07         0.00000E+00
    0.00000E+00         0.00000E+00        -0.18341E+08
 
   -0.18230E+08         0.79419E+05         0.00000E+00
    0.79419E+05        -0.19558E+07         0.00000E+00
    0.00000E+00         0.00000E+00        -0.18318E+08
 
   -0.18204E+08         0.82052E+05         0.00000E+00
    0.82052E+05        -0.19558E+07         0.00000E+00
    0.00000E+00         0.00000E+00        -0.18293E+08
 
   -0.18178E+08         0.84694E+05         0.00000E+00
    0.84694E+05        -0.19558E+07         0.00000E+00
    0.00000E+00         0.00000E+00        -0.18268E+08
 
   -0.18151E+08         0.87352E+05         0.00000E+00
    0.87352E+05        -0.19558E+07         0.00000E+00
    0.00000E+00         0.00000E+00        -0.18243E+08
 
   -0.18123E+08         0.90030E+05         0.00000E+00
    0.90030E+05        -0.19557E+07         0.00000E+00
    0.00000E+00         0.00000E+00        -0.18216E+08
 
   -0.18094E+08         0.92731E+05         0.00000E+00
    0.92731E+05        -0.19557E+07         0.00000E+00
    0.00000E+00         0.00000E+00        -0.18189E+08
 
   -0.18064E+08         0.95461E+05         0.00000E+00
    0.95461E+05        -0.19557E+07         0.00000E+00
    0.00000E+00         0.00000E+00        -0.18161E+08
 
   -0.18033E+08         0.98220E+05         0.00000E+00
    0.98220E+05        -0.19556E+07         0.00000E+00
    0.00000E+00         0.00000E+00        -0.18132E+08
 
   -0.18001E+08         0.10101E+06         0.00000E+00
    0.10101E+06        -0.19556E+07         0.00000E+00
    0.00000E+00         0.00000E+00        -0.18102E+08
 
   -0.17969E+08         0.10384E+06         0.00000E+00
    0.10384E+06        -0.19555E+07         0.00000E+00
    0.00000E+00         0.00000E+00        -0.18072E+08
 
   -0.17936E+08         0.10670E+06         0.00000E+00
    0.10670E+06        -0.19554E+07         0.00000E+00
    0.00000E+00         0.00000E+00        -0.18040E+08
 
   -0.17901E+08         0.10959E+06         0.00000E+00
    0.10959E+06        -0.19554E+07         0.00000E+00
    0.00000E+00         0.00000E+00        -0.18008E+08
 
   -0.17866E+08         0.11253E+06         0.00000E+00
    0.11253E+06        -0.19553E+07         0.00000E+00
    0.00000E+00         0.00000E+00        -0.17975E+08
 
   -0.17830E+08         0.11549E+06         0.00000E+00
    0.11549E+06        -0.19553E+07         0.00000E+00
    0.00000E+00         0.00000E+00        -0.17941E+08
 
   -0.17793E+08         0.11850E+06         0.00000E+00
    0.11850E+06        -0.19552E+07         0.00000E+00
    0.00000E+00         0.00000E+00        -0.17905E+08
 
   -0.17755E+08         0.12154E+06         0.00000E+00
    0.12154E+06        -0.19552E+07         0.00000E+00
    0.00000E+00         0.00000E+00        -0.17869E+08
 
   -0.17715E+08         0.12461E+06         0.00000E+00
    0.12461E+06        -0.19551E+07         0.00000E+00
    0.00000E+00         0.00000E+00        -0.17832E+08
 
   -0.17675E+08         0.12771E+06         0.00000E+00
    0.12771E+06        -0.19551E+07         0.00000E+00
    0.00000E+00         0.00000E+00        -0.17794E+08
 
   -0.17634E+08         0.13084E+06         0.00000E+00
    0.13084E+06        -0.19550E+07         0.00000E+00
    0.00000E+00         0.00000E+00        -0.17754E+08
 
   -0.17592E+08         0.13400E+06         0.00000E+00
    0.13400E+06        -0.19550E+07         0.00000E+00
    0.00000E+00         0.00000E+00        -0.17714E+08
 
   -0.17549E+08         0.13718E+06         0.00000E+00
    0.13718E+06        -0.19550E+07         0.00000E+00
    0.00000E+00         0.00000E+00        -0.17673E+08
 
   -0.17505E+08         0.14038E+06         0.00000E+00
    0.14038E+06        -0.19549E+07         0.00000E+00
    0.00000E+00         0.00000E+00        -0.17630E+08
 
   -0.17459E+08         0.14360E+06         0.00000E+00
    0.14360E+06        -0.19549E+07         0.00000E+00
    0.00000E+00         0.00000E+00        -0.17586E+08
 
   -0.17413E+08         0.14682E+06         0.00000E+00
    0.14682E+06        -0.19549E+07         0.00000E+00
    0.00000E+00         0.00000E+00        -0.17541E+08
 
   -0.17366E+08         0.15005E+06         0.00000E+00
    0.15005E+06        -0.19549E+07         0.00000E+00
    0.00000E+00         0.00000E+00        -0.17495E+08
 
   -0.17317E+08         0.15328E+06         0.00000E+00
    0.15328E+06        -0.19549E+07         0.00000E+00
    0.00000E+00         0.00000E+00        -0.17447E+08
 
   -0.17267E+08         0.15651E+06         0.00000E+00
    0.15651E+06        -0.19549E+07         0.00000E+00
    0.00000E+00         0.00000E+00        -0.17399E+08
 
   -0.17217E+08         0.15972E+06         0.00000E+00
    0.15972E+06        -0.19550E+07         0.00000E+00
    0.00000E+00         0.00000E+00        -0.17349E+08
 
   -0.17165E+08         0.16290E+06         0.00000E+00
    0.16290E+06        -0.19550E+07         0.00000E+00
    0.00000E+00         0.00000E+00        -0.17297E+08
 
   -0.17112E+08         0.16606E+06         0.00000E+00
    0.16606E+06        -0.19551E+07         0.00000E+00
    0.00000E+00         0.00000E+00        -0.17245E+08
 
   -0.17059E+08         0.16918E+06         0.00000E+00
    0.16918E+06        -0.19551E+07         0.00000E+00
    0.00000E+00         0.00000E+00        -0.17191E+08
 
   -0.17004E+08         0.17224E+06         0.00000E+00
    0.17224E+06        -0.19552E+07         0.00000E+00
    0.00000E+00         0.00000E+00        -0.17136E+08
 
   -0.16948E+08         0.17525E+06         0.00000E+00
    0.17525E+06        -0.19553E+07         0.00000E+00
    0.00000E+00         0.00000E+00        -0.17079E+08
 
   -0.16891E+08         0.17818E+06         0.00000E+00
    0.17818E+06        -0.19554E+07         0.00000E+00
    0.00000E+00         0.00000E+00        -0.17021E+08
 
   -0.16833E+08         0.18103E+06         0.00000E+00
    0.18103E+06        -0.19556E+07         0.00000E+00
    0.00000E+00         0.00000E+00        -0.16962E+08
 
   -0.16774E+08         0.18378E+06         0.00000E+00
    0.18378E+06        -0.19558E+07         0.00000E+00
    0.00000E+00         0.00000E+00        -0.16901E+08
 
   -0.16714E+08         0.18642E+06         0.00000E+00
    0.18642E+06        -0.19560E+07         0.00000E+00
    0.00000E+00         0.00000E+00        -0.16839E+08
 
   -0.16654E+08         0.18892E+06         0.00000E+00
    0.18892E+06        -0.19562E+07         0.00000E+00
    0.00000E+00         0.00000E+00        -0.16776E+08
 
   -0.16592E+08         0.19128E+06         0.00000E+00
    0.19128E+06        -0.19564E+07         0.00000E+00
    0.00000E+00         0.00000E+00        -0.16711E+08
 
   -0.16530E+08         0.19347E+06         0.00000E+00
    0.19347E+06        -0.19567E+07         0.00000E+00
    0.00000E+00         0.00000E+00        -0.16645E+08
 
   -0.16467E+08         0.19547E+06         0.00000E+00
    0.19547E+06        -0.19570E+07         0.00000E+00
    0.00000E+00         0.00000E+00        -0.16577E+08
 
   -0.16403E+08         0.19726E+06         0.00000E+00
    0.19726E+06        -0.19574E+07         0.00000E+00
    0.00000E+00         0.00000E+00        -0.16508E+08
 
   -0.16338E+08         0.19881E+06         0.00000E+00
    0.19881E+06        -0.19578E+07         0.00000E+00
    0.00000E+00         0.00000E+00        -0.16438E+08
 
   -0.16273E+08         0.20010E+06         0.00000E+00
    0.20010E+06        -0.19582E+07         0.00000E+00
    0.00000E+00         0.00000E+00        -0.16367E+08
 
   -0.16208E+08         0.20109E+06         0.00000E+00
    0.20109E+06        -0.19587E+07         0.00000E+00
    0.00000E+00         0.00000E+00        -0.16294E+08
 
   -0.16142E+08         0.20176E+06         0.00000E+00
    0.20176E+06        -0.19593E+07         0.00000E+00
    0.00000E+00         0.00000E+00        -0.16220E+08
 
   -0.16076E+08         0.20206E+06         0.00000E+00
    0.20206E+06        -0.19599E+07         0.00000E+00
    0.00000E+00         0.00000E+00        -0.16144E+08
 
   -0.16009E+08         0.20195E+06         0.00000E+00
    0.20195E+06        -0.19606E+07         0.00000E+00
    0.00000E+00         0.00000E+00        -0.16068E+08
 
   -0.15943E+08         0.20138E+06         0.00000E+00
    0.20138E+06        -0.19613E+07         0.00000E+00
    0.00000E+00         0.00000E+00        -0.15990E+08
 
   -0.15876E+08         0.20030E+06         0.00000E+00
    0.20030E+06        -0.19622E+07         0.00000E+00
    0.00000E+00         0.00000E+00        -0.15911E+08
 
   -0.15810E+08         0.19865E+06         0.00000E+00
    0.19865E+06        -0.19632E+07         0.00000E+00
    0.00000E+00         0.00000E+00        -0.15831E+08
 
   -0.15744E+08         0.19635E+06         0.00000E+00
    0.19635E+06        -0.19643E+07         0.00000E+00
    0.00000E+00         0.00000E+00        -0.15750E+08
 
   -0.15679E+08         0.19332E+06         0.00000E+00
    0.19332E+06        -0.19656E+07         0.00000E+00
    0.00000E+00         0.00000E+00        -0.15668E+08
 
   -0.15615E+08         0.18947E+06         0.00000E+00
    0.18947E+06        -0.19670E+07         0.00000E+00
    0.00000E+00         0.00000E+00        -0.15586E+08
 
   -0.15551E+08         0.18471E+06         0.00000E+00
    0.18471E+06        -0.19687E+07         0.00000E+00
    0.00000E+00         0.00000E+00        -0.15502E+08
 
   -0.15489E+08         0.17891E+06         0.00000E+00
    0.17891E+06        -0.19705E+07         0.00000E+00
    0.00000E+00         0.00000E+00        -0.15418E+08
 
   -0.15428E+08         0.17195E+06         0.00000E+00
    0.17195E+06        -0.19726E+07         0.00000E+00
    0.00000E+00         0.00000E+00        -0.15334E+08
 
   -0.15369E+08         0.16369E+06         0.00000E+00
    0.16369E+06        -0.19750E+07         0.00000E+00
    0.00000E+00         0.00000E+00        -0.15249E+08
 
   -0.15312E+08         0.15400E+06         0.00000E+00
    0.15400E+06        -0.19776E+07         0.00000E+00
    0.00000E+00         0.00000E+00        -0.15163E+08
 
   -0.15257E+08         0.14274E+06         0.00000E+00
    0.14274E+06        -0.19806E+07         0.00000E+00
    0.00000E+00         0.00000E+00        -0.15078E+08
 
   -0.15205E+08         0.12979E+06         0.00000E+00
    0.12979E+06        -0.19837E+07         0.00000E+00
    0.00000E+00         0.00000E+00        -0.14993E+08
 
   -0.15156E+08         0.11504E+06         0.00000E+00
    0.11504E+06        -0.19871E+07         0.00000E+00
    0.00000E+00         0.00000E+00        -0.14907E+08
 
   -0.15110E+08         0.98441E+05         0.00000E+00
    0.98441E+05        -0.19906E+07         0.00000E+00
    0.00000E+00         0.00000E+00        -0.14822E+08
 
   -0.15068E+08         0.80029E+05         0.00000E+00
    0.80029E+05        -0.19940E+07         0.00000E+00
    0.00000E+00         0.00000E+00        -0.14737E+08
 
   -0.15029E+08         0.59948E+05         0.00000E+00
    0.59948E+05        -0.19971E+07         0.00000E+00
    0.00000E+00         0.00000E+00        -0.14653E+08
 
   -0.14995E+08         0.38516E+05         0.00000E+00
    0.38516E+05        -0.19996E+07         0.00000E+00
    0.00000E+00         0.00000E+00        -0.14569E+08
 
   -0.14964E+08         0.16295E+05         0.00000E+00
    0.16295E+05        -0.20011E+07         0.00000E+00
    0.00000E+00         0.00000E+00        -0.14485E+08
 
   -0.14937E+08        -0.58189E+04         0.00000E+00
   -0.58189E+04        -0.20010E+07         0.00000E+00
    0.00000E+00         0.00000E+00        -0.14401E+08
 
   -0.14914E+08        -0.26470E+05         0.00000E+00
   -0.26470E+05        -0.19984E+07         0.00000E+00
    0.00000E+00         0.00000E+00        -0.14317E+08
 
   -0.14893E+08        -0.43665E+05         0.00000E+00
   -0.43665E+05        -0.19923E+07         0.00000E+00
    0.00000E+00         0.00000E+00        -0.14232E+08
 
   -0.14874E+08        -0.54528E+05         0.00000E+00
   -0.54528E+05        -0.19804E+07         0.00000E+00
    0.00000E+00         0.00000E+00        -0.14146E+08
 
   -0.14855E+08        -0.55243E+05         0.00000E+00
   -0.55243E+05        -0.19585E+07         0.00000E+00
    0.00000E+00         0.00000E+00        -0.14057E+08
 
   -0.14839E+08        -0.42280E+05         0.00000E+00
   -0.42280E+05        -0.19183E+07         0.00000E+00
    0.00000E+00         0.00000E+00        -0.13963E+08
 
   -0.14829E+08        -0.16017E+05         0.00000E+00
   -0.16017E+05        -0.18479E+07         0.00000E+00
    0.00000E+00         0.00000E+00        -0.13861E+08
 
   -0.18576E+08        -0.16269E+04         0.00000E+00
   -0.16269E+04        -0.19725E+07         0.00000E+00
    0.00000E+00         0.00000E+00        -0.18759E+08
 
   -0.18574E+08        -0.39795E+04         0.00000E+00
   -0.39795E+04        -0.19628E+07         0.00000E+00
    0.00000E+00         0.00000E+00        -0.18744E+08
 
   -0.18571E+08        -0.43020E+04         0.00000E+00
   -0.43020E+04        -0.19576E+07         0.00000E+00
    0.00000E+00         0.00000E+00        -0.18731E+08
 
   -0.18568E+08        -0.26264E+04         0.00000E+00
   -0.26264E+04        -0.19549E+07         0.00000E+00
    0.00000E+00         0.00000E+00        -0.18718E+08
 
   -0.18563E+08         0.46016E+03         0.00000E+00
    0.46016E+03        -0.19535E+07         0.00000E+00
    0.00000E+00         0.00000E+00        -0.18705E+08
 
   -0.18559E+08         0.43930E+04         0.00000E+00
    0.43930E+04        -0.19528E+07         0.00000E+00
    0.00000E+00         0.00000E+00        -0.18692E+08
 
   -0.18553E+08         0.87757E+04         0.00000E+00
    0.87757E+04        -0.19525E+07         0.00000E+00
    0.00000E+00         0.00000E+00        -0.18679E+08
 
   -0.18546E+08         0.13344E+05         0.00000E+00
    0.13344E+05        -0.19525E+07         0.00000E+00
    0.00000E+00         0.00000E+00        -0.18666E+08
 
   -0.18538E+08         0.17921E+05         0.00000E+00
    0.17921E+05        -0.19527E+07         0.00000E+00
    0.00000E+00         0.00000E+00        -0.18652E+08
 
   -0.18530E+08         0.22396E+05         0.00000E+00
    0.22396E+05        -0.19530E+07         0.00000E+00
    0.00000E+00         0.00000E+00        -0.18638E+08
 
   -0.18520E+08         0.26699E+05         0.00000E+00
    0.26699E+05        -0.19534E+07         0.00000E+00
    0.00000E+00         0.00000E+00        -0.18623E+08
 
   -0.18509E+08         0.30795E+05         0.00000E+00
    0.30795E+05        -0.19538E+07         0.00000E+00
    0.00000E+00         0.00000E+00        -0.18608E+08
 
   -0.18496E+08         0.34671E+05         0.00000E+00
    0.34671E+05        -0.19542E+07         0.00000E+00
    0.00000E+00         0.00000E+00        -0.18593E+08
 
   -0.18483E+08         0.38330E+05         0.00000E+00
    0.38330E+05        -0.19545E+07         0.00000E+00
    0.00000E+00         0.00000E+00        -0.18577E+08
 
   -0.18469E+08         0.41782E+05         0.00000E+00
    0.41782E+05        -0.19549E+07         0.00000E+00
    0.00000E+00         0.00000E+00        -0.18560E+08
 
   -0.18454E+08         0.45048E+05         0.00000E+00
    0.45048E+05        -0.19552E+07         0.00000E+00
    0.00000E+00         0.00000E+00        -0.18543E+08
 
   -0.18437E+08         0.48148E+05         0.00000E+00
    0.48148E+05        -0.19554E+07         0.00000E+00
    0.00000E+00         0.00000E+00        -0.18525E+08
 
   -0.18420E+08         0.51105E+05         0.00000E+00
    0.51105E+05        -0.19557E+07         0.00000E+00
    0.00000E+00         0.00000E+00        -0.18507E+08
 
   -0.18402E+08         0.53940E+05         0.00000E+00
    0.53940E+05        -0.19558E+07         0.00000E+00
    0.00000E+00         0.00000E+00        -0.18488E+08
 
   -0.18383E+08         0.56675E+05         0.00000E+00
    0.56675E+05        -0.19560E+07         0.00000E+00
    0.00000E+00         0.00000E+00        -0.18469E+08
 
   -0.18364E+08         0.59329E+05         0.00000E+00
    0.59329E+05        -0.19561E+07         0.00000E+00
    0.00000E+00         0.00000E+00        -0.18449E+08
 
   -0.18343E+08         0.61919E+05         0.00000E+00
    0.61919E+05        -0.19562E+07         0.00000E+00
    0.00000E+00         0.00000E+00        -0.18429E+08
 
   -0.18322E+08         0.64461E+05         0.00000E+00
    0.64461E+05        -0.19563E+07         0.00000E+00
    0.00000E+00         0.00000E+00        -0.18408E+08
 
   -0.18299E+08         0.66967E+05         0.00000E+00
    0.66967E+05        -0.19563E+07         0.00000E+00
    0.00000E+00         0.00000E+00        -0.18386E+08
 
   -0.18276E+08         0.69449E+05         0.00000E+00
    0.69449E+05        -0.19563E+07         0.00000E+00
    0.00000E+00         0.00000E+00        -0.18364E+08
 
   -0.18252E+08         0.71918E+05         0.00000E+00
    0.71918E+05        -0.19564E+07         0.00000E+00
    0.00000E+00         0.00000E+00        -0.18341E+08
 
   -0.18227E+08         0.74382E+05         0.00000E+00
    0.74382E+05        -0.19564E+07         0.00000E+00
    0.00000E+00         0.00000E+00        -0.18317E+08
 
   -0.18202E+08         0.76848E+05         0.00000E+00
    0.76848E+05        -0.19563E+07         0.00000E+00
    0.00000E+00         0.00000E+00        -0.18293E+08
 
   -0.18175E+08         0.79323E+05         0.00000E+00
    0.79323E+05        -0.19563E+07         0.00000E+00
    0.00000E+00         0.00000E+00        -0.18268E+08
 
   -0.18148E+08         0.81812E+05         0.00000E+00
    0.81812E+05        -0.19563E+07         0.00000E+00
    0.00000E+00         0.00000E+00        -0.18242E+08
 
   -0.18120E+08         0.84320E+05         0.00000E+00
    0.84320E+05        -0.19563E+07         0.00000E+00
    0.00000E+00         0.00000E+00        -0.18215E+08
 
   -0.18091E+08         0.86849E+05         0.00000E+00
    0.86849E+05        -0.19562E+07         0.00000E+00
    0.00000E+00         0.00000E+00        -0.18188E+08
 
   -0.18061E+08         0.89404E+05         0.00000E+00
    0.89404E+05        -0.19562E+07         0.00000E+00
    0.00000E+00         0.00000E+00        -0.18160E+08
 
   -0.18030E+08         0.91987E+05         0.00000E+00
    0.91987E+05        -0.19561E+07         0.00000E+00
    0.00000E+00         0.00000E+00        -0.18131E+08
 
   -0.17998E+08         0.94600E+05         0.00000E+00
    0.94600E+05        -0.19561E+07         0.00000E+00
    0.00000E+00         0.00000E+00        -0.18101E+08
 
   -0.17966E+08         0.97244E+05         0.00000E+00
    0.97244E+05        -0.19561E+07         0.00000E+00
    0.00000E+00         0.00000E+00        -0.18071E+08
 
   -0.17932E+08         0.99921E+05         0.00000E+00
    0.99921E+05        -0.19560E+07         0.00000E+00
    0.00000E+00         0.00000E+00        -0.18039E+08
 
   -0.17898E+08         0.10263E+06         0.00000E+00
    0.10263E+06        -0.19560E+07         0.00000E+00
    0.00000E+00         0.00000E+00        -0.18007E+08
 
   -0.17863E+08         0.10537E+06         0.00000E+00
    0.10537E+06        -0.19559E+07         0.00000E+00
    0.00000E+00         0.00000E+00        -0.17974E+08
 
   -0.17827E+08         0.10815E+06         0.00000E+00
    0.10815E+06        -0.19559E+07         0.00000E+00
    0.00000E+00         0.00000E+00        -0.17940E+08
 
   -0.17789E+08         0.11096E+06         0.00000E+00
    0.11096E+06        -0.19558E+07         0.00000E+00
    0.00000E+00         0.00000E+00        -0.17904E+08
 
   -0.17751E+08         0.11380E+06         0.00000E+00
    0.11380E+06        -0.19558E+07         0.00000E+00
    0.00000E+00         0.00000E+00        -0.17868E+08
 
   -0.17712E+08         0.11668E+06         0.00000E+00
    0.11668E+06        -0.19557E+07         0.00000E+00
    0.00000E+00         0.00000E+00        -0.17831E+08
 
   -0.17672E+08         0.11958E+06         0.00000E+00
    0.11958E+06        -0.19557E+07         0.00000E+00
    0.00000E+00         0.00000E+00        -0.17793E+08
 
   -0.17630E+08         0.12250E+06         0.00000E+00
    0.12250E+06        -0.19556E+07         0.00000E+00
    0.00000E+00         0.00000E+00        -0.17754E+08
 
   -0.17588E+08         0.12546E+06         0.00000E+00
    0.12546E+06        -0.19556E+07         0.00000E+00
    0.00000E+00         0.00000E+00        -0.17713E+08
 
   -0.17545E+08         0.12843E+06         0.00000E+00
    0.12843E+06        -0.19556E+07         0.00000E+00
    0.00000E+00         0.00000E+00        -0.17672E+08
 
   -0.17501E+08         0.13142E+06         0.00000E+00
    0.13142E+06        -0.19556E+07         0.00000E+00
    0.00000E+00         0.00000E+00        -0.17629E+08
 
   -0.17455E+08         0.13442E+06         0.00000E+00
    0.13442E+06        -0.19555E+07         0.00000E+00
    0.00000E+00         0.00000E+00        -0.17585E+08
 
   -0.17409E+08         0.13744E+06         0.00000E+00
    0.13744E+06        -0.19555E+07         0.00000E+00
    0.00000E+00         0.00000E+00        -0.17540E+08
 
   -0.17361E+08         0.14046E+06         0.00000E+00
    0.14046E+06        -0.19555E+07         0.00000E+00
    0.00000E+00         0.00000E+00        -0.17494E+08
 
   -0.17313E+08         0.14347E+06         0.00000E+00
    0.14347E+06        -0.19555E+07         0.00000E+00
    0.00000E+00         0.00000E+00        -0.17446E+08
 
   -0.17263E+08         0.14648E+06         0.00000E+00
    0.14648E+06        -0.19555E+07         0.00000E+00
    0.00000E+00         0.00000E+00        -0.17398E+08
 
   -0.17213E+08         0.14948E+06         0.00000E+00
    0.14948E+06        -0.19556E+07         0.00000E+00
    0.00000E+00         0.00000E+00        -0.17348E+08
 
   -0.17161E+08         0.15246E+06         0.00000E+00
    0.15246E+06        -0.19556E+07         0.00000E+00
    0.00000E+00         0.00000E+00        -0.17296E+08
 
   -0.17108E+08         0.15540E+06         0.00000E+00
    0.15540E+06        -0.19557E+07         0.00000E+00
    0.00000E+00         0.00000E+00        -0.17244E+08
 
   -0.17054E+08         0.15831E+06         0.00000E+00
    0.15831E+06        -0.19557E+07         0.00000E+00
    0.00000E+00         0.00000E+00        -0.17190E+08
 
   -0.16999E+08         0.16117E+06         0.00000E+00
    0.16117E+06        -0.19558E+07         0.00000E+00
    0.00000E+00         0.00000E+00        -0.17135E+08
 
   -0.16944E+08         0.16397E+06         0.00000E+00
    0.16397E+06        -0.19559E+07         0.00000E+00
    0.00000E+00         0.00000E+00        -0.17078E+08
 
   -0.16887E+08         0.16671E+06         0.00000E+00
    0.16671E+06        -0.19560E+07         0.00000E+00
    0.00000E+00         0.00000E+00        -0.17020E+08
 
   -0.16829E+08         0.16936E+06         0.00000E+00
    0.16936E+06        -0.19561E+07         0.00000E+00
    0.00000E+00         0.00000E+00        -0.16961E+08
 
   -0.16770E+08         0.17192E+06         0.00000E+00
    0.17192E+06        -0.19563E+07         0.00000E+00
    0.00000E+00         0.00000E+00        -0.16900E+08
 
   -0.16710E+08         0.17437E+06         0.00000E+00
    0.17437E+06        -0.19565E+07         0.00000E+00
    0.00000E+00         0.00000E+00        -0.16838E+08
 
   -0.16650E+08         0.17670E+06         0.00000E+00
    0.17670E+06        -0.19567E+07         0.00000E+00
    0.00000E+00         0.00000E+00        -0.16775E+08
 
   -0.16588E+08         0.17889E+06         0.00000E+00
    0.17889E+06        -0.19569E+07         0.00000E+00
    0.00000E+00         0.00000E+00        -0.16710E+08
 
   -0.16526E+08         0.18092E+06         0.00000E+00
    0.18092E+06        -0.19571E+07         0.00000E+00
    0.00000E+00         0.00000E+00        -0.16644E+08
 
   -0.16463E+08         0.18277E+06         0.00000E+00
    0.18277E+06        -0.19574E+07         0.00000E+00
    0.00000E+00         0.00000E+00        -0.16576E+08
 
   -0.16399E+08         0.18443E+06         0.00000E+00
    0.18443E+06        -0.19577E+07         0.00000E+00
    0.00000E+00         0.00000E+00        -0.16507E+08
 
   -0.16334E+08         0.18586E+06         0.00000E+00
    0.18586E+06        -0.19581E+07         0.00000E+00
    0.00000E+00         0.00000E+00        -0.16437E+08
 
   -0.16270E+08         0.18705E+06         0.00000E+00
    0.18705E+06        -0.19584E+07         0.00000E+00
    0.00000E+00         0.00000E+00        -0.16366E+08
 
   -0.16204E+08         0.18795E+06         0.00000E+00
    0.18795E+06        -0.19589E+07         0.00000E+00
    0.00000E+00         0.00000E+00        -0.16293E+08
 
   -0.16138E+08         0.18855E+06         0.00000E+00
    0.18855E+06        -0.19594E+07         0.00000E+00
    0.00000E+00         0.00000E+00        -0.16219E+08
 
   -0.16072E+08         0.18880E+06         0.00000E+00
    0.18880E+06        -0.19599E+07         0.00000E+00
    0.00000E+00         0.00000E+00        -0.16143E+08
 
   -0.16006E+08         0.18867E+06         0.00000E+00
    0.18867E+06        -0.19605E+07         0.00000E+00
    0.00000E+00         0.00000E+00        -0.16067E+08
 
   -0.15940E+08         0.18811E+06         0.00000E+00
    0.18811E+06        -0.19612E+07         0.00000E+00
    0.00000E+00         0.00000E+00        -0.15989E+08
 
   -0.15874E+08         0.18706E+06         0.00000E+00
    0.18706E+06        -0.19619E+07         0.00000E+00
    0.00000E+00         0.00000E+00        -0.15910E+08
 
   -0.15808E+08         0.18547E+06         0.00000E+00
    0.18547E+06        -0.19628E+07         0.00000E+00
    0.00000E+00         0.00000E+00        -0.15830E+08
 
   -0.15742E+08         0.18327E+06         0.00000E+00
    0.18327E+06        -0.19638E+07         0.00000E+00
    0.00000E+00         0.00000E+00        -0.15749E+08
 
   -0.15677E+08         0.18038E+06         0.00000E+00
    0.18038E+06        -0.19649E+07         0.00000E+00
    0.00000E+00         0.00000E+00        -0.15668E+08
 
   -0.15613E+08         0.17672E+06         0.00000E+00
    0.17672E+06        -0.19662E+07         0.00000E+00
    0.00000E+00         0.00000E+00        -0.15585E+08
 
   -0.15550E+08         0.17218E+06         0.00000E+00
    0.17218E+06        -0.19676E+07         0.00000E+00
    0.00000E+00         0.00000E+00        -0.15502E+08
 
   -0.15489E+08         0.16666E+06         0.00000E+00
    0.16666E+06        -0.19693E+07         0.00000E+00
    0.00000E+00         0.00000E+00        -0.15418E+08
 
   -0.15429E+08         0.16003E+06         0.00000E+00
    0.16003E+06        -0.19711E+07         0.00000E+00
    0.00000E+00         0.00000E+00        -0.15333E+08
 
   -0.15370E+08         0.15216E+06         0.00000E+00
    0.15216E+06        -0.19732E+07         0.00000E+00
    0.00000E+00         0.00000E+00        -0.15249E+08
 
   -0.15314E+08         0.14292E+06         0.00000E+00
    0.14292E+06        -0.19756E+07         0.00000E+00
    0.00000E+00         0.00000E+00        -0.15164E+08
 
   -0.15261E+08         0.13217E+06         0.00000E+00
    0.13217E+06        -0.19782E+07         0.00000E+00
    0.00000E+00         0.00000E+00        -0.15078E+08
 
   -0.15210E+08         0.11979E+06         0.00000E+00
    0.11979E+06        -0.19810E+07         0.00000E+00
    0.00000E+00         0.00000E+00        -0.14993E+08
 
   -0.15162E+08         0.10568E+06         0.00000E+00
    0.10568E+06        -0.19840E+07         0.00000E+00
    0.00000E+00         0.00000E+00        -0.14908E+08
 
   -0.15118E+08         0.89782E+05         0.00000E+00
    0.89782E+05        -0.19871E+07         0.00000E+00
    0.00000E+00         0.00000E+00        -0.14823E+08
 
   -0.15077E+08         0.72126E+05         0.00000E+00
    0.72126E+05        -0.19902E+07         0.00000E+00
    0.00000E+00         0.00000E+00        -0.14739E+08
 
   -0.15041E+08         0.52845E+05         0.00000E+00
    0.52845E+05        -0.19930E+07         0.00000E+00
    0.00000E+00         0.00000E+00        -0.14655E+08
 
   -0.15009E+08         0.32238E+05         0.00000E+00
    0.32238E+05        -0.19953E+07         0.00000E+00
    0.00000E+00         0.00000E+00        -0.14571E+08
 
   -0.14981E+08         0.10833E+05         0.00000E+00
    0.10833E+05        -0.19967E+07         0.00000E+00
    0.00000E+00         0.00000E+00        -0.14488E+08
 
   -0.14957E+08        -0.10524E+05         0.00000E+00
   -0.10524E+05        -0.19967E+07         0.00000E+00
    0.00000E+00         0.00000E+00        -0.14406E+08
 
   -0.14937E+08        -0.30545E+05         0.00000E+00
   -0.30545E+05        -0.19946E+07         0.00000E+00
    0.00000E+00         0.00000E+00        -0.14323E+08
 
   -0.14919E+08        -0.47321E+05         0.00000E+00
   -0.47321E+05        -0.19894E+07         0.00000E+00
    0.00000E+00         0.00000E+00        -0.14239E+08
 
   -0.14903E+08        -0.58027E+05         0.00000E+00
   -0.58027E+05        -0.19790E+07         0.00000E+00
    0.00000E+00         0.00000E+00        -0.14155E+08
 
   -0.14887E+08        -0.58668E+05         0.00000E+00
   -0.58668E+05        -0.19596E+07         0.00000E+00
    0.00000E+00         0.00000E+00        -0.14067E+08
 
   -0.14872E+08        -0.45117E+05         0.00000E+00
   -0.45117E+05        -0.19225E+07         0.00000E+00
    0.00000E+00         0.00000E+00        -0.13974E+08
 
   -0.14862E+08        -0.17174E+05         0.00000E+00
   -0.17174E+05        -0.18544E+07         0.00000E+00
    0.00000E+00         0.00000E+00        -0.13873E+08
 
   -0.18570E+08        -0.18354E+04         0.00000E+00
   -0.18354E+04        -0.19718E+07         0.00000E+00
    0.00000E+00         0.00000E+00        -0.18757E+08
 
   -0.18568E+08        -0.44994E+04         0.00000E+00
   -0.44994E+04        -0.19625E+07         0.00000E+00
    0.00000E+00         0.00000E+00        -0.18742E+08
 
   -0.18566E+08        -0.49632E+04         0.00000E+00
   -0.49632E+04        -0.19578E+07         0.00000E+00
    0.00000E+00         0.00000E+00        -0.18729E+08
 
   -0.18562E+08        -0.33655E+04         0.00000E+00
   -0.33655E+04        -0.19554E+07         0.00000E+00
    0.00000E+00         0.00000E+00        -0.18716E+08
 
   -0.18559E+08        -0.38664E+03         0.00000E+00
   -0.38664E+03        -0.19542E+07         0.00000E+00
    0.00000E+00         0.00000E+00        -0.18704E+08
 
   -0.18554E+08         0.33898E+04         0.00000E+00
    0.33898E+04        -0.19536E+07         0.00000E+00
    0.00000E+00         0.00000E+00        -0.18691E+08
 
   -0.18549E+08         0.75799E+04         0.00000E+00
    0.75799E+04        -0.19534E+07         0.00000E+00
    0.00000E+00         0.00000E+00        -0.18678E+08
 
   -0.18543E+08         0.11934E+05         0.00000E+00
    0.11934E+05        -0.19534E+07         0.00000E+00
    0.00000E+00         0.00000E+00        -0.18665E+08
 
   -0.18535E+08         0.16286E+05         0.00000E+00
    0.16286E+05        -0.19536E+07         0.00000E+00
    0.00000E+00         0.00000E+00        -0.18651E+08
 
   -0.18527E+08         0.20533E+05         0.00000E+00
    0.20533E+05        -0.19539E+07         0.00000E+00
    0.00000E+00         0.00000E+00        -0.18637E+08
 
   -0.18517E+08         0.24609E+05         0.00000E+00
    0.24609E+05        -0.19542E+07         0.00000E+00
    0.00000E+00         0.00000E+00        -0.18623E+08
 
   -0.18506E+08         0.28483E+05         0.00000E+00
    0.28483E+05        -0.19546E+07         0.00000E+00
    0.00000E+00         0.00000E+00        -0.18608E+08
 
   -0.18494E+08         0.32143E+05         0.00000E+00
    0.32143E+05        -0.19549E+07         0.00000E+00
    0.00000E+00         0.00000E+00        -0.18592E+08
 
   -0.18481E+08         0.35592E+05         0.00000E+00
    0.35592E+05        -0.19552E+07         0.00000E+00
    0.00000E+00         0.00000E+00        -0.18576E+08
 
   -0.18467E+08         0.38842E+05         0.00000E+00
    0.38842E+05        -0.19555E+07         0.00000E+00
    0.00000E+00         0.00000E+00        -0.18560E+08
 
   -0.18451E+08         0.41911E+05         0.00000E+00
    0.41911E+05        -0.19558E+07         0.00000E+00
    0.00000E+00         0.00000E+00        -0.18543E+08
 
   -0.18435E+08         0.44820E+05         0.00000E+00
    0.44820E+05        -0.19560E+07         0.00000E+00
    0.00000E+00         0.00000E+00        -0.18525E+08
 
   -0.18418E+08         0.47592E+05         0.00000E+00
    0.47592E+05        -0.19562E+07         0.00000E+00
    0.00000E+00         0.00000E+00        -0.18507E+08
 
   -0.18400E+08         0.50247E+05         0.00000E+00
    0.50247E+05        -0.19564E+07         0.00000E+00
    0.00000E+00         0.00000E+00        -0.18488E+08
 
   -0.18381E+08         0.52806E+05         0.00000E+00
    0.52806E+05        -0.19565E+07         0.00000E+00
    0.00000E+00         0.00000E+00        -0.18469E+08
 
   -0.18361E+08         0.55287E+05         0.00000E+00
    0.55287E+05        -0.19566E+07         0.00000E+00
    0.00000E+00         0.00000E+00        -0.18449E+08
 
   -0.18341E+08         0.57706E+05         0.00000E+00
    0.57706E+05        -0.19567E+07         0.00000E+00
    0.00000E+00         0.00000E+00        -0.18428E+08
 
   -0.18319E+08         0.60079E+05         0.00000E+00
    0.60079E+05        -0.19567E+07         0.00000E+00
    0.00000E+00         0.00000E+00        -0.18407E+08
 
   -0.18297E+08         0.62418E+05         0.00000E+00
    0.62418E+05        -0.19568E+07         0.00000E+00
    0.00000E+00         0.00000E+00        -0.18385E+08
 
   -0.18274E+08         0.64734E+05         0.00000E+00
    0.64734E+05        -0.19568E+07         0.00000E+00
    0.00000E+00         0.00000E+00        -0.18363E+08
 
   -0.18250E+08         0.67036E+05         0.00000E+00
    0.67036E+05        -0.19568E+07         0.00000E+00
    0.00000E+00         0.00000E+00        -0.18340E+08
 
   -0.18225E+08         0.69334E+05         0.00000E+00
    0.69334E+05        -0.19568E+07         0.00000E+00
    0.00000E+00         0.00000E+00        -0.18316E+08
 
   -0.18199E+08         0.71633E+05         0.00000E+00
    0.71633E+05        -0.19568E+07         0.00000E+00
    0.00000E+00         0.00000E+00        -0.18292E+08
 
   -0.18173E+08         0.73940E+05         0.00000E+00
    0.73940E+05        -0.19568E+07         0.00000E+00
    0.00000E+00         0.00000E+00        -0.18267E+08
 
   -0.18145E+08         0.76260E+05         0.00000E+00
    0.76260E+05        -0.19568E+07         0.00000E+00
    0.00000E+00         0.00000E+00        -0.18241E+08
 
   -0.18117E+08         0.78596E+05         0.00000E+00
    0.78596E+05        -0.19568E+07         0.00000E+00
    0.00000E+00         0.00000E+00        -0.18215E+08
 
   -0.18088E+08         0.80954E+05         0.00000E+00
    0.80954E+05        -0.19567E+07         0.00000E+00
    0.00000E+00         0.00000E+00        -0.18187E+08
 
   -0.18058E+08         0.83334E+05         0.00000E+00
    0.83334E+05        -0.19567E+07         0.00000E+00
    0.00000E+00         0.00000E+00        -0.18159E+08
 
   -0.18027E+08         0.85740E+05         0.00000E+00
    0.85740E+05        -0.19567E+07         0.00000E+00
    0.00000E+00         0.00000E+00        -0.18130E+08
 
   -0.17996E+08         0.88174E+05         0.00000E+00
    0.88174E+05        -0.19566E+07         0.00000E+00
    0.00000E+00         0.00000E+00        -0.18101E+08
 
   -0.17963E+08         0.90637E+05         0.00000E+00
    0.90637E+05        -0.19566E+07         0.00000E+00
    0.00000E+00         0.00000E+00        -0.18070E+08
 
   -0.17929E+08         0.93130E+05         0.00000E+00
    0.93130E+05        -0.19565E+07         0.00000E+00
    0.00000E+00         0.00000E+00        -0.18039E+08
 
   -0.17895E+08         0.95654E+05         0.00000E+00
    0.95654E+05        -0.19565E+07         0.00000E+00
    0.00000E+00         0.00000E+00        -0.18006E+08
 
   -0.17860E+08         0.98209E+05         0.00000E+00
    0.98209E+05        -0.19564E+07         0.00000E+00
    0.00000E+00         0.00000E+00        -0.17973E+08
 
   -0.17823E+08         0.10079E+06         0.00000E+00
    0.10079E+06        -0.19564E+07         0.00000E+00
    0.00000E+00         0.00000E+00        -0.17939E+08
 
   -0.17786E+08         0.10341E+06         0.00000E+00
    0.10341E+06        -0.19564E+07         0.00000E+00
    0.00000E+00         0.00000E+00        -0.17904E+08
 
   -0.17748E+08         0.10606E+06         0.00000E+00
    0.10606E+06        -0.19563E+07         0.00000E+00
    0.00000E+00         0.00000E+00        -0.17867E+08
 
   -0.17708E+08         0.10873E+06         0.00000E+00
    0.10873E+06        -0.19563E+07         0.00000E+00
    0.00000E+00         0.00000E+00        -0.17830E+08
 
   -0.17668E+08         0.11143E+06         0.00000E+00
    0.11143E+06        -0.19562E+07         0.00000E+00
    0.00000E+00         0.00000E+00        -0.17792E+08
 
   -0.17627E+08         0.11415E+06         0.00000E+00
    0.11415E+06        -0.19562E+07         0.00000E+00
    0.00000E+00         0.00000E+00        -0.17753E+08
 
   -0.17584E+08         0.11690E+06         0.00000E+00
    0.11690E+06        -0.19562E+07         0.00000E+00
    0.00000E+00         0.00000E+00        -0.17712E+08
 
   -0.17541E+08         0.11967E+06         0.00000E+00
    0.11967E+06        -0.19562E+07         0.00000E+00
    0.00000E+00         0.00000E+00        -0.17671E+08
 
   -0.17497E+08         0.12245E+06         0.00000E+00
    0.12245E+06        -0.19561E+07         0.00000E+00
    0.00000E+00         0.00000E+00        -0.17628E+08
 
   -0.17451E+08         0.12524E+06         0.00000E+00
    0.12524E+06        -0.19561E+07         0.00000E+00
    0.00000E+00         0.00000E+00        -0.17584E+08
 
   -0.17405E+08         0.12804E+06         0.00000E+00
    0.12804E+06        -0.19561E+07         0.00000E+00
    0.00000E+00         0.00000E+00        -0.17539E+08
 
   -0.17357E+08         0.13085E+06         0.00000E+00
    0.13085E+06        -0.19561E+07         0.00000E+00
    0.00000E+00         0.00000E+00        -0.17493E+08
 
   -0.17309E+08         0.13366E+06         0.00000E+00
    0.13366E+06        -0.19561E+07         0.00000E+00
    0.00000E+00         0.00000E+00        -0.17445E+08
 
   -0.17259E+08         0.13645E+06         0.00000E+00
    0.13645E+06        -0.19561E+07         0.00000E+00
    0.00000E+00         0.00000E+00        -0.17396E+08
 
   -0.17208E+08         0.13924E+06         0.00000E+00
    0.13924E+06        -0.19562E+07         0.00000E+00
    0.00000E+00         0.00000E+00        -0.17346E+08
 
   -0.17157E+08         0.14200E+06         0.00000E+00
    0.14200E+06        -0.19562E+07         0.00000E+00
    0.00000E+00         0.00000E+00        -0.17295E+08
 
   -0.17104E+08         0.14474E+06         0.00000E+00
    0.14474E+06        -0.19562E+07         0.00000E+00
    0.00000E+00         0.00000E+00        -0.17243E+08
 
   -0.17050E+08         0.14744E+06         0.00000E+00
    0.14744E+06        -0.19563E+07         0.00000E+00
    0.00000E+00         0.00000E+00        -0.17189E+08
 
   -0.16995E+08         0.15009E+06         0.00000E+00
    0.15009E+06        -0.19564E+07         0.00000E+00
    0.00000E+00         0.00000E+00        -0.17133E+08
 
   -0.16939E+08         0.15269E+06         0.00000E+00
    0.15269E+06        -0.19564E+07         0.00000E+00
    0.00000E+00         0.00000E+00        -0.17077E+08
 
   -0.16882E+08         0.15523E+06         0.00000E+00
    0.15523E+06        -0.19565E+07         0.00000E+00
    0.00000E+00         0.00000E+00        -0.17019E+08
 
   -0.16824E+08         0.15769E+06         0.00000E+00
    0.15769E+06        -0.19566E+07         0.00000E+00
    0.00000E+00         0.00000E+00        -0.16960E+08
 
   -0.16766E+08         0.16006E+06         0.00000E+00
    0.16006E+06        -0.19568E+07         0.00000E+00
    0.00000E+00         0.00000E+00        -0.16899E+08
 
   -0.16706E+08         0.16233E+06         0.00000E+00
    0.16233E+06        -0.19569E+07         0.00000E+00
    0.00000E+00         0.00000E+00        -0.16837E+08
 
   -0.16645E+08         0.16449E+06         0.00000E+00
    0.16449E+06        -0.19571E+07         0.00000E+00
    0.00000E+00         0.00000E+00        -0.16774E+08
 
   -0.16584E+08         0.16651E+06         0.00000E+00
    0.16651E+06        -0.19573E+07         0.00000E+00
    0.00000E+00         0.00000E+00        -0.16709E+08
 
   -0.16522E+08         0.16839E+06         0.00000E+00
    0.16839E+06        -0.19575E+07         0.00000E+00
    0.00000E+00         0.00000E+00        -0.16643E+08
 
   -0.16459E+08         0.17010E+06         0.00000E+00
    0.17010E+06        -0.19577E+07         0.00000E+00
    0.00000E+00         0.00000E+00        -0.16575E+08
 
   -0.16395E+08         0.17162E+06         0.00000E+00
    0.17162E+06        -0.19580E+07         0.00000E+00
    0.00000E+00         0.00000E+00        -0.16506E+08
 
   -0.16331E+08         0.17294E+06         0.00000E+00
    0.17294E+06        -0.19583E+07         0.00000E+00
    0.00000E+00         0.00000E+00        -0.16436E+08
 
   -0.16266E+08         0.17402E+06         0.00000E+00
    0.17402E+06        -0.19586E+07         0.00000E+00
    0.00000E+00         0.00000E+00        -0.16364E+08
 
   -0.16201E+08         0.17484E+06         0.00000E+00
    0.17484E+06        -0.19590E+07         0.00000E+00
    0.00000E+00         0.00000E+00        -0.16292E+08
 
   -0.16135E+08         0.17538E+06         0.00000E+00
    0.17538E+06        -0.19594E+07         0.00000E+00
    0.00000E+00         0.00000E+00        -0.16217E+08
 
   -0.16069E+08         0.17559E+06         0.00000E+00
    0.17559E+06        -0.19599E+07         0.00000E+00
    0.00000E+00         0.00000E+00        -0.16142E+08
 
   -0.16003E+08         0.17544E+06         0.00000E+00
    0.17544E+06        -0.19604E+07         0.00000E+00
    0.00000E+00         0.00000E+00        -0.16066E+08
 
   -0.15937E+08         0.17489E+06         0.00000E+00
    0.17489E+06        -0.19610E+07         0.00000E+00
    0.00000E+00         0.00000E+00        -0.15988E+08
 
   -0.15871E+08         0.17388E+06         0.00000E+00
    0.17388E+06        -0.19617E+07         0.00000E+00
    0.00000E+00         0.00000E+00        -0.15909E+08
 
   -0.15805E+08         0.17236E+06         0.00000E+00
    0.17236E+06        -0.19624E+07         0.00000E+00
    0.00000E+00         0.00000E+00        -0.15829E+08
 
   -0.15740E+08         0.17027E+06         0.00000E+00
    0.17027E+06        -0.19633E+07         0.00000E+00
    0.00000E+00         0.00000E+00        -0.15749E+08
 
   -0.15676E+08         0.16753E+06         0.00000E+00
    0.16753E+06        -0.19643E+07         0.00000E+00
    0.00000E+00         0.00000E+00        -0.15667E+08
 
   -0.15612E+08         0.16406E+06         0.00000E+00
    0.16406E+06        -0.19654E+07         0.00000E+00
    0.00000E+00         0.00000E+00        -0.15584E+08
 
   -0.15550E+08         0.15976E+06         0.00000E+00
    0.15976E+06        -0.19667E+07         0.00000E+00
    0.00000E+00         0.00000E+00        -0.15501E+08
 
   -0.15489E+08         0.15453E+06         0.00000E+00
    0.15453E+06        -0.19681E+07         0.00000E+00
    0.00000E+00         0.00000E+00        -0.15417E+08
 
   -0.15429E+08         0.14825E+06         0.00000E+00
    0.14825E+06        -0.19697E+07         0.00000E+00
    0.00000E+00         0.00000E+00        -0.15333E+08
 
   -0.15372E+08         0.14079E+06         0.00000E+00
    0.14079E+06        -0.19716E+07         0.00000E+00
    0.00000E+00         0.00000E+00        -0.15248E+08
 
   -0.15316E+08         0.13202E+06         0.00000E+00
    0.13202E+06        -0.19737E+07         0.00000E+00
    0.00000E+00         0.00000E+00        -0.15164E+08
 
   -0.15264E+08         0.12181E+06         0.00000E+00
    0.12181E+06        -0.19759E+07         0.00000E+00
    0.00000E+00         0.00000E+00        -0.15079E+08
 
   -0.15214E+08         0.11004E+06         0.00000E+00
    0.11004E+06        -0.19784E+07         0.00000E+00
    0.00000E+00         0.00000E+00        -0.14994E+08
 
   -0.15168E+08         0.96612E+05         0.00000E+00
    0.96612E+05        -0.19811E+07         0.00000E+00
    0.00000E+00         0.00000E+00        -0.14909E+08
 
   -0.15125E+08         0.81465E+05         0.00000E+00
    0.81465E+05        -0.19839E+07         0.00000E+00
    0.00000E+00         0.00000E+00        -0.14825E+08
 
   -0.15086E+08         0.64619E+05         0.00000E+00
    0.64619E+05        -0.19866E+07         0.00000E+00
    0.00000E+00         0.00000E+00        -0.14741E+08
 
   -0.15052E+08         0.46196E+05         0.00000E+00
    0.46196E+05        -0.19891E+07         0.00000E+00
    0.00000E+00         0.00000E+00        -0.14657E+08
 
   -0.15022E+08         0.26473E+05         0.00000E+00
    0.26473E+05        -0.19912E+07         0.00000E+00
    0.00000E+00         0.00000E+00        -0.14574E+08
 
   -0.14997E+08         0.59429E+04         0.00000E+00
    0.59429E+04        -0.19925E+07         0.00000E+00
    0.00000E+00         0.00000E+00        -0.14492E+08
 
   -0.14976E+08        -0.14602E+05         0.00000E+00
   -0.14602E+05        -0.19926E+07         0.00000E+00
    0.00000E+00         0.00000E+00        -0.14410E+08
 
   -0.14959E+08        -0.33953E+05         0.00000E+00
   -0.33953E+05        -0.19909E+07         0.00000E+00
    0.00000E+00         0.00000E+00        -0.14328E+08
 
   -0.14945E+08        -0.50307E+05         0.00000E+00
   -0.50307E+05        -0.19865E+07         0.00000E+00
    0.00000E+00         0.00000E+00        -0.14246E+08
 
   -0.14932E+08        -0.60925E+05         0.00000E+00
   -0.60925E+05        -0.19777E+07         0.00000E+00
    0.00000E+00         0.00000E+00        -0.14163E+08
 
   -0.14919E+08        -0.61680E+05         0.00000E+00
   -0.61680E+05        -0.19608E+07         0.00000E+00
    0.00000E+00         0.00000E+00        -0.14077E+08
 
   -0.14906E+08        -0.47793E+05         0.00000E+00
   -0.47793E+05        -0.19269E+07         0.00000E+00
    0.00000E+00         0.00000E+00        -0.13986E+08
 
   -0.14896E+08        -0.18313E+05         0.00000E+00
   -0.18313E+05        -0.18614E+07         0.00000E+00
    0.00000E+00         0.00000E+00        -0.13886E+08
 
   -0.18564E+08        -0.20424E+04         0.00000E+00
   -0.20424E+04        -0.19711E+07         0.00000E+00
    0.00000E+00         0.00000E+00        -0.18755E+08
 
   -0.18563E+08        -0.49955E+04         0.00000E+00
   -0.49955E+04        -0.19622E+07         0.00000E+00
    0.00000E+00         0.00000E+00        -0.18741E+08
 
   -0.18560E+08        -0.55619E+04         0.00000E+00
   -0.55619E+04        -0.19579E+07         0.00000E+00
    0.00000E+00         0.00000E+00        -0.18727E+08
 
   -0.18557E+08        -0.40175E+04         0.00000E+00
   -0.40175E+04        -0.19559E+07         0.00000E+00
    0.00000E+00         0.00000E+00        -0.18715E+08
 
   -0.18554E+08        -0.11410E+04         0.00000E+00
   -0.11410E+04        -0.19549E+07         0.00000E+00
    0.00000E+00         0.00000E+00        -0.18703E+08
 
   -0.18550E+08         0.24743E+04         0.00000E+00
    0.24743E+04        -0.19544E+07         0.00000E+00
    0.00000E+00         0.00000E+00        -0.18690E+08
 
   -0.18545E+08         0.64633E+04         0.00000E+00
    0.64633E+04        -0.19542E+07         0.00000E+00
    0.00000E+00         0.00000E+00        -0.18677E+08
 
   -0.18539E+08         0.10593E+05         0.00000E+00
    0.10593E+05        -0.19542E+07         0.00000E+00
    0.00000E+00         0.00000E+00        -0.18664E+08
 
   -0.18532E+08         0.14710E+05         0.00000E+00
    0.14710E+05        -0.19544E+07         0.00000E+00
    0.00000E+00         0.00000E+00        -0.18651E+08
 
   -0.18524E+08         0.18719E+05         0.00000E+00
    0.18719E+05        -0.19547E+07         0.00000E+00
    0.00000E+00         0.00000E+00        -0.18637E+08
 
   -0.18514E+08         0.22560E+05         0.00000E+00
    0.22560E+05        -0.19550E+07         0.00000E+00
    0.00000E+00         0.00000E+00        -0.18622E+08
 
   -0.18503E+08         0.26203E+05         0.00000E+00
    0.26203E+05        -0.19553E+07         0.00000E+00
    0.00000E+00         0.00000E+00        -0.18607E+08
 
   -0.18492E+08         0.29640E+05         0.00000E+00
    0.29640E+05        -0.19556E+07         0.00000E+00
    0.00000E+00         0.00000E+00        -0.18592E+08
 
   -0.18478E+08         0.32872E+05         0.00000E+00
    0.32872E+05        -0.19559E+07         0.00000E+00
    0.00000E+00         0.00000E+00        -0.18576E+08
 
   -0.18464E+08         0.35914E+05         0.00000E+00
    0.35914E+05        -0.19561E+07         0.00000E+00
    0.00000E+00         0.00000E+00        -0.18559E+08
 
   -0.18449E+08         0.38782E+05         0.00000E+00
    0.38782E+05        -0.19564E+07         0.00000E+00
    0.00000E+00         0.00000E+00        -0.18542E+08
 
   -0.18433E+08         0.41498E+05         0.00000E+00
    0.41498E+05        -0.19566E+07         0.00000E+00
    0.00000E+00         0.00000E+00        -0.18524E+08
 
   -0.18416E+08         0.44081E+05         0.00000E+00
    0.44081E+05        -0.19567E+07         0.00000E+00
    0.00000E+00         0.00000E+00        -0.18506E+08
 
   -0.18398E+08         0.46553E+05         0.00000E+00
    0.46553E+05        -0.19569E+07         0.00000E+00
    0.00000E+00         0.00000E+00        -0.18487E+08
 
   -0.18379E+08         0.48934E+05         0.00000E+00
    0.48934E+05        -0.19570E+07         0.00000E+00
    0.00000E+00         0.00000E+00        -0.18468E+08
 
   -0.18359E+08         0.51239E+05         0.00000E+00
    0.51239E+05        -0.19571E+07         0.00000E+00
    0.00000E+00         0.00000E+00        -0.18448E+08
 
   -0.18339E+08         0.53487E+05         0.00000E+00
    0.53487E+05        -0.19572E+07         0.00000E+00
    0.00000E+00         0.00000E+00        -0.18428E+08
 
   -0.18317E+08         0.55690E+05         0.00000E+00
    0.55690E+05        -0.19572E+07         0.00000E+00
    0.00000E+00         0.00000E+00        -0.18407E+08
 
   -0.18295E+08         0.57860E+05         0.00000E+00
    0.57860E+05        -0.19572E+07         0.00000E+00
    0.00000E+00         0.00000E+00        -0.18385E+08
 
   -0.18271E+08         0.60009E+05         0.00000E+00
    0.60009E+05        -0.19573E+07         0.00000E+00
    0.00000E+00         0.00000E+00        -0.18363E+08
 
   -0.18247E+08         0.62144E+05         0.00000E+00
    0.62144E+05        -0.19573E+07         0.00000E+00
    0.00000E+00         0.00000E+00        -0.18339E+08
 
   -0.18223E+08         0.64275E+05         0.00000E+00
    0.64275E+05        -0.19573E+07         0.00000E+00
    0.00000E+00         0.00000E+00        -0.18316E+08
 
   -0.18197E+08         0.66406E+05         0.00000E+00
    0.66406E+05        -0.19573E+07         0.00000E+00
    0.00000E+00         0.00000E+00        -0.18291E+08
 
   -0.18170E+08         0.68545E+05         0.00000E+00
    0.68545E+05        -0.19573E+07         0.00000E+00
    0.00000E+00         0.00000E+00        -0.18266E+08
 
   -0.18143E+08         0.70695E+05         0.00000E+00
    0.70695E+05        -0.19572E+07         0.00000E+00
    0.00000E+00         0.00000E+00        -0.18241E+08
 
   -0.18114E+08         0.72860E+05         0.00000E+00
    0.72860E+05        -0.19572E+07         0.00000E+00
    0.00000E+00         0.00000E+00        -0.18214E+08
 
   -0.18085E+08         0.75045E+05         0.00000E+00
    0.75045E+05        -0.19572E+07         0.00000E+00
    0.00000E+00         0.00000E+00        -0.18187E+08
 
   -0.18055E+08         0.77250E+05         0.00000E+00
    0.77250E+05        -0.19572E+07         0.00000E+00
    0.00000E+00         0.00000E+00        -0.18159E+08
 
   -0.18024E+08         0.79480E+05         0.00000E+00
    0.79480E+05        -0.19571E+07         0.00000E+00
    0.00000E+00         0.00000E+00        -0.18130E+08
 
   -0.17993E+08         0.81734E+05         0.00000E+00
    0.81734E+05        -0.19571E+07         0.00000E+00
    0.00000E+00         0.00000E+00        -0.18100E+08
 
   -0.17960E+08         0.84016E+05         0.00000E+00
    0.84016E+05        -0.19570E+07         0.00000E+00
    0.00000E+00         0.00000E+00        -0.18069E+08
 
   -0.17926E+08         0.86325E+05         0.00000E+00
    0.86325E+05        -0.19570E+07         0.00000E+00
    0.00000E+00         0.00000E+00        -0.18038E+08
 
   -0.17892E+08         0.88662E+05         0.00000E+00
    0.88662E+05        -0.19570E+07         0.00000E+00
    0.00000E+00         0.00000E+00        -0.18006E+08
 
   -0.17856E+08         0.91028E+05         0.00000E+00
    0.91028E+05        -0.19569E+07         0.00000E+00
    0.00000E+00         0.00000E+00        -0.17972E+08
 
   -0.17820E+08         0.93422E+05         0.00000E+00
    0.93422E+05        -0.19569E+07         0.00000E+00
    0.00000E+00         0.00000E+00        -0.17938E+08
 
   -0.17783E+08         0.95844E+05         0.00000E+00
    0.95844E+05        -0.19569E+07         0.00000E+00
    0.00000E+00         0.00000E+00        -0.17903E+08
 
   -0.17744E+08         0.98293E+05         0.00000E+00
    0.98293E+05        -0.19568E+07         0.00000E+00
    0.00000E+00         0.00000E+00        -0.17867E+08
 
   -0.17705E+08         0.10077E+06         0.00000E+00
    0.10077E+06        -0.19568E+07         0.00000E+00
    0.00000E+00         0.00000E+00        -0.17829E+08
 
   -0.17664E+08         0.10327E+06         0.00000E+00
    0.10327E+06        -0.19568E+07         0.00000E+00
    0.00000E+00         0.00000E+00        -0.17791E+08
 
   -0.17623E+08         0.10579E+06         0.00000E+00
    0.10579E+06        -0.19567E+07         0.00000E+00
    0.00000E+00         0.00000E+00        -0.17752E+08
 
   -0.17581E+08         0.10833E+06         0.00000E+00
    0.10833E+06        -0.19567E+07         0.00000E+00
    0.00000E+00         0.00000E+00        -0.17711E+08
 
   -0.17537E+08         0.11089E+06         0.00000E+00
    0.11089E+06        -0.19567E+07         0.00000E+00
    0.00000E+00         0.00000E+00        -0.17670E+08
 
   -0.17493E+08         0.11346E+06         0.00000E+00
    0.11346E+06        -0.19567E+07         0.00000E+00
    0.00000E+00         0.00000E+00        -0.17627E+08
 
   -0.17447E+08         0.11605E+06         0.00000E+00
    0.11605E+06        -0.19567E+07         0.00000E+00
    0.00000E+00         0.00000E+00        -0.17583E+08
 
   -0.17401E+08         0.11864E+06         0.00000E+00
    0.11864E+06        -0.19567E+07         0.00000E+00
    0.00000E+00         0.00000E+00        -0.17538E+08
 
   -0.17353E+08         0.12123E+06         0.00000E+00
    0.12123E+06        -0.19566E+07         0.00000E+00
    0.00000E+00         0.00000E+00        -0.17492E+08
 
   -0.17305E+08         0.12383E+06         0.00000E+00
    0.12383E+06        -0.19567E+07         0.00000E+00
    0.00000E+00         0.00000E+00        -0.17444E+08
 
   -0.17255E+08         0.12641E+06         0.00000E+00
    0.12641E+06        -0.19567E+07         0.00000E+00
    0.00000E+00         0.00000E+00        -0.17395E+08
 
   -0.17204E+08         0.12899E+06         0.00000E+00
    0.12899E+06        -0.19567E+07         0.00000E+00
    0.00000E+00         0.00000E+00        -0.17345E+08
 
   -0.17152E+08         0.13154E+06         0.00000E+00
    0.13154E+06        -0.19567E+07         0.00000E+00
    0.00000E+00         0.00000E+00        -0.17294E+08
 
   -0.17100E+08         0.13407E+06         0.00000E+00
    0.13407E+06        -0.19568E+07         0.00000E+00
    0.00000E+00         0.00000E+00        -0.17241E+08
 
   -0.17046E+08         0.13656E+06         0.00000E+00
    0.13656E+06        -0.19568E+07         0.00000E+00
    0.00000E+00         0.00000E+00        -0.17188E+08
 
   -0.16991E+08         0.13901E+06         0.00000E+00
    0.13901E+06        -0.19569E+07         0.00000E+00
    0.00000E+00         0.00000E+00        -0.17132E+08
 
   -0.16935E+08         0.14141E+06         0.00000E+00
    0.14141E+06        -0.19569E+07         0.00000E+00
    0.00000E+00         0.00000E+00        -0.17076E+08
 
   -0.16878E+08         0.14375E+06         0.00000E+00
    0.14375E+06        -0.19570E+07         0.00000E+00
    0.00000E+00         0.00000E+00        -0.17018E+08
 
   -0.16820E+08         0.14602E+06         0.00000E+00
    0.14602E+06        -0.19571E+07         0.00000E+00
    0.00000E+00         0.00000E+00        -0.16958E+08
 
   -0.16761E+08         0.14821E+06         0.00000E+00
    0.14821E+06        -0.19572E+07         0.00000E+00
    0.00000E+00         0.00000E+00        -0.16898E+08
 
   -0.16702E+08         0.15030E+06         0.00000E+00
    0.15030E+06        -0.19573E+07         0.00000E+00
    0.00000E+00         0.00000E+00        -0.16836E+08
 
   -0.16641E+08         0.15228E+06         0.00000E+00
    0.15228E+06        -0.19575E+07         0.00000E+00
    0.00000E+00         0.00000E+00        -0.16772E+08
 
   -0.16580E+08         0.15414E+06         0.00000E+00
    0.15414E+06        -0.19577E+07         0.00000E+00
    0.00000E+00         0.00000E+00        -0.16708E+08
 
   -0.16517E+08         0.15587E+06         0.00000E+00
    0.15587E+06        -0.19578E+07         0.00000E+00
    0.00000E+00         0.00000E+00        -0.16641E+08
 
   -0.16454E+08         0.15744E+06         0.00000E+00
    0.15744E+06        -0.19580E+07         0.00000E+00
    0.00000E+00         0.00000E+00        -0.16574E+08
 
   -0.16391E+08         0.15883E+06         0.00000E+00
    0.15883E+06        -0.19583E+07         0.00000E+00
    0.00000E+00         0.00000E+00        -0.16505E+08
 
   -0.16327E+08         0.16003E+06         0.00000E+00
    0.16003E+06        -0.19585E+07         0.00000E+00
    0.00000E+00         0.00000E+00        -0.16435E+08
 
   -0.16262E+08         0.16102E+06         0.00000E+00
    0.16102E+06        -0.19588E+07         0.00000E+00
    0.00000E+00         0.00000E+00        -0.16363E+08
 
   -0.16197E+08         0.16176E+06         0.00000E+00
    0.16176E+06        -0.19591E+07         0.00000E+00
    0.00000E+00         0.00000E+00        -0.16291E+08
 
   -0.16131E+08         0.16224E+06         0.00000E+00
    0.16224E+06        -0.19595E+07         0.00000E+00
    0.00000E+00         0.00000E+00        -0.16216E+08
 
   -0.16066E+08         0.16241E+06         0.00000E+00
    0.16241E+06        -0.19599E+07         0.00000E+00
    0.00000E+00         0.00000E+00        -0.16141E+08
 
   -0.16000E+08         0.16225E+06         0.00000E+00
    0.16225E+06        -0.19604E+07         0.00000E+00
    0.00000E+00         0.00000E+00        -0.16065E+08
 
   -0.15934E+08         0.16171E+06         0.00000E+00
    0.16171E+06        -0.19609E+07         0.00000E+00
    0.00000E+00         0.00000E+00        -0.15987E+08
 
   -0.15868E+08         0.16075E+06         0.00000E+00
    0.16075E+06        -0.19614E+07         0.00000E+00
    0.00000E+00         0.00000E+00        -0.15908E+08
 
   -0.15803E+08         0.15931E+06         0.00000E+00
    0.15931E+06        -0.19621E+07         0.00000E+00
    0.00000E+00         0.00000E+00        -0.15829E+08
 
   -0.15738E+08         0.15734E+06         0.00000E+00
    0.15734E+06        -0.19628E+07         0.00000E+00
    0.00000E+00         0.00000E+00        -0.15748E+08
 
   -0.15674E+08         0.15476E+06         0.00000E+00
    0.15476E+06        -0.19637E+07         0.00000E+00
    0.00000E+00         0.00000E+00        -0.15666E+08
 
   -0.15611E+08         0.15149E+06         0.00000E+00
    0.15149E+06        -0.19646E+07         0.00000E+00
    0.00000E+00         0.00000E+00        -0.15584E+08
 
   -0.15549E+08         0.14744E+06         0.00000E+00
    0.14744E+06        -0.19657E+07         0.00000E+00
    0.00000E+00         0.00000E+00        -0.15501E+08
 
   -0.15488E+08         0.14252E+06         0.00000E+00
    0.14252E+06        -0.19670E+07         0.00000E+00
    0.00000E+00         0.00000E+00        -0.15417E+08
 
   -0.15429E+08         0.13660E+06         0.00000E+00
    0.13660E+06        -0.19684E+07         0.00000E+00
    0.00000E+00         0.00000E+00        -0.15333E+08
 
   -0.15373E+08         0.12957E+06         0.00000E+00
    0.12957E+06        -0.19700E+07         0.00000E+00
    0.00000E+00         0.00000E+00        -0.15248E+08
 
   -0.15318E+08         0.12130E+06         0.00000E+00
    0.12130E+06        -0.19718E+07         0.00000E+00
    0.00000E+00         0.00000E+00        -0.15164E+08
 
   -0.15266E+08         0.11167E+06         0.00000E+00
    0.11167E+06        -0.19738E+07         0.00000E+00
    0.00000E+00         0.00000E+00        -0.15079E+08
 
   -0.15218E+08         0.10055E+06         0.00000E+00
    0.10055E+06        -0.19760E+07         0.00000E+00
    0.00000E+00         0.00000E+00        -0.14994E+08
 
   -0.15173E+08         0.87837E+05         0.00000E+00
    0.87837E+05        -0.19783E+07         0.00000E+00
    0.00000E+00         0.00000E+00        -0.14910E+08
 
   -0.15132E+08         0.73487E+05         0.00000E+00
    0.73487E+05        -0.19807E+07         0.00000E+00
    0.00000E+00         0.00000E+00        -0.14826E+08
 
   -0.15095E+08         0.57505E+05         0.00000E+00
    0.57505E+05        -0.19831E+07         0.00000E+00
    0.00000E+00         0.00000E+00        -0.14742E+08
 
   -0.15063E+08         0.39999E+05         0.00000E+00
    0.39999E+05        -0.19854E+07         0.00000E+00
    0.00000E+00         0.00000E+00        -0.14659E+08
 
   -0.15035E+08         0.21225E+05         0.00000E+00
    0.21225E+05        -0.19872E+07         0.00000E+00
    0.00000E+00         0.00000E+00        -0.14577E+08
 
   -0.15013E+08         0.16363E+04         0.00000E+00
    0.16363E+04        -0.19884E+07         0.00000E+00
    0.00000E+00         0.00000E+00        -0.14496E+08
 
   -0.14995E+08        -0.18034E+05         0.00000E+00
   -0.18034E+05        -0.19886E+07         0.00000E+00
    0.00000E+00         0.00000E+00        -0.14415E+08
 
   -0.14981E+08        -0.36666E+05         0.00000E+00
   -0.36666E+05        -0.19873E+07         0.00000E+00
    0.00000E+00         0.00000E+00        -0.14334E+08
 
   -0.14971E+08        -0.52576E+05         0.00000E+00
   -0.52576E+05        -0.19837E+07         0.00000E+00
    0.00000E+00         0.00000E+00        -0.14253E+08
 
   -0.14962E+08        -0.63156E+05         0.00000E+00
   -0.63156E+05        -0.19764E+07         0.00000E+00
    0.00000E+00         0.00000E+00        -0.14171E+08
 
   -0.14952E+08        -0.64213E+05         0.00000E+00
   -0.64213E+05        -0.19619E+07         0.00000E+00
    0.00000E+00         0.00000E+00        -0.14087E+08
 
   -0.14940E+08        -0.50276E+05         0.00000E+00
   -0.50276E+05        -0.19315E+07         0.00000E+00
    0.00000E+00         0.00000E+00        -0.13997E+08
 
   -0.14932E+08        -0.19434E+05         0.00000E+00
   -0.19434E+05        -0.18688E+07         0.00000E+00
    0.00000E+00         0.00000E+00        -0.13899E+08
 
   -0.18558E+08        -0.22475E+04         0.00000E+00
   -0.22475E+04        -0.19702E+07         0.00000E+00
    0.00000E+00         0.00000E+00        -0.18753E+08
 
   -0.18557E+08        -0.54618E+04         0.00000E+00
   -0.54618E+04        -0.19618E+07         0.00000E+00
    0.00000E+00         0.00000E+00        -0.18739E+08
 
   -0.18554E+08        -0.60867E+04         0.00000E+00
   -0.60867E+04        -0.19580E+07         0.00000E+00
    0.00000E+00         0.00000E+00        -0.18726E+08
 
   -0.18552E+08        -0.45720E+04         0.00000E+00
   -0.45720E+04        -0.19563E+07         0.00000E+00
    0.00000E+00         0.00000E+00        -0.18713E+08
 
   -0.18549E+08        -0.17962E+04         0.00000E+00
   -0.17962E+04        -0.19555E+07         0.00000E+00
    0.00000E+00         0.00000E+00        -0.18701E+08
 
   -0.18546E+08         0.16506E+04         0.00000E+00
    0.16506E+04        -0.19551E+07         0.00000E+00
    0.00000E+00         0.00000E+00        -0.18689E+08
 
   -0.18541E+08         0.54282E+04         0.00000E+00
    0.54282E+04        -0.19550E+07         0.00000E+00
    0.00000E+00         0.00000E+00        -0.18676E+08
 
   -0.18536E+08         0.93223E+04         0.00000E+00
    0.93223E+04        -0.19551E+07         0.00000E+00
    0.00000E+00         0.00000E+00        -0.18663E+08
 
   -0.18529E+08         0.13194E+05         0.00000E+00
    0.13194E+05        -0.19552E+07         0.00000E+00
    0.00000E+00         0.00000E+00        -0.18650E+08
 
   -0.18521E+08         0.16954E+05         0.00000E+00
    0.16954E+05        -0.19554E+07         0.00000E+00
    0.00000E+00         0.00000E+00        -0.18636E+08
 
   -0.18512E+08         0.20549E+05         0.00000E+00
    0.20549E+05        -0.19557E+07         0.00000E+00
    0.00000E+00         0.00000E+00        -0.18622E+08
 
   -0.18501E+08         0.23954E+05         0.00000E+00
    0.23954E+05        -0.19560E+07         0.00000E+00
    0.00000E+00         0.00000E+00        -0.18607E+08
 
   -0.18489E+08         0.27160E+05         0.00000E+00
    0.27160E+05        -0.19562E+07         0.00000E+00
    0.00000E+00         0.00000E+00        -0.18591E+08
 
   -0.18476E+08         0.30170E+05         0.00000E+00
    0.30170E+05        -0.19565E+07         0.00000E+00
    0.00000E+00         0.00000E+00        -0.18575E+08
 
   -0.18462E+08         0.32998E+05         0.00000E+00
    0.32998E+05        -0.19567E+07         0.00000E+00
    0.00000E+00         0.00000E+00        -0.18559E+08
 
   -0.18447E+08         0.35661E+05         0.00000E+00
    0.35661E+05        -0.19569E+07         0.00000E+00
    0.00000E+00         0.00000E+00        -0.18542E+08
 
   -0.18431E+08         0.38179E+05         0.00000E+00
    0.38179E+05        -0.19571E+07         0.00000E+00
    0.00000E+00         0.00000E+00        -0.18524E+08
 
   -0.18414E+08         0.40571E+05         0.00000E+00
    0.40571E+05        -0.19572E+07         0.00000E+00
    0.00000E+00         0.00000E+00        -0.18506E+08
 
   -0.18396E+08         0.42858E+05         0.00000E+00
    0.42858E+05        -0.19573E+07         0.00000E+00
    0.00000E+00         0.00000E+00        -0.18487E+08
 
   -0.18377E+08         0.45057E+05         0.00000E+00
    0.45057E+05        -0.19574E+07         0.00000E+00
    0.00000E+00         0.00000E+00        -0.18468E+08
 
   -0.18357E+08         0.47186E+05         0.00000E+00
    0.47186E+05        -0.19575E+07         0.00000E+00
    0.00000E+00         0.00000E+00        -0.18448E+08
 
   -0.18337E+08         0.49260E+05         0.00000E+00
    0.49260E+05        -0.19576E+07         0.00000E+00
    0.00000E+00         0.00000E+00        -0.18427E+08
 
   -0.18315E+08         0.51292E+05         0.00000E+00
    0.51292E+05        -0.19576E+07         0.00000E+00
    0.00000E+00         0.00000E+00        -0.18406E+08
 
   -0.18293E+08         0.53293E+05         0.00000E+00
    0.53293E+05        -0.19577E+07         0.00000E+00
    0.00000E+00         0.00000E+00        -0.18384E+08
 
   -0.18269E+08         0.55273E+05         0.00000E+00
    0.55273E+05        -0.19577E+07         0.00000E+00
    0.00000E+00         0.00000E+00        -0.18362E+08
 
   -0.18245E+08         0.57241E+05         0.00000E+00
    0.57241E+05        -0.19577E+07         0.00000E+00
    0.00000E+00         0.00000E+00        -0.18339E+08
 
   -0.18220E+08         0.59204E+05         0.00000E+00
    0.59204E+05        -0.19577E+07         0.00000E+00
    0.00000E+00         0.00000E+00        -0.18315E+08
 
   -0.18194E+08         0.61167E+05         0.00000E+00
    0.61167E+05        -0.19577E+07         0.00000E+00
    0.00000E+00         0.00000E+00        -0.18291E+08
 
   -0.18168E+08         0.63137E+05         0.00000E+00
    0.63137E+05        -0.19577E+07         0.00000E+00
    0.00000E+00         0.00000E+00        -0.18266E+08
 
   -0.18140E+08         0.65117E+05         0.00000E+00
    0.65117E+05        -0.19576E+07         0.00000E+00
    0.00000E+00         0.00000E+00        -0.18240E+08
 
   -0.18112E+08         0.67111E+05         0.00000E+00
    0.67111E+05        -0.19576E+07         0.00000E+00
    0.00000E+00         0.00000E+00        -0.18213E+08
 
   -0.18083E+08         0.69122E+05         0.00000E+00
    0.69122E+05        -0.19576E+07         0.00000E+00
    0.00000E+00         0.00000E+00        -0.18186E+08
 
   -0.18053E+08         0.71152E+05         0.00000E+00
    0.71152E+05        -0.19576E+07         0.00000E+00
    0.00000E+00         0.00000E+00        -0.18158E+08
 
   -0.18022E+08         0.73205E+05         0.00000E+00
    0.73205E+05        -0.19575E+07         0.00000E+00
    0.00000E+00         0.00000E+00        -0.18129E+08
 
   -0.17990E+08         0.75280E+05         0.00000E+00
    0.75280E+05        -0.19575E+07         0.00000E+00
    0.00000E+00         0.00000E+00        -0.18099E+08
 
   -0.17957E+08         0.77380E+05         0.00000E+00
    0.77380E+05        -0.19575E+07         0.00000E+00
    0.00000E+00         0.00000E+00        -0.18069E+08
 
   -0.17923E+08         0.79505E+05         0.00000E+00
    0.79505E+05        -0.19575E+07         0.00000E+00
    0.00000E+00         0.00000E+00        -0.18037E+08
 
   -0.17889E+08         0.81656E+05         0.00000E+00
    0.81656E+05        -0.19574E+07         0.00000E+00
    0.00000E+00         0.00000E+00        -0.18005E+08
 
   -0.17853E+08         0.83833E+05         0.00000E+00
    0.83833E+05        -0.19574E+07         0.00000E+00
    0.00000E+00         0.00000E+00        -0.17971E+08
 
   -0.17817E+08         0.86036E+05         0.00000E+00
    0.86036E+05        -0.19574E+07         0.00000E+00
    0.00000E+00         0.00000E+00        -0.17937E+08
 
   -0.17779E+08         0.88264E+05         0.00000E+00
    0.88264E+05        -0.19573E+07         0.00000E+00
    0.00000E+00         0.00000E+00        -0.17902E+08
 
   -0.17741E+08         0.90516E+05         0.00000E+00
    0.90516E+05        -0.19573E+07         0.00000E+00
    0.00000E+00         0.00000E+00        -0.17866E+08
 
   -0.17701E+08         0.92792E+05         0.00000E+00
    0.92792E+05        -0.19573E+07         0.00000E+00
    0.00000E+00         0.00000E+00        -0.17828E+08
 
   -0.17661E+08         0.95091E+05         0.00000E+00
    0.95091E+05        -0.19572E+07         0.00000E+00
    0.00000E+00         0.00000E+00        -0.17790E+08
 
   -0.17620E+08         0.97409E+05         0.00000E+00
    0.97409E+05        -0.19572E+07         0.00000E+00
    0.00000E+00         0.00000E+00        -0.17751E+08
 
   -0.17577E+08         0.99746E+05         0.00000E+00
    0.99746E+05        -0.19572E+07         0.00000E+00
    0.00000E+00         0.00000E+00        -0.17710E+08
 
   -0.17534E+08         0.10210E+06         0.00000E+00
    0.10210E+06        -0.19572E+07         0.00000E+00
    0.00000E+00         0.00000E+00        -0.17669E+08
 
   -0.17489E+08         0.10446E+06         0.00000E+00
    0.10446E+06        -0.19572E+07         0.00000E+00
    0.00000E+00         0.00000E+00        -0.17626E+08
 
   -0.17444E+08         0.10684E+06         0.00000E+00
    0.10684E+06        -0.19572E+07         0.00000E+00
    0.00000E+00         0.00000E+00        -0.17582E+08
 
   -0.17397E+08         0.10922E+06         0.00000E+00
    0.10922E+06        -0.19571E+07         0.00000E+00
    0.00000E+00         0.00000E+00        -0.17537E+08
 
   -0.17349E+08         0.11161E+06         0.00000E+00
    0.11161E+06        -0.19571E+07         0.00000E+00
    0.00000E+00         0.00000E+00        -0.17491E+08
 
   -0.17301E+08         0.11399E+06         0.00000E+00
    0.11399E+06        -0.19572E+07         0.00000E+00
    0.00000E+00         0.00000E+00        -0.17443E+08
 
   -0.17251E+08         0.11636E+06         0.00000E+00
    0.11636E+06        -0.19572E+07         0.00000E+00
    0.00000E+00         0.00000E+00        -0.17394E+08
 
   -0.17200E+08         0.11873E+06         0.00000E+00
    0.11873E+06        -0.19572E+07         0.00000E+00
    0.00000E+00         0.00000E+00        -0.17344E+08
 
   -0.17148E+08         0.12107E+06         0.00000E+00
    0.12107E+06        -0.19572E+07         0.00000E+00
    0.00000E+00         0.00000E+00        -0.17293E+08
 
   -0.17095E+08         0.12339E+06         0.00000E+00
    0.12339E+06        -0.19572E+07         0.00000E+00
    0.00000E+00         0.00000E+00        -0.17240E+08
 
   -0.17041E+08         0.12568E+06         0.00000E+00
    0.12568E+06        -0.19573E+07         0.00000E+00
    0.00000E+00         0.00000E+00        -0.17186E+08
 
   -0.16986E+08         0.12793E+06         0.00000E+00
    0.12793E+06        -0.19573E+07         0.00000E+00
    0.00000E+00         0.00000E+00        -0.17131E+08
 
   -0.16931E+08         0.13013E+06         0.00000E+00
    0.13013E+06        -0.19574E+07         0.00000E+00
    0.00000E+00         0.00000E+00        -0.17075E+08
 
   -0.16874E+08         0.13227E+06         0.00000E+00
    0.13227E+06        -0.19575E+07         0.00000E+00
    0.00000E+00         0.00000E+00        -0.17017E+08
 
   -0.16816E+08         0.13435E+06         0.00000E+00
    0.13435E+06        -0.19575E+07         0.00000E+00
    0.00000E+00         0.00000E+00        -0.16957E+08
 
   -0.16757E+08         0.13635E+06         0.00000E+00
    0.13635E+06        -0.19576E+07         0.00000E+00
    0.00000E+00         0.00000E+00        -0.16897E+08
 
   -0.16697E+08         0.13827E+06         0.00000E+00
    0.13827E+06        -0.19577E+07         0.00000E+00
    0.00000E+00         0.00000E+00        -0.16835E+08
 
   -0.16637E+08         0.14008E+06         0.00000E+00
    0.14008E+06        -0.19579E+07         0.00000E+00
    0.00000E+00         0.00000E+00        -0.16771E+08
 
   -0.16575E+08         0.14178E+06         0.00000E+00
    0.14178E+06        -0.19580E+07         0.00000E+00
    0.00000E+00         0.00000E+00        -0.16706E+08
 
   -0.16513E+08         0.14336E+06         0.00000E+00
    0.14336E+06        -0.19582E+07         0.00000E+00
    0.00000E+00         0.00000E+00        -0.16640E+08
 
   -0.16450E+08         0.14479E+06         0.00000E+00
    0.14479E+06        -0.19583E+07         0.00000E+00
    0.00000E+00         0.00000E+00        -0.16573E+08
 
   -0.16387E+08         0.14606E+06         0.00000E+00
    0.14606E+06        -0.19585E+07         0.00000E+00
    0.00000E+00         0.00000E+00        -0.16504E+08
 
   -0.16323E+08         0.14715E+06         0.00000E+00
    0.14715E+06        -0.19587E+07         0.00000E+00
    0.00000E+00         0.00000E+00        -0.16434E+08
 
   -0.16258E+08         0.14804E+06         0.00000E+00
    0.14804E+06        -0.19590E+07         0.00000E+00
    0.00000E+00         0.00000E+00        -0.16362E+08
 
   -0.16193E+08         0.14871E+06         0.00000E+00
    0.14871E+06        -0.19593E+07         0.00000E+00
    0.00000E+00         0.00000E+00        -0.16289E+08
 
   -0.16128E+08         0.14913E+06         0.00000E+00
    0.14913E+06        -0.19596E+07         0.00000E+00
    0.00000E+00         0.00000E+00        -0.16215E+08
 
   -0.16062E+08         0.14927E+06         0.00000E+00
    0.14927E+06        -0.19599E+07         0.00000E+00
    0.00000E+00         0.00000E+00        -0.16140E+08
 
   -0.15997E+08         0.14910E+06         0.00000E+00
    0.14910E+06        -0.19603E+07         0.00000E+00
    0.00000E+00         0.00000E+00        -0.16064E+08
 
   -0.15931E+08         0.14858E+06         0.00000E+00
    0.14858E+06        -0.19607E+07         0.00000E+00
    0.00000E+00         0.00000E+00        -0.15986E+08
 
   -0.15866E+08         0.14767E+06         0.00000E+00
    0.14767E+06        -0.19612E+07         0.00000E+00
    0.00000E+00         0.00000E+00        -0.15907E+08
 
   -0.15800E+08         0.14632E+06         0.00000E+00
    0.14632E+06        -0.19618E+07         0.00000E+00
    0.00000E+00         0.00000E+00        -0.15828E+08
 
   -0.15736E+08         0.14447E+06         0.00000E+00
    0.14447E+06        -0.19624E+07         0.00000E+00
    0.00000E+00         0.00000E+00        -0.15747E+08
 
   -0.15672E+08         0.14205E+06         0.00000E+00
    0.14205E+06        -0.19631E+07         0.00000E+00
    0.00000E+00         0.00000E+00        -0.15665E+08
 
   -0.15609E+08         0.13900E+06         0.00000E+00
    0.13900E+06        -0.19639E+07         0.00000E+00
    0.00000E+00         0.00000E+00        -0.15583E+08
 
   -0.15548E+08         0.13522E+06         0.00000E+00
    0.13522E+06        -0.19649E+07         0.00000E+00
    0.00000E+00         0.00000E+00        -0.15500E+08
 
   -0.15488E+08         0.13061E+06         0.00000E+00
    0.13061E+06        -0.19659E+07         0.00000E+00
    0.00000E+00         0.00000E+00        -0.15416E+08
 
   -0.15429E+08         0.12508E+06         0.00000E+00
    0.12508E+06        -0.19672E+07         0.00000E+00
    0.00000E+00         0.00000E+00        -0.15332E+08
 
   -0.15373E+08         0.11851E+06         0.00000E+00
    0.11851E+06        -0.19685E+07         0.00000E+00
    0.00000E+00         0.00000E+00        -0.15248E+08
 
   -0.15320E+08         0.11076E+06         0.00000E+00
    0.11076E+06        -0.19701E+07         0.00000E+00
    0.00000E+00         0.00000E+00        -0.15164E+08
 
   -0.15269E+08         0.10173E+06         0.00000E+00
    0.10173E+06        -0.19718E+07         0.00000E+00
    0.00000E+00         0.00000E+00        -0.15079E+08
 
   -0.15221E+08         0.91290E+05         0.00000E+00
    0.91290E+05        -0.19737E+07         0.00000E+00
    0.00000E+00         0.00000E+00        -0.14995E+08
 
   -0.15178E+08         0.79348E+05         0.00000E+00
    0.79348E+05        -0.19757E+07         0.00000E+00
    0.00000E+00         0.00000E+00        -0.14910E+08
 
   -0.15138E+08         0.65844E+05         0.00000E+00
    0.65844E+05        -0.19778E+07         0.00000E+00
    0.00000E+00         0.00000E+00        -0.14827E+08
 
   -0.15103E+08         0.50782E+05         0.00000E+00
    0.50782E+05        -0.19799E+07         0.00000E+00
    0.00000E+00         0.00000E+00        -0.14744E+08
 
   -0.15073E+08         0.34257E+05         0.00000E+00
    0.34257E+05        -0.19818E+07         0.00000E+00
    0.00000E+00         0.00000E+00        -0.14661E+08
 
   -0.15048E+08         0.16498E+05         0.00000E+00
    0.16498E+05        -0.19835E+07         0.00000E+00
    0.00000E+00         0.00000E+00        -0.14580E+08
 
   -0.15028E+08        -0.20783E+04         0.00000E+00
   -0.20783E+04        -0.19846E+07         0.00000E+00
    0.00000E+00         0.00000E+00        -0.14499E+08
 
   -0.15014E+08        -0.20804E+05         0.00000E+00
   -0.20804E+05        -0.19848E+07         0.00000E+00
    0.00000E+00         0.00000E+00        -0.14419E+08
 
   -0.15004E+08        -0.38654E+05         0.00000E+00
   -0.38654E+05        -0.19838E+07         0.00000E+00
    0.00000E+00         0.00000E+00        -0.14340E+08
 
   -0.14997E+08        -0.54078E+05         0.00000E+00
   -0.54078E+05        -0.19809E+07         0.00000E+00
    0.00000E+00         0.00000E+00        -0.14260E+08
 
   -0.14992E+08        -0.64645E+05         0.00000E+00
   -0.64645E+05        -0.19750E+07         0.00000E+00
    0.00000E+00         0.00000E+00        -0.14180E+08
 
   -0.14985E+08        -0.66186E+05         0.00000E+00
   -0.66186E+05        -0.19629E+07         0.00000E+00
    0.00000E+00         0.00000E+00        -0.14097E+08
 
   -0.14976E+08        -0.52525E+05         0.00000E+00
   -0.52525E+05        -0.19361E+07         0.00000E+00
    0.00000E+00         0.00000E+00        -0.14009E+08
 
   -0.14968E+08        -0.20533E+05         0.00000E+00
   -0.20533E+05        -0.18766E+07         0.00000E+00
    0.00000E+00         0.00000E+00        -0.13912E+08
 
   -0.18552E+08        -0.24502E+04         0.00000E+00
   -0.24502E+04        -0.19693E+07         0.00000E+00
    0.00000E+00         0.00000E+00        -0.18750E+08
 
   -0.18550E+08        -0.58903E+04         0.00000E+00
   -0.58903E+04        -0.19614E+07         0.00000E+00
    0.00000E+00         0.00000E+00        -0.18737E+08
 
   -0.18548E+08        -0.65237E+04         0.00000E+00
   -0.65237E+04        -0.19581E+07         0.00000E+00
    0.00000E+00         0.00000E+00        -0.18724E+08
 
   -0.18547E+08        -0.50175E+04         0.00000E+00
   -0.50175E+04        -0.19568E+07         0.00000E+00
    0.00000E+00         0.00000E+00        -0.18712E+08
 
   -0.18544E+08        -0.23454E+04         0.00000E+00
   -0.23454E+04        -0.19561E+07         0.00000E+00
    0.00000E+00         0.00000E+00        -0.18700E+08
 
   -0.18542E+08         0.92267E+03         0.00000E+00
    0.92267E+03        -0.19559E+07         0.00000E+00
    0.00000E+00         0.00000E+00        -0.18688E+08
 
   -0.18538E+08         0.44768E+04         0.00000E+00
    0.44768E+04        -0.19558E+07         0.00000E+00
    0.00000E+00         0.00000E+00        -0.18676E+08
 
   -0.18532E+08         0.81232E+04         0.00000E+00
    0.81232E+04        -0.19558E+07         0.00000E+00
    0.00000E+00         0.00000E+00        -0.18663E+08
 
   -0.18526E+08         0.11737E+05         0.00000E+00
    0.11737E+05        -0.19560E+07         0.00000E+00
    0.00000E+00         0.00000E+00        -0.18649E+08
 
   -0.18518E+08         0.15237E+05         0.00000E+00
    0.15237E+05        -0.19561E+07         0.00000E+00
    0.00000E+00         0.00000E+00        -0.18636E+08
 
   -0.18509E+08         0.18578E+05         0.00000E+00
    0.18578E+05        -0.19564E+07         0.00000E+00
    0.00000E+00         0.00000E+00        -0.18621E+08
 
   -0.18499E+08         0.21736E+05         0.00000E+00
    0.21736E+05        -0.19566E+07         0.00000E+00
    0.00000E+00         0.00000E+00        -0.18606E+08
 
   -0.18487E+08         0.24703E+05         0.00000E+00
    0.24703E+05        -0.19568E+07         0.00000E+00
    0.00000E+00         0.00000E+00        -0.18591E+08
 
   -0.18474E+08         0.27485E+05         0.00000E+00
    0.27485E+05        -0.19570E+07         0.00000E+00
    0.00000E+00         0.00000E+00        -0.18575E+08
 
   -0.18460E+08         0.30094E+05         0.00000E+00
    0.30094E+05        -0.19572E+07         0.00000E+00
    0.00000E+00         0.00000E+00        -0.18558E+08
 
   -0.18445E+08         0.32547E+05         0.00000E+00
    0.32547E+05        -0.19574E+07         0.00000E+00
    0.00000E+00         0.00000E+00        -0.18541E+08
 
   -0.18429E+08         0.34863E+05         0.00000E+00
    0.34863E+05        -0.19576E+07         0.00000E+00
    0.00000E+00         0.00000E+00        -0.18524E+08
 
   -0.18412E+08         0.37061E+05         0.00000E+00
    0.37061E+05        -0.19577E+07         0.00000E+00
    0.00000E+00         0.00000E+00        -0.18505E+08
 
   -0.18394E+08         0.39159E+05         0.00000E+00
    0.39159E+05        -0.19578E+07         0.00000E+00
    0.00000E+00         0.00000E+00        -0.18487E+08
 
   -0.18375E+08         0.41176E+05         0.00000E+00
    0.41176E+05        -0.19579E+07         0.00000E+00
    0.00000E+00         0.00000E+00        -0.18467E+08
 
   -0.18355E+08         0.43127E+05         0.00000E+00
    0.43127E+05        -0.19579E+07         0.00000E+00
    0.00000E+00         0.00000E+00        -0.18447E+08
 
   -0.18334E+08         0.45027E+05         0.00000E+00
    0.45027E+05        -0.19580E+07         0.00000E+00
    0.00000E+00         0.00000E+00        -0.18427E+08
 
   -0.18313E+08         0.46886E+05         0.00000E+00
    0.46886E+05        -0.19580E+07         0.00000E+00
    0.00000E+00         0.00000E+00        -0.18406E+08
 
   -0.18290E+08         0.48717E+05         0.00000E+00
    0.48717E+05        -0.19580E+07         0.00000E+00
    0.00000E+00         0.00000E+00        -0.18384E+08
 
   -0.18267E+08         0.50528E+05         0.00000E+00
    0.50528E+05        -0.19580E+07         0.00000E+00
    0.00000E+00         0.00000E+00        -0.18361E+08
 
   -0.18243E+08         0.52327E+05         0.00000E+00
    0.52327E+05        -0.19581E+07         0.00000E+00
    0.00000E+00         0.00000E+00        -0.18338E+08
 
   -0.18218E+08         0.54122E+05         0.00000E+00
    0.54122E+05        -0.19581E+07         0.00000E+00
    0.00000E+00         0.00000E+00        -0.18315E+08
 
   -0.18192E+08         0.55916E+05         0.00000E+00
    0.55916E+05        -0.19581E+07         0.00000E+00
    0.00000E+00         0.00000E+00        -0.18290E+08
 
   -0.18165E+08         0.57717E+05         0.00000E+00
    0.57717E+05        -0.19580E+07         0.00000E+00
    0.00000E+00         0.00000E+00        -0.18265E+08
 
   -0.18138E+08         0.59526E+05         0.00000E+00
    0.59526E+05        -0.19580E+07         0.00000E+00
    0.00000E+00         0.00000E+00        -0.18239E+08
 
   -0.18109E+08         0.61348E+05         0.00000E+00
    0.61348E+05        -0.19580E+07         0.00000E+00
    0.00000E+00         0.00000E+00        -0.18213E+08
 
   -0.18080E+08         0.63186E+05         0.00000E+00
    0.63186E+05        -0.19580E+07         0.00000E+00
    0.00000E+00         0.00000E+00        -0.18185E+08
 
   -0.18050E+08         0.65041E+05         0.00000E+00
    0.65041E+05        -0.19580E+07         0.00000E+00
    0.00000E+00         0.00000E+00        -0.18157E+08
 
   -0.18019E+08         0.66916E+05         0.00000E+00
    0.66916E+05        -0.19579E+07         0.00000E+00
    0.00000E+00         0.00000E+00        -0.18128E+08
 
   -0.17987E+08         0.68812E+05         0.00000E+00
    0.68812E+05        -0.19579E+07         0.00000E+00
    0.00000E+00         0.00000E+00        -0.18099E+08
 
   -0.17954E+08         0.70730E+05         0.00000E+00
    0.70730E+05        -0.19579E+07         0.00000E+00
    0.00000E+00         0.00000E+00        -0.18068E+08
 
   -0.17920E+08         0.72670E+05         0.00000E+00
    0.72670E+05        -0.19579E+07         0.00000E+00
    0.00000E+00         0.00000E+00        -0.18036E+08
 
   -0.17886E+08         0.74635E+05         0.00000E+00
    0.74635E+05        -0.19578E+07         0.00000E+00
    0.00000E+00         0.00000E+00        -0.18004E+08
 
   -0.17850E+08         0.76623E+05         0.00000E+00
    0.76623E+05        -0.19578E+07         0.00000E+00
    0.00000E+00         0.00000E+00        -0.17971E+08
 
   -0.17813E+08         0.78634E+05         0.00000E+00
    0.78634E+05        -0.19578E+07         0.00000E+00
    0.00000E+00         0.00000E+00        -0.17936E+08
 
   -0.17776E+08         0.80668E+05         0.00000E+00
    0.80668E+05        -0.19578E+07         0.00000E+00
    0.00000E+00         0.00000E+00        -0.17901E+08
 
   -0.17737E+08         0.82725E+05         0.00000E+00
    0.82725E+05        -0.19577E+07         0.00000E+00
    0.00000E+00         0.00000E+00        -0.17865E+08
 
   -0.17698E+08         0.84802E+05         0.00000E+00
    0.84802E+05        -0.19577E+07         0.00000E+00
    0.00000E+00         0.00000E+00        -0.17828E+08
 
   -0.17657E+08         0.86900E+05         0.00000E+00
    0.86900E+05        -0.19577E+07         0.00000E+00
    0.00000E+00         0.00000E+00        -0.17789E+08
 
   -0.17616E+08         0.89016E+05         0.00000E+00
    0.89016E+05        -0.19577E+07         0.00000E+00
    0.00000E+00         0.00000E+00        -0.17750E+08
 
   -0.17573E+08         0.91148E+05         0.00000E+00
    0.91148E+05        -0.19576E+07         0.00000E+00
    0.00000E+00         0.00000E+00        -0.17709E+08
 
   -0.17530E+08         0.93295E+05         0.00000E+00
    0.93295E+05        -0.19576E+07         0.00000E+00
    0.00000E+00         0.00000E+00        -0.17668E+08
 
   -0.17485E+08         0.95453E+05         0.00000E+00
    0.95453E+05        -0.19576E+07         0.00000E+00
    0.00000E+00         0.00000E+00        -0.17625E+08
 
   -0.17440E+08         0.97620E+05         0.00000E+00
    0.97620E+05        -0.19576E+07         0.00000E+00
    0.00000E+00         0.00000E+00        -0.17581E+08
 
   -0.17393E+08         0.99793E+05         0.00000E+00
    0.99793E+05        -0.19576E+07         0.00000E+00
    0.00000E+00         0.00000E+00        -0.17536E+08
 
   -0.17345E+08         0.10197E+06         0.00000E+00
    0.10197E+06        -0.19576E+07         0.00000E+00
    0.00000E+00         0.00000E+00        -0.17490E+08
 
   -0.17297E+08         0.10414E+06         0.00000E+00
    0.10414E+06        -0.19576E+07         0.00000E+00
    0.00000E+00         0.00000E+00        -0.17442E+08
 
   -0.17247E+08         0.10630E+06         0.00000E+00
    0.10630E+06        -0.19576E+07         0.00000E+00
    0.00000E+00         0.00000E+00        -0.17393E+08
 
   -0.17196E+08         0.10846E+06         0.00000E+00
    0.10846E+06        -0.19576E+07         0.00000E+00
    0.00000E+00         0.00000E+00        -0.17343E+08
 
   -0.17144E+08         0.11059E+06         0.00000E+00
    0.11059E+06        -0.19576E+07         0.00000E+00
    0.00000E+00         0.00000E+00        -0.17292E+08
 
   -0.17091E+08         0.11271E+06         0.00000E+00
    0.11271E+06        -0.19577E+07         0.00000E+00
    0.00000E+00         0.00000E+00        -0.17239E+08
 
   -0.17037E+08         0.11479E+06         0.00000E+00
    0.11479E+06        -0.19577E+07         0.00000E+00
    0.00000E+00         0.00000E+00        -0.17185E+08
 
   -0.16982E+08         0.11684E+06         0.00000E+00
    0.11684E+06        -0.19577E+07         0.00000E+00
    0.00000E+00         0.00000E+00        -0.17130E+08
 
   -0.16926E+08         0.11884E+06         0.00000E+00
    0.11884E+06        -0.19578E+07         0.00000E+00
    0.00000E+00         0.00000E+00        -0.17073E+08
 
   -0.16869E+08         0.12079E+06         0.00000E+00
    0.12079E+06        -0.19579E+07         0.00000E+00
    0.00000E+00         0.00000E+00        -0.17015E+08
 
   -0.16811E+08         0.12268E+06         0.00000E+00
    0.12268E+06        -0.19579E+07         0.00000E+00
    0.00000E+00         0.00000E+00        -0.16956E+08
 
   -0.16753E+08         0.12450E+06         0.00000E+00
    0.12450E+06        -0.19580E+07         0.00000E+00
    0.00000E+00         0.00000E+00        -0.16895E+08
 
   -0.16693E+08         0.12624E+06         0.00000E+00
    0.12624E+06        -0.19581E+07         0.00000E+00
    0.00000E+00         0.00000E+00        -0.16833E+08
 
   -0.16632E+08         0.12789E+06         0.00000E+00
    0.12789E+06        -0.19582E+07         0.00000E+00
    0.00000E+00         0.00000E+00        -0.16770E+08
 
   -0.16571E+08         0.12943E+06         0.00000E+00
    0.12943E+06        -0.19583E+07         0.00000E+00
    0.00000E+00         0.00000E+00        -0.16705E+08
 
   -0.16509E+08         0.13086E+06         0.00000E+00
    0.13086E+06        -0.19584E+07         0.00000E+00
    0.00000E+00         0.00000E+00        -0.16639E+08
 
   -0.16446E+08         0.13216E+06         0.00000E+00
    0.13216E+06        -0.19586E+07         0.00000E+00
    0.00000E+00         0.00000E+00        -0.16572E+08
 
   -0.16383E+08         0.13330E+06         0.00000E+00
    0.13330E+06        -0.19587E+07         0.00000E+00
    0.00000E+00         0.00000E+00        -0.16503E+08
 
   -0.16319E+08         0.13429E+06         0.00000E+00
    0.13429E+06        -0.19589E+07         0.00000E+00
    0.00000E+00         0.00000E+00        -0.16433E+08
 
   -0.16254E+08         0.13509E+06         0.00000E+00
    0.13509E+06        -0.19591E+07         0.00000E+00
    0.00000E+00         0.00000E+00        -0.16361E+08
 
   -0.16189E+08         0.13568E+06         0.00000E+00
    0.13568E+06        -0.19594E+07         0.00000E+00
    0.00000E+00         0.00000E+00        -0.16288E+08
 
   -0.16124E+08         0.13605E+06         0.00000E+00
    0.13605E+06        -0.19596E+07         0.00000E+00
    0.00000E+00         0.00000E+00        -0.16214E+08
 
   -0.16059E+08         0.13616E+06         0.00000E+00
    0.13616E+06        -0.19599E+07         0.00000E+00
    0.00000E+00         0.00000E+00        -0.16139E+08
 
   -0.15993E+08         0.13599E+06         0.00000E+00
    0.13599E+06        -0.19602E+07         0.00000E+00
    0.00000E+00         0.00000E+00        -0.16063E+08
 
   -0.15928E+08         0.13550E+06         0.00000E+00
    0.13550E+06        -0.19606E+07         0.00000E+00
    0.00000E+00         0.00000E+00        -0.15985E+08
 
   -0.15863E+08         0.13464E+06         0.00000E+00
    0.13464E+06        -0.19610E+07         0.00000E+00
    0.00000E+00         0.00000E+00        -0.15906E+08
 
   -0.15798E+08         0.13338E+06         0.00000E+00
    0.13338E+06        -0.19615E+07         0.00000E+00
    0.00000E+00         0.00000E+00        -0.15827E+08
 
   -0.15734E+08         0.13166E+06         0.00000E+00
    0.13166E+06        -0.19620E+07         0.00000E+00
    0.00000E+00         0.00000E+00        -0.15746E+08
 
   -0.15670E+08         0.12942E+06         0.00000E+00
    0.12942E+06        -0.19626E+07         0.00000E+00
    0.00000E+00         0.00000E+00        -0.15665E+08
 
   -0.15608E+08         0.12659E+06         0.00000E+00
    0.12659E+06        -0.19633E+07         0.00000E+00
    0.00000E+00         0.00000E+00        -0.15582E+08
 
   -0.15547E+08         0.12308E+06         0.00000E+00
    0.12308E+06        -0.19641E+07         0.00000E+00
    0.00000E+00         0.00000E+00        -0.15499E+08
 
   -0.15487E+08         0.11882E+06         0.00000E+00
    0.11882E+06        -0.19650E+07         0.00000E+00
    0.00000E+00         0.00000E+00        -0.15416E+08
 
   -0.15429E+08         0.11369E+06         0.00000E+00
    0.11369E+06        -0.19660E+07         0.00000E+00
    0.00000E+00         0.00000E+00        -0.15332E+08
 
   -0.15374E+08         0.10759E+06         0.00000E+00
    0.10759E+06        -0.19672E+07         0.00000E+00
    0.00000E+00         0.00000E+00        -0.15248E+08
 
   -0.15321E+08         0.10039E+06         0.00000E+00
    0.10039E+06        -0.19685E+07         0.00000E+00
    0.00000E+00         0.00000E+00        -0.15163E+08
 
   -0.15271E+08         0.91992E+05         0.00000E+00
    0.91992E+05        -0.19699E+07         0.00000E+00
    0.00000E+00         0.00000E+00        -0.15079E+08
 
   -0.15225E+08         0.82272E+05         0.00000E+00
    0.82272E+05        -0.19715E+07         0.00000E+00
    0.00000E+00         0.00000E+00        -0.14995E+08
 
   -0.15182E+08         0.71138E+05         0.00000E+00
    0.71138E+05        -0.19732E+07         0.00000E+00
    0.00000E+00         0.00000E+00        -0.14911E+08
 
   -0.15144E+08         0.58531E+05         0.00000E+00
    0.58531E+05        -0.19750E+07         0.00000E+00
    0.00000E+00         0.00000E+00        -0.14828E+08
 
   -0.15111E+08         0.44447E+05         0.00000E+00
    0.44447E+05        -0.19768E+07         0.00000E+00
    0.00000E+00         0.00000E+00        -0.14745E+08
 
   -0.15083E+08         0.28967E+05         0.00000E+00
    0.28967E+05        -0.19785E+07         0.00000E+00
    0.00000E+00         0.00000E+00        -0.14663E+08
 
   -0.15060E+08         0.12296E+05         0.00000E+00
    0.12296E+05        -0.19799E+07         0.00000E+00
    0.00000E+00         0.00000E+00        -0.14582E+08
 
   -0.15043E+08        -0.51922E+04         0.00000E+00
   -0.51922E+04        -0.19809E+07         0.00000E+00
    0.00000E+00         0.00000E+00        -0.14502E+08
 
   -0.15032E+08        -0.22895E+05         0.00000E+00
   -0.22895E+05        -0.19812E+07         0.00000E+00
    0.00000E+00         0.00000E+00        -0.14423E+08
 
   -0.15026E+08        -0.39888E+05         0.00000E+00
   -0.39888E+05        -0.19805E+07         0.00000E+00
    0.00000E+00         0.00000E+00        -0.14345E+08
 
   -0.15023E+08        -0.54765E+05         0.00000E+00
   -0.54765E+05        -0.19782E+07         0.00000E+00
    0.00000E+00         0.00000E+00        -0.14267E+08
 
   -0.15022E+08        -0.65312E+05         0.00000E+00
   -0.65312E+05        -0.19735E+07         0.00000E+00
    0.00000E+00         0.00000E+00        -0.14189E+08
 
   -0.15020E+08        -0.67499E+05         0.00000E+00
   -0.67499E+05        -0.19638E+07         0.00000E+00
    0.00000E+00         0.00000E+00        -0.14108E+08
 
   -0.15013E+08        -0.54481E+05         0.00000E+00
   -0.54481E+05        -0.19408E+07         0.00000E+00
    0.00000E+00         0.00000E+00        -0.14022E+08
 
   -0.15006E+08        -0.21606E+05         0.00000E+00
   -0.21606E+05        -0.18849E+07         0.00000E+00
    0.00000E+00         0.00000E+00        -0.13926E+08
 
   -0.18545E+08        -0.26498E+04         0.00000E+00
   -0.26498E+04        -0.19683E+07         0.00000E+00
    0.00000E+00         0.00000E+00        -0.18748E+08
 
   -0.18544E+08        -0.62701E+04         0.00000E+00
   -0.62701E+04        -0.19610E+07         0.00000E+00
    0.00000E+00         0.00000E+00        -0.18735E+08
 
   -0.18543E+08        -0.68558E+04         0.00000E+00
   -0.68558E+04        -0.19583E+07         0.00000E+00
    0.00000E+00         0.00000E+00        -0.18722E+08
 
   -0.18541E+08        -0.53416E+04         0.00000E+00
   -0.53416E+04        -0.19572E+07         0.00000E+00
    0.00000E+00         0.00000E+00        -0.18711E+08
 
   -0.18540E+08        -0.27816E+04         0.00000E+00
   -0.27816E+04        -0.19567E+07         0.00000E+00
    0.00000E+00         0.00000E+00        -0.18699E+08
 
   -0.18537E+08         0.29447E+03         0.00000E+00
    0.29447E+03        -0.19565E+07         0.00000E+00
    0.00000E+00         0.00000E+00        -0.18687E+08
 
   -0.18534E+08         0.36113E+04         0.00000E+00
    0.36113E+04        -0.19565E+07         0.00000E+00
    0.00000E+00         0.00000E+00        -0.18675E+08
 
   -0.18529E+08         0.69965E+04         0.00000E+00
    0.69965E+04        -0.19565E+07         0.00000E+00
    0.00000E+00         0.00000E+00        -0.18662E+08
 
   -0.18523E+08         0.10339E+05         0.00000E+00
    0.10339E+05        -0.19566E+07         0.00000E+00
    0.00000E+00         0.00000E+00        -0.18649E+08
 
   -0.18515E+08         0.13570E+05         0.00000E+00
    0.13570E+05        -0.19568E+07         0.00000E+00
    0.00000E+00         0.00000E+00        -0.18635E+08
 
   -0.18507E+08         0.16646E+05         0.00000E+00
    0.16646E+05        -0.19570E+07         0.00000E+00
    0.00000E+00         0.00000E+00        -0.18621E+08
 
   -0.18496E+08         0.19547E+05         0.00000E+00
    0.19547E+05        -0.19572E+07         0.00000E+00
    0.00000E+00         0.00000E+00        -0.18606E+08
 
   -0.18485E+08         0.22268E+05         0.00000E+00
    0.22268E+05        -0.19574E+07         0.00000E+00
    0.00000E+00         0.00000E+00        -0.18590E+08
 
   -0.18472E+08         0.24815E+05         0.00000E+00
    0.24815E+05        -0.19576E+07         0.00000E+00
    0.00000E+00         0.00000E+00        -0.18574E+08
 
   -0.18458E+08         0.27200E+05         0.00000E+00
    0.27200E+05        -0.19577E+07         0.00000E+00
    0.00000E+00         0.00000E+00        -0.18558E+08
 
   -0.18443E+08         0.29439E+05         0.00000E+00
    0.29439E+05        -0.19579E+07         0.00000E+00
    0.00000E+00         0.00000E+00        -0.18541E+08
 
   -0.18427E+08         0.31549E+05         0.00000E+00
    0.31549E+05        -0.19580E+07         0.00000E+00
    0.00000E+00         0.00000E+00        -0.18523E+08
 
   -0.18410E+08         0.33550E+05         0.00000E+00
    0.33550E+05        -0.19581E+07         0.00000E+00
    0.00000E+00         0.00000E+00        -0.18505E+08
 
   -0.18392E+08         0.35458E+05         0.00000E+00
    0.35458E+05        -0.19582E+07         0.00000E+00
    0.00000E+00         0.00000E+00        -0.18486E+08
 
   -0.18373E+08         0.37291E+05         0.00000E+00
    0.37291E+05        -0.19582E+07         0.00000E+00
    0.00000E+00         0.00000E+00        -0.18467E+08
 
   -0.18353E+08         0.39062E+05         0.00000E+00
    0.39062E+05        -0.19583E+07         0.00000E+00
    0.00000E+00         0.00000E+00        -0.18447E+08
 
   -0.18332E+08         0.40785E+05         0.00000E+00
    0.40785E+05        -0.19583E+07         0.00000E+00
    0.00000E+00         0.00000E+00        -0.18426E+08
 
   -0.18311E+08         0.42471E+05         0.00000E+00
    0.42471E+05        -0.19584E+07         0.00000E+00
    0.00000E+00         0.00000E+00        -0.18405E+08
 
   -0.18288E+08         0.44131E+05         0.00000E+00
    0.44131E+05        -0.19584E+07         0.00000E+00
    0.00000E+00         0.00000E+00        -0.18383E+08
 
   -0.18265E+08         0.45772E+05         0.00000E+00
    0.45772E+05        -0.19584E+07         0.00000E+00
    0.00000E+00         0.00000E+00        -0.18361E+08
 
   -0.18241E+08         0.47402E+05         0.00000E+00
    0.47402E+05        -0.19584E+07         0.00000E+00
    0.00000E+00         0.00000E+00        -0.18338E+08
 
   -0.18216E+08         0.49028E+05         0.00000E+00
    0.49028E+05        -0.19584E+07         0.00000E+00
    0.00000E+00         0.00000E+00        -0.18314E+08
 
   -0.18190E+08         0.50653E+05         0.00000E+00
    0.50653E+05        -0.19584E+07         0.00000E+00
    0.00000E+00         0.00000E+00        -0.18290E+08
 
   -0.18163E+08         0.52283E+05         0.00000E+00
    0.52283E+05        -0.19584E+07         0.00000E+00
    0.00000E+00         0.00000E+00        -0.18265E+08
 
   -0.18135E+08         0.53922E+05         0.00000E+00
    0.53922E+05        -0.19584E+07         0.00000E+00
    0.00000E+00         0.00000E+00        -0.18239E+08
 
   -0.18107E+08         0.55572E+05         0.00000E+00
    0.55572E+05        -0.19584E+07         0.00000E+00
    0.00000E+00         0.00000E+00        -0.18212E+08
 
   -0.18077E+08         0.57235E+05         0.00000E+00
    0.57235E+05        -0.19583E+07         0.00000E+00
    0.00000E+00         0.00000E+00        -0.18185E+08
 
   -0.18047E+08         0.58915E+05         0.00000E+00
    0.58915E+05        -0.19583E+07         0.00000E+00
    0.00000E+00         0.00000E+00        -0.18157E+08
 
   -0.18016E+08         0.60612E+05         0.00000E+00
    0.60612E+05        -0.19583E+07         0.00000E+00
    0.00000E+00         0.00000E+00        -0.18128E+08
 
   -0.17984E+08         0.62328E+05         0.00000E+00
    0.62328E+05        -0.19583E+07         0.00000E+00
    0.00000E+00         0.00000E+00        -0.18098E+08
 
   -0.17951E+08         0.64065E+05         0.00000E+00
    0.64065E+05        -0.19583E+07         0.00000E+00
    0.00000E+00         0.00000E+00        -0.18067E+08
 
   -0.17917E+08         0.65821E+05         0.00000E+00
    0.65821E+05        -0.19582E+07         0.00000E+00
    0.00000E+00         0.00000E+00        -0.18036E+08
 
   -0.17883E+08         0.67599E+05         0.00000E+00
    0.67599E+05        -0.19582E+07         0.00000E+00
    0.00000E+00         0.00000E+00        -0.18003E+08
 
   -0.17847E+08         0.69398E+05         0.00000E+00
    0.69398E+05        -0.19582E+07         0.00000E+00
    0.00000E+00         0.00000E+00        -0.17970E+08
 
   -0.17810E+08         0.71217E+05         0.00000E+00
    0.71217E+05        -0.19582E+07         0.00000E+00
    0.00000E+00         0.00000E+00        -0.17935E+08
 
   -0.17773E+08         0.73058E+05         0.00000E+00
    0.73058E+05        -0.19581E+07         0.00000E+00
    0.00000E+00         0.00000E+00        -0.17900E+08
 
   -0.17734E+08         0.74918E+05         0.00000E+00
    0.74918E+05        -0.19581E+07         0.00000E+00
    0.00000E+00         0.00000E+00        -0.17864E+08
 
   -0.17695E+08         0.76798E+05         0.00000E+00
    0.76798E+05        -0.19581E+07         0.00000E+00
    0.00000E+00         0.00000E+00        -0.17827E+08
 
   -0.17654E+08         0.78695E+05         0.00000E+00
    0.78695E+05        -0.19581E+07         0.00000E+00
    0.00000E+00         0.00000E+00        -0.17788E+08
 
   -0.17612E+08         0.80608E+05         0.00000E+00
    0.80608E+05        -0.19581E+07         0.00000E+00
    0.00000E+00         0.00000E+00        -0.17749E+08
 
   -0.17570E+08         0.82537E+05         0.00000E+00
    0.82537E+05        -0.19581E+07         0.00000E+00
    0.00000E+00         0.00000E+00        -0.17708E+08
 
   -0.17526E+08         0.84478E+05         0.00000E+00
    0.84478E+05        -0.19580E+07         0.00000E+00
    0.00000E+00         0.00000E+00        -0.17667E+08
 
   -0.17482E+08         0.86429E+05         0.00000E+00
    0.86429E+05        -0.19580E+07         0.00000E+00
    0.00000E+00         0.00000E+00        -0.17624E+08
 
   -0.17436E+08         0.88388E+05         0.00000E+00
    0.88388E+05        -0.19580E+07         0.00000E+00
    0.00000E+00         0.00000E+00        -0.17580E+08
 
   -0.17389E+08         0.90351E+05         0.00000E+00
    0.90351E+05        -0.19580E+07         0.00000E+00
    0.00000E+00         0.00000E+00        -0.17535E+08
 
   -0.17341E+08         0.92316E+05         0.00000E+00
    0.92316E+05        -0.19580E+07         0.00000E+00
    0.00000E+00         0.00000E+00        -0.17488E+08
 
   -0.17293E+08         0.94278E+05         0.00000E+00
    0.94278E+05        -0.19580E+07         0.00000E+00
    0.00000E+00         0.00000E+00        -0.17441E+08
 
   -0.17243E+08         0.96234E+05         0.00000E+00
    0.96234E+05        -0.19580E+07         0.00000E+00
    0.00000E+00         0.00000E+00        -0.17392E+08
 
   -0.17192E+08         0.98178E+05         0.00000E+00
    0.98178E+05        -0.19580E+07         0.00000E+00
    0.00000E+00         0.00000E+00        -0.17342E+08
 
   -0.17140E+08         0.10011E+06         0.00000E+00
    0.10011E+06        -0.19581E+07         0.00000E+00
    0.00000E+00         0.00000E+00        -0.17291E+08
 
   -0.17087E+08         0.10202E+06         0.00000E+00
    0.10202E+06        -0.19581E+07         0.00000E+00
    0.00000E+00         0.00000E+00        -0.17238E+08
 
   -0.17033E+08         0.10390E+06         0.00000E+00
    0.10390E+06        -0.19581E+07         0.00000E+00
    0.00000E+00         0.00000E+00        -0.17184E+08
 
   -0.16978E+08         0.10574E+06         0.00000E+00
    0.10574E+06        -0.19581E+07         0.00000E+00
    0.00000E+00         0.00000E+00        -0.17129E+08
 
   -0.16922E+08         0.10755E+06         0.00000E+00
    0.10755E+06        -0.19582E+07         0.00000E+00
    0.00000E+00         0.00000E+00        -0.17072E+08
 
   -0.16865E+08         0.10931E+06         0.00000E+00
    0.10931E+06        -0.19582E+07         0.00000E+00
    0.00000E+00         0.00000E+00        -0.17014E+08
 
   -0.16807E+08         0.11101E+06         0.00000E+00
    0.11101E+06        -0.19583E+07         0.00000E+00
    0.00000E+00         0.00000E+00        -0.16955E+08
 
   -0.16748E+08         0.11265E+06         0.00000E+00
    0.11265E+06        -0.19583E+07         0.00000E+00
    0.00000E+00         0.00000E+00        -0.16894E+08
 
   -0.16689E+08         0.11422E+06         0.00000E+00
    0.11422E+06        -0.19584E+07         0.00000E+00
    0.00000E+00         0.00000E+00        -0.16832E+08
 
   -0.16628E+08         0.11570E+06         0.00000E+00
    0.11570E+06        -0.19585E+07         0.00000E+00
    0.00000E+00         0.00000E+00        -0.16769E+08
 
   -0.16567E+08         0.11709E+06         0.00000E+00
    0.11709E+06        -0.19586E+07         0.00000E+00
    0.00000E+00         0.00000E+00        -0.16704E+08
 
   -0.16505E+08         0.11837E+06         0.00000E+00
    0.11837E+06        -0.19587E+07         0.00000E+00
    0.00000E+00         0.00000E+00        -0.16638E+08
 
   -0.16442E+08         0.11953E+06         0.00000E+00
    0.11953E+06        -0.19588E+07         0.00000E+00
    0.00000E+00         0.00000E+00        -0.16570E+08
 
   -0.16379E+08         0.12056E+06         0.00000E+00
    0.12056E+06        -0.19590E+07         0.00000E+00
    0.00000E+00         0.00000E+00        -0.16502E+08
 
   -0.16315E+08         0.12144E+06         0.00000E+00
    0.12144E+06        -0.19591E+07         0.00000E+00
    0.00000E+00         0.00000E+00        -0.16431E+08
 
   -0.16250E+08         0.12215E+06         0.00000E+00
    0.12215E+06        -0.19593E+07         0.00000E+00
    0.00000E+00         0.00000E+00        -0.16360E+08
 
   -0.16186E+08         0.12268E+06         0.00000E+00
    0.12268E+06        -0.19595E+07         0.00000E+00
    0.00000E+00         0.00000E+00        -0.16287E+08
 
   -0.16120E+08         0.12300E+06         0.00000E+00
    0.12300E+06        -0.19597E+07         0.00000E+00
    0.00000E+00         0.00000E+00        -0.16213E+08
 
   -0.16055E+08         0.12309E+06         0.00000E+00
    0.12309E+06        -0.19599E+07         0.00000E+00
    0.00000E+00         0.00000E+00        -0.16138E+08
 
   -0.15990E+08         0.12291E+06         0.00000E+00
    0.12291E+06        -0.19602E+07         0.00000E+00
    0.00000E+00         0.00000E+00        -0.16062E+08
 
   -0.15925E+08         0.12245E+06         0.00000E+00
    0.12245E+06        -0.19605E+07         0.00000E+00
    0.00000E+00         0.00000E+00        -0.15984E+08
 
   -0.15860E+08         0.12166E+06         0.00000E+00
    0.12166E+06        -0.19608E+07         0.00000E+00
    0.00000E+00         0.00000E+00        -0.15905E+08
 
   -0.15795E+08         0.12049E+06         0.00000E+00
    0.12049E+06        -0.19612E+07         0.00000E+00
    0.00000E+00         0.00000E+00        -0.15826E+08
 
   -0.15731E+08         0.11891E+06         0.00000E+00
    0.11891E+06        -0.19616E+07         0.00000E+00
    0.00000E+00         0.00000E+00        -0.15745E+08
 
   -0.15668E+08         0.11685E+06         0.00000E+00
    0.11685E+06        -0.19621E+07         0.00000E+00
    0.00000E+00         0.00000E+00        -0.15664E+08
 
   -0.15606E+08         0.11425E+06         0.00000E+00
    0.11425E+06        -0.19627E+07         0.00000E+00
    0.00000E+00         0.00000E+00        -0.15582E+08
 
   -0.15545E+08         0.11104E+06         0.00000E+00
    0.11104E+06        -0.19633E+07         0.00000E+00
    0.00000E+00         0.00000E+00        -0.15499E+08
 
   -0.15486E+08         0.10712E+06         0.00000E+00
    0.10712E+06        -0.19641E+07         0.00000E+00
    0.00000E+00         0.00000E+00        -0.15415E+08
 
   -0.15429E+08         0.10241E+06         0.00000E+00
    0.10241E+06        -0.19649E+07         0.00000E+00
    0.00000E+00         0.00000E+00        -0.15332E+08
 
   -0.15374E+08         0.96803E+05         0.00000E+00
    0.96803E+05        -0.19659E+07         0.00000E+00
    0.00000E+00         0.00000E+00        -0.15247E+08
 
   -0.15322E+08         0.90186E+05         0.00000E+00
    0.90186E+05        -0.19670E+07         0.00000E+00
    0.00000E+00         0.00000E+00        -0.15163E+08
 
   -0.15273E+08         0.82449E+05         0.00000E+00
    0.82449E+05        -0.19682E+07         0.00000E+00
    0.00000E+00         0.00000E+00        -0.15079E+08
 
   -0.15227E+08         0.73485E+05         0.00000E+00
    0.73485E+05        -0.19695E+07         0.00000E+00
    0.00000E+00         0.00000E+00        -0.14995E+08
 
   -0.15186E+08         0.63204E+05         0.00000E+00
    0.63204E+05        -0.19709E+07         0.00000E+00
    0.00000E+00         0.00000E+00        -0.14912E+08
 
   -0.15150E+08         0.51543E+05         0.00000E+00
    0.51543E+05        -0.19724E+07         0.00000E+00
    0.00000E+00         0.00000E+00        -0.14829E+08
 
   -0.15118E+08         0.38496E+05         0.00000E+00
    0.38496E+05        -0.19739E+07         0.00000E+00
    0.00000E+00         0.00000E+00        -0.14746E+08
 
   -0.15092E+08         0.24128E+05         0.00000E+00
    0.24128E+05        -0.19754E+07         0.00000E+00
    0.00000E+00         0.00000E+00        -0.14665E+08
 
   -0.15072E+08         0.86202E+04         0.00000E+00
    0.86202E+04        -0.19766E+07         0.00000E+00
    0.00000E+00         0.00000E+00        -0.14585E+08
 
   -0.15058E+08        -0.76976E+04         0.00000E+00
   -0.76976E+04        -0.19774E+07         0.00000E+00
    0.00000E+00         0.00000E+00        -0.14506E+08
 
   -0.15050E+08        -0.24289E+05         0.00000E+00
   -0.24289E+05        -0.19778E+07         0.00000E+00
    0.00000E+00         0.00000E+00        -0.14428E+08
 
   -0.15047E+08        -0.40336E+05         0.00000E+00
   -0.40336E+05        -0.19773E+07         0.00000E+00
    0.00000E+00         0.00000E+00        -0.14351E+08
 
   -0.15049E+08        -0.54585E+05         0.00000E+00
   -0.54585E+05        -0.19756E+07         0.00000E+00
    0.00000E+00         0.00000E+00        -0.14274E+08
 
   -0.15053E+08        -0.65065E+05         0.00000E+00
   -0.65065E+05        -0.19720E+07         0.00000E+00
    0.00000E+00         0.00000E+00        -0.14197E+08
 
   -0.15055E+08        -0.68029E+05         0.00000E+00
   -0.68029E+05        -0.19644E+07         0.00000E+00
    0.00000E+00         0.00000E+00        -0.14119E+08
 
   -0.15052E+08        -0.56068E+05         0.00000E+00
   -0.56068E+05        -0.19454E+07         0.00000E+00
    0.00000E+00         0.00000E+00        -0.14035E+08
 
   -0.15046E+08        -0.22647E+05         0.00000E+00
   -0.22647E+05        -0.18935E+07         0.00000E+00
    0.00000E+00         0.00000E+00        -0.13940E+08
 
   -0.18539E+08        -0.28451E+04         0.00000E+00
   -0.28451E+04        -0.19673E+07         0.00000E+00
    0.00000E+00         0.00000E+00        -0.18746E+08
 
   -0.18538E+08        -0.65864E+04         0.00000E+00
   -0.65864E+04        -0.19606E+07         0.00000E+00
    0.00000E+00         0.00000E+00        -0.18733E+08
 
   -0.18537E+08        -0.70624E+04         0.00000E+00
   -0.70624E+04        -0.19584E+07         0.00000E+00
    0.00000E+00         0.00000E+00        -0.18721E+08
 
   -0.18536E+08        -0.55314E+04         0.00000E+00
   -0.55314E+04        -0.19577E+07         0.00000E+00
    0.00000E+00         0.00000E+00        -0.18709E+08
 
   -0.18535E+08        -0.30980E+04         0.00000E+00
   -0.30980E+04        -0.19573E+07         0.00000E+00
    0.00000E+00         0.00000E+00        -0.18698E+08
 
   -0.18533E+08        -0.23009E+03         0.00000E+00
   -0.23009E+03        -0.19571E+07         0.00000E+00
    0.00000E+00         0.00000E+00        -0.18686E+08
 
   -0.18530E+08         0.28336E+04         0.00000E+00
    0.28336E+04        -0.19571E+07         0.00000E+00
    0.00000E+00         0.00000E+00        -0.18674E+08
 
   -0.18526E+08         0.59428E+04         0.00000E+00
    0.59428E+04        -0.19572E+07         0.00000E+00
    0.00000E+00         0.00000E+00        -0.18661E+08
 
   -0.18520E+08         0.90020E+04         0.00000E+00
    0.90020E+04        -0.19573E+07         0.00000E+00
    0.00000E+00         0.00000E+00        -0.18648E+08
 
   -0.18513E+08         0.11950E+05         0.00000E+00
    0.11950E+05        -0.19574E+07         0.00000E+00
    0.00000E+00         0.00000E+00        -0.18634E+08
 
   -0.18504E+08         0.14750E+05         0.00000E+00
    0.14750E+05        -0.19576E+07         0.00000E+00
    0.00000E+00         0.00000E+00        -0.18620E+08
 
   -0.18494E+08         0.17386E+05         0.00000E+00
    0.17386E+05        -0.19577E+07         0.00000E+00
    0.00000E+00         0.00000E+00        -0.18605E+08
 
   -0.18483E+08         0.19854E+05         0.00000E+00
    0.19854E+05        -0.19579E+07         0.00000E+00
    0.00000E+00         0.00000E+00        -0.18590E+08
 
   -0.18470E+08         0.22160E+05         0.00000E+00
    0.22160E+05        -0.19580E+07         0.00000E+00
    0.00000E+00         0.00000E+00        -0.18574E+08
 
   -0.18456E+08         0.24315E+05         0.00000E+00
    0.24315E+05        -0.19582E+07         0.00000E+00
    0.00000E+00         0.00000E+00        -0.18557E+08
 
   -0.18441E+08         0.26335E+05         0.00000E+00
    0.26335E+05        -0.19583E+07         0.00000E+00
    0.00000E+00         0.00000E+00        -0.18540E+08
 
   -0.18425E+08         0.28237E+05         0.00000E+00
    0.28237E+05        -0.19584E+07         0.00000E+00
    0.00000E+00         0.00000E+00        -0.18523E+08
 
   -0.18408E+08         0.30038E+05         0.00000E+00
    0.30038E+05        -0.19585E+07         0.00000E+00
    0.00000E+00         0.00000E+00        -0.18504E+08
 
   -0.18390E+08         0.31754E+05         0.00000E+00
    0.31754E+05        -0.19585E+07         0.00000E+00
    0.00000E+00         0.00000E+00        -0.18486E+08
 
   -0.18371E+08         0.33400E+05         0.00000E+00
    0.33400E+05        -0.19586E+07         0.00000E+00
    0.00000E+00         0.00000E+00        -0.18466E+08
 
   -0.18351E+08         0.34989E+05         0.00000E+00
    0.34989E+05        -0.19586E+07         0.00000E+00
    0.00000E+00         0.00000E+00        -0.18446E+08
 
   -0.18330E+08         0.36535E+05         0.00000E+00
    0.36535E+05        -0.19587E+07         0.00000E+00
    0.00000E+00         0.00000E+00        -0.18426E+08
 
   -0.18309E+08         0.38047E+05         0.00000E+00
    0.38047E+05        -0.19587E+07         0.00000E+00
    0.00000E+00         0.00000E+00        -0.18405E+08
 
   -0.18286E+08         0.39534E+05         0.00000E+00
    0.39534E+05        -0.19587E+07         0.00000E+00
    0.00000E+00         0.00000E+00        -0.18383E+08
 
   -0.18263E+08         0.41005E+05         0.00000E+00
    0.41005E+05        -0.19587E+07         0.00000E+00
    0.00000E+00         0.00000E+00        -0.18360E+08
 
   -0.18238E+08         0.42466E+05         0.00000E+00
    0.42466E+05        -0.19587E+07         0.00000E+00
    0.00000E+00         0.00000E+00        -0.18337E+08
 
   -0.18213E+08         0.43922E+05         0.00000E+00
    0.43922E+05        -0.19587E+07         0.00000E+00
    0.00000E+00         0.00000E+00        -0.18313E+08
 
   -0.18187E+08         0.45378E+05         0.00000E+00
    0.45378E+05        -0.19587E+07         0.00000E+00
    0.00000E+00         0.00000E+00        -0.18289E+08
 
   -0.18161E+08         0.46838E+05         0.00000E+00
    0.46838E+05        -0.19587E+07         0.00000E+00
    0.00000E+00         0.00000E+00        -0.18264E+08
 
   -0.18133E+08         0.48305E+05         0.00000E+00
    0.48305E+05        -0.19587E+07         0.00000E+00
    0.00000E+00         0.00000E+00        -0.18238E+08
 
   -0.18104E+08         0.49782E+05         0.00000E+00
    0.49782E+05        -0.19587E+07         0.00000E+00
    0.00000E+00         0.00000E+00        -0.18211E+08
 
   -0.18075E+08         0.51272E+05         0.00000E+00
    0.51272E+05        -0.19587E+07         0.00000E+00
    0.00000E+00         0.00000E+00        -0.18184E+08
 
   -0.18045E+08         0.52775E+05         0.00000E+00
    0.52775E+05        -0.19586E+07         0.00000E+00
    0.00000E+00         0.00000E+00        -0.18156E+08
 
   -0.18013E+08         0.54295E+05         0.00000E+00
    0.54295E+05        -0.19586E+07         0.00000E+00
    0.00000E+00         0.00000E+00        -0.18127E+08
 
   -0.17981E+08         0.55831E+05         0.00000E+00
    0.55831E+05        -0.19586E+07         0.00000E+00
    0.00000E+00         0.00000E+00        -0.18097E+08
 
   -0.17948E+08         0.57385E+05         0.00000E+00
    0.57385E+05        -0.19586E+07         0.00000E+00
    0.00000E+00         0.00000E+00        -0.18066E+08
 
   -0.17914E+08         0.58957E+05         0.00000E+00
    0.58957E+05        -0.19586E+07         0.00000E+00
    0.00000E+00         0.00000E+00        -0.18035E+08
 
   -0.17880E+08         0.60548E+05         0.00000E+00
    0.60548E+05        -0.19586E+07         0.00000E+00
    0.00000E+00         0.00000E+00        -0.18002E+08
 
   -0.17844E+08         0.62158E+05         0.00000E+00
    0.62158E+05        -0.19585E+07         0.00000E+00
    0.00000E+00         0.00000E+00        -0.17969E+08
 
   -0.17807E+08         0.63786E+05         0.00000E+00
    0.63786E+05        -0.19585E+07         0.00000E+00
    0.00000E+00         0.00000E+00        -0.17935E+08
 
   -0.17769E+08         0.65433E+05         0.00000E+00
    0.65433E+05        -0.19585E+07         0.00000E+00
    0.00000E+00         0.00000E+00        -0.17899E+08
 
   -0.17731E+08         0.67097E+05         0.00000E+00
    0.67097E+05        -0.19585E+07         0.00000E+00
    0.00000E+00         0.00000E+00        -0.17863E+08
 
   -0.17691E+08         0.68778E+05         0.00000E+00
    0.68778E+05        -0.19585E+07         0.00000E+00
    0.00000E+00         0.00000E+00        -0.17826E+08
 
   -0.17651E+08         0.70475E+05         0.00000E+00
    0.70475E+05        -0.19584E+07         0.00000E+00
    0.00000E+00         0.00000E+00        -0.17787E+08
 
   -0.17609E+08         0.72187E+05         0.00000E+00
    0.72187E+05        -0.19584E+07         0.00000E+00
    0.00000E+00         0.00000E+00        -0.17748E+08
 
   -0.17566E+08         0.73911E+05         0.00000E+00
    0.73911E+05        -0.19584E+07         0.00000E+00
    0.00000E+00         0.00000E+00        -0.17707E+08
 
   -0.17523E+08         0.75647E+05         0.00000E+00
    0.75647E+05        -0.19584E+07         0.00000E+00
    0.00000E+00         0.00000E+00        -0.17666E+08
 
   -0.17478E+08         0.77391E+05         0.00000E+00
    0.77391E+05        -0.19584E+07         0.00000E+00
    0.00000E+00         0.00000E+00        -0.17623E+08
 
   -0.17432E+08         0.79142E+05         0.00000E+00
    0.79142E+05        -0.19584E+07         0.00000E+00
    0.00000E+00         0.00000E+00        -0.17579E+08
 
   -0.17385E+08         0.80897E+05         0.00000E+00
    0.80897E+05        -0.19584E+07         0.00000E+00
    0.00000E+00         0.00000E+00        -0.17534E+08
 
   -0.17338E+08         0.82653E+05         0.00000E+00
    0.82653E+05        -0.19584E+07         0.00000E+00
    0.00000E+00         0.00000E+00        -0.17487E+08
 
   -0.17289E+08         0.84406E+05         0.00000E+00
    0.84406E+05        -0.19584E+07         0.00000E+00
    0.00000E+00         0.00000E+00        -0.17440E+08
 
   -0.17239E+08         0.86153E+05         0.00000E+00
    0.86153E+05        -0.19584E+07         0.00000E+00
    0.00000E+00         0.00000E+00        -0.17391E+08
 
   -0.17188E+08         0.87891E+05         0.00000E+00
    0.87891E+05        -0.19584E+07         0.00000E+00
    0.00000E+00         0.00000E+00        -0.17341E+08
 
   -0.17136E+08         0.89613E+05         0.00000E+00
    0.89613E+05        -0.19584E+07         0.00000E+00
    0.00000E+00         0.00000E+00        -0.17290E+08
 
   -0.17083E+08         0.91317E+05         0.00000E+00
    0.91317E+05        -0.19584E+07         0.00000E+00
    0.00000E+00         0.00000E+00        -0.17237E+08
 
   -0.17029E+08         0.92995E+05         0.00000E+00
    0.92995E+05        -0.19585E+07         0.00000E+00
    0.00000E+00         0.00000E+00        -0.17183E+08
 
   -0.16974E+08         0.94644E+05         0.00000E+00
    0.94644E+05        -0.19585E+07         0.00000E+00
    0.00000E+00         0.00000E+00        -0.17128E+08
 
   -0.16918E+08         0.96256E+05         0.00000E+00
    0.96256E+05        -0.19585E+07         0.00000E+00
    0.00000E+00         0.00000E+00        -0.17071E+08
 
   -0.16861E+08         0.97825E+05         0.00000E+00
    0.97825E+05        -0.19585E+07         0.00000E+00
    0.00000E+00         0.00000E+00        -0.17013E+08
 
   -0.16803E+08         0.99344E+05         0.00000E+00
    0.99344E+05        -0.19586E+07         0.00000E+00
    0.00000E+00         0.00000E+00        -0.16954E+08
 
   -0.16744E+08         0.10081E+06         0.00000E+00
    0.10081E+06        -0.19586E+07         0.00000E+00
    0.00000E+00         0.00000E+00        -0.16893E+08
 
   -0.16684E+08         0.10220E+06         0.00000E+00
    0.10220E+06        -0.19587E+07         0.00000E+00
    0.00000E+00         0.00000E+00        -0.16831E+08
 
   -0.16624E+08         0.10352E+06         0.00000E+00
    0.10352E+06        -0.19588E+07         0.00000E+00
    0.00000E+00         0.00000E+00        -0.16768E+08
 
   -0.16563E+08         0.10475E+06         0.00000E+00
    0.10475E+06        -0.19588E+07         0.00000E+00
    0.00000E+00         0.00000E+00        -0.16703E+08
 
   -0.16501E+08         0.10589E+06         0.00000E+00
    0.10589E+06        -0.19589E+07         0.00000E+00
    0.00000E+00         0.00000E+00        -0.16637E+08
 
   -0.16438E+08         0.10692E+06         0.00000E+00
    0.10692E+06        -0.19590E+07         0.00000E+00
    0.00000E+00         0.00000E+00        -0.16569E+08
 
   -0.16375E+08         0.10784E+06         0.00000E+00
    0.10784E+06        -0.19591E+07         0.00000E+00
    0.00000E+00         0.00000E+00        -0.16500E+08
 
   -0.16311E+08         0.10861E+06         0.00000E+00
    0.10861E+06        -0.19593E+07         0.00000E+00
    0.00000E+00         0.00000E+00        -0.16430E+08
 
   -0.16246E+08         0.10924E+06         0.00000E+00
    0.10924E+06        -0.19594E+07         0.00000E+00
    0.00000E+00         0.00000E+00        -0.16359E+08
 
   -0.16182E+08         0.10970E+06         0.00000E+00
    0.10970E+06        -0.19595E+07         0.00000E+00
    0.00000E+00         0.00000E+00        -0.16286E+08
 
   -0.16117E+08         0.10997E+06         0.00000E+00
    0.10997E+06        -0.19597E+07         0.00000E+00
    0.00000E+00         0.00000E+00        -0.16212E+08
 
   -0.16052E+08         0.11004E+06         0.00000E+00
    0.11004E+06        -0.19599E+07         0.00000E+00
    0.00000E+00         0.00000E+00        -0.16137E+08
 
   -0.15986E+08         0.10987E+06         0.00000E+00
    0.10987E+06        -0.19601E+07         0.00000E+00
    0.00000E+00         0.00000E+00        -0.16061E+08
 
   -0.15921E+08         0.10944E+06         0.00000E+00
    0.10944E+06        -0.19603E+07         0.00000E+00
    0.00000E+00         0.00000E+00        -0.15983E+08
 
   -0.15857E+08         0.10871E+06         0.00000E+00
    0.10871E+06        -0.19606E+07         0.00000E+00
    0.00000E+00         0.00000E+00        -0.15905E+08
 
   -0.15792E+08         0.10765E+06         0.00000E+00
    0.10765E+06        -0.19609E+07         0.00000E+00
    0.00000E+00         0.00000E+00        -0.15825E+08
 
   -0.15728E+08         0.10622E+06         0.00000E+00
    0.10622E+06        -0.19613E+07         0.00000E+00
    0.00000E+00         0.00000E+00        -0.15744E+08
 
   -0.15666E+08         0.10435E+06         0.00000E+00
    0.10435E+06        -0.19617E+07         0.00000E+00
    0.00000E+00         0.00000E+00        -0.15663E+08
 
   -0.15604E+08         0.10199E+06         0.00000E+00
    0.10199E+06        -0.19621E+07         0.00000E+00
    0.00000E+00         0.00000E+00        -0.15581E+08
 
   -0.15543E+08         0.99075E+05         0.00000E+00
    0.99075E+05        -0.19626E+07         0.00000E+00
    0.00000E+00         0.00000E+00        -0.15498E+08
 
   -0.15485E+08         0.95524E+05         0.00000E+00
    0.95524E+05        -0.19632E+07         0.00000E+00
    0.00000E+00         0.00000E+00        -0.15415E+08
 
   -0.15428E+08         0.91248E+05         0.00000E+00
    0.91248E+05        -0.19639E+07         0.00000E+00
    0.00000E+00         0.00000E+00        -0.15331E+08
 
   -0.15374E+08         0.86153E+05         0.00000E+00
    0.86153E+05        -0.19647E+07         0.00000E+00
    0.00000E+00         0.00000E+00        -0.15247E+08
 
   -0.15322E+08         0.80136E+05         0.00000E+00
    0.80136E+05        -0.19656E+07         0.00000E+00
    0.00000E+00         0.00000E+00        -0.15163E+08
 
   -0.15274E+08         0.73093E+05         0.00000E+00
    0.73093E+05        -0.19666E+07         0.00000E+00
    0.00000E+00         0.00000E+00        -0.15079E+08
 
   -0.15230E+08         0.64922E+05         0.00000E+00
    0.64922E+05        -0.19677E+07         0.00000E+00
    0.00000E+00         0.00000E+00        -0.14995E+08
 
   -0.15190E+08         0.55536E+05         0.00000E+00
    0.55536E+05        -0.19688E+07         0.00000E+00
    0.00000E+00         0.00000E+00        -0.14912E+08
 
   -0.15155E+08         0.44875E+05         0.00000E+00
    0.44875E+05        -0.19701E+07         0.00000E+00
    0.00000E+00         0.00000E+00        -0.14829E+08
 
   -0.15125E+08         0.32924E+05         0.00000E+00
    0.32924E+05        -0.19713E+07         0.00000E+00
    0.00000E+00         0.00000E+00        -0.14748E+08
 
   -0.15101E+08         0.19739E+05         0.00000E+00
    0.19739E+05        -0.19725E+07         0.00000E+00
    0.00000E+00         0.00000E+00        -0.14667E+08
 
   -0.15083E+08         0.54720E+04         0.00000E+00
    0.54720E+04        -0.19735E+07         0.00000E+00
    0.00000E+00         0.00000E+00        -0.14587E+08
 
   -0.15072E+08        -0.95877E+04         0.00000E+00
   -0.95877E+04        -0.19742E+07         0.00000E+00
    0.00000E+00         0.00000E+00        -0.14509E+08
 
   -0.15068E+08        -0.24972E+05         0.00000E+00
   -0.24972E+05        -0.19746E+07         0.00000E+00
    0.00000E+00         0.00000E+00        -0.14432E+08
 
   -0.15069E+08        -0.39970E+05         0.00000E+00
   -0.39970E+05        -0.19743E+07         0.00000E+00
    0.00000E+00         0.00000E+00        -0.14356E+08
 
   -0.15075E+08        -0.53487E+05         0.00000E+00
   -0.53487E+05        -0.19731E+07         0.00000E+00
    0.00000E+00         0.00000E+00        -0.14281E+08
 
   -0.15083E+08        -0.63813E+05         0.00000E+00
   -0.63813E+05        -0.19704E+07         0.00000E+00
    0.00000E+00         0.00000E+00        -0.14206E+08
 
   -0.15091E+08        -0.67632E+05         0.00000E+00
   -0.67632E+05        -0.19648E+07         0.00000E+00
    0.00000E+00         0.00000E+00        -0.14130E+08
 
   -0.15092E+08        -0.57181E+05         0.00000E+00
   -0.57181E+05        -0.19498E+07         0.00000E+00
    0.00000E+00         0.00000E+00        -0.14048E+08
 
   -0.15087E+08        -0.23649E+05         0.00000E+00
   -0.23649E+05        -0.19024E+07         0.00000E+00
    0.00000E+00         0.00000E+00        -0.13955E+08
 
   -0.18532E+08        -0.30347E+04         0.00000E+00
   -0.30347E+04        -0.19662E+07         0.00000E+00
    0.00000E+00         0.00000E+00        -0.18743E+08
 
   -0.18531E+08        -0.68187E+04         0.00000E+00
   -0.68187E+04        -0.19602E+07         0.00000E+00
    0.00000E+00         0.00000E+00        -0.18730E+08
 
   -0.18531E+08        -0.71189E+04         0.00000E+00
   -0.71189E+04        -0.19586E+07         0.00000E+00
    0.00000E+00         0.00000E+00        -0.18719E+08
 
   -0.18531E+08        -0.55737E+04         0.00000E+00
   -0.55737E+04        -0.19581E+07         0.00000E+00
    0.00000E+00         0.00000E+00        -0.18708E+08
 
   -0.18531E+08        -0.32879E+04         0.00000E+00
   -0.32879E+04        -0.19578E+07         0.00000E+00
    0.00000E+00         0.00000E+00        -0.18696E+08
 
   -0.18529E+08        -0.64725E+03         0.00000E+00
   -0.64725E+03        -0.19577E+07         0.00000E+00
    0.00000E+00         0.00000E+00        -0.18685E+08
 
   -0.18527E+08         0.21454E+04         0.00000E+00
    0.21454E+04        -0.19577E+07         0.00000E+00
    0.00000E+00         0.00000E+00        -0.18673E+08
 
   -0.18523E+08         0.49628E+04         0.00000E+00
    0.49628E+04        -0.19578E+07         0.00000E+00
    0.00000E+00         0.00000E+00        -0.18660E+08
 
   -0.18518E+08         0.77241E+04         0.00000E+00
    0.77241E+04        -0.19578E+07         0.00000E+00
    0.00000E+00         0.00000E+00        -0.18647E+08
 
   -0.18511E+08         0.10377E+05         0.00000E+00
    0.10377E+05        -0.19580E+07         0.00000E+00
    0.00000E+00         0.00000E+00        -0.18634E+08
 
   -0.18502E+08         0.12892E+05         0.00000E+00
    0.12892E+05        -0.19581E+07         0.00000E+00
    0.00000E+00         0.00000E+00        -0.18620E+08
 
   -0.18492E+08         0.15254E+05         0.00000E+00
    0.15254E+05        -0.19582E+07         0.00000E+00
    0.00000E+00         0.00000E+00        -0.18605E+08
 
   -0.18481E+08         0.17460E+05         0.00000E+00
    0.17460E+05        -0.19583E+07         0.00000E+00
    0.00000E+00         0.00000E+00        -0.18589E+08
 
   -0.18468E+08         0.19518E+05         0.00000E+00
    0.19518E+05        -0.19585E+07         0.00000E+00
    0.00000E+00         0.00000E+00        -0.18574E+08
 
   -0.18455E+08         0.21439E+05         0.00000E+00
    0.21439E+05        -0.19586E+07         0.00000E+00
    0.00000E+00         0.00000E+00        -0.18557E+08
 
   -0.18440E+08         0.23236E+05         0.00000E+00
    0.23236E+05        -0.19586E+07         0.00000E+00
    0.00000E+00         0.00000E+00        -0.18540E+08
 
   -0.18424E+08         0.24926E+05         0.00000E+00
    0.24926E+05        -0.19587E+07         0.00000E+00
    0.00000E+00         0.00000E+00        -0.18522E+08
 
   -0.18407E+08         0.26524E+05         0.00000E+00
    0.26524E+05        -0.19588E+07         0.00000E+00
    0.00000E+00         0.00000E+00        -0.18504E+08
 
   -0.18388E+08         0.28045E+05         0.00000E+00
    0.28045E+05        -0.19588E+07         0.00000E+00
    0.00000E+00         0.00000E+00        -0.18485E+08
 
   -0.18369E+08         0.29502E+05         0.00000E+00
    0.29502E+05        -0.19589E+07         0.00000E+00
    0.00000E+00         0.00000E+00        -0.18466E+08
 
   -0.18349E+08         0.30909E+05         0.00000E+00
    0.30909E+05        -0.19589E+07         0.00000E+00
    0.00000E+00         0.00000E+00        -0.18446E+08
 
   -0.18329E+08         0.32276E+05         0.00000E+00
    0.32276E+05        -0.19589E+07         0.00000E+00
    0.00000E+00         0.00000E+00        -0.18425E+08
 
   -0.18307E+08         0.33613E+05         0.00000E+00
    0.33613E+05        -0.19590E+07         0.00000E+00
    0.00000E+00         0.00000E+00        -0.18404E+08
 
   -0.18284E+08         0.34928E+05         0.00000E+00
    0.34928E+05        -0.19590E+07         0.00000E+00
    0.00000E+00         0.00000E+00        -0.18382E+08
 
   -0.18261E+08         0.36227E+05         0.00000E+00
    0.36227E+05        -0.19590E+07         0.00000E+00
    0.00000E+00         0.00000E+00        -0.18360E+08
 
   -0.18236E+08         0.37517E+05         0.00000E+00
    0.37517E+05        -0.19590E+07         0.00000E+00
    0.00000E+00         0.00000E+00        -0.18337E+08
 
   -0.18211E+08         0.38803E+05         0.00000E+00
    0.38803E+05        -0.19590E+07         0.00000E+00
    0.00000E+00         0.00000E+00        -0.18313E+08
 
   -0.18185E+08         0.40089E+05         0.00000E+00
    0.40089E+05        -0.19590E+07         0.00000E+00
    0.00000E+00         0.00000E+00        -0.18288E+08
 
   -0.18158E+08         0.41379E+05         0.00000E+00
    0.41379E+05        -0.19590E+07         0.00000E+00
    0.00000E+00         0.00000E+00        -0.18263E+08
 
   -0.18130E+08         0.42674E+05         0.00000E+00
    0.42674E+05        -0.19590E+07         0.00000E+00
    0.00000E+00         0.00000E+00        -0.18237E+08
 
   -0.18102E+08         0.43979E+05         0.00000E+00
    0.43979E+05        -0.19590E+07         0.00000E+00
    0.00000E+00         0.00000E+00        -0.18211E+08
 
   -0.18072E+08         0.45294E+05         0.00000E+00
    0.45294E+05        -0.19589E+07         0.00000E+00
    0.00000E+00         0.00000E+00        -0.18183E+08
 
   -0.18042E+08         0.46621E+05         0.00000E+00
    0.46621E+05        -0.19589E+07         0.00000E+00
    0.00000E+00         0.00000E+00        -0.18155E+08
 
   -0.18011E+08         0.47963E+05         0.00000E+00
    0.47963E+05        -0.19589E+07         0.00000E+00
    0.00000E+00         0.00000E+00        -0.18126E+08
 
   -0.17979E+08         0.49319E+05         0.00000E+00
    0.49319E+05        -0.19589E+07         0.00000E+00
    0.00000E+00         0.00000E+00        -0.18096E+08
 
   -0.17946E+08         0.50691E+05         0.00000E+00
    0.50691E+05        -0.19589E+07         0.00000E+00
    0.00000E+00         0.00000E+00        -0.18066E+08
 
   -0.17912E+08         0.52078E+05         0.00000E+00
    0.52078E+05        -0.19589E+07         0.00000E+00
    0.00000E+00         0.00000E+00        -0.18034E+08
 
   -0.17877E+08         0.53482E+05         0.00000E+00
    0.53482E+05        -0.19589E+07         0.00000E+00
    0.00000E+00         0.00000E+00        -0.18002E+08
 
   -0.17841E+08         0.54903E+05         0.00000E+00
    0.54903E+05        -0.19588E+07         0.00000E+00
    0.00000E+00         0.00000E+00        -0.17968E+08
 
   -0.17804E+08         0.56340E+05         0.00000E+00
    0.56340E+05        -0.19588E+07         0.00000E+00
    0.00000E+00         0.00000E+00        -0.17934E+08
 
   -0.17766E+08         0.57793E+05         0.00000E+00
    0.57793E+05        -0.19588E+07         0.00000E+00
    0.00000E+00         0.00000E+00        -0.17898E+08
 
   -0.17728E+08         0.59261E+05         0.00000E+00
    0.59261E+05        -0.19588E+07         0.00000E+00
    0.00000E+00         0.00000E+00        -0.17862E+08
 
   -0.17688E+08         0.60744E+05         0.00000E+00
    0.60744E+05        -0.19588E+07         0.00000E+00
    0.00000E+00         0.00000E+00        -0.17825E+08
 
   -0.17647E+08         0.62241E+05         0.00000E+00
    0.62241E+05        -0.19588E+07         0.00000E+00
    0.00000E+00         0.00000E+00        -0.17786E+08
 
   -0.17605E+08         0.63751E+05         0.00000E+00
    0.63751E+05        -0.19588E+07         0.00000E+00
    0.00000E+00         0.00000E+00        -0.17747E+08
 
   -0.17563E+08         0.65271E+05         0.00000E+00
    0.65271E+05        -0.19587E+07         0.00000E+00
    0.00000E+00         0.00000E+00        -0.17706E+08
 
   -0.17519E+08         0.66802E+05         0.00000E+00
    0.66802E+05        -0.19587E+07         0.00000E+00
    0.00000E+00         0.00000E+00        -0.17665E+08
 
   -0.17474E+08         0.68340E+05         0.00000E+00
    0.68340E+05        -0.19587E+07         0.00000E+00
    0.00000E+00         0.00000E+00        -0.17622E+08
 
   -0.17428E+08         0.69884E+05         0.00000E+00
    0.69884E+05        -0.19587E+07         0.00000E+00
    0.00000E+00         0.00000E+00        -0.17578E+08
 
   -0.17382E+08         0.71431E+05         0.00000E+00
    0.71431E+05        -0.19587E+07         0.00000E+00
    0.00000E+00         0.00000E+00        -0.17533E+08
 
   -0.17334E+08         0.72978E+05         0.00000E+00
    0.72978E+05        -0.19587E+07         0.00000E+00
    0.00000E+00         0.00000E+00        -0.17486E+08
 
   -0.17285E+08         0.74523E+05         0.00000E+00
    0.74523E+05        -0.19587E+07         0.00000E+00
    0.00000E+00         0.00000E+00        -0.17439E+08
 
   -0.17235E+08         0.76063E+05         0.00000E+00
    0.76063E+05        -0.19587E+07         0.00000E+00
    0.00000E+00         0.00000E+00        -0.17390E+08
 
   -0.17184E+08         0.77593E+05         0.00000E+00
    0.77593E+05        -0.19587E+07         0.00000E+00
    0.00000E+00         0.00000E+00        -0.17340E+08
 
   -0.17132E+08         0.79110E+05         0.00000E+00
    0.79110E+05        -0.19587E+07         0.00000E+00
    0.00000E+00         0.00000E+00        -0.17288E+08
 
   -0.17079E+08         0.80610E+05         0.00000E+00
    0.80610E+05        -0.19587E+07         0.00000E+00
    0.00000E+00         0.00000E+00        -0.17236E+08
 
   -0.17025E+08         0.82088E+05         0.00000E+00
    0.82088E+05        -0.19588E+07         0.00000E+00
    0.00000E+00         0.00000E+00        -0.17182E+08
 
   -0.16970E+08         0.83538E+05         0.00000E+00
    0.83538E+05        -0.19588E+07         0.00000E+00
    0.00000E+00         0.00000E+00        -0.17127E+08
 
   -0.16914E+08         0.84957E+05         0.00000E+00
    0.84957E+05        -0.19588E+07         0.00000E+00
    0.00000E+00         0.00000E+00        -0.17070E+08
 
   -0.16857E+08         0.86337E+05         0.00000E+00
    0.86337E+05        -0.19588E+07         0.00000E+00
    0.00000E+00         0.00000E+00        -0.17012E+08
 
   -0.16799E+08         0.87673E+05         0.00000E+00
    0.87673E+05        -0.19589E+07         0.00000E+00
    0.00000E+00         0.00000E+00        -0.16953E+08
 
   -0.16740E+08         0.88957E+05         0.00000E+00
    0.88957E+05        -0.19589E+07         0.00000E+00
    0.00000E+00         0.00000E+00        -0.16892E+08
 
   -0.16680E+08         0.90182E+05         0.00000E+00
    0.90182E+05        -0.19590E+07         0.00000E+00
    0.00000E+00         0.00000E+00        -0.16830E+08
 
   -0.16620E+08         0.91340E+05         0.00000E+00
    0.91340E+05        -0.19590E+07         0.00000E+00
    0.00000E+00         0.00000E+00        -0.16766E+08
 
   -0.16558E+08         0.92423E+05         0.00000E+00
    0.92423E+05        -0.19591E+07         0.00000E+00
    0.00000E+00         0.00000E+00        -0.16702E+08
 
   -0.16496E+08         0.93421E+05         0.00000E+00
    0.93421E+05        -0.19591E+07         0.00000E+00
    0.00000E+00         0.00000E+00        -0.16636E+08
 
   -0.16434E+08         0.94323E+05         0.00000E+00
    0.94323E+05        -0.19592E+07         0.00000E+00
    0.00000E+00         0.00000E+00        -0.16568E+08
 
   -0.16370E+08         0.95119E+05         0.00000E+00
    0.95119E+05        -0.19593E+07         0.00000E+00
    0.00000E+00         0.00000E+00        -0.16499E+08
 
   -0.16307E+08         0.95796E+05         0.00000E+00
    0.95796E+05        -0.19594E+07         0.00000E+00
    0.00000E+00         0.00000E+00        -0.16429E+08
 
   -0.16242E+08         0.96341E+05         0.00000E+00
    0.96341E+05        -0.19595E+07         0.00000E+00
    0.00000E+00         0.00000E+00        -0.16358E+08
 
   -0.16178E+08         0.96737E+05         0.00000E+00
    0.96737E+05        -0.19596E+07         0.00000E+00
    0.00000E+00         0.00000E+00        -0.16285E+08
 
   -0.16113E+08         0.96969E+05         0.00000E+00
    0.96969E+05        -0.19597E+07         0.00000E+00
    0.00000E+00         0.00000E+00        -0.16211E+08
 
   -0.16048E+08         0.97016E+05         0.00000E+00
    0.97016E+05        -0.19599E+07         0.00000E+00
    0.00000E+00         0.00000E+00        -0.16136E+08
 
   -0.15983E+08         0.96856E+05         0.00000E+00
    0.96856E+05        -0.19600E+07         0.00000E+00
    0.00000E+00         0.00000E+00        -0.16059E+08
 
   -0.15918E+08         0.96464E+05         0.00000E+00
    0.96464E+05        -0.19602E+07         0.00000E+00
    0.00000E+00         0.00000E+00        -0.15982E+08
 
   -0.15853E+08         0.95810E+05         0.00000E+00
    0.95810E+05        -0.19604E+07         0.00000E+00
    0.00000E+00         0.00000E+00        -0.15903E+08
 
   -0.15789E+08         0.94859E+05         0.00000E+00
    0.94859E+05        -0.19607E+07         0.00000E+00
    0.00000E+00         0.00000E+00        -0.15824E+08
 
   -0.15726E+08         0.93572E+05         0.00000E+00
    0.93572E+05        -0.19610E+07         0.00000E+00
    0.00000E+00         0.00000E+00        -0.15743E+08
 
   -0.15663E+08         0.91902E+05         0.00000E+00
    0.91902E+05        -0.19613E+07         0.00000E+00
    0.00000E+00         0.00000E+00        -0.15662E+08
 
   -0.15602E+08         0.89796E+05         0.00000E+00
    0.89796E+05        -0.19616E+07         0.00000E+00
    0.00000E+00         0.00000E+00        -0.15580E+08
 
   -0.15542E+08         0.87190E+05         0.00000E+00
    0.87190E+05        -0.19620E+07         0.00000E+00
    0.00000E+00         0.00000E+00        -0.15497E+08
 
   -0.15483E+08         0.84015E+05         0.00000E+00
    0.84015E+05        -0.19625E+07         0.00000E+00
    0.00000E+00         0.00000E+00        -0.15414E+08
 
   -0.15427E+08         0.80191E+05         0.00000E+00
    0.80191E+05        -0.19631E+07         0.00000E+00
    0.00000E+00         0.00000E+00        -0.15330E+08
 
   -0.15373E+08         0.75630E+05         0.00000E+00
    0.75630E+05        -0.19637E+07         0.00000E+00
    0.00000E+00         0.00000E+00        -0.15247E+08
 
   -0.15323E+08         0.70237E+05         0.00000E+00
    0.70237E+05        -0.19644E+07         0.00000E+00
    0.00000E+00         0.00000E+00        -0.15163E+08
 
   -0.15275E+08         0.63917E+05         0.00000E+00
    0.63917E+05        -0.19651E+07         0.00000E+00
    0.00000E+00         0.00000E+00        -0.15079E+08
 
   -0.15232E+08         0.56575E+05         0.00000E+00
    0.56575E+05        -0.19660E+07         0.00000E+00
    0.00000E+00         0.00000E+00        -0.14995E+08
 
   -0.15193E+08         0.48128E+05         0.00000E+00
    0.48128E+05        -0.19669E+07         0.00000E+00
    0.00000E+00         0.00000E+00        -0.14912E+08
 
   -0.15159E+08         0.38519E+05         0.00000E+00
    0.38519E+05        -0.19679E+07         0.00000E+00
    0.00000E+00         0.00000E+00        -0.14830E+08
 
   -0.15131E+08         0.27726E+05         0.00000E+00
    0.27726E+05        -0.19689E+07         0.00000E+00
    0.00000E+00         0.00000E+00        -0.14749E+08
 
   -0.15109E+08         0.15795E+05         0.00000E+00
    0.15795E+05        -0.19698E+07         0.00000E+00
    0.00000E+00         0.00000E+00        -0.14669E+08
 
   -0.15094E+08         0.28515E+04         0.00000E+00
    0.28515E+04        -0.19707E+07         0.00000E+00
    0.00000E+00         0.00000E+00        -0.14590E+08
 
   -0.15086E+08        -0.10857E+05         0.00000E+00
   -0.10857E+05        -0.19713E+07         0.00000E+00
    0.00000E+00         0.00000E+00        -0.14512E+08
 
   -0.15085E+08        -0.24929E+05         0.00000E+00
   -0.24929E+05        -0.19716E+07         0.00000E+00
    0.00000E+00         0.00000E+00        -0.14436E+08
 
   -0.15090E+08        -0.38761E+05         0.00000E+00
   -0.38761E+05        -0.19715E+07         0.00000E+00
    0.00000E+00         0.00000E+00        -0.14362E+08
 
   -0.15100E+08        -0.51424E+05         0.00000E+00
   -0.51424E+05        -0.19706E+07         0.00000E+00
    0.00000E+00         0.00000E+00        -0.14288E+08
 
   -0.15114E+08        -0.61460E+05         0.00000E+00
   -0.61460E+05        -0.19687E+07         0.00000E+00
    0.00000E+00         0.00000E+00        -0.14215E+08
 
   -0.15128E+08        -0.66132E+05         0.00000E+00
   -0.66132E+05        -0.19649E+07         0.00000E+00
    0.00000E+00         0.00000E+00        -0.14141E+08
 
   -0.15133E+08        -0.57672E+05         0.00000E+00
   -0.57672E+05        -0.19538E+07         0.00000E+00
    0.00000E+00         0.00000E+00        -0.14062E+08
 
   -0.15131E+08        -0.24599E+05         0.00000E+00
   -0.24599E+05        -0.19117E+07         0.00000E+00
    0.00000E+00         0.00000E+00        -0.13971E+08
 
   -0.18524E+08        -0.32158E+04         0.00000E+00
   -0.32158E+04        -0.19650E+07         0.00000E+00
    0.00000E+00         0.00000E+00        -0.18741E+08
 
   -0.18524E+08        -0.69380E+04         0.00000E+00
   -0.69380E+04        -0.19598E+07         0.00000E+00
    0.00000E+00         0.00000E+00        -0.18728E+08
 
   -0.18524E+08        -0.69968E+04         0.00000E+00
   -0.69968E+04        -0.19588E+07         0.00000E+00
    0.00000E+00         0.00000E+00        -0.18717E+08
 
   -0.18526E+08        -0.54561E+04         0.00000E+00
   -0.54561E+04        -0.19585E+07         0.00000E+00
    0.00000E+00         0.00000E+00        -0.18706E+08
 
   -0.18526E+08        -0.33450E+04         0.00000E+00
   -0.33450E+04        -0.19583E+07         0.00000E+00
    0.00000E+00         0.00000E+00        -0.18695E+08
 
   -0.18526E+08        -0.95346E+03         0.00000E+00
   -0.95346E+03        -0.19582E+07         0.00000E+00
    0.00000E+00         0.00000E+00        -0.18684E+08
 
   -0.18524E+08         0.15482E+04         0.00000E+00
    0.15482E+04        -0.19582E+07         0.00000E+00
    0.00000E+00         0.00000E+00        -0.18672E+08
 
   -0.18520E+08         0.40567E+04         0.00000E+00
    0.40567E+04        -0.19583E+07         0.00000E+00
    0.00000E+00         0.00000E+00        -0.18660E+08
 
   -0.18515E+08         0.65055E+04         0.00000E+00
    0.65055E+04        -0.19584E+07         0.00000E+00
    0.00000E+00         0.00000E+00        -0.18647E+08
 
   -0.18508E+08         0.88512E+04         0.00000E+00
    0.88512E+04        -0.19584E+07         0.00000E+00
    0.00000E+00         0.00000E+00        -0.18633E+08
 
   -0.18500E+08         0.11069E+05         0.00000E+00
    0.11069E+05        -0.19585E+07         0.00000E+00
    0.00000E+00         0.00000E+00        -0.18619E+08
 
   -0.18490E+08         0.13147E+05         0.00000E+00
    0.13147E+05        -0.19586E+07         0.00000E+00
    0.00000E+00         0.00000E+00        -0.18604E+08
 
   -0.18479E+08         0.15085E+05         0.00000E+00
    0.15085E+05        -0.19587E+07         0.00000E+00
    0.00000E+00         0.00000E+00        -0.18589E+08
 
   -0.18467E+08         0.16889E+05         0.00000E+00
    0.16889E+05        -0.19588E+07         0.00000E+00
    0.00000E+00         0.00000E+00        -0.18573E+08
 
   -0.18453E+08         0.18570E+05         0.00000E+00
    0.18570E+05        -0.19589E+07         0.00000E+00
    0.00000E+00         0.00000E+00        -0.18557E+08
 
   -0.18438E+08         0.20140E+05         0.00000E+00
    0.20140E+05        -0.19590E+07         0.00000E+00
    0.00000E+00         0.00000E+00        -0.18539E+08
 
   -0.18422E+08         0.21614E+05         0.00000E+00
    0.21614E+05        -0.19590E+07         0.00000E+00
    0.00000E+00         0.00000E+00        -0.18522E+08
 
   -0.18405E+08         0.23006E+05         0.00000E+00
    0.23006E+05        -0.19591E+07         0.00000E+00
    0.00000E+00         0.00000E+00        -0.18504E+08
 
   -0.18387E+08         0.24330E+05         0.00000E+00
    0.24330E+05        -0.19591E+07         0.00000E+00
    0.00000E+00         0.00000E+00        -0.18485E+08
 
   -0.18368E+08         0.25598E+05         0.00000E+00
    0.25598E+05        -0.19592E+07         0.00000E+00
    0.00000E+00         0.00000E+00        -0.18465E+08
 
   -0.18348E+08         0.26821E+05         0.00000E+00
    0.26821E+05        -0.19592E+07         0.00000E+00
    0.00000E+00         0.00000E+00        -0.18445E+08
 
   -0.18327E+08         0.28008E+05         0.00000E+00
    0.28008E+05        -0.19592E+07         0.00000E+00
    0.00000E+00         0.00000E+00        -0.18425E+08
 
   -0.18305E+08         0.29169E+05         0.00000E+00
    0.29169E+05        -0.19592E+07         0.00000E+00
    0.00000E+00         0.00000E+00        -0.18404E+08
 
   -0.18282E+08         0.30310E+05         0.00000E+00
    0.30310E+05        -0.19592E+07         0.00000E+00
    0.00000E+00         0.00000E+00        -0.18382E+08
 
   -0.18259E+08         0.31438E+05         0.00000E+00
    0.31438E+05        -0.19592E+07         0.00000E+00
    0.00000E+00         0.00000E+00        -0.18359E+08
 
   -0.18234E+08         0.32557E+05         0.00000E+00
    0.32557E+05        -0.19592E+07         0.00000E+00
    0.00000E+00         0.00000E+00        -0.18336E+08
 
   -0.18209E+08         0.33673E+05         0.00000E+00
    0.33673E+05        -0.19592E+07         0.00000E+00
    0.00000E+00         0.00000E+00        -0.18312E+08
 
   -0.18183E+08         0.34788E+05         0.00000E+00
    0.34788E+05        -0.19592E+07         0.00000E+00
    0.00000E+00         0.00000E+00        -0.18288E+08
 
   -0.18156E+08         0.35907E+05         0.00000E+00
    0.35907E+05        -0.19592E+07         0.00000E+00
    0.00000E+00         0.00000E+00        -0.18263E+08
 
   -0.18128E+08         0.37030E+05         0.00000E+00
    0.37030E+05        -0.19592E+07         0.00000E+00
    0.00000E+00         0.00000E+00        -0.18237E+08
 
   -0.18099E+08         0.38162E+05         0.00000E+00
    0.38162E+05        -0.19592E+07         0.00000E+00
    0.00000E+00         0.00000E+00        -0.18210E+08
 
   -0.18070E+08         0.39302E+05         0.00000E+00
    0.39302E+05        -0.19592E+07         0.00000E+00
    0.00000E+00         0.00000E+00        -0.18183E+08
 
   -0.18039E+08         0.40453E+05         0.00000E+00
    0.40453E+05        -0.19592E+07         0.00000E+00
    0.00000E+00         0.00000E+00        -0.18154E+08
 
   -0.18008E+08         0.41616E+05         0.00000E+00
    0.41616E+05        -0.19592E+07         0.00000E+00
    0.00000E+00         0.00000E+00        -0.18125E+08
 
   -0.17976E+08         0.42792E+05         0.00000E+00
    0.42792E+05        -0.19592E+07         0.00000E+00
    0.00000E+00         0.00000E+00        -0.18096E+08
 
   -0.17943E+08         0.43981E+05         0.00000E+00
    0.43981E+05        -0.19591E+07         0.00000E+00
    0.00000E+00         0.00000E+00        -0.18065E+08
 
   -0.17909E+08         0.45184E+05         0.00000E+00
    0.45184E+05        -0.19591E+07         0.00000E+00
    0.00000E+00         0.00000E+00        -0.18033E+08
 
   -0.17874E+08         0.46402E+05         0.00000E+00
    0.46402E+05        -0.19591E+07         0.00000E+00
    0.00000E+00         0.00000E+00        -0.18001E+08
 
   -0.17838E+08         0.47633E+05         0.00000E+00
    0.47633E+05        -0.19591E+07         0.00000E+00
    0.00000E+00         0.00000E+00        -0.17967E+08
 
   -0.17801E+08         0.48878E+05         0.00000E+00
    0.48878E+05        -0.19591E+07         0.00000E+00
    0.00000E+00         0.00000E+00        -0.17933E+08
 
   -0.17763E+08         0.50138E+05         0.00000E+00
    0.50138E+05        -0.19591E+07         0.00000E+00
    0.00000E+00         0.00000E+00        -0.17898E+08
 
   -0.17724E+08         0.51410E+05         0.00000E+00
    0.51410E+05        -0.19591E+07         0.00000E+00
    0.00000E+00         0.00000E+00        -0.17861E+08
 
   -0.17685E+08         0.52695E+05         0.00000E+00
    0.52695E+05        -0.19591E+07         0.00000E+00
    0.00000E+00         0.00000E+00        -0.17824E+08
 
   -0.17644E+08         0.53992E+05         0.00000E+00
    0.53992E+05        -0.19590E+07         0.00000E+00
    0.00000E+00         0.00000E+00        -0.17785E+08
 
   -0.17602E+08         0.55300E+05         0.00000E+00
    0.55300E+05        -0.19590E+07         0.00000E+00
    0.00000E+00         0.00000E+00        -0.17746E+08
 
   -0.17559E+08         0.56617E+05         0.00000E+00
    0.56617E+05        -0.19590E+07         0.00000E+00
    0.00000E+00         0.00000E+00        -0.17705E+08
 
   -0.17515E+08         0.57943E+05         0.00000E+00
    0.57943E+05        -0.19590E+07         0.00000E+00
    0.00000E+00         0.00000E+00        -0.17664E+08
 
   -0.17471E+08         0.59275E+05         0.00000E+00
    0.59275E+05        -0.19590E+07         0.00000E+00
    0.00000E+00         0.00000E+00        -0.17621E+08
 
   -0.17425E+08         0.60612E+05         0.00000E+00
    0.60612E+05        -0.19590E+07         0.00000E+00
    0.00000E+00         0.00000E+00        -0.17577E+08
 
   -0.17378E+08         0.61951E+05         0.00000E+00
    0.61951E+05        -0.19590E+07         0.00000E+00
    0.00000E+00         0.00000E+00        -0.17532E+08
 
   -0.17330E+08         0.63291E+05         0.00000E+00
    0.63291E+05        -0.19590E+07         0.00000E+00
    0.00000E+00         0.00000E+00        -0.17485E+08
 
   -0.17281E+08         0.64628E+05         0.00000E+00
    0.64628E+05        -0.19590E+07         0.00000E+00
    0.00000E+00         0.00000E+00        -0.17438E+08
 
   -0.17231E+08         0.65961E+05         0.00000E+00
    0.65961E+05        -0.19590E+07         0.00000E+00
    0.00000E+00         0.00000E+00        -0.17389E+08
 
   -0.17180E+08         0.67285E+05         0.00000E+00
    0.67285E+05        -0.19590E+07         0.00000E+00
    0.00000E+00         0.00000E+00        -0.17339E+08
 
   -0.17128E+08         0.68597E+05         0.00000E+00
    0.68597E+05        -0.19590E+07         0.00000E+00
    0.00000E+00         0.00000E+00        -0.17287E+08
 
   -0.17075E+08         0.69894E+05         0.00000E+00
    0.69894E+05        -0.19590E+07         0.00000E+00
    0.00000E+00         0.00000E+00        -0.17235E+08
 
   -0.17020E+08         0.71172E+05         0.00000E+00
    0.71172E+05        -0.19590E+07         0.00000E+00
    0.00000E+00         0.00000E+00        -0.17181E+08
 
   -0.16965E+08         0.72427E+05         0.00000E+00
    0.72427E+05        -0.19591E+07         0.00000E+00
    0.00000E+00         0.00000E+00        -0.17125E+08
 
   -0.16909E+08         0.73653E+05         0.00000E+00
    0.73653E+05        -0.19591E+07         0.00000E+00
    0.00000E+00         0.00000E+00        -0.17069E+08
 
   -0.16852E+08         0.74845E+05         0.00000E+00
    0.74845E+05        -0.19591E+07         0.00000E+00
    0.00000E+00         0.00000E+00        -0.17011E+08
 
   -0.16794E+08         0.75998E+05         0.00000E+00
    0.75998E+05        -0.19591E+07         0.00000E+00
    0.00000E+00         0.00000E+00        -0.16951E+08
 
   -0.16736E+08         0.77107E+05         0.00000E+00
    0.77107E+05        -0.19591E+07         0.00000E+00
    0.00000E+00         0.00000E+00        -0.16891E+08
 
   -0.16676E+08         0.78164E+05         0.00000E+00
    0.78164E+05        -0.19592E+07         0.00000E+00
    0.00000E+00         0.00000E+00        -0.16829E+08
 
   -0.16615E+08         0.79163E+05         0.00000E+00
    0.79163E+05        -0.19592E+07         0.00000E+00
    0.00000E+00         0.00000E+00        -0.16765E+08
 
   -0.16554E+08         0.80096E+05         0.00000E+00
    0.80096E+05        -0.19593E+07         0.00000E+00
    0.00000E+00         0.00000E+00        -0.16700E+08
 
   -0.16492E+08         0.80955E+05         0.00000E+00
    0.80955E+05        -0.19593E+07         0.00000E+00
    0.00000E+00         0.00000E+00        -0.16634E+08
 
   -0.16430E+08         0.81731E+05         0.00000E+00
    0.81731E+05        -0.19594E+07         0.00000E+00
    0.00000E+00         0.00000E+00        -0.16567E+08
 
   -0.16366E+08         0.82414E+05         0.00000E+00
    0.82414E+05        -0.19594E+07         0.00000E+00
    0.00000E+00         0.00000E+00        -0.16498E+08
 
   -0.16303E+08         0.82994E+05         0.00000E+00
    0.82994E+05        -0.19595E+07         0.00000E+00
    0.00000E+00         0.00000E+00        -0.16428E+08
 
   -0.16238E+08         0.83458E+05         0.00000E+00
    0.83458E+05        -0.19596E+07         0.00000E+00
    0.00000E+00         0.00000E+00        -0.16357E+08
 
   -0.16174E+08         0.83794E+05         0.00000E+00
    0.83794E+05        -0.19597E+07         0.00000E+00
    0.00000E+00         0.00000E+00        -0.16284E+08
 
   -0.16109E+08         0.83987E+05         0.00000E+00
    0.83987E+05        -0.19598E+07         0.00000E+00
    0.00000E+00         0.00000E+00        -0.16210E+08
 
   -0.16044E+08         0.84019E+05         0.00000E+00
    0.84019E+05        -0.19599E+07         0.00000E+00
    0.00000E+00         0.00000E+00        -0.16135E+08
 
   -0.15979E+08         0.83871E+05         0.00000E+00
    0.83871E+05        -0.19600E+07         0.00000E+00
    0.00000E+00         0.00000E+00        -0.16058E+08
 
   -0.15914E+08         0.83521E+05         0.00000E+00
    0.83521E+05        -0.19601E+07         0.00000E+00
    0.00000E+00         0.00000E+00        -0.15981E+08
 
   -0.15850E+08         0.82942E+05         0.00000E+00
    0.82942E+05        -0.19603E+07         0.00000E+00
    0.00000E+00         0.00000E+00        -0.15902E+08
 
   -0.15786E+08         0.82106E+05         0.00000E+00
    0.82106E+05        -0.19605E+07         0.00000E+00
    0.00000E+00         0.00000E+00        -0.15823E+08
 
   -0.15723E+08         0.80975E+05         0.00000E+00
    0.80975E+05        -0.19607E+07         0.00000E+00
    0.00000E+00         0.00000E+00        -0.15743E+08
 
   -0.15660E+08         0.79510E+05         0.00000E+00
    0.79510E+05        -0.19609E+07         0.00000E+00
    0.00000E+00         0.00000E+00        -0.15661E+08
 
   -0.15599E+08         0.77663E+05         0.00000E+00
    0.77663E+05        -0.19612E+07         0.00000E+00
    0.00000E+00         0.00000E+00        -0.15579E+08
 
   -0.15539E+08         0.75377E+05         0.00000E+00
    0.75377E+05        -0.19615E+07         0.00000E+00
    0.00000E+00         0.00000E+00        -0.15497E+08
 
   -0.15482E+08         0.72592E+05         0.00000E+00
    0.72592E+05        -0.19619E+07         0.00000E+00
    0.00000E+00         0.00000E+00        -0.15413E+08
 
   -0.15426E+08         0.69234E+05         0.00000E+00
    0.69234E+05        -0.19623E+07         0.00000E+00
    0.00000E+00         0.00000E+00        -0.15330E+08
 
   -0.15373E+08         0.65225E+05         0.00000E+00
    0.65225E+05        -0.19627E+07         0.00000E+00
    0.00000E+00         0.00000E+00        -0.15246E+08
 
   -0.15323E+08         0.60481E+05         0.00000E+00
    0.60481E+05        -0.19633E+07         0.00000E+00
    0.00000E+00         0.00000E+00        -0.15162E+08
 
   -0.15276E+08         0.54913E+05         0.00000E+00
    0.54913E+05        -0.19639E+07         0.00000E+00
    0.00000E+00         0.00000E+00        -0.15079E+08
 
   -0.15234E+08         0.48436E+05         0.00000E+00
    0.48436E+05        -0.19645E+07         0.00000E+00
    0.00000E+00         0.00000E+00        -0.14995E+08
 
   -0.15196E+08         0.40973E+05         0.00000E+00
    0.40973E+05        -0.19652E+07         0.00000E+00
    0.00000E+00         0.00000E+00        -0.14913E+08
 
   -0.15163E+08         0.32467E+05         0.00000E+00
    0.32467E+05        -0.19660E+07         0.00000E+00
    0.00000E+00         0.00000E+00        -0.14831E+08
 
   -0.15137E+08         0.22896E+05         0.00000E+00
    0.22896E+05        -0.19667E+07         0.00000E+00
    0.00000E+00         0.00000E+00        -0.14750E+08
 
   -0.15117E+08         0.12291E+05         0.00000E+00
    0.12291E+05        -0.19675E+07         0.00000E+00
    0.00000E+00         0.00000E+00        -0.14670E+08
 
   -0.15104E+08         0.75799E+03         0.00000E+00
    0.75799E+03        -0.19681E+07         0.00000E+00
    0.00000E+00         0.00000E+00        -0.14592E+08
 
   -0.15099E+08        -0.11500E+05         0.00000E+00
   -0.11500E+05        -0.19686E+07         0.00000E+00
    0.00000E+00         0.00000E+00        -0.14515E+08
 
   -0.15101E+08        -0.24147E+05         0.00000E+00
   -0.24147E+05        -0.19689E+07         0.00000E+00
    0.00000E+00         0.00000E+00        -0.14440E+08
 
   -0.15110E+08        -0.36682E+05         0.00000E+00
   -0.36682E+05        -0.19689E+07         0.00000E+00
    0.00000E+00         0.00000E+00        -0.14367E+08
 
   -0.15126E+08        -0.48348E+05         0.00000E+00
   -0.48348E+05        -0.19684E+07         0.00000E+00
    0.00000E+00         0.00000E+00        -0.14295E+08
 
   -0.15145E+08        -0.57917E+05         0.00000E+00
   -0.57917E+05        -0.19671E+07         0.00000E+00
    0.00000E+00         0.00000E+00        -0.14224E+08
 
   -0.15165E+08        -0.63327E+05         0.00000E+00
   -0.63327E+05        -0.19645E+07         0.00000E+00
    0.00000E+00         0.00000E+00        -0.14152E+08
 
   -0.15177E+08        -0.57338E+05         0.00000E+00
   -0.57338E+05        -0.19574E+07         0.00000E+00
    0.00000E+00         0.00000E+00        -0.14076E+08
 
   -0.15178E+08        -0.25480E+05         0.00000E+00
   -0.25480E+05        -0.19212E+07         0.00000E+00
    0.00000E+00         0.00000E+00        -0.13988E+08
 
   -0.18517E+08        -0.33843E+04         0.00000E+00
   -0.33843E+04        -0.19637E+07         0.00000E+00
    0.00000E+00         0.00000E+00        -0.18738E+08
 
   -0.18517E+08        -0.69031E+04         0.00000E+00
   -0.69031E+04        -0.19596E+07         0.00000E+00
    0.00000E+00         0.00000E+00        -0.18726E+08
 
   -0.18518E+08        -0.66644E+04         0.00000E+00
   -0.66644E+04        -0.19591E+07         0.00000E+00
    0.00000E+00         0.00000E+00        -0.18715E+08
 
   -0.18520E+08        -0.51680E+04         0.00000E+00
   -0.51680E+04        -0.19589E+07         0.00000E+00
    0.00000E+00         0.00000E+00        -0.18705E+08
 
   -0.18522E+08        -0.32633E+04         0.00000E+00
   -0.32633E+04        -0.19587E+07         0.00000E+00
    0.00000E+00         0.00000E+00        -0.18694E+08
 
   -0.18522E+08        -0.11455E+04         0.00000E+00
   -0.11455E+04        -0.19587E+07         0.00000E+00
    0.00000E+00         0.00000E+00        -0.18683E+08
 
   -0.18520E+08         0.10432E+04         0.00000E+00
    0.10432E+04        -0.19587E+07         0.00000E+00
    0.00000E+00         0.00000E+00        -0.18671E+08
 
   -0.18517E+08         0.32248E+04         0.00000E+00
    0.32248E+04        -0.19588E+07         0.00000E+00
    0.00000E+00         0.00000E+00        -0.18659E+08
 
   -0.18512E+08         0.53456E+04         0.00000E+00
    0.53456E+04        -0.19588E+07         0.00000E+00
    0.00000E+00         0.00000E+00        -0.18646E+08
 
   -0.18506E+08         0.73707E+04         0.00000E+00
    0.73707E+04        -0.19589E+07         0.00000E+00
    0.00000E+00         0.00000E+00        -0.18633E+08
 
   -0.18498E+08         0.92803E+04         0.00000E+00
    0.92803E+04        -0.19589E+07         0.00000E+00
    0.00000E+00         0.00000E+00        -0.18619E+08
 
   -0.18488E+08         0.11066E+05         0.00000E+00
    0.11066E+05        -0.19590E+07         0.00000E+00
    0.00000E+00         0.00000E+00        -0.18604E+08
 
   -0.18477E+08         0.12727E+05         0.00000E+00
    0.12727E+05        -0.19591E+07         0.00000E+00
    0.00000E+00         0.00000E+00        -0.18589E+08
 
   -0.18465E+08         0.14271E+05         0.00000E+00
    0.14271E+05        -0.19592E+07         0.00000E+00
    0.00000E+00         0.00000E+00        -0.18573E+08
 
   -0.18451E+08         0.15707E+05         0.00000E+00
    0.15707E+05        -0.19592E+07         0.00000E+00
    0.00000E+00         0.00000E+00        -0.18556E+08
 
   -0.18436E+08         0.17046E+05         0.00000E+00
    0.17046E+05        -0.19593E+07         0.00000E+00
    0.00000E+00         0.00000E+00        -0.18539E+08
 
   -0.18420E+08         0.18301E+05         0.00000E+00
    0.18301E+05        -0.19593E+07         0.00000E+00
    0.00000E+00         0.00000E+00        -0.18521E+08
 
   -0.18403E+08         0.19485E+05         0.00000E+00
    0.19485E+05        -0.19593E+07         0.00000E+00
    0.00000E+00         0.00000E+00        -0.18503E+08
 
   -0.18385E+08         0.20610E+05         0.00000E+00
    0.20610E+05        -0.19594E+07         0.00000E+00
    0.00000E+00         0.00000E+00        -0.18484E+08
 
   -0.18366E+08         0.21686E+05         0.00000E+00
    0.21686E+05        -0.19594E+07         0.00000E+00
    0.00000E+00         0.00000E+00        -0.18465E+08
 
   -0.18346E+08         0.22724E+05         0.00000E+00
    0.22724E+05        -0.19594E+07         0.00000E+00
    0.00000E+00         0.00000E+00        -0.18445E+08
 
   -0.18325E+08         0.23731E+05         0.00000E+00
    0.23731E+05        -0.19594E+07         0.00000E+00
    0.00000E+00         0.00000E+00        -0.18424E+08
 
   -0.18303E+08         0.24715E+05         0.00000E+00
    0.24715E+05        -0.19594E+07         0.00000E+00
    0.00000E+00         0.00000E+00        -0.18403E+08
 
   -0.18280E+08         0.25681E+05         0.00000E+00
    0.25681E+05        -0.19594E+07         0.00000E+00
    0.00000E+00         0.00000E+00        -0.18381E+08
 
   -0.18257E+08         0.26637E+05         0.00000E+00
    0.26637E+05        -0.19594E+07         0.00000E+00
    0.00000E+00         0.00000E+00        -0.18359E+08
 
   -0.18232E+08         0.27585E+05         0.00000E+00
    0.27585E+05        -0.19594E+07         0.00000E+00
    0.00000E+00         0.00000E+00        -0.18336E+08
 
   -0.18207E+08         0.28530E+05         0.00000E+00
    0.28530E+05        -0.19594E+07         0.00000E+00
    0.00000E+00         0.00000E+00        -0.18312E+08
 
   -0.18181E+08         0.29474E+05         0.00000E+00
    0.29474E+05        -0.19594E+07         0.00000E+00
    0.00000E+00         0.00000E+00        -0.18287E+08
 
   -0.18154E+08         0.30421E+05         0.00000E+00
    0.30421E+05        -0.19594E+07         0.00000E+00
    0.00000E+00         0.00000E+00        -0.18262E+08
 
   -0.18126E+08         0.31373E+05         0.00000E+00
    0.31373E+05        -0.19594E+07         0.00000E+00
    0.00000E+00         0.00000E+00        -0.18236E+08
 
   -0.18097E+08         0.32331E+05         0.00000E+00
    0.32331E+05        -0.19594E+07         0.00000E+00
    0.00000E+00         0.00000E+00        -0.18209E+08
 
   -0.18067E+08         0.33296E+05         0.00000E+00
    0.33296E+05        -0.19594E+07         0.00000E+00
    0.00000E+00         0.00000E+00        -0.18182E+08
 
   -0.18037E+08         0.34271E+05         0.00000E+00
    0.34271E+05        -0.19594E+07         0.00000E+00
    0.00000E+00         0.00000E+00        -0.18154E+08
 
   -0.18006E+08         0.35256E+05         0.00000E+00
    0.35256E+05        -0.19594E+07         0.00000E+00
    0.00000E+00         0.00000E+00        -0.18125E+08
 
   -0.17973E+08         0.36251E+05         0.00000E+00
    0.36251E+05        -0.19594E+07         0.00000E+00
    0.00000E+00         0.00000E+00        -0.18095E+08
 
   -0.17940E+08         0.37258E+05         0.00000E+00
    0.37258E+05        -0.19594E+07         0.00000E+00
    0.00000E+00         0.00000E+00        -0.18064E+08
 
   -0.17906E+08         0.38276E+05         0.00000E+00
    0.38276E+05        -0.19594E+07         0.00000E+00
    0.00000E+00         0.00000E+00        -0.18033E+08
 
   -0.17871E+08         0.39306E+05         0.00000E+00
    0.39306E+05        -0.19593E+07         0.00000E+00
    0.00000E+00         0.00000E+00        -0.18000E+08
 
   -0.17835E+08         0.40348E+05         0.00000E+00
    0.40348E+05        -0.19593E+07         0.00000E+00
    0.00000E+00         0.00000E+00        -0.17967E+08
 
   -0.17798E+08         0.41402E+05         0.00000E+00
    0.41402E+05        -0.19593E+07         0.00000E+00
    0.00000E+00         0.00000E+00        -0.17932E+08
 
   -0.17760E+08         0.42467E+05         0.00000E+00
    0.42467E+05        -0.19593E+07         0.00000E+00
    0.00000E+00         0.00000E+00        -0.17897E+08
 
   -0.17721E+08         0.43544E+05         0.00000E+00
    0.43544E+05        -0.19593E+07         0.00000E+00
    0.00000E+00         0.00000E+00        -0.17860E+08
 
   -0.17681E+08         0.44631E+05         0.00000E+00
    0.44631E+05        -0.19593E+07         0.00000E+00
    0.00000E+00         0.00000E+00        -0.17823E+08
 
   -0.17640E+08         0.45729E+05         0.00000E+00
    0.45729E+05        -0.19593E+07         0.00000E+00
    0.00000E+00         0.00000E+00        -0.17785E+08
 
   -0.17599E+08         0.46835E+05         0.00000E+00
    0.46835E+05        -0.19593E+07         0.00000E+00
    0.00000E+00         0.00000E+00        -0.17745E+08
 
   -0.17556E+08         0.47949E+05         0.00000E+00
    0.47949E+05        -0.19593E+07         0.00000E+00
    0.00000E+00         0.00000E+00        -0.17704E+08
 
   -0.17512E+08         0.49070E+05         0.00000E+00
    0.49070E+05        -0.19593E+07         0.00000E+00
    0.00000E+00         0.00000E+00        -0.17663E+08
 
   -0.17467E+08         0.50196E+05         0.00000E+00
    0.50196E+05        -0.19593E+07         0.00000E+00
    0.00000E+00         0.00000E+00        -0.17620E+08
 
   -0.17421E+08         0.51327E+05         0.00000E+00
    0.51327E+05        -0.19593E+07         0.00000E+00
    0.00000E+00         0.00000E+00        -0.17576E+08
 
   -0.17374E+08         0.52459E+05         0.00000E+00
    0.52459E+05        -0.19593E+07         0.00000E+00
    0.00000E+00         0.00000E+00        -0.17531E+08
 
   -0.17326E+08         0.53591E+05         0.00000E+00
    0.53591E+05        -0.19593E+07         0.00000E+00
    0.00000E+00         0.00000E+00        -0.17484E+08
 
   -0.17277E+08         0.54722E+05         0.00000E+00
    0.54722E+05        -0.19593E+07         0.00000E+00
    0.00000E+00         0.00000E+00        -0.17437E+08
 
   -0.17227E+08         0.55847E+05         0.00000E+00
    0.55847E+05        -0.19593E+07         0.00000E+00
    0.00000E+00         0.00000E+00        -0.17388E+08
 
   -0.17176E+08         0.56966E+05         0.00000E+00
    0.56966E+05        -0.19593E+07         0.00000E+00
    0.00000E+00         0.00000E+00        -0.17338E+08
 
   -0.17124E+08         0.58075E+05         0.00000E+00
    0.58075E+05        -0.19593E+07         0.00000E+00
    0.00000E+00         0.00000E+00        -0.17286E+08
 
   -0.17070E+08         0.59170E+05         0.00000E+00
    0.59170E+05        -0.19593E+07         0.00000E+00
    0.00000E+00         0.00000E+00        -0.17234E+08
 
   -0.17016E+08         0.60249E+05         0.00000E+00
    0.60249E+05        -0.19593E+07         0.00000E+00
    0.00000E+00         0.00000E+00        -0.17180E+08
 
   -0.16961E+08         0.61308E+05         0.00000E+00
    0.61308E+05        -0.19593E+07         0.00000E+00
    0.00000E+00         0.00000E+00        -0.17124E+08
 
   -0.16905E+08         0.62342E+05         0.00000E+00
    0.62342E+05        -0.19593E+07         0.00000E+00
    0.00000E+00         0.00000E+00        -0.17068E+08
 
   -0.16848E+08         0.63348E+05         0.00000E+00
    0.63348E+05        -0.19593E+07         0.00000E+00
    0.00000E+00         0.00000E+00        -0.17010E+08
 
   -0.16790E+08         0.64321E+05         0.00000E+00
    0.64321E+05        -0.19593E+07         0.00000E+00
    0.00000E+00         0.00000E+00        -0.16950E+08
 
   -0.16731E+08         0.65255E+05         0.00000E+00
    0.65255E+05        -0.19593E+07         0.00000E+00
    0.00000E+00         0.00000E+00        -0.16889E+08
 
   -0.16672E+08         0.66146E+05         0.00000E+00
    0.66146E+05        -0.19594E+07         0.00000E+00
    0.00000E+00         0.00000E+00        -0.16827E+08
 
   -0.16611E+08         0.66987E+05         0.00000E+00
    0.66987E+05        -0.19594E+07         0.00000E+00
    0.00000E+00         0.00000E+00        -0.16764E+08
 
   -0.16550E+08         0.67772E+05         0.00000E+00
    0.67772E+05        -0.19594E+07         0.00000E+00
    0.00000E+00         0.00000E+00        -0.16699E+08
 
   -0.16488E+08         0.68494E+05         0.00000E+00
    0.68494E+05        -0.19595E+07         0.00000E+00
    0.00000E+00         0.00000E+00        -0.16633E+08
 
   -0.16425E+08         0.69145E+05         0.00000E+00
    0.69145E+05        -0.19595E+07         0.00000E+00
    0.00000E+00         0.00000E+00        -0.16566E+08
 
   -0.16362E+08         0.69718E+05         0.00000E+00
    0.69718E+05        -0.19595E+07         0.00000E+00
    0.00000E+00         0.00000E+00        -0.16497E+08
 
   -0.16298E+08         0.70203E+05         0.00000E+00
    0.70203E+05        -0.19596E+07         0.00000E+00
    0.00000E+00         0.00000E+00        -0.16427E+08
 
   -0.16234E+08         0.70590E+05         0.00000E+00
    0.70590E+05        -0.19596E+07         0.00000E+00
    0.00000E+00         0.00000E+00        -0.16355E+08
 
   -0.16170E+08         0.70868E+05         0.00000E+00
    0.70868E+05        -0.19597E+07         0.00000E+00
    0.00000E+00         0.00000E+00        -0.16283E+08
 
   -0.16105E+08         0.71025E+05         0.00000E+00
    0.71025E+05        -0.19598E+07         0.00000E+00
    0.00000E+00         0.00000E+00        -0.16209E+08
 
   -0.16040E+08         0.71045E+05         0.00000E+00
    0.71045E+05        -0.19599E+07         0.00000E+00
    0.00000E+00         0.00000E+00        -0.16134E+08
 
   -0.15976E+08         0.70912E+05         0.00000E+00
    0.70912E+05        -0.19599E+07         0.00000E+00
    0.00000E+00         0.00000E+00        -0.16057E+08
 
   -0.15911E+08         0.70607E+05         0.00000E+00
    0.70607E+05        -0.19600E+07         0.00000E+00
    0.00000E+00         0.00000E+00        -0.15980E+08
 
   -0.15847E+08         0.70109E+05         0.00000E+00
    0.70109E+05        -0.19602E+07         0.00000E+00
    0.00000E+00         0.00000E+00        -0.15901E+08
 
   -0.15783E+08         0.69391E+05         0.00000E+00
    0.69391E+05        -0.19603E+07         0.00000E+00
    0.00000E+00         0.00000E+00        -0.15822E+08
 
   -0.15720E+08         0.68422E+05         0.00000E+00
    0.68422E+05        -0.19604E+07         0.00000E+00
    0.00000E+00         0.00000E+00        -0.15742E+08
 
   -0.15658E+08         0.67168E+05         0.00000E+00
    0.67168E+05        -0.19606E+07         0.00000E+00
    0.00000E+00         0.00000E+00        -0.15660E+08
 
   -0.15597E+08         0.65587E+05         0.00000E+00
    0.65587E+05        -0.19608E+07         0.00000E+00
    0.00000E+00         0.00000E+00        -0.15578E+08
 
   -0.15537E+08         0.63632E+05         0.00000E+00
    0.63632E+05        -0.19610E+07         0.00000E+00
    0.00000E+00         0.00000E+00        -0.15496E+08
 
   -0.15480E+08         0.61247E+05         0.00000E+00
    0.61247E+05        -0.19613E+07         0.00000E+00
    0.00000E+00         0.00000E+00        -0.15413E+08
 
   -0.15424E+08         0.58370E+05         0.00000E+00
    0.58370E+05        -0.19616E+07         0.00000E+00
    0.00000E+00         0.00000E+00        -0.15329E+08
 
   -0.15372E+08         0.54932E+05         0.00000E+00
    0.54932E+05        -0.19619E+07         0.00000E+00
    0.00000E+00         0.00000E+00        -0.15246E+08
 
   -0.15322E+08         0.50859E+05         0.00000E+00
    0.50859E+05        -0.19623E+07         0.00000E+00
    0.00000E+00         0.00000E+00        -0.15162E+08
 
   -0.15276E+08         0.46073E+05         0.00000E+00
    0.46073E+05        -0.19627E+07         0.00000E+00
    0.00000E+00         0.00000E+00        -0.15078E+08
 
   -0.15235E+08         0.40496E+05         0.00000E+00
    0.40496E+05        -0.19632E+07         0.00000E+00
    0.00000E+00         0.00000E+00        -0.14995E+08
 
   -0.15198E+08         0.34059E+05         0.00000E+00
    0.34059E+05        -0.19637E+07         0.00000E+00
    0.00000E+00         0.00000E+00        -0.14913E+08
 
   -0.15167E+08         0.26711E+05         0.00000E+00
    0.26711E+05        -0.19643E+07         0.00000E+00
    0.00000E+00         0.00000E+00        -0.14831E+08
 
   -0.15142E+08         0.18425E+05         0.00000E+00
    0.18425E+05        -0.19649E+07         0.00000E+00
    0.00000E+00         0.00000E+00        -0.14751E+08
 
   -0.15124E+08         0.92238E+04         0.00000E+00
    0.92238E+04        -0.19654E+07         0.00000E+00
    0.00000E+00         0.00000E+00        -0.14672E+08
 
   -0.15114E+08        -0.81098E+03         0.00000E+00
   -0.81098E+03        -0.19659E+07         0.00000E+00
    0.00000E+00         0.00000E+00        -0.14594E+08
 
   -0.15111E+08        -0.11515E+05         0.00000E+00
   -0.11515E+05        -0.19663E+07         0.00000E+00
    0.00000E+00         0.00000E+00        -0.14518E+08
 
   -0.15117E+08        -0.22615E+05         0.00000E+00
   -0.22615E+05        -0.19665E+07         0.00000E+00
    0.00000E+00         0.00000E+00        -0.14444E+08
 
   -0.15130E+08        -0.33707E+05         0.00000E+00
   -0.33707E+05        -0.19665E+07         0.00000E+00
    0.00000E+00         0.00000E+00        -0.14372E+08
 
   -0.15151E+08        -0.44213E+05         0.00000E+00
   -0.44213E+05        -0.19663E+07         0.00000E+00
    0.00000E+00         0.00000E+00        -0.14302E+08
 
   -0.15176E+08        -0.53106E+05         0.00000E+00
   -0.53106E+05        -0.19655E+07         0.00000E+00
    0.00000E+00         0.00000E+00        -0.14233E+08
 
   -0.15203E+08        -0.58991E+05         0.00000E+00
   -0.58991E+05        -0.19639E+07         0.00000E+00
    0.00000E+00         0.00000E+00        -0.14163E+08
 
   -0.15223E+08        -0.55887E+05         0.00000E+00
   -0.55887E+05        -0.19604E+07         0.00000E+00
    0.00000E+00         0.00000E+00        -0.14091E+08
 
   -0.15228E+08        -0.26259E+05         0.00000E+00
   -0.26259E+05        -0.19310E+07         0.00000E+00
    0.00000E+00         0.00000E+00        -0.14006E+08
 
   -0.18508E+08        -0.35316E+04         0.00000E+00
   -0.35316E+04        -0.19625E+07         0.00000E+00
    0.00000E+00         0.00000E+00        -0.18735E+08
 
   -0.18509E+08        -0.66551E+04         0.00000E+00
   -0.66551E+04        -0.19594E+07         0.00000E+00
    0.00000E+00         0.00000E+00        -0.18724E+08
 
   -0.18512E+08        -0.60889E+04         0.00000E+00
   -0.60889E+04        -0.19593E+07         0.00000E+00
    0.00000E+00         0.00000E+00        -0.18714E+08
 
   -0.18515E+08        -0.47013E+04         0.00000E+00
   -0.47013E+04        -0.19592E+07         0.00000E+00
    0.00000E+00         0.00000E+00        -0.18703E+08
 
   -0.18518E+08        -0.30364E+04         0.00000E+00
   -0.30364E+04        -0.19591E+07         0.00000E+00
    0.00000E+00         0.00000E+00        -0.18693E+08
 
   -0.18518E+08        -0.12208E+04         0.00000E+00
   -0.12208E+04        -0.19591E+07         0.00000E+00
    0.00000E+00         0.00000E+00        -0.18682E+08
 
   -0.18517E+08         0.63134E+03         0.00000E+00
    0.63134E+03        -0.19591E+07         0.00000E+00
    0.00000E+00         0.00000E+00        -0.18671E+08
 
   -0.18515E+08         0.24671E+04         0.00000E+00
    0.24671E+04        -0.19592E+07         0.00000E+00
    0.00000E+00         0.00000E+00        -0.18658E+08
 
   -0.18510E+08         0.42435E+04         0.00000E+00
    0.42435E+04        -0.19592E+07         0.00000E+00
    0.00000E+00         0.00000E+00        -0.18646E+08
 
   -0.18504E+08         0.59344E+04         0.00000E+00
    0.59344E+04        -0.19592E+07         0.00000E+00
    0.00000E+00         0.00000E+00        -0.18632E+08
 
   -0.18496E+08         0.75246E+04         0.00000E+00
    0.75246E+04        -0.19593E+07         0.00000E+00
    0.00000E+00         0.00000E+00        -0.18618E+08
 
   -0.18487E+08         0.90080E+04         0.00000E+00
    0.90080E+04        -0.19593E+07         0.00000E+00
    0.00000E+00         0.00000E+00        -0.18603E+08
 
   -0.18476E+08         0.10385E+05         0.00000E+00
    0.10385E+05        -0.19594E+07         0.00000E+00
    0.00000E+00         0.00000E+00        -0.18588E+08
 
   -0.18463E+08         0.11663E+05         0.00000E+00
    0.11663E+05        -0.19594E+07         0.00000E+00
    0.00000E+00         0.00000E+00        -0.18572E+08
 
   -0.18450E+08         0.12848E+05         0.00000E+00
    0.12848E+05        -0.19595E+07         0.00000E+00
    0.00000E+00         0.00000E+00        -0.18556E+08
 
   -0.18435E+08         0.13952E+05         0.00000E+00
    0.13952E+05        -0.19595E+07         0.00000E+00
    0.00000E+00         0.00000E+00        -0.18539E+08
 
   -0.18419E+08         0.14986E+05         0.00000E+00
    0.14986E+05        -0.19595E+07         0.00000E+00
    0.00000E+00         0.00000E+00        -0.18521E+08
 
   -0.18402E+08         0.15959E+05         0.00000E+00
    0.15959E+05        -0.19595E+07         0.00000E+00
    0.00000E+00         0.00000E+00        -0.18503E+08
 
   -0.18383E+08         0.16883E+05         0.00000E+00
    0.16883E+05        -0.19596E+07         0.00000E+00
    0.00000E+00         0.00000E+00        -0.18484E+08
 
   -0.18364E+08         0.17767E+05         0.00000E+00
    0.17767E+05        -0.19596E+07         0.00000E+00
    0.00000E+00         0.00000E+00        -0.18464E+08
 
   -0.18344E+08         0.18618E+05         0.00000E+00
    0.18618E+05        -0.19596E+07         0.00000E+00
    0.00000E+00         0.00000E+00        -0.18444E+08
 
   -0.18323E+08         0.19443E+05         0.00000E+00
    0.19443E+05        -0.19596E+07         0.00000E+00
    0.00000E+00         0.00000E+00        -0.18424E+08
 
   -0.18301E+08         0.20249E+05         0.00000E+00
    0.20249E+05        -0.19596E+07         0.00000E+00
    0.00000E+00         0.00000E+00        -0.18403E+08
 
   -0.18278E+08         0.21041E+05         0.00000E+00
    0.21041E+05        -0.19596E+07         0.00000E+00
    0.00000E+00         0.00000E+00        -0.18381E+08
 
   -0.18255E+08         0.21824E+05         0.00000E+00
    0.21824E+05        -0.19596E+07         0.00000E+00
    0.00000E+00         0.00000E+00        -0.18358E+08
 
   -0.18230E+08         0.22600E+05         0.00000E+00
    0.22600E+05        -0.19596E+07         0.00000E+00
    0.00000E+00         0.00000E+00        -0.18335E+08
 
   -0.18205E+08         0.23374E+05         0.00000E+00
    0.23374E+05        -0.19596E+07         0.00000E+00
    0.00000E+00         0.00000E+00        -0.18311E+08
 
   -0.18179E+08         0.24147E+05         0.00000E+00
    0.24147E+05        -0.19596E+07         0.00000E+00
    0.00000E+00         0.00000E+00        -0.18287E+08
 
   -0.18152E+08         0.24923E+05         0.00000E+00
    0.24923E+05        -0.19596E+07         0.00000E+00
    0.00000E+00         0.00000E+00        -0.18261E+08
 
   -0.18124E+08         0.25702E+05         0.00000E+00
    0.25702E+05        -0.19596E+07         0.00000E+00
    0.00000E+00         0.00000E+00        -0.18236E+08
 
   -0.18095E+08         0.26486E+05         0.00000E+00
    0.26486E+05        -0.19596E+07         0.00000E+00
    0.00000E+00         0.00000E+00        -0.18209E+08
 
   -0.18065E+08         0.27277E+05         0.00000E+00
    0.27277E+05        -0.19596E+07         0.00000E+00
    0.00000E+00         0.00000E+00        -0.18181E+08
 
   -0.18034E+08         0.28074E+05         0.00000E+00
    0.28074E+05        -0.19596E+07         0.00000E+00
    0.00000E+00         0.00000E+00        -0.18153E+08
 
   -0.18003E+08         0.28880E+05         0.00000E+00
    0.28880E+05        -0.19596E+07         0.00000E+00
    0.00000E+00         0.00000E+00        -0.18124E+08
 
   -0.17971E+08         0.29695E+05         0.00000E+00
    0.29695E+05        -0.19596E+07         0.00000E+00
    0.00000E+00         0.00000E+00        -0.18094E+08
 
   -0.17937E+08         0.30519E+05         0.00000E+00
    0.30519E+05        -0.19595E+07         0.00000E+00
    0.00000E+00         0.00000E+00        -0.18063E+08
 
   -0.17903E+08         0.31352E+05         0.00000E+00
    0.31352E+05        -0.19595E+07         0.00000E+00
    0.00000E+00         0.00000E+00        -0.18032E+08
 
   -0.17868E+08         0.32195E+05         0.00000E+00
    0.32195E+05        -0.19595E+07         0.00000E+00
    0.00000E+00         0.00000E+00        -0.17999E+08
 
   -0.17832E+08         0.33048E+05         0.00000E+00
    0.33048E+05        -0.19595E+07         0.00000E+00
    0.00000E+00         0.00000E+00        -0.17966E+08
 
   -0.17795E+08         0.33910E+05         0.00000E+00
    0.33910E+05        -0.19595E+07         0.00000E+00
    0.00000E+00         0.00000E+00        -0.17931E+08
 
   -0.17757E+08         0.34782E+05         0.00000E+00
    0.34782E+05        -0.19595E+07         0.00000E+00
    0.00000E+00         0.00000E+00        -0.17896E+08
 
   -0.17718E+08         0.35663E+05         0.00000E+00
    0.35663E+05        -0.19595E+07         0.00000E+00
    0.00000E+00         0.00000E+00        -0.17860E+08
 
   -0.17678E+08         0.36553E+05         0.00000E+00
    0.36553E+05        -0.19595E+07         0.00000E+00
    0.00000E+00         0.00000E+00        -0.17822E+08
 
   -0.17637E+08         0.37450E+05         0.00000E+00
    0.37450E+05        -0.19595E+07         0.00000E+00
    0.00000E+00         0.00000E+00        -0.17784E+08
 
   -0.17595E+08         0.38355E+05         0.00000E+00
    0.38355E+05        -0.19595E+07         0.00000E+00
    0.00000E+00         0.00000E+00        -0.17744E+08
 
   -0.17552E+08         0.39266E+05         0.00000E+00
    0.39266E+05        -0.19595E+07         0.00000E+00
    0.00000E+00         0.00000E+00        -0.17703E+08
 
   -0.17508E+08         0.40183E+05         0.00000E+00
    0.40183E+05        -0.19595E+07         0.00000E+00
    0.00000E+00         0.00000E+00        -0.17662E+08
 
   -0.17463E+08         0.41104E+05         0.00000E+00
    0.41104E+05        -0.19595E+07         0.00000E+00
    0.00000E+00         0.00000E+00        -0.17619E+08
 
   -0.17417E+08         0.42028E+05         0.00000E+00
    0.42028E+05        -0.19595E+07         0.00000E+00
    0.00000E+00         0.00000E+00        -0.17575E+08
 
   -0.17370E+08         0.42953E+05         0.00000E+00
    0.42953E+05        -0.19595E+07         0.00000E+00
    0.00000E+00         0.00000E+00        -0.17530E+08
 
   -0.17322E+08         0.43879E+05         0.00000E+00
    0.43879E+05        -0.19595E+07         0.00000E+00
    0.00000E+00         0.00000E+00        -0.17483E+08
 
   -0.17273E+08         0.44803E+05         0.00000E+00
    0.44803E+05        -0.19595E+07         0.00000E+00
    0.00000E+00         0.00000E+00        -0.17436E+08
 
   -0.17223E+08         0.45723E+05         0.00000E+00
    0.45723E+05        -0.19595E+07         0.00000E+00
    0.00000E+00         0.00000E+00        -0.17387E+08
 
   -0.17172E+08         0.46636E+05         0.00000E+00
    0.46636E+05        -0.19595E+07         0.00000E+00
    0.00000E+00         0.00000E+00        -0.17336E+08
 
   -0.17120E+08         0.47542E+05         0.00000E+00
    0.47542E+05        -0.19595E+07         0.00000E+00
    0.00000E+00         0.00000E+00        -0.17285E+08
 
   -0.17066E+08         0.48437E+05         0.00000E+00
    0.48437E+05        -0.19595E+07         0.00000E+00
    0.00000E+00         0.00000E+00        -0.17232E+08
 
   -0.17012E+08         0.49318E+05         0.00000E+00
    0.49318E+05        -0.19595E+07         0.00000E+00
    0.00000E+00         0.00000E+00        -0.17178E+08
 
   -0.16957E+08         0.50182E+05         0.00000E+00
    0.50182E+05        -0.19595E+07         0.00000E+00
    0.00000E+00         0.00000E+00        -0.17123E+08
 
   -0.16901E+08         0.51026E+05         0.00000E+00
    0.51026E+05        -0.19595E+07         0.00000E+00
    0.00000E+00         0.00000E+00        -0.17066E+08
 
   -0.16844E+08         0.51846E+05         0.00000E+00
    0.51846E+05        -0.19595E+07         0.00000E+00
    0.00000E+00         0.00000E+00        -0.17008E+08
 
   -0.16786E+08         0.52639E+05         0.00000E+00
    0.52639E+05        -0.19595E+07         0.00000E+00
    0.00000E+00         0.00000E+00        -0.16949E+08
 
   -0.16727E+08         0.53401E+05         0.00000E+00
    0.53401E+05        -0.19595E+07         0.00000E+00
    0.00000E+00         0.00000E+00        -0.16888E+08
 
   -0.16667E+08         0.54126E+05         0.00000E+00
    0.54126E+05        -0.19595E+07         0.00000E+00
    0.00000E+00         0.00000E+00        -0.16826E+08
 
   -0.16607E+08         0.54811E+05         0.00000E+00
    0.54811E+05        -0.19595E+07         0.00000E+00
    0.00000E+00         0.00000E+00        -0.16763E+08
 
   -0.16546E+08         0.55450E+05         0.00000E+00
    0.55450E+05        -0.19596E+07         0.00000E+00
    0.00000E+00         0.00000E+00        -0.16698E+08
 
   -0.16484E+08         0.56037E+05         0.00000E+00
    0.56037E+05        -0.19596E+07         0.00000E+00
    0.00000E+00         0.00000E+00        -0.16632E+08
 
   -0.16421E+08         0.56566E+05         0.00000E+00
    0.56566E+05        -0.19596E+07         0.00000E+00
    0.00000E+00         0.00000E+00        -0.16564E+08
 
   -0.16358E+08         0.57030E+05         0.00000E+00
    0.57030E+05        -0.19596E+07         0.00000E+00
    0.00000E+00         0.00000E+00        -0.16496E+08
 
   -0.16294E+08         0.57423E+05         0.00000E+00
    0.57423E+05        -0.19597E+07         0.00000E+00
    0.00000E+00         0.00000E+00        -0.16425E+08
 
   -0.16230E+08         0.57735E+05         0.00000E+00
    0.57735E+05        -0.19597E+07         0.00000E+00
    0.00000E+00         0.00000E+00        -0.16354E+08
 
   -0.16166E+08         0.57957E+05         0.00000E+00
    0.57957E+05        -0.19597E+07         0.00000E+00
    0.00000E+00         0.00000E+00        -0.16281E+08
 
   -0.16101E+08         0.58080E+05         0.00000E+00
    0.58080E+05        -0.19598E+07         0.00000E+00
    0.00000E+00         0.00000E+00        -0.16208E+08
 
   -0.16036E+08         0.58091E+05         0.00000E+00
    0.58091E+05        -0.19598E+07         0.00000E+00
    0.00000E+00         0.00000E+00        -0.16132E+08
 
   -0.15972E+08         0.57976E+05         0.00000E+00
    0.57976E+05        -0.19599E+07         0.00000E+00
    0.00000E+00         0.00000E+00        -0.16056E+08
 
   -0.15907E+08         0.57721E+05         0.00000E+00
    0.57721E+05        -0.19600E+07         0.00000E+00
    0.00000E+00         0.00000E+00        -0.15979E+08
 
   -0.15843E+08         0.57306E+05         0.00000E+00
    0.57306E+05        -0.19600E+07         0.00000E+00
    0.00000E+00         0.00000E+00        -0.15900E+08
 
   -0.15779E+08         0.56710E+05         0.00000E+00
    0.56710E+05        -0.19601E+07         0.00000E+00
    0.00000E+00         0.00000E+00        -0.15821E+08
 
   -0.15717E+08         0.55909E+05         0.00000E+00
    0.55909E+05        -0.19602E+07         0.00000E+00
    0.00000E+00         0.00000E+00        -0.15741E+08
 
   -0.15655E+08         0.54872E+05         0.00000E+00
    0.54872E+05        -0.19603E+07         0.00000E+00
    0.00000E+00         0.00000E+00        -0.15659E+08
 
   -0.15594E+08         0.53565E+05         0.00000E+00
    0.53565E+05        -0.19605E+07         0.00000E+00
    0.00000E+00         0.00000E+00        -0.15577E+08
 
   -0.15535E+08         0.51948E+05         0.00000E+00
    0.51948E+05        -0.19606E+07         0.00000E+00
    0.00000E+00         0.00000E+00        -0.15495E+08
 
   -0.15478E+08         0.49975E+05         0.00000E+00
    0.49975E+05        -0.19608E+07         0.00000E+00
    0.00000E+00         0.00000E+00        -0.15412E+08
 
   -0.15423E+08         0.47593E+05         0.00000E+00
    0.47593E+05        -0.19610E+07         0.00000E+00
    0.00000E+00         0.00000E+00        -0.15329E+08
 
   -0.15370E+08         0.44744E+05         0.00000E+00
    0.44744E+05        -0.19612E+07         0.00000E+00
    0.00000E+00         0.00000E+00        -0.15245E+08
 
   -0.15321E+08         0.41364E+05         0.00000E+00
    0.41364E+05        -0.19615E+07         0.00000E+00
    0.00000E+00         0.00000E+00        -0.15161E+08
 
   -0.15276E+08         0.37387E+05         0.00000E+00
    0.37387E+05        -0.19618E+07         0.00000E+00
    0.00000E+00         0.00000E+00        -0.15078E+08
 
   -0.15235E+08         0.32745E+05         0.00000E+00
    0.32745E+05        -0.19621E+07         0.00000E+00
    0.00000E+00         0.00000E+00        -0.14995E+08
 
   -0.15200E+08         0.27379E+05         0.00000E+00
    0.27379E+05        -0.19625E+07         0.00000E+00
    0.00000E+00         0.00000E+00        -0.14913E+08
 
   -0.15170E+08         0.21241E+05         0.00000E+00
    0.21241E+05        -0.19629E+07         0.00000E+00
    0.00000E+00         0.00000E+00        -0.14832E+08
 
   -0.15147E+08         0.14306E+05         0.00000E+00
    0.14306E+05        -0.19632E+07         0.00000E+00
    0.00000E+00         0.00000E+00        -0.14752E+08
 
   -0.15131E+08         0.65850E+04         0.00000E+00
    0.65850E+04        -0.19636E+07         0.00000E+00
    0.00000E+00         0.00000E+00        -0.14673E+08
 
   -0.15123E+08        -0.18592E+04         0.00000E+00
   -0.18592E+04        -0.19640E+07         0.00000E+00
    0.00000E+00         0.00000E+00        -0.14596E+08
 
   -0.15123E+08        -0.10898E+05         0.00000E+00
   -0.10898E+05        -0.19642E+07         0.00000E+00
    0.00000E+00         0.00000E+00        -0.14521E+08
 
   -0.15132E+08        -0.20326E+05         0.00000E+00
   -0.20326E+05        -0.19644E+07         0.00000E+00
    0.00000E+00         0.00000E+00        -0.14448E+08
 
   -0.15150E+08        -0.29816E+05         0.00000E+00
   -0.29816E+05        -0.19645E+07         0.00000E+00
    0.00000E+00         0.00000E+00        -0.14378E+08
 
   -0.15175E+08        -0.38972E+05         0.00000E+00
   -0.38972E+05        -0.19644E+07         0.00000E+00
    0.00000E+00         0.00000E+00        -0.14309E+08
 
   -0.15207E+08        -0.46967E+05         0.00000E+00
   -0.46967E+05        -0.19640E+07         0.00000E+00
    0.00000E+00         0.00000E+00        -0.14241E+08
 
   -0.15242E+08        -0.52890E+05         0.00000E+00
   -0.52890E+05        -0.19629E+07         0.00000E+00
    0.00000E+00         0.00000E+00        -0.14174E+08
 
   -0.15271E+08        -0.52902E+05         0.00000E+00
   -0.52902E+05        -0.19623E+07         0.00000E+00
    0.00000E+00         0.00000E+00        -0.14106E+08
 
   -0.15281E+08        -0.26877E+05         0.00000E+00
   -0.26877E+05        -0.19408E+07         0.00000E+00
    0.00000E+00         0.00000E+00        -0.14025E+08
 
   -0.18499E+08        -0.36408E+04         0.00000E+00
   -0.36408E+04        -0.19612E+07         0.00000E+00
    0.00000E+00         0.00000E+00        -0.18732E+08
 
   -0.18501E+08        -0.61081E+04         0.00000E+00
   -0.61081E+04        -0.19594E+07         0.00000E+00
    0.00000E+00         0.00000E+00        -0.18721E+08
 
   -0.18506E+08        -0.52427E+04         0.00000E+00
   -0.52427E+04        -0.19596E+07         0.00000E+00
    0.00000E+00         0.00000E+00        -0.18712E+08
 
   -0.18510E+08        -0.40506E+04         0.00000E+00
   -0.40506E+04        -0.19595E+07         0.00000E+00
    0.00000E+00         0.00000E+00        -0.18702E+08
 
   -0.18513E+08        -0.26573E+04         0.00000E+00
   -0.26573E+04        -0.19595E+07         0.00000E+00
    0.00000E+00         0.00000E+00        -0.18692E+08
 
   -0.18515E+08        -0.11780E+04         0.00000E+00
   -0.11780E+04        -0.19595E+07         0.00000E+00
    0.00000E+00         0.00000E+00        -0.18681E+08
 
   -0.18514E+08         0.31339E+03         0.00000E+00
    0.31339E+03        -0.19595E+07         0.00000E+00
    0.00000E+00         0.00000E+00        -0.18670E+08
 
   -0.18512E+08         0.17831E+04         0.00000E+00
    0.17831E+04        -0.19595E+07         0.00000E+00
    0.00000E+00         0.00000E+00        -0.18658E+08
 
   -0.18508E+08         0.31983E+04         0.00000E+00
    0.31983E+04        -0.19595E+07         0.00000E+00
    0.00000E+00         0.00000E+00        -0.18645E+08
 
   -0.18502E+08         0.45412E+04         0.00000E+00
    0.45412E+04        -0.19595E+07         0.00000E+00
    0.00000E+00         0.00000E+00        -0.18632E+08
 
   -0.18494E+08         0.58003E+04         0.00000E+00
    0.58003E+04        -0.19596E+07         0.00000E+00
    0.00000E+00         0.00000E+00        -0.18618E+08
 
   -0.18485E+08         0.69721E+04         0.00000E+00
    0.69721E+04        -0.19596E+07         0.00000E+00
    0.00000E+00         0.00000E+00        -0.18603E+08
 
   -0.18474E+08         0.80577E+04         0.00000E+00
    0.80577E+04        -0.19596E+07         0.00000E+00
    0.00000E+00         0.00000E+00        -0.18588E+08
 
   -0.18462E+08         0.90621E+04         0.00000E+00
    0.90621E+04        -0.19596E+07         0.00000E+00
    0.00000E+00         0.00000E+00        -0.18572E+08
 
   -0.18448E+08         0.99927E+04         0.00000E+00
    0.99927E+04        -0.19597E+07         0.00000E+00
    0.00000E+00         0.00000E+00        -0.18555E+08
 
   -0.18433E+08         0.10858E+05         0.00000E+00
    0.10858E+05        -0.19597E+07         0.00000E+00
    0.00000E+00         0.00000E+00        -0.18538E+08
 
   -0.18417E+08         0.11667E+05         0.00000E+00
    0.11667E+05        -0.19597E+07         0.00000E+00
    0.00000E+00         0.00000E+00        -0.18521E+08
 
   -0.18400E+08         0.12428E+05         0.00000E+00
    0.12428E+05        -0.19597E+07         0.00000E+00
    0.00000E+00         0.00000E+00        -0.18502E+08
 
   -0.18382E+08         0.13149E+05         0.00000E+00
    0.13149E+05        -0.19597E+07         0.00000E+00
    0.00000E+00         0.00000E+00        -0.18483E+08
 
   -0.18363E+08         0.13838E+05         0.00000E+00
    0.13838E+05        -0.19597E+07         0.00000E+00
    0.00000E+00         0.00000E+00        -0.18464E+08
 
   -0.18342E+08         0.14502E+05         0.00000E+00
    0.14502E+05        -0.19597E+07         0.00000E+00
    0.00000E+00         0.00000E+00        -0.18444E+08
 
   -0.18321E+08         0.15145E+05         0.00000E+00
    0.15145E+05        -0.19597E+07         0.00000E+00
    0.00000E+00         0.00000E+00        -0.18423E+08
 
   -0.18299E+08         0.15773E+05         0.00000E+00
    0.15773E+05        -0.19597E+07         0.00000E+00
    0.00000E+00         0.00000E+00        -0.18402E+08
 
   -0.18277E+08         0.16389E+05         0.00000E+00
    0.16389E+05        -0.19597E+07         0.00000E+00
    0.00000E+00         0.00000E+00        -0.18380E+08
 
   -0.18253E+08         0.16999E+05         0.00000E+00
    0.16999E+05        -0.19597E+07         0.00000E+00
    0.00000E+00         0.00000E+00        -0.18358E+08
 
   -0.18228E+08         0.17603E+05         0.00000E+00
    0.17603E+05        -0.19597E+07         0.00000E+00
    0.00000E+00         0.00000E+00        -0.18334E+08
 
   -0.18203E+08         0.18205E+05         0.00000E+00
    0.18205E+05        -0.19597E+07         0.00000E+00
    0.00000E+00         0.00000E+00        -0.18311E+08
 
   -0.18177E+08         0.18807E+05         0.00000E+00
    0.18807E+05        -0.19597E+07         0.00000E+00
    0.00000E+00         0.00000E+00        -0.18286E+08
 
   -0.18149E+08         0.19411E+05         0.00000E+00
    0.19411E+05        -0.19597E+07         0.00000E+00
    0.00000E+00         0.00000E+00        -0.18261E+08
 
   -0.18121E+08         0.20017E+05         0.00000E+00
    0.20017E+05        -0.19597E+07         0.00000E+00
    0.00000E+00         0.00000E+00        -0.18235E+08
 
   -0.18092E+08         0.20627E+05         0.00000E+00
    0.20627E+05        -0.19597E+07         0.00000E+00
    0.00000E+00         0.00000E+00        -0.18208E+08
 
   -0.18063E+08         0.21242E+05         0.00000E+00
    0.21242E+05        -0.19597E+07         0.00000E+00
    0.00000E+00         0.00000E+00        -0.18181E+08
 
   -0.18032E+08         0.21863E+05         0.00000E+00
    0.21863E+05        -0.19597E+07         0.00000E+00
    0.00000E+00         0.00000E+00        -0.18152E+08
 
   -0.18000E+08         0.22490E+05         0.00000E+00
    0.22490E+05        -0.19597E+07         0.00000E+00
    0.00000E+00         0.00000E+00        -0.18123E+08
 
   -0.17968E+08         0.23124E+05         0.00000E+00
    0.23124E+05        -0.19597E+07         0.00000E+00
    0.00000E+00         0.00000E+00        -0.18093E+08
 
   -0.17935E+08         0.23765E+05         0.00000E+00
    0.23765E+05        -0.19597E+07         0.00000E+00
    0.00000E+00         0.00000E+00        -0.18063E+08
 
   -0.17900E+08         0.24414E+05         0.00000E+00
    0.24414E+05        -0.19597E+07         0.00000E+00
    0.00000E+00         0.00000E+00        -0.18031E+08
 
   -0.17865E+08         0.25070E+05         0.00000E+00
    0.25070E+05        -0.19597E+07         0.00000E+00
    0.00000E+00         0.00000E+00        -0.17998E+08
 
   -0.17829E+08         0.25733E+05         0.00000E+00
    0.25733E+05        -0.19597E+07         0.00000E+00
    0.00000E+00         0.00000E+00        -0.17965E+08
 
   -0.17792E+08         0.26404E+05         0.00000E+00
    0.26404E+05        -0.19597E+07         0.00000E+00
    0.00000E+00         0.00000E+00        -0.17930E+08
 
   -0.17754E+08         0.27082E+05         0.00000E+00
    0.27082E+05        -0.19597E+07         0.00000E+00
    0.00000E+00         0.00000E+00        -0.17895E+08
 
   -0.17715E+08         0.27767E+05         0.00000E+00
    0.27767E+05        -0.19597E+07         0.00000E+00
    0.00000E+00         0.00000E+00        -0.17859E+08
 
   -0.17675E+08         0.28459E+05         0.00000E+00
    0.28459E+05        -0.19597E+07         0.00000E+00
    0.00000E+00         0.00000E+00        -0.17821E+08
 
   -0.17634E+08         0.29157E+05         0.00000E+00
    0.29157E+05        -0.19597E+07         0.00000E+00
    0.00000E+00         0.00000E+00        -0.17783E+08
 
   -0.17592E+08         0.29860E+05         0.00000E+00
    0.29860E+05        -0.19596E+07         0.00000E+00
    0.00000E+00         0.00000E+00        -0.17743E+08
 
   -0.17549E+08         0.30569E+05         0.00000E+00
    0.30569E+05        -0.19596E+07         0.00000E+00
    0.00000E+00         0.00000E+00        -0.17702E+08
 
   -0.17505E+08         0.31281E+05         0.00000E+00
    0.31281E+05        -0.19596E+07         0.00000E+00
    0.00000E+00         0.00000E+00        -0.17661E+08
 
   -0.17460E+08         0.31997E+05         0.00000E+00
    0.31997E+05        -0.19596E+07         0.00000E+00
    0.00000E+00         0.00000E+00        -0.17618E+08
 
   -0.17414E+08         0.32715E+05         0.00000E+00
    0.32715E+05        -0.19596E+07         0.00000E+00
    0.00000E+00         0.00000E+00        -0.17574E+08
 
   -0.17367E+08         0.33435E+05         0.00000E+00
    0.33435E+05        -0.19596E+07         0.00000E+00
    0.00000E+00         0.00000E+00        -0.17529E+08
 
   -0.17318E+08         0.34154E+05         0.00000E+00
    0.34154E+05        -0.19596E+07         0.00000E+00
    0.00000E+00         0.00000E+00        -0.17482E+08
 
   -0.17269E+08         0.34871E+05         0.00000E+00
    0.34871E+05        -0.19596E+07         0.00000E+00
    0.00000E+00         0.00000E+00        -0.17434E+08
 
   -0.17219E+08         0.35586E+05         0.00000E+00
    0.35586E+05        -0.19596E+07         0.00000E+00
    0.00000E+00         0.00000E+00        -0.17386E+08
 
   -0.17168E+08         0.36296E+05         0.00000E+00
    0.36296E+05        -0.19596E+07         0.00000E+00
    0.00000E+00         0.00000E+00        -0.17335E+08
 
   -0.17116E+08         0.36999E+05         0.00000E+00
    0.36999E+05        -0.19596E+07         0.00000E+00
    0.00000E+00         0.00000E+00        -0.17284E+08
 
   -0.17062E+08         0.37693E+05         0.00000E+00
    0.37693E+05        -0.19596E+07         0.00000E+00
    0.00000E+00         0.00000E+00        -0.17231E+08
 
   -0.17008E+08         0.38377E+05         0.00000E+00
    0.38377E+05        -0.19596E+07         0.00000E+00
    0.00000E+00         0.00000E+00        -0.17177E+08
 
   -0.16953E+08         0.39047E+05         0.00000E+00
    0.39047E+05        -0.19596E+07         0.00000E+00
    0.00000E+00         0.00000E+00        -0.17122E+08
 
   -0.16897E+08         0.39702E+05         0.00000E+00
    0.39702E+05        -0.19596E+07         0.00000E+00
    0.00000E+00         0.00000E+00        -0.17065E+08
 
   -0.16840E+08         0.40339E+05         0.00000E+00
    0.40339E+05        -0.19596E+07         0.00000E+00
    0.00000E+00         0.00000E+00        -0.17007E+08
 
   -0.16782E+08         0.40953E+05         0.00000E+00
    0.40953E+05        -0.19596E+07         0.00000E+00
    0.00000E+00         0.00000E+00        -0.16948E+08
 
   -0.16723E+08         0.41543E+05         0.00000E+00
    0.41543E+05        -0.19596E+07         0.00000E+00
    0.00000E+00         0.00000E+00        -0.16887E+08
 
   -0.16663E+08         0.42105E+05         0.00000E+00
    0.42105E+05        -0.19597E+07         0.00000E+00
    0.00000E+00         0.00000E+00        -0.16825E+08
 
   -0.16603E+08         0.42635E+05         0.00000E+00
    0.42635E+05        -0.19597E+07         0.00000E+00
    0.00000E+00         0.00000E+00        -0.16762E+08
 
   -0.16541E+08         0.43129E+05         0.00000E+00
    0.43129E+05        -0.19597E+07         0.00000E+00
    0.00000E+00         0.00000E+00        -0.16697E+08
 
   -0.16479E+08         0.43583E+05         0.00000E+00
    0.43583E+05        -0.19597E+07         0.00000E+00
    0.00000E+00         0.00000E+00        -0.16631E+08
 
   -0.16417E+08         0.43991E+05         0.00000E+00
    0.43991E+05        -0.19597E+07         0.00000E+00
    0.00000E+00         0.00000E+00        -0.16563E+08
 
   -0.16354E+08         0.44349E+05         0.00000E+00
    0.44349E+05        -0.19597E+07         0.00000E+00
    0.00000E+00         0.00000E+00        -0.16494E+08
 
   -0.16290E+08         0.44651E+05         0.00000E+00
    0.44651E+05        -0.19597E+07         0.00000E+00
    0.00000E+00         0.00000E+00        -0.16424E+08
 
   -0.16226E+08         0.44890E+05         0.00000E+00
    0.44890E+05        -0.19598E+07         0.00000E+00
    0.00000E+00         0.00000E+00        -0.16353E+08
 
   -0.16162E+08         0.45060E+05         0.00000E+00
    0.45060E+05        -0.19598E+07         0.00000E+00
    0.00000E+00         0.00000E+00        -0.16280E+08
 
   -0.16097E+08         0.45151E+05         0.00000E+00
    0.45151E+05        -0.19598E+07         0.00000E+00
    0.00000E+00         0.00000E+00        -0.16206E+08
 
   -0.16033E+08         0.45156E+05         0.00000E+00
    0.45156E+05        -0.19598E+07         0.00000E+00
    0.00000E+00         0.00000E+00        -0.16131E+08
 
   -0.15968E+08         0.45062E+05         0.00000E+00
    0.45062E+05        -0.19599E+07         0.00000E+00
    0.00000E+00         0.00000E+00        -0.16055E+08
 
   -0.15904E+08         0.44859E+05         0.00000E+00
    0.44859E+05        -0.19599E+07         0.00000E+00
    0.00000E+00         0.00000E+00        -0.15978E+08
 
   -0.15839E+08         0.44531E+05         0.00000E+00
    0.44531E+05        -0.19600E+07         0.00000E+00
    0.00000E+00         0.00000E+00        -0.15899E+08
 
   -0.15776E+08         0.44062E+05         0.00000E+00
    0.44062E+05        -0.19600E+07         0.00000E+00
    0.00000E+00         0.00000E+00        -0.15820E+08
 
   -0.15713E+08         0.43432E+05         0.00000E+00
    0.43432E+05        -0.19601E+07         0.00000E+00
    0.00000E+00         0.00000E+00        -0.15739E+08
 
   -0.15651E+08         0.42617E+05         0.00000E+00
    0.42617E+05        -0.19601E+07         0.00000E+00
    0.00000E+00         0.00000E+00        -0.15658E+08
 
   -0.15591E+08         0.41591E+05         0.00000E+00
    0.41591E+05        -0.19602E+07         0.00000E+00
    0.00000E+00         0.00000E+00        -0.15576E+08
 
   -0.15532E+08         0.40320E+05         0.00000E+00
    0.40320E+05        -0.19603E+07         0.00000E+00
    0.00000E+00         0.00000E+00        -0.15494E+08
 
   -0.15475E+08         0.38770E+05         0.00000E+00
    0.38770E+05        -0.19604E+07         0.00000E+00
    0.00000E+00         0.00000E+00        -0.15411E+08
 
   -0.15420E+08         0.36896E+05         0.00000E+00
    0.36896E+05        -0.19605E+07         0.00000E+00
    0.00000E+00         0.00000E+00        -0.15328E+08
 
   -0.15369E+08         0.34652E+05         0.00000E+00
    0.34652E+05        -0.19607E+07         0.00000E+00
    0.00000E+00         0.00000E+00        -0.15244E+08
 
   -0.15320E+08         0.31987E+05         0.00000E+00
    0.31987E+05        -0.19608E+07         0.00000E+00
    0.00000E+00         0.00000E+00        -0.15161E+08
 
   -0.15276E+08         0.28846E+05         0.00000E+00
    0.28846E+05        -0.19610E+07         0.00000E+00
    0.00000E+00         0.00000E+00        -0.15078E+08
 
   -0.15236E+08         0.25174E+05         0.00000E+00
    0.25174E+05        -0.19612E+07         0.00000E+00
    0.00000E+00         0.00000E+00        -0.14995E+08
 
   -0.15201E+08         0.20921E+05         0.00000E+00
    0.20921E+05        -0.19614E+07         0.00000E+00
    0.00000E+00         0.00000E+00        -0.14913E+08
 
   -0.15173E+08         0.16047E+05         0.00000E+00
    0.16047E+05        -0.19617E+07         0.00000E+00
    0.00000E+00         0.00000E+00        -0.14832E+08
 
   -0.15151E+08         0.10527E+05         0.00000E+00
    0.10527E+05        -0.19619E+07         0.00000E+00
    0.00000E+00         0.00000E+00        -0.14753E+08
 
   -0.15137E+08         0.43670E+04         0.00000E+00
    0.43670E+04        -0.19622E+07         0.00000E+00
    0.00000E+00         0.00000E+00        -0.14674E+08
 
   -0.15131E+08        -0.23918E+04         0.00000E+00
   -0.23918E+04        -0.19624E+07         0.00000E+00
    0.00000E+00         0.00000E+00        -0.14598E+08
 
   -0.15134E+08        -0.96518E+04         0.00000E+00
   -0.96518E+04        -0.19626E+07         0.00000E+00
    0.00000E+00         0.00000E+00        -0.14524E+08
 
   -0.15147E+08        -0.17270E+05         0.00000E+00
   -0.17270E+05        -0.19627E+07         0.00000E+00
    0.00000E+00         0.00000E+00        -0.14452E+08
 
   -0.15169E+08        -0.24996E+05         0.00000E+00
   -0.24996E+05        -0.19627E+07         0.00000E+00
    0.00000E+00         0.00000E+00        -0.14383E+08
 
   -0.15199E+08        -0.32572E+05         0.00000E+00
   -0.32572E+05        -0.19627E+07         0.00000E+00
    0.00000E+00         0.00000E+00        -0.14315E+08
 
   -0.15238E+08        -0.39459E+05         0.00000E+00
   -0.39459E+05        -0.19627E+07         0.00000E+00
    0.00000E+00         0.00000E+00        -0.14250E+08
 
   -0.15281E+08        -0.44828E+05         0.00000E+00
   -0.44828E+05        -0.19618E+07         0.00000E+00
    0.00000E+00         0.00000E+00        -0.14186E+08
 
   -0.15322E+08        -0.47780E+05         0.00000E+00
   -0.47780E+05        -0.19630E+07         0.00000E+00
    0.00000E+00         0.00000E+00        -0.14121E+08
 
   -0.15340E+08        -0.27214E+05         0.00000E+00
   -0.27214E+05        -0.19506E+07         0.00000E+00
    0.00000E+00         0.00000E+00        -0.14046E+08
 
   -0.18490E+08        -0.36741E+04         0.00000E+00
   -0.36741E+04        -0.19599E+07         0.00000E+00
    0.00000E+00         0.00000E+00        -0.18729E+08
 
   -0.18493E+08        -0.51385E+04         0.00000E+00
   -0.51385E+04        -0.19596E+07         0.00000E+00
    0.00000E+00         0.00000E+00        -0.18719E+08
 
   -0.18500E+08        -0.41154E+04         0.00000E+00
   -0.41154E+04        -0.19598E+07         0.00000E+00
    0.00000E+00         0.00000E+00        -0.18710E+08
 
   -0.18505E+08        -0.32098E+04         0.00000E+00
   -0.32098E+04        -0.19597E+07         0.00000E+00
    0.00000E+00         0.00000E+00        -0.18701E+08
 
   -0.18509E+08        -0.21195E+04         0.00000E+00
   -0.21195E+04        -0.19597E+07         0.00000E+00
    0.00000E+00         0.00000E+00        -0.18691E+08
 
   -0.18511E+08        -0.10170E+04         0.00000E+00
   -0.10170E+04        -0.19597E+07         0.00000E+00
    0.00000E+00         0.00000E+00        -0.18680E+08
 
   -0.18512E+08         0.90355E+02         0.00000E+00
    0.90355E+02        -0.19597E+07         0.00000E+00
    0.00000E+00         0.00000E+00        -0.18669E+08
 
   -0.18510E+08         0.11718E+04         0.00000E+00
    0.11718E+04        -0.19597E+07         0.00000E+00
    0.00000E+00         0.00000E+00        -0.18657E+08
 
   -0.18506E+08         0.22088E+04         0.00000E+00
    0.22088E+04        -0.19597E+07         0.00000E+00
    0.00000E+00         0.00000E+00        -0.18644E+08
 
   -0.18500E+08         0.31893E+04         0.00000E+00
    0.31893E+04        -0.19598E+07         0.00000E+00
    0.00000E+00         0.00000E+00        -0.18631E+08
 
   -0.18493E+08         0.41057E+04         0.00000E+00
    0.41057E+04        -0.19598E+07         0.00000E+00
    0.00000E+00         0.00000E+00        -0.18617E+08
 
   -0.18483E+08         0.49563E+04         0.00000E+00
    0.49563E+04        -0.19598E+07         0.00000E+00
    0.00000E+00         0.00000E+00        -0.18603E+08
 
   -0.18473E+08         0.57424E+04         0.00000E+00
    0.57424E+04        -0.19598E+07         0.00000E+00
    0.00000E+00         0.00000E+00        -0.18587E+08
 
   -0.18460E+08         0.64681E+04         0.00000E+00
    0.64681E+04        -0.19598E+07         0.00000E+00
    0.00000E+00         0.00000E+00        -0.18572E+08
 
   -0.18447E+08         0.71392E+04         0.00000E+00
    0.71392E+04        -0.19598E+07         0.00000E+00
    0.00000E+00         0.00000E+00        -0.18555E+08
 
   -0.18432E+08         0.77620E+04         0.00000E+00
    0.77620E+04        -0.19598E+07         0.00000E+00
    0.00000E+00         0.00000E+00        -0.18538E+08
 
   -0.18416E+08         0.83432E+04         0.00000E+00
    0.83432E+04        -0.19598E+07         0.00000E+00
    0.00000E+00         0.00000E+00        -0.18520E+08
 
   -0.18399E+08         0.88894E+04         0.00000E+00
    0.88894E+04        -0.19598E+07         0.00000E+00
    0.00000E+00         0.00000E+00        -0.18502E+08
 
   -0.18380E+08         0.94066E+04         0.00000E+00
    0.94066E+04        -0.19598E+07         0.00000E+00
    0.00000E+00         0.00000E+00        -0.18483E+08
 
   -0.18361E+08         0.99001E+04         0.00000E+00
    0.99001E+04        -0.19598E+07         0.00000E+00
    0.00000E+00         0.00000E+00        -0.18464E+08
 
   -0.18341E+08         0.10375E+05         0.00000E+00
    0.10375E+05        -0.19598E+07         0.00000E+00
    0.00000E+00         0.00000E+00        -0.18444E+08
 
   -0.18320E+08         0.10835E+05         0.00000E+00
    0.10835E+05        -0.19598E+07         0.00000E+00
    0.00000E+00         0.00000E+00        -0.18423E+08
 
   -0.18298E+08         0.11284E+05         0.00000E+00
    0.11284E+05        -0.19598E+07         0.00000E+00
    0.00000E+00         0.00000E+00        -0.18402E+08
 
   -0.18275E+08         0.11725E+05         0.00000E+00
    0.11725E+05        -0.19598E+07         0.00000E+00
    0.00000E+00         0.00000E+00        -0.18380E+08
 
   -0.18251E+08         0.12161E+05         0.00000E+00
    0.12161E+05        -0.19598E+07         0.00000E+00
    0.00000E+00         0.00000E+00        -0.18357E+08
 
   -0.18226E+08         0.12593E+05         0.00000E+00
    0.12593E+05        -0.19598E+07         0.00000E+00
    0.00000E+00         0.00000E+00        -0.18334E+08
 
   -0.18201E+08         0.13023E+05         0.00000E+00
    0.13023E+05        -0.19598E+07         0.00000E+00
    0.00000E+00         0.00000E+00        -0.18310E+08
 
   -0.18175E+08         0.13453E+05         0.00000E+00
    0.13453E+05        -0.19598E+07         0.00000E+00
    0.00000E+00         0.00000E+00        -0.18286E+08
 
   -0.18147E+08         0.13885E+05         0.00000E+00
    0.13885E+05        -0.19598E+07         0.00000E+00
    0.00000E+00         0.00000E+00        -0.18260E+08
 
   -0.18119E+08         0.14318E+05         0.00000E+00
    0.14318E+05        -0.19598E+07         0.00000E+00
    0.00000E+00         0.00000E+00        -0.18234E+08
 
   -0.18090E+08         0.14754E+05         0.00000E+00
    0.14754E+05        -0.19598E+07         0.00000E+00
    0.00000E+00         0.00000E+00        -0.18208E+08
 
   -0.18060E+08         0.15194E+05         0.00000E+00
    0.15194E+05        -0.19598E+07         0.00000E+00
    0.00000E+00         0.00000E+00        -0.18180E+08
 
   -0.18030E+08         0.15638E+05         0.00000E+00
    0.15638E+05        -0.19598E+07         0.00000E+00
    0.00000E+00         0.00000E+00        -0.18152E+08
 
   -0.17998E+08         0.16086E+05         0.00000E+00
    0.16086E+05        -0.19598E+07         0.00000E+00
    0.00000E+00         0.00000E+00        -0.18123E+08
 
   -0.17966E+08         0.16539E+05         0.00000E+00
    0.16539E+05        -0.19598E+07         0.00000E+00
    0.00000E+00         0.00000E+00        -0.18093E+08
 
   -0.17932E+08         0.16997E+05         0.00000E+00
    0.16997E+05        -0.19598E+07         0.00000E+00
    0.00000E+00         0.00000E+00        -0.18062E+08
 
   -0.17898E+08         0.17460E+05         0.00000E+00
    0.17460E+05        -0.19598E+07         0.00000E+00
    0.00000E+00         0.00000E+00        -0.18030E+08
 
   -0.17862E+08         0.17929E+05         0.00000E+00
    0.17929E+05        -0.19598E+07         0.00000E+00
    0.00000E+00         0.00000E+00        -0.17998E+08
 
   -0.17826E+08         0.18403E+05         0.00000E+00
    0.18403E+05        -0.19598E+07         0.00000E+00
    0.00000E+00         0.00000E+00        -0.17964E+08
 
   -0.17789E+08         0.18882E+05         0.00000E+00
    0.18882E+05        -0.19598E+07         0.00000E+00
    0.00000E+00         0.00000E+00        -0.17930E+08
 
   -0.17751E+08         0.19366E+05         0.00000E+00
    0.19366E+05        -0.19598E+07         0.00000E+00
    0.00000E+00         0.00000E+00        -0.17894E+08
 
   -0.17712E+08         0.19856E+05         0.00000E+00
    0.19856E+05        -0.19598E+07         0.00000E+00
    0.00000E+00         0.00000E+00        -0.17858E+08
 
   -0.17672E+08         0.20350E+05         0.00000E+00
    0.20350E+05        -0.19598E+07         0.00000E+00
    0.00000E+00         0.00000E+00        -0.17820E+08
 
   -0.17631E+08         0.20848E+05         0.00000E+00
    0.20848E+05        -0.19598E+07         0.00000E+00
    0.00000E+00         0.00000E+00        -0.17782E+08
 
   -0.17589E+08         0.21350E+05         0.00000E+00
    0.21350E+05        -0.19598E+07         0.00000E+00
    0.00000E+00         0.00000E+00        -0.17742E+08
 
   -0.17546E+08         0.21856E+05         0.00000E+00
    0.21856E+05        -0.19598E+07         0.00000E+00
    0.00000E+00         0.00000E+00        -0.17702E+08
 
   -0.17501E+08         0.22365E+05         0.00000E+00
    0.22365E+05        -0.19598E+07         0.00000E+00
    0.00000E+00         0.00000E+00        -0.17660E+08
 
   -0.17456E+08         0.22876E+05         0.00000E+00
    0.22876E+05        -0.19598E+07         0.00000E+00
    0.00000E+00         0.00000E+00        -0.17617E+08
 
   -0.17410E+08         0.23389E+05         0.00000E+00
    0.23389E+05        -0.19598E+07         0.00000E+00
    0.00000E+00         0.00000E+00        -0.17573E+08
 
   -0.17363E+08         0.23902E+05         0.00000E+00
    0.23902E+05        -0.19597E+07         0.00000E+00
    0.00000E+00         0.00000E+00        -0.17527E+08
 
   -0.17315E+08         0.24415E+05         0.00000E+00
    0.24415E+05        -0.19597E+07         0.00000E+00
    0.00000E+00         0.00000E+00        -0.17481E+08
 
   -0.17265E+08         0.24927E+05         0.00000E+00
    0.24927E+05        -0.19597E+07         0.00000E+00
    0.00000E+00         0.00000E+00        -0.17433E+08
 
   -0.17215E+08         0.25437E+05         0.00000E+00
    0.25437E+05        -0.19597E+07         0.00000E+00
    0.00000E+00         0.00000E+00        -0.17384E+08
 
   -0.17164E+08         0.25943E+05         0.00000E+00
    0.25943E+05        -0.19597E+07         0.00000E+00
    0.00000E+00         0.00000E+00        -0.17334E+08
 
   -0.17112E+08         0.26444E+05         0.00000E+00
    0.26444E+05        -0.19597E+07         0.00000E+00
    0.00000E+00         0.00000E+00        -0.17283E+08
 
   -0.17058E+08         0.26940E+05         0.00000E+00
    0.26940E+05        -0.19597E+07         0.00000E+00
    0.00000E+00         0.00000E+00        -0.17230E+08
 
   -0.17004E+08         0.27427E+05         0.00000E+00
    0.27427E+05        -0.19597E+07         0.00000E+00
    0.00000E+00         0.00000E+00        -0.17176E+08
 
   -0.16949E+08         0.27905E+05         0.00000E+00
    0.27905E+05        -0.19597E+07         0.00000E+00
    0.00000E+00         0.00000E+00        -0.17121E+08
 
   -0.16893E+08         0.28371E+05         0.00000E+00
    0.28371E+05        -0.19597E+07         0.00000E+00
    0.00000E+00         0.00000E+00        -0.17064E+08
 
   -0.16835E+08         0.28824E+05         0.00000E+00
    0.28824E+05        -0.19597E+07         0.00000E+00
    0.00000E+00         0.00000E+00        -0.17006E+08
 
   -0.16777E+08         0.29262E+05         0.00000E+00
    0.29262E+05        -0.19597E+07         0.00000E+00
    0.00000E+00         0.00000E+00        -0.16946E+08
 
   -0.16719E+08         0.29682E+05         0.00000E+00
    0.29682E+05        -0.19597E+07         0.00000E+00
    0.00000E+00         0.00000E+00        -0.16886E+08
 
   -0.16659E+08         0.30081E+05         0.00000E+00
    0.30081E+05        -0.19597E+07         0.00000E+00
    0.00000E+00         0.00000E+00        -0.16824E+08
 
   -0.16598E+08         0.30458E+05         0.00000E+00
    0.30458E+05        -0.19597E+07         0.00000E+00
    0.00000E+00         0.00000E+00        -0.16760E+08
 
   -0.16537E+08         0.30809E+05         0.00000E+00
    0.30809E+05        -0.19598E+07         0.00000E+00
    0.00000E+00         0.00000E+00        -0.16695E+08
 
   -0.16475E+08         0.31131E+05         0.00000E+00
    0.31131E+05        -0.19598E+07         0.00000E+00
    0.00000E+00         0.00000E+00        -0.16629E+08
 
   -0.16413E+08         0.31420E+05         0.00000E+00
    0.31420E+05        -0.19598E+07         0.00000E+00
    0.00000E+00         0.00000E+00        -0.16562E+08
 
   -0.16349E+08         0.31674E+05         0.00000E+00
    0.31674E+05        -0.19598E+07         0.00000E+00
    0.00000E+00         0.00000E+00        -0.16493E+08
 
   -0.16286E+08         0.31887E+05         0.00000E+00
    0.31887E+05        -0.19598E+07         0.00000E+00
    0.00000E+00         0.00000E+00        -0.16423E+08
 
   -0.16222E+08         0.32055E+05         0.00000E+00
    0.32055E+05        -0.19598E+07         0.00000E+00
    0.00000E+00         0.00000E+00        -0.16352E+08
 
   -0.16158E+08         0.32173E+05         0.00000E+00
    0.32173E+05        -0.19598E+07         0.00000E+00
    0.00000E+00         0.00000E+00        -0.16279E+08
 
   -0.16093E+08         0.32236E+05         0.00000E+00
    0.32236E+05        -0.19598E+07         0.00000E+00
    0.00000E+00         0.00000E+00        -0.16205E+08
 
   -0.16029E+08         0.32236E+05         0.00000E+00
    0.32236E+05        -0.19598E+07         0.00000E+00
    0.00000E+00         0.00000E+00        -0.16130E+08
 
   -0.15964E+08         0.32167E+05         0.00000E+00
    0.32167E+05        -0.19598E+07         0.00000E+00
    0.00000E+00         0.00000E+00        -0.16054E+08
 
   -0.15900E+08         0.32018E+05         0.00000E+00
    0.32018E+05        -0.19599E+07         0.00000E+00
    0.00000E+00         0.00000E+00        -0.15976E+08
 
   -0.15836E+08         0.31780E+05         0.00000E+00
    0.31780E+05        -0.19599E+07         0.00000E+00
    0.00000E+00         0.00000E+00        -0.15898E+08
 
   -0.15772E+08         0.31441E+05         0.00000E+00
    0.31441E+05        -0.19599E+07         0.00000E+00
    0.00000E+00         0.00000E+00        -0.15819E+08
 
   -0.15710E+08         0.30987E+05         0.00000E+00
    0.30987E+05        -0.19599E+07         0.00000E+00
    0.00000E+00         0.00000E+00        -0.15738E+08
 
   -0.15648E+08         0.30399E+05         0.00000E+00
    0.30399E+05        -0.19600E+07         0.00000E+00
    0.00000E+00         0.00000E+00        -0.15657E+08
 
   -0.15588E+08         0.29659E+05         0.00000E+00
    0.29659E+05        -0.19600E+07         0.00000E+00
    0.00000E+00         0.00000E+00        -0.15575E+08
 
   -0.15529E+08         0.28743E+05         0.00000E+00
    0.28743E+05        -0.19601E+07         0.00000E+00
    0.00000E+00         0.00000E+00        -0.15493E+08
 
   -0.15472E+08         0.27624E+05         0.00000E+00
    0.27624E+05        -0.19601E+07         0.00000E+00
    0.00000E+00         0.00000E+00        -0.15410E+08
 
   -0.15418E+08         0.26271E+05         0.00000E+00
    0.26271E+05        -0.19602E+07         0.00000E+00
    0.00000E+00         0.00000E+00        -0.15327E+08
 
   -0.15367E+08         0.24648E+05         0.00000E+00
    0.24648E+05        -0.19603E+07         0.00000E+00
    0.00000E+00         0.00000E+00        -0.15244E+08
 
   -0.15319E+08         0.22718E+05         0.00000E+00
    0.22718E+05        -0.19603E+07         0.00000E+00
    0.00000E+00         0.00000E+00        -0.15160E+08
 
   -0.15275E+08         0.20439E+05         0.00000E+00
    0.20439E+05        -0.19604E+07         0.00000E+00
    0.00000E+00         0.00000E+00        -0.15077E+08
 
   -0.15236E+08         0.17771E+05         0.00000E+00
    0.17771E+05        -0.19605E+07         0.00000E+00
    0.00000E+00         0.00000E+00        -0.14995E+08
 
   -0.15202E+08         0.14674E+05         0.00000E+00
    0.14674E+05        -0.19607E+07         0.00000E+00
    0.00000E+00         0.00000E+00        -0.14913E+08
 
   -0.15174E+08         0.11117E+05         0.00000E+00
    0.11117E+05        -0.19608E+07         0.00000E+00
    0.00000E+00         0.00000E+00        -0.14832E+08
 
   -0.15154E+08         0.70786E+04         0.00000E+00
    0.70786E+04        -0.19609E+07         0.00000E+00
    0.00000E+00         0.00000E+00        -0.14753E+08
 
   -0.15142E+08         0.25599E+04         0.00000E+00
    0.25599E+04        -0.19610E+07         0.00000E+00
    0.00000E+00         0.00000E+00        -0.14676E+08
 
   -0.15138E+08        -0.24146E+04         0.00000E+00
   -0.24146E+04        -0.19611E+07         0.00000E+00
    0.00000E+00         0.00000E+00        -0.14600E+08
 
   -0.15144E+08        -0.77799E+04         0.00000E+00
   -0.77799E+04        -0.19612E+07         0.00000E+00
    0.00000E+00         0.00000E+00        -0.14527E+08
 
   -0.15160E+08        -0.13438E+05         0.00000E+00
   -0.13438E+05        -0.19613E+07         0.00000E+00
    0.00000E+00         0.00000E+00        -0.14456E+08
 
   -0.15187E+08        -0.19243E+05         0.00000E+00
   -0.19243E+05        -0.19614E+07         0.00000E+00
    0.00000E+00         0.00000E+00        -0.14388E+08
 
   -0.15223E+08        -0.24964E+05         0.00000E+00
   -0.24964E+05        -0.19613E+07         0.00000E+00
    0.00000E+00         0.00000E+00        -0.14322E+08
 
   -0.15268E+08        -0.30535E+05         0.00000E+00
   -0.30535E+05        -0.19616E+07         0.00000E+00
    0.00000E+00         0.00000E+00        -0.14259E+08
 
   -0.15319E+08        -0.34727E+05         0.00000E+00
   -0.34727E+05        -0.19608E+07         0.00000E+00
    0.00000E+00         0.00000E+00        -0.14197E+08
 
   -0.15374E+08        -0.39647E+05         0.00000E+00
   -0.39647E+05        -0.19621E+07         0.00000E+00
    0.00000E+00         0.00000E+00        -0.14136E+08
 
   -0.15405E+08        -0.27001E+05         0.00000E+00
   -0.27001E+05        -0.19601E+07         0.00000E+00
    0.00000E+00         0.00000E+00        -0.14068E+08
 
   -0.18479E+08        -0.35423E+04         0.00000E+00
   -0.35423E+04        -0.19587E+07         0.00000E+00
    0.00000E+00         0.00000E+00        -0.18725E+08
 
   -0.18486E+08        -0.35719E+04         0.00000E+00
   -0.35719E+04        -0.19601E+07         0.00000E+00
    0.00000E+00         0.00000E+00        -0.18717E+08
 
   -0.18494E+08        -0.27382E+04         0.00000E+00
   -0.27382E+04        -0.19599E+07         0.00000E+00
    0.00000E+00         0.00000E+00        -0.18708E+08
 
   -0.18501E+08        -0.21587E+04         0.00000E+00
   -0.21587E+04        -0.19599E+07         0.00000E+00
    0.00000E+00         0.00000E+00        -0.18699E+08
 
   -0.18506E+08        -0.14225E+04         0.00000E+00
   -0.14225E+04        -0.19599E+07         0.00000E+00
    0.00000E+00         0.00000E+00        -0.18690E+08
 
   -0.18508E+08        -0.73686E+03         0.00000E+00
   -0.73686E+03        -0.19599E+07         0.00000E+00
    0.00000E+00         0.00000E+00        -0.18679E+08
 
   -0.18509E+08        -0.37299E+02         0.00000E+00
   -0.37299E+02        -0.19599E+07         0.00000E+00
    0.00000E+00         0.00000E+00        -0.18668E+08
 
   -0.18507E+08         0.63187E+03         0.00000E+00
    0.63187E+03        -0.19599E+07         0.00000E+00
    0.00000E+00         0.00000E+00        -0.18656E+08
 
   -0.18504E+08         0.12739E+04         0.00000E+00
    0.12739E+04        -0.19599E+07         0.00000E+00
    0.00000E+00         0.00000E+00        -0.18644E+08
 
   -0.18498E+08         0.18767E+04         0.00000E+00
    0.18767E+04        -0.19599E+07         0.00000E+00
    0.00000E+00         0.00000E+00        -0.18631E+08
 
   -0.18491E+08         0.24389E+04         0.00000E+00
    0.24389E+04        -0.19599E+07         0.00000E+00
    0.00000E+00         0.00000E+00        -0.18617E+08
 
   -0.18482E+08         0.29587E+04         0.00000E+00
    0.29587E+04        -0.19599E+07         0.00000E+00
    0.00000E+00         0.00000E+00        -0.18602E+08
 
   -0.18471E+08         0.34378E+04         0.00000E+00
    0.34378E+04        -0.19599E+07         0.00000E+00
    0.00000E+00         0.00000E+00        -0.18587E+08
 
   -0.18459E+08         0.38789E+04         0.00000E+00
    0.38789E+04        -0.19599E+07         0.00000E+00
    0.00000E+00         0.00000E+00        -0.18571E+08
 
   -0.18445E+08         0.42858E+04         0.00000E+00
    0.42858E+04        -0.19599E+07         0.00000E+00
    0.00000E+00         0.00000E+00        -0.18555E+08
 
   -0.18430E+08         0.46627E+04         0.00000E+00
    0.46627E+04        -0.19599E+07         0.00000E+00
    0.00000E+00         0.00000E+00        -0.18538E+08
 
   -0.18414E+08         0.50138E+04         0.00000E+00
    0.50138E+04        -0.19599E+07         0.00000E+00
    0.00000E+00         0.00000E+00        -0.18520E+08
 
   -0.18397E+08         0.53432E+04         0.00000E+00
    0.53432E+04        -0.19599E+07         0.00000E+00
    0.00000E+00         0.00000E+00        -0.18502E+08
 
   -0.18379E+08         0.56547E+04         0.00000E+00
    0.56547E+04        -0.19599E+07         0.00000E+00
    0.00000E+00         0.00000E+00        -0.18483E+08
 
   -0.18360E+08         0.59517E+04         0.00000E+00
    0.59517E+04        -0.19599E+07         0.00000E+00
    0.00000E+00         0.00000E+00        -0.18463E+08
 
   -0.18339E+08         0.62371E+04         0.00000E+00
    0.62371E+04        -0.19599E+07         0.00000E+00
    0.00000E+00         0.00000E+00        -0.18443E+08
 
   -0.18318E+08         0.65137E+04         0.00000E+00
    0.65137E+04        -0.19599E+07         0.00000E+00
    0.00000E+00         0.00000E+00        -0.18422E+08
 
   -0.18296E+08         0.67835E+04         0.00000E+00
    0.67835E+04        -0.19599E+07         0.00000E+00
    0.00000E+00         0.00000E+00        -0.18401E+08
 
   -0.18273E+08         0.70483E+04         0.00000E+00
    0.70483E+04        -0.19599E+07         0.00000E+00
    0.00000E+00         0.00000E+00        -0.18379E+08
 
   -0.18249E+08         0.73098E+04         0.00000E+00
    0.73098E+04        -0.19599E+07         0.00000E+00
    0.00000E+00         0.00000E+00        -0.18357E+08
 
   -0.18225E+08         0.75693E+04         0.00000E+00
    0.75693E+04        -0.19599E+07         0.00000E+00
    0.00000E+00         0.00000E+00        -0.18333E+08
 
   -0.18199E+08         0.78277E+04         0.00000E+00
    0.78277E+04        -0.19599E+07         0.00000E+00
    0.00000E+00         0.00000E+00        -0.18310E+08
 
   -0.18173E+08         0.80861E+04         0.00000E+00
    0.80861E+04        -0.19599E+07         0.00000E+00
    0.00000E+00         0.00000E+00        -0.18285E+08
 
   -0.18145E+08         0.83450E+04         0.00000E+00
    0.83450E+04        -0.19599E+07         0.00000E+00
    0.00000E+00         0.00000E+00        -0.18260E+08
 
   -0.18117E+08         0.86052E+04         0.00000E+00
    0.86052E+04        -0.19599E+07         0.00000E+00
    0.00000E+00         0.00000E+00        -0.18234E+08
 
   -0.18088E+08         0.88670E+04         0.00000E+00
    0.88670E+04        -0.19599E+07         0.00000E+00
    0.00000E+00         0.00000E+00        -0.18207E+08
 
   -0.18058E+08         0.91310E+04         0.00000E+00
    0.91310E+04        -0.19599E+07         0.00000E+00
    0.00000E+00         0.00000E+00        -0.18179E+08
 
   -0.18027E+08         0.93974E+04         0.00000E+00
    0.93974E+04        -0.19599E+07         0.00000E+00
    0.00000E+00         0.00000E+00        -0.18151E+08
 
   -0.17996E+08         0.96664E+04         0.00000E+00
    0.96664E+04        -0.19599E+07         0.00000E+00
    0.00000E+00         0.00000E+00        -0.18122E+08
 
   -0.17963E+08         0.99384E+04         0.00000E+00
    0.99384E+04        -0.19599E+07         0.00000E+00
    0.00000E+00         0.00000E+00        -0.18092E+08
 
   -0.17930E+08         0.10213E+05         0.00000E+00
    0.10213E+05        -0.19599E+07         0.00000E+00
    0.00000E+00         0.00000E+00        -0.18061E+08
 
   -0.17895E+08         0.10491E+05         0.00000E+00
    0.10491E+05        -0.19599E+07         0.00000E+00
    0.00000E+00         0.00000E+00        -0.18029E+08
 
   -0.17860E+08         0.10773E+05         0.00000E+00
    0.10773E+05        -0.19599E+07         0.00000E+00
    0.00000E+00         0.00000E+00        -0.17997E+08
 
   -0.17823E+08         0.11057E+05         0.00000E+00
    0.11057E+05        -0.19599E+07         0.00000E+00
    0.00000E+00         0.00000E+00        -0.17963E+08
 
   -0.17786E+08         0.11345E+05         0.00000E+00
    0.11345E+05        -0.19599E+07         0.00000E+00
    0.00000E+00         0.00000E+00        -0.17929E+08
 
   -0.17748E+08         0.11635E+05         0.00000E+00
    0.11635E+05        -0.19599E+07         0.00000E+00
    0.00000E+00         0.00000E+00        -0.17893E+08
 
   -0.17709E+08         0.11929E+05         0.00000E+00
    0.11929E+05        -0.19599E+07         0.00000E+00
    0.00000E+00         0.00000E+00        -0.17857E+08
 
   -0.17669E+08         0.12225E+05         0.00000E+00
    0.12225E+05        -0.19599E+07         0.00000E+00
    0.00000E+00         0.00000E+00        -0.17819E+08
 
   -0.17628E+08         0.12524E+05         0.00000E+00
    0.12524E+05        -0.19599E+07         0.00000E+00
    0.00000E+00         0.00000E+00        -0.17781E+08
 
   -0.17585E+08         0.12826E+05         0.00000E+00
    0.12826E+05        -0.19598E+07         0.00000E+00
    0.00000E+00         0.00000E+00        -0.17741E+08
 
   -0.17542E+08         0.13129E+05         0.00000E+00
    0.13129E+05        -0.19598E+07         0.00000E+00
    0.00000E+00         0.00000E+00        -0.17701E+08
 
   -0.17498E+08         0.13434E+05         0.00000E+00
    0.13434E+05        -0.19598E+07         0.00000E+00
    0.00000E+00         0.00000E+00        -0.17659E+08
 
   -0.17453E+08         0.13741E+05         0.00000E+00
    0.13741E+05        -0.19598E+07         0.00000E+00
    0.00000E+00         0.00000E+00        -0.17616E+08
 
   -0.17407E+08         0.14048E+05         0.00000E+00
    0.14048E+05        -0.19598E+07         0.00000E+00
    0.00000E+00         0.00000E+00        -0.17572E+08
 
   -0.17359E+08         0.14356E+05         0.00000E+00
    0.14356E+05        -0.19598E+07         0.00000E+00
    0.00000E+00         0.00000E+00        -0.17526E+08
 
   -0.17311E+08         0.14663E+05         0.00000E+00
    0.14663E+05        -0.19598E+07         0.00000E+00
    0.00000E+00         0.00000E+00        -0.17480E+08
 
   -0.17262E+08         0.14970E+05         0.00000E+00
    0.14970E+05        -0.19598E+07         0.00000E+00
    0.00000E+00         0.00000E+00        -0.17432E+08
 
   -0.17211E+08         0.15275E+05         0.00000E+00
    0.15275E+05        -0.19598E+07         0.00000E+00
    0.00000E+00         0.00000E+00        -0.17383E+08
 
   -0.17160E+08         0.15579E+05         0.00000E+00
    0.15579E+05        -0.19598E+07         0.00000E+00
    0.00000E+00         0.00000E+00        -0.17333E+08
 
   -0.17108E+08         0.15879E+05         0.00000E+00
    0.15879E+05        -0.19598E+07         0.00000E+00
    0.00000E+00         0.00000E+00        -0.17282E+08
 
   -0.17054E+08         0.16175E+05         0.00000E+00
    0.16175E+05        -0.19598E+07         0.00000E+00
    0.00000E+00         0.00000E+00        -0.17229E+08
 
   -0.17000E+08         0.16467E+05         0.00000E+00
    0.16467E+05        -0.19598E+07         0.00000E+00
    0.00000E+00         0.00000E+00        -0.17175E+08
 
   -0.16945E+08         0.16753E+05         0.00000E+00
    0.16753E+05        -0.19598E+07         0.00000E+00
    0.00000E+00         0.00000E+00        -0.17119E+08
 
   -0.16888E+08         0.17032E+05         0.00000E+00
    0.17032E+05        -0.19598E+07         0.00000E+00
    0.00000E+00         0.00000E+00        -0.17063E+08
 
   -0.16831E+08         0.17303E+05         0.00000E+00
    0.17303E+05        -0.19598E+07         0.00000E+00
    0.00000E+00         0.00000E+00        -0.17005E+08
 
   -0.16773E+08         0.17564E+05         0.00000E+00
    0.17564E+05        -0.19598E+07         0.00000E+00
    0.00000E+00         0.00000E+00        -0.16945E+08
 
   -0.16714E+08         0.17815E+05         0.00000E+00
    0.17815E+05        -0.19598E+07         0.00000E+00
    0.00000E+00         0.00000E+00        -0.16885E+08
 
   -0.16655E+08         0.18054E+05         0.00000E+00
    0.18054E+05        -0.19598E+07         0.00000E+00
    0.00000E+00         0.00000E+00        -0.16822E+08
 
   -0.16594E+08         0.18279E+05         0.00000E+00
    0.18279E+05        -0.19598E+07         0.00000E+00
    0.00000E+00         0.00000E+00        -0.16759E+08
 
   -0.16533E+08         0.18488E+05         0.00000E+00
    0.18488E+05        -0.19598E+07         0.00000E+00
    0.00000E+00         0.00000E+00        -0.16694E+08
 
   -0.16471E+08         0.18679E+05         0.00000E+00
    0.18679E+05        -0.19598E+07         0.00000E+00
    0.00000E+00         0.00000E+00        -0.16628E+08
 
   -0.16408E+08         0.18852E+05         0.00000E+00
    0.18852E+05        -0.19598E+07         0.00000E+00
    0.00000E+00         0.00000E+00        -0.16561E+08
 
   -0.16345E+08         0.19002E+05         0.00000E+00
    0.19002E+05        -0.19598E+07         0.00000E+00
    0.00000E+00         0.00000E+00        -0.16492E+08
 
   -0.16282E+08         0.19128E+05         0.00000E+00
    0.19128E+05        -0.19598E+07         0.00000E+00
    0.00000E+00         0.00000E+00        -0.16422E+08
 
   -0.16218E+08         0.19228E+05         0.00000E+00
    0.19228E+05        -0.19598E+07         0.00000E+00
    0.00000E+00         0.00000E+00        -0.16350E+08
 
   -0.16153E+08         0.19297E+05         0.00000E+00
    0.19297E+05        -0.19598E+07         0.00000E+00
    0.00000E+00         0.00000E+00        -0.16278E+08
 
   -0.16089E+08         0.19333E+05         0.00000E+00
    0.19333E+05        -0.19598E+07         0.00000E+00
    0.00000E+00         0.00000E+00        -0.16204E+08
 
   -0.16024E+08         0.19331E+05         0.00000E+00
    0.19331E+05        -0.19598E+07         0.00000E+00
    0.00000E+00         0.00000E+00        -0.16129E+08
 
   -0.15960E+08         0.19287E+05         0.00000E+00
    0.19287E+05        -0.19598E+07         0.00000E+00
    0.00000E+00         0.00000E+00        -0.16053E+08
 
   -0.15896E+08         0.19196E+05         0.00000E+00
    0.19196E+05        -0.19598E+07         0.00000E+00
    0.00000E+00         0.00000E+00        -0.15975E+08
 
   -0.15832E+08         0.19051E+05         0.00000E+00
    0.19051E+05        -0.19598E+07         0.00000E+00
    0.00000E+00         0.00000E+00        -0.15897E+08
 
   -0.15769E+08         0.18845E+05         0.00000E+00
    0.18845E+05        -0.19599E+07         0.00000E+00
    0.00000E+00         0.00000E+00        -0.15818E+08
 
   -0.15706E+08         0.18570E+05         0.00000E+00
    0.18570E+05        -0.19599E+07         0.00000E+00
    0.00000E+00         0.00000E+00        -0.15737E+08
 
   -0.15645E+08         0.18214E+05         0.00000E+00
    0.18214E+05        -0.19599E+07         0.00000E+00
    0.00000E+00         0.00000E+00        -0.15656E+08
 
   -0.15585E+08         0.17766E+05         0.00000E+00
    0.17766E+05        -0.19599E+07         0.00000E+00
    0.00000E+00         0.00000E+00        -0.15574E+08
 
   -0.15526E+08         0.17210E+05         0.00000E+00
    0.17210E+05        -0.19599E+07         0.00000E+00
    0.00000E+00         0.00000E+00        -0.15492E+08
 
   -0.15470E+08         0.16532E+05         0.00000E+00
    0.16532E+05        -0.19599E+07         0.00000E+00
    0.00000E+00         0.00000E+00        -0.15409E+08
 
   -0.15416E+08         0.15710E+05         0.00000E+00
    0.15710E+05        -0.19599E+07         0.00000E+00
    0.00000E+00         0.00000E+00        -0.15326E+08
 
   -0.15364E+08         0.14723E+05         0.00000E+00
    0.14723E+05        -0.19600E+07         0.00000E+00
    0.00000E+00         0.00000E+00        -0.15243E+08
 
   -0.15317E+08         0.13547E+05         0.00000E+00
    0.13547E+05        -0.19600E+07         0.00000E+00
    0.00000E+00         0.00000E+00        -0.15160E+08
 
   -0.15273E+08         0.12157E+05         0.00000E+00
    0.12157E+05        -0.19600E+07         0.00000E+00
    0.00000E+00         0.00000E+00        -0.15077E+08
 
   -0.15235E+08         0.10524E+05         0.00000E+00
    0.10524E+05        -0.19601E+07         0.00000E+00
    0.00000E+00         0.00000E+00        -0.14994E+08
 
   -0.15202E+08         0.86256E+04         0.00000E+00
    0.86256E+04        -0.19601E+07         0.00000E+00
    0.00000E+00         0.00000E+00        -0.14913E+08
 
   -0.15176E+08         0.64382E+04         0.00000E+00
    0.64382E+04        -0.19602E+07         0.00000E+00
    0.00000E+00         0.00000E+00        -0.14833E+08
 
   -0.15157E+08         0.39488E+04         0.00000E+00
    0.39488E+04        -0.19602E+07         0.00000E+00
    0.00000E+00         0.00000E+00        -0.14754E+08
 
   -0.15146E+08         0.11517E+04         0.00000E+00
    0.11517E+04        -0.19602E+07         0.00000E+00
    0.00000E+00         0.00000E+00        -0.14677E+08
 
   -0.15145E+08        -0.19338E+04         0.00000E+00
   -0.19338E+04        -0.19603E+07         0.00000E+00
    0.00000E+00         0.00000E+00        -0.14602E+08
 
   -0.15154E+08        -0.52901E+04         0.00000E+00
   -0.52901E+04        -0.19603E+07         0.00000E+00
    0.00000E+00         0.00000E+00        -0.14529E+08
 
   -0.15173E+08        -0.88236E+04         0.00000E+00
   -0.88236E+04        -0.19603E+07         0.00000E+00
    0.00000E+00         0.00000E+00        -0.14460E+08
 
   -0.15204E+08        -0.12548E+05         0.00000E+00
   -0.12548E+05        -0.19604E+07         0.00000E+00
    0.00000E+00         0.00000E+00        -0.14393E+08
 
   -0.15245E+08        -0.16142E+05         0.00000E+00
   -0.16142E+05        -0.19604E+07         0.00000E+00
    0.00000E+00         0.00000E+00        -0.14328E+08
 
   -0.15297E+08        -0.20048E+05         0.00000E+00
   -0.20048E+05        -0.19605E+07         0.00000E+00
    0.00000E+00         0.00000E+00        -0.14267E+08
 
   -0.15358E+08        -0.22802E+05         0.00000E+00
   -0.22802E+05        -0.19607E+07         0.00000E+00
    0.00000E+00         0.00000E+00        -0.14208E+08
 
   -0.15426E+08        -0.27276E+05         0.00000E+00
   -0.27276E+05        -0.19592E+07         0.00000E+00
    0.00000E+00         0.00000E+00        -0.14151E+08
 
   -0.15479E+08        -0.25613E+05         0.00000E+00
   -0.25613E+05        -0.19689E+07         0.00000E+00
    0.00000E+00         0.00000E+00        -0.14093E+08
 
   -0.18466E+08        -0.30247E+04         0.00000E+00
   -0.30247E+04        -0.19577E+07         0.00000E+00
    0.00000E+00         0.00000E+00        -0.18721E+08
 
   -0.18478E+08        -0.11814E+04         0.00000E+00
   -0.11814E+04        -0.19609E+07         0.00000E+00
    0.00000E+00         0.00000E+00        -0.18715E+08
 
   -0.18488E+08        -0.12272E+04         0.00000E+00
   -0.12272E+04        -0.19596E+07         0.00000E+00
    0.00000E+00         0.00000E+00        -0.18706E+08
 
   -0.18496E+08        -0.82668E+03         0.00000E+00
   -0.82668E+03        -0.19602E+07         0.00000E+00
    0.00000E+00         0.00000E+00        -0.18698E+08
 
   -0.18502E+08        -0.59573E+03         0.00000E+00
   -0.59573E+03        -0.19599E+07         0.00000E+00
    0.00000E+00         0.00000E+00        -0.18688E+08
 
   -0.18505E+08        -0.32291E+03         0.00000E+00
   -0.32291E+03        -0.19600E+07         0.00000E+00
    0.00000E+00         0.00000E+00        -0.18678E+08
 
   -0.18506E+08        -0.76645E+02         0.00000E+00
   -0.76645E+02        -0.19600E+07         0.00000E+00
    0.00000E+00         0.00000E+00        -0.18667E+08
 
   -0.18505E+08         0.16480E+03         0.00000E+00
    0.16480E+03        -0.19600E+07         0.00000E+00
    0.00000E+00         0.00000E+00        -0.18656E+08
 
   -0.18502E+08         0.39060E+03         0.00000E+00
    0.39060E+03        -0.19600E+07         0.00000E+00
    0.00000E+00         0.00000E+00        -0.18643E+08
 
   -0.18497E+08         0.60218E+03         0.00000E+00
    0.60218E+03        -0.19600E+07         0.00000E+00
    0.00000E+00         0.00000E+00        -0.18630E+08
 
   -0.18490E+08         0.79759E+03         0.00000E+00
    0.79759E+03        -0.19600E+07         0.00000E+00
    0.00000E+00         0.00000E+00        -0.18616E+08
 
   -0.18481E+08         0.97730E+03         0.00000E+00
    0.97730E+03        -0.19600E+07         0.00000E+00
    0.00000E+00         0.00000E+00        -0.18602E+08
 
   -0.18470E+08         0.11419E+04         0.00000E+00
    0.11419E+04        -0.19600E+07         0.00000E+00
    0.00000E+00         0.00000E+00        -0.18587E+08
 
   -0.18458E+08         0.12927E+04         0.00000E+00
    0.12927E+04        -0.19600E+07         0.00000E+00
    0.00000E+00         0.00000E+00        -0.18571E+08
 
   -0.18444E+08         0.14311E+04         0.00000E+00
    0.14311E+04        -0.19600E+07         0.00000E+00
    0.00000E+00         0.00000E+00        -0.18554E+08
 
   -0.18429E+08         0.15587E+04         0.00000E+00
    0.15587E+04        -0.19600E+07         0.00000E+00
    0.00000E+00         0.00000E+00        -0.18537E+08
 
   -0.18413E+08         0.16772E+04         0.00000E+00
    0.16772E+04        -0.19600E+07         0.00000E+00
    0.00000E+00         0.00000E+00        -0.18519E+08
 
   -0.18396E+08         0.17881E+04         0.00000E+00
    0.17881E+04        -0.19600E+07         0.00000E+00
    0.00000E+00         0.00000E+00        -0.18501E+08
 
   -0.18378E+08         0.18926E+04         0.00000E+00
    0.18926E+04        -0.19600E+07         0.00000E+00
    0.00000E+00         0.00000E+00        -0.18482E+08
 
   -0.18358E+08         0.19921E+04         0.00000E+00
    0.19921E+04        -0.19600E+07         0.00000E+00
    0.00000E+00         0.00000E+00        -0.18463E+08
 
   -0.18338E+08         0.20876E+04         0.00000E+00
    0.20876E+04        -0.19600E+07         0.00000E+00
    0.00000E+00         0.00000E+00        -0.18443E+08
 
   -0.18317E+08         0.21800E+04         0.00000E+00
    0.21800E+04        -0.19600E+07         0.00000E+00
    0.00000E+00         0.00000E+00        -0.18422E+08
 
   -0.18294E+08         0.22701E+04         0.00000E+00
    0.22701E+04        -0.19600E+07         0.00000E+00
    0.00000E+00         0.00000E+00        -0.18401E+08
 
   -0.18271E+08         0.23586E+04         0.00000E+00
    0.23586E+04        -0.19599E+07         0.00000E+00
    0.00000E+00         0.00000E+00        -0.18379E+08
 
   -0.18248E+08         0.24459E+04         0.00000E+00
    0.24459E+04        -0.19599E+07         0.00000E+00
    0.00000E+00         0.00000E+00        -0.18356E+08
 
   -0.18223E+08         0.25324E+04         0.00000E+00
    0.25324E+04        -0.19599E+07         0.00000E+00
    0.00000E+00         0.00000E+00        -0.18333E+08
 
   -0.18197E+08         0.26187E+04         0.00000E+00
    0.26187E+04        -0.19599E+07         0.00000E+00
    0.00000E+00         0.00000E+00        -0.18309E+08
 
   -0.18171E+08         0.27049E+04         0.00000E+00
    0.27049E+04        -0.19599E+07         0.00000E+00
    0.00000E+00         0.00000E+00        -0.18284E+08
 
   -0.18143E+08         0.27913E+04         0.00000E+00
    0.27913E+04        -0.19599E+07         0.00000E+00
    0.00000E+00         0.00000E+00        -0.18259E+08
 
   -0.18115E+08         0.28781E+04         0.00000E+00
    0.28781E+04        -0.19599E+07         0.00000E+00
    0.00000E+00         0.00000E+00        -0.18233E+08
 
   -0.18086E+08         0.29655E+04         0.00000E+00
    0.29655E+04        -0.19599E+07         0.00000E+00
    0.00000E+00         0.00000E+00        -0.18206E+08
 
   -0.18056E+08         0.30536E+04         0.00000E+00
    0.30536E+04        -0.19599E+07         0.00000E+00
    0.00000E+00         0.00000E+00        -0.18179E+08
 
   -0.18025E+08         0.31425E+04         0.00000E+00
    0.31425E+04        -0.19599E+07         0.00000E+00
    0.00000E+00         0.00000E+00        -0.18150E+08
 
   -0.17993E+08         0.32323E+04         0.00000E+00
    0.32323E+04        -0.19599E+07         0.00000E+00
    0.00000E+00         0.00000E+00        -0.18121E+08
 
   -0.17961E+08         0.33230E+04         0.00000E+00
    0.33230E+04        -0.19599E+07         0.00000E+00
    0.00000E+00         0.00000E+00        -0.18091E+08
 
   -0.17927E+08         0.34147E+04         0.00000E+00
    0.34147E+04        -0.19599E+07         0.00000E+00
    0.00000E+00         0.00000E+00        -0.18060E+08
 
   -0.17893E+08         0.35075E+04         0.00000E+00
    0.35075E+04        -0.19599E+07         0.00000E+00
    0.00000E+00         0.00000E+00        -0.18029E+08
 
   -0.17857E+08         0.36013E+04         0.00000E+00
    0.36013E+04        -0.19599E+07         0.00000E+00
    0.00000E+00         0.00000E+00        -0.17996E+08
 
   -0.17821E+08         0.36962E+04         0.00000E+00
    0.36962E+04        -0.19599E+07         0.00000E+00
    0.00000E+00         0.00000E+00        -0.17962E+08
 
   -0.17783E+08         0.37921E+04         0.00000E+00
    0.37921E+04        -0.19599E+07         0.00000E+00
    0.00000E+00         0.00000E+00        -0.17928E+08
 
   -0.17745E+08         0.38890E+04         0.00000E+00
    0.38890E+04        -0.19599E+07         0.00000E+00
    0.00000E+00         0.00000E+00        -0.17892E+08
 
   -0.17706E+08         0.39868E+04         0.00000E+00
    0.39868E+04        -0.19599E+07         0.00000E+00
    0.00000E+00         0.00000E+00        -0.17856E+08
 
   -0.17666E+08         0.40856E+04         0.00000E+00
    0.40856E+04        -0.19599E+07         0.00000E+00
    0.00000E+00         0.00000E+00        -0.17818E+08
 
   -0.17624E+08         0.41852E+04         0.00000E+00
    0.41852E+04        -0.19599E+07         0.00000E+00
    0.00000E+00         0.00000E+00        -0.17780E+08
 
   -0.17582E+08         0.42856E+04         0.00000E+00
    0.42856E+04        -0.19599E+07         0.00000E+00
    0.00000E+00         0.00000E+00        -0.17740E+08
 
   -0.17539E+08         0.43867E+04         0.00000E+00
    0.43867E+04        -0.19599E+07         0.00000E+00
    0.00000E+00         0.00000E+00        -0.17700E+08
 
   -0.17495E+08         0.44883E+04         0.00000E+00
    0.44883E+04        -0.19599E+07         0.00000E+00
    0.00000E+00         0.00000E+00        -0.17658E+08
 
   -0.17449E+08         0.45903E+04         0.00000E+00
    0.45903E+04        -0.19599E+07         0.00000E+00
    0.00000E+00         0.00000E+00        -0.17615E+08
 
   -0.17403E+08         0.46926E+04         0.00000E+00
    0.46926E+04        -0.19599E+07         0.00000E+00
    0.00000E+00         0.00000E+00        -0.17571E+08
 
   -0.17356E+08         0.47950E+04         0.00000E+00
    0.47950E+04        -0.19599E+07         0.00000E+00
    0.00000E+00         0.00000E+00        -0.17525E+08
 
   -0.17307E+08         0.48973E+04         0.00000E+00
    0.48973E+04        -0.19599E+07         0.00000E+00
    0.00000E+00         0.00000E+00        -0.17479E+08
 
   -0.17258E+08         0.49993E+04         0.00000E+00
    0.49993E+04        -0.19599E+07         0.00000E+00
    0.00000E+00         0.00000E+00        -0.17431E+08
 
   -0.17208E+08         0.51008E+04         0.00000E+00
    0.51008E+04        -0.19599E+07         0.00000E+00
    0.00000E+00         0.00000E+00        -0.17382E+08
 
   -0.17156E+08         0.52016E+04         0.00000E+00
    0.52016E+04        -0.19599E+07         0.00000E+00
    0.00000E+00         0.00000E+00        -0.17332E+08
 
   -0.17104E+08         0.53013E+04         0.00000E+00
    0.53013E+04        -0.19599E+07         0.00000E+00
    0.00000E+00         0.00000E+00        -0.17280E+08
 
   -0.17050E+08         0.53997E+04         0.00000E+00
    0.53997E+04        -0.19599E+07         0.00000E+00
    0.00000E+00         0.00000E+00        -0.17228E+08
 
   -0.16996E+08         0.54965E+04         0.00000E+00
    0.54965E+04        -0.19599E+07         0.00000E+00
    0.00000E+00         0.00000E+00        -0.17174E+08
 
   -0.16941E+08         0.55913E+04         0.00000E+00
    0.55913E+04        -0.19598E+07         0.00000E+00
    0.00000E+00         0.00000E+00        -0.17118E+08
 
   -0.16884E+08         0.56838E+04         0.00000E+00
    0.56838E+04        -0.19598E+07         0.00000E+00
    0.00000E+00         0.00000E+00        -0.17061E+08
 
   -0.16827E+08         0.57735E+04         0.00000E+00
    0.57735E+04        -0.19598E+07         0.00000E+00
    0.00000E+00         0.00000E+00        -0.17003E+08
 
   -0.16769E+08         0.58600E+04         0.00000E+00
    0.58600E+04        -0.19598E+07         0.00000E+00
    0.00000E+00         0.00000E+00        -0.16944E+08
 
   -0.16710E+08         0.59429E+04         0.00000E+00
    0.59429E+04        -0.19598E+07         0.00000E+00
    0.00000E+00         0.00000E+00        -0.16883E+08
 
   -0.16650E+08         0.60217E+04         0.00000E+00
    0.60217E+04        -0.19598E+07         0.00000E+00
    0.00000E+00         0.00000E+00        -0.16821E+08
 
   -0.16590E+08         0.60959E+04         0.00000E+00
    0.60959E+04        -0.19598E+07         0.00000E+00
    0.00000E+00         0.00000E+00        -0.16758E+08
 
   -0.16528E+08         0.61647E+04         0.00000E+00
    0.61647E+04        -0.19598E+07         0.00000E+00
    0.00000E+00         0.00000E+00        -0.16693E+08
 
   -0.16466E+08         0.62277E+04         0.00000E+00
    0.62277E+04        -0.19598E+07         0.00000E+00
    0.00000E+00         0.00000E+00        -0.16627E+08
 
   -0.16404E+08         0.62842E+04         0.00000E+00
    0.62842E+04        -0.19598E+07         0.00000E+00
    0.00000E+00         0.00000E+00        -0.16559E+08
 
   -0.16341E+08         0.63334E+04         0.00000E+00
    0.63334E+04        -0.19598E+07         0.00000E+00
    0.00000E+00         0.00000E+00        -0.16491E+08
 
   -0.16277E+08         0.63744E+04         0.00000E+00
    0.63744E+04        -0.19598E+07         0.00000E+00
    0.00000E+00         0.00000E+00        -0.16420E+08
 
   -0.16213E+08         0.64065E+04         0.00000E+00
    0.64065E+04        -0.19598E+07         0.00000E+00
    0.00000E+00         0.00000E+00        -0.16349E+08
 
   -0.16149E+08         0.64284E+04         0.00000E+00
    0.64284E+04        -0.19598E+07         0.00000E+00
    0.00000E+00         0.00000E+00        -0.16276E+08
 
   -0.16085E+08         0.64393E+04         0.00000E+00
    0.64393E+04        -0.19598E+07         0.00000E+00
    0.00000E+00         0.00000E+00        -0.16203E+08
 
   -0.16020E+08         0.64375E+04         0.00000E+00
    0.64375E+04        -0.19598E+07         0.00000E+00
    0.00000E+00         0.00000E+00        -0.16128E+08
 
   -0.15956E+08         0.64218E+04         0.00000E+00
    0.64218E+04        -0.19598E+07         0.00000E+00
    0.00000E+00         0.00000E+00        -0.16051E+08
 
   -0.15892E+08         0.63902E+04         0.00000E+00
    0.63902E+04        -0.19598E+07         0.00000E+00
    0.00000E+00         0.00000E+00        -0.15974E+08
 
   -0.15828E+08         0.63406E+04         0.00000E+00
    0.63406E+04        -0.19598E+07         0.00000E+00
    0.00000E+00         0.00000E+00        -0.15896E+08
 
   -0.15765E+08         0.62705E+04         0.00000E+00
    0.62705E+04        -0.19598E+07         0.00000E+00
    0.00000E+00         0.00000E+00        -0.15816E+08
 
   -0.15702E+08         0.61770E+04         0.00000E+00
    0.61770E+04        -0.19598E+07         0.00000E+00
    0.00000E+00         0.00000E+00        -0.15736E+08
 
   -0.15641E+08         0.60564E+04         0.00000E+00
    0.60564E+04        -0.19598E+07         0.00000E+00
    0.00000E+00         0.00000E+00        -0.15655E+08
 
   -0.15581E+08         0.59044E+04         0.00000E+00
    0.59044E+04        -0.19598E+07         0.00000E+00
    0.00000E+00         0.00000E+00        -0.15573E+08
 
   -0.15523E+08         0.57161E+04         0.00000E+00
    0.57161E+04        -0.19598E+07         0.00000E+00
    0.00000E+00         0.00000E+00        -0.15491E+08
 
   -0.15466E+08         0.54854E+04         0.00000E+00
    0.54854E+04        -0.19598E+07         0.00000E+00
    0.00000E+00         0.00000E+00        -0.15408E+08
 
   -0.15413E+08         0.52054E+04         0.00000E+00
    0.52054E+04        -0.19598E+07         0.00000E+00
    0.00000E+00         0.00000E+00        -0.15325E+08
 
   -0.15362E+08         0.48682E+04         0.00000E+00
    0.48682E+04        -0.19598E+07         0.00000E+00
    0.00000E+00         0.00000E+00        -0.15242E+08
 
   -0.15315E+08         0.44651E+04         0.00000E+00
    0.44651E+04        -0.19598E+07         0.00000E+00
    0.00000E+00         0.00000E+00        -0.15159E+08
 
   -0.15272E+08         0.39863E+04         0.00000E+00
    0.39863E+04        -0.19598E+07         0.00000E+00
    0.00000E+00         0.00000E+00        -0.15076E+08
 
   -0.15234E+08         0.34219E+04         0.00000E+00
    0.34219E+04        -0.19598E+07         0.00000E+00
    0.00000E+00         0.00000E+00        -0.14994E+08
 
   -0.15202E+08         0.27619E+04         0.00000E+00
    0.27619E+04        -0.19598E+07         0.00000E+00
    0.00000E+00         0.00000E+00        -0.14913E+08
 
   -0.15176E+08         0.19978E+04         0.00000E+00
    0.19978E+04        -0.19598E+07         0.00000E+00
    0.00000E+00         0.00000E+00        -0.14833E+08
 
   -0.15159E+08         0.11224E+04         0.00000E+00
    0.11224E+04        -0.19598E+07         0.00000E+00
    0.00000E+00         0.00000E+00        -0.14754E+08
 
   -0.15150E+08         0.13391E+03         0.00000E+00
    0.13391E+03        -0.19598E+07         0.00000E+00
    0.00000E+00         0.00000E+00        -0.14678E+08
 
   -0.15151E+08        -0.96869E+03         0.00000E+00
   -0.96869E+03        -0.19599E+07         0.00000E+00
    0.00000E+00         0.00000E+00        -0.14603E+08
 
   -0.15162E+08        -0.21688E+04         0.00000E+00
   -0.21688E+04        -0.19598E+07         0.00000E+00
    0.00000E+00         0.00000E+00        -0.14532E+08
 
   -0.15185E+08        -0.34734E+04         0.00000E+00
   -0.34734E+04        -0.19599E+07         0.00000E+00
    0.00000E+00         0.00000E+00        -0.14463E+08
 
   -0.15220E+08        -0.48031E+04         0.00000E+00
   -0.48031E+04        -0.19597E+07         0.00000E+00
    0.00000E+00         0.00000E+00        -0.14397E+08
 
   -0.15267E+08        -0.63067E+04         0.00000E+00
   -0.63067E+04        -0.19603E+07         0.00000E+00
    0.00000E+00         0.00000E+00        -0.14335E+08
 
   -0.15326E+08        -0.75004E+04         0.00000E+00
   -0.75004E+04        -0.19588E+07         0.00000E+00
    0.00000E+00         0.00000E+00        -0.14275E+08
 
   -0.15397E+08        -0.98632E+04         0.00000E+00
   -0.98632E+04        -0.19625E+07         0.00000E+00
    0.00000E+00         0.00000E+00        -0.14221E+08
 
   -0.15475E+08        -0.90692E+04         0.00000E+00
   -0.90692E+04        -0.19538E+07         0.00000E+00
    0.00000E+00         0.00000E+00        -0.14164E+08
 
   -0.15565E+08        -0.21497E+05         0.00000E+00
   -0.21497E+05        -0.19764E+07         0.00000E+00
    0.00000E+00         0.00000E+00        -0.14121E+08
 
SCALARS stresss double 
LOOKUP_TABLE default
  -13186658.7081489     
  -13170344.2930909     
  -13155722.7840901     
  -13142143.4283219     
  -13129716.9371631     
  -13118128.1089119     
  -13107212.0774574     
  -13096749.6594858     
  -13086571.1016972     
  -13076521.4514105     
  -13066477.5539170     
  -13056338.9358874     
  -13046027.6176784     
  -13035483.1782322     
  -13024659.8068697     
  -13013522.8772791     
  -13002046.3278017     
  -12990210.3483879     
  -12977999.5742343     
  -12965401.6374138     
  -12952406.0645337     
  -12939003.4445209     
  -12925184.8229512     
  -12910941.2726883     
  -12896263.6028537     
  -12881142.1722612     
  -12865566.7807373     
  -12849526.6167465     
  -12833010.2447128     
  -12816005.6192992     
  -12798500.1172113     
  -12780480.5796750     
  -12761933.3607836     
  -12742844.3784771     
  -12723199.1660840     
  -12702982.9232191     
  -12682180.5654439     
  -12660776.7725167     
  -12638756.0353446     
  -12616102.7019250     
  -12592801.0226657     
  -12568835.1955273     
  -12544189.4114469     
  -12518847.9004992     
  -12492794.9792381     
  -12466015.0996417     
  -12438492.9000651     
  -12410213.2585912     
  -12381161.3491616     
  -12351322.7008668     
  -12320683.2607906     
  -12289229.4608200     
  -12256948.2888719     
  -12223827.3650380     
  -12189855.0232206     
  -12155020.3989192     
  -12119313.5239420     
  -12082725.4289500     
  -12045248.2548963     
  -12006875.3746019     
  -11967601.5258991     
  -11927422.9579622     
  -11886337.5926231     
  -11844345.2025912     
  -11801447.6085328     
  -11757648.8968372     
  -11712955.6595303     
  -11667377.2570557     
  -11620926.1033825     
  -11573617.9709003     
  -11525472.3095758     
  -11476512.5705286     
  -11426766.5181745     
  -11376266.5068762     
  -11325049.6871834     
  -11273158.0925159     
  -11220638.5392611     
  -11167542.2504714     
  -11113924.0866947     
  -11059841.2333713     
  -11005351.1602049     
  -10950508.6181327     
  -10895361.4125558     
  -10839944.6076407     
  -10784272.8664645     
  -10728330.4076900     
  -10672058.5142482     
  -10615339.5706680     
  -10557979.0676480     
  -10499682.0862145     
  -10440033.3457590     
  -10378463.4807135     
  -10314249.0259650     
  -10246449.7378629     
  -10174030.1591304     
  -10095617.5013669     
  -10010234.5962427     
  -9915859.23633857     
  -9813485.49585825     
  -9698754.64062596     
  -13183320.0414581     
  -13168457.2302680     
  -13154030.8966353     
  -13140774.2506307     
  -13128455.0536532     
  -13116971.9372659     
  -13106106.0412069     
  -13095683.7776041     
  -13085529.5281448     
  -13075499.5821583     
  -13065471.0474377     
  -13055346.2524709     
  -13045047.4382142     
  -13034514.6534223     
  -13023701.9342185     
  -13012574.5147121     
  -13001106.0809602     
  -12989276.6088436     
  -12977070.5431001     
  -12964475.3812516     
  -12951480.5654365     
  -12938076.6511987     
  -12924254.6940495     
  -12910005.8136020     
  -12895320.8947082     
  -12880190.3940734     
  -12864604.2253688     
  -12848551.7017538     
  -12832021.5190600     
  -12815001.7669082     
  -12797479.9581885     
  -12779443.0699429     
  -12760877.5907172     
  -12741769.5710270     
  -12722104.6747642     
  -12701868.2302473     
  -12681045.2802470     
  -12659620.6307560     
  -12637578.8985671     
  -12614904.5579124     
  -12591581.9865278     
  -12567595.5115682     
  -12542929.4558208     
  -12517568.1846660     
  -12491496.1542278     
  -12464697.9611345     
  -12437158.3942997     
  -12408862.4891173     
  -12379795.5844571     
  -12349943.3828523     
  -12319292.0142759     
  -12287828.1039332     
  -12255538.8445265     
  -12222412.0735081     
  -12188436.3559016     
  -12153601.0733647     
  -12117896.5202757     
  -12081314.0077571     
  -12043845.9767037     
  -12005486.1210533     
  -11966229.5227153     
  -11926072.7997560     
  -11885014.2695888     
  -11843054.1290230     
  -11800194.6530219     
  -11756440.4138556     
  -11711798.5219087     
  -11666278.8886052     
  -11619894.5105659     
  -11572661.7720357     
  -11524600.7595222     
  -11475735.5781801     
  -11426094.6533494     
  -11375710.9923962     
  -11324622.3710375     
  -11272871.3942808     
  -11220505.3640377     
  -11167575.8637202     
  -11114137.9424698     
  -11060248.7519993     
  -11005965.4487407     
  -10951342.1435194     
  -10896425.6192556     
  -10841249.5422628     
  -10785826.7619799     
  -10730139.4964762     
  -10674126.7397438     
  -10617669.3637635     
  -10560571.2327128     
  -10502540.1701846     
  -10443161.8516953     
  -10381886.0086999     
  -10317990.2959476     
  -10250612.8229546     
  -10178675.7054686     
  -10101126.0071723     
  -10016604.0464342     
  -9924591.59882277     
  -9823661.66694687     
  -9719201.06677277     
  -13180275.0977314     
  -13166387.1647352     
  -13152358.8205080     
  -13139332.8943169     
  -13127171.7123150     
  -13115781.3843914     
  -13104981.8258257     
  -13094601.7918682     
  -13084479.0170520     
  -13074472.1659475     
  -13064462.6787427     
  -13054353.9871082     
  -13044069.5121661     
  -13033549.5330134     
  -13022748.2242185     
  -13011630.7089426     
  -13000170.5439268     
  -12988347.5463906     
  -12976146.0341118     
  -12963553.4101502     
  -12950559.0662674     
  -12937153.5477792     
  -12923327.9373102     
  -12909073.4125313     
  -12894380.9414176     
  -12879241.0828030     
  -12863643.8662692     
  -12847578.7301638     
  -12831034.5011817     
  -12813999.4026856     
  -12796461.0821430     
  -12778406.6506071     
  -12759822.7292072     
  -12740695.4991878     
  -12721010.7532318     
  -12700753.9466913     
  -12679910.2479891     
  -12658464.5879078     
  -12636401.7077862     
  -12613706.2068446     
  -12590362.5889803     
  -12566355.3094404     
  -12541668.8218102     
  -12516287.6257613     
  -12490196.3159957     
  -12463379.6328118     
  -12435822.5147012     
  -12407510.1533756     
  -12378428.0516178     
  -12348562.0843522     
  -12317898.5633429     
  -12286424.3059526     
  -12254126.7084304     
  -12220993.8242524     
  -12187014.4481068     
  -12152178.2062047     
  -12116475.6537080     
  -12079898.3801939     
  -12042439.1242254     
  -12004091.8982605     
  -11964852.1253065     
  -11924716.7888880     
  -11883684.5980388     
  -11841756.1691031     
  -11798934.2261020     
  -11755223.8212152     
  -11710632.5764583     
  -11665170.9467725     
  -11618852.5033369     
  -11571694.2337469     
  -11523716.8525302     
  -11474945.1109663     
  -11425408.0889816     
  -11375139.4435435     
  -11324177.5770533     
  -11272565.6750940     
  -11220351.5452845     
  -11167587.1669248     
  -11114327.8354317     
  -11060630.7538101     
  -11006552.8910936     
  -10952147.8851409     
  -10897461.7393014     
  -10842527.0053025     
  -10787355.1645126     
  -10731926.8193430     
  -10676179.5311094     
  -10619992.8445732     
  -10563171.0284906     
  -10505422.9280368     
  -10446341.8926378     
  -10385384.7240685     
  -10321858.8089571     
  -10254918.0458003     
  -10183577.4661533     
  -10106799.0981126     
  -10023494.4318832     
  -9933194.98784235     
  -9835135.99187703     
  -9737583.84246048     
  -13177435.7384141     
  -13164245.0310510     
  -13150655.0406161     
  -13137852.3759314     
  -13125854.0986519     
  -13114564.9076370     
  -13103836.7655391     
  -13093505.8081582     
  -13083419.0836168     
  -13073439.7304547     
  -13063452.3845688     
  -13053362.2898700     
  -13043093.8629444     
  -13032587.8917301     
  -13021798.7311290     
  -13010691.5317148     
  -12999239.7894706     
  -12987423.2414241     
  -12975226.1301833     
  -12962635.8094316     
  -12949641.6523320     
  -12936234.2184102     
  -12922404.6343182     
  -12908144.1475795     
  -12893443.8168178     
  -12878294.3074952     
  -12862685.7673253     
  -12846607.7604913     
  -12830049.2441126     
  -12812998.5741592     
  -12795443.5311226     
  -12777371.3582953     
  -12758768.8075367     
  -12739622.1889748     
  -12719917.4223030     
  -12699640.0882202     
  -12678775.4792231     
  -12657308.6494135     
  -12635224.4633085     
  -12612507.6438407     
  -12589142.8198709     
  -12565114.5736048     
  -12540407.4883427     
  -12515006.1969998     
  -12488895.4318326     
  -12462060.0757966     
  -12434485.2159470     
  -12406156.1992867     
  -12377058.6914605     
  -12347178.7386964     
  -12316502.8334125     
  -12285017.9839280     
  -12252711.7887567     
  -12219572.5160163     
  -12185589.1885532     
  -12150751.6754740     
  -12115050.7908813     
  -12078478.4007395     
  -12041027.5389408     
  -12002692.5338000     
  -11963469.1463716     
  -11923354.7221342     
  -11882348.3577114     
  -11840451.0843537     
  -11797666.0698470     
  -11753998.8402756     
  -11709457.5225500     
  -11664053.1076988     
  -11617799.7334524     
  -11570714.9824154     
  -11522820.1888724     
  -11474140.7427018     
  -11424706.3726044     
  -11374551.3824781     
  -11323714.8038137     
  -11272240.4129872     
  -11220176.5447448     
  -11167575.6117773     
  -11114493.2145101     
  -11060986.6957861     
  -11007112.9613316     
  -10952925.3522768     
  -10898469.3190327     
  -10843776.6172163     
  -10788857.7231630     
  -10733692.1710545     
  -10678216.5623467     
  -10622310.0732313     
  -10565777.6482869     
  -10508331.0838657     
  -10449570.0581220     
  -10388963.3850872     
  -10325840.1062297     
  -10259384.6236324     
  -10188676.3364996     
  -10112727.6635711     
  -10030673.7818255     
  -9942033.32947897     
  -9847127.81258863     
  -9754525.80541337     
  -13174748.5770504     
  -13162080.2266645     
  -13148911.3597794     
  -13136339.6732420     
  -13124503.5111517     
  -13113323.6005598     
  -13102671.9484582     
  -13092396.1206986     
  -13082350.1862130     
  -13072402.4024442     
  -13062440.3444260     
  -13052371.2377340     
  -13042120.5838325     
  -13031629.7991525     
  -13020853.5331965     
  -13009757.0596580     
  -12998313.8998209     
  -12986503.7781335     
  -12974310.9179359     
  -12961722.6660829     
  -12948728.4100138     
  -12935318.7474858     
  -12921484.8665285     
  -12907218.0963944     
  -12892509.5941376     
  -12877350.1364996     
  -12861729.9917132     
  -12845638.8505617     
  -12829065.8002478     
  -12811999.3282827     
  -12794427.3466748     
  -12776337.2292115     
  -12757715.8566402     
  -12738549.6661275     
  -12718824.7025865     
  -12698526.6703602     
  -12677640.9844180     
  -12656152.8206861     
  -12634047.1654642     
  -12611308.8640918     
  -12587922.6691650     
  -12563873.2886840     
  -12539145.4345494     
  -12513723.8718413     
  -12487593.4693151     
  -12460739.2515379     
  -12433146.4530817     
  -12404800.5751804     
  -12375687.4452544     
  -12345793.2797120     
  -12315104.7504505     
  -12283609.0555044     
  -12251293.9943283     
  -12218148.0482539     
  -12184160.4667313     
  -12149321.3600529     
  -12113621.7993641     
  -12077053.9248900     
  -12039611.0634506     
  -12001287.8564881     
  -11962080.3999862     
  -11921986.3978048     
  -11881005.3300603     
  -11839138.6382195     
  -11796389.9284898     
  -11752765.1948203     
  -11708273.0622722     
  -11662925.0505591     
  -11616735.8560359     
  -11569723.6481197     
  -11521910.3728232     
  -11473322.0514398     
  -11423989.0561151     
  -11373946.3356337     
  -11323233.5538210     
  -11271895.0890361     
  -11219979.8258802     
  -11167540.6491397     
  -11114633.5249125     
  -11061316.0251050     
  -11007645.1193940     
  -10953674.0255571     
  -10899447.8754755     
  -10844997.9292839     
  -10790334.0503211     
  -10735435.1754705     
  -10680237.5425302     
  -10624620.6173025     
  -10568390.8017487     
  -10511263.6540258     
  -10452845.7684792     
  -10392619.1117142     
  -10329932.5078925     
  -10264005.3346753     
  -10193965.1254569     
  -10118903.1563881     
  -10038093.6541743     
  -9951165.28658889     
  -9859290.18046880     
  -9770404.74755380     
  -13172178.3163893     
  -13159915.3515390     
  -13147132.0263881     
  -13134796.4991123     
  -13123122.8949756     
  -13112058.1438670     
  -13101488.4832429     
  -13091273.1467102     
  -13081272.7360222     
  -13071360.4012245     
  -13061426.7339613     
  -13051380.9543334     
  -13041149.7788629     
  -13030675.3479063     
  -13019912.7188703     
  -13008827.3808294     
  -12997392.9635566     
  -12985589.2460433     
  -12973400.4870433     
  -12960814.0691470     
  -12947819.4266642     
  -12934407.2197624     
  -12920568.7152637     
  -12906295.3362093     
  -12891578.3460074     
  -12876408.6374846     
  -12860776.6019023     
  -12844672.0575139     
  -12828084.2213432     
  -12811001.7114343     
  -12793412.5698443     
  -12775304.2991324     
  -12756663.9071007     
  -12737477.9561068     
  -12717732.6144818     
  -12697413.7084928     
  -12676506.7739594     
  -12654997.1071116     
  -12632869.8146092     
  -12610109.8628641     
  -12586702.1269504     
  -12562631.4394678     
  -12537882.6397719     
  -12512440.6239985     
  -12486290.3963146     
  -12459417.1218219     
  -12431806.1815297     
  -12403443.2298089     
  -12374314.2547360     
  -12344405.6417401     
  -12313704.2409855     
  -12282197.4389421     
  -12249873.2346394     
  -12216720.3211513     
  -12182728.1729304     
  -12147887.1396951     
  -12112188.5476813     
  -12075624.8091913     
  -12038189.5415116     
  -11999877.6964190     
  -11960685.7016434     
  -11920611.6157875     
  -11879655.2983001     
  -11837818.5961158     
  -11795105.5484707     
  -11751522.6111058     
  -11707078.9004784     
  -11661786.4576087     
  -11615660.5296165     
  -11568719.8646658     
  -11520987.0126749     
  -11472488.6194732     
  -11423255.6957418     
  -11373323.8336707     
  -11322733.3333714     
  -11271529.1872664     
  -11219760.8535469     
  -11167481.7290253     
  -11114748.2072636     
  -11061618.1798708     
  -11008148.8082914     
  -10954393.3615257     
  -10900396.8854357     
  -10846190.4454819     
  -10791783.6755010     
  -10737155.3826335     
  -10682242.0170945     
  -10626923.9683722     
  -10571009.8708879     
  -10514219.6851069     
  -10456167.7971693     
  -10396349.3646910     
  -10334133.4785458     
  -10268772.8274675     
  -10199439.5690077     
  -10125305.4466645     
  -10045742.7294579     
  -9960561.83368555     
  -9871465.00355055     
  -9785470.88045803     
  -13169700.0097108     
  -13157760.5223446     
  -13145323.7767629     
  -13133224.2572585     
  -13121714.7049558     
  -13110769.5707125     
  -13100287.2726312     
  -13090137.4483120     
  -13080187.1221892     
  -13070314.0043881     
  -13060411.7483352     
  -13050391.5933679     
  -13040181.5718171     
  -13029724.6480636     
  -13018976.3896051     
  -13007902.5931095     
  -12996477.0764247     
  -12984679.7396198     
  -12972494.9304848     
  -12959910.1096552     
  -12946914.7906943     
  -12933499.7203648     
  -12919656.2617536     
  -12905375.9438567     
  -12890650.1444772     
  -12875469.8774454     
  -12859825.6596615     
  -12843707.4378020     
  -12827104.5585144     
  -12810005.7694145     
  -12792399.2411695     
  -12774272.6034042     
  -12755612.9891465     
  -12736407.0840923     
  -12716641.1781772     
  -12696301.2178542     
  -12675372.8581490     
  -12653841.5140498     
  -12631692.4111270     
  -12608910.6355025     
  -12585481.1834414     
  -12561389.0109189     
  -12536619.0835700     
  -12511156.4274460     
  -12484986.1810075     
  -12458093.6487825     
  -12430464.3571064     
  -12402084.1123609     
  -12372939.0621241     
  -12343015.7596521     
  -12312301.2321273     
  -12280783.0531362     
  -12248449.4198766     
  -12215289.2356502     
  -12181292.1982643     
  -12146448.8950545     
  -12110750.9053434     
  -12074190.9112715     
  -12036762.8180717     
  -11998461.8850021     
  -11959284.8682932     
  -11919230.1775898     
  -11878298.0474512     
  -11836490.7254749     
  -11793812.6784861     
  -11750270.8179108     
  -11705874.7448361     
  -11660637.0142275     
  -11614573.4161697     
  -11567703.2696191     
  -11520049.7207579     
  -11471640.0333364     
  -11422505.8520269     
  -11372683.4114235     
  -11322213.6524824     
  -11271142.1945069     
  -11219519.0938700     
  -11167398.3002826     
  -11114836.6975212     
  -11061892.5884184     
  -11008623.4545293     
  -10955082.7908065     
  -10901315.7882165     
  -10847353.6166564     
  -10793206.0565935     
  -10738852.2489563     
  -10684229.4072220     
  -10629219.4785363     
  -10573634.0268922     
  -10517198.0890440     
  -10459534.5120505     
  -10400151.7679199     
  -10338439.4726170     
  -10273681.2160214     
  -10205092.9364225     
  -10131917.8799439     
  -10053611.8846705     
  -9970176.42993843     
  -9883582.15646870     
  -9799901.39638114     
  -13167295.1133184     
  -13155619.7094622     
  -13143492.7935456     
  -13131624.8161030     
  -13120280.8846574     
  -13109459.0966514     
  -13099069.1507347     
  -13088989.6388169     
  -13079093.7590858     
  -13069263.5210825     
  -13059395.6129718     
  -13049403.3325603     
  -13039216.1080196     
  -13028777.8259802     
  -13018044.6600338     
  -13006982.8040364     
  -12995566.3413382     
  -12983775.3582851     
  -12971594.3445571     
  -12959010.8806630     
  -12946014.5915969     
  -12932596.3348138     
  -12918747.5871525     
  -12904459.9957845     
  -12889725.0610260     
  -12874533.9227102     
  -12858877.2260614     
  -12842745.0471957     
  -12826126.8622360     
  -12809011.5474434     
  -12791387.4006797     
  -12773242.1769393     
  -12754563.1326479     
  -12735337.0749797     
  -12715550.4136477     
  -12695189.2135343     
  -12674239.2472047     
  -12652686.0468356     
  -12630514.9554314     
  -12607711.1774342     
  -12584259.8289844     
  -12560145.9881792     
  -12535354.7457281     
  -12509871.2564278     
  -12483680.7918844     
  -12456768.7949129     
  -12429120.9360317     
  -12400723.1724749     
  -12371561.8101351     
  -12341623.5688662     
  -12310895.6515843     
  -12279365.8176358     
  -12247022.4609406     
  -12213854.6934707     
  -12179852.4346961     
  -12145006.5077130     
  -12109308.7428762     
  -12072752.0898718     
  -12035330.7393034     
  -11997040.2549983     
  -11957877.7183820     
  -11917841.8863803     
  -11876933.3643831     
  -11835154.7957920     
  -11792511.0695348     
  -11749009.5465831     
  -11704660.3058725     
  -11659476.4089648     
  -11613474.1811571     
  -11566673.5043377     
  -11519098.1134634     
  -11470775.8838139     
  -11421739.0898154     
  -11372024.6078658     
  -11321674.0248263     
  -11270733.6002945     
  -11219254.0140974     
  -11167289.8104317     
  -11114898.4267373     
  -11062138.6691114     
  -11009068.4678032     
  -10955741.7179612     
  -10902203.9854573     
  -10848486.8404739     
  -10794600.5809636     
  -10740525.1359251     
  -10686199.0179513     
  -10631506.3476630     
  -10576262.2725910     
  -10520197.5671965     
  -10462944.0635231     
  -10404023.7750748     
  -10342846.5943085     
  -10278725.1115729     
  -10210917.2279622     
  -10138727.4230784     
  -10061688.7388808     
  -9979966.45073894     
  -9895614.81642326     
  -9813828.30449972     
  -13164949.2962879     
  -13153493.7323238     
  -13141643.9632075     
  -13130000.3419627     
  -13118823.0906733     
  -13108127.9621638     
  -13097834.9530887     
  -13087830.3484381     
  -13077993.0952475     
  -13068209.2873494     
  -13058378.5828465     
  -13048416.3732920     
  -13038253.5534726     
  -13027835.0242921     
  -13017117.6576249     
  -13006068.1308112     
  -12994660.8682845     
  -12982876.2064320     
  -12970698.8288687     
  -12958116.4772704     
  -12945118.9199606     
  -12931697.1490435     
  -12917842.7725532     
  -12903547.5680660     
  -12888803.1665684     
  -12873600.8389443     
  -12857931.3614764     
  -12841784.9407796     
  -12825151.1823387     
  -12808019.0901580     
  -12790377.0878919     
  -12772213.0542133     
  -12753514.3671145     
  -12734267.9533788     
  -12714460.3406539     
  -12694077.7104759     
  -12673105.9512612     
  -12651530.7107801     
  -12629337.4479689     
  -12606511.4841720     
  -12583038.0540619     
  -12558902.3565756     
  -12534089.6062630     
  -12508585.0854665     
  -12482374.1977601     
  -12455442.5230755     
  -12427775.8749412     
  -12399360.3602526     
  -12370182.4419971     
  -12340229.0053637     
  -12309487.4276817     
  -12277945.6526639     
  -12245592.2694668     
  -12212416.5971344     
  -12178408.7750630     
  -12143559.8602069     
  -12107861.9318493     
  -12071308.2048782     
  -12033893.1526374     
  -11995612.6405555     
  -11956464.0718902     
  -11916446.5470295     
  -11875561.0378575     
  -11833810.5786694     
  -11791200.4749644     
  -11747738.5310863     
  -11703435.2970211     
  -11658304.3335836     
  -11612362.4935671     
  -11565630.2140068     
  -11518131.8112690     
  -11469895.7659537     
  -11420954.9782526     
  -11371346.9660887     
  -11321113.9676827     
  -11270302.8967997     
  -11218965.0824940     
  -11167155.7055342     
  -11114932.8208937     
  -11062355.8301924     
  -11009483.2408032     
  -10956369.5214699     
  -10903060.8409633     
  -10849589.4619930     
  -10795966.5653331     
  -10742173.3124340     
  -10688150.0381051     
  -10633783.6293720     
  -10578893.4448762     
  -10523216.6151920     
  -10466394.4171383     
  -10407962.6062999     
  -10347350.8388321     
  -10283899.1283182     
  -10216904.2838753     
  -10145723.0822486     
  -10069958.8278016     
  -9989898.41689836     
  -9907558.35277274     
  -9827353.87876585     
  -13162651.1349332     
  -13151381.7567645     
  -13139780.8713203     
  -13128353.0352431     
  -13117342.8333891     
  -13106777.3674425     
  -13096585.5298142     
  -13086660.2196010     
  -13076885.6096471     
  -13067151.6665021     
  -13057360.9402782     
  -13047430.9405475     
  -13037294.0940700     
  -13026896.4017510     
  -13016195.5224330     
  -13005158.7002082     
  -12993760.7742581     
  -12981982.3933973     
  -12969808.4863306     
  -12957226.9966224     
  -12944227.8674769     
  -12930802.2494086     
  -12916941.8989932     
  -12902638.7364058     
  -12887884.5314585     
  -12872670.6911513     
  -12856988.1255835     
  -12840827.1729516     
  -12824177.5680073     
  -12807028.4416088     
  -12789368.3418070     
  -12771185.2692611     
  -12752466.7216924     
  -12733199.7436106     
  -12713370.9787399     
  -12692966.7234745     
  -12671972.9803704     
  -12650375.5111727     
  -12628159.8892211     
  -12605311.5513184     
  -12581815.8492978     
  -12557658.1016259     
  -12532823.6454305     
  -12507297.8893714     
  -12481066.3677826     
  -12454114.7965138     
  -12426429.1308986     
  -12397995.6262725     
  -12368800.9014655     
  -12338832.0057052     
  -12308076.4893792     
  -12276522.4791366     
  -12244158.7578465     
  -12210974.8499864     
  -12176961.1131005     
  -12142108.8360530     
  -12106410.3449047     
  -12069859.1173516     
  -12032449.9067954     
  -11994178.8772442     
  -11955043.7503698     
  -11915043.9661487     
  -11874180.8585696     
  -11832457.8478600     
  -11789880.6505159     
  -11746457.5080453     
  -11702199.4346669     
  -11657120.4831042     
  -11611238.0259554     
  -11564573.0476745     
  -11517150.4387675     
  -11468999.2790859     
  -11420153.0907897     
  -11370650.0332897     
  -11320533.0019098     
  -11269849.5787771     
  -11218651.7682726     
  -11166995.4301042     
  -11114939.3008037     
  -11062543.4696845     
  -11009867.1491481     
  -10956965.5537313     
  -10903885.6808243     
  -10850660.7740665     
  -10797303.2563307     
  -10743795.9564423     
  -10690081.5413391     
  -10636050.2364471     
  -10581526.2149433     
  -10526253.5382808     
  -10469883.3506761     
  -10411965.2741425     
  -10351948.1249903     
  -10289197.7900820     
  -10223046.2431629     
  -10152894.9099005     
  -10078407.4617622     
  -9999948.02542252     
  -9919419.77528915     
  -9840559.86796805     
  -13160391.2870262     
  -13149282.0777369     
  -13137906.0021817     
  -13126684.9465222     
  -13115841.5321704     
  -13105408.4570764     
  -13095321.7394873     
  -13085479.9086000     
  -13075771.8073885     
  -13066091.0490343     
  -13056342.9934562     
  -13046447.2824073     
  -13036337.9350734     
  -13025962.1329093     
  -13015278.4068951     
  -13004254.6484361     
  -12992866.1831842     
  -12981094.0334135     
  -12968923.4231337     
  -12956342.5378979     
  -12943341.5269362     
  -12929911.7226842     
  -12916045.0474564     
  -12901733.5761398     
  -12886969.2254893     
  -12871743.5436721     
  -12856047.5773606     
  -12839871.7974196     
  -12823206.0677768     
  -12806039.6452561     
  -12788361.2009064     
  -12770158.8556746     
  -12751420.2251610     
  -12732132.4697059     
  -12712282.3472326     
  -12691856.2671772     
  -12670840.3445016     
  -12649220.4532819     
  -12626982.2797079     
  -12604111.3745694     
  -12580593.2054625     
  -12556413.2090455     
  -12531556.8437334     
  -12506009.6432469     
  -12479757.2714436     
  -12452785.5788624     
  -12425080.6614081     
  -12396628.9216033     
  -12367417.1328371     
  -12337432.5070465     
  -12306662.7662881     
  -12275096.2186814     
  -12242721.8392473     
  -12209529.3562185     
  -12175509.3434666     
  -12140653.3197748     
  -12104953.8557847     
  -12068404.6895580     
  -12031000.8518223     
  -11992738.8020915     
  -11953616.5769811     
  -11913633.9521294     
  -11872792.6191888     
  -11831096.3793100     
  -11788551.3543671     
  -11745166.2167910     
  -11700952.4381909     
  -11655924.5558484     
  -11610100.4544872     
  -11563501.6582897     
  -11516153.6246984     
  -11468086.0268471     
  -11419333.0051983     
  -11369933.3607763     
  -11319930.6519344     
  -11269373.1435415     
  -11218313.5415571     
  -11166808.4270630     
  -11114917.2820714     
  -11062700.9753639     
  -11010219.5514101     
  -10957529.1411583     
  -10904677.7936811     
  -10851700.0177944     
  -10798609.8313754     
  -10745392.1563037     
  -10691992.4882376     
  -10638304.9443779     
  -10584159.0916794     
  -10529306.4615040     
  -10473408.4545158     
  -10416028.6135490     
  -10356634.2830478     
  -10294615.5729601     
  -10229335.6507576     
  -10160233.6149126     
  -10087021.0206712     
  -10010098.7409538     
  -9931212.21958674     
  -9853513.32282922     
  -13158161.9433760     
  -13147192.5419374     
  -13136020.9644661     
  -13124997.8791257     
  -13114320.5250498     
  -13104022.3220700     
  -13094044.4410634     
  -13084290.0864567     
  -13074652.2170508     
  -13065027.8517327     
  -13055325.0754912     
  -13045465.6693591     
  -13035385.3006655     
  -13025032.4077686     
  -13014366.4756137     
  -13003356.1209811     
  -12991977.2258212     
  -12980211.2455446     
  -12968043.7487095     
  -12955463.2022853     
  -12942459.9922137     
  -12929025.6560566     
  -12915152.2988666     
  -12900832.1622311     
  -12886057.3178889     
  -12870819.4601805     
  -12855109.7750824     
  -12838918.8671977     
  -12822236.7295285     
  -12805052.7439662     
  -12787355.7031484     
  -12769133.8465981     
  -12750374.9059308     
  -12731066.1554027     
  -12711194.4652402     
  -12690746.3560834     
  -12669708.0535429     
  -12648065.5423581     
  -12625804.6199897     
  -12602910.9497181     
  -12579370.1134773     
  -12555167.6647525     
  -12530289.1819281     
  -12504720.3225008     
  -12478446.8785875     
  -12451454.8341585     
  -12423730.4244258     
  -12395260.1978171     
  -12366031.0809649     
  -12336030.4471546     
  -12305246.1886889     
  -12273666.7936570     
  -12241281.4276336     
  -12208080.0208902     
  -12174053.3617657     
  -12139193.1969284     
  -12103492.3393592     
  -12066944.7849980     
  -12029545.8391176     
  -11991292.2536148     
  -11952182.3765279     
  -11912216.3151806     
  -11871396.1143985     
  -11829725.9511994     
  -11787212.3471762     
  -11743864.3994035     
  -11699694.0300144     
  -11654716.2534821     
  -11608949.4589783     
  -11562415.7027412     
  -11515141.0019841     
  -11467155.6172106     
  -11418494.3035940     
  -11369196.5039808     
  -11319306.4457591     
  -11268873.0909686     
  -11217949.8733806     
  -11166594.1377402     
  -11114866.1751044     
  -11062827.7248057     
  -11010539.7892196     
  -10958059.5843805     
  -10905436.4310964     
  -10852706.3831185     
  -10799885.3996786     
  -10746960.9121805     
  -10693881.7286534     
  -10640546.3943488     
  -10586790.4263278     
  -10532373.3361408     
  -10476967.1375956     
  -10420149.3002180     
  -10361405.0482346     
  -10300146.9616707     
  -10235765.4425825     
  -10167730.4935294     
  -10095787.6395646     
  -10020340.2044911     
  -9942951.97061000     
  -9866270.46705095     
  -13155956.4486350     
  -13145110.7803962     
  -13134126.6889003     
  -13123293.3521391     
  -13112781.0614623     
  -13102620.0048906     
  -13092754.4885268     
  -13083091.4383693     
  -13073527.3891928     
  -13063962.5165366     
  -13054307.5436453     
  -13044486.3936115     
  -13034436.4334973     
  -13024107.4314275     
  -13013459.9051151     
  -13002463.2724356     
  -12991094.0396439     
  -12979334.1536069     
  -12967169.5756768     
  -12954589.0929469     
  -12941583.3582453     
  -12928144.1371072     
  -12914263.7340764     
  -12899934.5692612     
  -12885148.8773134     
  -12869898.5036777     
  -12854174.7763143     
  -12837968.4346008     
  -12821269.6004847     
  -12804067.7800066     
  -12786351.8859640     
  -12768110.2747260     
  -12749330.7920402     
  -12730000.8241448     
  -12710107.3516514     
  -12689637.0045440     
  -12668576.1173015     
  -12646910.7836347     
  -12624626.9106712     
  -12601710.2726593     
  -12578146.5644203     
  -12553921.4548752     
  -12529020.6410325     
  -12503429.9028533     
  -12477135.1594212     
  -12450122.5268519     
  -12422378.3783724     
  -12393889.4070025     
  -12364642.6912728     
  -12334625.7644237     
  -12303826.6875488     
  -12272234.1271715     
  -12239837.4377869     
  -12206626.7499515     
  -12172593.0645719     
  -12137728.3541269     
  -12102025.6716531     
  -12065479.2684356     
  -12028084.7214660     
  -11989839.0718544     
  -11950740.9754927     
  -11910790.8673656     
  -11869991.1409345     
  -11828346.3439837     
  -11785863.3921225     
  -11742551.8007556     
  -11698423.9356417     
  -11653495.2810596     
  -11607784.7229383     
  -11561314.8418987     
  -11514112.2077675     
  -11466207.6625212     
  -11417636.5724678     
  -11368439.0224897     
  -11318659.9149890     
  -11268348.9235209     
  -11217560.2357154     
  -11166352.0019166     
  -11114785.3851841     
  -11062923.0854987     
  -11010827.1874537     
  -10958556.1585496     
  -10906160.8080309     
  -10853679.0095519     
  -10801129.0033402     
  -10748501.1376139     
  -10695748.0040422     
  -10642773.0962548     
  -10589418.4171142     
  -10535451.9448851     
  -10480556.6351417     
  -10424323.8607650     
  -10366256.0641647     
  -10305786.4867125     
  -10242328.9093295     
  -10175377.4798276     
  -10104697.4684069     
  -10030666.8398109     
  -9954656.82552854     
  -9878879.37473917     
  -13153769.0300786     
  -13143034.3368895     
  -13132223.5869789     
  -13121572.5994783     
  -13111224.2925697     
  -13101202.5032891     
  -13091452.7283146     
  -13081884.6625703     
  -13072397.8953922     
  -13062895.5094729     
  -13053290.7786031     
  -13043509.7684569     
  -13033491.5942214     
  -13023187.4237272     
  -13012558.8835902     
  -13001576.2663111     
  -12990216.7687082     
  -12978462.8860730     
  -12966301.0197737     
  -12953720.3149714     
  -12940711.7209935     
  -12927267.2537879     
  -12913379.4338484     
  -12899040.8714162     
  -12884243.9718359     
  -12868980.7364826     
  -12853242.6379056     
  -12837020.5512378     
  -12820304.7272035     
  -12803084.7950409     
  -12785349.7862523     
  -12767088.1722988     
  -12748287.9111534     
  -12728936.4990797     
  -12709021.0251344     
  -12688528.2267618     
  -12667444.5455053     
  -12645756.1823306     
  -12623449.1524036     
  -12600509.3393931     
  -12576922.5495312     
  -12552674.5657572     
  -12527751.2023330     
  -12502138.3603448     
  -12475822.0845236     
  -12448788.6218167     
  -12421024.4821447     
  -12392516.5017781     
  -12363251.9097697     
  -12333218.3978909     
  -12302404.1945381     
  -12270798.1431007     
  -12238389.7853255     
  -12205169.4502637     
  -12171128.3494522     
  -12136258.6790663     
  -12100553.7298728     
  -12064008.0059266     
  -12026617.3530686     
  -11988379.0984060     
  -11949292.2020709     
  -11909357.4226382     
  -11868577.4976233     
  -11826957.3404321     
  -11784504.2549480     
  -11741228.1685540     
  -11697141.8837040     
  -11652261.3470660     
  -11606605.9336136     
  -11560198.7406554     
  -11513066.8834548     
  -11465241.7795370     
  -11416759.4027274     
  -11367660.4800839     
  -11317990.5948752     
  -11267800.1462993     
  -11217144.1015372     
  -11166081.4579115     
  -11114674.3125887     
  -11062986.4150280     
  -11011081.0545064     
  -10959018.1137401     
  -10906850.1034292     
  -10854616.9870291     
  -10802339.6185533     
  -10750011.6612195     
  -10697589.9497982     
  -10644983.4317992     
  -10592041.1135122     
  -10538539.9067068     
  -10484174.0158534     
  -10428548.6791058     
  -10371182.8904401     
  -10311528.7419951     
  -10249019.6689327     
  -10183167.2132702     
  -10113742.6779731     
  -10041076.7348481     
  -9966345.19084236     
  -9891381.88612864     
  -13151594.5978715     
  -13140960.7374836     
  -13130311.6736521     
  -13119836.5881622     
  -13109651.2650148     
  -13099770.7726375     
  -13090139.9985849     
  -13080670.4692538     
  -13071264.3275161     
  -13061827.3197618     
  -13052275.1837714     
  -13042536.1276768     
  -13032551.0610216     
  -13022272.6188910     
  -13011663.6106186     
  -13000695.2748329     
  -12989345.5634992     
  -12977597.5759604     
  -12965438.1997760     
  -12952856.9753136     
  -12939845.1774036     
  -12926395.0943886     
  -12912499.4788316     
  -12898151.1424681     
  -12883342.6689321     
  -12868066.2202209     
  -12852313.4159796     
  -12836075.2680042     
  -12819342.1555720     
  -12802103.8301241     
  -12784349.4403772     
  -12766067.5710998     
  -12747246.2905574     
  -12727873.2030574     
  -12707935.5041361     
  -12687420.0367918     
  -12666313.3478036     
  -12644601.7436522     
  -12622271.3458885     
  -12599308.1460294     
  -12575698.0602165     
  -12551426.9839649     
  -12526480.8473923     
  -12500845.6713452     
  -12474507.6248555     
  -12447453.0843611     
  -12419668.6951276     
  -12391141.4353054     
  -12361858.6830641     
  -12331808.2872518     
  -12300978.6420480     
  -12269358.7661069     
  -12236938.3867245     
  -12203708.0296212     
  -12169659.1149896     
  -12134784.0605490     
  -12099076.3924319     
  -12062530.8648470     
  -12025143.5895715     
  -11986912.1764524     
  -11947835.8862039     
  -11907915.7968776     
  -11867154.9854179     
  -11825558.7256662     
  -11783134.7039971     
  -11739893.2533812     
  -11695847.6060002     
  -11651014.1634607     
  -11605412.7820308     
  -11559067.0679731     
  -11512004.6747604     
  -11464257.5894764     
  -11415862.3897463     
  -11366860.4447942     
  -11317298.0243774     
  -11267226.2671178     
  -11216700.9449222     
  -11165781.9427115     
  -11114532.3527725     
  -11063017.0613248     
  -11011300.6826407     
  -10959444.6754442     
  -10907503.4609120     
  -10855519.3568683     
  -10803516.1569203     
  -10751491.2284786     
  -10699406.0976217     
  -10647175.6576019     
  -10594656.4201869     
  -10541634.6815046     
  -10487816.1878606     
  -10432820.0012039     
  -10376181.0097483     
  -10317368.3894762     
  -10255831.6495453     
  -10191093.0821635     
  -10122917.3306083     
  -10051570.7772862     
  -9978035.59432228     
  -9903815.01893934     
  -13149428.5941200     
  -13138887.5260278     
  -13128390.6604567     
  -13118086.0453991     
  -13108062.9195913     
  -13098325.7276173     
  -13088817.1295728     
  -13079449.5798880     
  -13070127.2971384     
  -13060758.4590914     
  -13051261.1846211     
  -13041565.8249800     
  -13031615.1291466     
  -13021363.2651552     
  -13010774.2968803     
  -12999820.4787187     
  -12988480.5807630     
  -12976738.3607047     
  -12964581.2374016     
  -12951999.1827233     
  -12938983.8253507     
  -12925527.7474973     
  -12911623.9495312     
  -12897265.4557522     
  -12882445.0354628     
  -12867155.0158111     
  -12851387.1659226     
  -12835132.6350730     
  -12818381.9307990     
  -12801124.9256961     
  -12783350.8841616     
  -12765048.5024515     
  -12746205.9571599     
  -12726810.9586281     
  -12706850.8068820     
  -12686312.4485413     
  -12665182.5337690     
  -12643447.4727961     
  -12621093.4918810     
  -12598106.6887925     
  -12574473.0880554     
  -12550178.6962929     
  -12525209.5580560     
  -12499551.8125613     
  -12473191.7517688     
  -12446115.8802391     
  -12418310.9772059     
  -12389764.1613016     
  -12360462.9583782     
  -12330395.3728758     
  -12299549.9632069     
  -12267915.9216568     
  -12235483.1593355     
  -12202242.3967720     
  -12168185.2608052     
  -12133304.3885085     
  -12097593.5389777     
  -12061047.7139196     
  -12023663.2880957     
  -11985438.1507937     
  -11946371.8596115     
  -11906465.8079228     
  -11865723.4074346     
  -11824150.2871978     
  -11781754.5102553     
  -11738546.8087352     
  -11694540.8375397     
  -11649753.4457204     
  -11604204.9630419     
  -11557919.4969278     
  -11510925.2317560     
  -11463254.7180697     
  -11414945.1334221     
  -11366038.4889670     
  -11316581.7462439     
  -11266626.7966039     
  -11216230.2411757     
  -11165452.8921428     
  -11114358.8965965     
  -11063014.3629813     
  -11011485.3484190     
  -10959835.0451592     
  -10908119.9895720     
  -10856385.1128430     
  -10804657.4668786     
  -10752938.5036163     
  -10701194.8779352     
  -10649347.9082716     
  -10597262.1007020     
  -10544733.5744399     
  -10491479.9034896     
  -10437133.9387637     
  -10381245.8322530     
  -10323300.1561566     
  -10262759.0771314     
  -10199149.2325667     
  -10132217.1890450     
  -10062151.9986687     
  -9989746.43685679     
  -9916212.03546535     
  -13147266.8760519     
  -13136812.2796146     
  -13126460.0255794     
  -13116321.4885309     
  -13106460.0944560     
  -13096868.2440939     
  -13087484.9446139     
  -13078222.7269899     
  -13068987.4351116     
  -13059689.4610314     
  -13050249.2280848     
  -13040599.2334651     
  -13030684.1104484     
  -13020459.6243923     
  -13009891.1638538     
  -12998952.0669421     
  -12987621.9833222     
  -12975885.3820179     
  -12963730.2572027     
  -12951147.0476636     
  -12938127.7635767     
  -12924665.3019530     
  -12910752.9262721     
  -12896383.8841395     
  -12881551.1376526     
  -12866247.1834481     
  -12850463.9423715     
  -12834192.7018853     
  -12817424.0974078     
  -12800148.1215760     
  -12782354.1528835     
  -12764030.9972122     
  -12745166.9374865     
  -12725749.7880417     
  -12705766.9513754     
  -12685205.4757710     
  -12664052.1128987     
  -12642293.3749511     
  -12619915.5911932     
  -12596904.9640249     
  -12573247.6248044     
  -12548929.6897708     
  -12523937.3164615     
  -12498256.7610467     
  -12471874.4370166     
  -12444776.9756603     
  -12416951.2887765     
  -12388384.6340531     
  -12359064.6835621     
  -12328979.5958217     
  -12298118.0918968     
  -12266469.5360395     
  -12234024.0214054     
  -12200772.4614389     
  -12166706.6875805     
  -12131819.5540331     
  -12096105.0504160     
  -12059558.4232415     
  -12022176.3072650     
  -11983956.8678778     
  -11944899.9558239     
  -11905007.2756053     
  -11864282.5689874     
  -11822731.8149649     
  -11780363.4473869     
  -11737188.5910691     
  -11693221.3165830     
  -11648478.9128820     
  -11602982.1753691     
  -11556755.7047583     
  -11509828.2089227     
  -11462232.7956181     
  -11414007.2382430     
  -11365194.1893440     
  -11315841.3071092     
  -11266001.2483222     
  -11215731.4669933     
  -11165093.7410827     
  -11114153.3306123     
  -11062977.6496306     
  -11011634.3132111     
  -10960188.4010645     
  -10908698.7648712     
  -10857213.2023593     
  -10805762.3352309     
  -10754352.0715608     
  -10702954.6223428     
  -10651498.1994260     
  -10599855.7810333     
  -10547833.7398610     
  -10495161.7630182     
  -10441486.4718351     
  -10386372.6967178     
  -10329318.8263897     
  -10269796.4617993     
  -10207330.5452715     
  -10141639.5052466     
  -10072825.0812451     
  -10001495.8854232     
  -9928603.26880604     
  -13145105.6235403     
  -13134732.6121130     
  -13124519.0663352     
  -13114543.2546492     
  -13104843.5319115     
  -13095399.1617158     
  -13086144.2616604     
  -13076990.6543421     
  -13067845.3913119     
  -13058620.8805676     
  -13049239.7820149     
  -13039636.7451062     
  -13029758.3329262     
  -13019561.9717267     
  -13009014.4435016     
  -12998090.2364793     
  -12986769.9398768     
  -12975038.7857315     
  -12962885.3864442     
  -12950300.6822158     
  -12937277.0916186     
  -12923807.8467902     
  -12909886.4891576     
  -12895506.5000044     
  -12880661.0410655     
  -12865342.7825843     
  -12849543.7991990     
  -12833255.5171382     
  -12816468.6992267     
  -12799173.4569553     
  -12781359.2812706     
  -12763015.0857726     
  -12744129.2576786     
  -12724689.7132458     
  -12704683.9553969     
  -12684099.1320952     
  -12662922.0946159     
  -12641139.4553011     
  -12618737.6446976     
  -12595702.9681927     
  -12572021.6624038     
  -12547679.9516702     
  -12522664.1050442     
  -12496960.4942093     
  -12470555.6527622     
  -12443436.3373012     
  -12415589.5907596     
  -12387002.8084280     
  -12357663.8071079     
  -12327560.8978530     
  -12296682.9627705     
  -12265019.5363842     
  -12232560.8920961     
  -12199298.1343398     
  -12165223.2970795     
  -12130329.4493886     
  -12094610.8089357     
  -12058062.8643099     
  -12020682.5072341     
  -11982468.1758295     
  -11943420.0102120     
  -11903540.0217822     
  -11862832.2776217     
  -11821303.1013670     
  -11778961.2917728     
  -11735818.3598303     
  -11691888.7846823     
  -11647190.2875850     
  -11601744.1216502     
  -11555575.3729155     
  -11508713.2652061     
  -11461191.4570567     
  -11413048.3133629     
  -11364327.1271539     
  -11315076.2576085     
  -11265349.1389219     
  -11215204.1006529     
  -11164703.9237134     
  -11113915.0373970     
  -11062906.2423894     
  -11011746.8237786     
  -10960503.8987869     
  -10909238.8296364     
  -10858002.5277378     
  -10806829.4887758     
  -10755730.4399846     
  -10704683.5661309     
  -10653624.4306589     
  -10602434.9529050     
  -10550932.1847908     
  -10498858.2175776     
  -10445873.4501785     
  -10391556.8685211     
  -10335419.2307245     
  -10276938.5790537     
  -10215632.5877010     
  -10151182.8117024     
  -10083595.9888716     
  -10013301.8500328     
  -9941016.77726180     
  -13142941.2642448     
  -13132646.1705562     
  -13122566.9384003     
  -13112751.5283536     
  -13103213.8877463     
  -13093919.2874990     
  -13084795.8952441     
  -13075754.1175956     
  -13066701.8345696     
  -13057553.2937419     
  -13048233.3346994     
  -13038678.7702616     
  -13028838.1402757     
  -13018670.5951435     
  -13008144.3779429     
  -12997235.1920423     
  -12985924.6247881     
  -12974198.7216267     
  -12962046.7549698     
  -12949460.1999767     
  -12936431.9097280     
  -12922955.4711772     
  -12909024.7180211     
  -12894633.3751891     
  -12879774.8105775     
  -12864441.8719090     
  -12848626.7894980     
  -12832321.1287730     
  -12815515.7793803     
  -12798200.9703910     
  -12780366.3034952     
  -12762000.7980514     
  -12743092.9434908     
  -12723630.7558849     
  -12703601.8365047     
  -12682993.4309825     
  -12661792.4882719     
  -12639985.7190279     
  -12617559.6533313     
  -12594500.6978893     
  -12570795.1929823     
  -12546429.4695103     
  -12521389.9065456     
  -12495662.9898202     
  -12469235.3715894     
  -12442093.9323152     
  -12414225.8446106     
  -12385618.6398889     
  -12356260.2781634     
  -12326139.2214526     
  -12295244.5112674     
  -12263565.8506780     
  -12231093.6915028     
  -12197819.3272076     
  -12163734.9921702     
  -12128833.9680421     
  -12093110.6980335     
  -12056560.9100483     
  -12019181.7497157     
  -11980971.9244792     
  -11941931.8600182     
  -11902063.8703670     
  -11861372.3431478     
  -11819863.9412999     
  -11777547.8225456     
  -11734435.8774972     
  -11690542.9867215     
  -11645887.2961150     
  -11600490.5084857     
  -11554378.1871142     
  -11507580.0640754     
  -11460130.3420231     
  -11412067.9726848     
  -11363436.8882153     
  -11314286.1525097     
  -11264669.9883071     
  -11214647.6222378     
  -11164282.8738145     
  -11113643.3959378     
  -11062799.4543630     
  -11011822.1129322     
  -10960780.6722524     
  -10909739.1951506     
  -10858751.9475966     
  -10807857.5960362     
  -10757072.0414237     
  -10706379.8508058     
  -10655724.3884632     
  -10604996.9769536     
  -10554025.7719889     
  -10502565.5712930     
  -10450290.5933122     
  -10396793.5349377     
  -10341596.2316183     
  -10284180.4441541     
  -10224051.5478727     
  -10160846.7259438     
  -10094471.6913564     
  -10025182.0109853     
  -9953478.87435031     
  -13140770.4116192     
  -13130550.6272288     
  -13120602.6851377     
  -13110946.3670731     
  -13101571.7422831     
  -13092429.4004515     
  -13083440.6588846     
  -13074513.8852100     
  -13065557.4527843     
  -13056487.2973881     
  -13047230.3944306     
  -13037725.7372024     
  -13027923.8914409     
  -13017785.7950904     
  -13007281.2191149     
  -12996387.1457964     
  -12985086.2178506     
  -12973365.3432493     
  -12961214.4950551     
  -12948625.7159424     
  -12935592.3187814     
  -12922108.2643468     
  -12908167.6923738     
  -12893764.5809623     
  -12878892.5103452     
  -12863544.5093244     
  -12847712.9655633     
  -12831389.5839627     
  -12814565.3802797     
  -12797230.6997978     
  -12779375.2531691     
  -12760988.1634926     
  -12742058.0202890     
  -12722572.9372995     
  -12702520.6120349     
  -12681888.3857577     
  -12660663.3031481     
  -12638832.1713141     
  -12616381.6180992     
  -12593298.1498412     
  -12569568.2088636     
  -12545178.2310655     
  -12520114.7040210     
  -12494364.2260223     
  -12467913.5665113     
  -12440749.7283439     
  -12412860.0123321     
  -12384232.0845062     
  -12354854.0465464     
  -12324714.5098387     
  -12293802.6736298     
  -12262108.4077830     
  -12229622.3406733     
  -12196335.9528107     
  -12162241.6768454     
  -12127333.0046839     
  -12091604.6025378     
  -12055052.4348312     
  -12017673.8980072     
  -11979467.9653911     
  -11940435.3443851     
  -11900578.6473611     
  -11859902.5776724     
  -11818414.1321892     
  -11776122.8216252     
  -11733040.9096174     
  -11689183.6709555     
  -11644569.6684454     
  -11599221.0464850     
  -11553163.8373858     
  -11506428.2735845     
  -11459049.0949319     
  -11411065.8349515     
  -11362523.0630526     
  -11313470.5508616     
  -11263963.3198295     
  -11214061.5138891     
  -11163830.0250950     
  -11113337.7820666     
  -11062656.5912104     
  -11011859.4002635     
  -10961017.8346217     
  -10910198.8423385     
  -10859460.2783335     
  -10808845.2690830     
  -10758375.2354759     
  -10708041.5266689     
  -10657795.7491144     
  -10607539.0857292     
  -10557111.2226235     
  -10506279.9827267     
  -10454733.4892554     
  -10402077.7980477     
  -10347844.7060201     
  -10291517.2791705     
  -10232584.1563797     
  -10170631.7723297     
  -10105459.9587026     
  -10037153.8763740     
  -9966014.56798249     
  -13138589.8123343     
  -13128443.6691598     
  -13118625.2595591     
  -13109127.7239098     
  -13099917.6125120     
  -13090930.2571793     
  -13082079.3679442     
  -13073270.7396844     
  -13064412.9532095     
  -13055423.5089593     
  -13046231.4891230     
  -13036778.0916619     
  -13027015.9601694     
  -13016907.8840732     
  -13006425.2284204     
  -12995546.3170645     
  -12984254.9040461     
  -12972538.8077116     
  -12960388.7412499     
  -12947797.3463834     
  -12934758.4201823     
  -12921266.3155205     
  -12907315.4913461     
  -12892900.1879750     
  -12878014.2037721     
  -12862650.7519207     
  -12846802.3788730     
  -12830460.9290959     
  -12813617.5436113     
  -12796262.6824418     
  -12778386.1633381     
  -12759977.2110611     
  -12741024.5130476     
  -12721516.2785244     
  -12701440.2991006     
  -12680784.0096022     
  -12659534.5484583     
  -12637678.8173460     
  -12615203.5400784     
  -12592095.3209117     
  -12568340.7025717     
  -12543926.2243717     
  -12518838.4808471     
  -12493064.1813391     
  -12466590.2109804     
  -12439403.6935275     
  -12411492.0564850     
  -12382843.0989697     
  -12353445.0627580     
  -12323286.7069785     
  -12292357.3869190     
  -12260647.1374539     
  -12228146.7616258     
  -12194847.9249720     
  -12160743.2562442     
  -12125826.4552498     
  -12090092.4086318     
  -12053537.3145094     
  -12016158.8170164     
  -11977956.1518896     
  -11938930.3043843     
  -11899084.1808826     
  -11858422.7956299     
  -11816953.4740222     
  -11774686.0737531     
  -11731633.2248431     
  -11687810.5890489     
  -11643237.1382802     
  -11597935.4503139     
  -11551932.0181328     
  -11505257.5664368     
  -11457947.3650527     
  -11410041.5238447     
  -11361585.2470220     
  -11312629.0161580     
  -11263228.6605039     
  -11213445.2600878     
  -11163344.8115624     
  -11112997.5689417     
  -11062476.9517688     
  -11011857.8929455     
  -10961214.4793089     
  -10910616.7230439     
  -10860126.2957052     
  -10809791.0654530     
  -10759638.3110770     
  -10709666.5554306     
  -10659836.0815240     
  -10610058.3865437     
  -10560185.1185891     
  -10509997.4656734     
  -10459197.5920493     
  -10407404.6655795     
  -10354159.5248079     
  -10298944.4731493     
  -10241227.6007977     
  -10180539.2213965     
  -10116569.2073128     
  -10049234.8578443     
  -9978647.93315339     
  -13136396.3005385     
  -13126322.9860316     
  -13116633.5408606     
  -13107295.4682435     
  -13098251.9648854     
  -13089422.5983621     
  -13080712.8429197     
  -13072025.4790460     
  -13063269.0628932     
  -13054362.5664346     
  -13045237.1659717     
  -13035836.2964015     
  -13026114.7345689     
  -13016037.1862427     
  -13005576.6763641     
  -12994712.9320163     
  -12983430.8732864     
  -12971719.2754817     
  -12959569.6302074     
  -12946975.2087097     
  -12933930.3157545     
  -12920429.7138255     
  -12906468.1936230     
  -12892040.2662116     
  -12877139.9534725     
  -12861760.6559476     
  -12845895.0800674     
  -12829535.2097635     
  -12812672.3103260     
  -12795296.9549304     
  -12777399.0664763     
  -12758967.9692398     
  -12739992.4463484     
  -12720460.8002887     
  -12700360.9145934     
  -12679680.3155554     
  -12658406.2333502     
  -12636525.6623168     
  -12614025.4204219     
  -12590892.2081070     
  -12567112.6668363     
  -12542673.4377325     
  -12517561.2207289     
  -12491762.8346826     
  -12465265.2788980     
  -12438055.7965147     
  -12410121.9402006     
  -12381451.6406022     
  -12352033.2779969     
  -12321855.7576039     
  -12290908.5890312     
  -12259181.9703543     
  -12226666.8773673     
  -12193355.1585889     
  -12159239.6366725     
  -12124314.2169432     
  -12088574.0038767     
  -12052015.4264338     
  -12014636.3732870     
  -11976436.3390871     
  -11937416.5830438     
  -11897580.3011956     
  -11856932.8138122     
  -11815481.7693799     
  -11773237.3665246     
  -11730212.5949660     
  -11686423.4961140     
  -11641889.4430959     
  -11596633.4387425     
  -11550682.4281847     
  -11504067.6200524     
  -11456824.8065943     
  -11408994.6680914     
  -11360623.0404488     
  -11311761.1165170     
  -11262465.5412434     
  -11212798.3479650     
  -11162826.6679289     
  -11112622.1275765     
  -11062259.8287359     
  -11011816.7866050     
  -10961369.6810805     
  -10910991.7613978     
  -10860748.7365024     
  -10810693.4901597     
  -10760859.4888537     
  -10711252.8128671     
  -10661842.8500695     
  -10612551.8641859     
  -10563243.9045117     
  -10513713.8893673     
  -10463678.2181799     
  -10412769.0399380     
  -10360535.5291573     
  -10306457.5361845     
  -10249979.4354872     
  -10190570.9450590     
  -10127808.3844841     
  -10061442.3574718     
  -9991402.43633912     
  -13134186.7569719     
  -13124186.2571007     
  -13114626.3470274     
  -13105449.4044877     
  -13096575.2285182     
  -13087907.1559639     
  -13079341.9131396     
  -13070778.9185609     
  -13062126.5292507     
  -13053305.1282997     
  -13044247.9911487     
  -13034900.8307905     
  -13025220.6166640     
  -13015174.0369747     
  -13004735.8421769     
  -12993887.2233440     
  -12982614.3201399     
  -12970906.9101578     
  -12958757.3005022     
  -12946159.4213243     
  -12933108.1076280     
  -12919598.5482052     
  -12905625.8773767     
  -12891184.8849377     
  -12876269.8212304     
  -12860874.2767855     
  -12844991.1189273     
  -12828612.4707409     
  -12811729.7206279     
  -12794333.5532058     
  -12776413.9944803     
  -12757960.4660253     
  -12738961.8443776     
  -12719406.5230151     
  -12699282.4751829     
  -12678577.3165167     
  -12657278.3669088     
  -12635372.7114302     
  -12612847.2603633     
  -12589688.8085803     
  -12565884.0945999     
  -12541419.8597269     
  -12516282.9077089     
  -12490460.1653626     
  -12463938.7446238     
  -12436706.0064740     
  -12408749.6271911     
  -12380057.6673717     
  -12350618.6441718     
  -12320421.6072258     
  -12289456.2187130     
  -12257712.8380746     
  -12225182.6119119     
  -12191857.5696520     
  -12157730.7256224     
  -12122796.1882560     
  -12087049.2772341     
  -12050486.6494789     
  -12013106.4350235     
  -11974908.3839083     
  -11935894.0253750     
  -11896066.8407386     
  -11855432.4513986     
  -11813998.8234676     
  -11771776.4904220     
  -11728778.7949529     
  -11685022.1507484     
  -11640526.3241828     
  -11595314.7346927     
  -11549414.7708547     
  -11502858.1166382     
  -11455681.0787926     
  -11407924.9015771     
  -11359636.0487762     
  -11310866.4248767     
  -11261673.4971170     
  -11212120.2676401     
  -11162275.0300541     
  -11112210.8274144     
  -11062004.5094086     
  -11011735.2662607     
  -10961482.4972341     
  -10911322.8552747     
  -10861326.3003193     
  -10811550.9977975     
  -10762036.9235568     
  -10712798.0915225     
  -10663813.4174134     
  -10615016.3835226     
  -10566283.8894837     
  -10517424.9781649     
  -10468170.5420411     
  -10418165.7056501     
  -10366967.5040485     
  -10314052.0483131     
  -10258837.4885789     
  -10200729.2849164     
  -10139186.8806655     
  -10073793.8616036     
  -10004301.2256089     
  -13131958.0713505     
  -13122031.1374573     
  -13112602.4446787     
  -13103589.2894523     
  -13094887.8086694     
  -13086384.6610557     
  -13077967.4208208     
  -13069531.8926359     
  -13060986.1207506     
  -13052251.8735872     
  -13043264.5495280     
  -13033972.1903968     
  -13024334.0219502     
  -13014318.7824402     
  -13003903.0134262     
  -12993069.4299238     
  -12981805.4435451     
  -12970101.8782319     
  -12957951.8924377     
  -12945350.1034697     
  -12932291.8981160     
  -12918772.9073244     
  -12904788.6201912     
  -12890334.1126431     
  -12875403.8679581     
  -12859991.6689126     
  -12844090.5443501     
  -12827692.7559719     
  -12810789.8139607     
  -12793372.5125354     
  -12775430.9786642     
  -12756954.7289245     
  -12737932.7309244     
  -12718353.4668186     
  -12698204.9973185     
  -12677475.0252465     
  -12656150.9581587     
  -12634219.9699034     
  -12611669.0612205     
  -12588485.1196372     
  -12564654.9790225     
  -12540165.4792156     
  -12515003.5261734     
  -12489156.1530953     
  -12462610.5829851     
  -12435354.2931040     
  -12407375.0817628     
  -12378661.1379036     
  -12349201.1139163     
  -12318984.2021482     
  -12288000.2155773     
  -12256239.6731476     
  -12223693.8902978     
  -12190355.0752636     
  -12156216.4317930     
  -12121272.2689898     
  -12085518.1190885     
  -12048950.8640663     
  -12011568.8721149     
  -11973372.1451168     
  -11934362.4783988     
  -11894543.6341503     
  -11853921.5299828     
  -11812504.4441435     
  -11770303.2388450     
  -11727331.6029773     
  -11683606.3150715     
  -11639147.5266870     
  -11593979.0652866     
  -11548128.7539979     
  -11501628.7432597     
  -11454515.8460027     
  -11406831.8634653     
  -11358623.8827220     
  -11309944.5192029     
  -11260852.0676253     
  -11211410.5125845     
  -11161689.3354220     
  -11111763.0369466     
  -11061710.2764764     
  -11011612.5073291     
  -10961551.9688535     
  -10911608.8778367     
  -10861857.6514154     
  -10812361.9947370     
  -10763168.7065740     
  -10714300.1034654     
  -10665745.0473195     
  -10617448.6920107     
  -10569301.2485719     
  -10521126.3107802     
  -10472669.5905948     
  -10423589.3154562     
  -10373450.1492321     
  -10321723.6041275     
  -10267799.7670305     
  -10211016.9304367     
  -10150714.4612105     
  -10086307.0393450     
  -10017367.3976437     
  -13129707.1066984     
  -13119855.2437957     
  -13110560.5571049     
  -13101714.8488015     
  -13093190.1004656     
  -13084855.8521291     
  -13076590.2254273     
  -13068285.2568750     
  -13059848.6276900     
  -13051203.5019677     
  -13042287.4444345     
  -13033050.8865851     
  -13023455.3789463     
  -13013471.7791671     
  -13003078.4856149     
  -12992259.7964635     
  -12981004.4465109     
  -12969304.3488392     
  -12957153.5478414     
  -12944547.3750632     
  -12931481.7895854     
  -12917952.8794669     
  -12903956.4989853     
  -12889488.0169831     
  -12874542.1536506     
  -12859112.8858723     
  -12843193.4043254     
  -12826776.1085502     
  -12809852.6289967     
  -12792413.8675034     
  -12774450.0497524     
  -12755950.7849513     
  -12736905.1293795     
  -12717301.6515071     
  -12697128.4972287     
  -12676373.4543686     
  -12655024.0160658     
  -12633067.4429712     
  -12610490.8244007     
  -12587281.1387413     
  -12563425.3134885     
  -12538910.2853482     
  -12513723.0608608     
  -12487850.7780112     
  -12461280.7692869     
  -12434000.6266434     
  -12405998.2688254     
  -12377262.0114933     
  -12347780.6406013     
  -12317543.4894836     
  -12286540.5201185     
  -12254762.4090657     
  -12222200.6386056     
  -12188847.5936574     
  -12154696.6651101     
  -12119742.3602766     
  -12083980.4212679     
  -12047407.9521870     
  -12010023.5561586     
  -11971827.4833382     
  -11932821.7911708     
  -11893010.5182973     
  -11852399.8736010     
  -11810998.4419481     
  -11768817.4081412     
  -11725870.8004536     
  -11682175.7547599     
  -11637752.7996505     
  -11592626.1618947     
  -11546824.0900701     
  -11500379.1919154     
  -11453328.7777948     
  -11405715.1983248     
  -11357586.1584470     
  -11308994.9827125     
  -11260000.7969966     
  -11210668.5800121     
  -11161069.0236504     
  -11111278.1243739     
  -11061376.4088681     
  -11011447.6766943     
  -10961577.1221411     
  -10911848.6791626     
  -10862341.4206714     
  -10813124.8414152     
  -10764252.8685270     
  -10715756.4831022     
  -10667634.9074836     
  -10619845.4221450     
  -10572292.0241453     
  -10524813.3191551     
  -10477170.2373788     
  -10429034.3752900     
  -10379978.0480654     
  -10329467.7539185     
  -10276864.3599914     
  -10221436.8035717     
  -10162401.2109157     
  -10098999.8445027     
  -10030624.2509763     
  -13127430.6644744     
  -13117656.1397694     
  -13108499.3713084     
  -13099825.7931090     
  -13091482.5029009     
  -13083321.4838009     
  -13075211.2082614     
  -13067039.8902543     
  -13058714.8630369     
  -13050160.7338760     
  -13041317.2974095     
  -13032137.4461182     
  -13022585.1287405     
  -13012633.3935896     
  -13002262.5617659     
  -12991458.5731358     
  -12980211.5358022     
  -12968514.4934956     
  -12956362.4098491     
  -12943751.3565226     
  -12930677.8843187     
  -12917138.5524279     
  -12903129.5899285     
  -12888646.6647136     
  -12873684.7373381     
  -12858237.9802375     
  -12842299.7459092     
  -12825862.5707014     
  -12808918.2036225     
  -12791457.6520021     
  -12773471.2378752     
  -12754948.6606228     
  -12735879.0627325     
  -12716251.0965806     
  -12696052.9909238     
  -12675272.6163717     
  -12653897.5495422     
  -12631915.1358889     
  -12609312.5514042     
  -12586076.8635195     
  -12562195.0916125     
  -12537654.2675693     
  -12512441.4968693     
  -12486544.0206644     
  -12459949.2793208     
  -12432644.9778818     
  -12404619.1539048     
  -12375860.2481183     
  -12346357.1783482     
  -12316099.4171658     
  -12285077.0737274     
  -12253280.9802964     
  -12220702.7839748     
  -12187335.0442154     
  -12153171.3367445     
  -12118206.3645989     
  -12082436.0770661     
  -12045857.7974234     
  -12008470.3604829     
  -11970274.2610844     
  -11931271.8148060     
  -11891467.3322980     
  -11850867.3087577     
  -11809480.6301310     
  -11767318.7976345     
  -11724396.1720666     
  -11680730.2390828     
  -11636341.8960519     
  -11591255.7601841     
  -11545500.4961878     
  -11499109.1596139     
  -11452119.5490545     
  -11404574.5562608     
  -11356522.4977312     
  -11308017.4041089     
  -11259119.2344999     
  -11209893.9712935     
  -11160413.5370353     
  -11110755.4583099     
  -11061002.1826513     
  -11011239.9338411     
  -10961556.9698242     
  -10912041.0879628     
  -10862776.2076353     
  -10813837.8547174     
  -10765287.3819540     
  -10717164.7900565     
  -10669480.0723893     
  -10622203.0938694     
  -10575252.1270695     
  -10528481.2870514     
  -10481667.1960250     
  -10434495.2284079     
  -10386545.6346887     
  -10337279.9420759     
  -10286029.3402637     
  -10231991.9462644     
  -10174257.4856512     
  -10111890.6204763     
  -10044095.5336205     
  -13125125.4494197     
  -13115431.3209509     
  -13106417.5447746     
  -13097921.8340228     
  -13089765.4331747     
  -13081782.3358083     
  -13073831.2772136     
  -13065796.6973766     
  -13057585.6633168     
  -13049124.3106631     
  -13040354.7479858     
  -13031232.4107567     
  -13021723.7245285     
  -13011804.0015878     
  -13001455.5519937     
  -12990666.0151974     
  -12979426.9216125     
  -12967732.4858233     
  -12955578.6226803     
  -12942962.1685855     
  -12929880.2843693     
  -12916330.0134007     
  -12902307.9683539     
  -12887810.1216259     
  -12872831.6770359     
  -12857367.0035732     
  -12841409.6151964     
  -12824952.1837629     
  -12807986.5749257     
  -12790503.8992215     
  -12772494.5725619     
  -12753948.3819561     
  -12734854.5535715     
  -12715201.8212317     
  -12694978.4941953     
  -12674172.5236124     
  -12652771.5674475     
  -12630763.0539376     
  -12608134.2438301     
  -12584872.2917668     
  -12560964.3072456     
  -12536397.4156270     
  -12511158.8196650     
  -12485235.8620412     
  -12458616.0893749     
  -12431287.3181702     
  -12403237.7031540     
  -12374455.8084508     
  -12344930.6820427     
  -12314651.9339656     
  -12283609.8187072     
  -12251795.3222993     
  -12219200.2546215     
  -12185817.3474867     
  -12151640.3591320     
  -12116664.1858096     
  -12080884.9812626     
  -12044300.2849708     
  -12006909.1601694     
  -11968712.3427766     
  -11929712.4025017     
  -11889913.9175483     
  -11849323.6644512     
  -11807950.8246773     
  -11765807.2096537     
  -11722907.5058035     
  -11679269.5409354     
  -11634914.5728457     
  -11589867.6001658     
  -11544157.6941878     
  -11497818.3484501     
  -11450887.8400851     
  -11403409.5930532     
  -11355432.5281577     
  -11307011.3778298     
  -11258206.9347763     
  -11209086.1923946     
  -11159722.3211234     
  -11110194.4085232     
  -11060586.8719807     
  -11010988.4320498     
  -10961490.5126332     
  -10912184.9133768     
  -10863160.5826616     
  -10814499.3104551     
  -10766270.1640832     
  -10718522.5121227     
  -10671277.5262051     
  -10624518.1169774     
  -10578177.3378214     
  -10532125.3484589     
  -10486155.0134464     
  -10439966.0389436     
  -10393147.1600695     
  -10345155.4434196     
  -10295292.6633818     
  -10242685.4072382     
  -10186293.8659307     
  -10124998.2079609     
  -10057805.6926493     
  -13122788.0330699     
  -13113178.1993999     
  -13104313.7126918     
  -13096002.7010601     
  -13088039.3414573     
  -13080239.2222032     
  -13072451.3715916     
  -13064556.6107604     
  -13056461.8895191     
  -13048094.9947569     
  -13039400.4534635     
  -13030336.3368562     
  -13020871.6311431     
  -13010983.9880125     
  -13000657.7730607     
  -12989882.3825941     
  -12978650.8172230     
  -12966958.5012638     
  -12954802.3314017     
  -12942179.9321170     
  -12929089.0914102     
  -12915527.3488587     
  -12901491.7086666     
  -12886978.4524763     
  -12871983.0296921     
  -12856500.0063983     
  -12840523.0572936     
  -12824044.9881646     
  -12807057.7791813     
  -12789552.6416418     
  -12771520.0827357     
  -12752949.9744651     
  -12733831.6240812     
  -12714153.8443450     
  -12693905.0226191     
  -12673073.1883164     
  -12651646.0785930     
  -12629611.2024268     
  -12606955.9033800     
  -12583667.4214524     
  -12559732.9544814     
  -12535139.7195784     
  -12509875.0150892     
  -12483926.2835683     
  -12457281.1762431     
  -12429927.6194309     
  -12401853.8833638     
  -12373048.6538691     
  -12343501.1073473     
  -12313200.9895030     
  -12282138.6982873     
  -12250305.3715410     
  -12217692.9798546     
  -12184294.4252050     
  -12150103.6459911     
  -12115115.7291514     
  -12079327.0301432     
  -12042735.3016588     
  -12005339.8320751     
  -11967141.5947674     
  -11928143.4095613     
  -11888350.1177436     
  -11847768.7721970     
  -11806408.8443329     
  -11764282.4495586     
  -11721404.5929819     
  -11677793.4368727     
  -11633470.5910008     
  -11588461.4262431     
  -11542795.4106882     
  -11496506.4656862     
  -11449633.3367134     
  -11402219.9702981     
  -11354315.8833064     
  -11305976.5043069     
  -11257263.4581858     
  -11208244.7543358     
  -11158994.8253169     
  -11109594.3467200     
  -11060129.7500962     
  -11010692.3196506     
  -10961376.7408540     
  -10912278.9468540     
  -10863493.0891410     
  -10815107.4459397     
  -10767199.0796990     
  -10719827.0683015     
  -10673024.1657410     
  -10626786.7935356     
  -10581063.3075705     
  -10535740.4859094     
  -10490628.0628555     
  -10445440.7751765     
  -10399776.6574601     
  -10353089.2981197     
  -10304652.0636978     
  -10253520.1243772     
  -10198521.1074122     
  -10138342.0554618     
  -10071780.1331804     
  -13120414.8148282     
  -13110894.0878486     
  -13102186.4963598     
  -13094068.1595779     
  -13086304.7261613     
  -13078693.0006412     
  -13071072.4669464     
  -13063320.5931277     
  -13055344.4280030     
  -13047073.5698210     
  -13038455.0886830     
  -13029449.7949531     
  -13020029.3245704     
  -13010173.7461977     
  -12999869.5479199     
  -12989107.9395507     
  -12977883.4386477     
  -12966192.7167790     
  -12954033.6816801     
  -12941404.7679115     
  -12928304.4065746     
  -12914730.6444298     
  -12900680.8842480     
  -12886151.7209141     
  -12871138.8511336     
  -12855637.0381461     
  -12839640.1162895     
  -12823141.0234080     
  -12806131.8518376     
  -12788603.9110227     
  -12770547.7967070     
  -12751953.4631568     
  -12732810.2960418     
  -12713107.1844985     
  -12692832.5915557     
  -12671974.6225818     
  -12650521.0917444     
  -12628459.5866992     
  -12605777.5318639     
  -12582462.2507251     
  -12558501.0276629     
  -12533881.1697976     
  -12508590.0693665     
  -12482615.2671218     
  -12455944.5172347     
  -12428565.8541678     
  -12400467.6619750     
  -12371638.7464703     
  -12342068.4107144     
  -12311746.5342629     
  -12280663.6566390     
  -12248811.0655118     
  -12216180.8900929     
  -12182766.2003061     
  -12148561.1123418     
  -12113560.9012759     
  -12077762.1215197     
  -12041162.7359711     
  -12003762.2548523     
  -11965561.8853624     
  -11926564.6934159     
  -11886775.7789027     
  -11846202.4660524     
  -11804854.5106285     
  -11762744.3257660     
  -11719887.2282782     
  -11676301.7071404     
  -11632009.7155389     
  -11587036.9872576     
  -11541413.3771485     
  -11495173.2238303     
  -11448355.7303977     
  -11401005.3555560     
  -11353172.2029529     
  -11304912.3902352     
  -11256288.3711696     
  -11207369.1736744     
  -11158230.5035040     
  -11108954.6473617     
  -11059630.0903684     
  -11010350.7413365     
  -10961214.6359470     
  -10912321.9641154     
  -10863772.2458220     
  -10815660.4626541     
  -10768071.9441076     
  -10721075.8119253     
  -10674716.8034779     
  -10629005.3203528     
  -10583905.5592829     
  -10539321.5287927     
  -10495080.5367768     
  -10450913.1928074     
  -10406427.9078472     
  -10361076.2459144     
  -10314104.9468862     
  -10264498.7988810     
  -10210950.0830759     
  -10151942.3325609     
  -10086045.4945667     
  -13118001.9793731     
  -13108576.1835577     
  -13100034.5136346     
  -13092118.0304776     
  -13084562.1497811     
  -13077144.5816517     
  -13069695.5798124     
  -13062089.6396426     
  -13054234.1913756     
  -13046060.8408970     
  -13037519.3457833     
  -13028573.3693394     
  -13019197.2914528     
  -13009373.6774564     
  -12999091.2052411     
  -12988342.9541468     
  -12977125.0042662     
  -12965435.3105411     
  -12953272.8195272     
  -12940636.7964843     
  -12927526.3302920     
  -12913939.9847685     
  -12899875.5673561     
  -12885329.9894051     
  -12870299.1960097     
  -12854778.1471217     
  -12838760.8352253     
  -12822240.3280456     
  -12805208.8275015     
  -12787657.7383945     
  -12769577.7421689     
  -12750958.8725294     
  -12731790.5908281     
  -12712061.8599630     
  -12691761.2161522     
  -12670876.8383821     
  -12649396.6156267     
  -12627308.2121351     
  -12604599.1312040     
  -12581256.7779194     
  -12557268.5213885     
  -12532621.7569829     
  -12507303.9691130     
  -12481302.7950360     
  -12454606.0901835     
  -12427201.9954773     
  -12399079.0070879     
  -12370226.0490818     
  -12340632.5493991     
  -12310288.5196075     
  -12279184.6388893     
  -12247312.3427397     
  -12214663.9168811     
  -12181232.5969451     
  -12147012.6745238     
  -12111999.6102623     
  -12076190.1547493     
  -12039582.4780659     
  -12002176.3089706     
  -11963973.0848408     
  -11924976.1136453     
  -11885190.7493885     
  -11844624.5826370     
  -11803287.6479028     
  -11761192.6497743     
  -11718355.2097544     
  -11674794.1357058     
  -11630531.7155708     
  -11585594.0365365     
  -11540011.3299302     
  -11493818.3407185     
  -11447054.7183382     
  -11399765.4225009     
  -11352001.1332739     
  -11303818.6488534     
  -11255281.2466269     
  -11206458.9730056     
  -11157428.8147191     
  -11108274.6885193     
  -11059087.1673877     
  -11009962.8395325     
  -10961003.1722380     
  -10912312.7271968     
  -10863996.5492245     
  -10816156.5290241     
  -10768886.5262060     
  -10722266.0338857     
  -10676352.1706886     
  -10631169.7915309     
  -10586699.4888968     
  -10542863.1517673     
  -10499506.4402173     
  -10456376.8185269     
  -10413094.4059718     
  -10369110.6604328     
  -10323648.2784364     
  -10275623.7572211     
  -10223591.7111687     
  -10165820.0455828     
  -10100629.9524203     
  -13115545.4489812     
  -13106221.5519762     
  -13097856.3924034     
  -13090152.2122382     
  -13082812.2553110     
  -13075594.9377481     
  -13068321.7722787     
  -13060864.7800656     
  -13053132.1193218     
  -13045057.6345169     
  -13036593.9339410     
  -13027707.6576186     
  -13018376.0285741     
  -13008584.1905600     
  -12998323.0789208     
  -12987587.6978769     
  -12976375.7344416     
  -12964686.4616102     
  -12952519.8910329     
  -12939876.1378575     
  -12926754.9621163     
  -12913155.4534221     
  -12899075.8290235     
  -12884513.3191551     
  -12869464.1177342     
  -12853923.3804613     
  -12837885.2560651     
  -12821342.9396597     
  -12804288.7399245     
  -12786714.1540494     
  -12768609.9461904     
  -12749966.2265683     
  -12730772.5294088     
  -12711017.8887040     
  -12690690.9113451     
  -12669779.8475684     
  -12648272.6589260     
  -12626157.0841572     
  -12603420.7034413     
  -12580051.0015606     
  -12556035.4305185     
  -12531361.4721631     
  -12506016.7013436     
  -12479988.8501112     
  -12453265.8734574     
  -12425836.0170576     
  -12397687.8874753     
  -12368810.5252739     
  -12339193.4814720     
  -12308826.8977900     
  -12277701.5911361     
  -12245809.1428074     
  -12213141.9929061     
  -12179693.5405131     
  -12145458.2502133     
  -12110431.7656356     
  -12074611.0307533     
  -12037994.4197951     
  -12000581.8767351     
  -11962375.0654761     
  -11923377.5319991     
  -11883594.8799291     
  -11843034.9611554     
  -11801708.0833242     
  -11759627.2361857     
  -11716808.3388834     
  -11673270.5102875     
  -11629036.3643322     
  -11584132.3319366     
  -11538589.0103569     
  -11492441.5395957     
  -11445730.0035885     
  -11398499.8510753     
  -11350802.3270596     
  -11302694.9002316     
  -11254241.6643042     
  -11205513.6814820     
  -11156589.2238266     
  -11107553.8527609     
  -11058500.2580991     
  -11009527.7558200     
  -10960741.3186740     
  -10912249.9865714     
  -10864164.4761445     
  -10816593.7832920     
  -10769640.5516582     
  -10723394.9659698     
  -10677926.9206686     
  -10633276.2011228     
  -10589440.3666212     
  -10546359.8733542     
  -10503899.5841564     
  -10461824.9341578     
  -10419769.3274934     
  -10377186.4845839     
  -10333278.4680388     
  -10286896.7967508     
  -10236456.8618913     
  -10179997.1547452     
  -10115563.5564899     
  -13113040.8290454     
  -13103827.1104755     
  -13095650.7883292     
  -13088170.7058762     
  -13081055.7831746     
  -13074045.1122152     
  -13066952.1563161     
  -13059647.0807843     
  -13052039.1793623     
  -13044064.7987761     
  -13035679.5790842     
  -13026853.2702415     
  -13017566.0423257     
  -13007805.7011996     
  -12997565.5075760     
  -12986842.4451953     
  -12975635.8511262     
  -12963946.3496009     
  -12951775.0420905     
  -12939122.9113360     
  -12925990.4005490     
  -12912377.1326920     
  -12898281.7389504     
  -12883701.7700288     
  -12868633.6684255     
  -12853072.7840878     
  -12837013.4196637     
  -12820448.8948406     
  -12803371.6219882     
  -12785773.1875310     
  -12767644.4352121     
  -12748975.5487447     
  -12729756.1323459     
  -12709975.2883821     
  -12689621.6918614     
  -12668683.6618731     
  -12647149.2302948     
  -12625006.2082336     
  -12602242.2507402     
  -12578844.9203715     
  -12554801.7501819     
  -12530100.3067060     
  -12504728.2534802     
  -12478673.4156233     
  -12451923.8459682     
  -12424467.8932195     
  -12396294.2725919     
  -12367392.1393701     
  -12337751.1658315     
  -12307361.6219688     
  -12276214.4604617     
  -12244301.4063659     
  -12211615.0520126     
  -12178148.9576540     
  -12143897.7584412     
  -12108857.2783849     
  -12073024.6520363     
  -12036398.4547236     
  -11998978.8423070     
  -11960767.7015552     
  -11921768.8124154     
  -11881988.0236379     
  -11841433.4434160     
  -11800115.6469111     
  -11758047.9027293     
  -11715246.4205735     
  -11671730.6223832     
  -11627523.4392183     
  -11582651.6358903     
  -11537146.1647731     
  -11491042.5491967     
  -11444381.2951679     
  -11397208.3276461     
  -11349575.4439294     
  -11301540.7715682     
  -11253169.2111970     
  -11204532.8353507     
  -11155711.2022281     
  -11106791.5280715     
  -11057868.6429777     
  -11009044.6324147     
  -10960428.0406463     
  -10912132.4833519     
  -10864274.4862521     
  -10816970.3364930     
  -10770331.7061858     
  -10724459.7843172     
  -10679437.6320904     
  -10635320.4459285     
  -10592123.3384039     
  -10549806.0548018     
  -10508253.5795202     
  -10467250.5616313     
  -10426445.4978325     
  -10385297.1681703     
  -10342991.2503181     
  -10298319.0106965     
  -10249556.2341390     
  -10194496.6909035     
  -10130878.6164972     
  -13110483.3446428     
  -13101389.6126548     
  -13093416.4084361     
  -13086173.6434433     
  -13079293.5884846     
  -13072496.2273790     
  -13065587.8977920     
  -13058437.6466835     
  -13050956.3675142     
  -13043083.2033519     
  -13034777.0235705     
  -13026010.8300159     
  -13016767.8481518     
  -13007038.6314286     
  -12996818.8340201     
  -12986107.4730457     
  -12974905.5774525     
  -12963215.1543374     
  -12951038.4181119     
  -12938377.2352783     
  -12925232.7428569     
  -12911605.1034915     
  -12897493.3653953     
  -12882895.4004679     
  -12867807.8988465     
  -12852226.4026661     
  -12836145.3657362     
  -12819558.2291651     
  -12802457.5056902     
  -12784834.8676266     
  -12766681.2350409     
  -12747986.8620121     
  -12728741.4197947     
  -12708934.0763545     
  -12688553.5722220     
  -12667588.2929129     
  -12646026.3383563     
  -12623855.5898850     
  -12601063.7753929     
  -12577638.5332777     
  -12553567.4757829     
  -12528838.2523242     
  -12503438.6133598     
  -12477356.4753320     
  -12450579.9871798     
  -12423097.5988965     
  -12394898.1325858     
  -12365970.8564605     
  -12336305.5622169     
  -12305892.6462199     
  -12274723.1949478     
  -12242789.0751510     
  -12210083.0292192     
  -12176598.7762809     
  -12142331.1196096     
  -12107276.0609808     
  -12071430.9227031     
  -12034794.4781469     
  -11997367.0917216     
  -11959150.8693973     
  -11920149.8210405     
  -11880370.0360317     
  -11839819.8738510     
  -11798510.1715530     
  -11756454.4702811     
  -11713669.2631907     
  -11670174.2672964     
  -11625992.7218161     
  -11581151.7154469     
  -11535682.5446032     
  -11489621.1038275     
  -11443008.3081752     
  -11395890.5451630     
  -11348320.1505522     
  -11300355.8974934     
  -11252063.4819621     
  -11203515.9785062     
  -11154794.2285940     
  -11105987.1088030     
  -11057191.6072442     
  -11008512.6136950     
  -10960062.3018771     
  -10911958.9515708     
  -10864325.0247810     
  -10817284.2755402     
  -10770957.6389775     
  -10725457.6130065     
  -10680880.8125022     
  -10637298.3284587     
  -10594743.4276189     
  -10553195.8992981     
  -10512561.8317994     
  -10472646.4490520     
  -10433115.3631518     
  -10393435.6090694     
  -10352781.5631776     
  -10309890.5882717     
  -10262900.1912381     
  -10209342.8684220     
  -10146610.1510523     
  -13107867.7653942     
  -13098905.6340771     
  -13091152.0425740     
  -13084161.3206083     
  -13077526.6582831     
  -13070949.4921454     
  -13064230.2201265     
  -13057237.6228205     
  -13049884.7088358     
  -13042113.7394610     
  -13033887.0258282     
  -13025180.9715869     
  -13015981.9699698     
  -13006283.4090827     
  -12996083.4047194     
  -12985383.0603753     
  -12974185.1373117     
  -12962493.0554972     
  -12950310.1637336     
  -12937639.2268586     
  -12924482.0848836     
  -12910839.4451993     
  -12896710.7750641     
  -12882094.2674066     
  -12866986.8583413     
  -12851384.2795598     
  -12835281.1328258     
  -12818670.9771748     
  -12801546.4221286     
  -12783899.2223574     
  -12765720.3708438     
  -12747000.1888056     
  -12727728.4115035     
  -12707894.2696764     
  -12687486.5667439     
  -12666493.7521926     
  -12644903.9917072     
  -12622705.2346878     
  -12599885.2798268     
  -12576431.8394141     
  -12552332.6030073     
  -12527575.3010840     
  -12502147.7692424     
  -12476038.0134896     
  -12449234.2771193     
  -12421725.1096542     
  -12393499.4383091     
  -12364546.6424125     
  -12334856.6312199     
  -12304419.9255511     
  -12273227.7436885     
  -12241272.0919957     
  -12208545.8607334     
  -12175042.9255923     
  -12140758.2555087     
  -12105688.0273923     
  -12069829.7484774     
  -12033182.3871100     
  -11995746.5129062     
  -11957524.4473718     
  -11918520.4262466     
  -11878740.7750492     
  -11838194.0995337     
  -11796891.4930259     
  -11754846.7628831     
  -11712076.6785799     
  -11668601.2441606     
  -11624443.9979363     
  -11579632.3423155     
  -11534197.9064082     
  -11488176.9434452     
  -11441610.7639017     
  -11394546.2033192     
  -11347036.1208705     
  -11299139.9203774     
  -11250924.0793388     
  -11202462.6630568     
  -11153837.7896127     
  -11105139.9966516     
  -11056468.4421177     
  -11007930.8477802     
  -10959643.0663691     
  -10911728.1205377     
  -10864314.5253130     
  -10817533.6664168     
  -10771515.9662228     
  -10726385.5277822     
  -10682252.9019836     
  -10639205.5600918     
  -10597295.5370169     
  -10556523.4515990     
  -10516817.5364678     
  -10478005.0581018     
  -10439770.9638184     
  -10401594.0994765     
  -10362643.4261755     
  -10321610.5860052     
  -10276498.5413708     
  -10224561.1881734     
  -10162796.4190491     
  -13105188.3149942     
  -13096371.5608668     
  -13088856.6054205     
  -13082134.2337421     
  -13075756.1281991     
  -13069406.2085998     
  -13062880.4075593     
  -13056048.1958619     
  -13048825.2578325     
  -13041157.3197470     
  -13033010.3599479     
  -13024364.3408845     
  -13015208.9395658     
  -13005540.4671797     
  -12995359.5692328     
  -12984669.4876309     
  -12973474.7549185     
  -12961780.2322448     
  -12949590.4225153     
  -12936909.0018238     
  -12923738.5208565     
  -12910080.2355096     
  -12895934.0329943     
  -12881298.4261863     
  -12866170.5947734     
  -12850546.4567840     
  -12834420.7582720     
  -12817787.1723540     
  -12800638.4014892     
  -12782966.2789699     
  -12764761.8671454     
  -12746015.5510387     
  -12726717.1268145     
  -12706855.8851031     
  -12686420.6895428     
  -12665400.0511090     
  -12643782.1989242     
  -12621555.1482796     
  -12598706.7666094     
  -12575224.8381316     
  -12551097.1278302     
  -12526311.4454114     
  -12500855.7098186     
  -12474718.0148494     
  -12447886.6963845     
  -12420350.4017013     
  -12392098.1613291     
  -12363119.4638820     
  -12333404.3342981     
  -12302943.4159137     
  -12271728.0568049     
  -12239750.4008477     
  -12207003.4839674     
  -12173481.3360877     
  -12139179.0893333     
  -12104093.0931041     
  -12068221.0367185     
  -12031562.0804239     
  -11994116.9956979     
  -11955888.3159160     
  -11916880.4986488     
  -11877100.1010683     
  -11836555.9701957     
  -11795259.4500127     
  -11753224.6077614     
  -11710468.4820856     
  -11667011.3559642     
  -11622877.0576431     
  -11578093.2929038     
  -11532692.0119411     
  -11486709.8137371     
  -11440188.3899442     
  -11393175.0087107     
  -11345723.0363256     
  -11297892.4906453     
  -11249750.6145792     
  -11201372.4499047     
  -11152841.3807608     
  -11104249.6016633     
  -11055698.4461073     
  -11007298.4881570     
  -10959169.3004164     
  -10911438.7172742     
  -10864241.4126537     
  -10817716.5574800     
  -10772004.2747748     
  -10727240.5599328     
  -10683550.2769771     
  -10641037.7644522     
  -10599774.4509866     
  -10559782.5981273     
  -10521013.6753419     
  -10483318.5530685     
  -10446403.9105329     
  -10409764.2786820     
  -10372569.8229058     
  -10333476.6673536     
  -10290360.2439751     
  -10240178.5206107     
  -10179479.5590435     
  -13102438.5605449     
  -13093783.5835405     
  -13086529.1925224     
  -13080093.1216058     
  -13073983.2976665     
  -13067867.7774964     
  -13061539.8080281     
  -13054870.5952379     
  -13047779.0987101     
  -13040214.8780897     
  -13032147.8152246     
  -13023561.5945346     
  -13014449.2959600     
  -13004810.2432941     
  -12994647.6796294     
  -12983967.0362401     
  -12972774.6543614     
  -12961076.8628530     
  -12948879.3366281     
  -12936186.6742424     
  -12923002.1431898     
  -12909327.5502790     
  -12895163.2024392     
  -12880507.9304676     
  -12865359.1544607     
  -12849712.9749606     
  -12833564.2781784     
  -12816906.8471084     
  -12799733.4730309     
  -12782036.0639281     
  -12763805.7478218     
  -12745032.9701036     
  -12725707.5846635     
  -12705818.9390920     
  -12685355.9545371     
  -12664307.2009542     
  -12642660.9685665     
  -12620405.3363647     
  -12597528.2384527     
  -12574017.5290018     
  -12549861.0465213     
  -12525046.6781004     
  -12499562.4242180     
  -12473396.4646745     
  -12446537.2261546     
  -12418973.4518990     
  -12390694.2739388     
  -12361689.2883259     
  -12331948.6337860     
  -12301463.0742167     
  -12270224.0854583     
  -12238223.9467810     
  -12205455.8375521     
  -12171913.9395831     
  -12137593.5456986     
  -12102491.1751330     
  -12066604.6964380     
  -12029933.4586835     
  -11992478.4318605     
  -11954242.3575513     
  -11915229.9111217     
  -11875447.8769209     
  -11834905.3382427     
  -11793613.8841163     
  -11751587.8353429     
  -11708844.4925687     
  -11665404.4095705     
  -11621291.6952812     
  -11576534.3483570     
  -11531164.6282012     
  -11485219.4661987     
  -11438740.9203172     
  -11391776.6749974     
  -11344380.5860853     
  -11296613.2670939     
  -11248542.7078847     
  -11200244.9093366     
  -11151804.5070894     
  -11103315.3432626     
  -11054880.9263329     
  -11006614.6953503     
  -10958639.9746745     
  -10911089.4690243     
  -10864104.1058040     
  -10817830.9828801     
  -10772420.1259485     
  -10728019.7003268     
  -10684769.2543099     
  -10642790.4810279     
  -10602174.8381740     
  -10562967.0675921     
  -10525143.0139797     
  -10488578.7918406     
  -10453005.3631479     
  -10417937.0935398     
  -10382552.5933328     
  -10345484.8098202     
  -10304493.0175369     
  -10256223.1523205     
  -10196706.3708561     
  -13099611.2750089     
  -13091137.6999512     
  -13084169.1549593     
  -13078039.0111563     
  -13072209.6425315     
  -13066335.7025986     
  -13060209.8356599     
  -13053706.0939425     
  -13046747.3454737     
  -13039287.3693330     
  -13031300.1956366     
  -13022773.3992339     
  -13013703.5847438     
  -13004093.1789076     
  -12993948.0898876     
  -12983275.9880758     
  -12972085.0591412     
  -12960383.1243150     
  -12948177.0465367     
  -12935472.3562488     
  -12922273.0422821     
  -12908581.4633698     
  -12894398.3447483     
  -12879722.8321425     
  -12864552.5821110     
  -12848883.8732717     
  -12832711.7273813     
  -12816030.0327435     
  -12798831.6650719     
  -12781108.6029055     
  -12762852.0360975     
  -12744052.4668683     
  -12724699.8035817     
  -12704783.4478049     
  -12684292.3754512     
  -12663215.2129212     
  -12641540.3091828     
  -12619255.8047199     
  -12596349.6982218     
  -12572809.9118255     
  -12548624.3556536     
  -12523780.9923198     
  -12498267.9020172     
  -12472073.3487465     
  -12445185.8481986     
  -12417594.2377711     
  -12389287.7491671     
  -12360256.0840123     
  -12330489.4929078     
  -12299978.8583391     
  -12268715.7818638     
  -12236692.6760115     
  -12203902.8613531     
  -12170340.6692271     
  -12136001.5506565     
  -12100882.1920440     
  -12064980.6383166     
  -12028296.4242829     
  -11990830.7151007     
  -11952586.4569000     
  -11913568.5388152     
  -11873783.9679098     
  -11833242.0587691     
  -11791954.6398759     
  -11749936.2792694     
  -11707204.5324236     
  -11663780.2157386     
  -11619687.7095022     
  -11574955.2945924     
  -11529615.5274855     
  -11483705.6582083     
  -11437268.0955624     
  -11390350.9230633     
  -11343008.4672722     
  -11295301.9172119     
  -11247299.9888479     
  -11199079.6216235     
  -11150726.6840244     
  -11102336.6513027     
  -11054015.1998824     
  -11005878.6386388     
  -10958054.0662893     
  -10910679.1058388     
  -10863901.0210254     
  -10817874.9660938     
  -10772761.0594600     
  -10728719.9036218     
  -10685906.0954256     
  -10644459.1690456     
  -10604491.2545045     
  -10566070.4321770     
  -10529198.1001430     
  -10493777.3193175     
  -10459566.0121291     
  -10426102.7669365     
  -10392582.3443355     
  -10357628.9829881     
  -10318902.8165347     
  -10272724.7688078     
  -10214529.2863739     
  -13096698.2634341     
  -13088429.7337436     
  -13081776.1985943     
  -13075973.2658802     
  -13070436.8235510     
  -13064811.5940537     
  -13058891.9728533     
  -13052556.0089134     
  -13045731.1418867     
  -13038375.7689133     
  -13030468.3192630     
  -13022000.4310823     
  -13012972.3573808     
  -13003389.7187339     
  -12993261.1552712     
  -12982596.6249023     
  -12971406.1916945     
  -12959699.1919452     
  -12947483.6906724     
  -12934766.1577809     
  -12921551.3063095     
  -12907842.0464913     
  -12893639.5192479     
  -12878943.1812443     
  -12863750.9207581     
  -12848059.1894138     
  -12831863.1394171     
  -12815156.7594445     
  -12797933.0049770     
  -12780183.9207771     
  -12761900.7545425     
  -12743074.0616780     
  -12723693.8016978     
  -12703749.4271111     
  -12683229.9658188     
  -12662124.0981069     
  -12640420.2293145     
  -12618106.5591989     
  -12595171.1489382     
  -12571601.9866375     
  -12547387.0521088     
  -12522514.3816214     
  -12496972.1332479     
  -12470748.6533738     
  -12443832.5448850     
  -12416212.7375135     
  -12387878.5607902     
  -12358819.8200327     
  -12329026.8757887     
  -12298490.7271421     
  -12267203.0993038     
  -12235156.5359114     
  -12202344.4964845     
  -12168761.4595152     
  -12134403.0317106     
  -12099266.0639662     
  -12063348.7747192     
  -12026650.8814324     
  -11989173.7410838     
  -11950920.5006999     
  -11911896.2591690     
  -11872108.2418214     
  -11831565.9895715     
  -11790281.5647790     
  -11748269.7764121     
  -11705548.4275935     
  -11662138.5891404     
  -11618064.9032878     
  -11573355.9223339     
  -11528044.4874379     
  -11482168.1531010     
  -11435769.6628586     
  -11388897.4811734     
  -11341606.3851902     
  -11293958.1175014     
  -11246022.0968981     
  -11197876.1776292     
  -11149607.4381817     
  -11101312.9671383     
  -11053100.5951946     
  -11005089.4978100     
  -10957410.5610800     
  -10910206.3632341     
  -10863630.5749985     
  -10817846.5235785     
  -10773024.5975106     
  -10729338.0926454     
  -10686957.0108430     
  -10646039.2116160     
  -10606718.1466437     
  -10569086.1093908     
  -10533171.2632184     
  -10498905.3637606     
  -10466076.0628439     
  -10434250.7729358     
  -10402648.3889314     
  -10369900.8085585     
  -10333593.1356197     
  -10289714.3286271     
  -10233007.5953641     
  -13093690.1395170     
  -13085655.3789560     
  -13079350.5154945     
  -13073897.6331435     
  -13068666.6891429     
  -13063297.1713664     
  -13057587.7718000     
  -13051421.7009244     
  -13044731.6613214     
  -13037481.0723670     
  -13029653.0176362     
  -13021243.3748745     
  -13012256.1704729     
  -13002700.3100169     
  -12992587.2316850     
  -12981929.2278053     
  -12970738.2729046     
  -12959025.2389703     
  -12946799.4050981     
  -12934068.1863137     
  -12920837.0210177     
  -12907109.3690385     
  -12892886.7831188     
  -12878169.0258589     
  -12862954.2116950     
  -12847238.9595513     
  -12831018.5464914     
  -12814287.0562536     
  -12797037.5191452     
  -12779262.0416130     
  -12760951.9250681     
  -12742097.7743531     
  -12722689.5967376     
  -12702716.8925903     
  -12682168.7389870     
  -12661033.8675173     
  -12639300.7375024     
  -12616957.6057388     
  -12593992.5937876     
  -12570393.7537138     
  -12546149.1330856     
  -12521246.8399468     
  -12495675.1084043     
  -12469422.3654005     
  -12442477.2991906     
  -12414828.9300050     
  -12386466.6833411     
  -12357380.4663129     
  -12327560.7474679     
  -12296998.6404823     
  -12265685.9921408     
  -12233615.4750212     
  -12200780.6853234     
  -12167176.2463046     
  -12132797.9178316     
  -12097642.7126083     
  -12061709.0197123     
  -12024996.7361731     
  -11987507.4074489     
  -11949244.3778199     
  -11910212.9519269     
  -11870420.5689396     
  -11829876.9911618     
  -11788594.5092745     
  -11746588.1668827     
  -11703876.0075816     
  -11660479.3483766     
  -11616423.0839713     
  -11571736.0271427     
  -11526451.2910953     
  -11480606.7202382     
  -11434245.3761248     
  -11387416.0851307     
  -11340174.0535515     
  -11292581.5537991     
  -11244708.6817507     
  -11196634.1794235     
  -11148446.3081911     
  -11100243.7447133     
  -11052136.4534717     
  -11004246.4649567     
  -10956708.4557778     
  -10909669.9849242     
  -10863291.1880776     
  -10817743.6685455     
  -10773208.2490248     
  -10729871.1629603     
  -10687918.1648653     
  -10647525.9201676     
  -10608849.8558820     
  -10572007.3647449     
  -10537054.6143528     
  -10503953.8365089     
  -10472525.2237167     
  -10442369.8146643     
  -10412738.7256928     
  -10382289.2269955     
  -10348564.0877063     
  -10307223.7542291     
  -10252209.0206687     
  -13090576.0327738     
  -13082810.2887025     
  -13076892.9567307     
  -13071814.2837760     
  -13066901.2711205     
  -13061794.2670008     
  -13056298.8550171     
  -13050304.5740224     
  -13043750.1065454     
  -13036604.2946807     
  -13028855.1350471     
  -13020502.9233411     
  -13011555.5849900     
  -13002025.4018019     
  -12991926.6750065     
  -12981274.0766038     
  -12970081.5215981     
  -12958361.4361097     
  -12946124.3231683     
  -12933378.5465852     
  -12920130.2695075     
  -12906383.4979284     
  -12892140.1912735     
  -12877400.4120322     
  -12862162.4944104     
  -12846423.2182720     
  -12830177.9794484     
  -12813420.9510526     
  -12796145.2329964     
  -12778342.9886714     
  -12760005.5689256     
  -12741123.6241911     
  -12721687.2060283     
  -12701685.8595362     
  -12681108.7081213     
  -12659944.5320739     
  -12638181.8422914     
  -12615808.9503661     
  -12592814.0361257     
  -12569185.2135783     
  -12544910.5961054     
  -12519978.3616353     
  -12494376.8184523     
  -12468094.4722152     
  -12441120.0947104     
  -12413442.7948161     
  -12385052.0921216     
  -12355937.9936235     
  -12326091.0739089     
  -12295502.5592239     
  -12264164.4158307     
  -12232069.4430655     
  -12199211.3715243     
  -12165584.9668295     
  -12131186.1394725     
  -12096012.0612734     
  -12060061.2890765     
  -12023333.8963927     
  -11985831.6138238     
  -11947557.9792726     
  -11908518.4991498     
  -11868720.8220583     
  -11828174.9267775     
  -11786893.3267822     
  -11744891.2940439     
  -11702187.1054643     
  -11658802.3159902     
  -11614762.0632560     
  -11570095.4094446     
  -11524835.7269315     
  -11479021.1350758     
  -11432694.9961253     
  -11385906.4784288     
  -11338711.1946992     
  -11291171.9215968     
  -11243359.4038553     
  -11195353.2409006     
  -11147242.8455315     
  -11099128.4516662     
  -11051122.1301143     
  -11003348.7463074     
  -10955946.7603150     
  -10909068.7256218     
  -10862881.2876400     
  -10817564.4148521     
  -10773309.5140508     
  -10730315.9876146     
  -10688785.6805426     
  -10648914.5392246     
  -10610880.6223576     
  -10574827.3155344     
  -10540840.0470270     
  -10508913.3348540     
  -10478902.7012633     
  -10450447.7976656     
  -10422840.0672529     
  -10394780.2183470     
  -10363811.1912227     
  -10325285.3135843     
  -10272211.7815134     
  -13087343.1964622     
  -13079890.2388422     
  -13074405.2565756     
  -13069725.8317497     
  -13065142.7737811     
  -13060304.8320030     
  -13055026.9139850     
  -13049206.0747883     
  -13042787.7094138     
  -13035746.4694428     
  -13028075.5278258     
  -13019779.7763215     
  -13010871.1654642     
  -13001365.4441779     
  -12991279.8403931     
  -12980631.4492464     
  -12969436.1540288     
  -12957707.9511475     
  -12945458.5751796     
  -12932697.3403217     
  -12919431.1320201     
  -12905664.4974362     
  -12891399.7962333     
  -12876637.3836826     
  -12861375.8065231     
  -12845611.9985410     
  -12829341.4677398     
  -12812558.4705411     
  -12795256.1709611     
  -12777426.7843935     
  -12759061.7067032     
  -12740151.6299658     
  -12720686.6465002     
  -12700656.3429599     
  -12680049.8862094     
  -12658856.1026164     
  -12637063.5522359     
  -12614660.5992021     
  -12591635.4794845     
  -12567976.3670098     
  -12543671.4390210     
  -12518708.9414318     
  -12493077.2548365     
  -12466764.9617590     
  -12439760.9156659     
  -12412054.3122195     
  -12383634.7632103     
  -12354492.3735914     
  -12324617.8220125     
  -12294002.4452512     
  -12262638.3269361     
  -12230518.3909649     
  -12197636.5000327     
  -12163987.5597152     
  -12129567.6285832     
  -12094374.0348745     
  -12058405.5003242     
  -12021662.2718398     
  -11984146.2618391     
  -11945861.1982299     
  -11906812.7852286     
  -11867008.8764924     
  -11826459.6623926     
  -11785177.8737022     
  -11743179.0045185     
  -11700481.5578989     
  -11657107.3184780     
  -11613081.6572317     
  -11568433.8745556     
  -11523197.5888969     
  -11477411.1792261     
  -11431118.2905656     
  -11384368.4124008     
  -11337217.5398290     
  -11289728.9263592     
  -11241973.9348454     
  -11194032.9883992     
  -11145996.6153703     
  -11097966.5704475     
  -11050056.9961796     
  -11002395.5640915     
  -10955124.5001654     
  -10908401.3539094     
  -10862399.3115331     
  -10817306.7810173     
  -10773325.8883247     
  -10730669.4220992     
  -10689555.6448616     
  -10650200.2516520     
  -10612804.5894210     
  -10577538.9359804     
  -10544519.2382660     
  -10513774.1461114     
  -10485197.2083670     
  -10458471.7890127     
  -10432937.9153072     
  -10407356.6623939     
  -10379323.7960242     
  -10343930.4756561     
  -10293107.3547637     
  -13083976.4695952     
  -13076891.4212601     
  -13071890.3158307     
  -13067635.3135679     
  -13063393.5610545     
  -13058830.9445007     
  -13053773.7044460     
  -13048127.6921936     
  -13041845.7302047     
  -13034908.6478386     
  -13027315.0636188     
  -13019074.6398444     
  -13010203.4791675     
  -13000720.8874789     
  -12990647.0815698     
  -12980001.6211875     
  -12968802.3833480     
  -12957064.9484937     
  -12944802.2880163     
  -12932024.6659547     
  -12918739.6857182     
  -12904952.4290276     
  -12890665.6480035     
  -12875879.9825074     
  -12860594.1837179     
  -12844805.3316569     
  -12828509.0393967     
  -12811699.6402204     
  -12794370.3564697     
  -12776513.4503979     
  -12758120.3583269     
  -12739181.8099306     
  -12719687.9346898     
  -12699628.3575949     
  -12678992.2860671     
  -12657768.5899103     
  -12635945.8759067     
  -12613512.5584699     
  -12590456.9275794     
  -12566767.2150482     
  -12542431.6600226     
  -12517438.5744935     
  -12491776.4094888     
  -12465433.8225344     
  -12438399.7469151     
  -12410663.4631990     
  -12382214.6734752     
  -12353043.5787113     
  -12323140.9596273     
  -12292498.2614796     
  -12261107.6831380     
  -12228962.2708494     
  -12196056.0170991     
  -12162383.9649922     
  -12127942.3186247     
  -12092728.5599487     
  -12056741.5727116     
  -12019981.7741376     
  -11982451.2551412     
  -11944153.9300332     
  -11905095.6968954     
  -11865284.6100882     
  -11824731.0667267     
  -11783448.0094240     
  -11741451.1481958     
  -11698759.2051306     
  -11655394.1862984     
  -11611381.6863869     
  -11566751.2327035     
  -11521536.6764544     
  -11475776.6405180     
  -11429515.0341872     
  -11382801.6463635     
  -11335692.8292034     
  -11288252.2838375     
  -11240551.9579839     
  -11192673.0613228     
  -11144707.1974090     
  -11096757.5994465     
  -11048940.4398581     
  -11001386.1584356     
  -10954240.7187313     
  -10907666.6551756     
  -10861843.7116147     
  -10816968.7943627     
  -10773254.8679843     
  -10730928.3095718     
  -10690224.1140669     
  -10651378.1845458     
  -10614615.8080244     
  -10580135.0634487     
  -10548083.6523062     
  -10518526.2474796     
  -10491396.9959168     
  -10466427.9560676     
  -10443016.6490986     
  -10419998.4812083     
  -10395083.0934925     
  -10363187.8561593     
  -10315004.2619695     
  -13080457.5173300     
  -13073810.9665551     
  -13069352.5404311     
  -13065546.0957442     
  -13061656.1558836     
  -13057374.8187356     
  -13052541.0371001     
  -13047070.9594242     
  -13040925.4558538     
  -13034091.8977934     
  -13026574.6205746     
  -13018388.2251179     
  -13009553.0952795     
  -13000092.1814379     
  -12990028.7501012     
  -12979384.8647423     
  -12968180.4190616     
  -12956432.5887383     
  -12944155.5847898     
  -12931360.6183382     
  -12918056.0044658     
  -12904247.3511939     
  -12889937.7939506     
  -12875128.2478962     
  -12859817.6596820     
  -12844003.2472078     
  -12827680.7209992     
  -12810844.4843740     
  -12793487.8119422     
  -12775603.0074764     
  -12757181.5430572     
  -12738214.1818186     
  -12718691.0867434     
  -12698601.9179011     
  -12677935.9203426     
  -12656682.0046514     
  -12634828.8218961     
  -12612364.8344996     
  -12589278.3843144     
  -12565557.7590016     
  -12541191.2576454     
  -12516167.2563988     
  -12490474.2748361     
  -12464101.0436145     
  -12437036.5739604     
  -12409270.2294598     
  -12380791.8005831     
  -12351591.5823554     
  -12321660.4555618     
  -12290989.9718697     
  -12259572.4432493     
  -12227401.0360729     
  -12194469.8702925     
  -12160774.1241096     
  -12126310.1445832     
  -12091075.5646706     
  -12055069.4272543     
  -12018292.3167983     
  -11980746.4994061     
  -11942436.0722078     
  -11903367.1232346     
  -11863547.9032336     
  -11822989.0112530     
  -11781703.5963309     
  -11739707.5782373     
  -11697019.8909988     
  -11653662.7538795     
  -11609661.9756208     
  -11565047.2990464     
  -11519852.7946120     
  -11474117.3130515     
  -11427885.0088572     
  -11381205.9477568     
  -11334136.8123632     
  -11286741.7203793     
  -11239093.1686058     
  -11191273.1127586     
  -11143374.1867299     
  -11095501.0541280     
  -11047771.8679681     
  -11000319.7892865     
  -10953294.4797765     
  -10906863.4346210     
  -10861212.9573782     
  -10816548.4953125     
  -10773093.9543830     
  -10731089.4864363     
  -10690787.1190351     
  -10652443.4157432     
  -10616308.2417316     
  -10582608.4036266     
  -10551524.5519860     
  -10523159.2920452     
  -10497489.9167141     
  -10474301.5014317     
  -10453059.5279260     
  -10432683.2860532     
  -10411059.7375538     
  -10383079.5529664     
  -10338033.4141786     
  -13076763.7212695     
  -13070647.8857449     
  -13066798.1940429     
  -13063461.6684889     
  -13059933.2836736     
  -13055938.8024327     
  -13051330.7657139     
  -13046037.4587592     
  -13040028.1958224     
  -13033297.3040580     
  -13025855.0860539     
  -13017721.2475848     
  -13008920.5839986     
  -12999479.7742940     
  -12989425.1946519     
  -12978781.4484146     
  -12967570.4664828     
  -12955811.0281910     
  -12943518.5844733     
  -12930705.2884593     
  -12917380.1586069     
  -12903549.3192823     
  -12889216.2786780     
  -12874382.2168390     
  -12859046.2660434     
  -12843205.7730303     
  -12826856.5376510     
  -12809993.0260517     
  -12792608.5587796     
  -12774695.4755908     
  -12756245.2794915     
  -12737248.7628464     
  -12717696.1184221     
  -12697577.0380705     
  -12676880.8015234     
  -12655596.3574724     
  -12633712.3988246     
  -12611217.4337364     
  -12588099.8537907     
  -12564348.0004539     
  -12539950.2307778     
  -12514894.9831535     
  -12489170.8438094     
  -12462766.6146499     
  -12435671.3829591     
  -12407874.5934382     
  -12379366.1230089     
  -12350136.3587849     
  -12320176.2795952     
  -12289477.5414371     
  -12258032.5672269     
  -12225834.6412243     
  -12192878.0085140     
  -12159157.9799495     
  -12124671.0429842     
  -12089414.9788683     
  -12053388.9867403     
  -12016593.8152359     
  -11979031.9023519     
  -11940707.5244731     
  -11901626.9556937     
  -11861798.6388654     
  -11821233.3702045     
  -11779944.4998068     
  -11737948.1510804     
  -11695263.4629389     
  -11651912.8596211     
  -11607922.3542486     
  -11563321.8936861     
  -11518145.7539495     
  -11472432.9972457     
  -11426228.0036493     
  -11379581.0922758     
  -11332549.2483301     
  -11285196.9732299     
  -11237597.2745556     
  -11189832.8100920     
  -11141997.1946427     
  -11094196.4681723     
  -11046550.7074599     
  -10999195.7383640     
  -10952284.8698894     
  -10905990.5203469     
  -10860505.5396306     
  -10816043.9418871     
  -10772840.6589811     
  -10731149.7882362     
  -10691240.6710452     
  -10653390.9798808     
  -10617875.7750677     
  -10584951.5290635     
  -10554833.0267018     
  -10527662.5733057     
  -10503463.5074795     
  -10482076.6795817     
  -10463048.3842319     
  -10445387.8227276     
  -10427211.3660147     
  -10403614.5398867     
  -10362355.9168752     
  -13072866.4900862     
  -13067404.8085478     
  -13064235.6151069     
  -13061385.2939485     
  -13058228.0167606     
  -13054525.3279588     
  -13050144.7867385     
  -13045028.8259324     
  -13039155.2754517     
  -13032525.9701825     
  -13025157.3540803     
  -13017074.4265092     
  -13008306.5153545     
  -12998884.1119630     
  -12988836.7601956     
  -12978191.6362115     
  -12966972.7261718     
  -12955200.4184121     
  -12942891.4015334     
  -12930058.7631459     
  -12916712.2147432     
  -12902858.3853314     
  -12888501.1439043     
  -12873641.9238403     
  -12858280.0323086     
  -12842412.9351669     
  -12826036.5129518     
  -12809145.2870547     
  -12791732.6173563     
  -12773790.8738705     
  -12755311.5855639     
  -12736285.5697170     
  -12716703.0451046     
  -12696553.7320318     
  -12675826.9419404     
  -12654511.6589495     
  -12632596.6153478     
  -12610070.3627462     
  -12586921.3403121     
  -12563137.9412714     
  -12538708.5786671     
  -12513621.7511999     
  -12487866.1098504     
  -12461430.5258789     
  -12434304.1607314     
  -12406476.5383106     
  -12377937.6200471     
  -12348677.8831601     
  -12318688.4024890     
  -12287960.9362655     
  -12256488.0161843     
  -12224263.0421413     
  -12191280.3820097     
  -12157535.4768406     
  -12123024.9519065     
  -12087746.7340344     
  -12051700.1757441     
  -12014886.1867794     
  -11977307.3737499     
  -11938968.1887539     
  -11899875.0880919     
  -11860036.7024789     
  -11819464.0205809     
  -11778170.5882387     
  -11736172.7264396     
  -11693489.7719827     
  -11650144.3458966     
  -11606162.6560067     
  -11561574.8416802     
  -11516415.3706434     
  -11470723.4998849     
  -11424543.8149223     
  -11377926.8639962     
  -11330929.9058033     
  -11283617.7908284     
  -11236063.9966149     
  -11188351.8356163     
  -11140575.8495264     
  -11092843.3946212     
  -11045276.4069271     
  -10998013.3111438     
  -10951211.0009726     
  -10905046.7665241     
  -10859719.9742501     
  -10815453.2142874     
  -10772492.5086228     
  -10731106.0550980     
  -10691580.7696476     
  -10654215.8707093     
  -10619312.2306833     
  -10587156.8644383     
  -10558000.0380024     
  -10532024.9932743     
  -10509304.9900637     
  -10489737.1377164     
  -10472962.6074827     
  -10458090.4377696     
  -10443481.0714299     
  -10424776.4680219     
  -10388174.9475813     
  -13068728.5544428     
  -13064091.3119745     
  -13061674.8444884     
  -13059319.5828003     
  -13056544.0829488     
  -13053136.7479233     
  -13048985.0936774     
  -13044046.7333059     
  -13038308.0347796     
  -13031779.0201538     
  -13024482.3216726     
  -13016448.4854945     
  -13007711.4573212     
  -12998305.6375468     
  -12988263.7870031     
  -12977615.6870297     
  -12966387.3933220     
  -12954600.9057506     
  -12942274.1455520     
  -12929421.1247743     
  -12916052.2355114     
  -12902174.5979004     
  -12887792.4283408     
  -12872907.4008317     
  -12857518.9858039     
  -12841624.7578276     
  -12825220.6689739     
  -12808301.2879209     
  -12790860.0070136     
  -12772889.2206098     
  -12754380.4785473     
  -12735324.6186230     
  -12715711.8817941     
  -12695532.0134571     
  -12674774.3537770     
  -12653427.9196081     
  -12631481.4801619     
  -12608923.6282220     
  -12585742.8483927     
  -12561927.5836097     
  -12537466.3009279     
  -12512347.5574238     
  -12486560.0669208     
  -12460092.7681358     
  -12432934.8947694     
  -12405076.0480030     
  -12376506.2718209     
  -12347216.1315516     
  -12317196.7959982     
  -12286440.1235175     
  -12254938.7524027     
  -12222686.1959233     
  -12189676.9423834     
  -12155906.5605708     
  -12121371.8109944     
  -12086070.7633414     
  -12050002.9206383     
  -12013169.3506849     
  -11975572.8254374     
  -11937217.9691910     
  -11898111.4166291     
  -11858261.9821323     
  -11817680.8421514     
  -11776381.7330198     
  -11734381.1673070     
  -11691698.6727590     
  -11648357.0590515     
  -11604382.7190522     
  -11559805.9730467     
  -11514661.4664821     
  -11468988.6341537     
  -11422832.2463879     
  -11376243.0554925     
  -11329278.5633464     
  -11282003.9330920     
  -11234493.0689239     
  -11186829.8871358     
  -11139109.7976650     
  -11091441.4070228     
  -11043948.4381259     
  -10996771.8388480     
  -10950072.0128074     
  -10904031.0565051     
  -10858854.8063166     
  -10814774.4189726     
  -10772047.0523325     
  -10730955.1348111     
  -10691803.4154356     
  -10654913.0368687     
  -10620611.3943780     
  -10589216.6741645     
  -10561016.4268283     
  -10536235.1792204     
  -10515000.8883788     
  -10497267.0675877     
  -10482776.9761065     
  -10470774.0480171     
  -10459800.0064870     
  -10446500.3021742     
  -10415754.7681265     
  -13064299.3587499     
  -13060730.6127239     
  -13059125.3495853     
  -13057266.5370351     
  -13054886.2450034     
  -13051774.9953198     
  -13047853.9643774     
  -13043092.7956003     
  -13037487.8654082     
  -13031057.5832504     
  -13023830.8914905     
  -13015844.1509443     
  -13007135.9742473     
  -12997744.7909383     
  -12987706.6093992     
  -12977053.8541947     
  -12965814.6570283     
  -12954012.6309411     
  -12941666.9208073     
  -12928792.4509934     
  -12915400.2793504     
  -12901498.0019099     
  -12887090.1675702     
  -12872178.6770877     
  -12856763.1516177     
  -12840841.2633522     
  -12824409.0262380     
  -12807461.0479128     
  -12789990.7460533     
  -12771990.5332685     
  -12753451.9750558     
  -12734365.9252527     
  -12714722.6431231     
  -12694511.8957676     
  -12673723.0490727     
  -12652345.1499303     
  -12630367.0020122     
  -12607777.2369924     
  -12584564.3827637     
  -12560716.9299216     
  -12536223.3975501     
  -12511072.3991625     
  -12485252.7095101     
  -12458753.3328579     
  -12431563.5732469     
  -12403673.1072011     
  -12375072.0592923     
  -12345751.0809505     
  -12315701.4328821     
  -12284915.0714475     
  -12253384.7393449     
  -12221104.0609430     
  -12188067.6426102     
  -12154271.1784004     
  -12119711.5614725     
  -12084387.0016537     
  -12048297.1496086     
  -12011443.2281482     
  -11973828.1713288     
  -11935456.7721504     
  -11896335.8398943     
  -11856474.3684548     
  -11815883.7174601     
  -11774577.8085494     
  -11732573.3399513     
  -11689890.0234872     
  -11646550.8493989     
  -11602582.3859603     
  -11558015.1227670     
  -11512883.8688804     
  -11467228.2196712     
  -11421093.1091740     
  -11374529.4679457     
  -11327595.0095642     
  -11280355.1716904     
  -11232884.2393901     
  -11185266.6785494     
  -11137598.7040900     
  -11089990.1005414     
  -11042566.2975644     
  -10995470.6803148     
  -10948867.0759035     
  -10902942.3055370     
  -10857908.6150987     
  -10814005.6916877     
  -10771501.8697644     
  -10730693.8852238     
  -10691904.6205952     
  -10655477.3920971     
  -10621766.9957985     
  -10591123.1677724     
  -10563872.6536978     
  -10540282.1439179     
  -10520535.7122870     
  -10504653.5889734     
  -10492458.9905624     
  -10483425.8393337     
  -10476103.3475518     
  -10468625.3416605     
  -10445453.1030455     
  -13059506.6002992     
  -13057373.8554257     
  -13056588.0419662     
  -13055230.3245514     
  -13053259.7258166     
  -13050441.4129349     
  -13046754.2282635     
  -13042168.3582062     
  -13036696.3379378     
  -13030362.7214887     
  -13023204.0068928     
  -13015262.1333431     
  -13006580.6337715     
  -12997202.0043427     
  -12987165.5563257     
  -12976506.3841884     
  -12965254.6998581     
  -12953435.7285742     
  -12941069.8258882     
  -12928172.8144416     
  -12914756.4002675     
  -12900828.6384853     
  -12886394.3939234     
  -12871455.7791463     
  -12856012.5525416     
  -12840062.4721753     
  -12823601.6036923     
  -12806624.5850062     
  -12789124.8517351     
  -12771094.8284726     
  -12752526.0910486     
  -12733409.5047936     
  -12713735.3433604     
  -12693493.3921418     
  -12672673.0397327     
  -12651263.3603619     
  -12629253.1896995     
  -12606631.1960275     
  -12583385.9483812     
  -12559505.9829645     
  -12534979.8689057     
  -12509796.2742123     
  -12483944.0326429     
  -12457412.2120956     
  -12430190.1850272     
  -12402267.7013588     
  -12373634.9642721     
  -12344282.7092785     
  -12314202.2869147     
  -12283385.7494111     
  -12251825.9416654     
  -12219516.5968590     
  -12186452.4370486     
  -12152629.2790758     
  -12118044.1461571     
  -12082695.3855408     
  -12046582.7926637     
  -12009707.7423157     
  -11972073.3274246     
  -11933684.5062333     
  -11894548.2588725     
  -11854673.7546505     
  -11814072.5318265     
  -11772758.6922332     
  -11730749.1139125     
  -11688063.6859730     
  -11644725.5712105     
  -11600761.5037174     
  -11556202.1307828     
  -11511082.4108859     
  -11465442.0825126     
  -11419326.2218777     
  -11372785.9112405     
  -11325879.0432729     
  -11278671.2903017     
  -11231237.2700990     
  -11183661.9404080     
  -11136042.2534354     
  -11088489.0930296     
  -11041129.5081093     
  -10994109.2239285     
  -10947595.3941198     
  -10901779.4643508     
  -10856880.0168855     
  -10813145.2061665     
  -10770854.5669642     
  -10730319.2053183     
  -10691880.3599056     
  -10655903.9460034     
  -10622772.4616606     
  -10592869.0081688     
  -10566557.9031811     
  -10544156.7701000     
  -10525890.0799740     
  -10511887.9459344     
  -10501972.9026425     
  -10496017.7936162     
  -10492386.3093934     
  -10490794.9161173     
  -10477780.5712833     
  -13054239.2762054     
  -13054132.8032864     
  -13054030.3552589     
  -13053231.1470127     
  -13051663.5240367     
  -13049139.5565986     
  -13045688.2313190     
  -13041274.7894108     
  -13035935.1690155     
  -13029695.3858262     
  -13022602.6993604     
  -13014703.0888184     
  -13006046.0300297     
  -12996677.6865188     
  -12986640.9589171     
  -12975973.5112030     
  -12964707.6997793     
  -12952870.3252582     
  -12940482.9540127     
  -12927562.2820884     
  -12914120.6478006     
  -12900166.5446996     
  -12885705.1364103     
  -12870738.7307070     
  -12855267.2090309     
  -12839288.4027869     
  -12822798.4186951     
  -12805791.9158797     
  -12788262.3402729     
  -12770202.1220141     
  -12751602.8418346     
  -12732455.3719393     
  -12712749.9964172     
  -12692476.5155207     
  -12671624.3375341     
  -12650182.5613200     
  -12628140.0520868     
  -12605485.5124473     
  -12582207.5504326     
  -12558294.7458065     
  -12533735.7157556     
  -12508519.1808362     
  -12482634.0318883     
  -12456069.3985205     
  -12428814.7196729     
  -12400859.8167083     
  -12372194.9694301     
  -12342810.9953985     
  -12312699.3328969     
  -12281852.1278782     
  -12250262.3252229     
  -12217923.7646285     
  -12184831.2814533     
  -12150980.8128410     
  -12116369.5094702     
  -12080995.8532896     
  -12044859.7816491     
  -12007962.8182969     
  -11970308.2118242     
  -11931901.0822838     
  -11892748.5769511     
  -11852860.0365022     
  -11812247.1733483     
  -11770924.2644802     
  -11728908.3619979     
  -11686219.5255995     
  -11642881.0827085     
  -11598919.9237095     
  -11554366.8419887     
  -11509256.9311785     
  -11463630.0552291     
  -11417531.4106070     
  -11371012.2040636     
  -11324130.4736349     
  -11276952.0849000     
  -11229551.9376142     
  -11182015.4206399     
  -11134440.1504138     
  -11086938.0268046     
  -11039637.6192102     
  -10992686.8921865     
  -10946256.2023567     
  -10900541.5319619     
  -10855767.6513152     
  -10812191.2121492     
  -10770102.7229207     
  -10729828.1454333     
  -10691726.4073823     
  -10656188.0732613     
  -10623620.5821142     
  -10594447.6182637     
  -10569060.3136959     
  -10547849.7588437     
  -10531047.9789315     
  -10518945.8329964     
  -10511326.6224049     
  -10508409.3573252     
  -10508879.0596117     
  -10512226.8957983     
  -10513519.7428567     
  -13048310.2823327     
  -13051260.4193199     
  -13051310.1762130     
  -13051359.7675843     
  -13050055.8937728     
  -13047895.4002063     
  -13044646.5537073     
  -13040419.5566430     
  -13035203.0235878     
  -13029058.0630285     
  -13022027.2493003     
  -13014168.0385721     
  -13005532.5731686     
  -12996172.3249888     
  -12986133.0989635     
  -12975455.4810477     
  -12964173.8175656     
  -12952316.5448997     
  -12939906.3898553     
  -12926960.9162729     
  -12913493.0661604     
  -12899511.7537194     
  -12885022.4204611     
  -12870027.5526193     
  -12854527.1391189     
  -12838519.0717176     
  -12821999.4869911     
  -12804963.0559106     
  -12787403.2268334     
  -12769312.4288580     
  -12750682.2420769     
  -12731503.5408976     
  -12711766.6158555     
  -12691461.2786179     
  -12670576.9541341     
  -12649102.7632003     
  -12627027.5981081     
  -12604340.1935273     
  -12581029.1943449     
  -12557083.2218353     
  -12532490.9392592     
  -12507241.1177727     
  -12481322.7033672     
  -12454724.8854331     
  -12427437.1674536     
  -12399449.4402686     
  -12370752.0583036     
  -12341335.9191251     
  -12311192.5466657     
  -12280314.1784432     
  -12248693.8570923     
  -12216325.5265187     
  -12183204.1329868     
  -12149325.7314506     
  -12114687.5974507     
  -12079288.3449171     
  -12043128.0502584     
  -12006208.3831747     
  -11968532.7447332     
  -11930106.4133983     
  -11890936.6999277     
  -11851033.1123759     
  -11810407.5329003     
  -11769074.4087004     
  -11727050.9602745     
  -11684357.4113160     
  -11641017.2460498     
  -11597057.5017095     
  -11552509.1062186     
  -11507407.2740677     
  -11461791.9768522     
  -11415708.5090260     
  -11369208.1739550     
  -11322349.1203494     
  -11275197.3638802     
  -11227828.0335699     
  -11180326.8846140     
  -11132792.1216224     
  -11085336.5676168     
  -11038090.2128952     
  -10991203.1343555     
  -10944848.7887312     
  -10899227.5184896     
  -10854570.2695998     
  -10811141.8674053     
  -10769244.2509765     
  -10729217.1896212     
  -10691439.8129782     
  -10656322.5695034     
  -10624309.3993863     
  -10595841.6223784     
  -10571389.4181418     
  -10551308.9846250     
  -10536075.9456660     
  -10525645.5887577     
  -10520813.9930390     
  -10519964.7267870     
  -10526580.6392186     
  -10531148.0203168     
  -10553987.7498224     
