# vtk DataFile Version 3.0
vtk output
ASCII
DATASET UNSTRUCTURED_GRID
POINTS      5151 double 
  0.00000000E+00  0.00000000E+00  0.00000000E+00
  1.00000000E+01  0.00000000E+00  0.00000000E+00
  2.00000000E+01  0.00000000E+00  0.00000000E+00
  3.00000000E+01  0.00000000E+00  0.00000000E+00
  4.00000000E+01  0.00000000E+00  0.00000000E+00
  5.00000000E+01  0.00000000E+00  0.00000000E+00
  6.00000000E+01  0.00000000E+00  0.00000000E+00
  7.00000000E+01  0.00000000E+00  0.00000000E+00
  8.00000000E+01  0.00000000E+00  0.00000000E+00
  9.00000000E+01  0.00000000E+00  0.00000000E+00
  1.00000000E+02  0.00000000E+00  0.00000000E+00
  1.10000000E+02  0.00000000E+00  0.00000000E+00
  1.20000000E+02  0.00000000E+00  0.00000000E+00
  1.30000000E+02  0.00000000E+00  0.00000000E+00
  1.40000000E+02  0.00000000E+00  0.00000000E+00
  1.50000000E+02  0.00000000E+00  0.00000000E+00
  1.60000000E+02  0.00000000E+00  0.00000000E+00
  1.70000000E+02  0.00000000E+00  0.00000000E+00
  1.80000000E+02  0.00000000E+00  0.00000000E+00
  1.90000000E+02  0.00000000E+00  0.00000000E+00
  2.00000000E+02  0.00000000E+00  0.00000000E+00
  2.10000000E+02  0.00000000E+00  0.00000000E+00
  2.20000000E+02  0.00000000E+00  0.00000000E+00
  2.30000000E+02  0.00000000E+00  0.00000000E+00
  2.40000000E+02  0.00000000E+00  0.00000000E+00
  2.50000000E+02  0.00000000E+00  0.00000000E+00
  2.60000000E+02  0.00000000E+00  0.00000000E+00
  2.70000000E+02  0.00000000E+00  0.00000000E+00
  2.80000000E+02  0.00000000E+00  0.00000000E+00
  2.90000000E+02  0.00000000E+00  0.00000000E+00
  3.00000000E+02  0.00000000E+00  0.00000000E+00
  3.10000000E+02  0.00000000E+00  0.00000000E+00
  3.20000000E+02  0.00000000E+00  0.00000000E+00
  3.30000000E+02  0.00000000E+00  0.00000000E+00
  3.40000000E+02  0.00000000E+00  0.00000000E+00
  3.50000000E+02  0.00000000E+00  0.00000000E+00
  3.60000000E+02  0.00000000E+00  0.00000000E+00
  3.70000000E+02  0.00000000E+00  0.00000000E+00
  3.80000000E+02  0.00000000E+00  0.00000000E+00
  3.90000000E+02  0.00000000E+00  0.00000000E+00
  4.00000000E+02  0.00000000E+00  0.00000000E+00
  4.10000000E+02  0.00000000E+00  0.00000000E+00
  4.20000000E+02  0.00000000E+00  0.00000000E+00
  4.30000000E+02  0.00000000E+00  0.00000000E+00
  4.40000000E+02  0.00000000E+00  0.00000000E+00
  4.50000000E+02  0.00000000E+00  0.00000000E+00
  4.60000000E+02  0.00000000E+00  0.00000000E+00
  4.70000000E+02  0.00000000E+00  0.00000000E+00
  4.80000000E+02  0.00000000E+00  0.00000000E+00
  4.90000000E+02  0.00000000E+00  0.00000000E+00
  5.00000000E+02  0.00000000E+00  0.00000000E+00
  5.10000000E+02  0.00000000E+00  0.00000000E+00
  5.20000000E+02  0.00000000E+00  0.00000000E+00
  5.30000000E+02  0.00000000E+00  0.00000000E+00
  5.40000000E+02  0.00000000E+00  0.00000000E+00
  5.50000000E+02  0.00000000E+00  0.00000000E+00
  5.60000000E+02  0.00000000E+00  0.00000000E+00
  5.70000000E+02  0.00000000E+00  0.00000000E+00
  5.80000000E+02  0.00000000E+00  0.00000000E+00
  5.90000000E+02  0.00000000E+00  0.00000000E+00
  6.00000000E+02  0.00000000E+00  0.00000000E+00
  6.10000000E+02  0.00000000E+00  0.00000000E+00
  6.20000000E+02  0.00000000E+00  0.00000000E+00
  6.30000000E+02  0.00000000E+00  0.00000000E+00
  6.40000000E+02  0.00000000E+00  0.00000000E+00
  6.50000000E+02  0.00000000E+00  0.00000000E+00
  6.60000000E+02  0.00000000E+00  0.00000000E+00
  6.70000000E+02  0.00000000E+00  0.00000000E+00
  6.80000000E+02  0.00000000E+00  0.00000000E+00
  6.90000000E+02  0.00000000E+00  0.00000000E+00
  7.00000000E+02  0.00000000E+00  0.00000000E+00
  7.10000000E+02  0.00000000E+00  0.00000000E+00
  7.20000000E+02  0.00000000E+00  0.00000000E+00
  7.30000000E+02  0.00000000E+00  0.00000000E+00
  7.40000000E+02  0.00000000E+00  0.00000000E+00
  7.50000000E+02  0.00000000E+00  0.00000000E+00
  7.60000000E+02  0.00000000E+00  0.00000000E+00
  7.70000000E+02  0.00000000E+00  0.00000000E+00
  7.80000000E+02  0.00000000E+00  0.00000000E+00
  7.90000000E+02  0.00000000E+00  0.00000000E+00
  8.00000000E+02  0.00000000E+00  0.00000000E+00
  8.10000000E+02  0.00000000E+00  0.00000000E+00
  8.20000000E+02  0.00000000E+00  0.00000000E+00
  8.30000000E+02  0.00000000E+00  0.00000000E+00
  8.40000000E+02  0.00000000E+00  0.00000000E+00
  8.50000000E+02  0.00000000E+00  0.00000000E+00
  8.60000000E+02  0.00000000E+00  0.00000000E+00
  8.70000000E+02  0.00000000E+00  0.00000000E+00
  8.80000000E+02  0.00000000E+00  0.00000000E+00
  8.90000000E+02  0.00000000E+00  0.00000000E+00
  9.00000000E+02  0.00000000E+00  0.00000000E+00
  9.10000000E+02  0.00000000E+00  0.00000000E+00
  9.20000000E+02  0.00000000E+00  0.00000000E+00
  9.30000000E+02  0.00000000E+00  0.00000000E+00
  9.40000000E+02  0.00000000E+00  0.00000000E+00
  9.50000000E+02  0.00000000E+00  0.00000000E+00
  9.60000000E+02  0.00000000E+00  0.00000000E+00
  9.70000000E+02  0.00000000E+00  0.00000000E+00
  9.80000000E+02  0.00000000E+00  0.00000000E+00
  9.90000000E+02  0.00000000E+00  0.00000000E+00
  1.00000000E+03  0.00000000E+00  0.00000000E+00
  0.00000000E+00  2.00000000E+00  0.00000000E+00
  1.00000000E+01  2.00000000E+00  0.00000000E+00
  2.00000000E+01  2.00000000E+00  0.00000000E+00
  3.00000000E+01  2.00000000E+00  0.00000000E+00
  4.00000000E+01  2.00000000E+00  0.00000000E+00
  5.00000000E+01  2.00000000E+00  0.00000000E+00
  6.00000000E+01  2.00000000E+00  0.00000000E+00
  7.00000000E+01  2.00000000E+00  0.00000000E+00
  8.00000000E+01  2.00000000E+00  0.00000000E+00
  9.00000000E+01  2.00000000E+00  0.00000000E+00
  1.00000000E+02  2.00000000E+00  0.00000000E+00
  1.10000000E+02  2.00000000E+00  0.00000000E+00
  1.20000000E+02  2.00000000E+00  0.00000000E+00
  1.30000000E+02  2.00000000E+00  0.00000000E+00
  1.40000000E+02  2.00000000E+00  0.00000000E+00
  1.50000000E+02  2.00000000E+00  0.00000000E+00
  1.60000000E+02  2.00000000E+00  0.00000000E+00
  1.70000000E+02  2.00000000E+00  0.00000000E+00
  1.80000000E+02  2.00000000E+00  0.00000000E+00
  1.90000000E+02  2.00000000E+00  0.00000000E+00
  2.00000000E+02  2.00000000E+00  0.00000000E+00
  2.10000000E+02  2.00000000E+00  0.00000000E+00
  2.20000000E+02  2.00000000E+00  0.00000000E+00
  2.30000000E+02  2.00000000E+00  0.00000000E+00
  2.40000000E+02  2.00000000E+00  0.00000000E+00
  2.50000000E+02  2.00000000E+00  0.00000000E+00
  2.60000000E+02  2.00000000E+00  0.00000000E+00
  2.70000000E+02  2.00000000E+00  0.00000000E+00
  2.80000000E+02  2.00000000E+00  0.00000000E+00
  2.90000000E+02  2.00000000E+00  0.00000000E+00
  3.00000000E+02  2.00000000E+00  0.00000000E+00
  3.10000000E+02  2.00000000E+00  0.00000000E+00
  3.20000000E+02  2.00000000E+00  0.00000000E+00
  3.30000000E+02  2.00000000E+00  0.00000000E+00
  3.40000000E+02  2.00000000E+00  0.00000000E+00
  3.50000000E+02  2.00000000E+00  0.00000000E+00
  3.60000000E+02  2.00000000E+00  0.00000000E+00
  3.70000000E+02  2.00000000E+00  0.00000000E+00
  3.80000000E+02  2.00000000E+00  0.00000000E+00
  3.90000000E+02  2.00000000E+00  0.00000000E+00
  4.00000000E+02  2.00000000E+00  0.00000000E+00
  4.10000000E+02  2.00000000E+00  0.00000000E+00
  4.20000000E+02  2.00000000E+00  0.00000000E+00
  4.30000000E+02  2.00000000E+00  0.00000000E+00
  4.40000000E+02  2.00000000E+00  0.00000000E+00
  4.50000000E+02  2.00000000E+00  0.00000000E+00
  4.60000000E+02  2.00000000E+00  0.00000000E+00
  4.70000000E+02  2.00000000E+00  0.00000000E+00
  4.80000000E+02  2.00000000E+00  0.00000000E+00
  4.90000000E+02  2.00000000E+00  0.00000000E+00
  5.00000000E+02  2.00000000E+00  0.00000000E+00
  5.10000000E+02  2.00000000E+00  0.00000000E+00
  5.20000000E+02  2.00000000E+00  0.00000000E+00
  5.30000000E+02  2.00000000E+00  0.00000000E+00
  5.40000000E+02  2.00000000E+00  0.00000000E+00
  5.50000000E+02  2.00000000E+00  0.00000000E+00
  5.60000000E+02  2.00000000E+00  0.00000000E+00
  5.70000000E+02  2.00000000E+00  0.00000000E+00
  5.80000000E+02  2.00000000E+00  0.00000000E+00
  5.90000000E+02  2.00000000E+00  0.00000000E+00
  6.00000000E+02  2.00000000E+00  0.00000000E+00
  6.10000000E+02  2.00000000E+00  0.00000000E+00
  6.20000000E+02  2.00000000E+00  0.00000000E+00
  6.30000000E+02  2.00000000E+00  0.00000000E+00
  6.40000000E+02  2.00000000E+00  0.00000000E+00
  6.50000000E+02  2.00000000E+00  0.00000000E+00
  6.60000000E+02  2.00000000E+00  0.00000000E+00
  6.70000000E+02  2.00000000E+00  0.00000000E+00
  6.80000000E+02  2.00000000E+00  0.00000000E+00
  6.90000000E+02  2.00000000E+00  0.00000000E+00
  7.00000000E+02  2.00000000E+00  0.00000000E+00
  7.10000000E+02  2.00000000E+00  0.00000000E+00
  7.20000000E+02  2.00000000E+00  0.00000000E+00
  7.30000000E+02  2.00000000E+00  0.00000000E+00
  7.40000000E+02  2.00000000E+00  0.00000000E+00
  7.50000000E+02  2.00000000E+00  0.00000000E+00
  7.60000000E+02  2.00000000E+00  0.00000000E+00
  7.70000000E+02  2.00000000E+00  0.00000000E+00
  7.80000000E+02  2.00000000E+00  0.00000000E+00
  7.90000000E+02  2.00000000E+00  0.00000000E+00
  8.00000000E+02  2.00000000E+00  0.00000000E+00
  8.10000000E+02  2.00000000E+00  0.00000000E+00
  8.20000000E+02  2.00000000E+00  0.00000000E+00
  8.30000000E+02  2.00000000E+00  0.00000000E+00
  8.40000000E+02  2.00000000E+00  0.00000000E+00
  8.50000000E+02  2.00000000E+00  0.00000000E+00
  8.60000000E+02  2.00000000E+00  0.00000000E+00
  8.70000000E+02  2.00000000E+00  0.00000000E+00
  8.80000000E+02  2.00000000E+00  0.00000000E+00
  8.90000000E+02  2.00000000E+00  0.00000000E+00
  9.00000000E+02  2.00000000E+00  0.00000000E+00
  9.10000000E+02  2.00000000E+00  0.00000000E+00
  9.20000000E+02  2.00000000E+00  0.00000000E+00
  9.30000000E+02  2.00000000E+00  0.00000000E+00
  9.40000000E+02  2.00000000E+00  0.00000000E+00
  9.50000000E+02  2.00000000E+00  0.00000000E+00
  9.60000000E+02  2.00000000E+00  0.00000000E+00
  9.70000000E+02  2.00000000E+00  0.00000000E+00
  9.80000000E+02  2.00000000E+00  0.00000000E+00
  9.90000000E+02  2.00000000E+00  0.00000000E+00
  1.00000000E+03  2.00000000E+00  0.00000000E+00
  0.00000000E+00  4.00000000E+00  0.00000000E+00
  1.00000000E+01  4.00000000E+00  0.00000000E+00
  2.00000000E+01  4.00000000E+00  0.00000000E+00
  3.00000000E+01  4.00000000E+00  0.00000000E+00
  4.00000000E+01  4.00000000E+00  0.00000000E+00
  5.00000000E+01  4.00000000E+00  0.00000000E+00
  6.00000000E+01  4.00000000E+00  0.00000000E+00
  7.00000000E+01  4.00000000E+00  0.00000000E+00
  8.00000000E+01  4.00000000E+00  0.00000000E+00
  9.00000000E+01  4.00000000E+00  0.00000000E+00
  1.00000000E+02  4.00000000E+00  0.00000000E+00
  1.10000000E+02  4.00000000E+00  0.00000000E+00
  1.20000000E+02  4.00000000E+00  0.00000000E+00
  1.30000000E+02  4.00000000E+00  0.00000000E+00
  1.40000000E+02  4.00000000E+00  0.00000000E+00
  1.50000000E+02  4.00000000E+00  0.00000000E+00
  1.60000000E+02  4.00000000E+00  0.00000000E+00
  1.70000000E+02  4.00000000E+00  0.00000000E+00
  1.80000000E+02  4.00000000E+00  0.00000000E+00
  1.90000000E+02  4.00000000E+00  0.00000000E+00
  2.00000000E+02  4.00000000E+00  0.00000000E+00
  2.10000000E+02  4.00000000E+00  0.00000000E+00
  2.20000000E+02  4.00000000E+00  0.00000000E+00
  2.30000000E+02  4.00000000E+00  0.00000000E+00
  2.40000000E+02  4.00000000E+00  0.00000000E+00
  2.50000000E+02  4.00000000E+00  0.00000000E+00
  2.60000000E+02  4.00000000E+00  0.00000000E+00
  2.70000000E+02  4.00000000E+00  0.00000000E+00
  2.80000000E+02  4.00000000E+00  0.00000000E+00
  2.90000000E+02  4.00000000E+00  0.00000000E+00
  3.00000000E+02  4.00000000E+00  0.00000000E+00
  3.10000000E+02  4.00000000E+00  0.00000000E+00
  3.20000000E+02  4.00000000E+00  0.00000000E+00
  3.30000000E+02  4.00000000E+00  0.00000000E+00
  3.40000000E+02  4.00000000E+00  0.00000000E+00
  3.50000000E+02  4.00000000E+00  0.00000000E+00
  3.60000000E+02  4.00000000E+00  0.00000000E+00
  3.70000000E+02  4.00000000E+00  0.00000000E+00
  3.80000000E+02  4.00000000E+00  0.00000000E+00
  3.90000000E+02  4.00000000E+00  0.00000000E+00
  4.00000000E+02  4.00000000E+00  0.00000000E+00
  4.10000000E+02  4.00000000E+00  0.00000000E+00
  4.20000000E+02  4.00000000E+00  0.00000000E+00
  4.30000000E+02  4.00000000E+00  0.00000000E+00
  4.40000000E+02  4.00000000E+00  0.00000000E+00
  4.50000000E+02  4.00000000E+00  0.00000000E+00
  4.60000000E+02  4.00000000E+00  0.00000000E+00
  4.70000000E+02  4.00000000E+00  0.00000000E+00
  4.80000000E+02  4.00000000E+00  0.00000000E+00
  4.90000000E+02  4.00000000E+00  0.00000000E+00
  5.00000000E+02  4.00000000E+00  0.00000000E+00
  5.10000000E+02  4.00000000E+00  0.00000000E+00
  5.20000000E+02  4.00000000E+00  0.00000000E+00
  5.30000000E+02  4.00000000E+00  0.00000000E+00
  5.40000000E+02  4.00000000E+00  0.00000000E+00
  5.50000000E+02  4.00000000E+00  0.00000000E+00
  5.60000000E+02  4.00000000E+00  0.00000000E+00
  5.70000000E+02  4.00000000E+00  0.00000000E+00
  5.80000000E+02  4.00000000E+00  0.00000000E+00
  5.90000000E+02  4.00000000E+00  0.00000000E+00
  6.00000000E+02  4.00000000E+00  0.00000000E+00
  6.10000000E+02  4.00000000E+00  0.00000000E+00
  6.20000000E+02  4.00000000E+00  0.00000000E+00
  6.30000000E+02  4.00000000E+00  0.00000000E+00
  6.40000000E+02  4.00000000E+00  0.00000000E+00
  6.50000000E+02  4.00000000E+00  0.00000000E+00
  6.60000000E+02  4.00000000E+00  0.00000000E+00
  6.70000000E+02  4.00000000E+00  0.00000000E+00
  6.80000000E+02  4.00000000E+00  0.00000000E+00
  6.90000000E+02  4.00000000E+00  0.00000000E+00
  7.00000000E+02  4.00000000E+00  0.00000000E+00
  7.10000000E+02  4.00000000E+00  0.00000000E+00
  7.20000000E+02  4.00000000E+00  0.00000000E+00
  7.30000000E+02  4.00000000E+00  0.00000000E+00
  7.40000000E+02  4.00000000E+00  0.00000000E+00
  7.50000000E+02  4.00000000E+00  0.00000000E+00
  7.60000000E+02  4.00000000E+00  0.00000000E+00
  7.70000000E+02  4.00000000E+00  0.00000000E+00
  7.80000000E+02  4.00000000E+00  0.00000000E+00
  7.90000000E+02  4.00000000E+00  0.00000000E+00
  8.00000000E+02  4.00000000E+00  0.00000000E+00
  8.10000000E+02  4.00000000E+00  0.00000000E+00
  8.20000000E+02  4.00000000E+00  0.00000000E+00
  8.30000000E+02  4.00000000E+00  0.00000000E+00
  8.40000000E+02  4.00000000E+00  0.00000000E+00
  8.50000000E+02  4.00000000E+00  0.00000000E+00
  8.60000000E+02  4.00000000E+00  0.00000000E+00
  8.70000000E+02  4.00000000E+00  0.00000000E+00
  8.80000000E+02  4.00000000E+00  0.00000000E+00
  8.90000000E+02  4.00000000E+00  0.00000000E+00
  9.00000000E+02  4.00000000E+00  0.00000000E+00
  9.10000000E+02  4.00000000E+00  0.00000000E+00
  9.20000000E+02  4.00000000E+00  0.00000000E+00
  9.30000000E+02  4.00000000E+00  0.00000000E+00
  9.40000000E+02  4.00000000E+00  0.00000000E+00
  9.50000000E+02  4.00000000E+00  0.00000000E+00
  9.60000000E+02  4.00000000E+00  0.00000000E+00
  9.70000000E+02  4.00000000E+00  0.00000000E+00
  9.80000000E+02  4.00000000E+00  0.00000000E+00
  9.90000000E+02  4.00000000E+00  0.00000000E+00
  1.00000000E+03  4.00000000E+00  0.00000000E+00
  0.00000000E+00  6.00000000E+00  0.00000000E+00
  1.00000000E+01  6.00000000E+00  0.00000000E+00
  2.00000000E+01  6.00000000E+00  0.00000000E+00
  3.00000000E+01  6.00000000E+00  0.00000000E+00
  4.00000000E+01  6.00000000E+00  0.00000000E+00
  5.00000000E+01  6.00000000E+00  0.00000000E+00
  6.00000000E+01  6.00000000E+00  0.00000000E+00
  7.00000000E+01  6.00000000E+00  0.00000000E+00
  8.00000000E+01  6.00000000E+00  0.00000000E+00
  9.00000000E+01  6.00000000E+00  0.00000000E+00
  1.00000000E+02  6.00000000E+00  0.00000000E+00
  1.10000000E+02  6.00000000E+00  0.00000000E+00
  1.20000000E+02  6.00000000E+00  0.00000000E+00
  1.30000000E+02  6.00000000E+00  0.00000000E+00
  1.40000000E+02  6.00000000E+00  0.00000000E+00
  1.50000000E+02  6.00000000E+00  0.00000000E+00
  1.60000000E+02  6.00000000E+00  0.00000000E+00
  1.70000000E+02  6.00000000E+00  0.00000000E+00
  1.80000000E+02  6.00000000E+00  0.00000000E+00
  1.90000000E+02  6.00000000E+00  0.00000000E+00
  2.00000000E+02  6.00000000E+00  0.00000000E+00
  2.10000000E+02  6.00000000E+00  0.00000000E+00
  2.20000000E+02  6.00000000E+00  0.00000000E+00
  2.30000000E+02  6.00000000E+00  0.00000000E+00
  2.40000000E+02  6.00000000E+00  0.00000000E+00
  2.50000000E+02  6.00000000E+00  0.00000000E+00
  2.60000000E+02  6.00000000E+00  0.00000000E+00
  2.70000000E+02  6.00000000E+00  0.00000000E+00
  2.80000000E+02  6.00000000E+00  0.00000000E+00
  2.90000000E+02  6.00000000E+00  0.00000000E+00
  3.00000000E+02  6.00000000E+00  0.00000000E+00
  3.10000000E+02  6.00000000E+00  0.00000000E+00
  3.20000000E+02  6.00000000E+00  0.00000000E+00
  3.30000000E+02  6.00000000E+00  0.00000000E+00
  3.40000000E+02  6.00000000E+00  0.00000000E+00
  3.50000000E+02  6.00000000E+00  0.00000000E+00
  3.60000000E+02  6.00000000E+00  0.00000000E+00
  3.70000000E+02  6.00000000E+00  0.00000000E+00
  3.80000000E+02  6.00000000E+00  0.00000000E+00
  3.90000000E+02  6.00000000E+00  0.00000000E+00
  4.00000000E+02  6.00000000E+00  0.00000000E+00
  4.10000000E+02  6.00000000E+00  0.00000000E+00
  4.20000000E+02  6.00000000E+00  0.00000000E+00
  4.30000000E+02  6.00000000E+00  0.00000000E+00
  4.40000000E+02  6.00000000E+00  0.00000000E+00
  4.50000000E+02  6.00000000E+00  0.00000000E+00
  4.60000000E+02  6.00000000E+00  0.00000000E+00
  4.70000000E+02  6.00000000E+00  0.00000000E+00
  4.80000000E+02  6.00000000E+00  0.00000000E+00
  4.90000000E+02  6.00000000E+00  0.00000000E+00
  5.00000000E+02  6.00000000E+00  0.00000000E+00
  5.10000000E+02  6.00000000E+00  0.00000000E+00
  5.20000000E+02  6.00000000E+00  0.00000000E+00
  5.30000000E+02  6.00000000E+00  0.00000000E+00
  5.40000000E+02  6.00000000E+00  0.00000000E+00
  5.50000000E+02  6.00000000E+00  0.00000000E+00
  5.60000000E+02  6.00000000E+00  0.00000000E+00
  5.70000000E+02  6.00000000E+00  0.00000000E+00
  5.80000000E+02  6.00000000E+00  0.00000000E+00
  5.90000000E+02  6.00000000E+00  0.00000000E+00
  6.00000000E+02  6.00000000E+00  0.00000000E+00
  6.10000000E+02  6.00000000E+00  0.00000000E+00
  6.20000000E+02  6.00000000E+00  0.00000000E+00
  6.30000000E+02  6.00000000E+00  0.00000000E+00
  6.40000000E+02  6.00000000E+00  0.00000000E+00
  6.50000000E+02  6.00000000E+00  0.00000000E+00
  6.60000000E+02  6.00000000E+00  0.00000000E+00
  6.70000000E+02  6.00000000E+00  0.00000000E+00
  6.80000000E+02  6.00000000E+00  0.00000000E+00
  6.90000000E+02  6.00000000E+00  0.00000000E+00
  7.00000000E+02  6.00000000E+00  0.00000000E+00
  7.10000000E+02  6.00000000E+00  0.00000000E+00
  7.20000000E+02  6.00000000E+00  0.00000000E+00
  7.30000000E+02  6.00000000E+00  0.00000000E+00
  7.40000000E+02  6.00000000E+00  0.00000000E+00
  7.50000000E+02  6.00000000E+00  0.00000000E+00
  7.60000000E+02  6.00000000E+00  0.00000000E+00
  7.70000000E+02  6.00000000E+00  0.00000000E+00
  7.80000000E+02  6.00000000E+00  0.00000000E+00
  7.90000000E+02  6.00000000E+00  0.00000000E+00
  8.00000000E+02  6.00000000E+00  0.00000000E+00
  8.10000000E+02  6.00000000E+00  0.00000000E+00
  8.20000000E+02  6.00000000E+00  0.00000000E+00
  8.30000000E+02  6.00000000E+00  0.00000000E+00
  8.40000000E+02  6.00000000E+00  0.00000000E+00
  8.50000000E+02  6.00000000E+00  0.00000000E+00
  8.60000000E+02  6.00000000E+00  0.00000000E+00
  8.70000000E+02  6.00000000E+00  0.00000000E+00
  8.80000000E+02  6.00000000E+00  0.00000000E+00
  8.90000000E+02  6.00000000E+00  0.00000000E+00
  9.00000000E+02  6.00000000E+00  0.00000000E+00
  9.10000000E+02  6.00000000E+00  0.00000000E+00
  9.20000000E+02  6.00000000E+00  0.00000000E+00
  9.30000000E+02  6.00000000E+00  0.00000000E+00
  9.40000000E+02  6.00000000E+00  0.00000000E+00
  9.50000000E+02  6.00000000E+00  0.00000000E+00
  9.60000000E+02  6.00000000E+00  0.00000000E+00
  9.70000000E+02  6.00000000E+00  0.00000000E+00
  9.80000000E+02  6.00000000E+00  0.00000000E+00
  9.90000000E+02  6.00000000E+00  0.00000000E+00
  1.00000000E+03  6.00000000E+00  0.00000000E+00
  0.00000000E+00  8.00000000E+00  0.00000000E+00
  1.00000000E+01  8.00000000E+00  0.00000000E+00
  2.00000000E+01  8.00000000E+00  0.00000000E+00
  3.00000000E+01  8.00000000E+00  0.00000000E+00
  4.00000000E+01  8.00000000E+00  0.00000000E+00
  5.00000000E+01  8.00000000E+00  0.00000000E+00
  6.00000000E+01  8.00000000E+00  0.00000000E+00
  7.00000000E+01  8.00000000E+00  0.00000000E+00
  8.00000000E+01  8.00000000E+00  0.00000000E+00
  9.00000000E+01  8.00000000E+00  0.00000000E+00
  1.00000000E+02  8.00000000E+00  0.00000000E+00
  1.10000000E+02  8.00000000E+00  0.00000000E+00
  1.20000000E+02  8.00000000E+00  0.00000000E+00
  1.30000000E+02  8.00000000E+00  0.00000000E+00
  1.40000000E+02  8.00000000E+00  0.00000000E+00
  1.50000000E+02  8.00000000E+00  0.00000000E+00
  1.60000000E+02  8.00000000E+00  0.00000000E+00
  1.70000000E+02  8.00000000E+00  0.00000000E+00
  1.80000000E+02  8.00000000E+00  0.00000000E+00
  1.90000000E+02  8.00000000E+00  0.00000000E+00
  2.00000000E+02  8.00000000E+00  0.00000000E+00
  2.10000000E+02  8.00000000E+00  0.00000000E+00
  2.20000000E+02  8.00000000E+00  0.00000000E+00
  2.30000000E+02  8.00000000E+00  0.00000000E+00
  2.40000000E+02  8.00000000E+00  0.00000000E+00
  2.50000000E+02  8.00000000E+00  0.00000000E+00
  2.60000000E+02  8.00000000E+00  0.00000000E+00
  2.70000000E+02  8.00000000E+00  0.00000000E+00
  2.80000000E+02  8.00000000E+00  0.00000000E+00
  2.90000000E+02  8.00000000E+00  0.00000000E+00
  3.00000000E+02  8.00000000E+00  0.00000000E+00
  3.10000000E+02  8.00000000E+00  0.00000000E+00
  3.20000000E+02  8.00000000E+00  0.00000000E+00
  3.30000000E+02  8.00000000E+00  0.00000000E+00
  3.40000000E+02  8.00000000E+00  0.00000000E+00
  3.50000000E+02  8.00000000E+00  0.00000000E+00
  3.60000000E+02  8.00000000E+00  0.00000000E+00
  3.70000000E+02  8.00000000E+00  0.00000000E+00
  3.80000000E+02  8.00000000E+00  0.00000000E+00
  3.90000000E+02  8.00000000E+00  0.00000000E+00
  4.00000000E+02  8.00000000E+00  0.00000000E+00
  4.10000000E+02  8.00000000E+00  0.00000000E+00
  4.20000000E+02  8.00000000E+00  0.00000000E+00
  4.30000000E+02  8.00000000E+00  0.00000000E+00
  4.40000000E+02  8.00000000E+00  0.00000000E+00
  4.50000000E+02  8.00000000E+00  0.00000000E+00
  4.60000000E+02  8.00000000E+00  0.00000000E+00
  4.70000000E+02  8.00000000E+00  0.00000000E+00
  4.80000000E+02  8.00000000E+00  0.00000000E+00
  4.90000000E+02  8.00000000E+00  0.00000000E+00
  5.00000000E+02  8.00000000E+00  0.00000000E+00
  5.10000000E+02  8.00000000E+00  0.00000000E+00
  5.20000000E+02  8.00000000E+00  0.00000000E+00
  5.30000000E+02  8.00000000E+00  0.00000000E+00
  5.40000000E+02  8.00000000E+00  0.00000000E+00
  5.50000000E+02  8.00000000E+00  0.00000000E+00
  5.60000000E+02  8.00000000E+00  0.00000000E+00
  5.70000000E+02  8.00000000E+00  0.00000000E+00
  5.80000000E+02  8.00000000E+00  0.00000000E+00
  5.90000000E+02  8.00000000E+00  0.00000000E+00
  6.00000000E+02  8.00000000E+00  0.00000000E+00
  6.10000000E+02  8.00000000E+00  0.00000000E+00
  6.20000000E+02  8.00000000E+00  0.00000000E+00
  6.30000000E+02  8.00000000E+00  0.00000000E+00
  6.40000000E+02  8.00000000E+00  0.00000000E+00
  6.50000000E+02  8.00000000E+00  0.00000000E+00
  6.60000000E+02  8.00000000E+00  0.00000000E+00
  6.70000000E+02  8.00000000E+00  0.00000000E+00
  6.80000000E+02  8.00000000E+00  0.00000000E+00
  6.90000000E+02  8.00000000E+00  0.00000000E+00
  7.00000000E+02  8.00000000E+00  0.00000000E+00
  7.10000000E+02  8.00000000E+00  0.00000000E+00
  7.20000000E+02  8.00000000E+00  0.00000000E+00
  7.30000000E+02  8.00000000E+00  0.00000000E+00
  7.40000000E+02  8.00000000E+00  0.00000000E+00
  7.50000000E+02  8.00000000E+00  0.00000000E+00
  7.60000000E+02  8.00000000E+00  0.00000000E+00
  7.70000000E+02  8.00000000E+00  0.00000000E+00
  7.80000000E+02  8.00000000E+00  0.00000000E+00
  7.90000000E+02  8.00000000E+00  0.00000000E+00
  8.00000000E+02  8.00000000E+00  0.00000000E+00
  8.10000000E+02  8.00000000E+00  0.00000000E+00
  8.20000000E+02  8.00000000E+00  0.00000000E+00
  8.30000000E+02  8.00000000E+00  0.00000000E+00
  8.40000000E+02  8.00000000E+00  0.00000000E+00
  8.50000000E+02  8.00000000E+00  0.00000000E+00
  8.60000000E+02  8.00000000E+00  0.00000000E+00
  8.70000000E+02  8.00000000E+00  0.00000000E+00
  8.80000000E+02  8.00000000E+00  0.00000000E+00
  8.90000000E+02  8.00000000E+00  0.00000000E+00
  9.00000000E+02  8.00000000E+00  0.00000000E+00
  9.10000000E+02  8.00000000E+00  0.00000000E+00
  9.20000000E+02  8.00000000E+00  0.00000000E+00
  9.30000000E+02  8.00000000E+00  0.00000000E+00
  9.40000000E+02  8.00000000E+00  0.00000000E+00
  9.50000000E+02  8.00000000E+00  0.00000000E+00
  9.60000000E+02  8.00000000E+00  0.00000000E+00
  9.70000000E+02  8.00000000E+00  0.00000000E+00
  9.80000000E+02  8.00000000E+00  0.00000000E+00
  9.90000000E+02  8.00000000E+00  0.00000000E+00
  1.00000000E+03  8.00000000E+00  0.00000000E+00
  0.00000000E+00  1.00000000E+01  0.00000000E+00
  1.00000000E+01  1.00000000E+01  0.00000000E+00
  2.00000000E+01  1.00000000E+01  0.00000000E+00
  3.00000000E+01  1.00000000E+01  0.00000000E+00
  4.00000000E+01  1.00000000E+01  0.00000000E+00
  5.00000000E+01  1.00000000E+01  0.00000000E+00
  6.00000000E+01  1.00000000E+01  0.00000000E+00
  7.00000000E+01  1.00000000E+01  0.00000000E+00
  8.00000000E+01  1.00000000E+01  0.00000000E+00
  9.00000000E+01  1.00000000E+01  0.00000000E+00
  1.00000000E+02  1.00000000E+01  0.00000000E+00
  1.10000000E+02  1.00000000E+01  0.00000000E+00
  1.20000000E+02  1.00000000E+01  0.00000000E+00
  1.30000000E+02  1.00000000E+01  0.00000000E+00
  1.40000000E+02  1.00000000E+01  0.00000000E+00
  1.50000000E+02  1.00000000E+01  0.00000000E+00
  1.60000000E+02  1.00000000E+01  0.00000000E+00
  1.70000000E+02  1.00000000E+01  0.00000000E+00
  1.80000000E+02  1.00000000E+01  0.00000000E+00
  1.90000000E+02  1.00000000E+01  0.00000000E+00
  2.00000000E+02  1.00000000E+01  0.00000000E+00
  2.10000000E+02  1.00000000E+01  0.00000000E+00
  2.20000000E+02  1.00000000E+01  0.00000000E+00
  2.30000000E+02  1.00000000E+01  0.00000000E+00
  2.40000000E+02  1.00000000E+01  0.00000000E+00
  2.50000000E+02  1.00000000E+01  0.00000000E+00
  2.60000000E+02  1.00000000E+01  0.00000000E+00
  2.70000000E+02  1.00000000E+01  0.00000000E+00
  2.80000000E+02  1.00000000E+01  0.00000000E+00
  2.90000000E+02  1.00000000E+01  0.00000000E+00
  3.00000000E+02  1.00000000E+01  0.00000000E+00
  3.10000000E+02  1.00000000E+01  0.00000000E+00
  3.20000000E+02  1.00000000E+01  0.00000000E+00
  3.30000000E+02  1.00000000E+01  0.00000000E+00
  3.40000000E+02  1.00000000E+01  0.00000000E+00
  3.50000000E+02  1.00000000E+01  0.00000000E+00
  3.60000000E+02  1.00000000E+01  0.00000000E+00
  3.70000000E+02  1.00000000E+01  0.00000000E+00
  3.80000000E+02  1.00000000E+01  0.00000000E+00
  3.90000000E+02  1.00000000E+01  0.00000000E+00
  4.00000000E+02  1.00000000E+01  0.00000000E+00
  4.10000000E+02  1.00000000E+01  0.00000000E+00
  4.20000000E+02  1.00000000E+01  0.00000000E+00
  4.30000000E+02  1.00000000E+01  0.00000000E+00
  4.40000000E+02  1.00000000E+01  0.00000000E+00
  4.50000000E+02  1.00000000E+01  0.00000000E+00
  4.60000000E+02  1.00000000E+01  0.00000000E+00
  4.70000000E+02  1.00000000E+01  0.00000000E+00
  4.80000000E+02  1.00000000E+01  0.00000000E+00
  4.90000000E+02  1.00000000E+01  0.00000000E+00
  5.00000000E+02  1.00000000E+01  0.00000000E+00
  5.10000000E+02  1.00000000E+01  0.00000000E+00
  5.20000000E+02  1.00000000E+01  0.00000000E+00
  5.30000000E+02  1.00000000E+01  0.00000000E+00
  5.40000000E+02  1.00000000E+01  0.00000000E+00
  5.50000000E+02  1.00000000E+01  0.00000000E+00
  5.60000000E+02  1.00000000E+01  0.00000000E+00
  5.70000000E+02  1.00000000E+01  0.00000000E+00
  5.80000000E+02  1.00000000E+01  0.00000000E+00
  5.90000000E+02  1.00000000E+01  0.00000000E+00
  6.00000000E+02  1.00000000E+01  0.00000000E+00
  6.10000000E+02  1.00000000E+01  0.00000000E+00
  6.20000000E+02  1.00000000E+01  0.00000000E+00
  6.30000000E+02  1.00000000E+01  0.00000000E+00
  6.40000000E+02  1.00000000E+01  0.00000000E+00
  6.50000000E+02  1.00000000E+01  0.00000000E+00
  6.60000000E+02  1.00000000E+01  0.00000000E+00
  6.70000000E+02  1.00000000E+01  0.00000000E+00
  6.80000000E+02  1.00000000E+01  0.00000000E+00
  6.90000000E+02  1.00000000E+01  0.00000000E+00
  7.00000000E+02  1.00000000E+01  0.00000000E+00
  7.10000000E+02  1.00000000E+01  0.00000000E+00
  7.20000000E+02  1.00000000E+01  0.00000000E+00
  7.30000000E+02  1.00000000E+01  0.00000000E+00
  7.40000000E+02  1.00000000E+01  0.00000000E+00
  7.50000000E+02  1.00000000E+01  0.00000000E+00
  7.60000000E+02  1.00000000E+01  0.00000000E+00
  7.70000000E+02  1.00000000E+01  0.00000000E+00
  7.80000000E+02  1.00000000E+01  0.00000000E+00
  7.90000000E+02  1.00000000E+01  0.00000000E+00
  8.00000000E+02  1.00000000E+01  0.00000000E+00
  8.10000000E+02  1.00000000E+01  0.00000000E+00
  8.20000000E+02  1.00000000E+01  0.00000000E+00
  8.30000000E+02  1.00000000E+01  0.00000000E+00
  8.40000000E+02  1.00000000E+01  0.00000000E+00
  8.50000000E+02  1.00000000E+01  0.00000000E+00
  8.60000000E+02  1.00000000E+01  0.00000000E+00
  8.70000000E+02  1.00000000E+01  0.00000000E+00
  8.80000000E+02  1.00000000E+01  0.00000000E+00
  8.90000000E+02  1.00000000E+01  0.00000000E+00
  9.00000000E+02  1.00000000E+01  0.00000000E+00
  9.10000000E+02  1.00000000E+01  0.00000000E+00
  9.20000000E+02  1.00000000E+01  0.00000000E+00
  9.30000000E+02  1.00000000E+01  0.00000000E+00
  9.40000000E+02  1.00000000E+01  0.00000000E+00
  9.50000000E+02  1.00000000E+01  0.00000000E+00
  9.60000000E+02  1.00000000E+01  0.00000000E+00
  9.70000000E+02  1.00000000E+01  0.00000000E+00
  9.80000000E+02  1.00000000E+01  0.00000000E+00
  9.90000000E+02  1.00000000E+01  0.00000000E+00
  1.00000000E+03  1.00000000E+01  0.00000000E+00
  0.00000000E+00  1.20000000E+01  0.00000000E+00
  1.00000000E+01  1.20000000E+01  0.00000000E+00
  2.00000000E+01  1.20000000E+01  0.00000000E+00
  3.00000000E+01  1.20000000E+01  0.00000000E+00
  4.00000000E+01  1.20000000E+01  0.00000000E+00
  5.00000000E+01  1.20000000E+01  0.00000000E+00
  6.00000000E+01  1.20000000E+01  0.00000000E+00
  7.00000000E+01  1.20000000E+01  0.00000000E+00
  8.00000000E+01  1.20000000E+01  0.00000000E+00
  9.00000000E+01  1.20000000E+01  0.00000000E+00
  1.00000000E+02  1.20000000E+01  0.00000000E+00
  1.10000000E+02  1.20000000E+01  0.00000000E+00
  1.20000000E+02  1.20000000E+01  0.00000000E+00
  1.30000000E+02  1.20000000E+01  0.00000000E+00
  1.40000000E+02  1.20000000E+01  0.00000000E+00
  1.50000000E+02  1.20000000E+01  0.00000000E+00
  1.60000000E+02  1.20000000E+01  0.00000000E+00
  1.70000000E+02  1.20000000E+01  0.00000000E+00
  1.80000000E+02  1.20000000E+01  0.00000000E+00
  1.90000000E+02  1.20000000E+01  0.00000000E+00
  2.00000000E+02  1.20000000E+01  0.00000000E+00
  2.10000000E+02  1.20000000E+01  0.00000000E+00
  2.20000000E+02  1.20000000E+01  0.00000000E+00
  2.30000000E+02  1.20000000E+01  0.00000000E+00
  2.40000000E+02  1.20000000E+01  0.00000000E+00
  2.50000000E+02  1.20000000E+01  0.00000000E+00
  2.60000000E+02  1.20000000E+01  0.00000000E+00
  2.70000000E+02  1.20000000E+01  0.00000000E+00
  2.80000000E+02  1.20000000E+01  0.00000000E+00
  2.90000000E+02  1.20000000E+01  0.00000000E+00
  3.00000000E+02  1.20000000E+01  0.00000000E+00
  3.10000000E+02  1.20000000E+01  0.00000000E+00
  3.20000000E+02  1.20000000E+01  0.00000000E+00
  3.30000000E+02  1.20000000E+01  0.00000000E+00
  3.40000000E+02  1.20000000E+01  0.00000000E+00
  3.50000000E+02  1.20000000E+01  0.00000000E+00
  3.60000000E+02  1.20000000E+01  0.00000000E+00
  3.70000000E+02  1.20000000E+01  0.00000000E+00
  3.80000000E+02  1.20000000E+01  0.00000000E+00
  3.90000000E+02  1.20000000E+01  0.00000000E+00
  4.00000000E+02  1.20000000E+01  0.00000000E+00
  4.10000000E+02  1.20000000E+01  0.00000000E+00
  4.20000000E+02  1.20000000E+01  0.00000000E+00
  4.30000000E+02  1.20000000E+01  0.00000000E+00
  4.40000000E+02  1.20000000E+01  0.00000000E+00
  4.50000000E+02  1.20000000E+01  0.00000000E+00
  4.60000000E+02  1.20000000E+01  0.00000000E+00
  4.70000000E+02  1.20000000E+01  0.00000000E+00
  4.80000000E+02  1.20000000E+01  0.00000000E+00
  4.90000000E+02  1.20000000E+01  0.00000000E+00
  5.00000000E+02  1.20000000E+01  0.00000000E+00
  5.10000000E+02  1.20000000E+01  0.00000000E+00
  5.20000000E+02  1.20000000E+01  0.00000000E+00
  5.30000000E+02  1.20000000E+01  0.00000000E+00
  5.40000000E+02  1.20000000E+01  0.00000000E+00
  5.50000000E+02  1.20000000E+01  0.00000000E+00
  5.60000000E+02  1.20000000E+01  0.00000000E+00
  5.70000000E+02  1.20000000E+01  0.00000000E+00
  5.80000000E+02  1.20000000E+01  0.00000000E+00
  5.90000000E+02  1.20000000E+01  0.00000000E+00
  6.00000000E+02  1.20000000E+01  0.00000000E+00
  6.10000000E+02  1.20000000E+01  0.00000000E+00
  6.20000000E+02  1.20000000E+01  0.00000000E+00
  6.30000000E+02  1.20000000E+01  0.00000000E+00
  6.40000000E+02  1.20000000E+01  0.00000000E+00
  6.50000000E+02  1.20000000E+01  0.00000000E+00
  6.60000000E+02  1.20000000E+01  0.00000000E+00
  6.70000000E+02  1.20000000E+01  0.00000000E+00
  6.80000000E+02  1.20000000E+01  0.00000000E+00
  6.90000000E+02  1.20000000E+01  0.00000000E+00
  7.00000000E+02  1.20000000E+01  0.00000000E+00
  7.10000000E+02  1.20000000E+01  0.00000000E+00
  7.20000000E+02  1.20000000E+01  0.00000000E+00
  7.30000000E+02  1.20000000E+01  0.00000000E+00
  7.40000000E+02  1.20000000E+01  0.00000000E+00
  7.50000000E+02  1.20000000E+01  0.00000000E+00
  7.60000000E+02  1.20000000E+01  0.00000000E+00
  7.70000000E+02  1.20000000E+01  0.00000000E+00
  7.80000000E+02  1.20000000E+01  0.00000000E+00
  7.90000000E+02  1.20000000E+01  0.00000000E+00
  8.00000000E+02  1.20000000E+01  0.00000000E+00
  8.10000000E+02  1.20000000E+01  0.00000000E+00
  8.20000000E+02  1.20000000E+01  0.00000000E+00
  8.30000000E+02  1.20000000E+01  0.00000000E+00
  8.40000000E+02  1.20000000E+01  0.00000000E+00
  8.50000000E+02  1.20000000E+01  0.00000000E+00
  8.60000000E+02  1.20000000E+01  0.00000000E+00
  8.70000000E+02  1.20000000E+01  0.00000000E+00
  8.80000000E+02  1.20000000E+01  0.00000000E+00
  8.90000000E+02  1.20000000E+01  0.00000000E+00
  9.00000000E+02  1.20000000E+01  0.00000000E+00
  9.10000000E+02  1.20000000E+01  0.00000000E+00
  9.20000000E+02  1.20000000E+01  0.00000000E+00
  9.30000000E+02  1.20000000E+01  0.00000000E+00
  9.40000000E+02  1.20000000E+01  0.00000000E+00
  9.50000000E+02  1.20000000E+01  0.00000000E+00
  9.60000000E+02  1.20000000E+01  0.00000000E+00
  9.70000000E+02  1.20000000E+01  0.00000000E+00
  9.80000000E+02  1.20000000E+01  0.00000000E+00
  9.90000000E+02  1.20000000E+01  0.00000000E+00
  1.00000000E+03  1.20000000E+01  0.00000000E+00
  0.00000000E+00  1.40000000E+01  0.00000000E+00
  1.00000000E+01  1.40000000E+01  0.00000000E+00
  2.00000000E+01  1.40000000E+01  0.00000000E+00
  3.00000000E+01  1.40000000E+01  0.00000000E+00
  4.00000000E+01  1.40000000E+01  0.00000000E+00
  5.00000000E+01  1.40000000E+01  0.00000000E+00
  6.00000000E+01  1.40000000E+01  0.00000000E+00
  7.00000000E+01  1.40000000E+01  0.00000000E+00
  8.00000000E+01  1.40000000E+01  0.00000000E+00
  9.00000000E+01  1.40000000E+01  0.00000000E+00
  1.00000000E+02  1.40000000E+01  0.00000000E+00
  1.10000000E+02  1.40000000E+01  0.00000000E+00
  1.20000000E+02  1.40000000E+01  0.00000000E+00
  1.30000000E+02  1.40000000E+01  0.00000000E+00
  1.40000000E+02  1.40000000E+01  0.00000000E+00
  1.50000000E+02  1.40000000E+01  0.00000000E+00
  1.60000000E+02  1.40000000E+01  0.00000000E+00
  1.70000000E+02  1.40000000E+01  0.00000000E+00
  1.80000000E+02  1.40000000E+01  0.00000000E+00
  1.90000000E+02  1.40000000E+01  0.00000000E+00
  2.00000000E+02  1.40000000E+01  0.00000000E+00
  2.10000000E+02  1.40000000E+01  0.00000000E+00
  2.20000000E+02  1.40000000E+01  0.00000000E+00
  2.30000000E+02  1.40000000E+01  0.00000000E+00
  2.40000000E+02  1.40000000E+01  0.00000000E+00
  2.50000000E+02  1.40000000E+01  0.00000000E+00
  2.60000000E+02  1.40000000E+01  0.00000000E+00
  2.70000000E+02  1.40000000E+01  0.00000000E+00
  2.80000000E+02  1.40000000E+01  0.00000000E+00
  2.90000000E+02  1.40000000E+01  0.00000000E+00
  3.00000000E+02  1.40000000E+01  0.00000000E+00
  3.10000000E+02  1.40000000E+01  0.00000000E+00
  3.20000000E+02  1.40000000E+01  0.00000000E+00
  3.30000000E+02  1.40000000E+01  0.00000000E+00
  3.40000000E+02  1.40000000E+01  0.00000000E+00
  3.50000000E+02  1.40000000E+01  0.00000000E+00
  3.60000000E+02  1.40000000E+01  0.00000000E+00
  3.70000000E+02  1.40000000E+01  0.00000000E+00
  3.80000000E+02  1.40000000E+01  0.00000000E+00
  3.90000000E+02  1.40000000E+01  0.00000000E+00
  4.00000000E+02  1.40000000E+01  0.00000000E+00
  4.10000000E+02  1.40000000E+01  0.00000000E+00
  4.20000000E+02  1.40000000E+01  0.00000000E+00
  4.30000000E+02  1.40000000E+01  0.00000000E+00
  4.40000000E+02  1.40000000E+01  0.00000000E+00
  4.50000000E+02  1.40000000E+01  0.00000000E+00
  4.60000000E+02  1.40000000E+01  0.00000000E+00
  4.70000000E+02  1.40000000E+01  0.00000000E+00
  4.80000000E+02  1.40000000E+01  0.00000000E+00
  4.90000000E+02  1.40000000E+01  0.00000000E+00
  5.00000000E+02  1.40000000E+01  0.00000000E+00
  5.10000000E+02  1.40000000E+01  0.00000000E+00
  5.20000000E+02  1.40000000E+01  0.00000000E+00
  5.30000000E+02  1.40000000E+01  0.00000000E+00
  5.40000000E+02  1.40000000E+01  0.00000000E+00
  5.50000000E+02  1.40000000E+01  0.00000000E+00
  5.60000000E+02  1.40000000E+01  0.00000000E+00
  5.70000000E+02  1.40000000E+01  0.00000000E+00
  5.80000000E+02  1.40000000E+01  0.00000000E+00
  5.90000000E+02  1.40000000E+01  0.00000000E+00
  6.00000000E+02  1.40000000E+01  0.00000000E+00
  6.10000000E+02  1.40000000E+01  0.00000000E+00
  6.20000000E+02  1.40000000E+01  0.00000000E+00
  6.30000000E+02  1.40000000E+01  0.00000000E+00
  6.40000000E+02  1.40000000E+01  0.00000000E+00
  6.50000000E+02  1.40000000E+01  0.00000000E+00
  6.60000000E+02  1.40000000E+01  0.00000000E+00
  6.70000000E+02  1.40000000E+01  0.00000000E+00
  6.80000000E+02  1.40000000E+01  0.00000000E+00
  6.90000000E+02  1.40000000E+01  0.00000000E+00
  7.00000000E+02  1.40000000E+01  0.00000000E+00
  7.10000000E+02  1.40000000E+01  0.00000000E+00
  7.20000000E+02  1.40000000E+01  0.00000000E+00
  7.30000000E+02  1.40000000E+01  0.00000000E+00
  7.40000000E+02  1.40000000E+01  0.00000000E+00
  7.50000000E+02  1.40000000E+01  0.00000000E+00
  7.60000000E+02  1.40000000E+01  0.00000000E+00
  7.70000000E+02  1.40000000E+01  0.00000000E+00
  7.80000000E+02  1.40000000E+01  0.00000000E+00
  7.90000000E+02  1.40000000E+01  0.00000000E+00
  8.00000000E+02  1.40000000E+01  0.00000000E+00
  8.10000000E+02  1.40000000E+01  0.00000000E+00
  8.20000000E+02  1.40000000E+01  0.00000000E+00
  8.30000000E+02  1.40000000E+01  0.00000000E+00
  8.40000000E+02  1.40000000E+01  0.00000000E+00
  8.50000000E+02  1.40000000E+01  0.00000000E+00
  8.60000000E+02  1.40000000E+01  0.00000000E+00
  8.70000000E+02  1.40000000E+01  0.00000000E+00
  8.80000000E+02  1.40000000E+01  0.00000000E+00
  8.90000000E+02  1.40000000E+01  0.00000000E+00
  9.00000000E+02  1.40000000E+01  0.00000000E+00
  9.10000000E+02  1.40000000E+01  0.00000000E+00
  9.20000000E+02  1.40000000E+01  0.00000000E+00
  9.30000000E+02  1.40000000E+01  0.00000000E+00
  9.40000000E+02  1.40000000E+01  0.00000000E+00
  9.50000000E+02  1.40000000E+01  0.00000000E+00
  9.60000000E+02  1.40000000E+01  0.00000000E+00
  9.70000000E+02  1.40000000E+01  0.00000000E+00
  9.80000000E+02  1.40000000E+01  0.00000000E+00
  9.90000000E+02  1.40000000E+01  0.00000000E+00
  1.00000000E+03  1.40000000E+01  0.00000000E+00
  0.00000000E+00  1.60000000E+01  0.00000000E+00
  1.00000000E+01  1.60000000E+01  0.00000000E+00
  2.00000000E+01  1.60000000E+01  0.00000000E+00
  3.00000000E+01  1.60000000E+01  0.00000000E+00
  4.00000000E+01  1.60000000E+01  0.00000000E+00
  5.00000000E+01  1.60000000E+01  0.00000000E+00
  6.00000000E+01  1.60000000E+01  0.00000000E+00
  7.00000000E+01  1.60000000E+01  0.00000000E+00
  8.00000000E+01  1.60000000E+01  0.00000000E+00
  9.00000000E+01  1.60000000E+01  0.00000000E+00
  1.00000000E+02  1.60000000E+01  0.00000000E+00
  1.10000000E+02  1.60000000E+01  0.00000000E+00
  1.20000000E+02  1.60000000E+01  0.00000000E+00
  1.30000000E+02  1.60000000E+01  0.00000000E+00
  1.40000000E+02  1.60000000E+01  0.00000000E+00
  1.50000000E+02  1.60000000E+01  0.00000000E+00
  1.60000000E+02  1.60000000E+01  0.00000000E+00
  1.70000000E+02  1.60000000E+01  0.00000000E+00
  1.80000000E+02  1.60000000E+01  0.00000000E+00
  1.90000000E+02  1.60000000E+01  0.00000000E+00
  2.00000000E+02  1.60000000E+01  0.00000000E+00
  2.10000000E+02  1.60000000E+01  0.00000000E+00
  2.20000000E+02  1.60000000E+01  0.00000000E+00
  2.30000000E+02  1.60000000E+01  0.00000000E+00
  2.40000000E+02  1.60000000E+01  0.00000000E+00
  2.50000000E+02  1.60000000E+01  0.00000000E+00
  2.60000000E+02  1.60000000E+01  0.00000000E+00
  2.70000000E+02  1.60000000E+01  0.00000000E+00
  2.80000000E+02  1.60000000E+01  0.00000000E+00
  2.90000000E+02  1.60000000E+01  0.00000000E+00
  3.00000000E+02  1.60000000E+01  0.00000000E+00
  3.10000000E+02  1.60000000E+01  0.00000000E+00
  3.20000000E+02  1.60000000E+01  0.00000000E+00
  3.30000000E+02  1.60000000E+01  0.00000000E+00
  3.40000000E+02  1.60000000E+01  0.00000000E+00
  3.50000000E+02  1.60000000E+01  0.00000000E+00
  3.60000000E+02  1.60000000E+01  0.00000000E+00
  3.70000000E+02  1.60000000E+01  0.00000000E+00
  3.80000000E+02  1.60000000E+01  0.00000000E+00
  3.90000000E+02  1.60000000E+01  0.00000000E+00
  4.00000000E+02  1.60000000E+01  0.00000000E+00
  4.10000000E+02  1.60000000E+01  0.00000000E+00
  4.20000000E+02  1.60000000E+01  0.00000000E+00
  4.30000000E+02  1.60000000E+01  0.00000000E+00
  4.40000000E+02  1.60000000E+01  0.00000000E+00
  4.50000000E+02  1.60000000E+01  0.00000000E+00
  4.60000000E+02  1.60000000E+01  0.00000000E+00
  4.70000000E+02  1.60000000E+01  0.00000000E+00
  4.80000000E+02  1.60000000E+01  0.00000000E+00
  4.90000000E+02  1.60000000E+01  0.00000000E+00
  5.00000000E+02  1.60000000E+01  0.00000000E+00
  5.10000000E+02  1.60000000E+01  0.00000000E+00
  5.20000000E+02  1.60000000E+01  0.00000000E+00
  5.30000000E+02  1.60000000E+01  0.00000000E+00
  5.40000000E+02  1.60000000E+01  0.00000000E+00
  5.50000000E+02  1.60000000E+01  0.00000000E+00
  5.60000000E+02  1.60000000E+01  0.00000000E+00
  5.70000000E+02  1.60000000E+01  0.00000000E+00
  5.80000000E+02  1.60000000E+01  0.00000000E+00
  5.90000000E+02  1.60000000E+01  0.00000000E+00
  6.00000000E+02  1.60000000E+01  0.00000000E+00
  6.10000000E+02  1.60000000E+01  0.00000000E+00
  6.20000000E+02  1.60000000E+01  0.00000000E+00
  6.30000000E+02  1.60000000E+01  0.00000000E+00
  6.40000000E+02  1.60000000E+01  0.00000000E+00
  6.50000000E+02  1.60000000E+01  0.00000000E+00
  6.60000000E+02  1.60000000E+01  0.00000000E+00
  6.70000000E+02  1.60000000E+01  0.00000000E+00
  6.80000000E+02  1.60000000E+01  0.00000000E+00
  6.90000000E+02  1.60000000E+01  0.00000000E+00
  7.00000000E+02  1.60000000E+01  0.00000000E+00
  7.10000000E+02  1.60000000E+01  0.00000000E+00
  7.20000000E+02  1.60000000E+01  0.00000000E+00
  7.30000000E+02  1.60000000E+01  0.00000000E+00
  7.40000000E+02  1.60000000E+01  0.00000000E+00
  7.50000000E+02  1.60000000E+01  0.00000000E+00
  7.60000000E+02  1.60000000E+01  0.00000000E+00
  7.70000000E+02  1.60000000E+01  0.00000000E+00
  7.80000000E+02  1.60000000E+01  0.00000000E+00
  7.90000000E+02  1.60000000E+01  0.00000000E+00
  8.00000000E+02  1.60000000E+01  0.00000000E+00
  8.10000000E+02  1.60000000E+01  0.00000000E+00
  8.20000000E+02  1.60000000E+01  0.00000000E+00
  8.30000000E+02  1.60000000E+01  0.00000000E+00
  8.40000000E+02  1.60000000E+01  0.00000000E+00
  8.50000000E+02  1.60000000E+01  0.00000000E+00
  8.60000000E+02  1.60000000E+01  0.00000000E+00
  8.70000000E+02  1.60000000E+01  0.00000000E+00
  8.80000000E+02  1.60000000E+01  0.00000000E+00
  8.90000000E+02  1.60000000E+01  0.00000000E+00
  9.00000000E+02  1.60000000E+01  0.00000000E+00
  9.10000000E+02  1.60000000E+01  0.00000000E+00
  9.20000000E+02  1.60000000E+01  0.00000000E+00
  9.30000000E+02  1.60000000E+01  0.00000000E+00
  9.40000000E+02  1.60000000E+01  0.00000000E+00
  9.50000000E+02  1.60000000E+01  0.00000000E+00
  9.60000000E+02  1.60000000E+01  0.00000000E+00
  9.70000000E+02  1.60000000E+01  0.00000000E+00
  9.80000000E+02  1.60000000E+01  0.00000000E+00
  9.90000000E+02  1.60000000E+01  0.00000000E+00
  1.00000000E+03  1.60000000E+01  0.00000000E+00
  0.00000000E+00  1.80000000E+01  0.00000000E+00
  1.00000000E+01  1.80000000E+01  0.00000000E+00
  2.00000000E+01  1.80000000E+01  0.00000000E+00
  3.00000000E+01  1.80000000E+01  0.00000000E+00
  4.00000000E+01  1.80000000E+01  0.00000000E+00
  5.00000000E+01  1.80000000E+01  0.00000000E+00
  6.00000000E+01  1.80000000E+01  0.00000000E+00
  7.00000000E+01  1.80000000E+01  0.00000000E+00
  8.00000000E+01  1.80000000E+01  0.00000000E+00
  9.00000000E+01  1.80000000E+01  0.00000000E+00
  1.00000000E+02  1.80000000E+01  0.00000000E+00
  1.10000000E+02  1.80000000E+01  0.00000000E+00
  1.20000000E+02  1.80000000E+01  0.00000000E+00
  1.30000000E+02  1.80000000E+01  0.00000000E+00
  1.40000000E+02  1.80000000E+01  0.00000000E+00
  1.50000000E+02  1.80000000E+01  0.00000000E+00
  1.60000000E+02  1.80000000E+01  0.00000000E+00
  1.70000000E+02  1.80000000E+01  0.00000000E+00
  1.80000000E+02  1.80000000E+01  0.00000000E+00
  1.90000000E+02  1.80000000E+01  0.00000000E+00
  2.00000000E+02  1.80000000E+01  0.00000000E+00
  2.10000000E+02  1.80000000E+01  0.00000000E+00
  2.20000000E+02  1.80000000E+01  0.00000000E+00
  2.30000000E+02  1.80000000E+01  0.00000000E+00
  2.40000000E+02  1.80000000E+01  0.00000000E+00
  2.50000000E+02  1.80000000E+01  0.00000000E+00
  2.60000000E+02  1.80000000E+01  0.00000000E+00
  2.70000000E+02  1.80000000E+01  0.00000000E+00
  2.80000000E+02  1.80000000E+01  0.00000000E+00
  2.90000000E+02  1.80000000E+01  0.00000000E+00
  3.00000000E+02  1.80000000E+01  0.00000000E+00
  3.10000000E+02  1.80000000E+01  0.00000000E+00
  3.20000000E+02  1.80000000E+01  0.00000000E+00
  3.30000000E+02  1.80000000E+01  0.00000000E+00
  3.40000000E+02  1.80000000E+01  0.00000000E+00
  3.50000000E+02  1.80000000E+01  0.00000000E+00
  3.60000000E+02  1.80000000E+01  0.00000000E+00
  3.70000000E+02  1.80000000E+01  0.00000000E+00
  3.80000000E+02  1.80000000E+01  0.00000000E+00
  3.90000000E+02  1.80000000E+01  0.00000000E+00
  4.00000000E+02  1.80000000E+01  0.00000000E+00
  4.10000000E+02  1.80000000E+01  0.00000000E+00
  4.20000000E+02  1.80000000E+01  0.00000000E+00
  4.30000000E+02  1.80000000E+01  0.00000000E+00
  4.40000000E+02  1.80000000E+01  0.00000000E+00
  4.50000000E+02  1.80000000E+01  0.00000000E+00
  4.60000000E+02  1.80000000E+01  0.00000000E+00
  4.70000000E+02  1.80000000E+01  0.00000000E+00
  4.80000000E+02  1.80000000E+01  0.00000000E+00
  4.90000000E+02  1.80000000E+01  0.00000000E+00
  5.00000000E+02  1.80000000E+01  0.00000000E+00
  5.10000000E+02  1.80000000E+01  0.00000000E+00
  5.20000000E+02  1.80000000E+01  0.00000000E+00
  5.30000000E+02  1.80000000E+01  0.00000000E+00
  5.40000000E+02  1.80000000E+01  0.00000000E+00
  5.50000000E+02  1.80000000E+01  0.00000000E+00
  5.60000000E+02  1.80000000E+01  0.00000000E+00
  5.70000000E+02  1.80000000E+01  0.00000000E+00
  5.80000000E+02  1.80000000E+01  0.00000000E+00
  5.90000000E+02  1.80000000E+01  0.00000000E+00
  6.00000000E+02  1.80000000E+01  0.00000000E+00
  6.10000000E+02  1.80000000E+01  0.00000000E+00
  6.20000000E+02  1.80000000E+01  0.00000000E+00
  6.30000000E+02  1.80000000E+01  0.00000000E+00
  6.40000000E+02  1.80000000E+01  0.00000000E+00
  6.50000000E+02  1.80000000E+01  0.00000000E+00
  6.60000000E+02  1.80000000E+01  0.00000000E+00
  6.70000000E+02  1.80000000E+01  0.00000000E+00
  6.80000000E+02  1.80000000E+01  0.00000000E+00
  6.90000000E+02  1.80000000E+01  0.00000000E+00
  7.00000000E+02  1.80000000E+01  0.00000000E+00
  7.10000000E+02  1.80000000E+01  0.00000000E+00
  7.20000000E+02  1.80000000E+01  0.00000000E+00
  7.30000000E+02  1.80000000E+01  0.00000000E+00
  7.40000000E+02  1.80000000E+01  0.00000000E+00
  7.50000000E+02  1.80000000E+01  0.00000000E+00
  7.60000000E+02  1.80000000E+01  0.00000000E+00
  7.70000000E+02  1.80000000E+01  0.00000000E+00
  7.80000000E+02  1.80000000E+01  0.00000000E+00
  7.90000000E+02  1.80000000E+01  0.00000000E+00
  8.00000000E+02  1.80000000E+01  0.00000000E+00
  8.10000000E+02  1.80000000E+01  0.00000000E+00
  8.20000000E+02  1.80000000E+01  0.00000000E+00
  8.30000000E+02  1.80000000E+01  0.00000000E+00
  8.40000000E+02  1.80000000E+01  0.00000000E+00
  8.50000000E+02  1.80000000E+01  0.00000000E+00
  8.60000000E+02  1.80000000E+01  0.00000000E+00
  8.70000000E+02  1.80000000E+01  0.00000000E+00
  8.80000000E+02  1.80000000E+01  0.00000000E+00
  8.90000000E+02  1.80000000E+01  0.00000000E+00
  9.00000000E+02  1.80000000E+01  0.00000000E+00
  9.10000000E+02  1.80000000E+01  0.00000000E+00
  9.20000000E+02  1.80000000E+01  0.00000000E+00
  9.30000000E+02  1.80000000E+01  0.00000000E+00
  9.40000000E+02  1.80000000E+01  0.00000000E+00
  9.50000000E+02  1.80000000E+01  0.00000000E+00
  9.60000000E+02  1.80000000E+01  0.00000000E+00
  9.70000000E+02  1.80000000E+01  0.00000000E+00
  9.80000000E+02  1.80000000E+01  0.00000000E+00
  9.90000000E+02  1.80000000E+01  0.00000000E+00
  1.00000000E+03  1.80000000E+01  0.00000000E+00
  0.00000000E+00  2.00000000E+01  0.00000000E+00
  1.00000000E+01  2.00000000E+01  0.00000000E+00
  2.00000000E+01  2.00000000E+01  0.00000000E+00
  3.00000000E+01  2.00000000E+01  0.00000000E+00
  4.00000000E+01  2.00000000E+01  0.00000000E+00
  5.00000000E+01  2.00000000E+01  0.00000000E+00
  6.00000000E+01  2.00000000E+01  0.00000000E+00
  7.00000000E+01  2.00000000E+01  0.00000000E+00
  8.00000000E+01  2.00000000E+01  0.00000000E+00
  9.00000000E+01  2.00000000E+01  0.00000000E+00
  1.00000000E+02  2.00000000E+01  0.00000000E+00
  1.10000000E+02  2.00000000E+01  0.00000000E+00
  1.20000000E+02  2.00000000E+01  0.00000000E+00
  1.30000000E+02  2.00000000E+01  0.00000000E+00
  1.40000000E+02  2.00000000E+01  0.00000000E+00
  1.50000000E+02  2.00000000E+01  0.00000000E+00
  1.60000000E+02  2.00000000E+01  0.00000000E+00
  1.70000000E+02  2.00000000E+01  0.00000000E+00
  1.80000000E+02  2.00000000E+01  0.00000000E+00
  1.90000000E+02  2.00000000E+01  0.00000000E+00
  2.00000000E+02  2.00000000E+01  0.00000000E+00
  2.10000000E+02  2.00000000E+01  0.00000000E+00
  2.20000000E+02  2.00000000E+01  0.00000000E+00
  2.30000000E+02  2.00000000E+01  0.00000000E+00
  2.40000000E+02  2.00000000E+01  0.00000000E+00
  2.50000000E+02  2.00000000E+01  0.00000000E+00
  2.60000000E+02  2.00000000E+01  0.00000000E+00
  2.70000000E+02  2.00000000E+01  0.00000000E+00
  2.80000000E+02  2.00000000E+01  0.00000000E+00
  2.90000000E+02  2.00000000E+01  0.00000000E+00
  3.00000000E+02  2.00000000E+01  0.00000000E+00
  3.10000000E+02  2.00000000E+01  0.00000000E+00
  3.20000000E+02  2.00000000E+01  0.00000000E+00
  3.30000000E+02  2.00000000E+01  0.00000000E+00
  3.40000000E+02  2.00000000E+01  0.00000000E+00
  3.50000000E+02  2.00000000E+01  0.00000000E+00
  3.60000000E+02  2.00000000E+01  0.00000000E+00
  3.70000000E+02  2.00000000E+01  0.00000000E+00
  3.80000000E+02  2.00000000E+01  0.00000000E+00
  3.90000000E+02  2.00000000E+01  0.00000000E+00
  4.00000000E+02  2.00000000E+01  0.00000000E+00
  4.10000000E+02  2.00000000E+01  0.00000000E+00
  4.20000000E+02  2.00000000E+01  0.00000000E+00
  4.30000000E+02  2.00000000E+01  0.00000000E+00
  4.40000000E+02  2.00000000E+01  0.00000000E+00
  4.50000000E+02  2.00000000E+01  0.00000000E+00
  4.60000000E+02  2.00000000E+01  0.00000000E+00
  4.70000000E+02  2.00000000E+01  0.00000000E+00
  4.80000000E+02  2.00000000E+01  0.00000000E+00
  4.90000000E+02  2.00000000E+01  0.00000000E+00
  5.00000000E+02  2.00000000E+01  0.00000000E+00
  5.10000000E+02  2.00000000E+01  0.00000000E+00
  5.20000000E+02  2.00000000E+01  0.00000000E+00
  5.30000000E+02  2.00000000E+01  0.00000000E+00
  5.40000000E+02  2.00000000E+01  0.00000000E+00
  5.50000000E+02  2.00000000E+01  0.00000000E+00
  5.60000000E+02  2.00000000E+01  0.00000000E+00
  5.70000000E+02  2.00000000E+01  0.00000000E+00
  5.80000000E+02  2.00000000E+01  0.00000000E+00
  5.90000000E+02  2.00000000E+01  0.00000000E+00
  6.00000000E+02  2.00000000E+01  0.00000000E+00
  6.10000000E+02  2.00000000E+01  0.00000000E+00
  6.20000000E+02  2.00000000E+01  0.00000000E+00
  6.30000000E+02  2.00000000E+01  0.00000000E+00
  6.40000000E+02  2.00000000E+01  0.00000000E+00
  6.50000000E+02  2.00000000E+01  0.00000000E+00
  6.60000000E+02  2.00000000E+01  0.00000000E+00
  6.70000000E+02  2.00000000E+01  0.00000000E+00
  6.80000000E+02  2.00000000E+01  0.00000000E+00
  6.90000000E+02  2.00000000E+01  0.00000000E+00
  7.00000000E+02  2.00000000E+01  0.00000000E+00
  7.10000000E+02  2.00000000E+01  0.00000000E+00
  7.20000000E+02  2.00000000E+01  0.00000000E+00
  7.30000000E+02  2.00000000E+01  0.00000000E+00
  7.40000000E+02  2.00000000E+01  0.00000000E+00
  7.50000000E+02  2.00000000E+01  0.00000000E+00
  7.60000000E+02  2.00000000E+01  0.00000000E+00
  7.70000000E+02  2.00000000E+01  0.00000000E+00
  7.80000000E+02  2.00000000E+01  0.00000000E+00
  7.90000000E+02  2.00000000E+01  0.00000000E+00
  8.00000000E+02  2.00000000E+01  0.00000000E+00
  8.10000000E+02  2.00000000E+01  0.00000000E+00
  8.20000000E+02  2.00000000E+01  0.00000000E+00
  8.30000000E+02  2.00000000E+01  0.00000000E+00
  8.40000000E+02  2.00000000E+01  0.00000000E+00
  8.50000000E+02  2.00000000E+01  0.00000000E+00
  8.60000000E+02  2.00000000E+01  0.00000000E+00
  8.70000000E+02  2.00000000E+01  0.00000000E+00
  8.80000000E+02  2.00000000E+01  0.00000000E+00
  8.90000000E+02  2.00000000E+01  0.00000000E+00
  9.00000000E+02  2.00000000E+01  0.00000000E+00
  9.10000000E+02  2.00000000E+01  0.00000000E+00
  9.20000000E+02  2.00000000E+01  0.00000000E+00
  9.30000000E+02  2.00000000E+01  0.00000000E+00
  9.40000000E+02  2.00000000E+01  0.00000000E+00
  9.50000000E+02  2.00000000E+01  0.00000000E+00
  9.60000000E+02  2.00000000E+01  0.00000000E+00
  9.70000000E+02  2.00000000E+01  0.00000000E+00
  9.80000000E+02  2.00000000E+01  0.00000000E+00
  9.90000000E+02  2.00000000E+01  0.00000000E+00
  1.00000000E+03  2.00000000E+01  0.00000000E+00
  0.00000000E+00  2.20000000E+01  0.00000000E+00
  1.00000000E+01  2.20000000E+01  0.00000000E+00
  2.00000000E+01  2.20000000E+01  0.00000000E+00
  3.00000000E+01  2.20000000E+01  0.00000000E+00
  4.00000000E+01  2.20000000E+01  0.00000000E+00
  5.00000000E+01  2.20000000E+01  0.00000000E+00
  6.00000000E+01  2.20000000E+01  0.00000000E+00
  7.00000000E+01  2.20000000E+01  0.00000000E+00
  8.00000000E+01  2.20000000E+01  0.00000000E+00
  9.00000000E+01  2.20000000E+01  0.00000000E+00
  1.00000000E+02  2.20000000E+01  0.00000000E+00
  1.10000000E+02  2.20000000E+01  0.00000000E+00
  1.20000000E+02  2.20000000E+01  0.00000000E+00
  1.30000000E+02  2.20000000E+01  0.00000000E+00
  1.40000000E+02  2.20000000E+01  0.00000000E+00
  1.50000000E+02  2.20000000E+01  0.00000000E+00
  1.60000000E+02  2.20000000E+01  0.00000000E+00
  1.70000000E+02  2.20000000E+01  0.00000000E+00
  1.80000000E+02  2.20000000E+01  0.00000000E+00
  1.90000000E+02  2.20000000E+01  0.00000000E+00
  2.00000000E+02  2.20000000E+01  0.00000000E+00
  2.10000000E+02  2.20000000E+01  0.00000000E+00
  2.20000000E+02  2.20000000E+01  0.00000000E+00
  2.30000000E+02  2.20000000E+01  0.00000000E+00
  2.40000000E+02  2.20000000E+01  0.00000000E+00
  2.50000000E+02  2.20000000E+01  0.00000000E+00
  2.60000000E+02  2.20000000E+01  0.00000000E+00
  2.70000000E+02  2.20000000E+01  0.00000000E+00
  2.80000000E+02  2.20000000E+01  0.00000000E+00
  2.90000000E+02  2.20000000E+01  0.00000000E+00
  3.00000000E+02  2.20000000E+01  0.00000000E+00
  3.10000000E+02  2.20000000E+01  0.00000000E+00
  3.20000000E+02  2.20000000E+01  0.00000000E+00
  3.30000000E+02  2.20000000E+01  0.00000000E+00
  3.40000000E+02  2.20000000E+01  0.00000000E+00
  3.50000000E+02  2.20000000E+01  0.00000000E+00
  3.60000000E+02  2.20000000E+01  0.00000000E+00
  3.70000000E+02  2.20000000E+01  0.00000000E+00
  3.80000000E+02  2.20000000E+01  0.00000000E+00
  3.90000000E+02  2.20000000E+01  0.00000000E+00
  4.00000000E+02  2.20000000E+01  0.00000000E+00
  4.10000000E+02  2.20000000E+01  0.00000000E+00
  4.20000000E+02  2.20000000E+01  0.00000000E+00
  4.30000000E+02  2.20000000E+01  0.00000000E+00
  4.40000000E+02  2.20000000E+01  0.00000000E+00
  4.50000000E+02  2.20000000E+01  0.00000000E+00
  4.60000000E+02  2.20000000E+01  0.00000000E+00
  4.70000000E+02  2.20000000E+01  0.00000000E+00
  4.80000000E+02  2.20000000E+01  0.00000000E+00
  4.90000000E+02  2.20000000E+01  0.00000000E+00
  5.00000000E+02  2.20000000E+01  0.00000000E+00
  5.10000000E+02  2.20000000E+01  0.00000000E+00
  5.20000000E+02  2.20000000E+01  0.00000000E+00
  5.30000000E+02  2.20000000E+01  0.00000000E+00
  5.40000000E+02  2.20000000E+01  0.00000000E+00
  5.50000000E+02  2.20000000E+01  0.00000000E+00
  5.60000000E+02  2.20000000E+01  0.00000000E+00
  5.70000000E+02  2.20000000E+01  0.00000000E+00
  5.80000000E+02  2.20000000E+01  0.00000000E+00
  5.90000000E+02  2.20000000E+01  0.00000000E+00
  6.00000000E+02  2.20000000E+01  0.00000000E+00
  6.10000000E+02  2.20000000E+01  0.00000000E+00
  6.20000000E+02  2.20000000E+01  0.00000000E+00
  6.30000000E+02  2.20000000E+01  0.00000000E+00
  6.40000000E+02  2.20000000E+01  0.00000000E+00
  6.50000000E+02  2.20000000E+01  0.00000000E+00
  6.60000000E+02  2.20000000E+01  0.00000000E+00
  6.70000000E+02  2.20000000E+01  0.00000000E+00
  6.80000000E+02  2.20000000E+01  0.00000000E+00
  6.90000000E+02  2.20000000E+01  0.00000000E+00
  7.00000000E+02  2.20000000E+01  0.00000000E+00
  7.10000000E+02  2.20000000E+01  0.00000000E+00
  7.20000000E+02  2.20000000E+01  0.00000000E+00
  7.30000000E+02  2.20000000E+01  0.00000000E+00
  7.40000000E+02  2.20000000E+01  0.00000000E+00
  7.50000000E+02  2.20000000E+01  0.00000000E+00
  7.60000000E+02  2.20000000E+01  0.00000000E+00
  7.70000000E+02  2.20000000E+01  0.00000000E+00
  7.80000000E+02  2.20000000E+01  0.00000000E+00
  7.90000000E+02  2.20000000E+01  0.00000000E+00
  8.00000000E+02  2.20000000E+01  0.00000000E+00
  8.10000000E+02  2.20000000E+01  0.00000000E+00
  8.20000000E+02  2.20000000E+01  0.00000000E+00
  8.30000000E+02  2.20000000E+01  0.00000000E+00
  8.40000000E+02  2.20000000E+01  0.00000000E+00
  8.50000000E+02  2.20000000E+01  0.00000000E+00
  8.60000000E+02  2.20000000E+01  0.00000000E+00
  8.70000000E+02  2.20000000E+01  0.00000000E+00
  8.80000000E+02  2.20000000E+01  0.00000000E+00
  8.90000000E+02  2.20000000E+01  0.00000000E+00
  9.00000000E+02  2.20000000E+01  0.00000000E+00
  9.10000000E+02  2.20000000E+01  0.00000000E+00
  9.20000000E+02  2.20000000E+01  0.00000000E+00
  9.30000000E+02  2.20000000E+01  0.00000000E+00
  9.40000000E+02  2.20000000E+01  0.00000000E+00
  9.50000000E+02  2.20000000E+01  0.00000000E+00
  9.60000000E+02  2.20000000E+01  0.00000000E+00
  9.70000000E+02  2.20000000E+01  0.00000000E+00
  9.80000000E+02  2.20000000E+01  0.00000000E+00
  9.90000000E+02  2.20000000E+01  0.00000000E+00
  1.00000000E+03  2.20000000E+01  0.00000000E+00
  0.00000000E+00  2.40000000E+01  0.00000000E+00
  1.00000000E+01  2.40000000E+01  0.00000000E+00
  2.00000000E+01  2.40000000E+01  0.00000000E+00
  3.00000000E+01  2.40000000E+01  0.00000000E+00
  4.00000000E+01  2.40000000E+01  0.00000000E+00
  5.00000000E+01  2.40000000E+01  0.00000000E+00
  6.00000000E+01  2.40000000E+01  0.00000000E+00
  7.00000000E+01  2.40000000E+01  0.00000000E+00
  8.00000000E+01  2.40000000E+01  0.00000000E+00
  9.00000000E+01  2.40000000E+01  0.00000000E+00
  1.00000000E+02  2.40000000E+01  0.00000000E+00
  1.10000000E+02  2.40000000E+01  0.00000000E+00
  1.20000000E+02  2.40000000E+01  0.00000000E+00
  1.30000000E+02  2.40000000E+01  0.00000000E+00
  1.40000000E+02  2.40000000E+01  0.00000000E+00
  1.50000000E+02  2.40000000E+01  0.00000000E+00
  1.60000000E+02  2.40000000E+01  0.00000000E+00
  1.70000000E+02  2.40000000E+01  0.00000000E+00
  1.80000000E+02  2.40000000E+01  0.00000000E+00
  1.90000000E+02  2.40000000E+01  0.00000000E+00
  2.00000000E+02  2.40000000E+01  0.00000000E+00
  2.10000000E+02  2.40000000E+01  0.00000000E+00
  2.20000000E+02  2.40000000E+01  0.00000000E+00
  2.30000000E+02  2.40000000E+01  0.00000000E+00
  2.40000000E+02  2.40000000E+01  0.00000000E+00
  2.50000000E+02  2.40000000E+01  0.00000000E+00
  2.60000000E+02  2.40000000E+01  0.00000000E+00
  2.70000000E+02  2.40000000E+01  0.00000000E+00
  2.80000000E+02  2.40000000E+01  0.00000000E+00
  2.90000000E+02  2.40000000E+01  0.00000000E+00
  3.00000000E+02  2.40000000E+01  0.00000000E+00
  3.10000000E+02  2.40000000E+01  0.00000000E+00
  3.20000000E+02  2.40000000E+01  0.00000000E+00
  3.30000000E+02  2.40000000E+01  0.00000000E+00
  3.40000000E+02  2.40000000E+01  0.00000000E+00
  3.50000000E+02  2.40000000E+01  0.00000000E+00
  3.60000000E+02  2.40000000E+01  0.00000000E+00
  3.70000000E+02  2.40000000E+01  0.00000000E+00
  3.80000000E+02  2.40000000E+01  0.00000000E+00
  3.90000000E+02  2.40000000E+01  0.00000000E+00
  4.00000000E+02  2.40000000E+01  0.00000000E+00
  4.10000000E+02  2.40000000E+01  0.00000000E+00
  4.20000000E+02  2.40000000E+01  0.00000000E+00
  4.30000000E+02  2.40000000E+01  0.00000000E+00
  4.40000000E+02  2.40000000E+01  0.00000000E+00
  4.50000000E+02  2.40000000E+01  0.00000000E+00
  4.60000000E+02  2.40000000E+01  0.00000000E+00
  4.70000000E+02  2.40000000E+01  0.00000000E+00
  4.80000000E+02  2.40000000E+01  0.00000000E+00
  4.90000000E+02  2.40000000E+01  0.00000000E+00
  5.00000000E+02  2.40000000E+01  0.00000000E+00
  5.10000000E+02  2.40000000E+01  0.00000000E+00
  5.20000000E+02  2.40000000E+01  0.00000000E+00
  5.30000000E+02  2.40000000E+01  0.00000000E+00
  5.40000000E+02  2.40000000E+01  0.00000000E+00
  5.50000000E+02  2.40000000E+01  0.00000000E+00
  5.60000000E+02  2.40000000E+01  0.00000000E+00
  5.70000000E+02  2.40000000E+01  0.00000000E+00
  5.80000000E+02  2.40000000E+01  0.00000000E+00
  5.90000000E+02  2.40000000E+01  0.00000000E+00
  6.00000000E+02  2.40000000E+01  0.00000000E+00
  6.10000000E+02  2.40000000E+01  0.00000000E+00
  6.20000000E+02  2.40000000E+01  0.00000000E+00
  6.30000000E+02  2.40000000E+01  0.00000000E+00
  6.40000000E+02  2.40000000E+01  0.00000000E+00
  6.50000000E+02  2.40000000E+01  0.00000000E+00
  6.60000000E+02  2.40000000E+01  0.00000000E+00
  6.70000000E+02  2.40000000E+01  0.00000000E+00
  6.80000000E+02  2.40000000E+01  0.00000000E+00
  6.90000000E+02  2.40000000E+01  0.00000000E+00
  7.00000000E+02  2.40000000E+01  0.00000000E+00
  7.10000000E+02  2.40000000E+01  0.00000000E+00
  7.20000000E+02  2.40000000E+01  0.00000000E+00
  7.30000000E+02  2.40000000E+01  0.00000000E+00
  7.40000000E+02  2.40000000E+01  0.00000000E+00
  7.50000000E+02  2.40000000E+01  0.00000000E+00
  7.60000000E+02  2.40000000E+01  0.00000000E+00
  7.70000000E+02  2.40000000E+01  0.00000000E+00
  7.80000000E+02  2.40000000E+01  0.00000000E+00
  7.90000000E+02  2.40000000E+01  0.00000000E+00
  8.00000000E+02  2.40000000E+01  0.00000000E+00
  8.10000000E+02  2.40000000E+01  0.00000000E+00
  8.20000000E+02  2.40000000E+01  0.00000000E+00
  8.30000000E+02  2.40000000E+01  0.00000000E+00
  8.40000000E+02  2.40000000E+01  0.00000000E+00
  8.50000000E+02  2.40000000E+01  0.00000000E+00
  8.60000000E+02  2.40000000E+01  0.00000000E+00
  8.70000000E+02  2.40000000E+01  0.00000000E+00
  8.80000000E+02  2.40000000E+01  0.00000000E+00
  8.90000000E+02  2.40000000E+01  0.00000000E+00
  9.00000000E+02  2.40000000E+01  0.00000000E+00
  9.10000000E+02  2.40000000E+01  0.00000000E+00
  9.20000000E+02  2.40000000E+01  0.00000000E+00
  9.30000000E+02  2.40000000E+01  0.00000000E+00
  9.40000000E+02  2.40000000E+01  0.00000000E+00
  9.50000000E+02  2.40000000E+01  0.00000000E+00
  9.60000000E+02  2.40000000E+01  0.00000000E+00
  9.70000000E+02  2.40000000E+01  0.00000000E+00
  9.80000000E+02  2.40000000E+01  0.00000000E+00
  9.90000000E+02  2.40000000E+01  0.00000000E+00
  1.00000000E+03  2.40000000E+01  0.00000000E+00
  0.00000000E+00  2.60000000E+01  0.00000000E+00
  1.00000000E+01  2.60000000E+01  0.00000000E+00
  2.00000000E+01  2.60000000E+01  0.00000000E+00
  3.00000000E+01  2.60000000E+01  0.00000000E+00
  4.00000000E+01  2.60000000E+01  0.00000000E+00
  5.00000000E+01  2.60000000E+01  0.00000000E+00
  6.00000000E+01  2.60000000E+01  0.00000000E+00
  7.00000000E+01  2.60000000E+01  0.00000000E+00
  8.00000000E+01  2.60000000E+01  0.00000000E+00
  9.00000000E+01  2.60000000E+01  0.00000000E+00
  1.00000000E+02  2.60000000E+01  0.00000000E+00
  1.10000000E+02  2.60000000E+01  0.00000000E+00
  1.20000000E+02  2.60000000E+01  0.00000000E+00
  1.30000000E+02  2.60000000E+01  0.00000000E+00
  1.40000000E+02  2.60000000E+01  0.00000000E+00
  1.50000000E+02  2.60000000E+01  0.00000000E+00
  1.60000000E+02  2.60000000E+01  0.00000000E+00
  1.70000000E+02  2.60000000E+01  0.00000000E+00
  1.80000000E+02  2.60000000E+01  0.00000000E+00
  1.90000000E+02  2.60000000E+01  0.00000000E+00
  2.00000000E+02  2.60000000E+01  0.00000000E+00
  2.10000000E+02  2.60000000E+01  0.00000000E+00
  2.20000000E+02  2.60000000E+01  0.00000000E+00
  2.30000000E+02  2.60000000E+01  0.00000000E+00
  2.40000000E+02  2.60000000E+01  0.00000000E+00
  2.50000000E+02  2.60000000E+01  0.00000000E+00
  2.60000000E+02  2.60000000E+01  0.00000000E+00
  2.70000000E+02  2.60000000E+01  0.00000000E+00
  2.80000000E+02  2.60000000E+01  0.00000000E+00
  2.90000000E+02  2.60000000E+01  0.00000000E+00
  3.00000000E+02  2.60000000E+01  0.00000000E+00
  3.10000000E+02  2.60000000E+01  0.00000000E+00
  3.20000000E+02  2.60000000E+01  0.00000000E+00
  3.30000000E+02  2.60000000E+01  0.00000000E+00
  3.40000000E+02  2.60000000E+01  0.00000000E+00
  3.50000000E+02  2.60000000E+01  0.00000000E+00
  3.60000000E+02  2.60000000E+01  0.00000000E+00
  3.70000000E+02  2.60000000E+01  0.00000000E+00
  3.80000000E+02  2.60000000E+01  0.00000000E+00
  3.90000000E+02  2.60000000E+01  0.00000000E+00
  4.00000000E+02  2.60000000E+01  0.00000000E+00
  4.10000000E+02  2.60000000E+01  0.00000000E+00
  4.20000000E+02  2.60000000E+01  0.00000000E+00
  4.30000000E+02  2.60000000E+01  0.00000000E+00
  4.40000000E+02  2.60000000E+01  0.00000000E+00
  4.50000000E+02  2.60000000E+01  0.00000000E+00
  4.60000000E+02  2.60000000E+01  0.00000000E+00
  4.70000000E+02  2.60000000E+01  0.00000000E+00
  4.80000000E+02  2.60000000E+01  0.00000000E+00
  4.90000000E+02  2.60000000E+01  0.00000000E+00
  5.00000000E+02  2.60000000E+01  0.00000000E+00
  5.10000000E+02  2.60000000E+01  0.00000000E+00
  5.20000000E+02  2.60000000E+01  0.00000000E+00
  5.30000000E+02  2.60000000E+01  0.00000000E+00
  5.40000000E+02  2.60000000E+01  0.00000000E+00
  5.50000000E+02  2.60000000E+01  0.00000000E+00
  5.60000000E+02  2.60000000E+01  0.00000000E+00
  5.70000000E+02  2.60000000E+01  0.00000000E+00
  5.80000000E+02  2.60000000E+01  0.00000000E+00
  5.90000000E+02  2.60000000E+01  0.00000000E+00
  6.00000000E+02  2.60000000E+01  0.00000000E+00
  6.10000000E+02  2.60000000E+01  0.00000000E+00
  6.20000000E+02  2.60000000E+01  0.00000000E+00
  6.30000000E+02  2.60000000E+01  0.00000000E+00
  6.40000000E+02  2.60000000E+01  0.00000000E+00
  6.50000000E+02  2.60000000E+01  0.00000000E+00
  6.60000000E+02  2.60000000E+01  0.00000000E+00
  6.70000000E+02  2.60000000E+01  0.00000000E+00
  6.80000000E+02  2.60000000E+01  0.00000000E+00
  6.90000000E+02  2.60000000E+01  0.00000000E+00
  7.00000000E+02  2.60000000E+01  0.00000000E+00
  7.10000000E+02  2.60000000E+01  0.00000000E+00
  7.20000000E+02  2.60000000E+01  0.00000000E+00
  7.30000000E+02  2.60000000E+01  0.00000000E+00
  7.40000000E+02  2.60000000E+01  0.00000000E+00
  7.50000000E+02  2.60000000E+01  0.00000000E+00
  7.60000000E+02  2.60000000E+01  0.00000000E+00
  7.70000000E+02  2.60000000E+01  0.00000000E+00
  7.80000000E+02  2.60000000E+01  0.00000000E+00
  7.90000000E+02  2.60000000E+01  0.00000000E+00
  8.00000000E+02  2.60000000E+01  0.00000000E+00
  8.10000000E+02  2.60000000E+01  0.00000000E+00
  8.20000000E+02  2.60000000E+01  0.00000000E+00
  8.30000000E+02  2.60000000E+01  0.00000000E+00
  8.40000000E+02  2.60000000E+01  0.00000000E+00
  8.50000000E+02  2.60000000E+01  0.00000000E+00
  8.60000000E+02  2.60000000E+01  0.00000000E+00
  8.70000000E+02  2.60000000E+01  0.00000000E+00
  8.80000000E+02  2.60000000E+01  0.00000000E+00
  8.90000000E+02  2.60000000E+01  0.00000000E+00
  9.00000000E+02  2.60000000E+01  0.00000000E+00
  9.10000000E+02  2.60000000E+01  0.00000000E+00
  9.20000000E+02  2.60000000E+01  0.00000000E+00
  9.30000000E+02  2.60000000E+01  0.00000000E+00
  9.40000000E+02  2.60000000E+01  0.00000000E+00
  9.50000000E+02  2.60000000E+01  0.00000000E+00
  9.60000000E+02  2.60000000E+01  0.00000000E+00
  9.70000000E+02  2.60000000E+01  0.00000000E+00
  9.80000000E+02  2.60000000E+01  0.00000000E+00
  9.90000000E+02  2.60000000E+01  0.00000000E+00
  1.00000000E+03  2.60000000E+01  0.00000000E+00
  0.00000000E+00  2.80000000E+01  0.00000000E+00
  1.00000000E+01  2.80000000E+01  0.00000000E+00
  2.00000000E+01  2.80000000E+01  0.00000000E+00
  3.00000000E+01  2.80000000E+01  0.00000000E+00
  4.00000000E+01  2.80000000E+01  0.00000000E+00
  5.00000000E+01  2.80000000E+01  0.00000000E+00
  6.00000000E+01  2.80000000E+01  0.00000000E+00
  7.00000000E+01  2.80000000E+01  0.00000000E+00
  8.00000000E+01  2.80000000E+01  0.00000000E+00
  9.00000000E+01  2.80000000E+01  0.00000000E+00
  1.00000000E+02  2.80000000E+01  0.00000000E+00
  1.10000000E+02  2.80000000E+01  0.00000000E+00
  1.20000000E+02  2.80000000E+01  0.00000000E+00
  1.30000000E+02  2.80000000E+01  0.00000000E+00
  1.40000000E+02  2.80000000E+01  0.00000000E+00
  1.50000000E+02  2.80000000E+01  0.00000000E+00
  1.60000000E+02  2.80000000E+01  0.00000000E+00
  1.70000000E+02  2.80000000E+01  0.00000000E+00
  1.80000000E+02  2.80000000E+01  0.00000000E+00
  1.90000000E+02  2.80000000E+01  0.00000000E+00
  2.00000000E+02  2.80000000E+01  0.00000000E+00
  2.10000000E+02  2.80000000E+01  0.00000000E+00
  2.20000000E+02  2.80000000E+01  0.00000000E+00
  2.30000000E+02  2.80000000E+01  0.00000000E+00
  2.40000000E+02  2.80000000E+01  0.00000000E+00
  2.50000000E+02  2.80000000E+01  0.00000000E+00
  2.60000000E+02  2.80000000E+01  0.00000000E+00
  2.70000000E+02  2.80000000E+01  0.00000000E+00
  2.80000000E+02  2.80000000E+01  0.00000000E+00
  2.90000000E+02  2.80000000E+01  0.00000000E+00
  3.00000000E+02  2.80000000E+01  0.00000000E+00
  3.10000000E+02  2.80000000E+01  0.00000000E+00
  3.20000000E+02  2.80000000E+01  0.00000000E+00
  3.30000000E+02  2.80000000E+01  0.00000000E+00
  3.40000000E+02  2.80000000E+01  0.00000000E+00
  3.50000000E+02  2.80000000E+01  0.00000000E+00
  3.60000000E+02  2.80000000E+01  0.00000000E+00
  3.70000000E+02  2.80000000E+01  0.00000000E+00
  3.80000000E+02  2.80000000E+01  0.00000000E+00
  3.90000000E+02  2.80000000E+01  0.00000000E+00
  4.00000000E+02  2.80000000E+01  0.00000000E+00
  4.10000000E+02  2.80000000E+01  0.00000000E+00
  4.20000000E+02  2.80000000E+01  0.00000000E+00
  4.30000000E+02  2.80000000E+01  0.00000000E+00
  4.40000000E+02  2.80000000E+01  0.00000000E+00
  4.50000000E+02  2.80000000E+01  0.00000000E+00
  4.60000000E+02  2.80000000E+01  0.00000000E+00
  4.70000000E+02  2.80000000E+01  0.00000000E+00
  4.80000000E+02  2.80000000E+01  0.00000000E+00
  4.90000000E+02  2.80000000E+01  0.00000000E+00
  5.00000000E+02  2.80000000E+01  0.00000000E+00
  5.10000000E+02  2.80000000E+01  0.00000000E+00
  5.20000000E+02  2.80000000E+01  0.00000000E+00
  5.30000000E+02  2.80000000E+01  0.00000000E+00
  5.40000000E+02  2.80000000E+01  0.00000000E+00
  5.50000000E+02  2.80000000E+01  0.00000000E+00
  5.60000000E+02  2.80000000E+01  0.00000000E+00
  5.70000000E+02  2.80000000E+01  0.00000000E+00
  5.80000000E+02  2.80000000E+01  0.00000000E+00
  5.90000000E+02  2.80000000E+01  0.00000000E+00
  6.00000000E+02  2.80000000E+01  0.00000000E+00
  6.10000000E+02  2.80000000E+01  0.00000000E+00
  6.20000000E+02  2.80000000E+01  0.00000000E+00
  6.30000000E+02  2.80000000E+01  0.00000000E+00
  6.40000000E+02  2.80000000E+01  0.00000000E+00
  6.50000000E+02  2.80000000E+01  0.00000000E+00
  6.60000000E+02  2.80000000E+01  0.00000000E+00
  6.70000000E+02  2.80000000E+01  0.00000000E+00
  6.80000000E+02  2.80000000E+01  0.00000000E+00
  6.90000000E+02  2.80000000E+01  0.00000000E+00
  7.00000000E+02  2.80000000E+01  0.00000000E+00
  7.10000000E+02  2.80000000E+01  0.00000000E+00
  7.20000000E+02  2.80000000E+01  0.00000000E+00
  7.30000000E+02  2.80000000E+01  0.00000000E+00
  7.40000000E+02  2.80000000E+01  0.00000000E+00
  7.50000000E+02  2.80000000E+01  0.00000000E+00
  7.60000000E+02  2.80000000E+01  0.00000000E+00
  7.70000000E+02  2.80000000E+01  0.00000000E+00
  7.80000000E+02  2.80000000E+01  0.00000000E+00
  7.90000000E+02  2.80000000E+01  0.00000000E+00
  8.00000000E+02  2.80000000E+01  0.00000000E+00
  8.10000000E+02  2.80000000E+01  0.00000000E+00
  8.20000000E+02  2.80000000E+01  0.00000000E+00
  8.30000000E+02  2.80000000E+01  0.00000000E+00
  8.40000000E+02  2.80000000E+01  0.00000000E+00
  8.50000000E+02  2.80000000E+01  0.00000000E+00
  8.60000000E+02  2.80000000E+01  0.00000000E+00
  8.70000000E+02  2.80000000E+01  0.00000000E+00
  8.80000000E+02  2.80000000E+01  0.00000000E+00
  8.90000000E+02  2.80000000E+01  0.00000000E+00
  9.00000000E+02  2.80000000E+01  0.00000000E+00
  9.10000000E+02  2.80000000E+01  0.00000000E+00
  9.20000000E+02  2.80000000E+01  0.00000000E+00
  9.30000000E+02  2.80000000E+01  0.00000000E+00
  9.40000000E+02  2.80000000E+01  0.00000000E+00
  9.50000000E+02  2.80000000E+01  0.00000000E+00
  9.60000000E+02  2.80000000E+01  0.00000000E+00
  9.70000000E+02  2.80000000E+01  0.00000000E+00
  9.80000000E+02  2.80000000E+01  0.00000000E+00
  9.90000000E+02  2.80000000E+01  0.00000000E+00
  1.00000000E+03  2.80000000E+01  0.00000000E+00
  0.00000000E+00  3.00000000E+01  0.00000000E+00
  1.00000000E+01  3.00000000E+01  0.00000000E+00
  2.00000000E+01  3.00000000E+01  0.00000000E+00
  3.00000000E+01  3.00000000E+01  0.00000000E+00
  4.00000000E+01  3.00000000E+01  0.00000000E+00
  5.00000000E+01  3.00000000E+01  0.00000000E+00
  6.00000000E+01  3.00000000E+01  0.00000000E+00
  7.00000000E+01  3.00000000E+01  0.00000000E+00
  8.00000000E+01  3.00000000E+01  0.00000000E+00
  9.00000000E+01  3.00000000E+01  0.00000000E+00
  1.00000000E+02  3.00000000E+01  0.00000000E+00
  1.10000000E+02  3.00000000E+01  0.00000000E+00
  1.20000000E+02  3.00000000E+01  0.00000000E+00
  1.30000000E+02  3.00000000E+01  0.00000000E+00
  1.40000000E+02  3.00000000E+01  0.00000000E+00
  1.50000000E+02  3.00000000E+01  0.00000000E+00
  1.60000000E+02  3.00000000E+01  0.00000000E+00
  1.70000000E+02  3.00000000E+01  0.00000000E+00
  1.80000000E+02  3.00000000E+01  0.00000000E+00
  1.90000000E+02  3.00000000E+01  0.00000000E+00
  2.00000000E+02  3.00000000E+01  0.00000000E+00
  2.10000000E+02  3.00000000E+01  0.00000000E+00
  2.20000000E+02  3.00000000E+01  0.00000000E+00
  2.30000000E+02  3.00000000E+01  0.00000000E+00
  2.40000000E+02  3.00000000E+01  0.00000000E+00
  2.50000000E+02  3.00000000E+01  0.00000000E+00
  2.60000000E+02  3.00000000E+01  0.00000000E+00
  2.70000000E+02  3.00000000E+01  0.00000000E+00
  2.80000000E+02  3.00000000E+01  0.00000000E+00
  2.90000000E+02  3.00000000E+01  0.00000000E+00
  3.00000000E+02  3.00000000E+01  0.00000000E+00
  3.10000000E+02  3.00000000E+01  0.00000000E+00
  3.20000000E+02  3.00000000E+01  0.00000000E+00
  3.30000000E+02  3.00000000E+01  0.00000000E+00
  3.40000000E+02  3.00000000E+01  0.00000000E+00
  3.50000000E+02  3.00000000E+01  0.00000000E+00
  3.60000000E+02  3.00000000E+01  0.00000000E+00
  3.70000000E+02  3.00000000E+01  0.00000000E+00
  3.80000000E+02  3.00000000E+01  0.00000000E+00
  3.90000000E+02  3.00000000E+01  0.00000000E+00
  4.00000000E+02  3.00000000E+01  0.00000000E+00
  4.10000000E+02  3.00000000E+01  0.00000000E+00
  4.20000000E+02  3.00000000E+01  0.00000000E+00
  4.30000000E+02  3.00000000E+01  0.00000000E+00
  4.40000000E+02  3.00000000E+01  0.00000000E+00
  4.50000000E+02  3.00000000E+01  0.00000000E+00
  4.60000000E+02  3.00000000E+01  0.00000000E+00
  4.70000000E+02  3.00000000E+01  0.00000000E+00
  4.80000000E+02  3.00000000E+01  0.00000000E+00
  4.90000000E+02  3.00000000E+01  0.00000000E+00
  5.00000000E+02  3.00000000E+01  0.00000000E+00
  5.10000000E+02  3.00000000E+01  0.00000000E+00
  5.20000000E+02  3.00000000E+01  0.00000000E+00
  5.30000000E+02  3.00000000E+01  0.00000000E+00
  5.40000000E+02  3.00000000E+01  0.00000000E+00
  5.50000000E+02  3.00000000E+01  0.00000000E+00
  5.60000000E+02  3.00000000E+01  0.00000000E+00
  5.70000000E+02  3.00000000E+01  0.00000000E+00
  5.80000000E+02  3.00000000E+01  0.00000000E+00
  5.90000000E+02  3.00000000E+01  0.00000000E+00
  6.00000000E+02  3.00000000E+01  0.00000000E+00
  6.10000000E+02  3.00000000E+01  0.00000000E+00
  6.20000000E+02  3.00000000E+01  0.00000000E+00
  6.30000000E+02  3.00000000E+01  0.00000000E+00
  6.40000000E+02  3.00000000E+01  0.00000000E+00
  6.50000000E+02  3.00000000E+01  0.00000000E+00
  6.60000000E+02  3.00000000E+01  0.00000000E+00
  6.70000000E+02  3.00000000E+01  0.00000000E+00
  6.80000000E+02  3.00000000E+01  0.00000000E+00
  6.90000000E+02  3.00000000E+01  0.00000000E+00
  7.00000000E+02  3.00000000E+01  0.00000000E+00
  7.10000000E+02  3.00000000E+01  0.00000000E+00
  7.20000000E+02  3.00000000E+01  0.00000000E+00
  7.30000000E+02  3.00000000E+01  0.00000000E+00
  7.40000000E+02  3.00000000E+01  0.00000000E+00
  7.50000000E+02  3.00000000E+01  0.00000000E+00
  7.60000000E+02  3.00000000E+01  0.00000000E+00
  7.70000000E+02  3.00000000E+01  0.00000000E+00
  7.80000000E+02  3.00000000E+01  0.00000000E+00
  7.90000000E+02  3.00000000E+01  0.00000000E+00
  8.00000000E+02  3.00000000E+01  0.00000000E+00
  8.10000000E+02  3.00000000E+01  0.00000000E+00
  8.20000000E+02  3.00000000E+01  0.00000000E+00
  8.30000000E+02  3.00000000E+01  0.00000000E+00
  8.40000000E+02  3.00000000E+01  0.00000000E+00
  8.50000000E+02  3.00000000E+01  0.00000000E+00
  8.60000000E+02  3.00000000E+01  0.00000000E+00
  8.70000000E+02  3.00000000E+01  0.00000000E+00
  8.80000000E+02  3.00000000E+01  0.00000000E+00
  8.90000000E+02  3.00000000E+01  0.00000000E+00
  9.00000000E+02  3.00000000E+01  0.00000000E+00
  9.10000000E+02  3.00000000E+01  0.00000000E+00
  9.20000000E+02  3.00000000E+01  0.00000000E+00
  9.30000000E+02  3.00000000E+01  0.00000000E+00
  9.40000000E+02  3.00000000E+01  0.00000000E+00
  9.50000000E+02  3.00000000E+01  0.00000000E+00
  9.60000000E+02  3.00000000E+01  0.00000000E+00
  9.70000000E+02  3.00000000E+01  0.00000000E+00
  9.80000000E+02  3.00000000E+01  0.00000000E+00
  9.90000000E+02  3.00000000E+01  0.00000000E+00
  1.00000000E+03  3.00000000E+01  0.00000000E+00
  0.00000000E+00  3.20000000E+01  0.00000000E+00
  1.00000000E+01  3.20000000E+01  0.00000000E+00
  2.00000000E+01  3.20000000E+01  0.00000000E+00
  3.00000000E+01  3.20000000E+01  0.00000000E+00
  4.00000000E+01  3.20000000E+01  0.00000000E+00
  5.00000000E+01  3.20000000E+01  0.00000000E+00
  6.00000000E+01  3.20000000E+01  0.00000000E+00
  7.00000000E+01  3.20000000E+01  0.00000000E+00
  8.00000000E+01  3.20000000E+01  0.00000000E+00
  9.00000000E+01  3.20000000E+01  0.00000000E+00
  1.00000000E+02  3.20000000E+01  0.00000000E+00
  1.10000000E+02  3.20000000E+01  0.00000000E+00
  1.20000000E+02  3.20000000E+01  0.00000000E+00
  1.30000000E+02  3.20000000E+01  0.00000000E+00
  1.40000000E+02  3.20000000E+01  0.00000000E+00
  1.50000000E+02  3.20000000E+01  0.00000000E+00
  1.60000000E+02  3.20000000E+01  0.00000000E+00
  1.70000000E+02  3.20000000E+01  0.00000000E+00
  1.80000000E+02  3.20000000E+01  0.00000000E+00
  1.90000000E+02  3.20000000E+01  0.00000000E+00
  2.00000000E+02  3.20000000E+01  0.00000000E+00
  2.10000000E+02  3.20000000E+01  0.00000000E+00
  2.20000000E+02  3.20000000E+01  0.00000000E+00
  2.30000000E+02  3.20000000E+01  0.00000000E+00
  2.40000000E+02  3.20000000E+01  0.00000000E+00
  2.50000000E+02  3.20000000E+01  0.00000000E+00
  2.60000000E+02  3.20000000E+01  0.00000000E+00
  2.70000000E+02  3.20000000E+01  0.00000000E+00
  2.80000000E+02  3.20000000E+01  0.00000000E+00
  2.90000000E+02  3.20000000E+01  0.00000000E+00
  3.00000000E+02  3.20000000E+01  0.00000000E+00
  3.10000000E+02  3.20000000E+01  0.00000000E+00
  3.20000000E+02  3.20000000E+01  0.00000000E+00
  3.30000000E+02  3.20000000E+01  0.00000000E+00
  3.40000000E+02  3.20000000E+01  0.00000000E+00
  3.50000000E+02  3.20000000E+01  0.00000000E+00
  3.60000000E+02  3.20000000E+01  0.00000000E+00
  3.70000000E+02  3.20000000E+01  0.00000000E+00
  3.80000000E+02  3.20000000E+01  0.00000000E+00
  3.90000000E+02  3.20000000E+01  0.00000000E+00
  4.00000000E+02  3.20000000E+01  0.00000000E+00
  4.10000000E+02  3.20000000E+01  0.00000000E+00
  4.20000000E+02  3.20000000E+01  0.00000000E+00
  4.30000000E+02  3.20000000E+01  0.00000000E+00
  4.40000000E+02  3.20000000E+01  0.00000000E+00
  4.50000000E+02  3.20000000E+01  0.00000000E+00
  4.60000000E+02  3.20000000E+01  0.00000000E+00
  4.70000000E+02  3.20000000E+01  0.00000000E+00
  4.80000000E+02  3.20000000E+01  0.00000000E+00
  4.90000000E+02  3.20000000E+01  0.00000000E+00
  5.00000000E+02  3.20000000E+01  0.00000000E+00
  5.10000000E+02  3.20000000E+01  0.00000000E+00
  5.20000000E+02  3.20000000E+01  0.00000000E+00
  5.30000000E+02  3.20000000E+01  0.00000000E+00
  5.40000000E+02  3.20000000E+01  0.00000000E+00
  5.50000000E+02  3.20000000E+01  0.00000000E+00
  5.60000000E+02  3.20000000E+01  0.00000000E+00
  5.70000000E+02  3.20000000E+01  0.00000000E+00
  5.80000000E+02  3.20000000E+01  0.00000000E+00
  5.90000000E+02  3.20000000E+01  0.00000000E+00
  6.00000000E+02  3.20000000E+01  0.00000000E+00
  6.10000000E+02  3.20000000E+01  0.00000000E+00
  6.20000000E+02  3.20000000E+01  0.00000000E+00
  6.30000000E+02  3.20000000E+01  0.00000000E+00
  6.40000000E+02  3.20000000E+01  0.00000000E+00
  6.50000000E+02  3.20000000E+01  0.00000000E+00
  6.60000000E+02  3.20000000E+01  0.00000000E+00
  6.70000000E+02  3.20000000E+01  0.00000000E+00
  6.80000000E+02  3.20000000E+01  0.00000000E+00
  6.90000000E+02  3.20000000E+01  0.00000000E+00
  7.00000000E+02  3.20000000E+01  0.00000000E+00
  7.10000000E+02  3.20000000E+01  0.00000000E+00
  7.20000000E+02  3.20000000E+01  0.00000000E+00
  7.30000000E+02  3.20000000E+01  0.00000000E+00
  7.40000000E+02  3.20000000E+01  0.00000000E+00
  7.50000000E+02  3.20000000E+01  0.00000000E+00
  7.60000000E+02  3.20000000E+01  0.00000000E+00
  7.70000000E+02  3.20000000E+01  0.00000000E+00
  7.80000000E+02  3.20000000E+01  0.00000000E+00
  7.90000000E+02  3.20000000E+01  0.00000000E+00
  8.00000000E+02  3.20000000E+01  0.00000000E+00
  8.10000000E+02  3.20000000E+01  0.00000000E+00
  8.20000000E+02  3.20000000E+01  0.00000000E+00
  8.30000000E+02  3.20000000E+01  0.00000000E+00
  8.40000000E+02  3.20000000E+01  0.00000000E+00
  8.50000000E+02  3.20000000E+01  0.00000000E+00
  8.60000000E+02  3.20000000E+01  0.00000000E+00
  8.70000000E+02  3.20000000E+01  0.00000000E+00
  8.80000000E+02  3.20000000E+01  0.00000000E+00
  8.90000000E+02  3.20000000E+01  0.00000000E+00
  9.00000000E+02  3.20000000E+01  0.00000000E+00
  9.10000000E+02  3.20000000E+01  0.00000000E+00
  9.20000000E+02  3.20000000E+01  0.00000000E+00
  9.30000000E+02  3.20000000E+01  0.00000000E+00
  9.40000000E+02  3.20000000E+01  0.00000000E+00
  9.50000000E+02  3.20000000E+01  0.00000000E+00
  9.60000000E+02  3.20000000E+01  0.00000000E+00
  9.70000000E+02  3.20000000E+01  0.00000000E+00
  9.80000000E+02  3.20000000E+01  0.00000000E+00
  9.90000000E+02  3.20000000E+01  0.00000000E+00
  1.00000000E+03  3.20000000E+01  0.00000000E+00
  0.00000000E+00  3.40000000E+01  0.00000000E+00
  1.00000000E+01  3.40000000E+01  0.00000000E+00
  2.00000000E+01  3.40000000E+01  0.00000000E+00
  3.00000000E+01  3.40000000E+01  0.00000000E+00
  4.00000000E+01  3.40000000E+01  0.00000000E+00
  5.00000000E+01  3.40000000E+01  0.00000000E+00
  6.00000000E+01  3.40000000E+01  0.00000000E+00
  7.00000000E+01  3.40000000E+01  0.00000000E+00
  8.00000000E+01  3.40000000E+01  0.00000000E+00
  9.00000000E+01  3.40000000E+01  0.00000000E+00
  1.00000000E+02  3.40000000E+01  0.00000000E+00
  1.10000000E+02  3.40000000E+01  0.00000000E+00
  1.20000000E+02  3.40000000E+01  0.00000000E+00
  1.30000000E+02  3.40000000E+01  0.00000000E+00
  1.40000000E+02  3.40000000E+01  0.00000000E+00
  1.50000000E+02  3.40000000E+01  0.00000000E+00
  1.60000000E+02  3.40000000E+01  0.00000000E+00
  1.70000000E+02  3.40000000E+01  0.00000000E+00
  1.80000000E+02  3.40000000E+01  0.00000000E+00
  1.90000000E+02  3.40000000E+01  0.00000000E+00
  2.00000000E+02  3.40000000E+01  0.00000000E+00
  2.10000000E+02  3.40000000E+01  0.00000000E+00
  2.20000000E+02  3.40000000E+01  0.00000000E+00
  2.30000000E+02  3.40000000E+01  0.00000000E+00
  2.40000000E+02  3.40000000E+01  0.00000000E+00
  2.50000000E+02  3.40000000E+01  0.00000000E+00
  2.60000000E+02  3.40000000E+01  0.00000000E+00
  2.70000000E+02  3.40000000E+01  0.00000000E+00
  2.80000000E+02  3.40000000E+01  0.00000000E+00
  2.90000000E+02  3.40000000E+01  0.00000000E+00
  3.00000000E+02  3.40000000E+01  0.00000000E+00
  3.10000000E+02  3.40000000E+01  0.00000000E+00
  3.20000000E+02  3.40000000E+01  0.00000000E+00
  3.30000000E+02  3.40000000E+01  0.00000000E+00
  3.40000000E+02  3.40000000E+01  0.00000000E+00
  3.50000000E+02  3.40000000E+01  0.00000000E+00
  3.60000000E+02  3.40000000E+01  0.00000000E+00
  3.70000000E+02  3.40000000E+01  0.00000000E+00
  3.80000000E+02  3.40000000E+01  0.00000000E+00
  3.90000000E+02  3.40000000E+01  0.00000000E+00
  4.00000000E+02  3.40000000E+01  0.00000000E+00
  4.10000000E+02  3.40000000E+01  0.00000000E+00
  4.20000000E+02  3.40000000E+01  0.00000000E+00
  4.30000000E+02  3.40000000E+01  0.00000000E+00
  4.40000000E+02  3.40000000E+01  0.00000000E+00
  4.50000000E+02  3.40000000E+01  0.00000000E+00
  4.60000000E+02  3.40000000E+01  0.00000000E+00
  4.70000000E+02  3.40000000E+01  0.00000000E+00
  4.80000000E+02  3.40000000E+01  0.00000000E+00
  4.90000000E+02  3.40000000E+01  0.00000000E+00
  5.00000000E+02  3.40000000E+01  0.00000000E+00
  5.10000000E+02  3.40000000E+01  0.00000000E+00
  5.20000000E+02  3.40000000E+01  0.00000000E+00
  5.30000000E+02  3.40000000E+01  0.00000000E+00
  5.40000000E+02  3.40000000E+01  0.00000000E+00
  5.50000000E+02  3.40000000E+01  0.00000000E+00
  5.60000000E+02  3.40000000E+01  0.00000000E+00
  5.70000000E+02  3.40000000E+01  0.00000000E+00
  5.80000000E+02  3.40000000E+01  0.00000000E+00
  5.90000000E+02  3.40000000E+01  0.00000000E+00
  6.00000000E+02  3.40000000E+01  0.00000000E+00
  6.10000000E+02  3.40000000E+01  0.00000000E+00
  6.20000000E+02  3.40000000E+01  0.00000000E+00
  6.30000000E+02  3.40000000E+01  0.00000000E+00
  6.40000000E+02  3.40000000E+01  0.00000000E+00
  6.50000000E+02  3.40000000E+01  0.00000000E+00
  6.60000000E+02  3.40000000E+01  0.00000000E+00
  6.70000000E+02  3.40000000E+01  0.00000000E+00
  6.80000000E+02  3.40000000E+01  0.00000000E+00
  6.90000000E+02  3.40000000E+01  0.00000000E+00
  7.00000000E+02  3.40000000E+01  0.00000000E+00
  7.10000000E+02  3.40000000E+01  0.00000000E+00
  7.20000000E+02  3.40000000E+01  0.00000000E+00
  7.30000000E+02  3.40000000E+01  0.00000000E+00
  7.40000000E+02  3.40000000E+01  0.00000000E+00
  7.50000000E+02  3.40000000E+01  0.00000000E+00
  7.60000000E+02  3.40000000E+01  0.00000000E+00
  7.70000000E+02  3.40000000E+01  0.00000000E+00
  7.80000000E+02  3.40000000E+01  0.00000000E+00
  7.90000000E+02  3.40000000E+01  0.00000000E+00
  8.00000000E+02  3.40000000E+01  0.00000000E+00
  8.10000000E+02  3.40000000E+01  0.00000000E+00
  8.20000000E+02  3.40000000E+01  0.00000000E+00
  8.30000000E+02  3.40000000E+01  0.00000000E+00
  8.40000000E+02  3.40000000E+01  0.00000000E+00
  8.50000000E+02  3.40000000E+01  0.00000000E+00
  8.60000000E+02  3.40000000E+01  0.00000000E+00
  8.70000000E+02  3.40000000E+01  0.00000000E+00
  8.80000000E+02  3.40000000E+01  0.00000000E+00
  8.90000000E+02  3.40000000E+01  0.00000000E+00
  9.00000000E+02  3.40000000E+01  0.00000000E+00
  9.10000000E+02  3.40000000E+01  0.00000000E+00
  9.20000000E+02  3.40000000E+01  0.00000000E+00
  9.30000000E+02  3.40000000E+01  0.00000000E+00
  9.40000000E+02  3.40000000E+01  0.00000000E+00
  9.50000000E+02  3.40000000E+01  0.00000000E+00
  9.60000000E+02  3.40000000E+01  0.00000000E+00
  9.70000000E+02  3.40000000E+01  0.00000000E+00
  9.80000000E+02  3.40000000E+01  0.00000000E+00
  9.90000000E+02  3.40000000E+01  0.00000000E+00
  1.00000000E+03  3.40000000E+01  0.00000000E+00
  0.00000000E+00  3.60000000E+01  0.00000000E+00
  1.00000000E+01  3.60000000E+01  0.00000000E+00
  2.00000000E+01  3.60000000E+01  0.00000000E+00
  3.00000000E+01  3.60000000E+01  0.00000000E+00
  4.00000000E+01  3.60000000E+01  0.00000000E+00
  5.00000000E+01  3.60000000E+01  0.00000000E+00
  6.00000000E+01  3.60000000E+01  0.00000000E+00
  7.00000000E+01  3.60000000E+01  0.00000000E+00
  8.00000000E+01  3.60000000E+01  0.00000000E+00
  9.00000000E+01  3.60000000E+01  0.00000000E+00
  1.00000000E+02  3.60000000E+01  0.00000000E+00
  1.10000000E+02  3.60000000E+01  0.00000000E+00
  1.20000000E+02  3.60000000E+01  0.00000000E+00
  1.30000000E+02  3.60000000E+01  0.00000000E+00
  1.40000000E+02  3.60000000E+01  0.00000000E+00
  1.50000000E+02  3.60000000E+01  0.00000000E+00
  1.60000000E+02  3.60000000E+01  0.00000000E+00
  1.70000000E+02  3.60000000E+01  0.00000000E+00
  1.80000000E+02  3.60000000E+01  0.00000000E+00
  1.90000000E+02  3.60000000E+01  0.00000000E+00
  2.00000000E+02  3.60000000E+01  0.00000000E+00
  2.10000000E+02  3.60000000E+01  0.00000000E+00
  2.20000000E+02  3.60000000E+01  0.00000000E+00
  2.30000000E+02  3.60000000E+01  0.00000000E+00
  2.40000000E+02  3.60000000E+01  0.00000000E+00
  2.50000000E+02  3.60000000E+01  0.00000000E+00
  2.60000000E+02  3.60000000E+01  0.00000000E+00
  2.70000000E+02  3.60000000E+01  0.00000000E+00
  2.80000000E+02  3.60000000E+01  0.00000000E+00
  2.90000000E+02  3.60000000E+01  0.00000000E+00
  3.00000000E+02  3.60000000E+01  0.00000000E+00
  3.10000000E+02  3.60000000E+01  0.00000000E+00
  3.20000000E+02  3.60000000E+01  0.00000000E+00
  3.30000000E+02  3.60000000E+01  0.00000000E+00
  3.40000000E+02  3.60000000E+01  0.00000000E+00
  3.50000000E+02  3.60000000E+01  0.00000000E+00
  3.60000000E+02  3.60000000E+01  0.00000000E+00
  3.70000000E+02  3.60000000E+01  0.00000000E+00
  3.80000000E+02  3.60000000E+01  0.00000000E+00
  3.90000000E+02  3.60000000E+01  0.00000000E+00
  4.00000000E+02  3.60000000E+01  0.00000000E+00
  4.10000000E+02  3.60000000E+01  0.00000000E+00
  4.20000000E+02  3.60000000E+01  0.00000000E+00
  4.30000000E+02  3.60000000E+01  0.00000000E+00
  4.40000000E+02  3.60000000E+01  0.00000000E+00
  4.50000000E+02  3.60000000E+01  0.00000000E+00
  4.60000000E+02  3.60000000E+01  0.00000000E+00
  4.70000000E+02  3.60000000E+01  0.00000000E+00
  4.80000000E+02  3.60000000E+01  0.00000000E+00
  4.90000000E+02  3.60000000E+01  0.00000000E+00
  5.00000000E+02  3.60000000E+01  0.00000000E+00
  5.10000000E+02  3.60000000E+01  0.00000000E+00
  5.20000000E+02  3.60000000E+01  0.00000000E+00
  5.30000000E+02  3.60000000E+01  0.00000000E+00
  5.40000000E+02  3.60000000E+01  0.00000000E+00
  5.50000000E+02  3.60000000E+01  0.00000000E+00
  5.60000000E+02  3.60000000E+01  0.00000000E+00
  5.70000000E+02  3.60000000E+01  0.00000000E+00
  5.80000000E+02  3.60000000E+01  0.00000000E+00
  5.90000000E+02  3.60000000E+01  0.00000000E+00
  6.00000000E+02  3.60000000E+01  0.00000000E+00
  6.10000000E+02  3.60000000E+01  0.00000000E+00
  6.20000000E+02  3.60000000E+01  0.00000000E+00
  6.30000000E+02  3.60000000E+01  0.00000000E+00
  6.40000000E+02  3.60000000E+01  0.00000000E+00
  6.50000000E+02  3.60000000E+01  0.00000000E+00
  6.60000000E+02  3.60000000E+01  0.00000000E+00
  6.70000000E+02  3.60000000E+01  0.00000000E+00
  6.80000000E+02  3.60000000E+01  0.00000000E+00
  6.90000000E+02  3.60000000E+01  0.00000000E+00
  7.00000000E+02  3.60000000E+01  0.00000000E+00
  7.10000000E+02  3.60000000E+01  0.00000000E+00
  7.20000000E+02  3.60000000E+01  0.00000000E+00
  7.30000000E+02  3.60000000E+01  0.00000000E+00
  7.40000000E+02  3.60000000E+01  0.00000000E+00
  7.50000000E+02  3.60000000E+01  0.00000000E+00
  7.60000000E+02  3.60000000E+01  0.00000000E+00
  7.70000000E+02  3.60000000E+01  0.00000000E+00
  7.80000000E+02  3.60000000E+01  0.00000000E+00
  7.90000000E+02  3.60000000E+01  0.00000000E+00
  8.00000000E+02  3.60000000E+01  0.00000000E+00
  8.10000000E+02  3.60000000E+01  0.00000000E+00
  8.20000000E+02  3.60000000E+01  0.00000000E+00
  8.30000000E+02  3.60000000E+01  0.00000000E+00
  8.40000000E+02  3.60000000E+01  0.00000000E+00
  8.50000000E+02  3.60000000E+01  0.00000000E+00
  8.60000000E+02  3.60000000E+01  0.00000000E+00
  8.70000000E+02  3.60000000E+01  0.00000000E+00
  8.80000000E+02  3.60000000E+01  0.00000000E+00
  8.90000000E+02  3.60000000E+01  0.00000000E+00
  9.00000000E+02  3.60000000E+01  0.00000000E+00
  9.10000000E+02  3.60000000E+01  0.00000000E+00
  9.20000000E+02  3.60000000E+01  0.00000000E+00
  9.30000000E+02  3.60000000E+01  0.00000000E+00
  9.40000000E+02  3.60000000E+01  0.00000000E+00
  9.50000000E+02  3.60000000E+01  0.00000000E+00
  9.60000000E+02  3.60000000E+01  0.00000000E+00
  9.70000000E+02  3.60000000E+01  0.00000000E+00
  9.80000000E+02  3.60000000E+01  0.00000000E+00
  9.90000000E+02  3.60000000E+01  0.00000000E+00
  1.00000000E+03  3.60000000E+01  0.00000000E+00
  0.00000000E+00  3.80000000E+01  0.00000000E+00
  1.00000000E+01  3.80000000E+01  0.00000000E+00
  2.00000000E+01  3.80000000E+01  0.00000000E+00
  3.00000000E+01  3.80000000E+01  0.00000000E+00
  4.00000000E+01  3.80000000E+01  0.00000000E+00
  5.00000000E+01  3.80000000E+01  0.00000000E+00
  6.00000000E+01  3.80000000E+01  0.00000000E+00
  7.00000000E+01  3.80000000E+01  0.00000000E+00
  8.00000000E+01  3.80000000E+01  0.00000000E+00
  9.00000000E+01  3.80000000E+01  0.00000000E+00
  1.00000000E+02  3.80000000E+01  0.00000000E+00
  1.10000000E+02  3.80000000E+01  0.00000000E+00
  1.20000000E+02  3.80000000E+01  0.00000000E+00
  1.30000000E+02  3.80000000E+01  0.00000000E+00
  1.40000000E+02  3.80000000E+01  0.00000000E+00
  1.50000000E+02  3.80000000E+01  0.00000000E+00
  1.60000000E+02  3.80000000E+01  0.00000000E+00
  1.70000000E+02  3.80000000E+01  0.00000000E+00
  1.80000000E+02  3.80000000E+01  0.00000000E+00
  1.90000000E+02  3.80000000E+01  0.00000000E+00
  2.00000000E+02  3.80000000E+01  0.00000000E+00
  2.10000000E+02  3.80000000E+01  0.00000000E+00
  2.20000000E+02  3.80000000E+01  0.00000000E+00
  2.30000000E+02  3.80000000E+01  0.00000000E+00
  2.40000000E+02  3.80000000E+01  0.00000000E+00
  2.50000000E+02  3.80000000E+01  0.00000000E+00
  2.60000000E+02  3.80000000E+01  0.00000000E+00
  2.70000000E+02  3.80000000E+01  0.00000000E+00
  2.80000000E+02  3.80000000E+01  0.00000000E+00
  2.90000000E+02  3.80000000E+01  0.00000000E+00
  3.00000000E+02  3.80000000E+01  0.00000000E+00
  3.10000000E+02  3.80000000E+01  0.00000000E+00
  3.20000000E+02  3.80000000E+01  0.00000000E+00
  3.30000000E+02  3.80000000E+01  0.00000000E+00
  3.40000000E+02  3.80000000E+01  0.00000000E+00
  3.50000000E+02  3.80000000E+01  0.00000000E+00
  3.60000000E+02  3.80000000E+01  0.00000000E+00
  3.70000000E+02  3.80000000E+01  0.00000000E+00
  3.80000000E+02  3.80000000E+01  0.00000000E+00
  3.90000000E+02  3.80000000E+01  0.00000000E+00
  4.00000000E+02  3.80000000E+01  0.00000000E+00
  4.10000000E+02  3.80000000E+01  0.00000000E+00
  4.20000000E+02  3.80000000E+01  0.00000000E+00
  4.30000000E+02  3.80000000E+01  0.00000000E+00
  4.40000000E+02  3.80000000E+01  0.00000000E+00
  4.50000000E+02  3.80000000E+01  0.00000000E+00
  4.60000000E+02  3.80000000E+01  0.00000000E+00
  4.70000000E+02  3.80000000E+01  0.00000000E+00
  4.80000000E+02  3.80000000E+01  0.00000000E+00
  4.90000000E+02  3.80000000E+01  0.00000000E+00
  5.00000000E+02  3.80000000E+01  0.00000000E+00
  5.10000000E+02  3.80000000E+01  0.00000000E+00
  5.20000000E+02  3.80000000E+01  0.00000000E+00
  5.30000000E+02  3.80000000E+01  0.00000000E+00
  5.40000000E+02  3.80000000E+01  0.00000000E+00
  5.50000000E+02  3.80000000E+01  0.00000000E+00
  5.60000000E+02  3.80000000E+01  0.00000000E+00
  5.70000000E+02  3.80000000E+01  0.00000000E+00
  5.80000000E+02  3.80000000E+01  0.00000000E+00
  5.90000000E+02  3.80000000E+01  0.00000000E+00
  6.00000000E+02  3.80000000E+01  0.00000000E+00
  6.10000000E+02  3.80000000E+01  0.00000000E+00
  6.20000000E+02  3.80000000E+01  0.00000000E+00
  6.30000000E+02  3.80000000E+01  0.00000000E+00
  6.40000000E+02  3.80000000E+01  0.00000000E+00
  6.50000000E+02  3.80000000E+01  0.00000000E+00
  6.60000000E+02  3.80000000E+01  0.00000000E+00
  6.70000000E+02  3.80000000E+01  0.00000000E+00
  6.80000000E+02  3.80000000E+01  0.00000000E+00
  6.90000000E+02  3.80000000E+01  0.00000000E+00
  7.00000000E+02  3.80000000E+01  0.00000000E+00
  7.10000000E+02  3.80000000E+01  0.00000000E+00
  7.20000000E+02  3.80000000E+01  0.00000000E+00
  7.30000000E+02  3.80000000E+01  0.00000000E+00
  7.40000000E+02  3.80000000E+01  0.00000000E+00
  7.50000000E+02  3.80000000E+01  0.00000000E+00
  7.60000000E+02  3.80000000E+01  0.00000000E+00
  7.70000000E+02  3.80000000E+01  0.00000000E+00
  7.80000000E+02  3.80000000E+01  0.00000000E+00
  7.90000000E+02  3.80000000E+01  0.00000000E+00
  8.00000000E+02  3.80000000E+01  0.00000000E+00
  8.10000000E+02  3.80000000E+01  0.00000000E+00
  8.20000000E+02  3.80000000E+01  0.00000000E+00
  8.30000000E+02  3.80000000E+01  0.00000000E+00
  8.40000000E+02  3.80000000E+01  0.00000000E+00
  8.50000000E+02  3.80000000E+01  0.00000000E+00
  8.60000000E+02  3.80000000E+01  0.00000000E+00
  8.70000000E+02  3.80000000E+01  0.00000000E+00
  8.80000000E+02  3.80000000E+01  0.00000000E+00
  8.90000000E+02  3.80000000E+01  0.00000000E+00
  9.00000000E+02  3.80000000E+01  0.00000000E+00
  9.10000000E+02  3.80000000E+01  0.00000000E+00
  9.20000000E+02  3.80000000E+01  0.00000000E+00
  9.30000000E+02  3.80000000E+01  0.00000000E+00
  9.40000000E+02  3.80000000E+01  0.00000000E+00
  9.50000000E+02  3.80000000E+01  0.00000000E+00
  9.60000000E+02  3.80000000E+01  0.00000000E+00
  9.70000000E+02  3.80000000E+01  0.00000000E+00
  9.80000000E+02  3.80000000E+01  0.00000000E+00
  9.90000000E+02  3.80000000E+01  0.00000000E+00
  1.00000000E+03  3.80000000E+01  0.00000000E+00
  0.00000000E+00  4.00000000E+01  0.00000000E+00
  1.00000000E+01  4.00000000E+01  0.00000000E+00
  2.00000000E+01  4.00000000E+01  0.00000000E+00
  3.00000000E+01  4.00000000E+01  0.00000000E+00
  4.00000000E+01  4.00000000E+01  0.00000000E+00
  5.00000000E+01  4.00000000E+01  0.00000000E+00
  6.00000000E+01  4.00000000E+01  0.00000000E+00
  7.00000000E+01  4.00000000E+01  0.00000000E+00
  8.00000000E+01  4.00000000E+01  0.00000000E+00
  9.00000000E+01  4.00000000E+01  0.00000000E+00
  1.00000000E+02  4.00000000E+01  0.00000000E+00
  1.10000000E+02  4.00000000E+01  0.00000000E+00
  1.20000000E+02  4.00000000E+01  0.00000000E+00
  1.30000000E+02  4.00000000E+01  0.00000000E+00
  1.40000000E+02  4.00000000E+01  0.00000000E+00
  1.50000000E+02  4.00000000E+01  0.00000000E+00
  1.60000000E+02  4.00000000E+01  0.00000000E+00
  1.70000000E+02  4.00000000E+01  0.00000000E+00
  1.80000000E+02  4.00000000E+01  0.00000000E+00
  1.90000000E+02  4.00000000E+01  0.00000000E+00
  2.00000000E+02  4.00000000E+01  0.00000000E+00
  2.10000000E+02  4.00000000E+01  0.00000000E+00
  2.20000000E+02  4.00000000E+01  0.00000000E+00
  2.30000000E+02  4.00000000E+01  0.00000000E+00
  2.40000000E+02  4.00000000E+01  0.00000000E+00
  2.50000000E+02  4.00000000E+01  0.00000000E+00
  2.60000000E+02  4.00000000E+01  0.00000000E+00
  2.70000000E+02  4.00000000E+01  0.00000000E+00
  2.80000000E+02  4.00000000E+01  0.00000000E+00
  2.90000000E+02  4.00000000E+01  0.00000000E+00
  3.00000000E+02  4.00000000E+01  0.00000000E+00
  3.10000000E+02  4.00000000E+01  0.00000000E+00
  3.20000000E+02  4.00000000E+01  0.00000000E+00
  3.30000000E+02  4.00000000E+01  0.00000000E+00
  3.40000000E+02  4.00000000E+01  0.00000000E+00
  3.50000000E+02  4.00000000E+01  0.00000000E+00
  3.60000000E+02  4.00000000E+01  0.00000000E+00
  3.70000000E+02  4.00000000E+01  0.00000000E+00
  3.80000000E+02  4.00000000E+01  0.00000000E+00
  3.90000000E+02  4.00000000E+01  0.00000000E+00
  4.00000000E+02  4.00000000E+01  0.00000000E+00
  4.10000000E+02  4.00000000E+01  0.00000000E+00
  4.20000000E+02  4.00000000E+01  0.00000000E+00
  4.30000000E+02  4.00000000E+01  0.00000000E+00
  4.40000000E+02  4.00000000E+01  0.00000000E+00
  4.50000000E+02  4.00000000E+01  0.00000000E+00
  4.60000000E+02  4.00000000E+01  0.00000000E+00
  4.70000000E+02  4.00000000E+01  0.00000000E+00
  4.80000000E+02  4.00000000E+01  0.00000000E+00
  4.90000000E+02  4.00000000E+01  0.00000000E+00
  5.00000000E+02  4.00000000E+01  0.00000000E+00
  5.10000000E+02  4.00000000E+01  0.00000000E+00
  5.20000000E+02  4.00000000E+01  0.00000000E+00
  5.30000000E+02  4.00000000E+01  0.00000000E+00
  5.40000000E+02  4.00000000E+01  0.00000000E+00
  5.50000000E+02  4.00000000E+01  0.00000000E+00
  5.60000000E+02  4.00000000E+01  0.00000000E+00
  5.70000000E+02  4.00000000E+01  0.00000000E+00
  5.80000000E+02  4.00000000E+01  0.00000000E+00
  5.90000000E+02  4.00000000E+01  0.00000000E+00
  6.00000000E+02  4.00000000E+01  0.00000000E+00
  6.10000000E+02  4.00000000E+01  0.00000000E+00
  6.20000000E+02  4.00000000E+01  0.00000000E+00
  6.30000000E+02  4.00000000E+01  0.00000000E+00
  6.40000000E+02  4.00000000E+01  0.00000000E+00
  6.50000000E+02  4.00000000E+01  0.00000000E+00
  6.60000000E+02  4.00000000E+01  0.00000000E+00
  6.70000000E+02  4.00000000E+01  0.00000000E+00
  6.80000000E+02  4.00000000E+01  0.00000000E+00
  6.90000000E+02  4.00000000E+01  0.00000000E+00
  7.00000000E+02  4.00000000E+01  0.00000000E+00
  7.10000000E+02  4.00000000E+01  0.00000000E+00
  7.20000000E+02  4.00000000E+01  0.00000000E+00
  7.30000000E+02  4.00000000E+01  0.00000000E+00
  7.40000000E+02  4.00000000E+01  0.00000000E+00
  7.50000000E+02  4.00000000E+01  0.00000000E+00
  7.60000000E+02  4.00000000E+01  0.00000000E+00
  7.70000000E+02  4.00000000E+01  0.00000000E+00
  7.80000000E+02  4.00000000E+01  0.00000000E+00
  7.90000000E+02  4.00000000E+01  0.00000000E+00
  8.00000000E+02  4.00000000E+01  0.00000000E+00
  8.10000000E+02  4.00000000E+01  0.00000000E+00
  8.20000000E+02  4.00000000E+01  0.00000000E+00
  8.30000000E+02  4.00000000E+01  0.00000000E+00
  8.40000000E+02  4.00000000E+01  0.00000000E+00
  8.50000000E+02  4.00000000E+01  0.00000000E+00
  8.60000000E+02  4.00000000E+01  0.00000000E+00
  8.70000000E+02  4.00000000E+01  0.00000000E+00
  8.80000000E+02  4.00000000E+01  0.00000000E+00
  8.90000000E+02  4.00000000E+01  0.00000000E+00
  9.00000000E+02  4.00000000E+01  0.00000000E+00
  9.10000000E+02  4.00000000E+01  0.00000000E+00
  9.20000000E+02  4.00000000E+01  0.00000000E+00
  9.30000000E+02  4.00000000E+01  0.00000000E+00
  9.40000000E+02  4.00000000E+01  0.00000000E+00
  9.50000000E+02  4.00000000E+01  0.00000000E+00
  9.60000000E+02  4.00000000E+01  0.00000000E+00
  9.70000000E+02  4.00000000E+01  0.00000000E+00
  9.80000000E+02  4.00000000E+01  0.00000000E+00
  9.90000000E+02  4.00000000E+01  0.00000000E+00
  1.00000000E+03  4.00000000E+01  0.00000000E+00
  0.00000000E+00  4.20000000E+01  0.00000000E+00
  1.00000000E+01  4.20000000E+01  0.00000000E+00
  2.00000000E+01  4.20000000E+01  0.00000000E+00
  3.00000000E+01  4.20000000E+01  0.00000000E+00
  4.00000000E+01  4.20000000E+01  0.00000000E+00
  5.00000000E+01  4.20000000E+01  0.00000000E+00
  6.00000000E+01  4.20000000E+01  0.00000000E+00
  7.00000000E+01  4.20000000E+01  0.00000000E+00
  8.00000000E+01  4.20000000E+01  0.00000000E+00
  9.00000000E+01  4.20000000E+01  0.00000000E+00
  1.00000000E+02  4.20000000E+01  0.00000000E+00
  1.10000000E+02  4.20000000E+01  0.00000000E+00
  1.20000000E+02  4.20000000E+01  0.00000000E+00
  1.30000000E+02  4.20000000E+01  0.00000000E+00
  1.40000000E+02  4.20000000E+01  0.00000000E+00
  1.50000000E+02  4.20000000E+01  0.00000000E+00
  1.60000000E+02  4.20000000E+01  0.00000000E+00
  1.70000000E+02  4.20000000E+01  0.00000000E+00
  1.80000000E+02  4.20000000E+01  0.00000000E+00
  1.90000000E+02  4.20000000E+01  0.00000000E+00
  2.00000000E+02  4.20000000E+01  0.00000000E+00
  2.10000000E+02  4.20000000E+01  0.00000000E+00
  2.20000000E+02  4.20000000E+01  0.00000000E+00
  2.30000000E+02  4.20000000E+01  0.00000000E+00
  2.40000000E+02  4.20000000E+01  0.00000000E+00
  2.50000000E+02  4.20000000E+01  0.00000000E+00
  2.60000000E+02  4.20000000E+01  0.00000000E+00
  2.70000000E+02  4.20000000E+01  0.00000000E+00
  2.80000000E+02  4.20000000E+01  0.00000000E+00
  2.90000000E+02  4.20000000E+01  0.00000000E+00
  3.00000000E+02  4.20000000E+01  0.00000000E+00
  3.10000000E+02  4.20000000E+01  0.00000000E+00
  3.20000000E+02  4.20000000E+01  0.00000000E+00
  3.30000000E+02  4.20000000E+01  0.00000000E+00
  3.40000000E+02  4.20000000E+01  0.00000000E+00
  3.50000000E+02  4.20000000E+01  0.00000000E+00
  3.60000000E+02  4.20000000E+01  0.00000000E+00
  3.70000000E+02  4.20000000E+01  0.00000000E+00
  3.80000000E+02  4.20000000E+01  0.00000000E+00
  3.90000000E+02  4.20000000E+01  0.00000000E+00
  4.00000000E+02  4.20000000E+01  0.00000000E+00
  4.10000000E+02  4.20000000E+01  0.00000000E+00
  4.20000000E+02  4.20000000E+01  0.00000000E+00
  4.30000000E+02  4.20000000E+01  0.00000000E+00
  4.40000000E+02  4.20000000E+01  0.00000000E+00
  4.50000000E+02  4.20000000E+01  0.00000000E+00
  4.60000000E+02  4.20000000E+01  0.00000000E+00
  4.70000000E+02  4.20000000E+01  0.00000000E+00
  4.80000000E+02  4.20000000E+01  0.00000000E+00
  4.90000000E+02  4.20000000E+01  0.00000000E+00
  5.00000000E+02  4.20000000E+01  0.00000000E+00
  5.10000000E+02  4.20000000E+01  0.00000000E+00
  5.20000000E+02  4.20000000E+01  0.00000000E+00
  5.30000000E+02  4.20000000E+01  0.00000000E+00
  5.40000000E+02  4.20000000E+01  0.00000000E+00
  5.50000000E+02  4.20000000E+01  0.00000000E+00
  5.60000000E+02  4.20000000E+01  0.00000000E+00
  5.70000000E+02  4.20000000E+01  0.00000000E+00
  5.80000000E+02  4.20000000E+01  0.00000000E+00
  5.90000000E+02  4.20000000E+01  0.00000000E+00
  6.00000000E+02  4.20000000E+01  0.00000000E+00
  6.10000000E+02  4.20000000E+01  0.00000000E+00
  6.20000000E+02  4.20000000E+01  0.00000000E+00
  6.30000000E+02  4.20000000E+01  0.00000000E+00
  6.40000000E+02  4.20000000E+01  0.00000000E+00
  6.50000000E+02  4.20000000E+01  0.00000000E+00
  6.60000000E+02  4.20000000E+01  0.00000000E+00
  6.70000000E+02  4.20000000E+01  0.00000000E+00
  6.80000000E+02  4.20000000E+01  0.00000000E+00
  6.90000000E+02  4.20000000E+01  0.00000000E+00
  7.00000000E+02  4.20000000E+01  0.00000000E+00
  7.10000000E+02  4.20000000E+01  0.00000000E+00
  7.20000000E+02  4.20000000E+01  0.00000000E+00
  7.30000000E+02  4.20000000E+01  0.00000000E+00
  7.40000000E+02  4.20000000E+01  0.00000000E+00
  7.50000000E+02  4.20000000E+01  0.00000000E+00
  7.60000000E+02  4.20000000E+01  0.00000000E+00
  7.70000000E+02  4.20000000E+01  0.00000000E+00
  7.80000000E+02  4.20000000E+01  0.00000000E+00
  7.90000000E+02  4.20000000E+01  0.00000000E+00
  8.00000000E+02  4.20000000E+01  0.00000000E+00
  8.10000000E+02  4.20000000E+01  0.00000000E+00
  8.20000000E+02  4.20000000E+01  0.00000000E+00
  8.30000000E+02  4.20000000E+01  0.00000000E+00
  8.40000000E+02  4.20000000E+01  0.00000000E+00
  8.50000000E+02  4.20000000E+01  0.00000000E+00
  8.60000000E+02  4.20000000E+01  0.00000000E+00
  8.70000000E+02  4.20000000E+01  0.00000000E+00
  8.80000000E+02  4.20000000E+01  0.00000000E+00
  8.90000000E+02  4.20000000E+01  0.00000000E+00
  9.00000000E+02  4.20000000E+01  0.00000000E+00
  9.10000000E+02  4.20000000E+01  0.00000000E+00
  9.20000000E+02  4.20000000E+01  0.00000000E+00
  9.30000000E+02  4.20000000E+01  0.00000000E+00
  9.40000000E+02  4.20000000E+01  0.00000000E+00
  9.50000000E+02  4.20000000E+01  0.00000000E+00
  9.60000000E+02  4.20000000E+01  0.00000000E+00
  9.70000000E+02  4.20000000E+01  0.00000000E+00
  9.80000000E+02  4.20000000E+01  0.00000000E+00
  9.90000000E+02  4.20000000E+01  0.00000000E+00
  1.00000000E+03  4.20000000E+01  0.00000000E+00
  0.00000000E+00  4.40000000E+01  0.00000000E+00
  1.00000000E+01  4.40000000E+01  0.00000000E+00
  2.00000000E+01  4.40000000E+01  0.00000000E+00
  3.00000000E+01  4.40000000E+01  0.00000000E+00
  4.00000000E+01  4.40000000E+01  0.00000000E+00
  5.00000000E+01  4.40000000E+01  0.00000000E+00
  6.00000000E+01  4.40000000E+01  0.00000000E+00
  7.00000000E+01  4.40000000E+01  0.00000000E+00
  8.00000000E+01  4.40000000E+01  0.00000000E+00
  9.00000000E+01  4.40000000E+01  0.00000000E+00
  1.00000000E+02  4.40000000E+01  0.00000000E+00
  1.10000000E+02  4.40000000E+01  0.00000000E+00
  1.20000000E+02  4.40000000E+01  0.00000000E+00
  1.30000000E+02  4.40000000E+01  0.00000000E+00
  1.40000000E+02  4.40000000E+01  0.00000000E+00
  1.50000000E+02  4.40000000E+01  0.00000000E+00
  1.60000000E+02  4.40000000E+01  0.00000000E+00
  1.70000000E+02  4.40000000E+01  0.00000000E+00
  1.80000000E+02  4.40000000E+01  0.00000000E+00
  1.90000000E+02  4.40000000E+01  0.00000000E+00
  2.00000000E+02  4.40000000E+01  0.00000000E+00
  2.10000000E+02  4.40000000E+01  0.00000000E+00
  2.20000000E+02  4.40000000E+01  0.00000000E+00
  2.30000000E+02  4.40000000E+01  0.00000000E+00
  2.40000000E+02  4.40000000E+01  0.00000000E+00
  2.50000000E+02  4.40000000E+01  0.00000000E+00
  2.60000000E+02  4.40000000E+01  0.00000000E+00
  2.70000000E+02  4.40000000E+01  0.00000000E+00
  2.80000000E+02  4.40000000E+01  0.00000000E+00
  2.90000000E+02  4.40000000E+01  0.00000000E+00
  3.00000000E+02  4.40000000E+01  0.00000000E+00
  3.10000000E+02  4.40000000E+01  0.00000000E+00
  3.20000000E+02  4.40000000E+01  0.00000000E+00
  3.30000000E+02  4.40000000E+01  0.00000000E+00
  3.40000000E+02  4.40000000E+01  0.00000000E+00
  3.50000000E+02  4.40000000E+01  0.00000000E+00
  3.60000000E+02  4.40000000E+01  0.00000000E+00
  3.70000000E+02  4.40000000E+01  0.00000000E+00
  3.80000000E+02  4.40000000E+01  0.00000000E+00
  3.90000000E+02  4.40000000E+01  0.00000000E+00
  4.00000000E+02  4.40000000E+01  0.00000000E+00
  4.10000000E+02  4.40000000E+01  0.00000000E+00
  4.20000000E+02  4.40000000E+01  0.00000000E+00
  4.30000000E+02  4.40000000E+01  0.00000000E+00
  4.40000000E+02  4.40000000E+01  0.00000000E+00
  4.50000000E+02  4.40000000E+01  0.00000000E+00
  4.60000000E+02  4.40000000E+01  0.00000000E+00
  4.70000000E+02  4.40000000E+01  0.00000000E+00
  4.80000000E+02  4.40000000E+01  0.00000000E+00
  4.90000000E+02  4.40000000E+01  0.00000000E+00
  5.00000000E+02  4.40000000E+01  0.00000000E+00
  5.10000000E+02  4.40000000E+01  0.00000000E+00
  5.20000000E+02  4.40000000E+01  0.00000000E+00
  5.30000000E+02  4.40000000E+01  0.00000000E+00
  5.40000000E+02  4.40000000E+01  0.00000000E+00
  5.50000000E+02  4.40000000E+01  0.00000000E+00
  5.60000000E+02  4.40000000E+01  0.00000000E+00
  5.70000000E+02  4.40000000E+01  0.00000000E+00
  5.80000000E+02  4.40000000E+01  0.00000000E+00
  5.90000000E+02  4.40000000E+01  0.00000000E+00
  6.00000000E+02  4.40000000E+01  0.00000000E+00
  6.10000000E+02  4.40000000E+01  0.00000000E+00
  6.20000000E+02  4.40000000E+01  0.00000000E+00
  6.30000000E+02  4.40000000E+01  0.00000000E+00
  6.40000000E+02  4.40000000E+01  0.00000000E+00
  6.50000000E+02  4.40000000E+01  0.00000000E+00
  6.60000000E+02  4.40000000E+01  0.00000000E+00
  6.70000000E+02  4.40000000E+01  0.00000000E+00
  6.80000000E+02  4.40000000E+01  0.00000000E+00
  6.90000000E+02  4.40000000E+01  0.00000000E+00
  7.00000000E+02  4.40000000E+01  0.00000000E+00
  7.10000000E+02  4.40000000E+01  0.00000000E+00
  7.20000000E+02  4.40000000E+01  0.00000000E+00
  7.30000000E+02  4.40000000E+01  0.00000000E+00
  7.40000000E+02  4.40000000E+01  0.00000000E+00
  7.50000000E+02  4.40000000E+01  0.00000000E+00
  7.60000000E+02  4.40000000E+01  0.00000000E+00
  7.70000000E+02  4.40000000E+01  0.00000000E+00
  7.80000000E+02  4.40000000E+01  0.00000000E+00
  7.90000000E+02  4.40000000E+01  0.00000000E+00
  8.00000000E+02  4.40000000E+01  0.00000000E+00
  8.10000000E+02  4.40000000E+01  0.00000000E+00
  8.20000000E+02  4.40000000E+01  0.00000000E+00
  8.30000000E+02  4.40000000E+01  0.00000000E+00
  8.40000000E+02  4.40000000E+01  0.00000000E+00
  8.50000000E+02  4.40000000E+01  0.00000000E+00
  8.60000000E+02  4.40000000E+01  0.00000000E+00
  8.70000000E+02  4.40000000E+01  0.00000000E+00
  8.80000000E+02  4.40000000E+01  0.00000000E+00
  8.90000000E+02  4.40000000E+01  0.00000000E+00
  9.00000000E+02  4.40000000E+01  0.00000000E+00
  9.10000000E+02  4.40000000E+01  0.00000000E+00
  9.20000000E+02  4.40000000E+01  0.00000000E+00
  9.30000000E+02  4.40000000E+01  0.00000000E+00
  9.40000000E+02  4.40000000E+01  0.00000000E+00
  9.50000000E+02  4.40000000E+01  0.00000000E+00
  9.60000000E+02  4.40000000E+01  0.00000000E+00
  9.70000000E+02  4.40000000E+01  0.00000000E+00
  9.80000000E+02  4.40000000E+01  0.00000000E+00
  9.90000000E+02  4.40000000E+01  0.00000000E+00
  1.00000000E+03  4.40000000E+01  0.00000000E+00
  0.00000000E+00  4.60000000E+01  0.00000000E+00
  1.00000000E+01  4.60000000E+01  0.00000000E+00
  2.00000000E+01  4.60000000E+01  0.00000000E+00
  3.00000000E+01  4.60000000E+01  0.00000000E+00
  4.00000000E+01  4.60000000E+01  0.00000000E+00
  5.00000000E+01  4.60000000E+01  0.00000000E+00
  6.00000000E+01  4.60000000E+01  0.00000000E+00
  7.00000000E+01  4.60000000E+01  0.00000000E+00
  8.00000000E+01  4.60000000E+01  0.00000000E+00
  9.00000000E+01  4.60000000E+01  0.00000000E+00
  1.00000000E+02  4.60000000E+01  0.00000000E+00
  1.10000000E+02  4.60000000E+01  0.00000000E+00
  1.20000000E+02  4.60000000E+01  0.00000000E+00
  1.30000000E+02  4.60000000E+01  0.00000000E+00
  1.40000000E+02  4.60000000E+01  0.00000000E+00
  1.50000000E+02  4.60000000E+01  0.00000000E+00
  1.60000000E+02  4.60000000E+01  0.00000000E+00
  1.70000000E+02  4.60000000E+01  0.00000000E+00
  1.80000000E+02  4.60000000E+01  0.00000000E+00
  1.90000000E+02  4.60000000E+01  0.00000000E+00
  2.00000000E+02  4.60000000E+01  0.00000000E+00
  2.10000000E+02  4.60000000E+01  0.00000000E+00
  2.20000000E+02  4.60000000E+01  0.00000000E+00
  2.30000000E+02  4.60000000E+01  0.00000000E+00
  2.40000000E+02  4.60000000E+01  0.00000000E+00
  2.50000000E+02  4.60000000E+01  0.00000000E+00
  2.60000000E+02  4.60000000E+01  0.00000000E+00
  2.70000000E+02  4.60000000E+01  0.00000000E+00
  2.80000000E+02  4.60000000E+01  0.00000000E+00
  2.90000000E+02  4.60000000E+01  0.00000000E+00
  3.00000000E+02  4.60000000E+01  0.00000000E+00
  3.10000000E+02  4.60000000E+01  0.00000000E+00
  3.20000000E+02  4.60000000E+01  0.00000000E+00
  3.30000000E+02  4.60000000E+01  0.00000000E+00
  3.40000000E+02  4.60000000E+01  0.00000000E+00
  3.50000000E+02  4.60000000E+01  0.00000000E+00
  3.60000000E+02  4.60000000E+01  0.00000000E+00
  3.70000000E+02  4.60000000E+01  0.00000000E+00
  3.80000000E+02  4.60000000E+01  0.00000000E+00
  3.90000000E+02  4.60000000E+01  0.00000000E+00
  4.00000000E+02  4.60000000E+01  0.00000000E+00
  4.10000000E+02  4.60000000E+01  0.00000000E+00
  4.20000000E+02  4.60000000E+01  0.00000000E+00
  4.30000000E+02  4.60000000E+01  0.00000000E+00
  4.40000000E+02  4.60000000E+01  0.00000000E+00
  4.50000000E+02  4.60000000E+01  0.00000000E+00
  4.60000000E+02  4.60000000E+01  0.00000000E+00
  4.70000000E+02  4.60000000E+01  0.00000000E+00
  4.80000000E+02  4.60000000E+01  0.00000000E+00
  4.90000000E+02  4.60000000E+01  0.00000000E+00
  5.00000000E+02  4.60000000E+01  0.00000000E+00
  5.10000000E+02  4.60000000E+01  0.00000000E+00
  5.20000000E+02  4.60000000E+01  0.00000000E+00
  5.30000000E+02  4.60000000E+01  0.00000000E+00
  5.40000000E+02  4.60000000E+01  0.00000000E+00
  5.50000000E+02  4.60000000E+01  0.00000000E+00
  5.60000000E+02  4.60000000E+01  0.00000000E+00
  5.70000000E+02  4.60000000E+01  0.00000000E+00
  5.80000000E+02  4.60000000E+01  0.00000000E+00
  5.90000000E+02  4.60000000E+01  0.00000000E+00
  6.00000000E+02  4.60000000E+01  0.00000000E+00
  6.10000000E+02  4.60000000E+01  0.00000000E+00
  6.20000000E+02  4.60000000E+01  0.00000000E+00
  6.30000000E+02  4.60000000E+01  0.00000000E+00
  6.40000000E+02  4.60000000E+01  0.00000000E+00
  6.50000000E+02  4.60000000E+01  0.00000000E+00
  6.60000000E+02  4.60000000E+01  0.00000000E+00
  6.70000000E+02  4.60000000E+01  0.00000000E+00
  6.80000000E+02  4.60000000E+01  0.00000000E+00
  6.90000000E+02  4.60000000E+01  0.00000000E+00
  7.00000000E+02  4.60000000E+01  0.00000000E+00
  7.10000000E+02  4.60000000E+01  0.00000000E+00
  7.20000000E+02  4.60000000E+01  0.00000000E+00
  7.30000000E+02  4.60000000E+01  0.00000000E+00
  7.40000000E+02  4.60000000E+01  0.00000000E+00
  7.50000000E+02  4.60000000E+01  0.00000000E+00
  7.60000000E+02  4.60000000E+01  0.00000000E+00
  7.70000000E+02  4.60000000E+01  0.00000000E+00
  7.80000000E+02  4.60000000E+01  0.00000000E+00
  7.90000000E+02  4.60000000E+01  0.00000000E+00
  8.00000000E+02  4.60000000E+01  0.00000000E+00
  8.10000000E+02  4.60000000E+01  0.00000000E+00
  8.20000000E+02  4.60000000E+01  0.00000000E+00
  8.30000000E+02  4.60000000E+01  0.00000000E+00
  8.40000000E+02  4.60000000E+01  0.00000000E+00
  8.50000000E+02  4.60000000E+01  0.00000000E+00
  8.60000000E+02  4.60000000E+01  0.00000000E+00
  8.70000000E+02  4.60000000E+01  0.00000000E+00
  8.80000000E+02  4.60000000E+01  0.00000000E+00
  8.90000000E+02  4.60000000E+01  0.00000000E+00
  9.00000000E+02  4.60000000E+01  0.00000000E+00
  9.10000000E+02  4.60000000E+01  0.00000000E+00
  9.20000000E+02  4.60000000E+01  0.00000000E+00
  9.30000000E+02  4.60000000E+01  0.00000000E+00
  9.40000000E+02  4.60000000E+01  0.00000000E+00
  9.50000000E+02  4.60000000E+01  0.00000000E+00
  9.60000000E+02  4.60000000E+01  0.00000000E+00
  9.70000000E+02  4.60000000E+01  0.00000000E+00
  9.80000000E+02  4.60000000E+01  0.00000000E+00
  9.90000000E+02  4.60000000E+01  0.00000000E+00
  1.00000000E+03  4.60000000E+01  0.00000000E+00
  0.00000000E+00  4.80000000E+01  0.00000000E+00
  1.00000000E+01  4.80000000E+01  0.00000000E+00
  2.00000000E+01  4.80000000E+01  0.00000000E+00
  3.00000000E+01  4.80000000E+01  0.00000000E+00
  4.00000000E+01  4.80000000E+01  0.00000000E+00
  5.00000000E+01  4.80000000E+01  0.00000000E+00
  6.00000000E+01  4.80000000E+01  0.00000000E+00
  7.00000000E+01  4.80000000E+01  0.00000000E+00
  8.00000000E+01  4.80000000E+01  0.00000000E+00
  9.00000000E+01  4.80000000E+01  0.00000000E+00
  1.00000000E+02  4.80000000E+01  0.00000000E+00
  1.10000000E+02  4.80000000E+01  0.00000000E+00
  1.20000000E+02  4.80000000E+01  0.00000000E+00
  1.30000000E+02  4.80000000E+01  0.00000000E+00
  1.40000000E+02  4.80000000E+01  0.00000000E+00
  1.50000000E+02  4.80000000E+01  0.00000000E+00
  1.60000000E+02  4.80000000E+01  0.00000000E+00
  1.70000000E+02  4.80000000E+01  0.00000000E+00
  1.80000000E+02  4.80000000E+01  0.00000000E+00
  1.90000000E+02  4.80000000E+01  0.00000000E+00
  2.00000000E+02  4.80000000E+01  0.00000000E+00
  2.10000000E+02  4.80000000E+01  0.00000000E+00
  2.20000000E+02  4.80000000E+01  0.00000000E+00
  2.30000000E+02  4.80000000E+01  0.00000000E+00
  2.40000000E+02  4.80000000E+01  0.00000000E+00
  2.50000000E+02  4.80000000E+01  0.00000000E+00
  2.60000000E+02  4.80000000E+01  0.00000000E+00
  2.70000000E+02  4.80000000E+01  0.00000000E+00
  2.80000000E+02  4.80000000E+01  0.00000000E+00
  2.90000000E+02  4.80000000E+01  0.00000000E+00
  3.00000000E+02  4.80000000E+01  0.00000000E+00
  3.10000000E+02  4.80000000E+01  0.00000000E+00
  3.20000000E+02  4.80000000E+01  0.00000000E+00
  3.30000000E+02  4.80000000E+01  0.00000000E+00
  3.40000000E+02  4.80000000E+01  0.00000000E+00
  3.50000000E+02  4.80000000E+01  0.00000000E+00
  3.60000000E+02  4.80000000E+01  0.00000000E+00
  3.70000000E+02  4.80000000E+01  0.00000000E+00
  3.80000000E+02  4.80000000E+01  0.00000000E+00
  3.90000000E+02  4.80000000E+01  0.00000000E+00
  4.00000000E+02  4.80000000E+01  0.00000000E+00
  4.10000000E+02  4.80000000E+01  0.00000000E+00
  4.20000000E+02  4.80000000E+01  0.00000000E+00
  4.30000000E+02  4.80000000E+01  0.00000000E+00
  4.40000000E+02  4.80000000E+01  0.00000000E+00
  4.50000000E+02  4.80000000E+01  0.00000000E+00
  4.60000000E+02  4.80000000E+01  0.00000000E+00
  4.70000000E+02  4.80000000E+01  0.00000000E+00
  4.80000000E+02  4.80000000E+01  0.00000000E+00
  4.90000000E+02  4.80000000E+01  0.00000000E+00
  5.00000000E+02  4.80000000E+01  0.00000000E+00
  5.10000000E+02  4.80000000E+01  0.00000000E+00
  5.20000000E+02  4.80000000E+01  0.00000000E+00
  5.30000000E+02  4.80000000E+01  0.00000000E+00
  5.40000000E+02  4.80000000E+01  0.00000000E+00
  5.50000000E+02  4.80000000E+01  0.00000000E+00
  5.60000000E+02  4.80000000E+01  0.00000000E+00
  5.70000000E+02  4.80000000E+01  0.00000000E+00
  5.80000000E+02  4.80000000E+01  0.00000000E+00
  5.90000000E+02  4.80000000E+01  0.00000000E+00
  6.00000000E+02  4.80000000E+01  0.00000000E+00
  6.10000000E+02  4.80000000E+01  0.00000000E+00
  6.20000000E+02  4.80000000E+01  0.00000000E+00
  6.30000000E+02  4.80000000E+01  0.00000000E+00
  6.40000000E+02  4.80000000E+01  0.00000000E+00
  6.50000000E+02  4.80000000E+01  0.00000000E+00
  6.60000000E+02  4.80000000E+01  0.00000000E+00
  6.70000000E+02  4.80000000E+01  0.00000000E+00
  6.80000000E+02  4.80000000E+01  0.00000000E+00
  6.90000000E+02  4.80000000E+01  0.00000000E+00
  7.00000000E+02  4.80000000E+01  0.00000000E+00
  7.10000000E+02  4.80000000E+01  0.00000000E+00
  7.20000000E+02  4.80000000E+01  0.00000000E+00
  7.30000000E+02  4.80000000E+01  0.00000000E+00
  7.40000000E+02  4.80000000E+01  0.00000000E+00
  7.50000000E+02  4.80000000E+01  0.00000000E+00
  7.60000000E+02  4.80000000E+01  0.00000000E+00
  7.70000000E+02  4.80000000E+01  0.00000000E+00
  7.80000000E+02  4.80000000E+01  0.00000000E+00
  7.90000000E+02  4.80000000E+01  0.00000000E+00
  8.00000000E+02  4.80000000E+01  0.00000000E+00
  8.10000000E+02  4.80000000E+01  0.00000000E+00
  8.20000000E+02  4.80000000E+01  0.00000000E+00
  8.30000000E+02  4.80000000E+01  0.00000000E+00
  8.40000000E+02  4.80000000E+01  0.00000000E+00
  8.50000000E+02  4.80000000E+01  0.00000000E+00
  8.60000000E+02  4.80000000E+01  0.00000000E+00
  8.70000000E+02  4.80000000E+01  0.00000000E+00
  8.80000000E+02  4.80000000E+01  0.00000000E+00
  8.90000000E+02  4.80000000E+01  0.00000000E+00
  9.00000000E+02  4.80000000E+01  0.00000000E+00
  9.10000000E+02  4.80000000E+01  0.00000000E+00
  9.20000000E+02  4.80000000E+01  0.00000000E+00
  9.30000000E+02  4.80000000E+01  0.00000000E+00
  9.40000000E+02  4.80000000E+01  0.00000000E+00
  9.50000000E+02  4.80000000E+01  0.00000000E+00
  9.60000000E+02  4.80000000E+01  0.00000000E+00
  9.70000000E+02  4.80000000E+01  0.00000000E+00
  9.80000000E+02  4.80000000E+01  0.00000000E+00
  9.90000000E+02  4.80000000E+01  0.00000000E+00
  1.00000000E+03  4.80000000E+01  0.00000000E+00
  0.00000000E+00  5.00000000E+01  0.00000000E+00
  1.00000000E+01  5.00000000E+01  0.00000000E+00
  2.00000000E+01  5.00000000E+01  0.00000000E+00
  3.00000000E+01  5.00000000E+01  0.00000000E+00
  4.00000000E+01  5.00000000E+01  0.00000000E+00
  5.00000000E+01  5.00000000E+01  0.00000000E+00
  6.00000000E+01  5.00000000E+01  0.00000000E+00
  7.00000000E+01  5.00000000E+01  0.00000000E+00
  8.00000000E+01  5.00000000E+01  0.00000000E+00
  9.00000000E+01  5.00000000E+01  0.00000000E+00
  1.00000000E+02  5.00000000E+01  0.00000000E+00
  1.10000000E+02  5.00000000E+01  0.00000000E+00
  1.20000000E+02  5.00000000E+01  0.00000000E+00
  1.30000000E+02  5.00000000E+01  0.00000000E+00
  1.40000000E+02  5.00000000E+01  0.00000000E+00
  1.50000000E+02  5.00000000E+01  0.00000000E+00
  1.60000000E+02  5.00000000E+01  0.00000000E+00
  1.70000000E+02  5.00000000E+01  0.00000000E+00
  1.80000000E+02  5.00000000E+01  0.00000000E+00
  1.90000000E+02  5.00000000E+01  0.00000000E+00
  2.00000000E+02  5.00000000E+01  0.00000000E+00
  2.10000000E+02  5.00000000E+01  0.00000000E+00
  2.20000000E+02  5.00000000E+01  0.00000000E+00
  2.30000000E+02  5.00000000E+01  0.00000000E+00
  2.40000000E+02  5.00000000E+01  0.00000000E+00
  2.50000000E+02  5.00000000E+01  0.00000000E+00
  2.60000000E+02  5.00000000E+01  0.00000000E+00
  2.70000000E+02  5.00000000E+01  0.00000000E+00
  2.80000000E+02  5.00000000E+01  0.00000000E+00
  2.90000000E+02  5.00000000E+01  0.00000000E+00
  3.00000000E+02  5.00000000E+01  0.00000000E+00
  3.10000000E+02  5.00000000E+01  0.00000000E+00
  3.20000000E+02  5.00000000E+01  0.00000000E+00
  3.30000000E+02  5.00000000E+01  0.00000000E+00
  3.40000000E+02  5.00000000E+01  0.00000000E+00
  3.50000000E+02  5.00000000E+01  0.00000000E+00
  3.60000000E+02  5.00000000E+01  0.00000000E+00
  3.70000000E+02  5.00000000E+01  0.00000000E+00
  3.80000000E+02  5.00000000E+01  0.00000000E+00
  3.90000000E+02  5.00000000E+01  0.00000000E+00
  4.00000000E+02  5.00000000E+01  0.00000000E+00
  4.10000000E+02  5.00000000E+01  0.00000000E+00
  4.20000000E+02  5.00000000E+01  0.00000000E+00
  4.30000000E+02  5.00000000E+01  0.00000000E+00
  4.40000000E+02  5.00000000E+01  0.00000000E+00
  4.50000000E+02  5.00000000E+01  0.00000000E+00
  4.60000000E+02  5.00000000E+01  0.00000000E+00
  4.70000000E+02  5.00000000E+01  0.00000000E+00
  4.80000000E+02  5.00000000E+01  0.00000000E+00
  4.90000000E+02  5.00000000E+01  0.00000000E+00
  5.00000000E+02  5.00000000E+01  0.00000000E+00
  5.10000000E+02  5.00000000E+01  0.00000000E+00
  5.20000000E+02  5.00000000E+01  0.00000000E+00
  5.30000000E+02  5.00000000E+01  0.00000000E+00
  5.40000000E+02  5.00000000E+01  0.00000000E+00
  5.50000000E+02  5.00000000E+01  0.00000000E+00
  5.60000000E+02  5.00000000E+01  0.00000000E+00
  5.70000000E+02  5.00000000E+01  0.00000000E+00
  5.80000000E+02  5.00000000E+01  0.00000000E+00
  5.90000000E+02  5.00000000E+01  0.00000000E+00
  6.00000000E+02  5.00000000E+01  0.00000000E+00
  6.10000000E+02  5.00000000E+01  0.00000000E+00
  6.20000000E+02  5.00000000E+01  0.00000000E+00
  6.30000000E+02  5.00000000E+01  0.00000000E+00
  6.40000000E+02  5.00000000E+01  0.00000000E+00
  6.50000000E+02  5.00000000E+01  0.00000000E+00
  6.60000000E+02  5.00000000E+01  0.00000000E+00
  6.70000000E+02  5.00000000E+01  0.00000000E+00
  6.80000000E+02  5.00000000E+01  0.00000000E+00
  6.90000000E+02  5.00000000E+01  0.00000000E+00
  7.00000000E+02  5.00000000E+01  0.00000000E+00
  7.10000000E+02  5.00000000E+01  0.00000000E+00
  7.20000000E+02  5.00000000E+01  0.00000000E+00
  7.30000000E+02  5.00000000E+01  0.00000000E+00
  7.40000000E+02  5.00000000E+01  0.00000000E+00
  7.50000000E+02  5.00000000E+01  0.00000000E+00
  7.60000000E+02  5.00000000E+01  0.00000000E+00
  7.70000000E+02  5.00000000E+01  0.00000000E+00
  7.80000000E+02  5.00000000E+01  0.00000000E+00
  7.90000000E+02  5.00000000E+01  0.00000000E+00
  8.00000000E+02  5.00000000E+01  0.00000000E+00
  8.10000000E+02  5.00000000E+01  0.00000000E+00
  8.20000000E+02  5.00000000E+01  0.00000000E+00
  8.30000000E+02  5.00000000E+01  0.00000000E+00
  8.40000000E+02  5.00000000E+01  0.00000000E+00
  8.50000000E+02  5.00000000E+01  0.00000000E+00
  8.60000000E+02  5.00000000E+01  0.00000000E+00
  8.70000000E+02  5.00000000E+01  0.00000000E+00
  8.80000000E+02  5.00000000E+01  0.00000000E+00
  8.90000000E+02  5.00000000E+01  0.00000000E+00
  9.00000000E+02  5.00000000E+01  0.00000000E+00
  9.10000000E+02  5.00000000E+01  0.00000000E+00
  9.20000000E+02  5.00000000E+01  0.00000000E+00
  9.30000000E+02  5.00000000E+01  0.00000000E+00
  9.40000000E+02  5.00000000E+01  0.00000000E+00
  9.50000000E+02  5.00000000E+01  0.00000000E+00
  9.60000000E+02  5.00000000E+01  0.00000000E+00
  9.70000000E+02  5.00000000E+01  0.00000000E+00
  9.80000000E+02  5.00000000E+01  0.00000000E+00
  9.90000000E+02  5.00000000E+01  0.00000000E+00
  1.00000000E+03  5.00000000E+01  0.00000000E+00
  0.00000000E+00  5.20000000E+01  0.00000000E+00
  1.00000000E+01  5.20000000E+01  0.00000000E+00
  2.00000000E+01  5.20000000E+01  0.00000000E+00
  3.00000000E+01  5.20000000E+01  0.00000000E+00
  4.00000000E+01  5.20000000E+01  0.00000000E+00
  5.00000000E+01  5.20000000E+01  0.00000000E+00
  6.00000000E+01  5.20000000E+01  0.00000000E+00
  7.00000000E+01  5.20000000E+01  0.00000000E+00
  8.00000000E+01  5.20000000E+01  0.00000000E+00
  9.00000000E+01  5.20000000E+01  0.00000000E+00
  1.00000000E+02  5.20000000E+01  0.00000000E+00
  1.10000000E+02  5.20000000E+01  0.00000000E+00
  1.20000000E+02  5.20000000E+01  0.00000000E+00
  1.30000000E+02  5.20000000E+01  0.00000000E+00
  1.40000000E+02  5.20000000E+01  0.00000000E+00
  1.50000000E+02  5.20000000E+01  0.00000000E+00
  1.60000000E+02  5.20000000E+01  0.00000000E+00
  1.70000000E+02  5.20000000E+01  0.00000000E+00
  1.80000000E+02  5.20000000E+01  0.00000000E+00
  1.90000000E+02  5.20000000E+01  0.00000000E+00
  2.00000000E+02  5.20000000E+01  0.00000000E+00
  2.10000000E+02  5.20000000E+01  0.00000000E+00
  2.20000000E+02  5.20000000E+01  0.00000000E+00
  2.30000000E+02  5.20000000E+01  0.00000000E+00
  2.40000000E+02  5.20000000E+01  0.00000000E+00
  2.50000000E+02  5.20000000E+01  0.00000000E+00
  2.60000000E+02  5.20000000E+01  0.00000000E+00
  2.70000000E+02  5.20000000E+01  0.00000000E+00
  2.80000000E+02  5.20000000E+01  0.00000000E+00
  2.90000000E+02  5.20000000E+01  0.00000000E+00
  3.00000000E+02  5.20000000E+01  0.00000000E+00
  3.10000000E+02  5.20000000E+01  0.00000000E+00
  3.20000000E+02  5.20000000E+01  0.00000000E+00
  3.30000000E+02  5.20000000E+01  0.00000000E+00
  3.40000000E+02  5.20000000E+01  0.00000000E+00
  3.50000000E+02  5.20000000E+01  0.00000000E+00
  3.60000000E+02  5.20000000E+01  0.00000000E+00
  3.70000000E+02  5.20000000E+01  0.00000000E+00
  3.80000000E+02  5.20000000E+01  0.00000000E+00
  3.90000000E+02  5.20000000E+01  0.00000000E+00
  4.00000000E+02  5.20000000E+01  0.00000000E+00
  4.10000000E+02  5.20000000E+01  0.00000000E+00
  4.20000000E+02  5.20000000E+01  0.00000000E+00
  4.30000000E+02  5.20000000E+01  0.00000000E+00
  4.40000000E+02  5.20000000E+01  0.00000000E+00
  4.50000000E+02  5.20000000E+01  0.00000000E+00
  4.60000000E+02  5.20000000E+01  0.00000000E+00
  4.70000000E+02  5.20000000E+01  0.00000000E+00
  4.80000000E+02  5.20000000E+01  0.00000000E+00
  4.90000000E+02  5.20000000E+01  0.00000000E+00
  5.00000000E+02  5.20000000E+01  0.00000000E+00
  5.10000000E+02  5.20000000E+01  0.00000000E+00
  5.20000000E+02  5.20000000E+01  0.00000000E+00
  5.30000000E+02  5.20000000E+01  0.00000000E+00
  5.40000000E+02  5.20000000E+01  0.00000000E+00
  5.50000000E+02  5.20000000E+01  0.00000000E+00
  5.60000000E+02  5.20000000E+01  0.00000000E+00
  5.70000000E+02  5.20000000E+01  0.00000000E+00
  5.80000000E+02  5.20000000E+01  0.00000000E+00
  5.90000000E+02  5.20000000E+01  0.00000000E+00
  6.00000000E+02  5.20000000E+01  0.00000000E+00
  6.10000000E+02  5.20000000E+01  0.00000000E+00
  6.20000000E+02  5.20000000E+01  0.00000000E+00
  6.30000000E+02  5.20000000E+01  0.00000000E+00
  6.40000000E+02  5.20000000E+01  0.00000000E+00
  6.50000000E+02  5.20000000E+01  0.00000000E+00
  6.60000000E+02  5.20000000E+01  0.00000000E+00
  6.70000000E+02  5.20000000E+01  0.00000000E+00
  6.80000000E+02  5.20000000E+01  0.00000000E+00
  6.90000000E+02  5.20000000E+01  0.00000000E+00
  7.00000000E+02  5.20000000E+01  0.00000000E+00
  7.10000000E+02  5.20000000E+01  0.00000000E+00
  7.20000000E+02  5.20000000E+01  0.00000000E+00
  7.30000000E+02  5.20000000E+01  0.00000000E+00
  7.40000000E+02  5.20000000E+01  0.00000000E+00
  7.50000000E+02  5.20000000E+01  0.00000000E+00
  7.60000000E+02  5.20000000E+01  0.00000000E+00
  7.70000000E+02  5.20000000E+01  0.00000000E+00
  7.80000000E+02  5.20000000E+01  0.00000000E+00
  7.90000000E+02  5.20000000E+01  0.00000000E+00
  8.00000000E+02  5.20000000E+01  0.00000000E+00
  8.10000000E+02  5.20000000E+01  0.00000000E+00
  8.20000000E+02  5.20000000E+01  0.00000000E+00
  8.30000000E+02  5.20000000E+01  0.00000000E+00
  8.40000000E+02  5.20000000E+01  0.00000000E+00
  8.50000000E+02  5.20000000E+01  0.00000000E+00
  8.60000000E+02  5.20000000E+01  0.00000000E+00
  8.70000000E+02  5.20000000E+01  0.00000000E+00
  8.80000000E+02  5.20000000E+01  0.00000000E+00
  8.90000000E+02  5.20000000E+01  0.00000000E+00
  9.00000000E+02  5.20000000E+01  0.00000000E+00
  9.10000000E+02  5.20000000E+01  0.00000000E+00
  9.20000000E+02  5.20000000E+01  0.00000000E+00
  9.30000000E+02  5.20000000E+01  0.00000000E+00
  9.40000000E+02  5.20000000E+01  0.00000000E+00
  9.50000000E+02  5.20000000E+01  0.00000000E+00
  9.60000000E+02  5.20000000E+01  0.00000000E+00
  9.70000000E+02  5.20000000E+01  0.00000000E+00
  9.80000000E+02  5.20000000E+01  0.00000000E+00
  9.90000000E+02  5.20000000E+01  0.00000000E+00
  1.00000000E+03  5.20000000E+01  0.00000000E+00
  0.00000000E+00  5.40000000E+01  0.00000000E+00
  1.00000000E+01  5.40000000E+01  0.00000000E+00
  2.00000000E+01  5.40000000E+01  0.00000000E+00
  3.00000000E+01  5.40000000E+01  0.00000000E+00
  4.00000000E+01  5.40000000E+01  0.00000000E+00
  5.00000000E+01  5.40000000E+01  0.00000000E+00
  6.00000000E+01  5.40000000E+01  0.00000000E+00
  7.00000000E+01  5.40000000E+01  0.00000000E+00
  8.00000000E+01  5.40000000E+01  0.00000000E+00
  9.00000000E+01  5.40000000E+01  0.00000000E+00
  1.00000000E+02  5.40000000E+01  0.00000000E+00
  1.10000000E+02  5.40000000E+01  0.00000000E+00
  1.20000000E+02  5.40000000E+01  0.00000000E+00
  1.30000000E+02  5.40000000E+01  0.00000000E+00
  1.40000000E+02  5.40000000E+01  0.00000000E+00
  1.50000000E+02  5.40000000E+01  0.00000000E+00
  1.60000000E+02  5.40000000E+01  0.00000000E+00
  1.70000000E+02  5.40000000E+01  0.00000000E+00
  1.80000000E+02  5.40000000E+01  0.00000000E+00
  1.90000000E+02  5.40000000E+01  0.00000000E+00
  2.00000000E+02  5.40000000E+01  0.00000000E+00
  2.10000000E+02  5.40000000E+01  0.00000000E+00
  2.20000000E+02  5.40000000E+01  0.00000000E+00
  2.30000000E+02  5.40000000E+01  0.00000000E+00
  2.40000000E+02  5.40000000E+01  0.00000000E+00
  2.50000000E+02  5.40000000E+01  0.00000000E+00
  2.60000000E+02  5.40000000E+01  0.00000000E+00
  2.70000000E+02  5.40000000E+01  0.00000000E+00
  2.80000000E+02  5.40000000E+01  0.00000000E+00
  2.90000000E+02  5.40000000E+01  0.00000000E+00
  3.00000000E+02  5.40000000E+01  0.00000000E+00
  3.10000000E+02  5.40000000E+01  0.00000000E+00
  3.20000000E+02  5.40000000E+01  0.00000000E+00
  3.30000000E+02  5.40000000E+01  0.00000000E+00
  3.40000000E+02  5.40000000E+01  0.00000000E+00
  3.50000000E+02  5.40000000E+01  0.00000000E+00
  3.60000000E+02  5.40000000E+01  0.00000000E+00
  3.70000000E+02  5.40000000E+01  0.00000000E+00
  3.80000000E+02  5.40000000E+01  0.00000000E+00
  3.90000000E+02  5.40000000E+01  0.00000000E+00
  4.00000000E+02  5.40000000E+01  0.00000000E+00
  4.10000000E+02  5.40000000E+01  0.00000000E+00
  4.20000000E+02  5.40000000E+01  0.00000000E+00
  4.30000000E+02  5.40000000E+01  0.00000000E+00
  4.40000000E+02  5.40000000E+01  0.00000000E+00
  4.50000000E+02  5.40000000E+01  0.00000000E+00
  4.60000000E+02  5.40000000E+01  0.00000000E+00
  4.70000000E+02  5.40000000E+01  0.00000000E+00
  4.80000000E+02  5.40000000E+01  0.00000000E+00
  4.90000000E+02  5.40000000E+01  0.00000000E+00
  5.00000000E+02  5.40000000E+01  0.00000000E+00
  5.10000000E+02  5.40000000E+01  0.00000000E+00
  5.20000000E+02  5.40000000E+01  0.00000000E+00
  5.30000000E+02  5.40000000E+01  0.00000000E+00
  5.40000000E+02  5.40000000E+01  0.00000000E+00
  5.50000000E+02  5.40000000E+01  0.00000000E+00
  5.60000000E+02  5.40000000E+01  0.00000000E+00
  5.70000000E+02  5.40000000E+01  0.00000000E+00
  5.80000000E+02  5.40000000E+01  0.00000000E+00
  5.90000000E+02  5.40000000E+01  0.00000000E+00
  6.00000000E+02  5.40000000E+01  0.00000000E+00
  6.10000000E+02  5.40000000E+01  0.00000000E+00
  6.20000000E+02  5.40000000E+01  0.00000000E+00
  6.30000000E+02  5.40000000E+01  0.00000000E+00
  6.40000000E+02  5.40000000E+01  0.00000000E+00
  6.50000000E+02  5.40000000E+01  0.00000000E+00
  6.60000000E+02  5.40000000E+01  0.00000000E+00
  6.70000000E+02  5.40000000E+01  0.00000000E+00
  6.80000000E+02  5.40000000E+01  0.00000000E+00
  6.90000000E+02  5.40000000E+01  0.00000000E+00
  7.00000000E+02  5.40000000E+01  0.00000000E+00
  7.10000000E+02  5.40000000E+01  0.00000000E+00
  7.20000000E+02  5.40000000E+01  0.00000000E+00
  7.30000000E+02  5.40000000E+01  0.00000000E+00
  7.40000000E+02  5.40000000E+01  0.00000000E+00
  7.50000000E+02  5.40000000E+01  0.00000000E+00
  7.60000000E+02  5.40000000E+01  0.00000000E+00
  7.70000000E+02  5.40000000E+01  0.00000000E+00
  7.80000000E+02  5.40000000E+01  0.00000000E+00
  7.90000000E+02  5.40000000E+01  0.00000000E+00
  8.00000000E+02  5.40000000E+01  0.00000000E+00
  8.10000000E+02  5.40000000E+01  0.00000000E+00
  8.20000000E+02  5.40000000E+01  0.00000000E+00
  8.30000000E+02  5.40000000E+01  0.00000000E+00
  8.40000000E+02  5.40000000E+01  0.00000000E+00
  8.50000000E+02  5.40000000E+01  0.00000000E+00
  8.60000000E+02  5.40000000E+01  0.00000000E+00
  8.70000000E+02  5.40000000E+01  0.00000000E+00
  8.80000000E+02  5.40000000E+01  0.00000000E+00
  8.90000000E+02  5.40000000E+01  0.00000000E+00
  9.00000000E+02  5.40000000E+01  0.00000000E+00
  9.10000000E+02  5.40000000E+01  0.00000000E+00
  9.20000000E+02  5.40000000E+01  0.00000000E+00
  9.30000000E+02  5.40000000E+01  0.00000000E+00
  9.40000000E+02  5.40000000E+01  0.00000000E+00
  9.50000000E+02  5.40000000E+01  0.00000000E+00
  9.60000000E+02  5.40000000E+01  0.00000000E+00
  9.70000000E+02  5.40000000E+01  0.00000000E+00
  9.80000000E+02  5.40000000E+01  0.00000000E+00
  9.90000000E+02  5.40000000E+01  0.00000000E+00
  1.00000000E+03  5.40000000E+01  0.00000000E+00
  0.00000000E+00  5.60000000E+01  0.00000000E+00
  1.00000000E+01  5.60000000E+01  0.00000000E+00
  2.00000000E+01  5.60000000E+01  0.00000000E+00
  3.00000000E+01  5.60000000E+01  0.00000000E+00
  4.00000000E+01  5.60000000E+01  0.00000000E+00
  5.00000000E+01  5.60000000E+01  0.00000000E+00
  6.00000000E+01  5.60000000E+01  0.00000000E+00
  7.00000000E+01  5.60000000E+01  0.00000000E+00
  8.00000000E+01  5.60000000E+01  0.00000000E+00
  9.00000000E+01  5.60000000E+01  0.00000000E+00
  1.00000000E+02  5.60000000E+01  0.00000000E+00
  1.10000000E+02  5.60000000E+01  0.00000000E+00
  1.20000000E+02  5.60000000E+01  0.00000000E+00
  1.30000000E+02  5.60000000E+01  0.00000000E+00
  1.40000000E+02  5.60000000E+01  0.00000000E+00
  1.50000000E+02  5.60000000E+01  0.00000000E+00
  1.60000000E+02  5.60000000E+01  0.00000000E+00
  1.70000000E+02  5.60000000E+01  0.00000000E+00
  1.80000000E+02  5.60000000E+01  0.00000000E+00
  1.90000000E+02  5.60000000E+01  0.00000000E+00
  2.00000000E+02  5.60000000E+01  0.00000000E+00
  2.10000000E+02  5.60000000E+01  0.00000000E+00
  2.20000000E+02  5.60000000E+01  0.00000000E+00
  2.30000000E+02  5.60000000E+01  0.00000000E+00
  2.40000000E+02  5.60000000E+01  0.00000000E+00
  2.50000000E+02  5.60000000E+01  0.00000000E+00
  2.60000000E+02  5.60000000E+01  0.00000000E+00
  2.70000000E+02  5.60000000E+01  0.00000000E+00
  2.80000000E+02  5.60000000E+01  0.00000000E+00
  2.90000000E+02  5.60000000E+01  0.00000000E+00
  3.00000000E+02  5.60000000E+01  0.00000000E+00
  3.10000000E+02  5.60000000E+01  0.00000000E+00
  3.20000000E+02  5.60000000E+01  0.00000000E+00
  3.30000000E+02  5.60000000E+01  0.00000000E+00
  3.40000000E+02  5.60000000E+01  0.00000000E+00
  3.50000000E+02  5.60000000E+01  0.00000000E+00
  3.60000000E+02  5.60000000E+01  0.00000000E+00
  3.70000000E+02  5.60000000E+01  0.00000000E+00
  3.80000000E+02  5.60000000E+01  0.00000000E+00
  3.90000000E+02  5.60000000E+01  0.00000000E+00
  4.00000000E+02  5.60000000E+01  0.00000000E+00
  4.10000000E+02  5.60000000E+01  0.00000000E+00
  4.20000000E+02  5.60000000E+01  0.00000000E+00
  4.30000000E+02  5.60000000E+01  0.00000000E+00
  4.40000000E+02  5.60000000E+01  0.00000000E+00
  4.50000000E+02  5.60000000E+01  0.00000000E+00
  4.60000000E+02  5.60000000E+01  0.00000000E+00
  4.70000000E+02  5.60000000E+01  0.00000000E+00
  4.80000000E+02  5.60000000E+01  0.00000000E+00
  4.90000000E+02  5.60000000E+01  0.00000000E+00
  5.00000000E+02  5.60000000E+01  0.00000000E+00
  5.10000000E+02  5.60000000E+01  0.00000000E+00
  5.20000000E+02  5.60000000E+01  0.00000000E+00
  5.30000000E+02  5.60000000E+01  0.00000000E+00
  5.40000000E+02  5.60000000E+01  0.00000000E+00
  5.50000000E+02  5.60000000E+01  0.00000000E+00
  5.60000000E+02  5.60000000E+01  0.00000000E+00
  5.70000000E+02  5.60000000E+01  0.00000000E+00
  5.80000000E+02  5.60000000E+01  0.00000000E+00
  5.90000000E+02  5.60000000E+01  0.00000000E+00
  6.00000000E+02  5.60000000E+01  0.00000000E+00
  6.10000000E+02  5.60000000E+01  0.00000000E+00
  6.20000000E+02  5.60000000E+01  0.00000000E+00
  6.30000000E+02  5.60000000E+01  0.00000000E+00
  6.40000000E+02  5.60000000E+01  0.00000000E+00
  6.50000000E+02  5.60000000E+01  0.00000000E+00
  6.60000000E+02  5.60000000E+01  0.00000000E+00
  6.70000000E+02  5.60000000E+01  0.00000000E+00
  6.80000000E+02  5.60000000E+01  0.00000000E+00
  6.90000000E+02  5.60000000E+01  0.00000000E+00
  7.00000000E+02  5.60000000E+01  0.00000000E+00
  7.10000000E+02  5.60000000E+01  0.00000000E+00
  7.20000000E+02  5.60000000E+01  0.00000000E+00
  7.30000000E+02  5.60000000E+01  0.00000000E+00
  7.40000000E+02  5.60000000E+01  0.00000000E+00
  7.50000000E+02  5.60000000E+01  0.00000000E+00
  7.60000000E+02  5.60000000E+01  0.00000000E+00
  7.70000000E+02  5.60000000E+01  0.00000000E+00
  7.80000000E+02  5.60000000E+01  0.00000000E+00
  7.90000000E+02  5.60000000E+01  0.00000000E+00
  8.00000000E+02  5.60000000E+01  0.00000000E+00
  8.10000000E+02  5.60000000E+01  0.00000000E+00
  8.20000000E+02  5.60000000E+01  0.00000000E+00
  8.30000000E+02  5.60000000E+01  0.00000000E+00
  8.40000000E+02  5.60000000E+01  0.00000000E+00
  8.50000000E+02  5.60000000E+01  0.00000000E+00
  8.60000000E+02  5.60000000E+01  0.00000000E+00
  8.70000000E+02  5.60000000E+01  0.00000000E+00
  8.80000000E+02  5.60000000E+01  0.00000000E+00
  8.90000000E+02  5.60000000E+01  0.00000000E+00
  9.00000000E+02  5.60000000E+01  0.00000000E+00
  9.10000000E+02  5.60000000E+01  0.00000000E+00
  9.20000000E+02  5.60000000E+01  0.00000000E+00
  9.30000000E+02  5.60000000E+01  0.00000000E+00
  9.40000000E+02  5.60000000E+01  0.00000000E+00
  9.50000000E+02  5.60000000E+01  0.00000000E+00
  9.60000000E+02  5.60000000E+01  0.00000000E+00
  9.70000000E+02  5.60000000E+01  0.00000000E+00
  9.80000000E+02  5.60000000E+01  0.00000000E+00
  9.90000000E+02  5.60000000E+01  0.00000000E+00
  1.00000000E+03  5.60000000E+01  0.00000000E+00
  0.00000000E+00  5.80000000E+01  0.00000000E+00
  1.00000000E+01  5.80000000E+01  0.00000000E+00
  2.00000000E+01  5.80000000E+01  0.00000000E+00
  3.00000000E+01  5.80000000E+01  0.00000000E+00
  4.00000000E+01  5.80000000E+01  0.00000000E+00
  5.00000000E+01  5.80000000E+01  0.00000000E+00
  6.00000000E+01  5.80000000E+01  0.00000000E+00
  7.00000000E+01  5.80000000E+01  0.00000000E+00
  8.00000000E+01  5.80000000E+01  0.00000000E+00
  9.00000000E+01  5.80000000E+01  0.00000000E+00
  1.00000000E+02  5.80000000E+01  0.00000000E+00
  1.10000000E+02  5.80000000E+01  0.00000000E+00
  1.20000000E+02  5.80000000E+01  0.00000000E+00
  1.30000000E+02  5.80000000E+01  0.00000000E+00
  1.40000000E+02  5.80000000E+01  0.00000000E+00
  1.50000000E+02  5.80000000E+01  0.00000000E+00
  1.60000000E+02  5.80000000E+01  0.00000000E+00
  1.70000000E+02  5.80000000E+01  0.00000000E+00
  1.80000000E+02  5.80000000E+01  0.00000000E+00
  1.90000000E+02  5.80000000E+01  0.00000000E+00
  2.00000000E+02  5.80000000E+01  0.00000000E+00
  2.10000000E+02  5.80000000E+01  0.00000000E+00
  2.20000000E+02  5.80000000E+01  0.00000000E+00
  2.30000000E+02  5.80000000E+01  0.00000000E+00
  2.40000000E+02  5.80000000E+01  0.00000000E+00
  2.50000000E+02  5.80000000E+01  0.00000000E+00
  2.60000000E+02  5.80000000E+01  0.00000000E+00
  2.70000000E+02  5.80000000E+01  0.00000000E+00
  2.80000000E+02  5.80000000E+01  0.00000000E+00
  2.90000000E+02  5.80000000E+01  0.00000000E+00
  3.00000000E+02  5.80000000E+01  0.00000000E+00
  3.10000000E+02  5.80000000E+01  0.00000000E+00
  3.20000000E+02  5.80000000E+01  0.00000000E+00
  3.30000000E+02  5.80000000E+01  0.00000000E+00
  3.40000000E+02  5.80000000E+01  0.00000000E+00
  3.50000000E+02  5.80000000E+01  0.00000000E+00
  3.60000000E+02  5.80000000E+01  0.00000000E+00
  3.70000000E+02  5.80000000E+01  0.00000000E+00
  3.80000000E+02  5.80000000E+01  0.00000000E+00
  3.90000000E+02  5.80000000E+01  0.00000000E+00
  4.00000000E+02  5.80000000E+01  0.00000000E+00
  4.10000000E+02  5.80000000E+01  0.00000000E+00
  4.20000000E+02  5.80000000E+01  0.00000000E+00
  4.30000000E+02  5.80000000E+01  0.00000000E+00
  4.40000000E+02  5.80000000E+01  0.00000000E+00
  4.50000000E+02  5.80000000E+01  0.00000000E+00
  4.60000000E+02  5.80000000E+01  0.00000000E+00
  4.70000000E+02  5.80000000E+01  0.00000000E+00
  4.80000000E+02  5.80000000E+01  0.00000000E+00
  4.90000000E+02  5.80000000E+01  0.00000000E+00
  5.00000000E+02  5.80000000E+01  0.00000000E+00
  5.10000000E+02  5.80000000E+01  0.00000000E+00
  5.20000000E+02  5.80000000E+01  0.00000000E+00
  5.30000000E+02  5.80000000E+01  0.00000000E+00
  5.40000000E+02  5.80000000E+01  0.00000000E+00
  5.50000000E+02  5.80000000E+01  0.00000000E+00
  5.60000000E+02  5.80000000E+01  0.00000000E+00
  5.70000000E+02  5.80000000E+01  0.00000000E+00
  5.80000000E+02  5.80000000E+01  0.00000000E+00
  5.90000000E+02  5.80000000E+01  0.00000000E+00
  6.00000000E+02  5.80000000E+01  0.00000000E+00
  6.10000000E+02  5.80000000E+01  0.00000000E+00
  6.20000000E+02  5.80000000E+01  0.00000000E+00
  6.30000000E+02  5.80000000E+01  0.00000000E+00
  6.40000000E+02  5.80000000E+01  0.00000000E+00
  6.50000000E+02  5.80000000E+01  0.00000000E+00
  6.60000000E+02  5.80000000E+01  0.00000000E+00
  6.70000000E+02  5.80000000E+01  0.00000000E+00
  6.80000000E+02  5.80000000E+01  0.00000000E+00
  6.90000000E+02  5.80000000E+01  0.00000000E+00
  7.00000000E+02  5.80000000E+01  0.00000000E+00
  7.10000000E+02  5.80000000E+01  0.00000000E+00
  7.20000000E+02  5.80000000E+01  0.00000000E+00
  7.30000000E+02  5.80000000E+01  0.00000000E+00
  7.40000000E+02  5.80000000E+01  0.00000000E+00
  7.50000000E+02  5.80000000E+01  0.00000000E+00
  7.60000000E+02  5.80000000E+01  0.00000000E+00
  7.70000000E+02  5.80000000E+01  0.00000000E+00
  7.80000000E+02  5.80000000E+01  0.00000000E+00
  7.90000000E+02  5.80000000E+01  0.00000000E+00
  8.00000000E+02  5.80000000E+01  0.00000000E+00
  8.10000000E+02  5.80000000E+01  0.00000000E+00
  8.20000000E+02  5.80000000E+01  0.00000000E+00
  8.30000000E+02  5.80000000E+01  0.00000000E+00
  8.40000000E+02  5.80000000E+01  0.00000000E+00
  8.50000000E+02  5.80000000E+01  0.00000000E+00
  8.60000000E+02  5.80000000E+01  0.00000000E+00
  8.70000000E+02  5.80000000E+01  0.00000000E+00
  8.80000000E+02  5.80000000E+01  0.00000000E+00
  8.90000000E+02  5.80000000E+01  0.00000000E+00
  9.00000000E+02  5.80000000E+01  0.00000000E+00
  9.10000000E+02  5.80000000E+01  0.00000000E+00
  9.20000000E+02  5.80000000E+01  0.00000000E+00
  9.30000000E+02  5.80000000E+01  0.00000000E+00
  9.40000000E+02  5.80000000E+01  0.00000000E+00
  9.50000000E+02  5.80000000E+01  0.00000000E+00
  9.60000000E+02  5.80000000E+01  0.00000000E+00
  9.70000000E+02  5.80000000E+01  0.00000000E+00
  9.80000000E+02  5.80000000E+01  0.00000000E+00
  9.90000000E+02  5.80000000E+01  0.00000000E+00
  1.00000000E+03  5.80000000E+01  0.00000000E+00
  0.00000000E+00  6.00000000E+01  0.00000000E+00
  1.00000000E+01  6.00000000E+01  0.00000000E+00
  2.00000000E+01  6.00000000E+01  0.00000000E+00
  3.00000000E+01  6.00000000E+01  0.00000000E+00
  4.00000000E+01  6.00000000E+01  0.00000000E+00
  5.00000000E+01  6.00000000E+01  0.00000000E+00
  6.00000000E+01  6.00000000E+01  0.00000000E+00
  7.00000000E+01  6.00000000E+01  0.00000000E+00
  8.00000000E+01  6.00000000E+01  0.00000000E+00
  9.00000000E+01  6.00000000E+01  0.00000000E+00
  1.00000000E+02  6.00000000E+01  0.00000000E+00
  1.10000000E+02  6.00000000E+01  0.00000000E+00
  1.20000000E+02  6.00000000E+01  0.00000000E+00
  1.30000000E+02  6.00000000E+01  0.00000000E+00
  1.40000000E+02  6.00000000E+01  0.00000000E+00
  1.50000000E+02  6.00000000E+01  0.00000000E+00
  1.60000000E+02  6.00000000E+01  0.00000000E+00
  1.70000000E+02  6.00000000E+01  0.00000000E+00
  1.80000000E+02  6.00000000E+01  0.00000000E+00
  1.90000000E+02  6.00000000E+01  0.00000000E+00
  2.00000000E+02  6.00000000E+01  0.00000000E+00
  2.10000000E+02  6.00000000E+01  0.00000000E+00
  2.20000000E+02  6.00000000E+01  0.00000000E+00
  2.30000000E+02  6.00000000E+01  0.00000000E+00
  2.40000000E+02  6.00000000E+01  0.00000000E+00
  2.50000000E+02  6.00000000E+01  0.00000000E+00
  2.60000000E+02  6.00000000E+01  0.00000000E+00
  2.70000000E+02  6.00000000E+01  0.00000000E+00
  2.80000000E+02  6.00000000E+01  0.00000000E+00
  2.90000000E+02  6.00000000E+01  0.00000000E+00
  3.00000000E+02  6.00000000E+01  0.00000000E+00
  3.10000000E+02  6.00000000E+01  0.00000000E+00
  3.20000000E+02  6.00000000E+01  0.00000000E+00
  3.30000000E+02  6.00000000E+01  0.00000000E+00
  3.40000000E+02  6.00000000E+01  0.00000000E+00
  3.50000000E+02  6.00000000E+01  0.00000000E+00
  3.60000000E+02  6.00000000E+01  0.00000000E+00
  3.70000000E+02  6.00000000E+01  0.00000000E+00
  3.80000000E+02  6.00000000E+01  0.00000000E+00
  3.90000000E+02  6.00000000E+01  0.00000000E+00
  4.00000000E+02  6.00000000E+01  0.00000000E+00
  4.10000000E+02  6.00000000E+01  0.00000000E+00
  4.20000000E+02  6.00000000E+01  0.00000000E+00
  4.30000000E+02  6.00000000E+01  0.00000000E+00
  4.40000000E+02  6.00000000E+01  0.00000000E+00
  4.50000000E+02  6.00000000E+01  0.00000000E+00
  4.60000000E+02  6.00000000E+01  0.00000000E+00
  4.70000000E+02  6.00000000E+01  0.00000000E+00
  4.80000000E+02  6.00000000E+01  0.00000000E+00
  4.90000000E+02  6.00000000E+01  0.00000000E+00
  5.00000000E+02  6.00000000E+01  0.00000000E+00
  5.10000000E+02  6.00000000E+01  0.00000000E+00
  5.20000000E+02  6.00000000E+01  0.00000000E+00
  5.30000000E+02  6.00000000E+01  0.00000000E+00
  5.40000000E+02  6.00000000E+01  0.00000000E+00
  5.50000000E+02  6.00000000E+01  0.00000000E+00
  5.60000000E+02  6.00000000E+01  0.00000000E+00
  5.70000000E+02  6.00000000E+01  0.00000000E+00
  5.80000000E+02  6.00000000E+01  0.00000000E+00
  5.90000000E+02  6.00000000E+01  0.00000000E+00
  6.00000000E+02  6.00000000E+01  0.00000000E+00
  6.10000000E+02  6.00000000E+01  0.00000000E+00
  6.20000000E+02  6.00000000E+01  0.00000000E+00
  6.30000000E+02  6.00000000E+01  0.00000000E+00
  6.40000000E+02  6.00000000E+01  0.00000000E+00
  6.50000000E+02  6.00000000E+01  0.00000000E+00
  6.60000000E+02  6.00000000E+01  0.00000000E+00
  6.70000000E+02  6.00000000E+01  0.00000000E+00
  6.80000000E+02  6.00000000E+01  0.00000000E+00
  6.90000000E+02  6.00000000E+01  0.00000000E+00
  7.00000000E+02  6.00000000E+01  0.00000000E+00
  7.10000000E+02  6.00000000E+01  0.00000000E+00
  7.20000000E+02  6.00000000E+01  0.00000000E+00
  7.30000000E+02  6.00000000E+01  0.00000000E+00
  7.40000000E+02  6.00000000E+01  0.00000000E+00
  7.50000000E+02  6.00000000E+01  0.00000000E+00
  7.60000000E+02  6.00000000E+01  0.00000000E+00
  7.70000000E+02  6.00000000E+01  0.00000000E+00
  7.80000000E+02  6.00000000E+01  0.00000000E+00
  7.90000000E+02  6.00000000E+01  0.00000000E+00
  8.00000000E+02  6.00000000E+01  0.00000000E+00
  8.10000000E+02  6.00000000E+01  0.00000000E+00
  8.20000000E+02  6.00000000E+01  0.00000000E+00
  8.30000000E+02  6.00000000E+01  0.00000000E+00
  8.40000000E+02  6.00000000E+01  0.00000000E+00
  8.50000000E+02  6.00000000E+01  0.00000000E+00
  8.60000000E+02  6.00000000E+01  0.00000000E+00
  8.70000000E+02  6.00000000E+01  0.00000000E+00
  8.80000000E+02  6.00000000E+01  0.00000000E+00
  8.90000000E+02  6.00000000E+01  0.00000000E+00
  9.00000000E+02  6.00000000E+01  0.00000000E+00
  9.10000000E+02  6.00000000E+01  0.00000000E+00
  9.20000000E+02  6.00000000E+01  0.00000000E+00
  9.30000000E+02  6.00000000E+01  0.00000000E+00
  9.40000000E+02  6.00000000E+01  0.00000000E+00
  9.50000000E+02  6.00000000E+01  0.00000000E+00
  9.60000000E+02  6.00000000E+01  0.00000000E+00
  9.70000000E+02  6.00000000E+01  0.00000000E+00
  9.80000000E+02  6.00000000E+01  0.00000000E+00
  9.90000000E+02  6.00000000E+01  0.00000000E+00
  1.00000000E+03  6.00000000E+01  0.00000000E+00
  0.00000000E+00  6.20000000E+01  0.00000000E+00
  1.00000000E+01  6.20000000E+01  0.00000000E+00
  2.00000000E+01  6.20000000E+01  0.00000000E+00
  3.00000000E+01  6.20000000E+01  0.00000000E+00
  4.00000000E+01  6.20000000E+01  0.00000000E+00
  5.00000000E+01  6.20000000E+01  0.00000000E+00
  6.00000000E+01  6.20000000E+01  0.00000000E+00
  7.00000000E+01  6.20000000E+01  0.00000000E+00
  8.00000000E+01  6.20000000E+01  0.00000000E+00
  9.00000000E+01  6.20000000E+01  0.00000000E+00
  1.00000000E+02  6.20000000E+01  0.00000000E+00
  1.10000000E+02  6.20000000E+01  0.00000000E+00
  1.20000000E+02  6.20000000E+01  0.00000000E+00
  1.30000000E+02  6.20000000E+01  0.00000000E+00
  1.40000000E+02  6.20000000E+01  0.00000000E+00
  1.50000000E+02  6.20000000E+01  0.00000000E+00
  1.60000000E+02  6.20000000E+01  0.00000000E+00
  1.70000000E+02  6.20000000E+01  0.00000000E+00
  1.80000000E+02  6.20000000E+01  0.00000000E+00
  1.90000000E+02  6.20000000E+01  0.00000000E+00
  2.00000000E+02  6.20000000E+01  0.00000000E+00
  2.10000000E+02  6.20000000E+01  0.00000000E+00
  2.20000000E+02  6.20000000E+01  0.00000000E+00
  2.30000000E+02  6.20000000E+01  0.00000000E+00
  2.40000000E+02  6.20000000E+01  0.00000000E+00
  2.50000000E+02  6.20000000E+01  0.00000000E+00
  2.60000000E+02  6.20000000E+01  0.00000000E+00
  2.70000000E+02  6.20000000E+01  0.00000000E+00
  2.80000000E+02  6.20000000E+01  0.00000000E+00
  2.90000000E+02  6.20000000E+01  0.00000000E+00
  3.00000000E+02  6.20000000E+01  0.00000000E+00
  3.10000000E+02  6.20000000E+01  0.00000000E+00
  3.20000000E+02  6.20000000E+01  0.00000000E+00
  3.30000000E+02  6.20000000E+01  0.00000000E+00
  3.40000000E+02  6.20000000E+01  0.00000000E+00
  3.50000000E+02  6.20000000E+01  0.00000000E+00
  3.60000000E+02  6.20000000E+01  0.00000000E+00
  3.70000000E+02  6.20000000E+01  0.00000000E+00
  3.80000000E+02  6.20000000E+01  0.00000000E+00
  3.90000000E+02  6.20000000E+01  0.00000000E+00
  4.00000000E+02  6.20000000E+01  0.00000000E+00
  4.10000000E+02  6.20000000E+01  0.00000000E+00
  4.20000000E+02  6.20000000E+01  0.00000000E+00
  4.30000000E+02  6.20000000E+01  0.00000000E+00
  4.40000000E+02  6.20000000E+01  0.00000000E+00
  4.50000000E+02  6.20000000E+01  0.00000000E+00
  4.60000000E+02  6.20000000E+01  0.00000000E+00
  4.70000000E+02  6.20000000E+01  0.00000000E+00
  4.80000000E+02  6.20000000E+01  0.00000000E+00
  4.90000000E+02  6.20000000E+01  0.00000000E+00
  5.00000000E+02  6.20000000E+01  0.00000000E+00
  5.10000000E+02  6.20000000E+01  0.00000000E+00
  5.20000000E+02  6.20000000E+01  0.00000000E+00
  5.30000000E+02  6.20000000E+01  0.00000000E+00
  5.40000000E+02  6.20000000E+01  0.00000000E+00
  5.50000000E+02  6.20000000E+01  0.00000000E+00
  5.60000000E+02  6.20000000E+01  0.00000000E+00
  5.70000000E+02  6.20000000E+01  0.00000000E+00
  5.80000000E+02  6.20000000E+01  0.00000000E+00
  5.90000000E+02  6.20000000E+01  0.00000000E+00
  6.00000000E+02  6.20000000E+01  0.00000000E+00
  6.10000000E+02  6.20000000E+01  0.00000000E+00
  6.20000000E+02  6.20000000E+01  0.00000000E+00
  6.30000000E+02  6.20000000E+01  0.00000000E+00
  6.40000000E+02  6.20000000E+01  0.00000000E+00
  6.50000000E+02  6.20000000E+01  0.00000000E+00
  6.60000000E+02  6.20000000E+01  0.00000000E+00
  6.70000000E+02  6.20000000E+01  0.00000000E+00
  6.80000000E+02  6.20000000E+01  0.00000000E+00
  6.90000000E+02  6.20000000E+01  0.00000000E+00
  7.00000000E+02  6.20000000E+01  0.00000000E+00
  7.10000000E+02  6.20000000E+01  0.00000000E+00
  7.20000000E+02  6.20000000E+01  0.00000000E+00
  7.30000000E+02  6.20000000E+01  0.00000000E+00
  7.40000000E+02  6.20000000E+01  0.00000000E+00
  7.50000000E+02  6.20000000E+01  0.00000000E+00
  7.60000000E+02  6.20000000E+01  0.00000000E+00
  7.70000000E+02  6.20000000E+01  0.00000000E+00
  7.80000000E+02  6.20000000E+01  0.00000000E+00
  7.90000000E+02  6.20000000E+01  0.00000000E+00
  8.00000000E+02  6.20000000E+01  0.00000000E+00
  8.10000000E+02  6.20000000E+01  0.00000000E+00
  8.20000000E+02  6.20000000E+01  0.00000000E+00
  8.30000000E+02  6.20000000E+01  0.00000000E+00
  8.40000000E+02  6.20000000E+01  0.00000000E+00
  8.50000000E+02  6.20000000E+01  0.00000000E+00
  8.60000000E+02  6.20000000E+01  0.00000000E+00
  8.70000000E+02  6.20000000E+01  0.00000000E+00
  8.80000000E+02  6.20000000E+01  0.00000000E+00
  8.90000000E+02  6.20000000E+01  0.00000000E+00
  9.00000000E+02  6.20000000E+01  0.00000000E+00
  9.10000000E+02  6.20000000E+01  0.00000000E+00
  9.20000000E+02  6.20000000E+01  0.00000000E+00
  9.30000000E+02  6.20000000E+01  0.00000000E+00
  9.40000000E+02  6.20000000E+01  0.00000000E+00
  9.50000000E+02  6.20000000E+01  0.00000000E+00
  9.60000000E+02  6.20000000E+01  0.00000000E+00
  9.70000000E+02  6.20000000E+01  0.00000000E+00
  9.80000000E+02  6.20000000E+01  0.00000000E+00
  9.90000000E+02  6.20000000E+01  0.00000000E+00
  1.00000000E+03  6.20000000E+01  0.00000000E+00
  0.00000000E+00  6.40000000E+01  0.00000000E+00
  1.00000000E+01  6.40000000E+01  0.00000000E+00
  2.00000000E+01  6.40000000E+01  0.00000000E+00
  3.00000000E+01  6.40000000E+01  0.00000000E+00
  4.00000000E+01  6.40000000E+01  0.00000000E+00
  5.00000000E+01  6.40000000E+01  0.00000000E+00
  6.00000000E+01  6.40000000E+01  0.00000000E+00
  7.00000000E+01  6.40000000E+01  0.00000000E+00
  8.00000000E+01  6.40000000E+01  0.00000000E+00
  9.00000000E+01  6.40000000E+01  0.00000000E+00
  1.00000000E+02  6.40000000E+01  0.00000000E+00
  1.10000000E+02  6.40000000E+01  0.00000000E+00
  1.20000000E+02  6.40000000E+01  0.00000000E+00
  1.30000000E+02  6.40000000E+01  0.00000000E+00
  1.40000000E+02  6.40000000E+01  0.00000000E+00
  1.50000000E+02  6.40000000E+01  0.00000000E+00
  1.60000000E+02  6.40000000E+01  0.00000000E+00
  1.70000000E+02  6.40000000E+01  0.00000000E+00
  1.80000000E+02  6.40000000E+01  0.00000000E+00
  1.90000000E+02  6.40000000E+01  0.00000000E+00
  2.00000000E+02  6.40000000E+01  0.00000000E+00
  2.10000000E+02  6.40000000E+01  0.00000000E+00
  2.20000000E+02  6.40000000E+01  0.00000000E+00
  2.30000000E+02  6.40000000E+01  0.00000000E+00
  2.40000000E+02  6.40000000E+01  0.00000000E+00
  2.50000000E+02  6.40000000E+01  0.00000000E+00
  2.60000000E+02  6.40000000E+01  0.00000000E+00
  2.70000000E+02  6.40000000E+01  0.00000000E+00
  2.80000000E+02  6.40000000E+01  0.00000000E+00
  2.90000000E+02  6.40000000E+01  0.00000000E+00
  3.00000000E+02  6.40000000E+01  0.00000000E+00
  3.10000000E+02  6.40000000E+01  0.00000000E+00
  3.20000000E+02  6.40000000E+01  0.00000000E+00
  3.30000000E+02  6.40000000E+01  0.00000000E+00
  3.40000000E+02  6.40000000E+01  0.00000000E+00
  3.50000000E+02  6.40000000E+01  0.00000000E+00
  3.60000000E+02  6.40000000E+01  0.00000000E+00
  3.70000000E+02  6.40000000E+01  0.00000000E+00
  3.80000000E+02  6.40000000E+01  0.00000000E+00
  3.90000000E+02  6.40000000E+01  0.00000000E+00
  4.00000000E+02  6.40000000E+01  0.00000000E+00
  4.10000000E+02  6.40000000E+01  0.00000000E+00
  4.20000000E+02  6.40000000E+01  0.00000000E+00
  4.30000000E+02  6.40000000E+01  0.00000000E+00
  4.40000000E+02  6.40000000E+01  0.00000000E+00
  4.50000000E+02  6.40000000E+01  0.00000000E+00
  4.60000000E+02  6.40000000E+01  0.00000000E+00
  4.70000000E+02  6.40000000E+01  0.00000000E+00
  4.80000000E+02  6.40000000E+01  0.00000000E+00
  4.90000000E+02  6.40000000E+01  0.00000000E+00
  5.00000000E+02  6.40000000E+01  0.00000000E+00
  5.10000000E+02  6.40000000E+01  0.00000000E+00
  5.20000000E+02  6.40000000E+01  0.00000000E+00
  5.30000000E+02  6.40000000E+01  0.00000000E+00
  5.40000000E+02  6.40000000E+01  0.00000000E+00
  5.50000000E+02  6.40000000E+01  0.00000000E+00
  5.60000000E+02  6.40000000E+01  0.00000000E+00
  5.70000000E+02  6.40000000E+01  0.00000000E+00
  5.80000000E+02  6.40000000E+01  0.00000000E+00
  5.90000000E+02  6.40000000E+01  0.00000000E+00
  6.00000000E+02  6.40000000E+01  0.00000000E+00
  6.10000000E+02  6.40000000E+01  0.00000000E+00
  6.20000000E+02  6.40000000E+01  0.00000000E+00
  6.30000000E+02  6.40000000E+01  0.00000000E+00
  6.40000000E+02  6.40000000E+01  0.00000000E+00
  6.50000000E+02  6.40000000E+01  0.00000000E+00
  6.60000000E+02  6.40000000E+01  0.00000000E+00
  6.70000000E+02  6.40000000E+01  0.00000000E+00
  6.80000000E+02  6.40000000E+01  0.00000000E+00
  6.90000000E+02  6.40000000E+01  0.00000000E+00
  7.00000000E+02  6.40000000E+01  0.00000000E+00
  7.10000000E+02  6.40000000E+01  0.00000000E+00
  7.20000000E+02  6.40000000E+01  0.00000000E+00
  7.30000000E+02  6.40000000E+01  0.00000000E+00
  7.40000000E+02  6.40000000E+01  0.00000000E+00
  7.50000000E+02  6.40000000E+01  0.00000000E+00
  7.60000000E+02  6.40000000E+01  0.00000000E+00
  7.70000000E+02  6.40000000E+01  0.00000000E+00
  7.80000000E+02  6.40000000E+01  0.00000000E+00
  7.90000000E+02  6.40000000E+01  0.00000000E+00
  8.00000000E+02  6.40000000E+01  0.00000000E+00
  8.10000000E+02  6.40000000E+01  0.00000000E+00
  8.20000000E+02  6.40000000E+01  0.00000000E+00
  8.30000000E+02  6.40000000E+01  0.00000000E+00
  8.40000000E+02  6.40000000E+01  0.00000000E+00
  8.50000000E+02  6.40000000E+01  0.00000000E+00
  8.60000000E+02  6.40000000E+01  0.00000000E+00
  8.70000000E+02  6.40000000E+01  0.00000000E+00
  8.80000000E+02  6.40000000E+01  0.00000000E+00
  8.90000000E+02  6.40000000E+01  0.00000000E+00
  9.00000000E+02  6.40000000E+01  0.00000000E+00
  9.10000000E+02  6.40000000E+01  0.00000000E+00
  9.20000000E+02  6.40000000E+01  0.00000000E+00
  9.30000000E+02  6.40000000E+01  0.00000000E+00
  9.40000000E+02  6.40000000E+01  0.00000000E+00
  9.50000000E+02  6.40000000E+01  0.00000000E+00
  9.60000000E+02  6.40000000E+01  0.00000000E+00
  9.70000000E+02  6.40000000E+01  0.00000000E+00
  9.80000000E+02  6.40000000E+01  0.00000000E+00
  9.90000000E+02  6.40000000E+01  0.00000000E+00
  1.00000000E+03  6.40000000E+01  0.00000000E+00
  0.00000000E+00  6.60000000E+01  0.00000000E+00
  1.00000000E+01  6.60000000E+01  0.00000000E+00
  2.00000000E+01  6.60000000E+01  0.00000000E+00
  3.00000000E+01  6.60000000E+01  0.00000000E+00
  4.00000000E+01  6.60000000E+01  0.00000000E+00
  5.00000000E+01  6.60000000E+01  0.00000000E+00
  6.00000000E+01  6.60000000E+01  0.00000000E+00
  7.00000000E+01  6.60000000E+01  0.00000000E+00
  8.00000000E+01  6.60000000E+01  0.00000000E+00
  9.00000000E+01  6.60000000E+01  0.00000000E+00
  1.00000000E+02  6.60000000E+01  0.00000000E+00
  1.10000000E+02  6.60000000E+01  0.00000000E+00
  1.20000000E+02  6.60000000E+01  0.00000000E+00
  1.30000000E+02  6.60000000E+01  0.00000000E+00
  1.40000000E+02  6.60000000E+01  0.00000000E+00
  1.50000000E+02  6.60000000E+01  0.00000000E+00
  1.60000000E+02  6.60000000E+01  0.00000000E+00
  1.70000000E+02  6.60000000E+01  0.00000000E+00
  1.80000000E+02  6.60000000E+01  0.00000000E+00
  1.90000000E+02  6.60000000E+01  0.00000000E+00
  2.00000000E+02  6.60000000E+01  0.00000000E+00
  2.10000000E+02  6.60000000E+01  0.00000000E+00
  2.20000000E+02  6.60000000E+01  0.00000000E+00
  2.30000000E+02  6.60000000E+01  0.00000000E+00
  2.40000000E+02  6.60000000E+01  0.00000000E+00
  2.50000000E+02  6.60000000E+01  0.00000000E+00
  2.60000000E+02  6.60000000E+01  0.00000000E+00
  2.70000000E+02  6.60000000E+01  0.00000000E+00
  2.80000000E+02  6.60000000E+01  0.00000000E+00
  2.90000000E+02  6.60000000E+01  0.00000000E+00
  3.00000000E+02  6.60000000E+01  0.00000000E+00
  3.10000000E+02  6.60000000E+01  0.00000000E+00
  3.20000000E+02  6.60000000E+01  0.00000000E+00
  3.30000000E+02  6.60000000E+01  0.00000000E+00
  3.40000000E+02  6.60000000E+01  0.00000000E+00
  3.50000000E+02  6.60000000E+01  0.00000000E+00
  3.60000000E+02  6.60000000E+01  0.00000000E+00
  3.70000000E+02  6.60000000E+01  0.00000000E+00
  3.80000000E+02  6.60000000E+01  0.00000000E+00
  3.90000000E+02  6.60000000E+01  0.00000000E+00
  4.00000000E+02  6.60000000E+01  0.00000000E+00
  4.10000000E+02  6.60000000E+01  0.00000000E+00
  4.20000000E+02  6.60000000E+01  0.00000000E+00
  4.30000000E+02  6.60000000E+01  0.00000000E+00
  4.40000000E+02  6.60000000E+01  0.00000000E+00
  4.50000000E+02  6.60000000E+01  0.00000000E+00
  4.60000000E+02  6.60000000E+01  0.00000000E+00
  4.70000000E+02  6.60000000E+01  0.00000000E+00
  4.80000000E+02  6.60000000E+01  0.00000000E+00
  4.90000000E+02  6.60000000E+01  0.00000000E+00
  5.00000000E+02  6.60000000E+01  0.00000000E+00
  5.10000000E+02  6.60000000E+01  0.00000000E+00
  5.20000000E+02  6.60000000E+01  0.00000000E+00
  5.30000000E+02  6.60000000E+01  0.00000000E+00
  5.40000000E+02  6.60000000E+01  0.00000000E+00
  5.50000000E+02  6.60000000E+01  0.00000000E+00
  5.60000000E+02  6.60000000E+01  0.00000000E+00
  5.70000000E+02  6.60000000E+01  0.00000000E+00
  5.80000000E+02  6.60000000E+01  0.00000000E+00
  5.90000000E+02  6.60000000E+01  0.00000000E+00
  6.00000000E+02  6.60000000E+01  0.00000000E+00
  6.10000000E+02  6.60000000E+01  0.00000000E+00
  6.20000000E+02  6.60000000E+01  0.00000000E+00
  6.30000000E+02  6.60000000E+01  0.00000000E+00
  6.40000000E+02  6.60000000E+01  0.00000000E+00
  6.50000000E+02  6.60000000E+01  0.00000000E+00
  6.60000000E+02  6.60000000E+01  0.00000000E+00
  6.70000000E+02  6.60000000E+01  0.00000000E+00
  6.80000000E+02  6.60000000E+01  0.00000000E+00
  6.90000000E+02  6.60000000E+01  0.00000000E+00
  7.00000000E+02  6.60000000E+01  0.00000000E+00
  7.10000000E+02  6.60000000E+01  0.00000000E+00
  7.20000000E+02  6.60000000E+01  0.00000000E+00
  7.30000000E+02  6.60000000E+01  0.00000000E+00
  7.40000000E+02  6.60000000E+01  0.00000000E+00
  7.50000000E+02  6.60000000E+01  0.00000000E+00
  7.60000000E+02  6.60000000E+01  0.00000000E+00
  7.70000000E+02  6.60000000E+01  0.00000000E+00
  7.80000000E+02  6.60000000E+01  0.00000000E+00
  7.90000000E+02  6.60000000E+01  0.00000000E+00
  8.00000000E+02  6.60000000E+01  0.00000000E+00
  8.10000000E+02  6.60000000E+01  0.00000000E+00
  8.20000000E+02  6.60000000E+01  0.00000000E+00
  8.30000000E+02  6.60000000E+01  0.00000000E+00
  8.40000000E+02  6.60000000E+01  0.00000000E+00
  8.50000000E+02  6.60000000E+01  0.00000000E+00
  8.60000000E+02  6.60000000E+01  0.00000000E+00
  8.70000000E+02  6.60000000E+01  0.00000000E+00
  8.80000000E+02  6.60000000E+01  0.00000000E+00
  8.90000000E+02  6.60000000E+01  0.00000000E+00
  9.00000000E+02  6.60000000E+01  0.00000000E+00
  9.10000000E+02  6.60000000E+01  0.00000000E+00
  9.20000000E+02  6.60000000E+01  0.00000000E+00
  9.30000000E+02  6.60000000E+01  0.00000000E+00
  9.40000000E+02  6.60000000E+01  0.00000000E+00
  9.50000000E+02  6.60000000E+01  0.00000000E+00
  9.60000000E+02  6.60000000E+01  0.00000000E+00
  9.70000000E+02  6.60000000E+01  0.00000000E+00
  9.80000000E+02  6.60000000E+01  0.00000000E+00
  9.90000000E+02  6.60000000E+01  0.00000000E+00
  1.00000000E+03  6.60000000E+01  0.00000000E+00
  0.00000000E+00  6.80000000E+01  0.00000000E+00
  1.00000000E+01  6.80000000E+01  0.00000000E+00
  2.00000000E+01  6.80000000E+01  0.00000000E+00
  3.00000000E+01  6.80000000E+01  0.00000000E+00
  4.00000000E+01  6.80000000E+01  0.00000000E+00
  5.00000000E+01  6.80000000E+01  0.00000000E+00
  6.00000000E+01  6.80000000E+01  0.00000000E+00
  7.00000000E+01  6.80000000E+01  0.00000000E+00
  8.00000000E+01  6.80000000E+01  0.00000000E+00
  9.00000000E+01  6.80000000E+01  0.00000000E+00
  1.00000000E+02  6.80000000E+01  0.00000000E+00
  1.10000000E+02  6.80000000E+01  0.00000000E+00
  1.20000000E+02  6.80000000E+01  0.00000000E+00
  1.30000000E+02  6.80000000E+01  0.00000000E+00
  1.40000000E+02  6.80000000E+01  0.00000000E+00
  1.50000000E+02  6.80000000E+01  0.00000000E+00
  1.60000000E+02  6.80000000E+01  0.00000000E+00
  1.70000000E+02  6.80000000E+01  0.00000000E+00
  1.80000000E+02  6.80000000E+01  0.00000000E+00
  1.90000000E+02  6.80000000E+01  0.00000000E+00
  2.00000000E+02  6.80000000E+01  0.00000000E+00
  2.10000000E+02  6.80000000E+01  0.00000000E+00
  2.20000000E+02  6.80000000E+01  0.00000000E+00
  2.30000000E+02  6.80000000E+01  0.00000000E+00
  2.40000000E+02  6.80000000E+01  0.00000000E+00
  2.50000000E+02  6.80000000E+01  0.00000000E+00
  2.60000000E+02  6.80000000E+01  0.00000000E+00
  2.70000000E+02  6.80000000E+01  0.00000000E+00
  2.80000000E+02  6.80000000E+01  0.00000000E+00
  2.90000000E+02  6.80000000E+01  0.00000000E+00
  3.00000000E+02  6.80000000E+01  0.00000000E+00
  3.10000000E+02  6.80000000E+01  0.00000000E+00
  3.20000000E+02  6.80000000E+01  0.00000000E+00
  3.30000000E+02  6.80000000E+01  0.00000000E+00
  3.40000000E+02  6.80000000E+01  0.00000000E+00
  3.50000000E+02  6.80000000E+01  0.00000000E+00
  3.60000000E+02  6.80000000E+01  0.00000000E+00
  3.70000000E+02  6.80000000E+01  0.00000000E+00
  3.80000000E+02  6.80000000E+01  0.00000000E+00
  3.90000000E+02  6.80000000E+01  0.00000000E+00
  4.00000000E+02  6.80000000E+01  0.00000000E+00
  4.10000000E+02  6.80000000E+01  0.00000000E+00
  4.20000000E+02  6.80000000E+01  0.00000000E+00
  4.30000000E+02  6.80000000E+01  0.00000000E+00
  4.40000000E+02  6.80000000E+01  0.00000000E+00
  4.50000000E+02  6.80000000E+01  0.00000000E+00
  4.60000000E+02  6.80000000E+01  0.00000000E+00
  4.70000000E+02  6.80000000E+01  0.00000000E+00
  4.80000000E+02  6.80000000E+01  0.00000000E+00
  4.90000000E+02  6.80000000E+01  0.00000000E+00
  5.00000000E+02  6.80000000E+01  0.00000000E+00
  5.10000000E+02  6.80000000E+01  0.00000000E+00
  5.20000000E+02  6.80000000E+01  0.00000000E+00
  5.30000000E+02  6.80000000E+01  0.00000000E+00
  5.40000000E+02  6.80000000E+01  0.00000000E+00
  5.50000000E+02  6.80000000E+01  0.00000000E+00
  5.60000000E+02  6.80000000E+01  0.00000000E+00
  5.70000000E+02  6.80000000E+01  0.00000000E+00
  5.80000000E+02  6.80000000E+01  0.00000000E+00
  5.90000000E+02  6.80000000E+01  0.00000000E+00
  6.00000000E+02  6.80000000E+01  0.00000000E+00
  6.10000000E+02  6.80000000E+01  0.00000000E+00
  6.20000000E+02  6.80000000E+01  0.00000000E+00
  6.30000000E+02  6.80000000E+01  0.00000000E+00
  6.40000000E+02  6.80000000E+01  0.00000000E+00
  6.50000000E+02  6.80000000E+01  0.00000000E+00
  6.60000000E+02  6.80000000E+01  0.00000000E+00
  6.70000000E+02  6.80000000E+01  0.00000000E+00
  6.80000000E+02  6.80000000E+01  0.00000000E+00
  6.90000000E+02  6.80000000E+01  0.00000000E+00
  7.00000000E+02  6.80000000E+01  0.00000000E+00
  7.10000000E+02  6.80000000E+01  0.00000000E+00
  7.20000000E+02  6.80000000E+01  0.00000000E+00
  7.30000000E+02  6.80000000E+01  0.00000000E+00
  7.40000000E+02  6.80000000E+01  0.00000000E+00
  7.50000000E+02  6.80000000E+01  0.00000000E+00
  7.60000000E+02  6.80000000E+01  0.00000000E+00
  7.70000000E+02  6.80000000E+01  0.00000000E+00
  7.80000000E+02  6.80000000E+01  0.00000000E+00
  7.90000000E+02  6.80000000E+01  0.00000000E+00
  8.00000000E+02  6.80000000E+01  0.00000000E+00
  8.10000000E+02  6.80000000E+01  0.00000000E+00
  8.20000000E+02  6.80000000E+01  0.00000000E+00
  8.30000000E+02  6.80000000E+01  0.00000000E+00
  8.40000000E+02  6.80000000E+01  0.00000000E+00
  8.50000000E+02  6.80000000E+01  0.00000000E+00
  8.60000000E+02  6.80000000E+01  0.00000000E+00
  8.70000000E+02  6.80000000E+01  0.00000000E+00
  8.80000000E+02  6.80000000E+01  0.00000000E+00
  8.90000000E+02  6.80000000E+01  0.00000000E+00
  9.00000000E+02  6.80000000E+01  0.00000000E+00
  9.10000000E+02  6.80000000E+01  0.00000000E+00
  9.20000000E+02  6.80000000E+01  0.00000000E+00
  9.30000000E+02  6.80000000E+01  0.00000000E+00
  9.40000000E+02  6.80000000E+01  0.00000000E+00
  9.50000000E+02  6.80000000E+01  0.00000000E+00
  9.60000000E+02  6.80000000E+01  0.00000000E+00
  9.70000000E+02  6.80000000E+01  0.00000000E+00
  9.80000000E+02  6.80000000E+01  0.00000000E+00
  9.90000000E+02  6.80000000E+01  0.00000000E+00
  1.00000000E+03  6.80000000E+01  0.00000000E+00
  0.00000000E+00  7.00000000E+01  0.00000000E+00
  1.00000000E+01  7.00000000E+01  0.00000000E+00
  2.00000000E+01  7.00000000E+01  0.00000000E+00
  3.00000000E+01  7.00000000E+01  0.00000000E+00
  4.00000000E+01  7.00000000E+01  0.00000000E+00
  5.00000000E+01  7.00000000E+01  0.00000000E+00
  6.00000000E+01  7.00000000E+01  0.00000000E+00
  7.00000000E+01  7.00000000E+01  0.00000000E+00
  8.00000000E+01  7.00000000E+01  0.00000000E+00
  9.00000000E+01  7.00000000E+01  0.00000000E+00
  1.00000000E+02  7.00000000E+01  0.00000000E+00
  1.10000000E+02  7.00000000E+01  0.00000000E+00
  1.20000000E+02  7.00000000E+01  0.00000000E+00
  1.30000000E+02  7.00000000E+01  0.00000000E+00
  1.40000000E+02  7.00000000E+01  0.00000000E+00
  1.50000000E+02  7.00000000E+01  0.00000000E+00
  1.60000000E+02  7.00000000E+01  0.00000000E+00
  1.70000000E+02  7.00000000E+01  0.00000000E+00
  1.80000000E+02  7.00000000E+01  0.00000000E+00
  1.90000000E+02  7.00000000E+01  0.00000000E+00
  2.00000000E+02  7.00000000E+01  0.00000000E+00
  2.10000000E+02  7.00000000E+01  0.00000000E+00
  2.20000000E+02  7.00000000E+01  0.00000000E+00
  2.30000000E+02  7.00000000E+01  0.00000000E+00
  2.40000000E+02  7.00000000E+01  0.00000000E+00
  2.50000000E+02  7.00000000E+01  0.00000000E+00
  2.60000000E+02  7.00000000E+01  0.00000000E+00
  2.70000000E+02  7.00000000E+01  0.00000000E+00
  2.80000000E+02  7.00000000E+01  0.00000000E+00
  2.90000000E+02  7.00000000E+01  0.00000000E+00
  3.00000000E+02  7.00000000E+01  0.00000000E+00
  3.10000000E+02  7.00000000E+01  0.00000000E+00
  3.20000000E+02  7.00000000E+01  0.00000000E+00
  3.30000000E+02  7.00000000E+01  0.00000000E+00
  3.40000000E+02  7.00000000E+01  0.00000000E+00
  3.50000000E+02  7.00000000E+01  0.00000000E+00
  3.60000000E+02  7.00000000E+01  0.00000000E+00
  3.70000000E+02  7.00000000E+01  0.00000000E+00
  3.80000000E+02  7.00000000E+01  0.00000000E+00
  3.90000000E+02  7.00000000E+01  0.00000000E+00
  4.00000000E+02  7.00000000E+01  0.00000000E+00
  4.10000000E+02  7.00000000E+01  0.00000000E+00
  4.20000000E+02  7.00000000E+01  0.00000000E+00
  4.30000000E+02  7.00000000E+01  0.00000000E+00
  4.40000000E+02  7.00000000E+01  0.00000000E+00
  4.50000000E+02  7.00000000E+01  0.00000000E+00
  4.60000000E+02  7.00000000E+01  0.00000000E+00
  4.70000000E+02  7.00000000E+01  0.00000000E+00
  4.80000000E+02  7.00000000E+01  0.00000000E+00
  4.90000000E+02  7.00000000E+01  0.00000000E+00
  5.00000000E+02  7.00000000E+01  0.00000000E+00
  5.10000000E+02  7.00000000E+01  0.00000000E+00
  5.20000000E+02  7.00000000E+01  0.00000000E+00
  5.30000000E+02  7.00000000E+01  0.00000000E+00
  5.40000000E+02  7.00000000E+01  0.00000000E+00
  5.50000000E+02  7.00000000E+01  0.00000000E+00
  5.60000000E+02  7.00000000E+01  0.00000000E+00
  5.70000000E+02  7.00000000E+01  0.00000000E+00
  5.80000000E+02  7.00000000E+01  0.00000000E+00
  5.90000000E+02  7.00000000E+01  0.00000000E+00
  6.00000000E+02  7.00000000E+01  0.00000000E+00
  6.10000000E+02  7.00000000E+01  0.00000000E+00
  6.20000000E+02  7.00000000E+01  0.00000000E+00
  6.30000000E+02  7.00000000E+01  0.00000000E+00
  6.40000000E+02  7.00000000E+01  0.00000000E+00
  6.50000000E+02  7.00000000E+01  0.00000000E+00
  6.60000000E+02  7.00000000E+01  0.00000000E+00
  6.70000000E+02  7.00000000E+01  0.00000000E+00
  6.80000000E+02  7.00000000E+01  0.00000000E+00
  6.90000000E+02  7.00000000E+01  0.00000000E+00
  7.00000000E+02  7.00000000E+01  0.00000000E+00
  7.10000000E+02  7.00000000E+01  0.00000000E+00
  7.20000000E+02  7.00000000E+01  0.00000000E+00
  7.30000000E+02  7.00000000E+01  0.00000000E+00
  7.40000000E+02  7.00000000E+01  0.00000000E+00
  7.50000000E+02  7.00000000E+01  0.00000000E+00
  7.60000000E+02  7.00000000E+01  0.00000000E+00
  7.70000000E+02  7.00000000E+01  0.00000000E+00
  7.80000000E+02  7.00000000E+01  0.00000000E+00
  7.90000000E+02  7.00000000E+01  0.00000000E+00
  8.00000000E+02  7.00000000E+01  0.00000000E+00
  8.10000000E+02  7.00000000E+01  0.00000000E+00
  8.20000000E+02  7.00000000E+01  0.00000000E+00
  8.30000000E+02  7.00000000E+01  0.00000000E+00
  8.40000000E+02  7.00000000E+01  0.00000000E+00
  8.50000000E+02  7.00000000E+01  0.00000000E+00
  8.60000000E+02  7.00000000E+01  0.00000000E+00
  8.70000000E+02  7.00000000E+01  0.00000000E+00
  8.80000000E+02  7.00000000E+01  0.00000000E+00
  8.90000000E+02  7.00000000E+01  0.00000000E+00
  9.00000000E+02  7.00000000E+01  0.00000000E+00
  9.10000000E+02  7.00000000E+01  0.00000000E+00
  9.20000000E+02  7.00000000E+01  0.00000000E+00
  9.30000000E+02  7.00000000E+01  0.00000000E+00
  9.40000000E+02  7.00000000E+01  0.00000000E+00
  9.50000000E+02  7.00000000E+01  0.00000000E+00
  9.60000000E+02  7.00000000E+01  0.00000000E+00
  9.70000000E+02  7.00000000E+01  0.00000000E+00
  9.80000000E+02  7.00000000E+01  0.00000000E+00
  9.90000000E+02  7.00000000E+01  0.00000000E+00
  1.00000000E+03  7.00000000E+01  0.00000000E+00
  0.00000000E+00  7.20000000E+01  0.00000000E+00
  1.00000000E+01  7.20000000E+01  0.00000000E+00
  2.00000000E+01  7.20000000E+01  0.00000000E+00
  3.00000000E+01  7.20000000E+01  0.00000000E+00
  4.00000000E+01  7.20000000E+01  0.00000000E+00
  5.00000000E+01  7.20000000E+01  0.00000000E+00
  6.00000000E+01  7.20000000E+01  0.00000000E+00
  7.00000000E+01  7.20000000E+01  0.00000000E+00
  8.00000000E+01  7.20000000E+01  0.00000000E+00
  9.00000000E+01  7.20000000E+01  0.00000000E+00
  1.00000000E+02  7.20000000E+01  0.00000000E+00
  1.10000000E+02  7.20000000E+01  0.00000000E+00
  1.20000000E+02  7.20000000E+01  0.00000000E+00
  1.30000000E+02  7.20000000E+01  0.00000000E+00
  1.40000000E+02  7.20000000E+01  0.00000000E+00
  1.50000000E+02  7.20000000E+01  0.00000000E+00
  1.60000000E+02  7.20000000E+01  0.00000000E+00
  1.70000000E+02  7.20000000E+01  0.00000000E+00
  1.80000000E+02  7.20000000E+01  0.00000000E+00
  1.90000000E+02  7.20000000E+01  0.00000000E+00
  2.00000000E+02  7.20000000E+01  0.00000000E+00
  2.10000000E+02  7.20000000E+01  0.00000000E+00
  2.20000000E+02  7.20000000E+01  0.00000000E+00
  2.30000000E+02  7.20000000E+01  0.00000000E+00
  2.40000000E+02  7.20000000E+01  0.00000000E+00
  2.50000000E+02  7.20000000E+01  0.00000000E+00
  2.60000000E+02  7.20000000E+01  0.00000000E+00
  2.70000000E+02  7.20000000E+01  0.00000000E+00
  2.80000000E+02  7.20000000E+01  0.00000000E+00
  2.90000000E+02  7.20000000E+01  0.00000000E+00
  3.00000000E+02  7.20000000E+01  0.00000000E+00
  3.10000000E+02  7.20000000E+01  0.00000000E+00
  3.20000000E+02  7.20000000E+01  0.00000000E+00
  3.30000000E+02  7.20000000E+01  0.00000000E+00
  3.40000000E+02  7.20000000E+01  0.00000000E+00
  3.50000000E+02  7.20000000E+01  0.00000000E+00
  3.60000000E+02  7.20000000E+01  0.00000000E+00
  3.70000000E+02  7.20000000E+01  0.00000000E+00
  3.80000000E+02  7.20000000E+01  0.00000000E+00
  3.90000000E+02  7.20000000E+01  0.00000000E+00
  4.00000000E+02  7.20000000E+01  0.00000000E+00
  4.10000000E+02  7.20000000E+01  0.00000000E+00
  4.20000000E+02  7.20000000E+01  0.00000000E+00
  4.30000000E+02  7.20000000E+01  0.00000000E+00
  4.40000000E+02  7.20000000E+01  0.00000000E+00
  4.50000000E+02  7.20000000E+01  0.00000000E+00
  4.60000000E+02  7.20000000E+01  0.00000000E+00
  4.70000000E+02  7.20000000E+01  0.00000000E+00
  4.80000000E+02  7.20000000E+01  0.00000000E+00
  4.90000000E+02  7.20000000E+01  0.00000000E+00
  5.00000000E+02  7.20000000E+01  0.00000000E+00
  5.10000000E+02  7.20000000E+01  0.00000000E+00
  5.20000000E+02  7.20000000E+01  0.00000000E+00
  5.30000000E+02  7.20000000E+01  0.00000000E+00
  5.40000000E+02  7.20000000E+01  0.00000000E+00
  5.50000000E+02  7.20000000E+01  0.00000000E+00
  5.60000000E+02  7.20000000E+01  0.00000000E+00
  5.70000000E+02  7.20000000E+01  0.00000000E+00
  5.80000000E+02  7.20000000E+01  0.00000000E+00
  5.90000000E+02  7.20000000E+01  0.00000000E+00
  6.00000000E+02  7.20000000E+01  0.00000000E+00
  6.10000000E+02  7.20000000E+01  0.00000000E+00
  6.20000000E+02  7.20000000E+01  0.00000000E+00
  6.30000000E+02  7.20000000E+01  0.00000000E+00
  6.40000000E+02  7.20000000E+01  0.00000000E+00
  6.50000000E+02  7.20000000E+01  0.00000000E+00
  6.60000000E+02  7.20000000E+01  0.00000000E+00
  6.70000000E+02  7.20000000E+01  0.00000000E+00
  6.80000000E+02  7.20000000E+01  0.00000000E+00
  6.90000000E+02  7.20000000E+01  0.00000000E+00
  7.00000000E+02  7.20000000E+01  0.00000000E+00
  7.10000000E+02  7.20000000E+01  0.00000000E+00
  7.20000000E+02  7.20000000E+01  0.00000000E+00
  7.30000000E+02  7.20000000E+01  0.00000000E+00
  7.40000000E+02  7.20000000E+01  0.00000000E+00
  7.50000000E+02  7.20000000E+01  0.00000000E+00
  7.60000000E+02  7.20000000E+01  0.00000000E+00
  7.70000000E+02  7.20000000E+01  0.00000000E+00
  7.80000000E+02  7.20000000E+01  0.00000000E+00
  7.90000000E+02  7.20000000E+01  0.00000000E+00
  8.00000000E+02  7.20000000E+01  0.00000000E+00
  8.10000000E+02  7.20000000E+01  0.00000000E+00
  8.20000000E+02  7.20000000E+01  0.00000000E+00
  8.30000000E+02  7.20000000E+01  0.00000000E+00
  8.40000000E+02  7.20000000E+01  0.00000000E+00
  8.50000000E+02  7.20000000E+01  0.00000000E+00
  8.60000000E+02  7.20000000E+01  0.00000000E+00
  8.70000000E+02  7.20000000E+01  0.00000000E+00
  8.80000000E+02  7.20000000E+01  0.00000000E+00
  8.90000000E+02  7.20000000E+01  0.00000000E+00
  9.00000000E+02  7.20000000E+01  0.00000000E+00
  9.10000000E+02  7.20000000E+01  0.00000000E+00
  9.20000000E+02  7.20000000E+01  0.00000000E+00
  9.30000000E+02  7.20000000E+01  0.00000000E+00
  9.40000000E+02  7.20000000E+01  0.00000000E+00
  9.50000000E+02  7.20000000E+01  0.00000000E+00
  9.60000000E+02  7.20000000E+01  0.00000000E+00
  9.70000000E+02  7.20000000E+01  0.00000000E+00
  9.80000000E+02  7.20000000E+01  0.00000000E+00
  9.90000000E+02  7.20000000E+01  0.00000000E+00
  1.00000000E+03  7.20000000E+01  0.00000000E+00
  0.00000000E+00  7.40000000E+01  0.00000000E+00
  1.00000000E+01  7.40000000E+01  0.00000000E+00
  2.00000000E+01  7.40000000E+01  0.00000000E+00
  3.00000000E+01  7.40000000E+01  0.00000000E+00
  4.00000000E+01  7.40000000E+01  0.00000000E+00
  5.00000000E+01  7.40000000E+01  0.00000000E+00
  6.00000000E+01  7.40000000E+01  0.00000000E+00
  7.00000000E+01  7.40000000E+01  0.00000000E+00
  8.00000000E+01  7.40000000E+01  0.00000000E+00
  9.00000000E+01  7.40000000E+01  0.00000000E+00
  1.00000000E+02  7.40000000E+01  0.00000000E+00
  1.10000000E+02  7.40000000E+01  0.00000000E+00
  1.20000000E+02  7.40000000E+01  0.00000000E+00
  1.30000000E+02  7.40000000E+01  0.00000000E+00
  1.40000000E+02  7.40000000E+01  0.00000000E+00
  1.50000000E+02  7.40000000E+01  0.00000000E+00
  1.60000000E+02  7.40000000E+01  0.00000000E+00
  1.70000000E+02  7.40000000E+01  0.00000000E+00
  1.80000000E+02  7.40000000E+01  0.00000000E+00
  1.90000000E+02  7.40000000E+01  0.00000000E+00
  2.00000000E+02  7.40000000E+01  0.00000000E+00
  2.10000000E+02  7.40000000E+01  0.00000000E+00
  2.20000000E+02  7.40000000E+01  0.00000000E+00
  2.30000000E+02  7.40000000E+01  0.00000000E+00
  2.40000000E+02  7.40000000E+01  0.00000000E+00
  2.50000000E+02  7.40000000E+01  0.00000000E+00
  2.60000000E+02  7.40000000E+01  0.00000000E+00
  2.70000000E+02  7.40000000E+01  0.00000000E+00
  2.80000000E+02  7.40000000E+01  0.00000000E+00
  2.90000000E+02  7.40000000E+01  0.00000000E+00
  3.00000000E+02  7.40000000E+01  0.00000000E+00
  3.10000000E+02  7.40000000E+01  0.00000000E+00
  3.20000000E+02  7.40000000E+01  0.00000000E+00
  3.30000000E+02  7.40000000E+01  0.00000000E+00
  3.40000000E+02  7.40000000E+01  0.00000000E+00
  3.50000000E+02  7.40000000E+01  0.00000000E+00
  3.60000000E+02  7.40000000E+01  0.00000000E+00
  3.70000000E+02  7.40000000E+01  0.00000000E+00
  3.80000000E+02  7.40000000E+01  0.00000000E+00
  3.90000000E+02  7.40000000E+01  0.00000000E+00
  4.00000000E+02  7.40000000E+01  0.00000000E+00
  4.10000000E+02  7.40000000E+01  0.00000000E+00
  4.20000000E+02  7.40000000E+01  0.00000000E+00
  4.30000000E+02  7.40000000E+01  0.00000000E+00
  4.40000000E+02  7.40000000E+01  0.00000000E+00
  4.50000000E+02  7.40000000E+01  0.00000000E+00
  4.60000000E+02  7.40000000E+01  0.00000000E+00
  4.70000000E+02  7.40000000E+01  0.00000000E+00
  4.80000000E+02  7.40000000E+01  0.00000000E+00
  4.90000000E+02  7.40000000E+01  0.00000000E+00
  5.00000000E+02  7.40000000E+01  0.00000000E+00
  5.10000000E+02  7.40000000E+01  0.00000000E+00
  5.20000000E+02  7.40000000E+01  0.00000000E+00
  5.30000000E+02  7.40000000E+01  0.00000000E+00
  5.40000000E+02  7.40000000E+01  0.00000000E+00
  5.50000000E+02  7.40000000E+01  0.00000000E+00
  5.60000000E+02  7.40000000E+01  0.00000000E+00
  5.70000000E+02  7.40000000E+01  0.00000000E+00
  5.80000000E+02  7.40000000E+01  0.00000000E+00
  5.90000000E+02  7.40000000E+01  0.00000000E+00
  6.00000000E+02  7.40000000E+01  0.00000000E+00
  6.10000000E+02  7.40000000E+01  0.00000000E+00
  6.20000000E+02  7.40000000E+01  0.00000000E+00
  6.30000000E+02  7.40000000E+01  0.00000000E+00
  6.40000000E+02  7.40000000E+01  0.00000000E+00
  6.50000000E+02  7.40000000E+01  0.00000000E+00
  6.60000000E+02  7.40000000E+01  0.00000000E+00
  6.70000000E+02  7.40000000E+01  0.00000000E+00
  6.80000000E+02  7.40000000E+01  0.00000000E+00
  6.90000000E+02  7.40000000E+01  0.00000000E+00
  7.00000000E+02  7.40000000E+01  0.00000000E+00
  7.10000000E+02  7.40000000E+01  0.00000000E+00
  7.20000000E+02  7.40000000E+01  0.00000000E+00
  7.30000000E+02  7.40000000E+01  0.00000000E+00
  7.40000000E+02  7.40000000E+01  0.00000000E+00
  7.50000000E+02  7.40000000E+01  0.00000000E+00
  7.60000000E+02  7.40000000E+01  0.00000000E+00
  7.70000000E+02  7.40000000E+01  0.00000000E+00
  7.80000000E+02  7.40000000E+01  0.00000000E+00
  7.90000000E+02  7.40000000E+01  0.00000000E+00
  8.00000000E+02  7.40000000E+01  0.00000000E+00
  8.10000000E+02  7.40000000E+01  0.00000000E+00
  8.20000000E+02  7.40000000E+01  0.00000000E+00
  8.30000000E+02  7.40000000E+01  0.00000000E+00
  8.40000000E+02  7.40000000E+01  0.00000000E+00
  8.50000000E+02  7.40000000E+01  0.00000000E+00
  8.60000000E+02  7.40000000E+01  0.00000000E+00
  8.70000000E+02  7.40000000E+01  0.00000000E+00
  8.80000000E+02  7.40000000E+01  0.00000000E+00
  8.90000000E+02  7.40000000E+01  0.00000000E+00
  9.00000000E+02  7.40000000E+01  0.00000000E+00
  9.10000000E+02  7.40000000E+01  0.00000000E+00
  9.20000000E+02  7.40000000E+01  0.00000000E+00
  9.30000000E+02  7.40000000E+01  0.00000000E+00
  9.40000000E+02  7.40000000E+01  0.00000000E+00
  9.50000000E+02  7.40000000E+01  0.00000000E+00
  9.60000000E+02  7.40000000E+01  0.00000000E+00
  9.70000000E+02  7.40000000E+01  0.00000000E+00
  9.80000000E+02  7.40000000E+01  0.00000000E+00
  9.90000000E+02  7.40000000E+01  0.00000000E+00
  1.00000000E+03  7.40000000E+01  0.00000000E+00
  0.00000000E+00  7.60000000E+01  0.00000000E+00
  1.00000000E+01  7.60000000E+01  0.00000000E+00
  2.00000000E+01  7.60000000E+01  0.00000000E+00
  3.00000000E+01  7.60000000E+01  0.00000000E+00
  4.00000000E+01  7.60000000E+01  0.00000000E+00
  5.00000000E+01  7.60000000E+01  0.00000000E+00
  6.00000000E+01  7.60000000E+01  0.00000000E+00
  7.00000000E+01  7.60000000E+01  0.00000000E+00
  8.00000000E+01  7.60000000E+01  0.00000000E+00
  9.00000000E+01  7.60000000E+01  0.00000000E+00
  1.00000000E+02  7.60000000E+01  0.00000000E+00
  1.10000000E+02  7.60000000E+01  0.00000000E+00
  1.20000000E+02  7.60000000E+01  0.00000000E+00
  1.30000000E+02  7.60000000E+01  0.00000000E+00
  1.40000000E+02  7.60000000E+01  0.00000000E+00
  1.50000000E+02  7.60000000E+01  0.00000000E+00
  1.60000000E+02  7.60000000E+01  0.00000000E+00
  1.70000000E+02  7.60000000E+01  0.00000000E+00
  1.80000000E+02  7.60000000E+01  0.00000000E+00
  1.90000000E+02  7.60000000E+01  0.00000000E+00
  2.00000000E+02  7.60000000E+01  0.00000000E+00
  2.10000000E+02  7.60000000E+01  0.00000000E+00
  2.20000000E+02  7.60000000E+01  0.00000000E+00
  2.30000000E+02  7.60000000E+01  0.00000000E+00
  2.40000000E+02  7.60000000E+01  0.00000000E+00
  2.50000000E+02  7.60000000E+01  0.00000000E+00
  2.60000000E+02  7.60000000E+01  0.00000000E+00
  2.70000000E+02  7.60000000E+01  0.00000000E+00
  2.80000000E+02  7.60000000E+01  0.00000000E+00
  2.90000000E+02  7.60000000E+01  0.00000000E+00
  3.00000000E+02  7.60000000E+01  0.00000000E+00
  3.10000000E+02  7.60000000E+01  0.00000000E+00
  3.20000000E+02  7.60000000E+01  0.00000000E+00
  3.30000000E+02  7.60000000E+01  0.00000000E+00
  3.40000000E+02  7.60000000E+01  0.00000000E+00
  3.50000000E+02  7.60000000E+01  0.00000000E+00
  3.60000000E+02  7.60000000E+01  0.00000000E+00
  3.70000000E+02  7.60000000E+01  0.00000000E+00
  3.80000000E+02  7.60000000E+01  0.00000000E+00
  3.90000000E+02  7.60000000E+01  0.00000000E+00
  4.00000000E+02  7.60000000E+01  0.00000000E+00
  4.10000000E+02  7.60000000E+01  0.00000000E+00
  4.20000000E+02  7.60000000E+01  0.00000000E+00
  4.30000000E+02  7.60000000E+01  0.00000000E+00
  4.40000000E+02  7.60000000E+01  0.00000000E+00
  4.50000000E+02  7.60000000E+01  0.00000000E+00
  4.60000000E+02  7.60000000E+01  0.00000000E+00
  4.70000000E+02  7.60000000E+01  0.00000000E+00
  4.80000000E+02  7.60000000E+01  0.00000000E+00
  4.90000000E+02  7.60000000E+01  0.00000000E+00
  5.00000000E+02  7.60000000E+01  0.00000000E+00
  5.10000000E+02  7.60000000E+01  0.00000000E+00
  5.20000000E+02  7.60000000E+01  0.00000000E+00
  5.30000000E+02  7.60000000E+01  0.00000000E+00
  5.40000000E+02  7.60000000E+01  0.00000000E+00
  5.50000000E+02  7.60000000E+01  0.00000000E+00
  5.60000000E+02  7.60000000E+01  0.00000000E+00
  5.70000000E+02  7.60000000E+01  0.00000000E+00
  5.80000000E+02  7.60000000E+01  0.00000000E+00
  5.90000000E+02  7.60000000E+01  0.00000000E+00
  6.00000000E+02  7.60000000E+01  0.00000000E+00
  6.10000000E+02  7.60000000E+01  0.00000000E+00
  6.20000000E+02  7.60000000E+01  0.00000000E+00
  6.30000000E+02  7.60000000E+01  0.00000000E+00
  6.40000000E+02  7.60000000E+01  0.00000000E+00
  6.50000000E+02  7.60000000E+01  0.00000000E+00
  6.60000000E+02  7.60000000E+01  0.00000000E+00
  6.70000000E+02  7.60000000E+01  0.00000000E+00
  6.80000000E+02  7.60000000E+01  0.00000000E+00
  6.90000000E+02  7.60000000E+01  0.00000000E+00
  7.00000000E+02  7.60000000E+01  0.00000000E+00
  7.10000000E+02  7.60000000E+01  0.00000000E+00
  7.20000000E+02  7.60000000E+01  0.00000000E+00
  7.30000000E+02  7.60000000E+01  0.00000000E+00
  7.40000000E+02  7.60000000E+01  0.00000000E+00
  7.50000000E+02  7.60000000E+01  0.00000000E+00
  7.60000000E+02  7.60000000E+01  0.00000000E+00
  7.70000000E+02  7.60000000E+01  0.00000000E+00
  7.80000000E+02  7.60000000E+01  0.00000000E+00
  7.90000000E+02  7.60000000E+01  0.00000000E+00
  8.00000000E+02  7.60000000E+01  0.00000000E+00
  8.10000000E+02  7.60000000E+01  0.00000000E+00
  8.20000000E+02  7.60000000E+01  0.00000000E+00
  8.30000000E+02  7.60000000E+01  0.00000000E+00
  8.40000000E+02  7.60000000E+01  0.00000000E+00
  8.50000000E+02  7.60000000E+01  0.00000000E+00
  8.60000000E+02  7.60000000E+01  0.00000000E+00
  8.70000000E+02  7.60000000E+01  0.00000000E+00
  8.80000000E+02  7.60000000E+01  0.00000000E+00
  8.90000000E+02  7.60000000E+01  0.00000000E+00
  9.00000000E+02  7.60000000E+01  0.00000000E+00
  9.10000000E+02  7.60000000E+01  0.00000000E+00
  9.20000000E+02  7.60000000E+01  0.00000000E+00
  9.30000000E+02  7.60000000E+01  0.00000000E+00
  9.40000000E+02  7.60000000E+01  0.00000000E+00
  9.50000000E+02  7.60000000E+01  0.00000000E+00
  9.60000000E+02  7.60000000E+01  0.00000000E+00
  9.70000000E+02  7.60000000E+01  0.00000000E+00
  9.80000000E+02  7.60000000E+01  0.00000000E+00
  9.90000000E+02  7.60000000E+01  0.00000000E+00
  1.00000000E+03  7.60000000E+01  0.00000000E+00
  0.00000000E+00  7.80000000E+01  0.00000000E+00
  1.00000000E+01  7.80000000E+01  0.00000000E+00
  2.00000000E+01  7.80000000E+01  0.00000000E+00
  3.00000000E+01  7.80000000E+01  0.00000000E+00
  4.00000000E+01  7.80000000E+01  0.00000000E+00
  5.00000000E+01  7.80000000E+01  0.00000000E+00
  6.00000000E+01  7.80000000E+01  0.00000000E+00
  7.00000000E+01  7.80000000E+01  0.00000000E+00
  8.00000000E+01  7.80000000E+01  0.00000000E+00
  9.00000000E+01  7.80000000E+01  0.00000000E+00
  1.00000000E+02  7.80000000E+01  0.00000000E+00
  1.10000000E+02  7.80000000E+01  0.00000000E+00
  1.20000000E+02  7.80000000E+01  0.00000000E+00
  1.30000000E+02  7.80000000E+01  0.00000000E+00
  1.40000000E+02  7.80000000E+01  0.00000000E+00
  1.50000000E+02  7.80000000E+01  0.00000000E+00
  1.60000000E+02  7.80000000E+01  0.00000000E+00
  1.70000000E+02  7.80000000E+01  0.00000000E+00
  1.80000000E+02  7.80000000E+01  0.00000000E+00
  1.90000000E+02  7.80000000E+01  0.00000000E+00
  2.00000000E+02  7.80000000E+01  0.00000000E+00
  2.10000000E+02  7.80000000E+01  0.00000000E+00
  2.20000000E+02  7.80000000E+01  0.00000000E+00
  2.30000000E+02  7.80000000E+01  0.00000000E+00
  2.40000000E+02  7.80000000E+01  0.00000000E+00
  2.50000000E+02  7.80000000E+01  0.00000000E+00
  2.60000000E+02  7.80000000E+01  0.00000000E+00
  2.70000000E+02  7.80000000E+01  0.00000000E+00
  2.80000000E+02  7.80000000E+01  0.00000000E+00
  2.90000000E+02  7.80000000E+01  0.00000000E+00
  3.00000000E+02  7.80000000E+01  0.00000000E+00
  3.10000000E+02  7.80000000E+01  0.00000000E+00
  3.20000000E+02  7.80000000E+01  0.00000000E+00
  3.30000000E+02  7.80000000E+01  0.00000000E+00
  3.40000000E+02  7.80000000E+01  0.00000000E+00
  3.50000000E+02  7.80000000E+01  0.00000000E+00
  3.60000000E+02  7.80000000E+01  0.00000000E+00
  3.70000000E+02  7.80000000E+01  0.00000000E+00
  3.80000000E+02  7.80000000E+01  0.00000000E+00
  3.90000000E+02  7.80000000E+01  0.00000000E+00
  4.00000000E+02  7.80000000E+01  0.00000000E+00
  4.10000000E+02  7.80000000E+01  0.00000000E+00
  4.20000000E+02  7.80000000E+01  0.00000000E+00
  4.30000000E+02  7.80000000E+01  0.00000000E+00
  4.40000000E+02  7.80000000E+01  0.00000000E+00
  4.50000000E+02  7.80000000E+01  0.00000000E+00
  4.60000000E+02  7.80000000E+01  0.00000000E+00
  4.70000000E+02  7.80000000E+01  0.00000000E+00
  4.80000000E+02  7.80000000E+01  0.00000000E+00
  4.90000000E+02  7.80000000E+01  0.00000000E+00
  5.00000000E+02  7.80000000E+01  0.00000000E+00
  5.10000000E+02  7.80000000E+01  0.00000000E+00
  5.20000000E+02  7.80000000E+01  0.00000000E+00
  5.30000000E+02  7.80000000E+01  0.00000000E+00
  5.40000000E+02  7.80000000E+01  0.00000000E+00
  5.50000000E+02  7.80000000E+01  0.00000000E+00
  5.60000000E+02  7.80000000E+01  0.00000000E+00
  5.70000000E+02  7.80000000E+01  0.00000000E+00
  5.80000000E+02  7.80000000E+01  0.00000000E+00
  5.90000000E+02  7.80000000E+01  0.00000000E+00
  6.00000000E+02  7.80000000E+01  0.00000000E+00
  6.10000000E+02  7.80000000E+01  0.00000000E+00
  6.20000000E+02  7.80000000E+01  0.00000000E+00
  6.30000000E+02  7.80000000E+01  0.00000000E+00
  6.40000000E+02  7.80000000E+01  0.00000000E+00
  6.50000000E+02  7.80000000E+01  0.00000000E+00
  6.60000000E+02  7.80000000E+01  0.00000000E+00
  6.70000000E+02  7.80000000E+01  0.00000000E+00
  6.80000000E+02  7.80000000E+01  0.00000000E+00
  6.90000000E+02  7.80000000E+01  0.00000000E+00
  7.00000000E+02  7.80000000E+01  0.00000000E+00
  7.10000000E+02  7.80000000E+01  0.00000000E+00
  7.20000000E+02  7.80000000E+01  0.00000000E+00
  7.30000000E+02  7.80000000E+01  0.00000000E+00
  7.40000000E+02  7.80000000E+01  0.00000000E+00
  7.50000000E+02  7.80000000E+01  0.00000000E+00
  7.60000000E+02  7.80000000E+01  0.00000000E+00
  7.70000000E+02  7.80000000E+01  0.00000000E+00
  7.80000000E+02  7.80000000E+01  0.00000000E+00
  7.90000000E+02  7.80000000E+01  0.00000000E+00
  8.00000000E+02  7.80000000E+01  0.00000000E+00
  8.10000000E+02  7.80000000E+01  0.00000000E+00
  8.20000000E+02  7.80000000E+01  0.00000000E+00
  8.30000000E+02  7.80000000E+01  0.00000000E+00
  8.40000000E+02  7.80000000E+01  0.00000000E+00
  8.50000000E+02  7.80000000E+01  0.00000000E+00
  8.60000000E+02  7.80000000E+01  0.00000000E+00
  8.70000000E+02  7.80000000E+01  0.00000000E+00
  8.80000000E+02  7.80000000E+01  0.00000000E+00
  8.90000000E+02  7.80000000E+01  0.00000000E+00
  9.00000000E+02  7.80000000E+01  0.00000000E+00
  9.10000000E+02  7.80000000E+01  0.00000000E+00
  9.20000000E+02  7.80000000E+01  0.00000000E+00
  9.30000000E+02  7.80000000E+01  0.00000000E+00
  9.40000000E+02  7.80000000E+01  0.00000000E+00
  9.50000000E+02  7.80000000E+01  0.00000000E+00
  9.60000000E+02  7.80000000E+01  0.00000000E+00
  9.70000000E+02  7.80000000E+01  0.00000000E+00
  9.80000000E+02  7.80000000E+01  0.00000000E+00
  9.90000000E+02  7.80000000E+01  0.00000000E+00
  1.00000000E+03  7.80000000E+01  0.00000000E+00
  0.00000000E+00  8.00000000E+01  0.00000000E+00
  1.00000000E+01  8.00000000E+01  0.00000000E+00
  2.00000000E+01  8.00000000E+01  0.00000000E+00
  3.00000000E+01  8.00000000E+01  0.00000000E+00
  4.00000000E+01  8.00000000E+01  0.00000000E+00
  5.00000000E+01  8.00000000E+01  0.00000000E+00
  6.00000000E+01  8.00000000E+01  0.00000000E+00
  7.00000000E+01  8.00000000E+01  0.00000000E+00
  8.00000000E+01  8.00000000E+01  0.00000000E+00
  9.00000000E+01  8.00000000E+01  0.00000000E+00
  1.00000000E+02  8.00000000E+01  0.00000000E+00
  1.10000000E+02  8.00000000E+01  0.00000000E+00
  1.20000000E+02  8.00000000E+01  0.00000000E+00
  1.30000000E+02  8.00000000E+01  0.00000000E+00
  1.40000000E+02  8.00000000E+01  0.00000000E+00
  1.50000000E+02  8.00000000E+01  0.00000000E+00
  1.60000000E+02  8.00000000E+01  0.00000000E+00
  1.70000000E+02  8.00000000E+01  0.00000000E+00
  1.80000000E+02  8.00000000E+01  0.00000000E+00
  1.90000000E+02  8.00000000E+01  0.00000000E+00
  2.00000000E+02  8.00000000E+01  0.00000000E+00
  2.10000000E+02  8.00000000E+01  0.00000000E+00
  2.20000000E+02  8.00000000E+01  0.00000000E+00
  2.30000000E+02  8.00000000E+01  0.00000000E+00
  2.40000000E+02  8.00000000E+01  0.00000000E+00
  2.50000000E+02  8.00000000E+01  0.00000000E+00
  2.60000000E+02  8.00000000E+01  0.00000000E+00
  2.70000000E+02  8.00000000E+01  0.00000000E+00
  2.80000000E+02  8.00000000E+01  0.00000000E+00
  2.90000000E+02  8.00000000E+01  0.00000000E+00
  3.00000000E+02  8.00000000E+01  0.00000000E+00
  3.10000000E+02  8.00000000E+01  0.00000000E+00
  3.20000000E+02  8.00000000E+01  0.00000000E+00
  3.30000000E+02  8.00000000E+01  0.00000000E+00
  3.40000000E+02  8.00000000E+01  0.00000000E+00
  3.50000000E+02  8.00000000E+01  0.00000000E+00
  3.60000000E+02  8.00000000E+01  0.00000000E+00
  3.70000000E+02  8.00000000E+01  0.00000000E+00
  3.80000000E+02  8.00000000E+01  0.00000000E+00
  3.90000000E+02  8.00000000E+01  0.00000000E+00
  4.00000000E+02  8.00000000E+01  0.00000000E+00
  4.10000000E+02  8.00000000E+01  0.00000000E+00
  4.20000000E+02  8.00000000E+01  0.00000000E+00
  4.30000000E+02  8.00000000E+01  0.00000000E+00
  4.40000000E+02  8.00000000E+01  0.00000000E+00
  4.50000000E+02  8.00000000E+01  0.00000000E+00
  4.60000000E+02  8.00000000E+01  0.00000000E+00
  4.70000000E+02  8.00000000E+01  0.00000000E+00
  4.80000000E+02  8.00000000E+01  0.00000000E+00
  4.90000000E+02  8.00000000E+01  0.00000000E+00
  5.00000000E+02  8.00000000E+01  0.00000000E+00
  5.10000000E+02  8.00000000E+01  0.00000000E+00
  5.20000000E+02  8.00000000E+01  0.00000000E+00
  5.30000000E+02  8.00000000E+01  0.00000000E+00
  5.40000000E+02  8.00000000E+01  0.00000000E+00
  5.50000000E+02  8.00000000E+01  0.00000000E+00
  5.60000000E+02  8.00000000E+01  0.00000000E+00
  5.70000000E+02  8.00000000E+01  0.00000000E+00
  5.80000000E+02  8.00000000E+01  0.00000000E+00
  5.90000000E+02  8.00000000E+01  0.00000000E+00
  6.00000000E+02  8.00000000E+01  0.00000000E+00
  6.10000000E+02  8.00000000E+01  0.00000000E+00
  6.20000000E+02  8.00000000E+01  0.00000000E+00
  6.30000000E+02  8.00000000E+01  0.00000000E+00
  6.40000000E+02  8.00000000E+01  0.00000000E+00
  6.50000000E+02  8.00000000E+01  0.00000000E+00
  6.60000000E+02  8.00000000E+01  0.00000000E+00
  6.70000000E+02  8.00000000E+01  0.00000000E+00
  6.80000000E+02  8.00000000E+01  0.00000000E+00
  6.90000000E+02  8.00000000E+01  0.00000000E+00
  7.00000000E+02  8.00000000E+01  0.00000000E+00
  7.10000000E+02  8.00000000E+01  0.00000000E+00
  7.20000000E+02  8.00000000E+01  0.00000000E+00
  7.30000000E+02  8.00000000E+01  0.00000000E+00
  7.40000000E+02  8.00000000E+01  0.00000000E+00
  7.50000000E+02  8.00000000E+01  0.00000000E+00
  7.60000000E+02  8.00000000E+01  0.00000000E+00
  7.70000000E+02  8.00000000E+01  0.00000000E+00
  7.80000000E+02  8.00000000E+01  0.00000000E+00
  7.90000000E+02  8.00000000E+01  0.00000000E+00
  8.00000000E+02  8.00000000E+01  0.00000000E+00
  8.10000000E+02  8.00000000E+01  0.00000000E+00
  8.20000000E+02  8.00000000E+01  0.00000000E+00
  8.30000000E+02  8.00000000E+01  0.00000000E+00
  8.40000000E+02  8.00000000E+01  0.00000000E+00
  8.50000000E+02  8.00000000E+01  0.00000000E+00
  8.60000000E+02  8.00000000E+01  0.00000000E+00
  8.70000000E+02  8.00000000E+01  0.00000000E+00
  8.80000000E+02  8.00000000E+01  0.00000000E+00
  8.90000000E+02  8.00000000E+01  0.00000000E+00
  9.00000000E+02  8.00000000E+01  0.00000000E+00
  9.10000000E+02  8.00000000E+01  0.00000000E+00
  9.20000000E+02  8.00000000E+01  0.00000000E+00
  9.30000000E+02  8.00000000E+01  0.00000000E+00
  9.40000000E+02  8.00000000E+01  0.00000000E+00
  9.50000000E+02  8.00000000E+01  0.00000000E+00
  9.60000000E+02  8.00000000E+01  0.00000000E+00
  9.70000000E+02  8.00000000E+01  0.00000000E+00
  9.80000000E+02  8.00000000E+01  0.00000000E+00
  9.90000000E+02  8.00000000E+01  0.00000000E+00
  1.00000000E+03  8.00000000E+01  0.00000000E+00
  0.00000000E+00  8.20000000E+01  0.00000000E+00
  1.00000000E+01  8.20000000E+01  0.00000000E+00
  2.00000000E+01  8.20000000E+01  0.00000000E+00
  3.00000000E+01  8.20000000E+01  0.00000000E+00
  4.00000000E+01  8.20000000E+01  0.00000000E+00
  5.00000000E+01  8.20000000E+01  0.00000000E+00
  6.00000000E+01  8.20000000E+01  0.00000000E+00
  7.00000000E+01  8.20000000E+01  0.00000000E+00
  8.00000000E+01  8.20000000E+01  0.00000000E+00
  9.00000000E+01  8.20000000E+01  0.00000000E+00
  1.00000000E+02  8.20000000E+01  0.00000000E+00
  1.10000000E+02  8.20000000E+01  0.00000000E+00
  1.20000000E+02  8.20000000E+01  0.00000000E+00
  1.30000000E+02  8.20000000E+01  0.00000000E+00
  1.40000000E+02  8.20000000E+01  0.00000000E+00
  1.50000000E+02  8.20000000E+01  0.00000000E+00
  1.60000000E+02  8.20000000E+01  0.00000000E+00
  1.70000000E+02  8.20000000E+01  0.00000000E+00
  1.80000000E+02  8.20000000E+01  0.00000000E+00
  1.90000000E+02  8.20000000E+01  0.00000000E+00
  2.00000000E+02  8.20000000E+01  0.00000000E+00
  2.10000000E+02  8.20000000E+01  0.00000000E+00
  2.20000000E+02  8.20000000E+01  0.00000000E+00
  2.30000000E+02  8.20000000E+01  0.00000000E+00
  2.40000000E+02  8.20000000E+01  0.00000000E+00
  2.50000000E+02  8.20000000E+01  0.00000000E+00
  2.60000000E+02  8.20000000E+01  0.00000000E+00
  2.70000000E+02  8.20000000E+01  0.00000000E+00
  2.80000000E+02  8.20000000E+01  0.00000000E+00
  2.90000000E+02  8.20000000E+01  0.00000000E+00
  3.00000000E+02  8.20000000E+01  0.00000000E+00
  3.10000000E+02  8.20000000E+01  0.00000000E+00
  3.20000000E+02  8.20000000E+01  0.00000000E+00
  3.30000000E+02  8.20000000E+01  0.00000000E+00
  3.40000000E+02  8.20000000E+01  0.00000000E+00
  3.50000000E+02  8.20000000E+01  0.00000000E+00
  3.60000000E+02  8.20000000E+01  0.00000000E+00
  3.70000000E+02  8.20000000E+01  0.00000000E+00
  3.80000000E+02  8.20000000E+01  0.00000000E+00
  3.90000000E+02  8.20000000E+01  0.00000000E+00
  4.00000000E+02  8.20000000E+01  0.00000000E+00
  4.10000000E+02  8.20000000E+01  0.00000000E+00
  4.20000000E+02  8.20000000E+01  0.00000000E+00
  4.30000000E+02  8.20000000E+01  0.00000000E+00
  4.40000000E+02  8.20000000E+01  0.00000000E+00
  4.50000000E+02  8.20000000E+01  0.00000000E+00
  4.60000000E+02  8.20000000E+01  0.00000000E+00
  4.70000000E+02  8.20000000E+01  0.00000000E+00
  4.80000000E+02  8.20000000E+01  0.00000000E+00
  4.90000000E+02  8.20000000E+01  0.00000000E+00
  5.00000000E+02  8.20000000E+01  0.00000000E+00
  5.10000000E+02  8.20000000E+01  0.00000000E+00
  5.20000000E+02  8.20000000E+01  0.00000000E+00
  5.30000000E+02  8.20000000E+01  0.00000000E+00
  5.40000000E+02  8.20000000E+01  0.00000000E+00
  5.50000000E+02  8.20000000E+01  0.00000000E+00
  5.60000000E+02  8.20000000E+01  0.00000000E+00
  5.70000000E+02  8.20000000E+01  0.00000000E+00
  5.80000000E+02  8.20000000E+01  0.00000000E+00
  5.90000000E+02  8.20000000E+01  0.00000000E+00
  6.00000000E+02  8.20000000E+01  0.00000000E+00
  6.10000000E+02  8.20000000E+01  0.00000000E+00
  6.20000000E+02  8.20000000E+01  0.00000000E+00
  6.30000000E+02  8.20000000E+01  0.00000000E+00
  6.40000000E+02  8.20000000E+01  0.00000000E+00
  6.50000000E+02  8.20000000E+01  0.00000000E+00
  6.60000000E+02  8.20000000E+01  0.00000000E+00
  6.70000000E+02  8.20000000E+01  0.00000000E+00
  6.80000000E+02  8.20000000E+01  0.00000000E+00
  6.90000000E+02  8.20000000E+01  0.00000000E+00
  7.00000000E+02  8.20000000E+01  0.00000000E+00
  7.10000000E+02  8.20000000E+01  0.00000000E+00
  7.20000000E+02  8.20000000E+01  0.00000000E+00
  7.30000000E+02  8.20000000E+01  0.00000000E+00
  7.40000000E+02  8.20000000E+01  0.00000000E+00
  7.50000000E+02  8.20000000E+01  0.00000000E+00
  7.60000000E+02  8.20000000E+01  0.00000000E+00
  7.70000000E+02  8.20000000E+01  0.00000000E+00
  7.80000000E+02  8.20000000E+01  0.00000000E+00
  7.90000000E+02  8.20000000E+01  0.00000000E+00
  8.00000000E+02  8.20000000E+01  0.00000000E+00
  8.10000000E+02  8.20000000E+01  0.00000000E+00
  8.20000000E+02  8.20000000E+01  0.00000000E+00
  8.30000000E+02  8.20000000E+01  0.00000000E+00
  8.40000000E+02  8.20000000E+01  0.00000000E+00
  8.50000000E+02  8.20000000E+01  0.00000000E+00
  8.60000000E+02  8.20000000E+01  0.00000000E+00
  8.70000000E+02  8.20000000E+01  0.00000000E+00
  8.80000000E+02  8.20000000E+01  0.00000000E+00
  8.90000000E+02  8.20000000E+01  0.00000000E+00
  9.00000000E+02  8.20000000E+01  0.00000000E+00
  9.10000000E+02  8.20000000E+01  0.00000000E+00
  9.20000000E+02  8.20000000E+01  0.00000000E+00
  9.30000000E+02  8.20000000E+01  0.00000000E+00
  9.40000000E+02  8.20000000E+01  0.00000000E+00
  9.50000000E+02  8.20000000E+01  0.00000000E+00
  9.60000000E+02  8.20000000E+01  0.00000000E+00
  9.70000000E+02  8.20000000E+01  0.00000000E+00
  9.80000000E+02  8.20000000E+01  0.00000000E+00
  9.90000000E+02  8.20000000E+01  0.00000000E+00
  1.00000000E+03  8.20000000E+01  0.00000000E+00
  0.00000000E+00  8.40000000E+01  0.00000000E+00
  1.00000000E+01  8.40000000E+01  0.00000000E+00
  2.00000000E+01  8.40000000E+01  0.00000000E+00
  3.00000000E+01  8.40000000E+01  0.00000000E+00
  4.00000000E+01  8.40000000E+01  0.00000000E+00
  5.00000000E+01  8.40000000E+01  0.00000000E+00
  6.00000000E+01  8.40000000E+01  0.00000000E+00
  7.00000000E+01  8.40000000E+01  0.00000000E+00
  8.00000000E+01  8.40000000E+01  0.00000000E+00
  9.00000000E+01  8.40000000E+01  0.00000000E+00
  1.00000000E+02  8.40000000E+01  0.00000000E+00
  1.10000000E+02  8.40000000E+01  0.00000000E+00
  1.20000000E+02  8.40000000E+01  0.00000000E+00
  1.30000000E+02  8.40000000E+01  0.00000000E+00
  1.40000000E+02  8.40000000E+01  0.00000000E+00
  1.50000000E+02  8.40000000E+01  0.00000000E+00
  1.60000000E+02  8.40000000E+01  0.00000000E+00
  1.70000000E+02  8.40000000E+01  0.00000000E+00
  1.80000000E+02  8.40000000E+01  0.00000000E+00
  1.90000000E+02  8.40000000E+01  0.00000000E+00
  2.00000000E+02  8.40000000E+01  0.00000000E+00
  2.10000000E+02  8.40000000E+01  0.00000000E+00
  2.20000000E+02  8.40000000E+01  0.00000000E+00
  2.30000000E+02  8.40000000E+01  0.00000000E+00
  2.40000000E+02  8.40000000E+01  0.00000000E+00
  2.50000000E+02  8.40000000E+01  0.00000000E+00
  2.60000000E+02  8.40000000E+01  0.00000000E+00
  2.70000000E+02  8.40000000E+01  0.00000000E+00
  2.80000000E+02  8.40000000E+01  0.00000000E+00
  2.90000000E+02  8.40000000E+01  0.00000000E+00
  3.00000000E+02  8.40000000E+01  0.00000000E+00
  3.10000000E+02  8.40000000E+01  0.00000000E+00
  3.20000000E+02  8.40000000E+01  0.00000000E+00
  3.30000000E+02  8.40000000E+01  0.00000000E+00
  3.40000000E+02  8.40000000E+01  0.00000000E+00
  3.50000000E+02  8.40000000E+01  0.00000000E+00
  3.60000000E+02  8.40000000E+01  0.00000000E+00
  3.70000000E+02  8.40000000E+01  0.00000000E+00
  3.80000000E+02  8.40000000E+01  0.00000000E+00
  3.90000000E+02  8.40000000E+01  0.00000000E+00
  4.00000000E+02  8.40000000E+01  0.00000000E+00
  4.10000000E+02  8.40000000E+01  0.00000000E+00
  4.20000000E+02  8.40000000E+01  0.00000000E+00
  4.30000000E+02  8.40000000E+01  0.00000000E+00
  4.40000000E+02  8.40000000E+01  0.00000000E+00
  4.50000000E+02  8.40000000E+01  0.00000000E+00
  4.60000000E+02  8.40000000E+01  0.00000000E+00
  4.70000000E+02  8.40000000E+01  0.00000000E+00
  4.80000000E+02  8.40000000E+01  0.00000000E+00
  4.90000000E+02  8.40000000E+01  0.00000000E+00
  5.00000000E+02  8.40000000E+01  0.00000000E+00
  5.10000000E+02  8.40000000E+01  0.00000000E+00
  5.20000000E+02  8.40000000E+01  0.00000000E+00
  5.30000000E+02  8.40000000E+01  0.00000000E+00
  5.40000000E+02  8.40000000E+01  0.00000000E+00
  5.50000000E+02  8.40000000E+01  0.00000000E+00
  5.60000000E+02  8.40000000E+01  0.00000000E+00
  5.70000000E+02  8.40000000E+01  0.00000000E+00
  5.80000000E+02  8.40000000E+01  0.00000000E+00
  5.90000000E+02  8.40000000E+01  0.00000000E+00
  6.00000000E+02  8.40000000E+01  0.00000000E+00
  6.10000000E+02  8.40000000E+01  0.00000000E+00
  6.20000000E+02  8.40000000E+01  0.00000000E+00
  6.30000000E+02  8.40000000E+01  0.00000000E+00
  6.40000000E+02  8.40000000E+01  0.00000000E+00
  6.50000000E+02  8.40000000E+01  0.00000000E+00
  6.60000000E+02  8.40000000E+01  0.00000000E+00
  6.70000000E+02  8.40000000E+01  0.00000000E+00
  6.80000000E+02  8.40000000E+01  0.00000000E+00
  6.90000000E+02  8.40000000E+01  0.00000000E+00
  7.00000000E+02  8.40000000E+01  0.00000000E+00
  7.10000000E+02  8.40000000E+01  0.00000000E+00
  7.20000000E+02  8.40000000E+01  0.00000000E+00
  7.30000000E+02  8.40000000E+01  0.00000000E+00
  7.40000000E+02  8.40000000E+01  0.00000000E+00
  7.50000000E+02  8.40000000E+01  0.00000000E+00
  7.60000000E+02  8.40000000E+01  0.00000000E+00
  7.70000000E+02  8.40000000E+01  0.00000000E+00
  7.80000000E+02  8.40000000E+01  0.00000000E+00
  7.90000000E+02  8.40000000E+01  0.00000000E+00
  8.00000000E+02  8.40000000E+01  0.00000000E+00
  8.10000000E+02  8.40000000E+01  0.00000000E+00
  8.20000000E+02  8.40000000E+01  0.00000000E+00
  8.30000000E+02  8.40000000E+01  0.00000000E+00
  8.40000000E+02  8.40000000E+01  0.00000000E+00
  8.50000000E+02  8.40000000E+01  0.00000000E+00
  8.60000000E+02  8.40000000E+01  0.00000000E+00
  8.70000000E+02  8.40000000E+01  0.00000000E+00
  8.80000000E+02  8.40000000E+01  0.00000000E+00
  8.90000000E+02  8.40000000E+01  0.00000000E+00
  9.00000000E+02  8.40000000E+01  0.00000000E+00
  9.10000000E+02  8.40000000E+01  0.00000000E+00
  9.20000000E+02  8.40000000E+01  0.00000000E+00
  9.30000000E+02  8.40000000E+01  0.00000000E+00
  9.40000000E+02  8.40000000E+01  0.00000000E+00
  9.50000000E+02  8.40000000E+01  0.00000000E+00
  9.60000000E+02  8.40000000E+01  0.00000000E+00
  9.70000000E+02  8.40000000E+01  0.00000000E+00
  9.80000000E+02  8.40000000E+01  0.00000000E+00
  9.90000000E+02  8.40000000E+01  0.00000000E+00
  1.00000000E+03  8.40000000E+01  0.00000000E+00
  0.00000000E+00  8.60000000E+01  0.00000000E+00
  1.00000000E+01  8.60000000E+01  0.00000000E+00
  2.00000000E+01  8.60000000E+01  0.00000000E+00
  3.00000000E+01  8.60000000E+01  0.00000000E+00
  4.00000000E+01  8.60000000E+01  0.00000000E+00
  5.00000000E+01  8.60000000E+01  0.00000000E+00
  6.00000000E+01  8.60000000E+01  0.00000000E+00
  7.00000000E+01  8.60000000E+01  0.00000000E+00
  8.00000000E+01  8.60000000E+01  0.00000000E+00
  9.00000000E+01  8.60000000E+01  0.00000000E+00
  1.00000000E+02  8.60000000E+01  0.00000000E+00
  1.10000000E+02  8.60000000E+01  0.00000000E+00
  1.20000000E+02  8.60000000E+01  0.00000000E+00
  1.30000000E+02  8.60000000E+01  0.00000000E+00
  1.40000000E+02  8.60000000E+01  0.00000000E+00
  1.50000000E+02  8.60000000E+01  0.00000000E+00
  1.60000000E+02  8.60000000E+01  0.00000000E+00
  1.70000000E+02  8.60000000E+01  0.00000000E+00
  1.80000000E+02  8.60000000E+01  0.00000000E+00
  1.90000000E+02  8.60000000E+01  0.00000000E+00
  2.00000000E+02  8.60000000E+01  0.00000000E+00
  2.10000000E+02  8.60000000E+01  0.00000000E+00
  2.20000000E+02  8.60000000E+01  0.00000000E+00
  2.30000000E+02  8.60000000E+01  0.00000000E+00
  2.40000000E+02  8.60000000E+01  0.00000000E+00
  2.50000000E+02  8.60000000E+01  0.00000000E+00
  2.60000000E+02  8.60000000E+01  0.00000000E+00
  2.70000000E+02  8.60000000E+01  0.00000000E+00
  2.80000000E+02  8.60000000E+01  0.00000000E+00
  2.90000000E+02  8.60000000E+01  0.00000000E+00
  3.00000000E+02  8.60000000E+01  0.00000000E+00
  3.10000000E+02  8.60000000E+01  0.00000000E+00
  3.20000000E+02  8.60000000E+01  0.00000000E+00
  3.30000000E+02  8.60000000E+01  0.00000000E+00
  3.40000000E+02  8.60000000E+01  0.00000000E+00
  3.50000000E+02  8.60000000E+01  0.00000000E+00
  3.60000000E+02  8.60000000E+01  0.00000000E+00
  3.70000000E+02  8.60000000E+01  0.00000000E+00
  3.80000000E+02  8.60000000E+01  0.00000000E+00
  3.90000000E+02  8.60000000E+01  0.00000000E+00
  4.00000000E+02  8.60000000E+01  0.00000000E+00
  4.10000000E+02  8.60000000E+01  0.00000000E+00
  4.20000000E+02  8.60000000E+01  0.00000000E+00
  4.30000000E+02  8.60000000E+01  0.00000000E+00
  4.40000000E+02  8.60000000E+01  0.00000000E+00
  4.50000000E+02  8.60000000E+01  0.00000000E+00
  4.60000000E+02  8.60000000E+01  0.00000000E+00
  4.70000000E+02  8.60000000E+01  0.00000000E+00
  4.80000000E+02  8.60000000E+01  0.00000000E+00
  4.90000000E+02  8.60000000E+01  0.00000000E+00
  5.00000000E+02  8.60000000E+01  0.00000000E+00
  5.10000000E+02  8.60000000E+01  0.00000000E+00
  5.20000000E+02  8.60000000E+01  0.00000000E+00
  5.30000000E+02  8.60000000E+01  0.00000000E+00
  5.40000000E+02  8.60000000E+01  0.00000000E+00
  5.50000000E+02  8.60000000E+01  0.00000000E+00
  5.60000000E+02  8.60000000E+01  0.00000000E+00
  5.70000000E+02  8.60000000E+01  0.00000000E+00
  5.80000000E+02  8.60000000E+01  0.00000000E+00
  5.90000000E+02  8.60000000E+01  0.00000000E+00
  6.00000000E+02  8.60000000E+01  0.00000000E+00
  6.10000000E+02  8.60000000E+01  0.00000000E+00
  6.20000000E+02  8.60000000E+01  0.00000000E+00
  6.30000000E+02  8.60000000E+01  0.00000000E+00
  6.40000000E+02  8.60000000E+01  0.00000000E+00
  6.50000000E+02  8.60000000E+01  0.00000000E+00
  6.60000000E+02  8.60000000E+01  0.00000000E+00
  6.70000000E+02  8.60000000E+01  0.00000000E+00
  6.80000000E+02  8.60000000E+01  0.00000000E+00
  6.90000000E+02  8.60000000E+01  0.00000000E+00
  7.00000000E+02  8.60000000E+01  0.00000000E+00
  7.10000000E+02  8.60000000E+01  0.00000000E+00
  7.20000000E+02  8.60000000E+01  0.00000000E+00
  7.30000000E+02  8.60000000E+01  0.00000000E+00
  7.40000000E+02  8.60000000E+01  0.00000000E+00
  7.50000000E+02  8.60000000E+01  0.00000000E+00
  7.60000000E+02  8.60000000E+01  0.00000000E+00
  7.70000000E+02  8.60000000E+01  0.00000000E+00
  7.80000000E+02  8.60000000E+01  0.00000000E+00
  7.90000000E+02  8.60000000E+01  0.00000000E+00
  8.00000000E+02  8.60000000E+01  0.00000000E+00
  8.10000000E+02  8.60000000E+01  0.00000000E+00
  8.20000000E+02  8.60000000E+01  0.00000000E+00
  8.30000000E+02  8.60000000E+01  0.00000000E+00
  8.40000000E+02  8.60000000E+01  0.00000000E+00
  8.50000000E+02  8.60000000E+01  0.00000000E+00
  8.60000000E+02  8.60000000E+01  0.00000000E+00
  8.70000000E+02  8.60000000E+01  0.00000000E+00
  8.80000000E+02  8.60000000E+01  0.00000000E+00
  8.90000000E+02  8.60000000E+01  0.00000000E+00
  9.00000000E+02  8.60000000E+01  0.00000000E+00
  9.10000000E+02  8.60000000E+01  0.00000000E+00
  9.20000000E+02  8.60000000E+01  0.00000000E+00
  9.30000000E+02  8.60000000E+01  0.00000000E+00
  9.40000000E+02  8.60000000E+01  0.00000000E+00
  9.50000000E+02  8.60000000E+01  0.00000000E+00
  9.60000000E+02  8.60000000E+01  0.00000000E+00
  9.70000000E+02  8.60000000E+01  0.00000000E+00
  9.80000000E+02  8.60000000E+01  0.00000000E+00
  9.90000000E+02  8.60000000E+01  0.00000000E+00
  1.00000000E+03  8.60000000E+01  0.00000000E+00
  0.00000000E+00  8.80000000E+01  0.00000000E+00
  1.00000000E+01  8.80000000E+01  0.00000000E+00
  2.00000000E+01  8.80000000E+01  0.00000000E+00
  3.00000000E+01  8.80000000E+01  0.00000000E+00
  4.00000000E+01  8.80000000E+01  0.00000000E+00
  5.00000000E+01  8.80000000E+01  0.00000000E+00
  6.00000000E+01  8.80000000E+01  0.00000000E+00
  7.00000000E+01  8.80000000E+01  0.00000000E+00
  8.00000000E+01  8.80000000E+01  0.00000000E+00
  9.00000000E+01  8.80000000E+01  0.00000000E+00
  1.00000000E+02  8.80000000E+01  0.00000000E+00
  1.10000000E+02  8.80000000E+01  0.00000000E+00
  1.20000000E+02  8.80000000E+01  0.00000000E+00
  1.30000000E+02  8.80000000E+01  0.00000000E+00
  1.40000000E+02  8.80000000E+01  0.00000000E+00
  1.50000000E+02  8.80000000E+01  0.00000000E+00
  1.60000000E+02  8.80000000E+01  0.00000000E+00
  1.70000000E+02  8.80000000E+01  0.00000000E+00
  1.80000000E+02  8.80000000E+01  0.00000000E+00
  1.90000000E+02  8.80000000E+01  0.00000000E+00
  2.00000000E+02  8.80000000E+01  0.00000000E+00
  2.10000000E+02  8.80000000E+01  0.00000000E+00
  2.20000000E+02  8.80000000E+01  0.00000000E+00
  2.30000000E+02  8.80000000E+01  0.00000000E+00
  2.40000000E+02  8.80000000E+01  0.00000000E+00
  2.50000000E+02  8.80000000E+01  0.00000000E+00
  2.60000000E+02  8.80000000E+01  0.00000000E+00
  2.70000000E+02  8.80000000E+01  0.00000000E+00
  2.80000000E+02  8.80000000E+01  0.00000000E+00
  2.90000000E+02  8.80000000E+01  0.00000000E+00
  3.00000000E+02  8.80000000E+01  0.00000000E+00
  3.10000000E+02  8.80000000E+01  0.00000000E+00
  3.20000000E+02  8.80000000E+01  0.00000000E+00
  3.30000000E+02  8.80000000E+01  0.00000000E+00
  3.40000000E+02  8.80000000E+01  0.00000000E+00
  3.50000000E+02  8.80000000E+01  0.00000000E+00
  3.60000000E+02  8.80000000E+01  0.00000000E+00
  3.70000000E+02  8.80000000E+01  0.00000000E+00
  3.80000000E+02  8.80000000E+01  0.00000000E+00
  3.90000000E+02  8.80000000E+01  0.00000000E+00
  4.00000000E+02  8.80000000E+01  0.00000000E+00
  4.10000000E+02  8.80000000E+01  0.00000000E+00
  4.20000000E+02  8.80000000E+01  0.00000000E+00
  4.30000000E+02  8.80000000E+01  0.00000000E+00
  4.40000000E+02  8.80000000E+01  0.00000000E+00
  4.50000000E+02  8.80000000E+01  0.00000000E+00
  4.60000000E+02  8.80000000E+01  0.00000000E+00
  4.70000000E+02  8.80000000E+01  0.00000000E+00
  4.80000000E+02  8.80000000E+01  0.00000000E+00
  4.90000000E+02  8.80000000E+01  0.00000000E+00
  5.00000000E+02  8.80000000E+01  0.00000000E+00
  5.10000000E+02  8.80000000E+01  0.00000000E+00
  5.20000000E+02  8.80000000E+01  0.00000000E+00
  5.30000000E+02  8.80000000E+01  0.00000000E+00
  5.40000000E+02  8.80000000E+01  0.00000000E+00
  5.50000000E+02  8.80000000E+01  0.00000000E+00
  5.60000000E+02  8.80000000E+01  0.00000000E+00
  5.70000000E+02  8.80000000E+01  0.00000000E+00
  5.80000000E+02  8.80000000E+01  0.00000000E+00
  5.90000000E+02  8.80000000E+01  0.00000000E+00
  6.00000000E+02  8.80000000E+01  0.00000000E+00
  6.10000000E+02  8.80000000E+01  0.00000000E+00
  6.20000000E+02  8.80000000E+01  0.00000000E+00
  6.30000000E+02  8.80000000E+01  0.00000000E+00
  6.40000000E+02  8.80000000E+01  0.00000000E+00
  6.50000000E+02  8.80000000E+01  0.00000000E+00
  6.60000000E+02  8.80000000E+01  0.00000000E+00
  6.70000000E+02  8.80000000E+01  0.00000000E+00
  6.80000000E+02  8.80000000E+01  0.00000000E+00
  6.90000000E+02  8.80000000E+01  0.00000000E+00
  7.00000000E+02  8.80000000E+01  0.00000000E+00
  7.10000000E+02  8.80000000E+01  0.00000000E+00
  7.20000000E+02  8.80000000E+01  0.00000000E+00
  7.30000000E+02  8.80000000E+01  0.00000000E+00
  7.40000000E+02  8.80000000E+01  0.00000000E+00
  7.50000000E+02  8.80000000E+01  0.00000000E+00
  7.60000000E+02  8.80000000E+01  0.00000000E+00
  7.70000000E+02  8.80000000E+01  0.00000000E+00
  7.80000000E+02  8.80000000E+01  0.00000000E+00
  7.90000000E+02  8.80000000E+01  0.00000000E+00
  8.00000000E+02  8.80000000E+01  0.00000000E+00
  8.10000000E+02  8.80000000E+01  0.00000000E+00
  8.20000000E+02  8.80000000E+01  0.00000000E+00
  8.30000000E+02  8.80000000E+01  0.00000000E+00
  8.40000000E+02  8.80000000E+01  0.00000000E+00
  8.50000000E+02  8.80000000E+01  0.00000000E+00
  8.60000000E+02  8.80000000E+01  0.00000000E+00
  8.70000000E+02  8.80000000E+01  0.00000000E+00
  8.80000000E+02  8.80000000E+01  0.00000000E+00
  8.90000000E+02  8.80000000E+01  0.00000000E+00
  9.00000000E+02  8.80000000E+01  0.00000000E+00
  9.10000000E+02  8.80000000E+01  0.00000000E+00
  9.20000000E+02  8.80000000E+01  0.00000000E+00
  9.30000000E+02  8.80000000E+01  0.00000000E+00
  9.40000000E+02  8.80000000E+01  0.00000000E+00
  9.50000000E+02  8.80000000E+01  0.00000000E+00
  9.60000000E+02  8.80000000E+01  0.00000000E+00
  9.70000000E+02  8.80000000E+01  0.00000000E+00
  9.80000000E+02  8.80000000E+01  0.00000000E+00
  9.90000000E+02  8.80000000E+01  0.00000000E+00
  1.00000000E+03  8.80000000E+01  0.00000000E+00
  0.00000000E+00  9.00000000E+01  0.00000000E+00
  1.00000000E+01  9.00000000E+01  0.00000000E+00
  2.00000000E+01  9.00000000E+01  0.00000000E+00
  3.00000000E+01  9.00000000E+01  0.00000000E+00
  4.00000000E+01  9.00000000E+01  0.00000000E+00
  5.00000000E+01  9.00000000E+01  0.00000000E+00
  6.00000000E+01  9.00000000E+01  0.00000000E+00
  7.00000000E+01  9.00000000E+01  0.00000000E+00
  8.00000000E+01  9.00000000E+01  0.00000000E+00
  9.00000000E+01  9.00000000E+01  0.00000000E+00
  1.00000000E+02  9.00000000E+01  0.00000000E+00
  1.10000000E+02  9.00000000E+01  0.00000000E+00
  1.20000000E+02  9.00000000E+01  0.00000000E+00
  1.30000000E+02  9.00000000E+01  0.00000000E+00
  1.40000000E+02  9.00000000E+01  0.00000000E+00
  1.50000000E+02  9.00000000E+01  0.00000000E+00
  1.60000000E+02  9.00000000E+01  0.00000000E+00
  1.70000000E+02  9.00000000E+01  0.00000000E+00
  1.80000000E+02  9.00000000E+01  0.00000000E+00
  1.90000000E+02  9.00000000E+01  0.00000000E+00
  2.00000000E+02  9.00000000E+01  0.00000000E+00
  2.10000000E+02  9.00000000E+01  0.00000000E+00
  2.20000000E+02  9.00000000E+01  0.00000000E+00
  2.30000000E+02  9.00000000E+01  0.00000000E+00
  2.40000000E+02  9.00000000E+01  0.00000000E+00
  2.50000000E+02  9.00000000E+01  0.00000000E+00
  2.60000000E+02  9.00000000E+01  0.00000000E+00
  2.70000000E+02  9.00000000E+01  0.00000000E+00
  2.80000000E+02  9.00000000E+01  0.00000000E+00
  2.90000000E+02  9.00000000E+01  0.00000000E+00
  3.00000000E+02  9.00000000E+01  0.00000000E+00
  3.10000000E+02  9.00000000E+01  0.00000000E+00
  3.20000000E+02  9.00000000E+01  0.00000000E+00
  3.30000000E+02  9.00000000E+01  0.00000000E+00
  3.40000000E+02  9.00000000E+01  0.00000000E+00
  3.50000000E+02  9.00000000E+01  0.00000000E+00
  3.60000000E+02  9.00000000E+01  0.00000000E+00
  3.70000000E+02  9.00000000E+01  0.00000000E+00
  3.80000000E+02  9.00000000E+01  0.00000000E+00
  3.90000000E+02  9.00000000E+01  0.00000000E+00
  4.00000000E+02  9.00000000E+01  0.00000000E+00
  4.10000000E+02  9.00000000E+01  0.00000000E+00
  4.20000000E+02  9.00000000E+01  0.00000000E+00
  4.30000000E+02  9.00000000E+01  0.00000000E+00
  4.40000000E+02  9.00000000E+01  0.00000000E+00
  4.50000000E+02  9.00000000E+01  0.00000000E+00
  4.60000000E+02  9.00000000E+01  0.00000000E+00
  4.70000000E+02  9.00000000E+01  0.00000000E+00
  4.80000000E+02  9.00000000E+01  0.00000000E+00
  4.90000000E+02  9.00000000E+01  0.00000000E+00
  5.00000000E+02  9.00000000E+01  0.00000000E+00
  5.10000000E+02  9.00000000E+01  0.00000000E+00
  5.20000000E+02  9.00000000E+01  0.00000000E+00
  5.30000000E+02  9.00000000E+01  0.00000000E+00
  5.40000000E+02  9.00000000E+01  0.00000000E+00
  5.50000000E+02  9.00000000E+01  0.00000000E+00
  5.60000000E+02  9.00000000E+01  0.00000000E+00
  5.70000000E+02  9.00000000E+01  0.00000000E+00
  5.80000000E+02  9.00000000E+01  0.00000000E+00
  5.90000000E+02  9.00000000E+01  0.00000000E+00
  6.00000000E+02  9.00000000E+01  0.00000000E+00
  6.10000000E+02  9.00000000E+01  0.00000000E+00
  6.20000000E+02  9.00000000E+01  0.00000000E+00
  6.30000000E+02  9.00000000E+01  0.00000000E+00
  6.40000000E+02  9.00000000E+01  0.00000000E+00
  6.50000000E+02  9.00000000E+01  0.00000000E+00
  6.60000000E+02  9.00000000E+01  0.00000000E+00
  6.70000000E+02  9.00000000E+01  0.00000000E+00
  6.80000000E+02  9.00000000E+01  0.00000000E+00
  6.90000000E+02  9.00000000E+01  0.00000000E+00
  7.00000000E+02  9.00000000E+01  0.00000000E+00
  7.10000000E+02  9.00000000E+01  0.00000000E+00
  7.20000000E+02  9.00000000E+01  0.00000000E+00
  7.30000000E+02  9.00000000E+01  0.00000000E+00
  7.40000000E+02  9.00000000E+01  0.00000000E+00
  7.50000000E+02  9.00000000E+01  0.00000000E+00
  7.60000000E+02  9.00000000E+01  0.00000000E+00
  7.70000000E+02  9.00000000E+01  0.00000000E+00
  7.80000000E+02  9.00000000E+01  0.00000000E+00
  7.90000000E+02  9.00000000E+01  0.00000000E+00
  8.00000000E+02  9.00000000E+01  0.00000000E+00
  8.10000000E+02  9.00000000E+01  0.00000000E+00
  8.20000000E+02  9.00000000E+01  0.00000000E+00
  8.30000000E+02  9.00000000E+01  0.00000000E+00
  8.40000000E+02  9.00000000E+01  0.00000000E+00
  8.50000000E+02  9.00000000E+01  0.00000000E+00
  8.60000000E+02  9.00000000E+01  0.00000000E+00
  8.70000000E+02  9.00000000E+01  0.00000000E+00
  8.80000000E+02  9.00000000E+01  0.00000000E+00
  8.90000000E+02  9.00000000E+01  0.00000000E+00
  9.00000000E+02  9.00000000E+01  0.00000000E+00
  9.10000000E+02  9.00000000E+01  0.00000000E+00
  9.20000000E+02  9.00000000E+01  0.00000000E+00
  9.30000000E+02  9.00000000E+01  0.00000000E+00
  9.40000000E+02  9.00000000E+01  0.00000000E+00
  9.50000000E+02  9.00000000E+01  0.00000000E+00
  9.60000000E+02  9.00000000E+01  0.00000000E+00
  9.70000000E+02  9.00000000E+01  0.00000000E+00
  9.80000000E+02  9.00000000E+01  0.00000000E+00
  9.90000000E+02  9.00000000E+01  0.00000000E+00
  1.00000000E+03  9.00000000E+01  0.00000000E+00
  0.00000000E+00  9.20000000E+01  0.00000000E+00
  1.00000000E+01  9.20000000E+01  0.00000000E+00
  2.00000000E+01  9.20000000E+01  0.00000000E+00
  3.00000000E+01  9.20000000E+01  0.00000000E+00
  4.00000000E+01  9.20000000E+01  0.00000000E+00
  5.00000000E+01  9.20000000E+01  0.00000000E+00
  6.00000000E+01  9.20000000E+01  0.00000000E+00
  7.00000000E+01  9.20000000E+01  0.00000000E+00
  8.00000000E+01  9.20000000E+01  0.00000000E+00
  9.00000000E+01  9.20000000E+01  0.00000000E+00
  1.00000000E+02  9.20000000E+01  0.00000000E+00
  1.10000000E+02  9.20000000E+01  0.00000000E+00
  1.20000000E+02  9.20000000E+01  0.00000000E+00
  1.30000000E+02  9.20000000E+01  0.00000000E+00
  1.40000000E+02  9.20000000E+01  0.00000000E+00
  1.50000000E+02  9.20000000E+01  0.00000000E+00
  1.60000000E+02  9.20000000E+01  0.00000000E+00
  1.70000000E+02  9.20000000E+01  0.00000000E+00
  1.80000000E+02  9.20000000E+01  0.00000000E+00
  1.90000000E+02  9.20000000E+01  0.00000000E+00
  2.00000000E+02  9.20000000E+01  0.00000000E+00
  2.10000000E+02  9.20000000E+01  0.00000000E+00
  2.20000000E+02  9.20000000E+01  0.00000000E+00
  2.30000000E+02  9.20000000E+01  0.00000000E+00
  2.40000000E+02  9.20000000E+01  0.00000000E+00
  2.50000000E+02  9.20000000E+01  0.00000000E+00
  2.60000000E+02  9.20000000E+01  0.00000000E+00
  2.70000000E+02  9.20000000E+01  0.00000000E+00
  2.80000000E+02  9.20000000E+01  0.00000000E+00
  2.90000000E+02  9.20000000E+01  0.00000000E+00
  3.00000000E+02  9.20000000E+01  0.00000000E+00
  3.10000000E+02  9.20000000E+01  0.00000000E+00
  3.20000000E+02  9.20000000E+01  0.00000000E+00
  3.30000000E+02  9.20000000E+01  0.00000000E+00
  3.40000000E+02  9.20000000E+01  0.00000000E+00
  3.50000000E+02  9.20000000E+01  0.00000000E+00
  3.60000000E+02  9.20000000E+01  0.00000000E+00
  3.70000000E+02  9.20000000E+01  0.00000000E+00
  3.80000000E+02  9.20000000E+01  0.00000000E+00
  3.90000000E+02  9.20000000E+01  0.00000000E+00
  4.00000000E+02  9.20000000E+01  0.00000000E+00
  4.10000000E+02  9.20000000E+01  0.00000000E+00
  4.20000000E+02  9.20000000E+01  0.00000000E+00
  4.30000000E+02  9.20000000E+01  0.00000000E+00
  4.40000000E+02  9.20000000E+01  0.00000000E+00
  4.50000000E+02  9.20000000E+01  0.00000000E+00
  4.60000000E+02  9.20000000E+01  0.00000000E+00
  4.70000000E+02  9.20000000E+01  0.00000000E+00
  4.80000000E+02  9.20000000E+01  0.00000000E+00
  4.90000000E+02  9.20000000E+01  0.00000000E+00
  5.00000000E+02  9.20000000E+01  0.00000000E+00
  5.10000000E+02  9.20000000E+01  0.00000000E+00
  5.20000000E+02  9.20000000E+01  0.00000000E+00
  5.30000000E+02  9.20000000E+01  0.00000000E+00
  5.40000000E+02  9.20000000E+01  0.00000000E+00
  5.50000000E+02  9.20000000E+01  0.00000000E+00
  5.60000000E+02  9.20000000E+01  0.00000000E+00
  5.70000000E+02  9.20000000E+01  0.00000000E+00
  5.80000000E+02  9.20000000E+01  0.00000000E+00
  5.90000000E+02  9.20000000E+01  0.00000000E+00
  6.00000000E+02  9.20000000E+01  0.00000000E+00
  6.10000000E+02  9.20000000E+01  0.00000000E+00
  6.20000000E+02  9.20000000E+01  0.00000000E+00
  6.30000000E+02  9.20000000E+01  0.00000000E+00
  6.40000000E+02  9.20000000E+01  0.00000000E+00
  6.50000000E+02  9.20000000E+01  0.00000000E+00
  6.60000000E+02  9.20000000E+01  0.00000000E+00
  6.70000000E+02  9.20000000E+01  0.00000000E+00
  6.80000000E+02  9.20000000E+01  0.00000000E+00
  6.90000000E+02  9.20000000E+01  0.00000000E+00
  7.00000000E+02  9.20000000E+01  0.00000000E+00
  7.10000000E+02  9.20000000E+01  0.00000000E+00
  7.20000000E+02  9.20000000E+01  0.00000000E+00
  7.30000000E+02  9.20000000E+01  0.00000000E+00
  7.40000000E+02  9.20000000E+01  0.00000000E+00
  7.50000000E+02  9.20000000E+01  0.00000000E+00
  7.60000000E+02  9.20000000E+01  0.00000000E+00
  7.70000000E+02  9.20000000E+01  0.00000000E+00
  7.80000000E+02  9.20000000E+01  0.00000000E+00
  7.90000000E+02  9.20000000E+01  0.00000000E+00
  8.00000000E+02  9.20000000E+01  0.00000000E+00
  8.10000000E+02  9.20000000E+01  0.00000000E+00
  8.20000000E+02  9.20000000E+01  0.00000000E+00
  8.30000000E+02  9.20000000E+01  0.00000000E+00
  8.40000000E+02  9.20000000E+01  0.00000000E+00
  8.50000000E+02  9.20000000E+01  0.00000000E+00
  8.60000000E+02  9.20000000E+01  0.00000000E+00
  8.70000000E+02  9.20000000E+01  0.00000000E+00
  8.80000000E+02  9.20000000E+01  0.00000000E+00
  8.90000000E+02  9.20000000E+01  0.00000000E+00
  9.00000000E+02  9.20000000E+01  0.00000000E+00
  9.10000000E+02  9.20000000E+01  0.00000000E+00
  9.20000000E+02  9.20000000E+01  0.00000000E+00
  9.30000000E+02  9.20000000E+01  0.00000000E+00
  9.40000000E+02  9.20000000E+01  0.00000000E+00
  9.50000000E+02  9.20000000E+01  0.00000000E+00
  9.60000000E+02  9.20000000E+01  0.00000000E+00
  9.70000000E+02  9.20000000E+01  0.00000000E+00
  9.80000000E+02  9.20000000E+01  0.00000000E+00
  9.90000000E+02  9.20000000E+01  0.00000000E+00
  1.00000000E+03  9.20000000E+01  0.00000000E+00
  0.00000000E+00  9.40000000E+01  0.00000000E+00
  1.00000000E+01  9.40000000E+01  0.00000000E+00
  2.00000000E+01  9.40000000E+01  0.00000000E+00
  3.00000000E+01  9.40000000E+01  0.00000000E+00
  4.00000000E+01  9.40000000E+01  0.00000000E+00
  5.00000000E+01  9.40000000E+01  0.00000000E+00
  6.00000000E+01  9.40000000E+01  0.00000000E+00
  7.00000000E+01  9.40000000E+01  0.00000000E+00
  8.00000000E+01  9.40000000E+01  0.00000000E+00
  9.00000000E+01  9.40000000E+01  0.00000000E+00
  1.00000000E+02  9.40000000E+01  0.00000000E+00
  1.10000000E+02  9.40000000E+01  0.00000000E+00
  1.20000000E+02  9.40000000E+01  0.00000000E+00
  1.30000000E+02  9.40000000E+01  0.00000000E+00
  1.40000000E+02  9.40000000E+01  0.00000000E+00
  1.50000000E+02  9.40000000E+01  0.00000000E+00
  1.60000000E+02  9.40000000E+01  0.00000000E+00
  1.70000000E+02  9.40000000E+01  0.00000000E+00
  1.80000000E+02  9.40000000E+01  0.00000000E+00
  1.90000000E+02  9.40000000E+01  0.00000000E+00
  2.00000000E+02  9.40000000E+01  0.00000000E+00
  2.10000000E+02  9.40000000E+01  0.00000000E+00
  2.20000000E+02  9.40000000E+01  0.00000000E+00
  2.30000000E+02  9.40000000E+01  0.00000000E+00
  2.40000000E+02  9.40000000E+01  0.00000000E+00
  2.50000000E+02  9.40000000E+01  0.00000000E+00
  2.60000000E+02  9.40000000E+01  0.00000000E+00
  2.70000000E+02  9.40000000E+01  0.00000000E+00
  2.80000000E+02  9.40000000E+01  0.00000000E+00
  2.90000000E+02  9.40000000E+01  0.00000000E+00
  3.00000000E+02  9.40000000E+01  0.00000000E+00
  3.10000000E+02  9.40000000E+01  0.00000000E+00
  3.20000000E+02  9.40000000E+01  0.00000000E+00
  3.30000000E+02  9.40000000E+01  0.00000000E+00
  3.40000000E+02  9.40000000E+01  0.00000000E+00
  3.50000000E+02  9.40000000E+01  0.00000000E+00
  3.60000000E+02  9.40000000E+01  0.00000000E+00
  3.70000000E+02  9.40000000E+01  0.00000000E+00
  3.80000000E+02  9.40000000E+01  0.00000000E+00
  3.90000000E+02  9.40000000E+01  0.00000000E+00
  4.00000000E+02  9.40000000E+01  0.00000000E+00
  4.10000000E+02  9.40000000E+01  0.00000000E+00
  4.20000000E+02  9.40000000E+01  0.00000000E+00
  4.30000000E+02  9.40000000E+01  0.00000000E+00
  4.40000000E+02  9.40000000E+01  0.00000000E+00
  4.50000000E+02  9.40000000E+01  0.00000000E+00
  4.60000000E+02  9.40000000E+01  0.00000000E+00
  4.70000000E+02  9.40000000E+01  0.00000000E+00
  4.80000000E+02  9.40000000E+01  0.00000000E+00
  4.90000000E+02  9.40000000E+01  0.00000000E+00
  5.00000000E+02  9.40000000E+01  0.00000000E+00
  5.10000000E+02  9.40000000E+01  0.00000000E+00
  5.20000000E+02  9.40000000E+01  0.00000000E+00
  5.30000000E+02  9.40000000E+01  0.00000000E+00
  5.40000000E+02  9.40000000E+01  0.00000000E+00
  5.50000000E+02  9.40000000E+01  0.00000000E+00
  5.60000000E+02  9.40000000E+01  0.00000000E+00
  5.70000000E+02  9.40000000E+01  0.00000000E+00
  5.80000000E+02  9.40000000E+01  0.00000000E+00
  5.90000000E+02  9.40000000E+01  0.00000000E+00
  6.00000000E+02  9.40000000E+01  0.00000000E+00
  6.10000000E+02  9.40000000E+01  0.00000000E+00
  6.20000000E+02  9.40000000E+01  0.00000000E+00
  6.30000000E+02  9.40000000E+01  0.00000000E+00
  6.40000000E+02  9.40000000E+01  0.00000000E+00
  6.50000000E+02  9.40000000E+01  0.00000000E+00
  6.60000000E+02  9.40000000E+01  0.00000000E+00
  6.70000000E+02  9.40000000E+01  0.00000000E+00
  6.80000000E+02  9.40000000E+01  0.00000000E+00
  6.90000000E+02  9.40000000E+01  0.00000000E+00
  7.00000000E+02  9.40000000E+01  0.00000000E+00
  7.10000000E+02  9.40000000E+01  0.00000000E+00
  7.20000000E+02  9.40000000E+01  0.00000000E+00
  7.30000000E+02  9.40000000E+01  0.00000000E+00
  7.40000000E+02  9.40000000E+01  0.00000000E+00
  7.50000000E+02  9.40000000E+01  0.00000000E+00
  7.60000000E+02  9.40000000E+01  0.00000000E+00
  7.70000000E+02  9.40000000E+01  0.00000000E+00
  7.80000000E+02  9.40000000E+01  0.00000000E+00
  7.90000000E+02  9.40000000E+01  0.00000000E+00
  8.00000000E+02  9.40000000E+01  0.00000000E+00
  8.10000000E+02  9.40000000E+01  0.00000000E+00
  8.20000000E+02  9.40000000E+01  0.00000000E+00
  8.30000000E+02  9.40000000E+01  0.00000000E+00
  8.40000000E+02  9.40000000E+01  0.00000000E+00
  8.50000000E+02  9.40000000E+01  0.00000000E+00
  8.60000000E+02  9.40000000E+01  0.00000000E+00
  8.70000000E+02  9.40000000E+01  0.00000000E+00
  8.80000000E+02  9.40000000E+01  0.00000000E+00
  8.90000000E+02  9.40000000E+01  0.00000000E+00
  9.00000000E+02  9.40000000E+01  0.00000000E+00
  9.10000000E+02  9.40000000E+01  0.00000000E+00
  9.20000000E+02  9.40000000E+01  0.00000000E+00
  9.30000000E+02  9.40000000E+01  0.00000000E+00
  9.40000000E+02  9.40000000E+01  0.00000000E+00
  9.50000000E+02  9.40000000E+01  0.00000000E+00
  9.60000000E+02  9.40000000E+01  0.00000000E+00
  9.70000000E+02  9.40000000E+01  0.00000000E+00
  9.80000000E+02  9.40000000E+01  0.00000000E+00
  9.90000000E+02  9.40000000E+01  0.00000000E+00
  1.00000000E+03  9.40000000E+01  0.00000000E+00
  0.00000000E+00  9.60000000E+01  0.00000000E+00
  1.00000000E+01  9.60000000E+01  0.00000000E+00
  2.00000000E+01  9.60000000E+01  0.00000000E+00
  3.00000000E+01  9.60000000E+01  0.00000000E+00
  4.00000000E+01  9.60000000E+01  0.00000000E+00
  5.00000000E+01  9.60000000E+01  0.00000000E+00
  6.00000000E+01  9.60000000E+01  0.00000000E+00
  7.00000000E+01  9.60000000E+01  0.00000000E+00
  8.00000000E+01  9.60000000E+01  0.00000000E+00
  9.00000000E+01  9.60000000E+01  0.00000000E+00
  1.00000000E+02  9.60000000E+01  0.00000000E+00
  1.10000000E+02  9.60000000E+01  0.00000000E+00
  1.20000000E+02  9.60000000E+01  0.00000000E+00
  1.30000000E+02  9.60000000E+01  0.00000000E+00
  1.40000000E+02  9.60000000E+01  0.00000000E+00
  1.50000000E+02  9.60000000E+01  0.00000000E+00
  1.60000000E+02  9.60000000E+01  0.00000000E+00
  1.70000000E+02  9.60000000E+01  0.00000000E+00
  1.80000000E+02  9.60000000E+01  0.00000000E+00
  1.90000000E+02  9.60000000E+01  0.00000000E+00
  2.00000000E+02  9.60000000E+01  0.00000000E+00
  2.10000000E+02  9.60000000E+01  0.00000000E+00
  2.20000000E+02  9.60000000E+01  0.00000000E+00
  2.30000000E+02  9.60000000E+01  0.00000000E+00
  2.40000000E+02  9.60000000E+01  0.00000000E+00
  2.50000000E+02  9.60000000E+01  0.00000000E+00
  2.60000000E+02  9.60000000E+01  0.00000000E+00
  2.70000000E+02  9.60000000E+01  0.00000000E+00
  2.80000000E+02  9.60000000E+01  0.00000000E+00
  2.90000000E+02  9.60000000E+01  0.00000000E+00
  3.00000000E+02  9.60000000E+01  0.00000000E+00
  3.10000000E+02  9.60000000E+01  0.00000000E+00
  3.20000000E+02  9.60000000E+01  0.00000000E+00
  3.30000000E+02  9.60000000E+01  0.00000000E+00
  3.40000000E+02  9.60000000E+01  0.00000000E+00
  3.50000000E+02  9.60000000E+01  0.00000000E+00
  3.60000000E+02  9.60000000E+01  0.00000000E+00
  3.70000000E+02  9.60000000E+01  0.00000000E+00
  3.80000000E+02  9.60000000E+01  0.00000000E+00
  3.90000000E+02  9.60000000E+01  0.00000000E+00
  4.00000000E+02  9.60000000E+01  0.00000000E+00
  4.10000000E+02  9.60000000E+01  0.00000000E+00
  4.20000000E+02  9.60000000E+01  0.00000000E+00
  4.30000000E+02  9.60000000E+01  0.00000000E+00
  4.40000000E+02  9.60000000E+01  0.00000000E+00
  4.50000000E+02  9.60000000E+01  0.00000000E+00
  4.60000000E+02  9.60000000E+01  0.00000000E+00
  4.70000000E+02  9.60000000E+01  0.00000000E+00
  4.80000000E+02  9.60000000E+01  0.00000000E+00
  4.90000000E+02  9.60000000E+01  0.00000000E+00
  5.00000000E+02  9.60000000E+01  0.00000000E+00
  5.10000000E+02  9.60000000E+01  0.00000000E+00
  5.20000000E+02  9.60000000E+01  0.00000000E+00
  5.30000000E+02  9.60000000E+01  0.00000000E+00
  5.40000000E+02  9.60000000E+01  0.00000000E+00
  5.50000000E+02  9.60000000E+01  0.00000000E+00
  5.60000000E+02  9.60000000E+01  0.00000000E+00
  5.70000000E+02  9.60000000E+01  0.00000000E+00
  5.80000000E+02  9.60000000E+01  0.00000000E+00
  5.90000000E+02  9.60000000E+01  0.00000000E+00
  6.00000000E+02  9.60000000E+01  0.00000000E+00
  6.10000000E+02  9.60000000E+01  0.00000000E+00
  6.20000000E+02  9.60000000E+01  0.00000000E+00
  6.30000000E+02  9.60000000E+01  0.00000000E+00
  6.40000000E+02  9.60000000E+01  0.00000000E+00
  6.50000000E+02  9.60000000E+01  0.00000000E+00
  6.60000000E+02  9.60000000E+01  0.00000000E+00
  6.70000000E+02  9.60000000E+01  0.00000000E+00
  6.80000000E+02  9.60000000E+01  0.00000000E+00
  6.90000000E+02  9.60000000E+01  0.00000000E+00
  7.00000000E+02  9.60000000E+01  0.00000000E+00
  7.10000000E+02  9.60000000E+01  0.00000000E+00
  7.20000000E+02  9.60000000E+01  0.00000000E+00
  7.30000000E+02  9.60000000E+01  0.00000000E+00
  7.40000000E+02  9.60000000E+01  0.00000000E+00
  7.50000000E+02  9.60000000E+01  0.00000000E+00
  7.60000000E+02  9.60000000E+01  0.00000000E+00
  7.70000000E+02  9.60000000E+01  0.00000000E+00
  7.80000000E+02  9.60000000E+01  0.00000000E+00
  7.90000000E+02  9.60000000E+01  0.00000000E+00
  8.00000000E+02  9.60000000E+01  0.00000000E+00
  8.10000000E+02  9.60000000E+01  0.00000000E+00
  8.20000000E+02  9.60000000E+01  0.00000000E+00
  8.30000000E+02  9.60000000E+01  0.00000000E+00
  8.40000000E+02  9.60000000E+01  0.00000000E+00
  8.50000000E+02  9.60000000E+01  0.00000000E+00
  8.60000000E+02  9.60000000E+01  0.00000000E+00
  8.70000000E+02  9.60000000E+01  0.00000000E+00
  8.80000000E+02  9.60000000E+01  0.00000000E+00
  8.90000000E+02  9.60000000E+01  0.00000000E+00
  9.00000000E+02  9.60000000E+01  0.00000000E+00
  9.10000000E+02  9.60000000E+01  0.00000000E+00
  9.20000000E+02  9.60000000E+01  0.00000000E+00
  9.30000000E+02  9.60000000E+01  0.00000000E+00
  9.40000000E+02  9.60000000E+01  0.00000000E+00
  9.50000000E+02  9.60000000E+01  0.00000000E+00
  9.60000000E+02  9.60000000E+01  0.00000000E+00
  9.70000000E+02  9.60000000E+01  0.00000000E+00
  9.80000000E+02  9.60000000E+01  0.00000000E+00
  9.90000000E+02  9.60000000E+01  0.00000000E+00
  1.00000000E+03  9.60000000E+01  0.00000000E+00
  0.00000000E+00  9.80000000E+01  0.00000000E+00
  1.00000000E+01  9.80000000E+01  0.00000000E+00
  2.00000000E+01  9.80000000E+01  0.00000000E+00
  3.00000000E+01  9.80000000E+01  0.00000000E+00
  4.00000000E+01  9.80000000E+01  0.00000000E+00
  5.00000000E+01  9.80000000E+01  0.00000000E+00
  6.00000000E+01  9.80000000E+01  0.00000000E+00
  7.00000000E+01  9.80000000E+01  0.00000000E+00
  8.00000000E+01  9.80000000E+01  0.00000000E+00
  9.00000000E+01  9.80000000E+01  0.00000000E+00
  1.00000000E+02  9.80000000E+01  0.00000000E+00
  1.10000000E+02  9.80000000E+01  0.00000000E+00
  1.20000000E+02  9.80000000E+01  0.00000000E+00
  1.30000000E+02  9.80000000E+01  0.00000000E+00
  1.40000000E+02  9.80000000E+01  0.00000000E+00
  1.50000000E+02  9.80000000E+01  0.00000000E+00
  1.60000000E+02  9.80000000E+01  0.00000000E+00
  1.70000000E+02  9.80000000E+01  0.00000000E+00
  1.80000000E+02  9.80000000E+01  0.00000000E+00
  1.90000000E+02  9.80000000E+01  0.00000000E+00
  2.00000000E+02  9.80000000E+01  0.00000000E+00
  2.10000000E+02  9.80000000E+01  0.00000000E+00
  2.20000000E+02  9.80000000E+01  0.00000000E+00
  2.30000000E+02  9.80000000E+01  0.00000000E+00
  2.40000000E+02  9.80000000E+01  0.00000000E+00
  2.50000000E+02  9.80000000E+01  0.00000000E+00
  2.60000000E+02  9.80000000E+01  0.00000000E+00
  2.70000000E+02  9.80000000E+01  0.00000000E+00
  2.80000000E+02  9.80000000E+01  0.00000000E+00
  2.90000000E+02  9.80000000E+01  0.00000000E+00
  3.00000000E+02  9.80000000E+01  0.00000000E+00
  3.10000000E+02  9.80000000E+01  0.00000000E+00
  3.20000000E+02  9.80000000E+01  0.00000000E+00
  3.30000000E+02  9.80000000E+01  0.00000000E+00
  3.40000000E+02  9.80000000E+01  0.00000000E+00
  3.50000000E+02  9.80000000E+01  0.00000000E+00
  3.60000000E+02  9.80000000E+01  0.00000000E+00
  3.70000000E+02  9.80000000E+01  0.00000000E+00
  3.80000000E+02  9.80000000E+01  0.00000000E+00
  3.90000000E+02  9.80000000E+01  0.00000000E+00
  4.00000000E+02  9.80000000E+01  0.00000000E+00
  4.10000000E+02  9.80000000E+01  0.00000000E+00
  4.20000000E+02  9.80000000E+01  0.00000000E+00
  4.30000000E+02  9.80000000E+01  0.00000000E+00
  4.40000000E+02  9.80000000E+01  0.00000000E+00
  4.50000000E+02  9.80000000E+01  0.00000000E+00
  4.60000000E+02  9.80000000E+01  0.00000000E+00
  4.70000000E+02  9.80000000E+01  0.00000000E+00
  4.80000000E+02  9.80000000E+01  0.00000000E+00
  4.90000000E+02  9.80000000E+01  0.00000000E+00
  5.00000000E+02  9.80000000E+01  0.00000000E+00
  5.10000000E+02  9.80000000E+01  0.00000000E+00
  5.20000000E+02  9.80000000E+01  0.00000000E+00
  5.30000000E+02  9.80000000E+01  0.00000000E+00
  5.40000000E+02  9.80000000E+01  0.00000000E+00
  5.50000000E+02  9.80000000E+01  0.00000000E+00
  5.60000000E+02  9.80000000E+01  0.00000000E+00
  5.70000000E+02  9.80000000E+01  0.00000000E+00
  5.80000000E+02  9.80000000E+01  0.00000000E+00
  5.90000000E+02  9.80000000E+01  0.00000000E+00
  6.00000000E+02  9.80000000E+01  0.00000000E+00
  6.10000000E+02  9.80000000E+01  0.00000000E+00
  6.20000000E+02  9.80000000E+01  0.00000000E+00
  6.30000000E+02  9.80000000E+01  0.00000000E+00
  6.40000000E+02  9.80000000E+01  0.00000000E+00
  6.50000000E+02  9.80000000E+01  0.00000000E+00
  6.60000000E+02  9.80000000E+01  0.00000000E+00
  6.70000000E+02  9.80000000E+01  0.00000000E+00
  6.80000000E+02  9.80000000E+01  0.00000000E+00
  6.90000000E+02  9.80000000E+01  0.00000000E+00
  7.00000000E+02  9.80000000E+01  0.00000000E+00
  7.10000000E+02  9.80000000E+01  0.00000000E+00
  7.20000000E+02  9.80000000E+01  0.00000000E+00
  7.30000000E+02  9.80000000E+01  0.00000000E+00
  7.40000000E+02  9.80000000E+01  0.00000000E+00
  7.50000000E+02  9.80000000E+01  0.00000000E+00
  7.60000000E+02  9.80000000E+01  0.00000000E+00
  7.70000000E+02  9.80000000E+01  0.00000000E+00
  7.80000000E+02  9.80000000E+01  0.00000000E+00
  7.90000000E+02  9.80000000E+01  0.00000000E+00
  8.00000000E+02  9.80000000E+01  0.00000000E+00
  8.10000000E+02  9.80000000E+01  0.00000000E+00
  8.20000000E+02  9.80000000E+01  0.00000000E+00
  8.30000000E+02  9.80000000E+01  0.00000000E+00
  8.40000000E+02  9.80000000E+01  0.00000000E+00
  8.50000000E+02  9.80000000E+01  0.00000000E+00
  8.60000000E+02  9.80000000E+01  0.00000000E+00
  8.70000000E+02  9.80000000E+01  0.00000000E+00
  8.80000000E+02  9.80000000E+01  0.00000000E+00
  8.90000000E+02  9.80000000E+01  0.00000000E+00
  9.00000000E+02  9.80000000E+01  0.00000000E+00
  9.10000000E+02  9.80000000E+01  0.00000000E+00
  9.20000000E+02  9.80000000E+01  0.00000000E+00
  9.30000000E+02  9.80000000E+01  0.00000000E+00
  9.40000000E+02  9.80000000E+01  0.00000000E+00
  9.50000000E+02  9.80000000E+01  0.00000000E+00
  9.60000000E+02  9.80000000E+01  0.00000000E+00
  9.70000000E+02  9.80000000E+01  0.00000000E+00
  9.80000000E+02  9.80000000E+01  0.00000000E+00
  9.90000000E+02  9.80000000E+01  0.00000000E+00
  1.00000000E+03  9.80000000E+01  0.00000000E+00
  0.00000000E+00  1.00000000E+02  0.00000000E+00
  1.00000000E+01  1.00000000E+02  0.00000000E+00
  2.00000000E+01  1.00000000E+02  0.00000000E+00
  3.00000000E+01  1.00000000E+02  0.00000000E+00
  4.00000000E+01  1.00000000E+02  0.00000000E+00
  5.00000000E+01  1.00000000E+02  0.00000000E+00
  6.00000000E+01  1.00000000E+02  0.00000000E+00
  7.00000000E+01  1.00000000E+02  0.00000000E+00
  8.00000000E+01  1.00000000E+02  0.00000000E+00
  9.00000000E+01  1.00000000E+02  0.00000000E+00
  1.00000000E+02  1.00000000E+02  0.00000000E+00
  1.10000000E+02  1.00000000E+02  0.00000000E+00
  1.20000000E+02  1.00000000E+02  0.00000000E+00
  1.30000000E+02  1.00000000E+02  0.00000000E+00
  1.40000000E+02  1.00000000E+02  0.00000000E+00
  1.50000000E+02  1.00000000E+02  0.00000000E+00
  1.60000000E+02  1.00000000E+02  0.00000000E+00
  1.70000000E+02  1.00000000E+02  0.00000000E+00
  1.80000000E+02  1.00000000E+02  0.00000000E+00
  1.90000000E+02  1.00000000E+02  0.00000000E+00
  2.00000000E+02  1.00000000E+02  0.00000000E+00
  2.10000000E+02  1.00000000E+02  0.00000000E+00
  2.20000000E+02  1.00000000E+02  0.00000000E+00
  2.30000000E+02  1.00000000E+02  0.00000000E+00
  2.40000000E+02  1.00000000E+02  0.00000000E+00
  2.50000000E+02  1.00000000E+02  0.00000000E+00
  2.60000000E+02  1.00000000E+02  0.00000000E+00
  2.70000000E+02  1.00000000E+02  0.00000000E+00
  2.80000000E+02  1.00000000E+02  0.00000000E+00
  2.90000000E+02  1.00000000E+02  0.00000000E+00
  3.00000000E+02  1.00000000E+02  0.00000000E+00
  3.10000000E+02  1.00000000E+02  0.00000000E+00
  3.20000000E+02  1.00000000E+02  0.00000000E+00
  3.30000000E+02  1.00000000E+02  0.00000000E+00
  3.40000000E+02  1.00000000E+02  0.00000000E+00
  3.50000000E+02  1.00000000E+02  0.00000000E+00
  3.60000000E+02  1.00000000E+02  0.00000000E+00
  3.70000000E+02  1.00000000E+02  0.00000000E+00
  3.80000000E+02  1.00000000E+02  0.00000000E+00
  3.90000000E+02  1.00000000E+02  0.00000000E+00
  4.00000000E+02  1.00000000E+02  0.00000000E+00
  4.10000000E+02  1.00000000E+02  0.00000000E+00
  4.20000000E+02  1.00000000E+02  0.00000000E+00
  4.30000000E+02  1.00000000E+02  0.00000000E+00
  4.40000000E+02  1.00000000E+02  0.00000000E+00
  4.50000000E+02  1.00000000E+02  0.00000000E+00
  4.60000000E+02  1.00000000E+02  0.00000000E+00
  4.70000000E+02  1.00000000E+02  0.00000000E+00
  4.80000000E+02  1.00000000E+02  0.00000000E+00
  4.90000000E+02  1.00000000E+02  0.00000000E+00
  5.00000000E+02  1.00000000E+02  0.00000000E+00
  5.10000000E+02  1.00000000E+02  0.00000000E+00
  5.20000000E+02  1.00000000E+02  0.00000000E+00
  5.30000000E+02  1.00000000E+02  0.00000000E+00
  5.40000000E+02  1.00000000E+02  0.00000000E+00
  5.50000000E+02  1.00000000E+02  0.00000000E+00
  5.60000000E+02  1.00000000E+02  0.00000000E+00
  5.70000000E+02  1.00000000E+02  0.00000000E+00
  5.80000000E+02  1.00000000E+02  0.00000000E+00
  5.90000000E+02  1.00000000E+02  0.00000000E+00
  6.00000000E+02  1.00000000E+02  0.00000000E+00
  6.10000000E+02  1.00000000E+02  0.00000000E+00
  6.20000000E+02  1.00000000E+02  0.00000000E+00
  6.30000000E+02  1.00000000E+02  0.00000000E+00
  6.40000000E+02  1.00000000E+02  0.00000000E+00
  6.50000000E+02  1.00000000E+02  0.00000000E+00
  6.60000000E+02  1.00000000E+02  0.00000000E+00
  6.70000000E+02  1.00000000E+02  0.00000000E+00
  6.80000000E+02  1.00000000E+02  0.00000000E+00
  6.90000000E+02  1.00000000E+02  0.00000000E+00
  7.00000000E+02  1.00000000E+02  0.00000000E+00
  7.10000000E+02  1.00000000E+02  0.00000000E+00
  7.20000000E+02  1.00000000E+02  0.00000000E+00
  7.30000000E+02  1.00000000E+02  0.00000000E+00
  7.40000000E+02  1.00000000E+02  0.00000000E+00
  7.50000000E+02  1.00000000E+02  0.00000000E+00
  7.60000000E+02  1.00000000E+02  0.00000000E+00
  7.70000000E+02  1.00000000E+02  0.00000000E+00
  7.80000000E+02  1.00000000E+02  0.00000000E+00
  7.90000000E+02  1.00000000E+02  0.00000000E+00
  8.00000000E+02  1.00000000E+02  0.00000000E+00
  8.10000000E+02  1.00000000E+02  0.00000000E+00
  8.20000000E+02  1.00000000E+02  0.00000000E+00
  8.30000000E+02  1.00000000E+02  0.00000000E+00
  8.40000000E+02  1.00000000E+02  0.00000000E+00
  8.50000000E+02  1.00000000E+02  0.00000000E+00
  8.60000000E+02  1.00000000E+02  0.00000000E+00
  8.70000000E+02  1.00000000E+02  0.00000000E+00
  8.80000000E+02  1.00000000E+02  0.00000000E+00
  8.90000000E+02  1.00000000E+02  0.00000000E+00
  9.00000000E+02  1.00000000E+02  0.00000000E+00
  9.10000000E+02  1.00000000E+02  0.00000000E+00
  9.20000000E+02  1.00000000E+02  0.00000000E+00
  9.30000000E+02  1.00000000E+02  0.00000000E+00
  9.40000000E+02  1.00000000E+02  0.00000000E+00
  9.50000000E+02  1.00000000E+02  0.00000000E+00
  9.60000000E+02  1.00000000E+02  0.00000000E+00
  9.70000000E+02  1.00000000E+02  0.00000000E+00
  9.80000000E+02  1.00000000E+02  0.00000000E+00
  9.90000000E+02  1.00000000E+02  0.00000000E+00
  1.00000000E+03  1.00000000E+02  0.00000000E+00
CELLS      5000     25000
         4           0           1         102         101
         4           1           2         103         102
         4           2           3         104         103
         4           3           4         105         104
         4           4           5         106         105
         4           5           6         107         106
         4           6           7         108         107
         4           7           8         109         108
         4           8           9         110         109
         4           9          10         111         110
         4          10          11         112         111
         4          11          12         113         112
         4          12          13         114         113
         4          13          14         115         114
         4          14          15         116         115
         4          15          16         117         116
         4          16          17         118         117
         4          17          18         119         118
         4          18          19         120         119
         4          19          20         121         120
         4          20          21         122         121
         4          21          22         123         122
         4          22          23         124         123
         4          23          24         125         124
         4          24          25         126         125
         4          25          26         127         126
         4          26          27         128         127
         4          27          28         129         128
         4          28          29         130         129
         4          29          30         131         130
         4          30          31         132         131
         4          31          32         133         132
         4          32          33         134         133
         4          33          34         135         134
         4          34          35         136         135
         4          35          36         137         136
         4          36          37         138         137
         4          37          38         139         138
         4          38          39         140         139
         4          39          40         141         140
         4          40          41         142         141
         4          41          42         143         142
         4          42          43         144         143
         4          43          44         145         144
         4          44          45         146         145
         4          45          46         147         146
         4          46          47         148         147
         4          47          48         149         148
         4          48          49         150         149
         4          49          50         151         150
         4          50          51         152         151
         4          51          52         153         152
         4          52          53         154         153
         4          53          54         155         154
         4          54          55         156         155
         4          55          56         157         156
         4          56          57         158         157
         4          57          58         159         158
         4          58          59         160         159
         4          59          60         161         160
         4          60          61         162         161
         4          61          62         163         162
         4          62          63         164         163
         4          63          64         165         164
         4          64          65         166         165
         4          65          66         167         166
         4          66          67         168         167
         4          67          68         169         168
         4          68          69         170         169
         4          69          70         171         170
         4          70          71         172         171
         4          71          72         173         172
         4          72          73         174         173
         4          73          74         175         174
         4          74          75         176         175
         4          75          76         177         176
         4          76          77         178         177
         4          77          78         179         178
         4          78          79         180         179
         4          79          80         181         180
         4          80          81         182         181
         4          81          82         183         182
         4          82          83         184         183
         4          83          84         185         184
         4          84          85         186         185
         4          85          86         187         186
         4          86          87         188         187
         4          87          88         189         188
         4          88          89         190         189
         4          89          90         191         190
         4          90          91         192         191
         4          91          92         193         192
         4          92          93         194         193
         4          93          94         195         194
         4          94          95         196         195
         4          95          96         197         196
         4          96          97         198         197
         4          97          98         199         198
         4          98          99         200         199
         4          99         100         201         200
         4         101         102         203         202
         4         102         103         204         203
         4         103         104         205         204
         4         104         105         206         205
         4         105         106         207         206
         4         106         107         208         207
         4         107         108         209         208
         4         108         109         210         209
         4         109         110         211         210
         4         110         111         212         211
         4         111         112         213         212
         4         112         113         214         213
         4         113         114         215         214
         4         114         115         216         215
         4         115         116         217         216
         4         116         117         218         217
         4         117         118         219         218
         4         118         119         220         219
         4         119         120         221         220
         4         120         121         222         221
         4         121         122         223         222
         4         122         123         224         223
         4         123         124         225         224
         4         124         125         226         225
         4         125         126         227         226
         4         126         127         228         227
         4         127         128         229         228
         4         128         129         230         229
         4         129         130         231         230
         4         130         131         232         231
         4         131         132         233         232
         4         132         133         234         233
         4         133         134         235         234
         4         134         135         236         235
         4         135         136         237         236
         4         136         137         238         237
         4         137         138         239         238
         4         138         139         240         239
         4         139         140         241         240
         4         140         141         242         241
         4         141         142         243         242
         4         142         143         244         243
         4         143         144         245         244
         4         144         145         246         245
         4         145         146         247         246
         4         146         147         248         247
         4         147         148         249         248
         4         148         149         250         249
         4         149         150         251         250
         4         150         151         252         251
         4         151         152         253         252
         4         152         153         254         253
         4         153         154         255         254
         4         154         155         256         255
         4         155         156         257         256
         4         156         157         258         257
         4         157         158         259         258
         4         158         159         260         259
         4         159         160         261         260
         4         160         161         262         261
         4         161         162         263         262
         4         162         163         264         263
         4         163         164         265         264
         4         164         165         266         265
         4         165         166         267         266
         4         166         167         268         267
         4         167         168         269         268
         4         168         169         270         269
         4         169         170         271         270
         4         170         171         272         271
         4         171         172         273         272
         4         172         173         274         273
         4         173         174         275         274
         4         174         175         276         275
         4         175         176         277         276
         4         176         177         278         277
         4         177         178         279         278
         4         178         179         280         279
         4         179         180         281         280
         4         180         181         282         281
         4         181         182         283         282
         4         182         183         284         283
         4         183         184         285         284
         4         184         185         286         285
         4         185         186         287         286
         4         186         187         288         287
         4         187         188         289         288
         4         188         189         290         289
         4         189         190         291         290
         4         190         191         292         291
         4         191         192         293         292
         4         192         193         294         293
         4         193         194         295         294
         4         194         195         296         295
         4         195         196         297         296
         4         196         197         298         297
         4         197         198         299         298
         4         198         199         300         299
         4         199         200         301         300
         4         200         201         302         301
         4         202         203         304         303
         4         203         204         305         304
         4         204         205         306         305
         4         205         206         307         306
         4         206         207         308         307
         4         207         208         309         308
         4         208         209         310         309
         4         209         210         311         310
         4         210         211         312         311
         4         211         212         313         312
         4         212         213         314         313
         4         213         214         315         314
         4         214         215         316         315
         4         215         216         317         316
         4         216         217         318         317
         4         217         218         319         318
         4         218         219         320         319
         4         219         220         321         320
         4         220         221         322         321
         4         221         222         323         322
         4         222         223         324         323
         4         223         224         325         324
         4         224         225         326         325
         4         225         226         327         326
         4         226         227         328         327
         4         227         228         329         328
         4         228         229         330         329
         4         229         230         331         330
         4         230         231         332         331
         4         231         232         333         332
         4         232         233         334         333
         4         233         234         335         334
         4         234         235         336         335
         4         235         236         337         336
         4         236         237         338         337
         4         237         238         339         338
         4         238         239         340         339
         4         239         240         341         340
         4         240         241         342         341
         4         241         242         343         342
         4         242         243         344         343
         4         243         244         345         344
         4         244         245         346         345
         4         245         246         347         346
         4         246         247         348         347
         4         247         248         349         348
         4         248         249         350         349
         4         249         250         351         350
         4         250         251         352         351
         4         251         252         353         352
         4         252         253         354         353
         4         253         254         355         354
         4         254         255         356         355
         4         255         256         357         356
         4         256         257         358         357
         4         257         258         359         358
         4         258         259         360         359
         4         259         260         361         360
         4         260         261         362         361
         4         261         262         363         362
         4         262         263         364         363
         4         263         264         365         364
         4         264         265         366         365
         4         265         266         367         366
         4         266         267         368         367
         4         267         268         369         368
         4         268         269         370         369
         4         269         270         371         370
         4         270         271         372         371
         4         271         272         373         372
         4         272         273         374         373
         4         273         274         375         374
         4         274         275         376         375
         4         275         276         377         376
         4         276         277         378         377
         4         277         278         379         378
         4         278         279         380         379
         4         279         280         381         380
         4         280         281         382         381
         4         281         282         383         382
         4         282         283         384         383
         4         283         284         385         384
         4         284         285         386         385
         4         285         286         387         386
         4         286         287         388         387
         4         287         288         389         388
         4         288         289         390         389
         4         289         290         391         390
         4         290         291         392         391
         4         291         292         393         392
         4         292         293         394         393
         4         293         294         395         394
         4         294         295         396         395
         4         295         296         397         396
         4         296         297         398         397
         4         297         298         399         398
         4         298         299         400         399
         4         299         300         401         400
         4         300         301         402         401
         4         301         302         403         402
         4         303         304         405         404
         4         304         305         406         405
         4         305         306         407         406
         4         306         307         408         407
         4         307         308         409         408
         4         308         309         410         409
         4         309         310         411         410
         4         310         311         412         411
         4         311         312         413         412
         4         312         313         414         413
         4         313         314         415         414
         4         314         315         416         415
         4         315         316         417         416
         4         316         317         418         417
         4         317         318         419         418
         4         318         319         420         419
         4         319         320         421         420
         4         320         321         422         421
         4         321         322         423         422
         4         322         323         424         423
         4         323         324         425         424
         4         324         325         426         425
         4         325         326         427         426
         4         326         327         428         427
         4         327         328         429         428
         4         328         329         430         429
         4         329         330         431         430
         4         330         331         432         431
         4         331         332         433         432
         4         332         333         434         433
         4         333         334         435         434
         4         334         335         436         435
         4         335         336         437         436
         4         336         337         438         437
         4         337         338         439         438
         4         338         339         440         439
         4         339         340         441         440
         4         340         341         442         441
         4         341         342         443         442
         4         342         343         444         443
         4         343         344         445         444
         4         344         345         446         445
         4         345         346         447         446
         4         346         347         448         447
         4         347         348         449         448
         4         348         349         450         449
         4         349         350         451         450
         4         350         351         452         451
         4         351         352         453         452
         4         352         353         454         453
         4         353         354         455         454
         4         354         355         456         455
         4         355         356         457         456
         4         356         357         458         457
         4         357         358         459         458
         4         358         359         460         459
         4         359         360         461         460
         4         360         361         462         461
         4         361         362         463         462
         4         362         363         464         463
         4         363         364         465         464
         4         364         365         466         465
         4         365         366         467         466
         4         366         367         468         467
         4         367         368         469         468
         4         368         369         470         469
         4         369         370         471         470
         4         370         371         472         471
         4         371         372         473         472
         4         372         373         474         473
         4         373         374         475         474
         4         374         375         476         475
         4         375         376         477         476
         4         376         377         478         477
         4         377         378         479         478
         4         378         379         480         479
         4         379         380         481         480
         4         380         381         482         481
         4         381         382         483         482
         4         382         383         484         483
         4         383         384         485         484
         4         384         385         486         485
         4         385         386         487         486
         4         386         387         488         487
         4         387         388         489         488
         4         388         389         490         489
         4         389         390         491         490
         4         390         391         492         491
         4         391         392         493         492
         4         392         393         494         493
         4         393         394         495         494
         4         394         395         496         495
         4         395         396         497         496
         4         396         397         498         497
         4         397         398         499         498
         4         398         399         500         499
         4         399         400         501         500
         4         400         401         502         501
         4         401         402         503         502
         4         402         403         504         503
         4         404         405         506         505
         4         405         406         507         506
         4         406         407         508         507
         4         407         408         509         508
         4         408         409         510         509
         4         409         410         511         510
         4         410         411         512         511
         4         411         412         513         512
         4         412         413         514         513
         4         413         414         515         514
         4         414         415         516         515
         4         415         416         517         516
         4         416         417         518         517
         4         417         418         519         518
         4         418         419         520         519
         4         419         420         521         520
         4         420         421         522         521
         4         421         422         523         522
         4         422         423         524         523
         4         423         424         525         524
         4         424         425         526         525
         4         425         426         527         526
         4         426         427         528         527
         4         427         428         529         528
         4         428         429         530         529
         4         429         430         531         530
         4         430         431         532         531
         4         431         432         533         532
         4         432         433         534         533
         4         433         434         535         534
         4         434         435         536         535
         4         435         436         537         536
         4         436         437         538         537
         4         437         438         539         538
         4         438         439         540         539
         4         439         440         541         540
         4         440         441         542         541
         4         441         442         543         542
         4         442         443         544         543
         4         443         444         545         544
         4         444         445         546         545
         4         445         446         547         546
         4         446         447         548         547
         4         447         448         549         548
         4         448         449         550         549
         4         449         450         551         550
         4         450         451         552         551
         4         451         452         553         552
         4         452         453         554         553
         4         453         454         555         554
         4         454         455         556         555
         4         455         456         557         556
         4         456         457         558         557
         4         457         458         559         558
         4         458         459         560         559
         4         459         460         561         560
         4         460         461         562         561
         4         461         462         563         562
         4         462         463         564         563
         4         463         464         565         564
         4         464         465         566         565
         4         465         466         567         566
         4         466         467         568         567
         4         467         468         569         568
         4         468         469         570         569
         4         469         470         571         570
         4         470         471         572         571
         4         471         472         573         572
         4         472         473         574         573
         4         473         474         575         574
         4         474         475         576         575
         4         475         476         577         576
         4         476         477         578         577
         4         477         478         579         578
         4         478         479         580         579
         4         479         480         581         580
         4         480         481         582         581
         4         481         482         583         582
         4         482         483         584         583
         4         483         484         585         584
         4         484         485         586         585
         4         485         486         587         586
         4         486         487         588         587
         4         487         488         589         588
         4         488         489         590         589
         4         489         490         591         590
         4         490         491         592         591
         4         491         492         593         592
         4         492         493         594         593
         4         493         494         595         594
         4         494         495         596         595
         4         495         496         597         596
         4         496         497         598         597
         4         497         498         599         598
         4         498         499         600         599
         4         499         500         601         600
         4         500         501         602         601
         4         501         502         603         602
         4         502         503         604         603
         4         503         504         605         604
         4         505         506         607         606
         4         506         507         608         607
         4         507         508         609         608
         4         508         509         610         609
         4         509         510         611         610
         4         510         511         612         611
         4         511         512         613         612
         4         512         513         614         613
         4         513         514         615         614
         4         514         515         616         615
         4         515         516         617         616
         4         516         517         618         617
         4         517         518         619         618
         4         518         519         620         619
         4         519         520         621         620
         4         520         521         622         621
         4         521         522         623         622
         4         522         523         624         623
         4         523         524         625         624
         4         524         525         626         625
         4         525         526         627         626
         4         526         527         628         627
         4         527         528         629         628
         4         528         529         630         629
         4         529         530         631         630
         4         530         531         632         631
         4         531         532         633         632
         4         532         533         634         633
         4         533         534         635         634
         4         534         535         636         635
         4         535         536         637         636
         4         536         537         638         637
         4         537         538         639         638
         4         538         539         640         639
         4         539         540         641         640
         4         540         541         642         641
         4         541         542         643         642
         4         542         543         644         643
         4         543         544         645         644
         4         544         545         646         645
         4         545         546         647         646
         4         546         547         648         647
         4         547         548         649         648
         4         548         549         650         649
         4         549         550         651         650
         4         550         551         652         651
         4         551         552         653         652
         4         552         553         654         653
         4         553         554         655         654
         4         554         555         656         655
         4         555         556         657         656
         4         556         557         658         657
         4         557         558         659         658
         4         558         559         660         659
         4         559         560         661         660
         4         560         561         662         661
         4         561         562         663         662
         4         562         563         664         663
         4         563         564         665         664
         4         564         565         666         665
         4         565         566         667         666
         4         566         567         668         667
         4         567         568         669         668
         4         568         569         670         669
         4         569         570         671         670
         4         570         571         672         671
         4         571         572         673         672
         4         572         573         674         673
         4         573         574         675         674
         4         574         575         676         675
         4         575         576         677         676
         4         576         577         678         677
         4         577         578         679         678
         4         578         579         680         679
         4         579         580         681         680
         4         580         581         682         681
         4         581         582         683         682
         4         582         583         684         683
         4         583         584         685         684
         4         584         585         686         685
         4         585         586         687         686
         4         586         587         688         687
         4         587         588         689         688
         4         588         589         690         689
         4         589         590         691         690
         4         590         591         692         691
         4         591         592         693         692
         4         592         593         694         693
         4         593         594         695         694
         4         594         595         696         695
         4         595         596         697         696
         4         596         597         698         697
         4         597         598         699         698
         4         598         599         700         699
         4         599         600         701         700
         4         600         601         702         701
         4         601         602         703         702
         4         602         603         704         703
         4         603         604         705         704
         4         604         605         706         705
         4         606         607         708         707
         4         607         608         709         708
         4         608         609         710         709
         4         609         610         711         710
         4         610         611         712         711
         4         611         612         713         712
         4         612         613         714         713
         4         613         614         715         714
         4         614         615         716         715
         4         615         616         717         716
         4         616         617         718         717
         4         617         618         719         718
         4         618         619         720         719
         4         619         620         721         720
         4         620         621         722         721
         4         621         622         723         722
         4         622         623         724         723
         4         623         624         725         724
         4         624         625         726         725
         4         625         626         727         726
         4         626         627         728         727
         4         627         628         729         728
         4         628         629         730         729
         4         629         630         731         730
         4         630         631         732         731
         4         631         632         733         732
         4         632         633         734         733
         4         633         634         735         734
         4         634         635         736         735
         4         635         636         737         736
         4         636         637         738         737
         4         637         638         739         738
         4         638         639         740         739
         4         639         640         741         740
         4         640         641         742         741
         4         641         642         743         742
         4         642         643         744         743
         4         643         644         745         744
         4         644         645         746         745
         4         645         646         747         746
         4         646         647         748         747
         4         647         648         749         748
         4         648         649         750         749
         4         649         650         751         750
         4         650         651         752         751
         4         651         652         753         752
         4         652         653         754         753
         4         653         654         755         754
         4         654         655         756         755
         4         655         656         757         756
         4         656         657         758         757
         4         657         658         759         758
         4         658         659         760         759
         4         659         660         761         760
         4         660         661         762         761
         4         661         662         763         762
         4         662         663         764         763
         4         663         664         765         764
         4         664         665         766         765
         4         665         666         767         766
         4         666         667         768         767
         4         667         668         769         768
         4         668         669         770         769
         4         669         670         771         770
         4         670         671         772         771
         4         671         672         773         772
         4         672         673         774         773
         4         673         674         775         774
         4         674         675         776         775
         4         675         676         777         776
         4         676         677         778         777
         4         677         678         779         778
         4         678         679         780         779
         4         679         680         781         780
         4         680         681         782         781
         4         681         682         783         782
         4         682         683         784         783
         4         683         684         785         784
         4         684         685         786         785
         4         685         686         787         786
         4         686         687         788         787
         4         687         688         789         788
         4         688         689         790         789
         4         689         690         791         790
         4         690         691         792         791
         4         691         692         793         792
         4         692         693         794         793
         4         693         694         795         794
         4         694         695         796         795
         4         695         696         797         796
         4         696         697         798         797
         4         697         698         799         798
         4         698         699         800         799
         4         699         700         801         800
         4         700         701         802         801
         4         701         702         803         802
         4         702         703         804         803
         4         703         704         805         804
         4         704         705         806         805
         4         705         706         807         806
         4         707         708         809         808
         4         708         709         810         809
         4         709         710         811         810
         4         710         711         812         811
         4         711         712         813         812
         4         712         713         814         813
         4         713         714         815         814
         4         714         715         816         815
         4         715         716         817         816
         4         716         717         818         817
         4         717         718         819         818
         4         718         719         820         819
         4         719         720         821         820
         4         720         721         822         821
         4         721         722         823         822
         4         722         723         824         823
         4         723         724         825         824
         4         724         725         826         825
         4         725         726         827         826
         4         726         727         828         827
         4         727         728         829         828
         4         728         729         830         829
         4         729         730         831         830
         4         730         731         832         831
         4         731         732         833         832
         4         732         733         834         833
         4         733         734         835         834
         4         734         735         836         835
         4         735         736         837         836
         4         736         737         838         837
         4         737         738         839         838
         4         738         739         840         839
         4         739         740         841         840
         4         740         741         842         841
         4         741         742         843         842
         4         742         743         844         843
         4         743         744         845         844
         4         744         745         846         845
         4         745         746         847         846
         4         746         747         848         847
         4         747         748         849         848
         4         748         749         850         849
         4         749         750         851         850
         4         750         751         852         851
         4         751         752         853         852
         4         752         753         854         853
         4         753         754         855         854
         4         754         755         856         855
         4         755         756         857         856
         4         756         757         858         857
         4         757         758         859         858
         4         758         759         860         859
         4         759         760         861         860
         4         760         761         862         861
         4         761         762         863         862
         4         762         763         864         863
         4         763         764         865         864
         4         764         765         866         865
         4         765         766         867         866
         4         766         767         868         867
         4         767         768         869         868
         4         768         769         870         869
         4         769         770         871         870
         4         770         771         872         871
         4         771         772         873         872
         4         772         773         874         873
         4         773         774         875         874
         4         774         775         876         875
         4         775         776         877         876
         4         776         777         878         877
         4         777         778         879         878
         4         778         779         880         879
         4         779         780         881         880
         4         780         781         882         881
         4         781         782         883         882
         4         782         783         884         883
         4         783         784         885         884
         4         784         785         886         885
         4         785         786         887         886
         4         786         787         888         887
         4         787         788         889         888
         4         788         789         890         889
         4         789         790         891         890
         4         790         791         892         891
         4         791         792         893         892
         4         792         793         894         893
         4         793         794         895         894
         4         794         795         896         895
         4         795         796         897         896
         4         796         797         898         897
         4         797         798         899         898
         4         798         799         900         899
         4         799         800         901         900
         4         800         801         902         901
         4         801         802         903         902
         4         802         803         904         903
         4         803         804         905         904
         4         804         805         906         905
         4         805         806         907         906
         4         806         807         908         907
         4         808         809         910         909
         4         809         810         911         910
         4         810         811         912         911
         4         811         812         913         912
         4         812         813         914         913
         4         813         814         915         914
         4         814         815         916         915
         4         815         816         917         916
         4         816         817         918         917
         4         817         818         919         918
         4         818         819         920         919
         4         819         820         921         920
         4         820         821         922         921
         4         821         822         923         922
         4         822         823         924         923
         4         823         824         925         924
         4         824         825         926         925
         4         825         826         927         926
         4         826         827         928         927
         4         827         828         929         928
         4         828         829         930         929
         4         829         830         931         930
         4         830         831         932         931
         4         831         832         933         932
         4         832         833         934         933
         4         833         834         935         934
         4         834         835         936         935
         4         835         836         937         936
         4         836         837         938         937
         4         837         838         939         938
         4         838         839         940         939
         4         839         840         941         940
         4         840         841         942         941
         4         841         842         943         942
         4         842         843         944         943
         4         843         844         945         944
         4         844         845         946         945
         4         845         846         947         946
         4         846         847         948         947
         4         847         848         949         948
         4         848         849         950         949
         4         849         850         951         950
         4         850         851         952         951
         4         851         852         953         952
         4         852         853         954         953
         4         853         854         955         954
         4         854         855         956         955
         4         855         856         957         956
         4         856         857         958         957
         4         857         858         959         958
         4         858         859         960         959
         4         859         860         961         960
         4         860         861         962         961
         4         861         862         963         962
         4         862         863         964         963
         4         863         864         965         964
         4         864         865         966         965
         4         865         866         967         966
         4         866         867         968         967
         4         867         868         969         968
         4         868         869         970         969
         4         869         870         971         970
         4         870         871         972         971
         4         871         872         973         972
         4         872         873         974         973
         4         873         874         975         974
         4         874         875         976         975
         4         875         876         977         976
         4         876         877         978         977
         4         877         878         979         978
         4         878         879         980         979
         4         879         880         981         980
         4         880         881         982         981
         4         881         882         983         982
         4         882         883         984         983
         4         883         884         985         984
         4         884         885         986         985
         4         885         886         987         986
         4         886         887         988         987
         4         887         888         989         988
         4         888         889         990         989
         4         889         890         991         990
         4         890         891         992         991
         4         891         892         993         992
         4         892         893         994         993
         4         893         894         995         994
         4         894         895         996         995
         4         895         896         997         996
         4         896         897         998         997
         4         897         898         999         998
         4         898         899        1000         999
         4         899         900        1001        1000
         4         900         901        1002        1001
         4         901         902        1003        1002
         4         902         903        1004        1003
         4         903         904        1005        1004
         4         904         905        1006        1005
         4         905         906        1007        1006
         4         906         907        1008        1007
         4         907         908        1009        1008
         4         909         910        1011        1010
         4         910         911        1012        1011
         4         911         912        1013        1012
         4         912         913        1014        1013
         4         913         914        1015        1014
         4         914         915        1016        1015
         4         915         916        1017        1016
         4         916         917        1018        1017
         4         917         918        1019        1018
         4         918         919        1020        1019
         4         919         920        1021        1020
         4         920         921        1022        1021
         4         921         922        1023        1022
         4         922         923        1024        1023
         4         923         924        1025        1024
         4         924         925        1026        1025
         4         925         926        1027        1026
         4         926         927        1028        1027
         4         927         928        1029        1028
         4         928         929        1030        1029
         4         929         930        1031        1030
         4         930         931        1032        1031
         4         931         932        1033        1032
         4         932         933        1034        1033
         4         933         934        1035        1034
         4         934         935        1036        1035
         4         935         936        1037        1036
         4         936         937        1038        1037
         4         937         938        1039        1038
         4         938         939        1040        1039
         4         939         940        1041        1040
         4         940         941        1042        1041
         4         941         942        1043        1042
         4         942         943        1044        1043
         4         943         944        1045        1044
         4         944         945        1046        1045
         4         945         946        1047        1046
         4         946         947        1048        1047
         4         947         948        1049        1048
         4         948         949        1050        1049
         4         949         950        1051        1050
         4         950         951        1052        1051
         4         951         952        1053        1052
         4         952         953        1054        1053
         4         953         954        1055        1054
         4         954         955        1056        1055
         4         955         956        1057        1056
         4         956         957        1058        1057
         4         957         958        1059        1058
         4         958         959        1060        1059
         4         959         960        1061        1060
         4         960         961        1062        1061
         4         961         962        1063        1062
         4         962         963        1064        1063
         4         963         964        1065        1064
         4         964         965        1066        1065
         4         965         966        1067        1066
         4         966         967        1068        1067
         4         967         968        1069        1068
         4         968         969        1070        1069
         4         969         970        1071        1070
         4         970         971        1072        1071
         4         971         972        1073        1072
         4         972         973        1074        1073
         4         973         974        1075        1074
         4         974         975        1076        1075
         4         975         976        1077        1076
         4         976         977        1078        1077
         4         977         978        1079        1078
         4         978         979        1080        1079
         4         979         980        1081        1080
         4         980         981        1082        1081
         4         981         982        1083        1082
         4         982         983        1084        1083
         4         983         984        1085        1084
         4         984         985        1086        1085
         4         985         986        1087        1086
         4         986         987        1088        1087
         4         987         988        1089        1088
         4         988         989        1090        1089
         4         989         990        1091        1090
         4         990         991        1092        1091
         4         991         992        1093        1092
         4         992         993        1094        1093
         4         993         994        1095        1094
         4         994         995        1096        1095
         4         995         996        1097        1096
         4         996         997        1098        1097
         4         997         998        1099        1098
         4         998         999        1100        1099
         4         999        1000        1101        1100
         4        1000        1001        1102        1101
         4        1001        1002        1103        1102
         4        1002        1003        1104        1103
         4        1003        1004        1105        1104
         4        1004        1005        1106        1105
         4        1005        1006        1107        1106
         4        1006        1007        1108        1107
         4        1007        1008        1109        1108
         4        1008        1009        1110        1109
         4        1010        1011        1112        1111
         4        1011        1012        1113        1112
         4        1012        1013        1114        1113
         4        1013        1014        1115        1114
         4        1014        1015        1116        1115
         4        1015        1016        1117        1116
         4        1016        1017        1118        1117
         4        1017        1018        1119        1118
         4        1018        1019        1120        1119
         4        1019        1020        1121        1120
         4        1020        1021        1122        1121
         4        1021        1022        1123        1122
         4        1022        1023        1124        1123
         4        1023        1024        1125        1124
         4        1024        1025        1126        1125
         4        1025        1026        1127        1126
         4        1026        1027        1128        1127
         4        1027        1028        1129        1128
         4        1028        1029        1130        1129
         4        1029        1030        1131        1130
         4        1030        1031        1132        1131
         4        1031        1032        1133        1132
         4        1032        1033        1134        1133
         4        1033        1034        1135        1134
         4        1034        1035        1136        1135
         4        1035        1036        1137        1136
         4        1036        1037        1138        1137
         4        1037        1038        1139        1138
         4        1038        1039        1140        1139
         4        1039        1040        1141        1140
         4        1040        1041        1142        1141
         4        1041        1042        1143        1142
         4        1042        1043        1144        1143
         4        1043        1044        1145        1144
         4        1044        1045        1146        1145
         4        1045        1046        1147        1146
         4        1046        1047        1148        1147
         4        1047        1048        1149        1148
         4        1048        1049        1150        1149
         4        1049        1050        1151        1150
         4        1050        1051        1152        1151
         4        1051        1052        1153        1152
         4        1052        1053        1154        1153
         4        1053        1054        1155        1154
         4        1054        1055        1156        1155
         4        1055        1056        1157        1156
         4        1056        1057        1158        1157
         4        1057        1058        1159        1158
         4        1058        1059        1160        1159
         4        1059        1060        1161        1160
         4        1060        1061        1162        1161
         4        1061        1062        1163        1162
         4        1062        1063        1164        1163
         4        1063        1064        1165        1164
         4        1064        1065        1166        1165
         4        1065        1066        1167        1166
         4        1066        1067        1168        1167
         4        1067        1068        1169        1168
         4        1068        1069        1170        1169
         4        1069        1070        1171        1170
         4        1070        1071        1172        1171
         4        1071        1072        1173        1172
         4        1072        1073        1174        1173
         4        1073        1074        1175        1174
         4        1074        1075        1176        1175
         4        1075        1076        1177        1176
         4        1076        1077        1178        1177
         4        1077        1078        1179        1178
         4        1078        1079        1180        1179
         4        1079        1080        1181        1180
         4        1080        1081        1182        1181
         4        1081        1082        1183        1182
         4        1082        1083        1184        1183
         4        1083        1084        1185        1184
         4        1084        1085        1186        1185
         4        1085        1086        1187        1186
         4        1086        1087        1188        1187
         4        1087        1088        1189        1188
         4        1088        1089        1190        1189
         4        1089        1090        1191        1190
         4        1090        1091        1192        1191
         4        1091        1092        1193        1192
         4        1092        1093        1194        1193
         4        1093        1094        1195        1194
         4        1094        1095        1196        1195
         4        1095        1096        1197        1196
         4        1096        1097        1198        1197
         4        1097        1098        1199        1198
         4        1098        1099        1200        1199
         4        1099        1100        1201        1200
         4        1100        1101        1202        1201
         4        1101        1102        1203        1202
         4        1102        1103        1204        1203
         4        1103        1104        1205        1204
         4        1104        1105        1206        1205
         4        1105        1106        1207        1206
         4        1106        1107        1208        1207
         4        1107        1108        1209        1208
         4        1108        1109        1210        1209
         4        1109        1110        1211        1210
         4        1111        1112        1213        1212
         4        1112        1113        1214        1213
         4        1113        1114        1215        1214
         4        1114        1115        1216        1215
         4        1115        1116        1217        1216
         4        1116        1117        1218        1217
         4        1117        1118        1219        1218
         4        1118        1119        1220        1219
         4        1119        1120        1221        1220
         4        1120        1121        1222        1221
         4        1121        1122        1223        1222
         4        1122        1123        1224        1223
         4        1123        1124        1225        1224
         4        1124        1125        1226        1225
         4        1125        1126        1227        1226
         4        1126        1127        1228        1227
         4        1127        1128        1229        1228
         4        1128        1129        1230        1229
         4        1129        1130        1231        1230
         4        1130        1131        1232        1231
         4        1131        1132        1233        1232
         4        1132        1133        1234        1233
         4        1133        1134        1235        1234
         4        1134        1135        1236        1235
         4        1135        1136        1237        1236
         4        1136        1137        1238        1237
         4        1137        1138        1239        1238
         4        1138        1139        1240        1239
         4        1139        1140        1241        1240
         4        1140        1141        1242        1241
         4        1141        1142        1243        1242
         4        1142        1143        1244        1243
         4        1143        1144        1245        1244
         4        1144        1145        1246        1245
         4        1145        1146        1247        1246
         4        1146        1147        1248        1247
         4        1147        1148        1249        1248
         4        1148        1149        1250        1249
         4        1149        1150        1251        1250
         4        1150        1151        1252        1251
         4        1151        1152        1253        1252
         4        1152        1153        1254        1253
         4        1153        1154        1255        1254
         4        1154        1155        1256        1255
         4        1155        1156        1257        1256
         4        1156        1157        1258        1257
         4        1157        1158        1259        1258
         4        1158        1159        1260        1259
         4        1159        1160        1261        1260
         4        1160        1161        1262        1261
         4        1161        1162        1263        1262
         4        1162        1163        1264        1263
         4        1163        1164        1265        1264
         4        1164        1165        1266        1265
         4        1165        1166        1267        1266
         4        1166        1167        1268        1267
         4        1167        1168        1269        1268
         4        1168        1169        1270        1269
         4        1169        1170        1271        1270
         4        1170        1171        1272        1271
         4        1171        1172        1273        1272
         4        1172        1173        1274        1273
         4        1173        1174        1275        1274
         4        1174        1175        1276        1275
         4        1175        1176        1277        1276
         4        1176        1177        1278        1277
         4        1177        1178        1279        1278
         4        1178        1179        1280        1279
         4        1179        1180        1281        1280
         4        1180        1181        1282        1281
         4        1181        1182        1283        1282
         4        1182        1183        1284        1283
         4        1183        1184        1285        1284
         4        1184        1185        1286        1285
         4        1185        1186        1287        1286
         4        1186        1187        1288        1287
         4        1187        1188        1289        1288
         4        1188        1189        1290        1289
         4        1189        1190        1291        1290
         4        1190        1191        1292        1291
         4        1191        1192        1293        1292
         4        1192        1193        1294        1293
         4        1193        1194        1295        1294
         4        1194        1195        1296        1295
         4        1195        1196        1297        1296
         4        1196        1197        1298        1297
         4        1197        1198        1299        1298
         4        1198        1199        1300        1299
         4        1199        1200        1301        1300
         4        1200        1201        1302        1301
         4        1201        1202        1303        1302
         4        1202        1203        1304        1303
         4        1203        1204        1305        1304
         4        1204        1205        1306        1305
         4        1205        1206        1307        1306
         4        1206        1207        1308        1307
         4        1207        1208        1309        1308
         4        1208        1209        1310        1309
         4        1209        1210        1311        1310
         4        1210        1211        1312        1311
         4        1212        1213        1314        1313
         4        1213        1214        1315        1314
         4        1214        1215        1316        1315
         4        1215        1216        1317        1316
         4        1216        1217        1318        1317
         4        1217        1218        1319        1318
         4        1218        1219        1320        1319
         4        1219        1220        1321        1320
         4        1220        1221        1322        1321
         4        1221        1222        1323        1322
         4        1222        1223        1324        1323
         4        1223        1224        1325        1324
         4        1224        1225        1326        1325
         4        1225        1226        1327        1326
         4        1226        1227        1328        1327
         4        1227        1228        1329        1328
         4        1228        1229        1330        1329
         4        1229        1230        1331        1330
         4        1230        1231        1332        1331
         4        1231        1232        1333        1332
         4        1232        1233        1334        1333
         4        1233        1234        1335        1334
         4        1234        1235        1336        1335
         4        1235        1236        1337        1336
         4        1236        1237        1338        1337
         4        1237        1238        1339        1338
         4        1238        1239        1340        1339
         4        1239        1240        1341        1340
         4        1240        1241        1342        1341
         4        1241        1242        1343        1342
         4        1242        1243        1344        1343
         4        1243        1244        1345        1344
         4        1244        1245        1346        1345
         4        1245        1246        1347        1346
         4        1246        1247        1348        1347
         4        1247        1248        1349        1348
         4        1248        1249        1350        1349
         4        1249        1250        1351        1350
         4        1250        1251        1352        1351
         4        1251        1252        1353        1352
         4        1252        1253        1354        1353
         4        1253        1254        1355        1354
         4        1254        1255        1356        1355
         4        1255        1256        1357        1356
         4        1256        1257        1358        1357
         4        1257        1258        1359        1358
         4        1258        1259        1360        1359
         4        1259        1260        1361        1360
         4        1260        1261        1362        1361
         4        1261        1262        1363        1362
         4        1262        1263        1364        1363
         4        1263        1264        1365        1364
         4        1264        1265        1366        1365
         4        1265        1266        1367        1366
         4        1266        1267        1368        1367
         4        1267        1268        1369        1368
         4        1268        1269        1370        1369
         4        1269        1270        1371        1370
         4        1270        1271        1372        1371
         4        1271        1272        1373        1372
         4        1272        1273        1374        1373
         4        1273        1274        1375        1374
         4        1274        1275        1376        1375
         4        1275        1276        1377        1376
         4        1276        1277        1378        1377
         4        1277        1278        1379        1378
         4        1278        1279        1380        1379
         4        1279        1280        1381        1380
         4        1280        1281        1382        1381
         4        1281        1282        1383        1382
         4        1282        1283        1384        1383
         4        1283        1284        1385        1384
         4        1284        1285        1386        1385
         4        1285        1286        1387        1386
         4        1286        1287        1388        1387
         4        1287        1288        1389        1388
         4        1288        1289        1390        1389
         4        1289        1290        1391        1390
         4        1290        1291        1392        1391
         4        1291        1292        1393        1392
         4        1292        1293        1394        1393
         4        1293        1294        1395        1394
         4        1294        1295        1396        1395
         4        1295        1296        1397        1396
         4        1296        1297        1398        1397
         4        1297        1298        1399        1398
         4        1298        1299        1400        1399
         4        1299        1300        1401        1400
         4        1300        1301        1402        1401
         4        1301        1302        1403        1402
         4        1302        1303        1404        1403
         4        1303        1304        1405        1404
         4        1304        1305        1406        1405
         4        1305        1306        1407        1406
         4        1306        1307        1408        1407
         4        1307        1308        1409        1408
         4        1308        1309        1410        1409
         4        1309        1310        1411        1410
         4        1310        1311        1412        1411
         4        1311        1312        1413        1412
         4        1313        1314        1415        1414
         4        1314        1315        1416        1415
         4        1315        1316        1417        1416
         4        1316        1317        1418        1417
         4        1317        1318        1419        1418
         4        1318        1319        1420        1419
         4        1319        1320        1421        1420
         4        1320        1321        1422        1421
         4        1321        1322        1423        1422
         4        1322        1323        1424        1423
         4        1323        1324        1425        1424
         4        1324        1325        1426        1425
         4        1325        1326        1427        1426
         4        1326        1327        1428        1427
         4        1327        1328        1429        1428
         4        1328        1329        1430        1429
         4        1329        1330        1431        1430
         4        1330        1331        1432        1431
         4        1331        1332        1433        1432
         4        1332        1333        1434        1433
         4        1333        1334        1435        1434
         4        1334        1335        1436        1435
         4        1335        1336        1437        1436
         4        1336        1337        1438        1437
         4        1337        1338        1439        1438
         4        1338        1339        1440        1439
         4        1339        1340        1441        1440
         4        1340        1341        1442        1441
         4        1341        1342        1443        1442
         4        1342        1343        1444        1443
         4        1343        1344        1445        1444
         4        1344        1345        1446        1445
         4        1345        1346        1447        1446
         4        1346        1347        1448        1447
         4        1347        1348        1449        1448
         4        1348        1349        1450        1449
         4        1349        1350        1451        1450
         4        1350        1351        1452        1451
         4        1351        1352        1453        1452
         4        1352        1353        1454        1453
         4        1353        1354        1455        1454
         4        1354        1355        1456        1455
         4        1355        1356        1457        1456
         4        1356        1357        1458        1457
         4        1357        1358        1459        1458
         4        1358        1359        1460        1459
         4        1359        1360        1461        1460
         4        1360        1361        1462        1461
         4        1361        1362        1463        1462
         4        1362        1363        1464        1463
         4        1363        1364        1465        1464
         4        1364        1365        1466        1465
         4        1365        1366        1467        1466
         4        1366        1367        1468        1467
         4        1367        1368        1469        1468
         4        1368        1369        1470        1469
         4        1369        1370        1471        1470
         4        1370        1371        1472        1471
         4        1371        1372        1473        1472
         4        1372        1373        1474        1473
         4        1373        1374        1475        1474
         4        1374        1375        1476        1475
         4        1375        1376        1477        1476
         4        1376        1377        1478        1477
         4        1377        1378        1479        1478
         4        1378        1379        1480        1479
         4        1379        1380        1481        1480
         4        1380        1381        1482        1481
         4        1381        1382        1483        1482
         4        1382        1383        1484        1483
         4        1383        1384        1485        1484
         4        1384        1385        1486        1485
         4        1385        1386        1487        1486
         4        1386        1387        1488        1487
         4        1387        1388        1489        1488
         4        1388        1389        1490        1489
         4        1389        1390        1491        1490
         4        1390        1391        1492        1491
         4        1391        1392        1493        1492
         4        1392        1393        1494        1493
         4        1393        1394        1495        1494
         4        1394        1395        1496        1495
         4        1395        1396        1497        1496
         4        1396        1397        1498        1497
         4        1397        1398        1499        1498
         4        1398        1399        1500        1499
         4        1399        1400        1501        1500
         4        1400        1401        1502        1501
         4        1401        1402        1503        1502
         4        1402        1403        1504        1503
         4        1403        1404        1505        1504
         4        1404        1405        1506        1505
         4        1405        1406        1507        1506
         4        1406        1407        1508        1507
         4        1407        1408        1509        1508
         4        1408        1409        1510        1509
         4        1409        1410        1511        1510
         4        1410        1411        1512        1511
         4        1411        1412        1513        1512
         4        1412        1413        1514        1513
         4        1414        1415        1516        1515
         4        1415        1416        1517        1516
         4        1416        1417        1518        1517
         4        1417        1418        1519        1518
         4        1418        1419        1520        1519
         4        1419        1420        1521        1520
         4        1420        1421        1522        1521
         4        1421        1422        1523        1522
         4        1422        1423        1524        1523
         4        1423        1424        1525        1524
         4        1424        1425        1526        1525
         4        1425        1426        1527        1526
         4        1426        1427        1528        1527
         4        1427        1428        1529        1528
         4        1428        1429        1530        1529
         4        1429        1430        1531        1530
         4        1430        1431        1532        1531
         4        1431        1432        1533        1532
         4        1432        1433        1534        1533
         4        1433        1434        1535        1534
         4        1434        1435        1536        1535
         4        1435        1436        1537        1536
         4        1436        1437        1538        1537
         4        1437        1438        1539        1538
         4        1438        1439        1540        1539
         4        1439        1440        1541        1540
         4        1440        1441        1542        1541
         4        1441        1442        1543        1542
         4        1442        1443        1544        1543
         4        1443        1444        1545        1544
         4        1444        1445        1546        1545
         4        1445        1446        1547        1546
         4        1446        1447        1548        1547
         4        1447        1448        1549        1548
         4        1448        1449        1550        1549
         4        1449        1450        1551        1550
         4        1450        1451        1552        1551
         4        1451        1452        1553        1552
         4        1452        1453        1554        1553
         4        1453        1454        1555        1554
         4        1454        1455        1556        1555
         4        1455        1456        1557        1556
         4        1456        1457        1558        1557
         4        1457        1458        1559        1558
         4        1458        1459        1560        1559
         4        1459        1460        1561        1560
         4        1460        1461        1562        1561
         4        1461        1462        1563        1562
         4        1462        1463        1564        1563
         4        1463        1464        1565        1564
         4        1464        1465        1566        1565
         4        1465        1466        1567        1566
         4        1466        1467        1568        1567
         4        1467        1468        1569        1568
         4        1468        1469        1570        1569
         4        1469        1470        1571        1570
         4        1470        1471        1572        1571
         4        1471        1472        1573        1572
         4        1472        1473        1574        1573
         4        1473        1474        1575        1574
         4        1474        1475        1576        1575
         4        1475        1476        1577        1576
         4        1476        1477        1578        1577
         4        1477        1478        1579        1578
         4        1478        1479        1580        1579
         4        1479        1480        1581        1580
         4        1480        1481        1582        1581
         4        1481        1482        1583        1582
         4        1482        1483        1584        1583
         4        1483        1484        1585        1584
         4        1484        1485        1586        1585
         4        1485        1486        1587        1586
         4        1486        1487        1588        1587
         4        1487        1488        1589        1588
         4        1488        1489        1590        1589
         4        1489        1490        1591        1590
         4        1490        1491        1592        1591
         4        1491        1492        1593        1592
         4        1492        1493        1594        1593
         4        1493        1494        1595        1594
         4        1494        1495        1596        1595
         4        1495        1496        1597        1596
         4        1496        1497        1598        1597
         4        1497        1498        1599        1598
         4        1498        1499        1600        1599
         4        1499        1500        1601        1600
         4        1500        1501        1602        1601
         4        1501        1502        1603        1602
         4        1502        1503        1604        1603
         4        1503        1504        1605        1604
         4        1504        1505        1606        1605
         4        1505        1506        1607        1606
         4        1506        1507        1608        1607
         4        1507        1508        1609        1608
         4        1508        1509        1610        1609
         4        1509        1510        1611        1610
         4        1510        1511        1612        1611
         4        1511        1512        1613        1612
         4        1512        1513        1614        1613
         4        1513        1514        1615        1614
         4        1515        1516        1617        1616
         4        1516        1517        1618        1617
         4        1517        1518        1619        1618
         4        1518        1519        1620        1619
         4        1519        1520        1621        1620
         4        1520        1521        1622        1621
         4        1521        1522        1623        1622
         4        1522        1523        1624        1623
         4        1523        1524        1625        1624
         4        1524        1525        1626        1625
         4        1525        1526        1627        1626
         4        1526        1527        1628        1627
         4        1527        1528        1629        1628
         4        1528        1529        1630        1629
         4        1529        1530        1631        1630
         4        1530        1531        1632        1631
         4        1531        1532        1633        1632
         4        1532        1533        1634        1633
         4        1533        1534        1635        1634
         4        1534        1535        1636        1635
         4        1535        1536        1637        1636
         4        1536        1537        1638        1637
         4        1537        1538        1639        1638
         4        1538        1539        1640        1639
         4        1539        1540        1641        1640
         4        1540        1541        1642        1641
         4        1541        1542        1643        1642
         4        1542        1543        1644        1643
         4        1543        1544        1645        1644
         4        1544        1545        1646        1645
         4        1545        1546        1647        1646
         4        1546        1547        1648        1647
         4        1547        1548        1649        1648
         4        1548        1549        1650        1649
         4        1549        1550        1651        1650
         4        1550        1551        1652        1651
         4        1551        1552        1653        1652
         4        1552        1553        1654        1653
         4        1553        1554        1655        1654
         4        1554        1555        1656        1655
         4        1555        1556        1657        1656
         4        1556        1557        1658        1657
         4        1557        1558        1659        1658
         4        1558        1559        1660        1659
         4        1559        1560        1661        1660
         4        1560        1561        1662        1661
         4        1561        1562        1663        1662
         4        1562        1563        1664        1663
         4        1563        1564        1665        1664
         4        1564        1565        1666        1665
         4        1565        1566        1667        1666
         4        1566        1567        1668        1667
         4        1567        1568        1669        1668
         4        1568        1569        1670        1669
         4        1569        1570        1671        1670
         4        1570        1571        1672        1671
         4        1571        1572        1673        1672
         4        1572        1573        1674        1673
         4        1573        1574        1675        1674
         4        1574        1575        1676        1675
         4        1575        1576        1677        1676
         4        1576        1577        1678        1677
         4        1577        1578        1679        1678
         4        1578        1579        1680        1679
         4        1579        1580        1681        1680
         4        1580        1581        1682        1681
         4        1581        1582        1683        1682
         4        1582        1583        1684        1683
         4        1583        1584        1685        1684
         4        1584        1585        1686        1685
         4        1585        1586        1687        1686
         4        1586        1587        1688        1687
         4        1587        1588        1689        1688
         4        1588        1589        1690        1689
         4        1589        1590        1691        1690
         4        1590        1591        1692        1691
         4        1591        1592        1693        1692
         4        1592        1593        1694        1693
         4        1593        1594        1695        1694
         4        1594        1595        1696        1695
         4        1595        1596        1697        1696
         4        1596        1597        1698        1697
         4        1597        1598        1699        1698
         4        1598        1599        1700        1699
         4        1599        1600        1701        1700
         4        1600        1601        1702        1701
         4        1601        1602        1703        1702
         4        1602        1603        1704        1703
         4        1603        1604        1705        1704
         4        1604        1605        1706        1705
         4        1605        1606        1707        1706
         4        1606        1607        1708        1707
         4        1607        1608        1709        1708
         4        1608        1609        1710        1709
         4        1609        1610        1711        1710
         4        1610        1611        1712        1711
         4        1611        1612        1713        1712
         4        1612        1613        1714        1713
         4        1613        1614        1715        1714
         4        1614        1615        1716        1715
         4        1616        1617        1718        1717
         4        1617        1618        1719        1718
         4        1618        1619        1720        1719
         4        1619        1620        1721        1720
         4        1620        1621        1722        1721
         4        1621        1622        1723        1722
         4        1622        1623        1724        1723
         4        1623        1624        1725        1724
         4        1624        1625        1726        1725
         4        1625        1626        1727        1726
         4        1626        1627        1728        1727
         4        1627        1628        1729        1728
         4        1628        1629        1730        1729
         4        1629        1630        1731        1730
         4        1630        1631        1732        1731
         4        1631        1632        1733        1732
         4        1632        1633        1734        1733
         4        1633        1634        1735        1734
         4        1634        1635        1736        1735
         4        1635        1636        1737        1736
         4        1636        1637        1738        1737
         4        1637        1638        1739        1738
         4        1638        1639        1740        1739
         4        1639        1640        1741        1740
         4        1640        1641        1742        1741
         4        1641        1642        1743        1742
         4        1642        1643        1744        1743
         4        1643        1644        1745        1744
         4        1644        1645        1746        1745
         4        1645        1646        1747        1746
         4        1646        1647        1748        1747
         4        1647        1648        1749        1748
         4        1648        1649        1750        1749
         4        1649        1650        1751        1750
         4        1650        1651        1752        1751
         4        1651        1652        1753        1752
         4        1652        1653        1754        1753
         4        1653        1654        1755        1754
         4        1654        1655        1756        1755
         4        1655        1656        1757        1756
         4        1656        1657        1758        1757
         4        1657        1658        1759        1758
         4        1658        1659        1760        1759
         4        1659        1660        1761        1760
         4        1660        1661        1762        1761
         4        1661        1662        1763        1762
         4        1662        1663        1764        1763
         4        1663        1664        1765        1764
         4        1664        1665        1766        1765
         4        1665        1666        1767        1766
         4        1666        1667        1768        1767
         4        1667        1668        1769        1768
         4        1668        1669        1770        1769
         4        1669        1670        1771        1770
         4        1670        1671        1772        1771
         4        1671        1672        1773        1772
         4        1672        1673        1774        1773
         4        1673        1674        1775        1774
         4        1674        1675        1776        1775
         4        1675        1676        1777        1776
         4        1676        1677        1778        1777
         4        1677        1678        1779        1778
         4        1678        1679        1780        1779
         4        1679        1680        1781        1780
         4        1680        1681        1782        1781
         4        1681        1682        1783        1782
         4        1682        1683        1784        1783
         4        1683        1684        1785        1784
         4        1684        1685        1786        1785
         4        1685        1686        1787        1786
         4        1686        1687        1788        1787
         4        1687        1688        1789        1788
         4        1688        1689        1790        1789
         4        1689        1690        1791        1790
         4        1690        1691        1792        1791
         4        1691        1692        1793        1792
         4        1692        1693        1794        1793
         4        1693        1694        1795        1794
         4        1694        1695        1796        1795
         4        1695        1696        1797        1796
         4        1696        1697        1798        1797
         4        1697        1698        1799        1798
         4        1698        1699        1800        1799
         4        1699        1700        1801        1800
         4        1700        1701        1802        1801
         4        1701        1702        1803        1802
         4        1702        1703        1804        1803
         4        1703        1704        1805        1804
         4        1704        1705        1806        1805
         4        1705        1706        1807        1806
         4        1706        1707        1808        1807
         4        1707        1708        1809        1808
         4        1708        1709        1810        1809
         4        1709        1710        1811        1810
         4        1710        1711        1812        1811
         4        1711        1712        1813        1812
         4        1712        1713        1814        1813
         4        1713        1714        1815        1814
         4        1714        1715        1816        1815
         4        1715        1716        1817        1816
         4        1717        1718        1819        1818
         4        1718        1719        1820        1819
         4        1719        1720        1821        1820
         4        1720        1721        1822        1821
         4        1721        1722        1823        1822
         4        1722        1723        1824        1823
         4        1723        1724        1825        1824
         4        1724        1725        1826        1825
         4        1725        1726        1827        1826
         4        1726        1727        1828        1827
         4        1727        1728        1829        1828
         4        1728        1729        1830        1829
         4        1729        1730        1831        1830
         4        1730        1731        1832        1831
         4        1731        1732        1833        1832
         4        1732        1733        1834        1833
         4        1733        1734        1835        1834
         4        1734        1735        1836        1835
         4        1735        1736        1837        1836
         4        1736        1737        1838        1837
         4        1737        1738        1839        1838
         4        1738        1739        1840        1839
         4        1739        1740        1841        1840
         4        1740        1741        1842        1841
         4        1741        1742        1843        1842
         4        1742        1743        1844        1843
         4        1743        1744        1845        1844
         4        1744        1745        1846        1845
         4        1745        1746        1847        1846
         4        1746        1747        1848        1847
         4        1747        1748        1849        1848
         4        1748        1749        1850        1849
         4        1749        1750        1851        1850
         4        1750        1751        1852        1851
         4        1751        1752        1853        1852
         4        1752        1753        1854        1853
         4        1753        1754        1855        1854
         4        1754        1755        1856        1855
         4        1755        1756        1857        1856
         4        1756        1757        1858        1857
         4        1757        1758        1859        1858
         4        1758        1759        1860        1859
         4        1759        1760        1861        1860
         4        1760        1761        1862        1861
         4        1761        1762        1863        1862
         4        1762        1763        1864        1863
         4        1763        1764        1865        1864
         4        1764        1765        1866        1865
         4        1765        1766        1867        1866
         4        1766        1767        1868        1867
         4        1767        1768        1869        1868
         4        1768        1769        1870        1869
         4        1769        1770        1871        1870
         4        1770        1771        1872        1871
         4        1771        1772        1873        1872
         4        1772        1773        1874        1873
         4        1773        1774        1875        1874
         4        1774        1775        1876        1875
         4        1775        1776        1877        1876
         4        1776        1777        1878        1877
         4        1777        1778        1879        1878
         4        1778        1779        1880        1879
         4        1779        1780        1881        1880
         4        1780        1781        1882        1881
         4        1781        1782        1883        1882
         4        1782        1783        1884        1883
         4        1783        1784        1885        1884
         4        1784        1785        1886        1885
         4        1785        1786        1887        1886
         4        1786        1787        1888        1887
         4        1787        1788        1889        1888
         4        1788        1789        1890        1889
         4        1789        1790        1891        1890
         4        1790        1791        1892        1891
         4        1791        1792        1893        1892
         4        1792        1793        1894        1893
         4        1793        1794        1895        1894
         4        1794        1795        1896        1895
         4        1795        1796        1897        1896
         4        1796        1797        1898        1897
         4        1797        1798        1899        1898
         4        1798        1799        1900        1899
         4        1799        1800        1901        1900
         4        1800        1801        1902        1901
         4        1801        1802        1903        1902
         4        1802        1803        1904        1903
         4        1803        1804        1905        1904
         4        1804        1805        1906        1905
         4        1805        1806        1907        1906
         4        1806        1807        1908        1907
         4        1807        1808        1909        1908
         4        1808        1809        1910        1909
         4        1809        1810        1911        1910
         4        1810        1811        1912        1911
         4        1811        1812        1913        1912
         4        1812        1813        1914        1913
         4        1813        1814        1915        1914
         4        1814        1815        1916        1915
         4        1815        1816        1917        1916
         4        1816        1817        1918        1917
         4        1818        1819        1920        1919
         4        1819        1820        1921        1920
         4        1820        1821        1922        1921
         4        1821        1822        1923        1922
         4        1822        1823        1924        1923
         4        1823        1824        1925        1924
         4        1824        1825        1926        1925
         4        1825        1826        1927        1926
         4        1826        1827        1928        1927
         4        1827        1828        1929        1928
         4        1828        1829        1930        1929
         4        1829        1830        1931        1930
         4        1830        1831        1932        1931
         4        1831        1832        1933        1932
         4        1832        1833        1934        1933
         4        1833        1834        1935        1934
         4        1834        1835        1936        1935
         4        1835        1836        1937        1936
         4        1836        1837        1938        1937
         4        1837        1838        1939        1938
         4        1838        1839        1940        1939
         4        1839        1840        1941        1940
         4        1840        1841        1942        1941
         4        1841        1842        1943        1942
         4        1842        1843        1944        1943
         4        1843        1844        1945        1944
         4        1844        1845        1946        1945
         4        1845        1846        1947        1946
         4        1846        1847        1948        1947
         4        1847        1848        1949        1948
         4        1848        1849        1950        1949
         4        1849        1850        1951        1950
         4        1850        1851        1952        1951
         4        1851        1852        1953        1952
         4        1852        1853        1954        1953
         4        1853        1854        1955        1954
         4        1854        1855        1956        1955
         4        1855        1856        1957        1956
         4        1856        1857        1958        1957
         4        1857        1858        1959        1958
         4        1858        1859        1960        1959
         4        1859        1860        1961        1960
         4        1860        1861        1962        1961
         4        1861        1862        1963        1962
         4        1862        1863        1964        1963
         4        1863        1864        1965        1964
         4        1864        1865        1966        1965
         4        1865        1866        1967        1966
         4        1866        1867        1968        1967
         4        1867        1868        1969        1968
         4        1868        1869        1970        1969
         4        1869        1870        1971        1970
         4        1870        1871        1972        1971
         4        1871        1872        1973        1972
         4        1872        1873        1974        1973
         4        1873        1874        1975        1974
         4        1874        1875        1976        1975
         4        1875        1876        1977        1976
         4        1876        1877        1978        1977
         4        1877        1878        1979        1978
         4        1878        1879        1980        1979
         4        1879        1880        1981        1980
         4        1880        1881        1982        1981
         4        1881        1882        1983        1982
         4        1882        1883        1984        1983
         4        1883        1884        1985        1984
         4        1884        1885        1986        1985
         4        1885        1886        1987        1986
         4        1886        1887        1988        1987
         4        1887        1888        1989        1988
         4        1888        1889        1990        1989
         4        1889        1890        1991        1990
         4        1890        1891        1992        1991
         4        1891        1892        1993        1992
         4        1892        1893        1994        1993
         4        1893        1894        1995        1994
         4        1894        1895        1996        1995
         4        1895        1896        1997        1996
         4        1896        1897        1998        1997
         4        1897        1898        1999        1998
         4        1898        1899        2000        1999
         4        1899        1900        2001        2000
         4        1900        1901        2002        2001
         4        1901        1902        2003        2002
         4        1902        1903        2004        2003
         4        1903        1904        2005        2004
         4        1904        1905        2006        2005
         4        1905        1906        2007        2006
         4        1906        1907        2008        2007
         4        1907        1908        2009        2008
         4        1908        1909        2010        2009
         4        1909        1910        2011        2010
         4        1910        1911        2012        2011
         4        1911        1912        2013        2012
         4        1912        1913        2014        2013
         4        1913        1914        2015        2014
         4        1914        1915        2016        2015
         4        1915        1916        2017        2016
         4        1916        1917        2018        2017
         4        1917        1918        2019        2018
         4        1919        1920        2021        2020
         4        1920        1921        2022        2021
         4        1921        1922        2023        2022
         4        1922        1923        2024        2023
         4        1923        1924        2025        2024
         4        1924        1925        2026        2025
         4        1925        1926        2027        2026
         4        1926        1927        2028        2027
         4        1927        1928        2029        2028
         4        1928        1929        2030        2029
         4        1929        1930        2031        2030
         4        1930        1931        2032        2031
         4        1931        1932        2033        2032
         4        1932        1933        2034        2033
         4        1933        1934        2035        2034
         4        1934        1935        2036        2035
         4        1935        1936        2037        2036
         4        1936        1937        2038        2037
         4        1937        1938        2039        2038
         4        1938        1939        2040        2039
         4        1939        1940        2041        2040
         4        1940        1941        2042        2041
         4        1941        1942        2043        2042
         4        1942        1943        2044        2043
         4        1943        1944        2045        2044
         4        1944        1945        2046        2045
         4        1945        1946        2047        2046
         4        1946        1947        2048        2047
         4        1947        1948        2049        2048
         4        1948        1949        2050        2049
         4        1949        1950        2051        2050
         4        1950        1951        2052        2051
         4        1951        1952        2053        2052
         4        1952        1953        2054        2053
         4        1953        1954        2055        2054
         4        1954        1955        2056        2055
         4        1955        1956        2057        2056
         4        1956        1957        2058        2057
         4        1957        1958        2059        2058
         4        1958        1959        2060        2059
         4        1959        1960        2061        2060
         4        1960        1961        2062        2061
         4        1961        1962        2063        2062
         4        1962        1963        2064        2063
         4        1963        1964        2065        2064
         4        1964        1965        2066        2065
         4        1965        1966        2067        2066
         4        1966        1967        2068        2067
         4        1967        1968        2069        2068
         4        1968        1969        2070        2069
         4        1969        1970        2071        2070
         4        1970        1971        2072        2071
         4        1971        1972        2073        2072
         4        1972        1973        2074        2073
         4        1973        1974        2075        2074
         4        1974        1975        2076        2075
         4        1975        1976        2077        2076
         4        1976        1977        2078        2077
         4        1977        1978        2079        2078
         4        1978        1979        2080        2079
         4        1979        1980        2081        2080
         4        1980        1981        2082        2081
         4        1981        1982        2083        2082
         4        1982        1983        2084        2083
         4        1983        1984        2085        2084
         4        1984        1985        2086        2085
         4        1985        1986        2087        2086
         4        1986        1987        2088        2087
         4        1987        1988        2089        2088
         4        1988        1989        2090        2089
         4        1989        1990        2091        2090
         4        1990        1991        2092        2091
         4        1991        1992        2093        2092
         4        1992        1993        2094        2093
         4        1993        1994        2095        2094
         4        1994        1995        2096        2095
         4        1995        1996        2097        2096
         4        1996        1997        2098        2097
         4        1997        1998        2099        2098
         4        1998        1999        2100        2099
         4        1999        2000        2101        2100
         4        2000        2001        2102        2101
         4        2001        2002        2103        2102
         4        2002        2003        2104        2103
         4        2003        2004        2105        2104
         4        2004        2005        2106        2105
         4        2005        2006        2107        2106
         4        2006        2007        2108        2107
         4        2007        2008        2109        2108
         4        2008        2009        2110        2109
         4        2009        2010        2111        2110
         4        2010        2011        2112        2111
         4        2011        2012        2113        2112
         4        2012        2013        2114        2113
         4        2013        2014        2115        2114
         4        2014        2015        2116        2115
         4        2015        2016        2117        2116
         4        2016        2017        2118        2117
         4        2017        2018        2119        2118
         4        2018        2019        2120        2119
         4        2020        2021        2122        2121
         4        2021        2022        2123        2122
         4        2022        2023        2124        2123
         4        2023        2024        2125        2124
         4        2024        2025        2126        2125
         4        2025        2026        2127        2126
         4        2026        2027        2128        2127
         4        2027        2028        2129        2128
         4        2028        2029        2130        2129
         4        2029        2030        2131        2130
         4        2030        2031        2132        2131
         4        2031        2032        2133        2132
         4        2032        2033        2134        2133
         4        2033        2034        2135        2134
         4        2034        2035        2136        2135
         4        2035        2036        2137        2136
         4        2036        2037        2138        2137
         4        2037        2038        2139        2138
         4        2038        2039        2140        2139
         4        2039        2040        2141        2140
         4        2040        2041        2142        2141
         4        2041        2042        2143        2142
         4        2042        2043        2144        2143
         4        2043        2044        2145        2144
         4        2044        2045        2146        2145
         4        2045        2046        2147        2146
         4        2046        2047        2148        2147
         4        2047        2048        2149        2148
         4        2048        2049        2150        2149
         4        2049        2050        2151        2150
         4        2050        2051        2152        2151
         4        2051        2052        2153        2152
         4        2052        2053        2154        2153
         4        2053        2054        2155        2154
         4        2054        2055        2156        2155
         4        2055        2056        2157        2156
         4        2056        2057        2158        2157
         4        2057        2058        2159        2158
         4        2058        2059        2160        2159
         4        2059        2060        2161        2160
         4        2060        2061        2162        2161
         4        2061        2062        2163        2162
         4        2062        2063        2164        2163
         4        2063        2064        2165        2164
         4        2064        2065        2166        2165
         4        2065        2066        2167        2166
         4        2066        2067        2168        2167
         4        2067        2068        2169        2168
         4        2068        2069        2170        2169
         4        2069        2070        2171        2170
         4        2070        2071        2172        2171
         4        2071        2072        2173        2172
         4        2072        2073        2174        2173
         4        2073        2074        2175        2174
         4        2074        2075        2176        2175
         4        2075        2076        2177        2176
         4        2076        2077        2178        2177
         4        2077        2078        2179        2178
         4        2078        2079        2180        2179
         4        2079        2080        2181        2180
         4        2080        2081        2182        2181
         4        2081        2082        2183        2182
         4        2082        2083        2184        2183
         4        2083        2084        2185        2184
         4        2084        2085        2186        2185
         4        2085        2086        2187        2186
         4        2086        2087        2188        2187
         4        2087        2088        2189        2188
         4        2088        2089        2190        2189
         4        2089        2090        2191        2190
         4        2090        2091        2192        2191
         4        2091        2092        2193        2192
         4        2092        2093        2194        2193
         4        2093        2094        2195        2194
         4        2094        2095        2196        2195
         4        2095        2096        2197        2196
         4        2096        2097        2198        2197
         4        2097        2098        2199        2198
         4        2098        2099        2200        2199
         4        2099        2100        2201        2200
         4        2100        2101        2202        2201
         4        2101        2102        2203        2202
         4        2102        2103        2204        2203
         4        2103        2104        2205        2204
         4        2104        2105        2206        2205
         4        2105        2106        2207        2206
         4        2106        2107        2208        2207
         4        2107        2108        2209        2208
         4        2108        2109        2210        2209
         4        2109        2110        2211        2210
         4        2110        2111        2212        2211
         4        2111        2112        2213        2212
         4        2112        2113        2214        2213
         4        2113        2114        2215        2214
         4        2114        2115        2216        2215
         4        2115        2116        2217        2216
         4        2116        2117        2218        2217
         4        2117        2118        2219        2218
         4        2118        2119        2220        2219
         4        2119        2120        2221        2220
         4        2121        2122        2223        2222
         4        2122        2123        2224        2223
         4        2123        2124        2225        2224
         4        2124        2125        2226        2225
         4        2125        2126        2227        2226
         4        2126        2127        2228        2227
         4        2127        2128        2229        2228
         4        2128        2129        2230        2229
         4        2129        2130        2231        2230
         4        2130        2131        2232        2231
         4        2131        2132        2233        2232
         4        2132        2133        2234        2233
         4        2133        2134        2235        2234
         4        2134        2135        2236        2235
         4        2135        2136        2237        2236
         4        2136        2137        2238        2237
         4        2137        2138        2239        2238
         4        2138        2139        2240        2239
         4        2139        2140        2241        2240
         4        2140        2141        2242        2241
         4        2141        2142        2243        2242
         4        2142        2143        2244        2243
         4        2143        2144        2245        2244
         4        2144        2145        2246        2245
         4        2145        2146        2247        2246
         4        2146        2147        2248        2247
         4        2147        2148        2249        2248
         4        2148        2149        2250        2249
         4        2149        2150        2251        2250
         4        2150        2151        2252        2251
         4        2151        2152        2253        2252
         4        2152        2153        2254        2253
         4        2153        2154        2255        2254
         4        2154        2155        2256        2255
         4        2155        2156        2257        2256
         4        2156        2157        2258        2257
         4        2157        2158        2259        2258
         4        2158        2159        2260        2259
         4        2159        2160        2261        2260
         4        2160        2161        2262        2261
         4        2161        2162        2263        2262
         4        2162        2163        2264        2263
         4        2163        2164        2265        2264
         4        2164        2165        2266        2265
         4        2165        2166        2267        2266
         4        2166        2167        2268        2267
         4        2167        2168        2269        2268
         4        2168        2169        2270        2269
         4        2169        2170        2271        2270
         4        2170        2171        2272        2271
         4        2171        2172        2273        2272
         4        2172        2173        2274        2273
         4        2173        2174        2275        2274
         4        2174        2175        2276        2275
         4        2175        2176        2277        2276
         4        2176        2177        2278        2277
         4        2177        2178        2279        2278
         4        2178        2179        2280        2279
         4        2179        2180        2281        2280
         4        2180        2181        2282        2281
         4        2181        2182        2283        2282
         4        2182        2183        2284        2283
         4        2183        2184        2285        2284
         4        2184        2185        2286        2285
         4        2185        2186        2287        2286
         4        2186        2187        2288        2287
         4        2187        2188        2289        2288
         4        2188        2189        2290        2289
         4        2189        2190        2291        2290
         4        2190        2191        2292        2291
         4        2191        2192        2293        2292
         4        2192        2193        2294        2293
         4        2193        2194        2295        2294
         4        2194        2195        2296        2295
         4        2195        2196        2297        2296
         4        2196        2197        2298        2297
         4        2197        2198        2299        2298
         4        2198        2199        2300        2299
         4        2199        2200        2301        2300
         4        2200        2201        2302        2301
         4        2201        2202        2303        2302
         4        2202        2203        2304        2303
         4        2203        2204        2305        2304
         4        2204        2205        2306        2305
         4        2205        2206        2307        2306
         4        2206        2207        2308        2307
         4        2207        2208        2309        2308
         4        2208        2209        2310        2309
         4        2209        2210        2311        2310
         4        2210        2211        2312        2311
         4        2211        2212        2313        2312
         4        2212        2213        2314        2313
         4        2213        2214        2315        2314
         4        2214        2215        2316        2315
         4        2215        2216        2317        2316
         4        2216        2217        2318        2317
         4        2217        2218        2319        2318
         4        2218        2219        2320        2319
         4        2219        2220        2321        2320
         4        2220        2221        2322        2321
         4        2222        2223        2324        2323
         4        2223        2224        2325        2324
         4        2224        2225        2326        2325
         4        2225        2226        2327        2326
         4        2226        2227        2328        2327
         4        2227        2228        2329        2328
         4        2228        2229        2330        2329
         4        2229        2230        2331        2330
         4        2230        2231        2332        2331
         4        2231        2232        2333        2332
         4        2232        2233        2334        2333
         4        2233        2234        2335        2334
         4        2234        2235        2336        2335
         4        2235        2236        2337        2336
         4        2236        2237        2338        2337
         4        2237        2238        2339        2338
         4        2238        2239        2340        2339
         4        2239        2240        2341        2340
         4        2240        2241        2342        2341
         4        2241        2242        2343        2342
         4        2242        2243        2344        2343
         4        2243        2244        2345        2344
         4        2244        2245        2346        2345
         4        2245        2246        2347        2346
         4        2246        2247        2348        2347
         4        2247        2248        2349        2348
         4        2248        2249        2350        2349
         4        2249        2250        2351        2350
         4        2250        2251        2352        2351
         4        2251        2252        2353        2352
         4        2252        2253        2354        2353
         4        2253        2254        2355        2354
         4        2254        2255        2356        2355
         4        2255        2256        2357        2356
         4        2256        2257        2358        2357
         4        2257        2258        2359        2358
         4        2258        2259        2360        2359
         4        2259        2260        2361        2360
         4        2260        2261        2362        2361
         4        2261        2262        2363        2362
         4        2262        2263        2364        2363
         4        2263        2264        2365        2364
         4        2264        2265        2366        2365
         4        2265        2266        2367        2366
         4        2266        2267        2368        2367
         4        2267        2268        2369        2368
         4        2268        2269        2370        2369
         4        2269        2270        2371        2370
         4        2270        2271        2372        2371
         4        2271        2272        2373        2372
         4        2272        2273        2374        2373
         4        2273        2274        2375        2374
         4        2274        2275        2376        2375
         4        2275        2276        2377        2376
         4        2276        2277        2378        2377
         4        2277        2278        2379        2378
         4        2278        2279        2380        2379
         4        2279        2280        2381        2380
         4        2280        2281        2382        2381
         4        2281        2282        2383        2382
         4        2282        2283        2384        2383
         4        2283        2284        2385        2384
         4        2284        2285        2386        2385
         4        2285        2286        2387        2386
         4        2286        2287        2388        2387
         4        2287        2288        2389        2388
         4        2288        2289        2390        2389
         4        2289        2290        2391        2390
         4        2290        2291        2392        2391
         4        2291        2292        2393        2392
         4        2292        2293        2394        2393
         4        2293        2294        2395        2394
         4        2294        2295        2396        2395
         4        2295        2296        2397        2396
         4        2296        2297        2398        2397
         4        2297        2298        2399        2398
         4        2298        2299        2400        2399
         4        2299        2300        2401        2400
         4        2300        2301        2402        2401
         4        2301        2302        2403        2402
         4        2302        2303        2404        2403
         4        2303        2304        2405        2404
         4        2304        2305        2406        2405
         4        2305        2306        2407        2406
         4        2306        2307        2408        2407
         4        2307        2308        2409        2408
         4        2308        2309        2410        2409
         4        2309        2310        2411        2410
         4        2310        2311        2412        2411
         4        2311        2312        2413        2412
         4        2312        2313        2414        2413
         4        2313        2314        2415        2414
         4        2314        2315        2416        2415
         4        2315        2316        2417        2416
         4        2316        2317        2418        2417
         4        2317        2318        2419        2418
         4        2318        2319        2420        2419
         4        2319        2320        2421        2420
         4        2320        2321        2422        2421
         4        2321        2322        2423        2422
         4        2323        2324        2425        2424
         4        2324        2325        2426        2425
         4        2325        2326        2427        2426
         4        2326        2327        2428        2427
         4        2327        2328        2429        2428
         4        2328        2329        2430        2429
         4        2329        2330        2431        2430
         4        2330        2331        2432        2431
         4        2331        2332        2433        2432
         4        2332        2333        2434        2433
         4        2333        2334        2435        2434
         4        2334        2335        2436        2435
         4        2335        2336        2437        2436
         4        2336        2337        2438        2437
         4        2337        2338        2439        2438
         4        2338        2339        2440        2439
         4        2339        2340        2441        2440
         4        2340        2341        2442        2441
         4        2341        2342        2443        2442
         4        2342        2343        2444        2443
         4        2343        2344        2445        2444
         4        2344        2345        2446        2445
         4        2345        2346        2447        2446
         4        2346        2347        2448        2447
         4        2347        2348        2449        2448
         4        2348        2349        2450        2449
         4        2349        2350        2451        2450
         4        2350        2351        2452        2451
         4        2351        2352        2453        2452
         4        2352        2353        2454        2453
         4        2353        2354        2455        2454
         4        2354        2355        2456        2455
         4        2355        2356        2457        2456
         4        2356        2357        2458        2457
         4        2357        2358        2459        2458
         4        2358        2359        2460        2459
         4        2359        2360        2461        2460
         4        2360        2361        2462        2461
         4        2361        2362        2463        2462
         4        2362        2363        2464        2463
         4        2363        2364        2465        2464
         4        2364        2365        2466        2465
         4        2365        2366        2467        2466
         4        2366        2367        2468        2467
         4        2367        2368        2469        2468
         4        2368        2369        2470        2469
         4        2369        2370        2471        2470
         4        2370        2371        2472        2471
         4        2371        2372        2473        2472
         4        2372        2373        2474        2473
         4        2373        2374        2475        2474
         4        2374        2375        2476        2475
         4        2375        2376        2477        2476
         4        2376        2377        2478        2477
         4        2377        2378        2479        2478
         4        2378        2379        2480        2479
         4        2379        2380        2481        2480
         4        2380        2381        2482        2481
         4        2381        2382        2483        2482
         4        2382        2383        2484        2483
         4        2383        2384        2485        2484
         4        2384        2385        2486        2485
         4        2385        2386        2487        2486
         4        2386        2387        2488        2487
         4        2387        2388        2489        2488
         4        2388        2389        2490        2489
         4        2389        2390        2491        2490
         4        2390        2391        2492        2491
         4        2391        2392        2493        2492
         4        2392        2393        2494        2493
         4        2393        2394        2495        2494
         4        2394        2395        2496        2495
         4        2395        2396        2497        2496
         4        2396        2397        2498        2497
         4        2397        2398        2499        2498
         4        2398        2399        2500        2499
         4        2399        2400        2501        2500
         4        2400        2401        2502        2501
         4        2401        2402        2503        2502
         4        2402        2403        2504        2503
         4        2403        2404        2505        2504
         4        2404        2405        2506        2505
         4        2405        2406        2507        2506
         4        2406        2407        2508        2507
         4        2407        2408        2509        2508
         4        2408        2409        2510        2509
         4        2409        2410        2511        2510
         4        2410        2411        2512        2511
         4        2411        2412        2513        2512
         4        2412        2413        2514        2513
         4        2413        2414        2515        2514
         4        2414        2415        2516        2515
         4        2415        2416        2517        2516
         4        2416        2417        2518        2517
         4        2417        2418        2519        2518
         4        2418        2419        2520        2519
         4        2419        2420        2521        2520
         4        2420        2421        2522        2521
         4        2421        2422        2523        2522
         4        2422        2423        2524        2523
         4        2424        2425        2526        2525
         4        2425        2426        2527        2526
         4        2426        2427        2528        2527
         4        2427        2428        2529        2528
         4        2428        2429        2530        2529
         4        2429        2430        2531        2530
         4        2430        2431        2532        2531
         4        2431        2432        2533        2532
         4        2432        2433        2534        2533
         4        2433        2434        2535        2534
         4        2434        2435        2536        2535
         4        2435        2436        2537        2536
         4        2436        2437        2538        2537
         4        2437        2438        2539        2538
         4        2438        2439        2540        2539
         4        2439        2440        2541        2540
         4        2440        2441        2542        2541
         4        2441        2442        2543        2542
         4        2442        2443        2544        2543
         4        2443        2444        2545        2544
         4        2444        2445        2546        2545
         4        2445        2446        2547        2546
         4        2446        2447        2548        2547
         4        2447        2448        2549        2548
         4        2448        2449        2550        2549
         4        2449        2450        2551        2550
         4        2450        2451        2552        2551
         4        2451        2452        2553        2552
         4        2452        2453        2554        2553
         4        2453        2454        2555        2554
         4        2454        2455        2556        2555
         4        2455        2456        2557        2556
         4        2456        2457        2558        2557
         4        2457        2458        2559        2558
         4        2458        2459        2560        2559
         4        2459        2460        2561        2560
         4        2460        2461        2562        2561
         4        2461        2462        2563        2562
         4        2462        2463        2564        2563
         4        2463        2464        2565        2564
         4        2464        2465        2566        2565
         4        2465        2466        2567        2566
         4        2466        2467        2568        2567
         4        2467        2468        2569        2568
         4        2468        2469        2570        2569
         4        2469        2470        2571        2570
         4        2470        2471        2572        2571
         4        2471        2472        2573        2572
         4        2472        2473        2574        2573
         4        2473        2474        2575        2574
         4        2474        2475        2576        2575
         4        2475        2476        2577        2576
         4        2476        2477        2578        2577
         4        2477        2478        2579        2578
         4        2478        2479        2580        2579
         4        2479        2480        2581        2580
         4        2480        2481        2582        2581
         4        2481        2482        2583        2582
         4        2482        2483        2584        2583
         4        2483        2484        2585        2584
         4        2484        2485        2586        2585
         4        2485        2486        2587        2586
         4        2486        2487        2588        2587
         4        2487        2488        2589        2588
         4        2488        2489        2590        2589
         4        2489        2490        2591        2590
         4        2490        2491        2592        2591
         4        2491        2492        2593        2592
         4        2492        2493        2594        2593
         4        2493        2494        2595        2594
         4        2494        2495        2596        2595
         4        2495        2496        2597        2596
         4        2496        2497        2598        2597
         4        2497        2498        2599        2598
         4        2498        2499        2600        2599
         4        2499        2500        2601        2600
         4        2500        2501        2602        2601
         4        2501        2502        2603        2602
         4        2502        2503        2604        2603
         4        2503        2504        2605        2604
         4        2504        2505        2606        2605
         4        2505        2506        2607        2606
         4        2506        2507        2608        2607
         4        2507        2508        2609        2608
         4        2508        2509        2610        2609
         4        2509        2510        2611        2610
         4        2510        2511        2612        2611
         4        2511        2512        2613        2612
         4        2512        2513        2614        2613
         4        2513        2514        2615        2614
         4        2514        2515        2616        2615
         4        2515        2516        2617        2616
         4        2516        2517        2618        2617
         4        2517        2518        2619        2618
         4        2518        2519        2620        2619
         4        2519        2520        2621        2620
         4        2520        2521        2622        2621
         4        2521        2522        2623        2622
         4        2522        2523        2624        2623
         4        2523        2524        2625        2624
         4        2525        2526        2627        2626
         4        2526        2527        2628        2627
         4        2527        2528        2629        2628
         4        2528        2529        2630        2629
         4        2529        2530        2631        2630
         4        2530        2531        2632        2631
         4        2531        2532        2633        2632
         4        2532        2533        2634        2633
         4        2533        2534        2635        2634
         4        2534        2535        2636        2635
         4        2535        2536        2637        2636
         4        2536        2537        2638        2637
         4        2537        2538        2639        2638
         4        2538        2539        2640        2639
         4        2539        2540        2641        2640
         4        2540        2541        2642        2641
         4        2541        2542        2643        2642
         4        2542        2543        2644        2643
         4        2543        2544        2645        2644
         4        2544        2545        2646        2645
         4        2545        2546        2647        2646
         4        2546        2547        2648        2647
         4        2547        2548        2649        2648
         4        2548        2549        2650        2649
         4        2549        2550        2651        2650
         4        2550        2551        2652        2651
         4        2551        2552        2653        2652
         4        2552        2553        2654        2653
         4        2553        2554        2655        2654
         4        2554        2555        2656        2655
         4        2555        2556        2657        2656
         4        2556        2557        2658        2657
         4        2557        2558        2659        2658
         4        2558        2559        2660        2659
         4        2559        2560        2661        2660
         4        2560        2561        2662        2661
         4        2561        2562        2663        2662
         4        2562        2563        2664        2663
         4        2563        2564        2665        2664
         4        2564        2565        2666        2665
         4        2565        2566        2667        2666
         4        2566        2567        2668        2667
         4        2567        2568        2669        2668
         4        2568        2569        2670        2669
         4        2569        2570        2671        2670
         4        2570        2571        2672        2671
         4        2571        2572        2673        2672
         4        2572        2573        2674        2673
         4        2573        2574        2675        2674
         4        2574        2575        2676        2675
         4        2575        2576        2677        2676
         4        2576        2577        2678        2677
         4        2577        2578        2679        2678
         4        2578        2579        2680        2679
         4        2579        2580        2681        2680
         4        2580        2581        2682        2681
         4        2581        2582        2683        2682
         4        2582        2583        2684        2683
         4        2583        2584        2685        2684
         4        2584        2585        2686        2685
         4        2585        2586        2687        2686
         4        2586        2587        2688        2687
         4        2587        2588        2689        2688
         4        2588        2589        2690        2689
         4        2589        2590        2691        2690
         4        2590        2591        2692        2691
         4        2591        2592        2693        2692
         4        2592        2593        2694        2693
         4        2593        2594        2695        2694
         4        2594        2595        2696        2695
         4        2595        2596        2697        2696
         4        2596        2597        2698        2697
         4        2597        2598        2699        2698
         4        2598        2599        2700        2699
         4        2599        2600        2701        2700
         4        2600        2601        2702        2701
         4        2601        2602        2703        2702
         4        2602        2603        2704        2703
         4        2603        2604        2705        2704
         4        2604        2605        2706        2705
         4        2605        2606        2707        2706
         4        2606        2607        2708        2707
         4        2607        2608        2709        2708
         4        2608        2609        2710        2709
         4        2609        2610        2711        2710
         4        2610        2611        2712        2711
         4        2611        2612        2713        2712
         4        2612        2613        2714        2713
         4        2613        2614        2715        2714
         4        2614        2615        2716        2715
         4        2615        2616        2717        2716
         4        2616        2617        2718        2717
         4        2617        2618        2719        2718
         4        2618        2619        2720        2719
         4        2619        2620        2721        2720
         4        2620        2621        2722        2721
         4        2621        2622        2723        2722
         4        2622        2623        2724        2723
         4        2623        2624        2725        2724
         4        2624        2625        2726        2725
         4        2626        2627        2728        2727
         4        2627        2628        2729        2728
         4        2628        2629        2730        2729
         4        2629        2630        2731        2730
         4        2630        2631        2732        2731
         4        2631        2632        2733        2732
         4        2632        2633        2734        2733
         4        2633        2634        2735        2734
         4        2634        2635        2736        2735
         4        2635        2636        2737        2736
         4        2636        2637        2738        2737
         4        2637        2638        2739        2738
         4        2638        2639        2740        2739
         4        2639        2640        2741        2740
         4        2640        2641        2742        2741
         4        2641        2642        2743        2742
         4        2642        2643        2744        2743
         4        2643        2644        2745        2744
         4        2644        2645        2746        2745
         4        2645        2646        2747        2746
         4        2646        2647        2748        2747
         4        2647        2648        2749        2748
         4        2648        2649        2750        2749
         4        2649        2650        2751        2750
         4        2650        2651        2752        2751
         4        2651        2652        2753        2752
         4        2652        2653        2754        2753
         4        2653        2654        2755        2754
         4        2654        2655        2756        2755
         4        2655        2656        2757        2756
         4        2656        2657        2758        2757
         4        2657        2658        2759        2758
         4        2658        2659        2760        2759
         4        2659        2660        2761        2760
         4        2660        2661        2762        2761
         4        2661        2662        2763        2762
         4        2662        2663        2764        2763
         4        2663        2664        2765        2764
         4        2664        2665        2766        2765
         4        2665        2666        2767        2766
         4        2666        2667        2768        2767
         4        2667        2668        2769        2768
         4        2668        2669        2770        2769
         4        2669        2670        2771        2770
         4        2670        2671        2772        2771
         4        2671        2672        2773        2772
         4        2672        2673        2774        2773
         4        2673        2674        2775        2774
         4        2674        2675        2776        2775
         4        2675        2676        2777        2776
         4        2676        2677        2778        2777
         4        2677        2678        2779        2778
         4        2678        2679        2780        2779
         4        2679        2680        2781        2780
         4        2680        2681        2782        2781
         4        2681        2682        2783        2782
         4        2682        2683        2784        2783
         4        2683        2684        2785        2784
         4        2684        2685        2786        2785
         4        2685        2686        2787        2786
         4        2686        2687        2788        2787
         4        2687        2688        2789        2788
         4        2688        2689        2790        2789
         4        2689        2690        2791        2790
         4        2690        2691        2792        2791
         4        2691        2692        2793        2792
         4        2692        2693        2794        2793
         4        2693        2694        2795        2794
         4        2694        2695        2796        2795
         4        2695        2696        2797        2796
         4        2696        2697        2798        2797
         4        2697        2698        2799        2798
         4        2698        2699        2800        2799
         4        2699        2700        2801        2800
         4        2700        2701        2802        2801
         4        2701        2702        2803        2802
         4        2702        2703        2804        2803
         4        2703        2704        2805        2804
         4        2704        2705        2806        2805
         4        2705        2706        2807        2806
         4        2706        2707        2808        2807
         4        2707        2708        2809        2808
         4        2708        2709        2810        2809
         4        2709        2710        2811        2810
         4        2710        2711        2812        2811
         4        2711        2712        2813        2812
         4        2712        2713        2814        2813
         4        2713        2714        2815        2814
         4        2714        2715        2816        2815
         4        2715        2716        2817        2816
         4        2716        2717        2818        2817
         4        2717        2718        2819        2818
         4        2718        2719        2820        2819
         4        2719        2720        2821        2820
         4        2720        2721        2822        2821
         4        2721        2722        2823        2822
         4        2722        2723        2824        2823
         4        2723        2724        2825        2824
         4        2724        2725        2826        2825
         4        2725        2726        2827        2826
         4        2727        2728        2829        2828
         4        2728        2729        2830        2829
         4        2729        2730        2831        2830
         4        2730        2731        2832        2831
         4        2731        2732        2833        2832
         4        2732        2733        2834        2833
         4        2733        2734        2835        2834
         4        2734        2735        2836        2835
         4        2735        2736        2837        2836
         4        2736        2737        2838        2837
         4        2737        2738        2839        2838
         4        2738        2739        2840        2839
         4        2739        2740        2841        2840
         4        2740        2741        2842        2841
         4        2741        2742        2843        2842
         4        2742        2743        2844        2843
         4        2743        2744        2845        2844
         4        2744        2745        2846        2845
         4        2745        2746        2847        2846
         4        2746        2747        2848        2847
         4        2747        2748        2849        2848
         4        2748        2749        2850        2849
         4        2749        2750        2851        2850
         4        2750        2751        2852        2851
         4        2751        2752        2853        2852
         4        2752        2753        2854        2853
         4        2753        2754        2855        2854
         4        2754        2755        2856        2855
         4        2755        2756        2857        2856
         4        2756        2757        2858        2857
         4        2757        2758        2859        2858
         4        2758        2759        2860        2859
         4        2759        2760        2861        2860
         4        2760        2761        2862        2861
         4        2761        2762        2863        2862
         4        2762        2763        2864        2863
         4        2763        2764        2865        2864
         4        2764        2765        2866        2865
         4        2765        2766        2867        2866
         4        2766        2767        2868        2867
         4        2767        2768        2869        2868
         4        2768        2769        2870        2869
         4        2769        2770        2871        2870
         4        2770        2771        2872        2871
         4        2771        2772        2873        2872
         4        2772        2773        2874        2873
         4        2773        2774        2875        2874
         4        2774        2775        2876        2875
         4        2775        2776        2877        2876
         4        2776        2777        2878        2877
         4        2777        2778        2879        2878
         4        2778        2779        2880        2879
         4        2779        2780        2881        2880
         4        2780        2781        2882        2881
         4        2781        2782        2883        2882
         4        2782        2783        2884        2883
         4        2783        2784        2885        2884
         4        2784        2785        2886        2885
         4        2785        2786        2887        2886
         4        2786        2787        2888        2887
         4        2787        2788        2889        2888
         4        2788        2789        2890        2889
         4        2789        2790        2891        2890
         4        2790        2791        2892        2891
         4        2791        2792        2893        2892
         4        2792        2793        2894        2893
         4        2793        2794        2895        2894
         4        2794        2795        2896        2895
         4        2795        2796        2897        2896
         4        2796        2797        2898        2897
         4        2797        2798        2899        2898
         4        2798        2799        2900        2899
         4        2799        2800        2901        2900
         4        2800        2801        2902        2901
         4        2801        2802        2903        2902
         4        2802        2803        2904        2903
         4        2803        2804        2905        2904
         4        2804        2805        2906        2905
         4        2805        2806        2907        2906
         4        2806        2807        2908        2907
         4        2807        2808        2909        2908
         4        2808        2809        2910        2909
         4        2809        2810        2911        2910
         4        2810        2811        2912        2911
         4        2811        2812        2913        2912
         4        2812        2813        2914        2913
         4        2813        2814        2915        2914
         4        2814        2815        2916        2915
         4        2815        2816        2917        2916
         4        2816        2817        2918        2917
         4        2817        2818        2919        2918
         4        2818        2819        2920        2919
         4        2819        2820        2921        2920
         4        2820        2821        2922        2921
         4        2821        2822        2923        2922
         4        2822        2823        2924        2923
         4        2823        2824        2925        2924
         4        2824        2825        2926        2925
         4        2825        2826        2927        2926
         4        2826        2827        2928        2927
         4        2828        2829        2930        2929
         4        2829        2830        2931        2930
         4        2830        2831        2932        2931
         4        2831        2832        2933        2932
         4        2832        2833        2934        2933
         4        2833        2834        2935        2934
         4        2834        2835        2936        2935
         4        2835        2836        2937        2936
         4        2836        2837        2938        2937
         4        2837        2838        2939        2938
         4        2838        2839        2940        2939
         4        2839        2840        2941        2940
         4        2840        2841        2942        2941
         4        2841        2842        2943        2942
         4        2842        2843        2944        2943
         4        2843        2844        2945        2944
         4        2844        2845        2946        2945
         4        2845        2846        2947        2946
         4        2846        2847        2948        2947
         4        2847        2848        2949        2948
         4        2848        2849        2950        2949
         4        2849        2850        2951        2950
         4        2850        2851        2952        2951
         4        2851        2852        2953        2952
         4        2852        2853        2954        2953
         4        2853        2854        2955        2954
         4        2854        2855        2956        2955
         4        2855        2856        2957        2956
         4        2856        2857        2958        2957
         4        2857        2858        2959        2958
         4        2858        2859        2960        2959
         4        2859        2860        2961        2960
         4        2860        2861        2962        2961
         4        2861        2862        2963        2962
         4        2862        2863        2964        2963
         4        2863        2864        2965        2964
         4        2864        2865        2966        2965
         4        2865        2866        2967        2966
         4        2866        2867        2968        2967
         4        2867        2868        2969        2968
         4        2868        2869        2970        2969
         4        2869        2870        2971        2970
         4        2870        2871        2972        2971
         4        2871        2872        2973        2972
         4        2872        2873        2974        2973
         4        2873        2874        2975        2974
         4        2874        2875        2976        2975
         4        2875        2876        2977        2976
         4        2876        2877        2978        2977
         4        2877        2878        2979        2978
         4        2878        2879        2980        2979
         4        2879        2880        2981        2980
         4        2880        2881        2982        2981
         4        2881        2882        2983        2982
         4        2882        2883        2984        2983
         4        2883        2884        2985        2984
         4        2884        2885        2986        2985
         4        2885        2886        2987        2986
         4        2886        2887        2988        2987
         4        2887        2888        2989        2988
         4        2888        2889        2990        2989
         4        2889        2890        2991        2990
         4        2890        2891        2992        2991
         4        2891        2892        2993        2992
         4        2892        2893        2994        2993
         4        2893        2894        2995        2994
         4        2894        2895        2996        2995
         4        2895        2896        2997        2996
         4        2896        2897        2998        2997
         4        2897        2898        2999        2998
         4        2898        2899        3000        2999
         4        2899        2900        3001        3000
         4        2900        2901        3002        3001
         4        2901        2902        3003        3002
         4        2902        2903        3004        3003
         4        2903        2904        3005        3004
         4        2904        2905        3006        3005
         4        2905        2906        3007        3006
         4        2906        2907        3008        3007
         4        2907        2908        3009        3008
         4        2908        2909        3010        3009
         4        2909        2910        3011        3010
         4        2910        2911        3012        3011
         4        2911        2912        3013        3012
         4        2912        2913        3014        3013
         4        2913        2914        3015        3014
         4        2914        2915        3016        3015
         4        2915        2916        3017        3016
         4        2916        2917        3018        3017
         4        2917        2918        3019        3018
         4        2918        2919        3020        3019
         4        2919        2920        3021        3020
         4        2920        2921        3022        3021
         4        2921        2922        3023        3022
         4        2922        2923        3024        3023
         4        2923        2924        3025        3024
         4        2924        2925        3026        3025
         4        2925        2926        3027        3026
         4        2926        2927        3028        3027
         4        2927        2928        3029        3028
         4        2929        2930        3031        3030
         4        2930        2931        3032        3031
         4        2931        2932        3033        3032
         4        2932        2933        3034        3033
         4        2933        2934        3035        3034
         4        2934        2935        3036        3035
         4        2935        2936        3037        3036
         4        2936        2937        3038        3037
         4        2937        2938        3039        3038
         4        2938        2939        3040        3039
         4        2939        2940        3041        3040
         4        2940        2941        3042        3041
         4        2941        2942        3043        3042
         4        2942        2943        3044        3043
         4        2943        2944        3045        3044
         4        2944        2945        3046        3045
         4        2945        2946        3047        3046
         4        2946        2947        3048        3047
         4        2947        2948        3049        3048
         4        2948        2949        3050        3049
         4        2949        2950        3051        3050
         4        2950        2951        3052        3051
         4        2951        2952        3053        3052
         4        2952        2953        3054        3053
         4        2953        2954        3055        3054
         4        2954        2955        3056        3055
         4        2955        2956        3057        3056
         4        2956        2957        3058        3057
         4        2957        2958        3059        3058
         4        2958        2959        3060        3059
         4        2959        2960        3061        3060
         4        2960        2961        3062        3061
         4        2961        2962        3063        3062
         4        2962        2963        3064        3063
         4        2963        2964        3065        3064
         4        2964        2965        3066        3065
         4        2965        2966        3067        3066
         4        2966        2967        3068        3067
         4        2967        2968        3069        3068
         4        2968        2969        3070        3069
         4        2969        2970        3071        3070
         4        2970        2971        3072        3071
         4        2971        2972        3073        3072
         4        2972        2973        3074        3073
         4        2973        2974        3075        3074
         4        2974        2975        3076        3075
         4        2975        2976        3077        3076
         4        2976        2977        3078        3077
         4        2977        2978        3079        3078
         4        2978        2979        3080        3079
         4        2979        2980        3081        3080
         4        2980        2981        3082        3081
         4        2981        2982        3083        3082
         4        2982        2983        3084        3083
         4        2983        2984        3085        3084
         4        2984        2985        3086        3085
         4        2985        2986        3087        3086
         4        2986        2987        3088        3087
         4        2987        2988        3089        3088
         4        2988        2989        3090        3089
         4        2989        2990        3091        3090
         4        2990        2991        3092        3091
         4        2991        2992        3093        3092
         4        2992        2993        3094        3093
         4        2993        2994        3095        3094
         4        2994        2995        3096        3095
         4        2995        2996        3097        3096
         4        2996        2997        3098        3097
         4        2997        2998        3099        3098
         4        2998        2999        3100        3099
         4        2999        3000        3101        3100
         4        3000        3001        3102        3101
         4        3001        3002        3103        3102
         4        3002        3003        3104        3103
         4        3003        3004        3105        3104
         4        3004        3005        3106        3105
         4        3005        3006        3107        3106
         4        3006        3007        3108        3107
         4        3007        3008        3109        3108
         4        3008        3009        3110        3109
         4        3009        3010        3111        3110
         4        3010        3011        3112        3111
         4        3011        3012        3113        3112
         4        3012        3013        3114        3113
         4        3013        3014        3115        3114
         4        3014        3015        3116        3115
         4        3015        3016        3117        3116
         4        3016        3017        3118        3117
         4        3017        3018        3119        3118
         4        3018        3019        3120        3119
         4        3019        3020        3121        3120
         4        3020        3021        3122        3121
         4        3021        3022        3123        3122
         4        3022        3023        3124        3123
         4        3023        3024        3125        3124
         4        3024        3025        3126        3125
         4        3025        3026        3127        3126
         4        3026        3027        3128        3127
         4        3027        3028        3129        3128
         4        3028        3029        3130        3129
         4        3030        3031        3132        3131
         4        3031        3032        3133        3132
         4        3032        3033        3134        3133
         4        3033        3034        3135        3134
         4        3034        3035        3136        3135
         4        3035        3036        3137        3136
         4        3036        3037        3138        3137
         4        3037        3038        3139        3138
         4        3038        3039        3140        3139
         4        3039        3040        3141        3140
         4        3040        3041        3142        3141
         4        3041        3042        3143        3142
         4        3042        3043        3144        3143
         4        3043        3044        3145        3144
         4        3044        3045        3146        3145
         4        3045        3046        3147        3146
         4        3046        3047        3148        3147
         4        3047        3048        3149        3148
         4        3048        3049        3150        3149
         4        3049        3050        3151        3150
         4        3050        3051        3152        3151
         4        3051        3052        3153        3152
         4        3052        3053        3154        3153
         4        3053        3054        3155        3154
         4        3054        3055        3156        3155
         4        3055        3056        3157        3156
         4        3056        3057        3158        3157
         4        3057        3058        3159        3158
         4        3058        3059        3160        3159
         4        3059        3060        3161        3160
         4        3060        3061        3162        3161
         4        3061        3062        3163        3162
         4        3062        3063        3164        3163
         4        3063        3064        3165        3164
         4        3064        3065        3166        3165
         4        3065        3066        3167        3166
         4        3066        3067        3168        3167
         4        3067        3068        3169        3168
         4        3068        3069        3170        3169
         4        3069        3070        3171        3170
         4        3070        3071        3172        3171
         4        3071        3072        3173        3172
         4        3072        3073        3174        3173
         4        3073        3074        3175        3174
         4        3074        3075        3176        3175
         4        3075        3076        3177        3176
         4        3076        3077        3178        3177
         4        3077        3078        3179        3178
         4        3078        3079        3180        3179
         4        3079        3080        3181        3180
         4        3080        3081        3182        3181
         4        3081        3082        3183        3182
         4        3082        3083        3184        3183
         4        3083        3084        3185        3184
         4        3084        3085        3186        3185
         4        3085        3086        3187        3186
         4        3086        3087        3188        3187
         4        3087        3088        3189        3188
         4        3088        3089        3190        3189
         4        3089        3090        3191        3190
         4        3090        3091        3192        3191
         4        3091        3092        3193        3192
         4        3092        3093        3194        3193
         4        3093        3094        3195        3194
         4        3094        3095        3196        3195
         4        3095        3096        3197        3196
         4        3096        3097        3198        3197
         4        3097        3098        3199        3198
         4        3098        3099        3200        3199
         4        3099        3100        3201        3200
         4        3100        3101        3202        3201
         4        3101        3102        3203        3202
         4        3102        3103        3204        3203
         4        3103        3104        3205        3204
         4        3104        3105        3206        3205
         4        3105        3106        3207        3206
         4        3106        3107        3208        3207
         4        3107        3108        3209        3208
         4        3108        3109        3210        3209
         4        3109        3110        3211        3210
         4        3110        3111        3212        3211
         4        3111        3112        3213        3212
         4        3112        3113        3214        3213
         4        3113        3114        3215        3214
         4        3114        3115        3216        3215
         4        3115        3116        3217        3216
         4        3116        3117        3218        3217
         4        3117        3118        3219        3218
         4        3118        3119        3220        3219
         4        3119        3120        3221        3220
         4        3120        3121        3222        3221
         4        3121        3122        3223        3222
         4        3122        3123        3224        3223
         4        3123        3124        3225        3224
         4        3124        3125        3226        3225
         4        3125        3126        3227        3226
         4        3126        3127        3228        3227
         4        3127        3128        3229        3228
         4        3128        3129        3230        3229
         4        3129        3130        3231        3230
         4        3131        3132        3233        3232
         4        3132        3133        3234        3233
         4        3133        3134        3235        3234
         4        3134        3135        3236        3235
         4        3135        3136        3237        3236
         4        3136        3137        3238        3237
         4        3137        3138        3239        3238
         4        3138        3139        3240        3239
         4        3139        3140        3241        3240
         4        3140        3141        3242        3241
         4        3141        3142        3243        3242
         4        3142        3143        3244        3243
         4        3143        3144        3245        3244
         4        3144        3145        3246        3245
         4        3145        3146        3247        3246
         4        3146        3147        3248        3247
         4        3147        3148        3249        3248
         4        3148        3149        3250        3249
         4        3149        3150        3251        3250
         4        3150        3151        3252        3251
         4        3151        3152        3253        3252
         4        3152        3153        3254        3253
         4        3153        3154        3255        3254
         4        3154        3155        3256        3255
         4        3155        3156        3257        3256
         4        3156        3157        3258        3257
         4        3157        3158        3259        3258
         4        3158        3159        3260        3259
         4        3159        3160        3261        3260
         4        3160        3161        3262        3261
         4        3161        3162        3263        3262
         4        3162        3163        3264        3263
         4        3163        3164        3265        3264
         4        3164        3165        3266        3265
         4        3165        3166        3267        3266
         4        3166        3167        3268        3267
         4        3167        3168        3269        3268
         4        3168        3169        3270        3269
         4        3169        3170        3271        3270
         4        3170        3171        3272        3271
         4        3171        3172        3273        3272
         4        3172        3173        3274        3273
         4        3173        3174        3275        3274
         4        3174        3175        3276        3275
         4        3175        3176        3277        3276
         4        3176        3177        3278        3277
         4        3177        3178        3279        3278
         4        3178        3179        3280        3279
         4        3179        3180        3281        3280
         4        3180        3181        3282        3281
         4        3181        3182        3283        3282
         4        3182        3183        3284        3283
         4        3183        3184        3285        3284
         4        3184        3185        3286        3285
         4        3185        3186        3287        3286
         4        3186        3187        3288        3287
         4        3187        3188        3289        3288
         4        3188        3189        3290        3289
         4        3189        3190        3291        3290
         4        3190        3191        3292        3291
         4        3191        3192        3293        3292
         4        3192        3193        3294        3293
         4        3193        3194        3295        3294
         4        3194        3195        3296        3295
         4        3195        3196        3297        3296
         4        3196        3197        3298        3297
         4        3197        3198        3299        3298
         4        3198        3199        3300        3299
         4        3199        3200        3301        3300
         4        3200        3201        3302        3301
         4        3201        3202        3303        3302
         4        3202        3203        3304        3303
         4        3203        3204        3305        3304
         4        3204        3205        3306        3305
         4        3205        3206        3307        3306
         4        3206        3207        3308        3307
         4        3207        3208        3309        3308
         4        3208        3209        3310        3309
         4        3209        3210        3311        3310
         4        3210        3211        3312        3311
         4        3211        3212        3313        3312
         4        3212        3213        3314        3313
         4        3213        3214        3315        3314
         4        3214        3215        3316        3315
         4        3215        3216        3317        3316
         4        3216        3217        3318        3317
         4        3217        3218        3319        3318
         4        3218        3219        3320        3319
         4        3219        3220        3321        3320
         4        3220        3221        3322        3321
         4        3221        3222        3323        3322
         4        3222        3223        3324        3323
         4        3223        3224        3325        3324
         4        3224        3225        3326        3325
         4        3225        3226        3327        3326
         4        3226        3227        3328        3327
         4        3227        3228        3329        3328
         4        3228        3229        3330        3329
         4        3229        3230        3331        3330
         4        3230        3231        3332        3331
         4        3232        3233        3334        3333
         4        3233        3234        3335        3334
         4        3234        3235        3336        3335
         4        3235        3236        3337        3336
         4        3236        3237        3338        3337
         4        3237        3238        3339        3338
         4        3238        3239        3340        3339
         4        3239        3240        3341        3340
         4        3240        3241        3342        3341
         4        3241        3242        3343        3342
         4        3242        3243        3344        3343
         4        3243        3244        3345        3344
         4        3244        3245        3346        3345
         4        3245        3246        3347        3346
         4        3246        3247        3348        3347
         4        3247        3248        3349        3348
         4        3248        3249        3350        3349
         4        3249        3250        3351        3350
         4        3250        3251        3352        3351
         4        3251        3252        3353        3352
         4        3252        3253        3354        3353
         4        3253        3254        3355        3354
         4        3254        3255        3356        3355
         4        3255        3256        3357        3356
         4        3256        3257        3358        3357
         4        3257        3258        3359        3358
         4        3258        3259        3360        3359
         4        3259        3260        3361        3360
         4        3260        3261        3362        3361
         4        3261        3262        3363        3362
         4        3262        3263        3364        3363
         4        3263        3264        3365        3364
         4        3264        3265        3366        3365
         4        3265        3266        3367        3366
         4        3266        3267        3368        3367
         4        3267        3268        3369        3368
         4        3268        3269        3370        3369
         4        3269        3270        3371        3370
         4        3270        3271        3372        3371
         4        3271        3272        3373        3372
         4        3272        3273        3374        3373
         4        3273        3274        3375        3374
         4        3274        3275        3376        3375
         4        3275        3276        3377        3376
         4        3276        3277        3378        3377
         4        3277        3278        3379        3378
         4        3278        3279        3380        3379
         4        3279        3280        3381        3380
         4        3280        3281        3382        3381
         4        3281        3282        3383        3382
         4        3282        3283        3384        3383
         4        3283        3284        3385        3384
         4        3284        3285        3386        3385
         4        3285        3286        3387        3386
         4        3286        3287        3388        3387
         4        3287        3288        3389        3388
         4        3288        3289        3390        3389
         4        3289        3290        3391        3390
         4        3290        3291        3392        3391
         4        3291        3292        3393        3392
         4        3292        3293        3394        3393
         4        3293        3294        3395        3394
         4        3294        3295        3396        3395
         4        3295        3296        3397        3396
         4        3296        3297        3398        3397
         4        3297        3298        3399        3398
         4        3298        3299        3400        3399
         4        3299        3300        3401        3400
         4        3300        3301        3402        3401
         4        3301        3302        3403        3402
         4        3302        3303        3404        3403
         4        3303        3304        3405        3404
         4        3304        3305        3406        3405
         4        3305        3306        3407        3406
         4        3306        3307        3408        3407
         4        3307        3308        3409        3408
         4        3308        3309        3410        3409
         4        3309        3310        3411        3410
         4        3310        3311        3412        3411
         4        3311        3312        3413        3412
         4        3312        3313        3414        3413
         4        3313        3314        3415        3414
         4        3314        3315        3416        3415
         4        3315        3316        3417        3416
         4        3316        3317        3418        3417
         4        3317        3318        3419        3418
         4        3318        3319        3420        3419
         4        3319        3320        3421        3420
         4        3320        3321        3422        3421
         4        3321        3322        3423        3422
         4        3322        3323        3424        3423
         4        3323        3324        3425        3424
         4        3324        3325        3426        3425
         4        3325        3326        3427        3426
         4        3326        3327        3428        3427
         4        3327        3328        3429        3428
         4        3328        3329        3430        3429
         4        3329        3330        3431        3430
         4        3330        3331        3432        3431
         4        3331        3332        3433        3432
         4        3333        3334        3435        3434
         4        3334        3335        3436        3435
         4        3335        3336        3437        3436
         4        3336        3337        3438        3437
         4        3337        3338        3439        3438
         4        3338        3339        3440        3439
         4        3339        3340        3441        3440
         4        3340        3341        3442        3441
         4        3341        3342        3443        3442
         4        3342        3343        3444        3443
         4        3343        3344        3445        3444
         4        3344        3345        3446        3445
         4        3345        3346        3447        3446
         4        3346        3347        3448        3447
         4        3347        3348        3449        3448
         4        3348        3349        3450        3449
         4        3349        3350        3451        3450
         4        3350        3351        3452        3451
         4        3351        3352        3453        3452
         4        3352        3353        3454        3453
         4        3353        3354        3455        3454
         4        3354        3355        3456        3455
         4        3355        3356        3457        3456
         4        3356        3357        3458        3457
         4        3357        3358        3459        3458
         4        3358        3359        3460        3459
         4        3359        3360        3461        3460
         4        3360        3361        3462        3461
         4        3361        3362        3463        3462
         4        3362        3363        3464        3463
         4        3363        3364        3465        3464
         4        3364        3365        3466        3465
         4        3365        3366        3467        3466
         4        3366        3367        3468        3467
         4        3367        3368        3469        3468
         4        3368        3369        3470        3469
         4        3369        3370        3471        3470
         4        3370        3371        3472        3471
         4        3371        3372        3473        3472
         4        3372        3373        3474        3473
         4        3373        3374        3475        3474
         4        3374        3375        3476        3475
         4        3375        3376        3477        3476
         4        3376        3377        3478        3477
         4        3377        3378        3479        3478
         4        3378        3379        3480        3479
         4        3379        3380        3481        3480
         4        3380        3381        3482        3481
         4        3381        3382        3483        3482
         4        3382        3383        3484        3483
         4        3383        3384        3485        3484
         4        3384        3385        3486        3485
         4        3385        3386        3487        3486
         4        3386        3387        3488        3487
         4        3387        3388        3489        3488
         4        3388        3389        3490        3489
         4        3389        3390        3491        3490
         4        3390        3391        3492        3491
         4        3391        3392        3493        3492
         4        3392        3393        3494        3493
         4        3393        3394        3495        3494
         4        3394        3395        3496        3495
         4        3395        3396        3497        3496
         4        3396        3397        3498        3497
         4        3397        3398        3499        3498
         4        3398        3399        3500        3499
         4        3399        3400        3501        3500
         4        3400        3401        3502        3501
         4        3401        3402        3503        3502
         4        3402        3403        3504        3503
         4        3403        3404        3505        3504
         4        3404        3405        3506        3505
         4        3405        3406        3507        3506
         4        3406        3407        3508        3507
         4        3407        3408        3509        3508
         4        3408        3409        3510        3509
         4        3409        3410        3511        3510
         4        3410        3411        3512        3511
         4        3411        3412        3513        3512
         4        3412        3413        3514        3513
         4        3413        3414        3515        3514
         4        3414        3415        3516        3515
         4        3415        3416        3517        3516
         4        3416        3417        3518        3517
         4        3417        3418        3519        3518
         4        3418        3419        3520        3519
         4        3419        3420        3521        3520
         4        3420        3421        3522        3521
         4        3421        3422        3523        3522
         4        3422        3423        3524        3523
         4        3423        3424        3525        3524
         4        3424        3425        3526        3525
         4        3425        3426        3527        3526
         4        3426        3427        3528        3527
         4        3427        3428        3529        3528
         4        3428        3429        3530        3529
         4        3429        3430        3531        3530
         4        3430        3431        3532        3531
         4        3431        3432        3533        3532
         4        3432        3433        3534        3533
         4        3434        3435        3536        3535
         4        3435        3436        3537        3536
         4        3436        3437        3538        3537
         4        3437        3438        3539        3538
         4        3438        3439        3540        3539
         4        3439        3440        3541        3540
         4        3440        3441        3542        3541
         4        3441        3442        3543        3542
         4        3442        3443        3544        3543
         4        3443        3444        3545        3544
         4        3444        3445        3546        3545
         4        3445        3446        3547        3546
         4        3446        3447        3548        3547
         4        3447        3448        3549        3548
         4        3448        3449        3550        3549
         4        3449        3450        3551        3550
         4        3450        3451        3552        3551
         4        3451        3452        3553        3552
         4        3452        3453        3554        3553
         4        3453        3454        3555        3554
         4        3454        3455        3556        3555
         4        3455        3456        3557        3556
         4        3456        3457        3558        3557
         4        3457        3458        3559        3558
         4        3458        3459        3560        3559
         4        3459        3460        3561        3560
         4        3460        3461        3562        3561
         4        3461        3462        3563        3562
         4        3462        3463        3564        3563
         4        3463        3464        3565        3564
         4        3464        3465        3566        3565
         4        3465        3466        3567        3566
         4        3466        3467        3568        3567
         4        3467        3468        3569        3568
         4        3468        3469        3570        3569
         4        3469        3470        3571        3570
         4        3470        3471        3572        3571
         4        3471        3472        3573        3572
         4        3472        3473        3574        3573
         4        3473        3474        3575        3574
         4        3474        3475        3576        3575
         4        3475        3476        3577        3576
         4        3476        3477        3578        3577
         4        3477        3478        3579        3578
         4        3478        3479        3580        3579
         4        3479        3480        3581        3580
         4        3480        3481        3582        3581
         4        3481        3482        3583        3582
         4        3482        3483        3584        3583
         4        3483        3484        3585        3584
         4        3484        3485        3586        3585
         4        3485        3486        3587        3586
         4        3486        3487        3588        3587
         4        3487        3488        3589        3588
         4        3488        3489        3590        3589
         4        3489        3490        3591        3590
         4        3490        3491        3592        3591
         4        3491        3492        3593        3592
         4        3492        3493        3594        3593
         4        3493        3494        3595        3594
         4        3494        3495        3596        3595
         4        3495        3496        3597        3596
         4        3496        3497        3598        3597
         4        3497        3498        3599        3598
         4        3498        3499        3600        3599
         4        3499        3500        3601        3600
         4        3500        3501        3602        3601
         4        3501        3502        3603        3602
         4        3502        3503        3604        3603
         4        3503        3504        3605        3604
         4        3504        3505        3606        3605
         4        3505        3506        3607        3606
         4        3506        3507        3608        3607
         4        3507        3508        3609        3608
         4        3508        3509        3610        3609
         4        3509        3510        3611        3610
         4        3510        3511        3612        3611
         4        3511        3512        3613        3612
         4        3512        3513        3614        3613
         4        3513        3514        3615        3614
         4        3514        3515        3616        3615
         4        3515        3516        3617        3616
         4        3516        3517        3618        3617
         4        3517        3518        3619        3618
         4        3518        3519        3620        3619
         4        3519        3520        3621        3620
         4        3520        3521        3622        3621
         4        3521        3522        3623        3622
         4        3522        3523        3624        3623
         4        3523        3524        3625        3624
         4        3524        3525        3626        3625
         4        3525        3526        3627        3626
         4        3526        3527        3628        3627
         4        3527        3528        3629        3628
         4        3528        3529        3630        3629
         4        3529        3530        3631        3630
         4        3530        3531        3632        3631
         4        3531        3532        3633        3632
         4        3532        3533        3634        3633
         4        3533        3534        3635        3634
         4        3535        3536        3637        3636
         4        3536        3537        3638        3637
         4        3537        3538        3639        3638
         4        3538        3539        3640        3639
         4        3539        3540        3641        3640
         4        3540        3541        3642        3641
         4        3541        3542        3643        3642
         4        3542        3543        3644        3643
         4        3543        3544        3645        3644
         4        3544        3545        3646        3645
         4        3545        3546        3647        3646
         4        3546        3547        3648        3647
         4        3547        3548        3649        3648
         4        3548        3549        3650        3649
         4        3549        3550        3651        3650
         4        3550        3551        3652        3651
         4        3551        3552        3653        3652
         4        3552        3553        3654        3653
         4        3553        3554        3655        3654
         4        3554        3555        3656        3655
         4        3555        3556        3657        3656
         4        3556        3557        3658        3657
         4        3557        3558        3659        3658
         4        3558        3559        3660        3659
         4        3559        3560        3661        3660
         4        3560        3561        3662        3661
         4        3561        3562        3663        3662
         4        3562        3563        3664        3663
         4        3563        3564        3665        3664
         4        3564        3565        3666        3665
         4        3565        3566        3667        3666
         4        3566        3567        3668        3667
         4        3567        3568        3669        3668
         4        3568        3569        3670        3669
         4        3569        3570        3671        3670
         4        3570        3571        3672        3671
         4        3571        3572        3673        3672
         4        3572        3573        3674        3673
         4        3573        3574        3675        3674
         4        3574        3575        3676        3675
         4        3575        3576        3677        3676
         4        3576        3577        3678        3677
         4        3577        3578        3679        3678
         4        3578        3579        3680        3679
         4        3579        3580        3681        3680
         4        3580        3581        3682        3681
         4        3581        3582        3683        3682
         4        3582        3583        3684        3683
         4        3583        3584        3685        3684
         4        3584        3585        3686        3685
         4        3585        3586        3687        3686
         4        3586        3587        3688        3687
         4        3587        3588        3689        3688
         4        3588        3589        3690        3689
         4        3589        3590        3691        3690
         4        3590        3591        3692        3691
         4        3591        3592        3693        3692
         4        3592        3593        3694        3693
         4        3593        3594        3695        3694
         4        3594        3595        3696        3695
         4        3595        3596        3697        3696
         4        3596        3597        3698        3697
         4        3597        3598        3699        3698
         4        3598        3599        3700        3699
         4        3599        3600        3701        3700
         4        3600        3601        3702        3701
         4        3601        3602        3703        3702
         4        3602        3603        3704        3703
         4        3603        3604        3705        3704
         4        3604        3605        3706        3705
         4        3605        3606        3707        3706
         4        3606        3607        3708        3707
         4        3607        3608        3709        3708
         4        3608        3609        3710        3709
         4        3609        3610        3711        3710
         4        3610        3611        3712        3711
         4        3611        3612        3713        3712
         4        3612        3613        3714        3713
         4        3613        3614        3715        3714
         4        3614        3615        3716        3715
         4        3615        3616        3717        3716
         4        3616        3617        3718        3717
         4        3617        3618        3719        3718
         4        3618        3619        3720        3719
         4        3619        3620        3721        3720
         4        3620        3621        3722        3721
         4        3621        3622        3723        3722
         4        3622        3623        3724        3723
         4        3623        3624        3725        3724
         4        3624        3625        3726        3725
         4        3625        3626        3727        3726
         4        3626        3627        3728        3727
         4        3627        3628        3729        3728
         4        3628        3629        3730        3729
         4        3629        3630        3731        3730
         4        3630        3631        3732        3731
         4        3631        3632        3733        3732
         4        3632        3633        3734        3733
         4        3633        3634        3735        3734
         4        3634        3635        3736        3735
         4        3636        3637        3738        3737
         4        3637        3638        3739        3738
         4        3638        3639        3740        3739
         4        3639        3640        3741        3740
         4        3640        3641        3742        3741
         4        3641        3642        3743        3742
         4        3642        3643        3744        3743
         4        3643        3644        3745        3744
         4        3644        3645        3746        3745
         4        3645        3646        3747        3746
         4        3646        3647        3748        3747
         4        3647        3648        3749        3748
         4        3648        3649        3750        3749
         4        3649        3650        3751        3750
         4        3650        3651        3752        3751
         4        3651        3652        3753        3752
         4        3652        3653        3754        3753
         4        3653        3654        3755        3754
         4        3654        3655        3756        3755
         4        3655        3656        3757        3756
         4        3656        3657        3758        3757
         4        3657        3658        3759        3758
         4        3658        3659        3760        3759
         4        3659        3660        3761        3760
         4        3660        3661        3762        3761
         4        3661        3662        3763        3762
         4        3662        3663        3764        3763
         4        3663        3664        3765        3764
         4        3664        3665        3766        3765
         4        3665        3666        3767        3766
         4        3666        3667        3768        3767
         4        3667        3668        3769        3768
         4        3668        3669        3770        3769
         4        3669        3670        3771        3770
         4        3670        3671        3772        3771
         4        3671        3672        3773        3772
         4        3672        3673        3774        3773
         4        3673        3674        3775        3774
         4        3674        3675        3776        3775
         4        3675        3676        3777        3776
         4        3676        3677        3778        3777
         4        3677        3678        3779        3778
         4        3678        3679        3780        3779
         4        3679        3680        3781        3780
         4        3680        3681        3782        3781
         4        3681        3682        3783        3782
         4        3682        3683        3784        3783
         4        3683        3684        3785        3784
         4        3684        3685        3786        3785
         4        3685        3686        3787        3786
         4        3686        3687        3788        3787
         4        3687        3688        3789        3788
         4        3688        3689        3790        3789
         4        3689        3690        3791        3790
         4        3690        3691        3792        3791
         4        3691        3692        3793        3792
         4        3692        3693        3794        3793
         4        3693        3694        3795        3794
         4        3694        3695        3796        3795
         4        3695        3696        3797        3796
         4        3696        3697        3798        3797
         4        3697        3698        3799        3798
         4        3698        3699        3800        3799
         4        3699        3700        3801        3800
         4        3700        3701        3802        3801
         4        3701        3702        3803        3802
         4        3702        3703        3804        3803
         4        3703        3704        3805        3804
         4        3704        3705        3806        3805
         4        3705        3706        3807        3806
         4        3706        3707        3808        3807
         4        3707        3708        3809        3808
         4        3708        3709        3810        3809
         4        3709        3710        3811        3810
         4        3710        3711        3812        3811
         4        3711        3712        3813        3812
         4        3712        3713        3814        3813
         4        3713        3714        3815        3814
         4        3714        3715        3816        3815
         4        3715        3716        3817        3816
         4        3716        3717        3818        3817
         4        3717        3718        3819        3818
         4        3718        3719        3820        3819
         4        3719        3720        3821        3820
         4        3720        3721        3822        3821
         4        3721        3722        3823        3822
         4        3722        3723        3824        3823
         4        3723        3724        3825        3824
         4        3724        3725        3826        3825
         4        3725        3726        3827        3826
         4        3726        3727        3828        3827
         4        3727        3728        3829        3828
         4        3728        3729        3830        3829
         4        3729        3730        3831        3830
         4        3730        3731        3832        3831
         4        3731        3732        3833        3832
         4        3732        3733        3834        3833
         4        3733        3734        3835        3834
         4        3734        3735        3836        3835
         4        3735        3736        3837        3836
         4        3737        3738        3839        3838
         4        3738        3739        3840        3839
         4        3739        3740        3841        3840
         4        3740        3741        3842        3841
         4        3741        3742        3843        3842
         4        3742        3743        3844        3843
         4        3743        3744        3845        3844
         4        3744        3745        3846        3845
         4        3745        3746        3847        3846
         4        3746        3747        3848        3847
         4        3747        3748        3849        3848
         4        3748        3749        3850        3849
         4        3749        3750        3851        3850
         4        3750        3751        3852        3851
         4        3751        3752        3853        3852
         4        3752        3753        3854        3853
         4        3753        3754        3855        3854
         4        3754        3755        3856        3855
         4        3755        3756        3857        3856
         4        3756        3757        3858        3857
         4        3757        3758        3859        3858
         4        3758        3759        3860        3859
         4        3759        3760        3861        3860
         4        3760        3761        3862        3861
         4        3761        3762        3863        3862
         4        3762        3763        3864        3863
         4        3763        3764        3865        3864
         4        3764        3765        3866        3865
         4        3765        3766        3867        3866
         4        3766        3767        3868        3867
         4        3767        3768        3869        3868
         4        3768        3769        3870        3869
         4        3769        3770        3871        3870
         4        3770        3771        3872        3871
         4        3771        3772        3873        3872
         4        3772        3773        3874        3873
         4        3773        3774        3875        3874
         4        3774        3775        3876        3875
         4        3775        3776        3877        3876
         4        3776        3777        3878        3877
         4        3777        3778        3879        3878
         4        3778        3779        3880        3879
         4        3779        3780        3881        3880
         4        3780        3781        3882        3881
         4        3781        3782        3883        3882
         4        3782        3783        3884        3883
         4        3783        3784        3885        3884
         4        3784        3785        3886        3885
         4        3785        3786        3887        3886
         4        3786        3787        3888        3887
         4        3787        3788        3889        3888
         4        3788        3789        3890        3889
         4        3789        3790        3891        3890
         4        3790        3791        3892        3891
         4        3791        3792        3893        3892
         4        3792        3793        3894        3893
         4        3793        3794        3895        3894
         4        3794        3795        3896        3895
         4        3795        3796        3897        3896
         4        3796        3797        3898        3897
         4        3797        3798        3899        3898
         4        3798        3799        3900        3899
         4        3799        3800        3901        3900
         4        3800        3801        3902        3901
         4        3801        3802        3903        3902
         4        3802        3803        3904        3903
         4        3803        3804        3905        3904
         4        3804        3805        3906        3905
         4        3805        3806        3907        3906
         4        3806        3807        3908        3907
         4        3807        3808        3909        3908
         4        3808        3809        3910        3909
         4        3809        3810        3911        3910
         4        3810        3811        3912        3911
         4        3811        3812        3913        3912
         4        3812        3813        3914        3913
         4        3813        3814        3915        3914
         4        3814        3815        3916        3915
         4        3815        3816        3917        3916
         4        3816        3817        3918        3917
         4        3817        3818        3919        3918
         4        3818        3819        3920        3919
         4        3819        3820        3921        3920
         4        3820        3821        3922        3921
         4        3821        3822        3923        3922
         4        3822        3823        3924        3923
         4        3823        3824        3925        3924
         4        3824        3825        3926        3925
         4        3825        3826        3927        3926
         4        3826        3827        3928        3927
         4        3827        3828        3929        3928
         4        3828        3829        3930        3929
         4        3829        3830        3931        3930
         4        3830        3831        3932        3931
         4        3831        3832        3933        3932
         4        3832        3833        3934        3933
         4        3833        3834        3935        3934
         4        3834        3835        3936        3935
         4        3835        3836        3937        3936
         4        3836        3837        3938        3937
         4        3838        3839        3940        3939
         4        3839        3840        3941        3940
         4        3840        3841        3942        3941
         4        3841        3842        3943        3942
         4        3842        3843        3944        3943
         4        3843        3844        3945        3944
         4        3844        3845        3946        3945
         4        3845        3846        3947        3946
         4        3846        3847        3948        3947
         4        3847        3848        3949        3948
         4        3848        3849        3950        3949
         4        3849        3850        3951        3950
         4        3850        3851        3952        3951
         4        3851        3852        3953        3952
         4        3852        3853        3954        3953
         4        3853        3854        3955        3954
         4        3854        3855        3956        3955
         4        3855        3856        3957        3956
         4        3856        3857        3958        3957
         4        3857        3858        3959        3958
         4        3858        3859        3960        3959
         4        3859        3860        3961        3960
         4        3860        3861        3962        3961
         4        3861        3862        3963        3962
         4        3862        3863        3964        3963
         4        3863        3864        3965        3964
         4        3864        3865        3966        3965
         4        3865        3866        3967        3966
         4        3866        3867        3968        3967
         4        3867        3868        3969        3968
         4        3868        3869        3970        3969
         4        3869        3870        3971        3970
         4        3870        3871        3972        3971
         4        3871        3872        3973        3972
         4        3872        3873        3974        3973
         4        3873        3874        3975        3974
         4        3874        3875        3976        3975
         4        3875        3876        3977        3976
         4        3876        3877        3978        3977
         4        3877        3878        3979        3978
         4        3878        3879        3980        3979
         4        3879        3880        3981        3980
         4        3880        3881        3982        3981
         4        3881        3882        3983        3982
         4        3882        3883        3984        3983
         4        3883        3884        3985        3984
         4        3884        3885        3986        3985
         4        3885        3886        3987        3986
         4        3886        3887        3988        3987
         4        3887        3888        3989        3988
         4        3888        3889        3990        3989
         4        3889        3890        3991        3990
         4        3890        3891        3992        3991
         4        3891        3892        3993        3992
         4        3892        3893        3994        3993
         4        3893        3894        3995        3994
         4        3894        3895        3996        3995
         4        3895        3896        3997        3996
         4        3896        3897        3998        3997
         4        3897        3898        3999        3998
         4        3898        3899        4000        3999
         4        3899        3900        4001        4000
         4        3900        3901        4002        4001
         4        3901        3902        4003        4002
         4        3902        3903        4004        4003
         4        3903        3904        4005        4004
         4        3904        3905        4006        4005
         4        3905        3906        4007        4006
         4        3906        3907        4008        4007
         4        3907        3908        4009        4008
         4        3908        3909        4010        4009
         4        3909        3910        4011        4010
         4        3910        3911        4012        4011
         4        3911        3912        4013        4012
         4        3912        3913        4014        4013
         4        3913        3914        4015        4014
         4        3914        3915        4016        4015
         4        3915        3916        4017        4016
         4        3916        3917        4018        4017
         4        3917        3918        4019        4018
         4        3918        3919        4020        4019
         4        3919        3920        4021        4020
         4        3920        3921        4022        4021
         4        3921        3922        4023        4022
         4        3922        3923        4024        4023
         4        3923        3924        4025        4024
         4        3924        3925        4026        4025
         4        3925        3926        4027        4026
         4        3926        3927        4028        4027
         4        3927        3928        4029        4028
         4        3928        3929        4030        4029
         4        3929        3930        4031        4030
         4        3930        3931        4032        4031
         4        3931        3932        4033        4032
         4        3932        3933        4034        4033
         4        3933        3934        4035        4034
         4        3934        3935        4036        4035
         4        3935        3936        4037        4036
         4        3936        3937        4038        4037
         4        3937        3938        4039        4038
         4        3939        3940        4041        4040
         4        3940        3941        4042        4041
         4        3941        3942        4043        4042
         4        3942        3943        4044        4043
         4        3943        3944        4045        4044
         4        3944        3945        4046        4045
         4        3945        3946        4047        4046
         4        3946        3947        4048        4047
         4        3947        3948        4049        4048
         4        3948        3949        4050        4049
         4        3949        3950        4051        4050
         4        3950        3951        4052        4051
         4        3951        3952        4053        4052
         4        3952        3953        4054        4053
         4        3953        3954        4055        4054
         4        3954        3955        4056        4055
         4        3955        3956        4057        4056
         4        3956        3957        4058        4057
         4        3957        3958        4059        4058
         4        3958        3959        4060        4059
         4        3959        3960        4061        4060
         4        3960        3961        4062        4061
         4        3961        3962        4063        4062
         4        3962        3963        4064        4063
         4        3963        3964        4065        4064
         4        3964        3965        4066        4065
         4        3965        3966        4067        4066
         4        3966        3967        4068        4067
         4        3967        3968        4069        4068
         4        3968        3969        4070        4069
         4        3969        3970        4071        4070
         4        3970        3971        4072        4071
         4        3971        3972        4073        4072
         4        3972        3973        4074        4073
         4        3973        3974        4075        4074
         4        3974        3975        4076        4075
         4        3975        3976        4077        4076
         4        3976        3977        4078        4077
         4        3977        3978        4079        4078
         4        3978        3979        4080        4079
         4        3979        3980        4081        4080
         4        3980        3981        4082        4081
         4        3981        3982        4083        4082
         4        3982        3983        4084        4083
         4        3983        3984        4085        4084
         4        3984        3985        4086        4085
         4        3985        3986        4087        4086
         4        3986        3987        4088        4087
         4        3987        3988        4089        4088
         4        3988        3989        4090        4089
         4        3989        3990        4091        4090
         4        3990        3991        4092        4091
         4        3991        3992        4093        4092
         4        3992        3993        4094        4093
         4        3993        3994        4095        4094
         4        3994        3995        4096        4095
         4        3995        3996        4097        4096
         4        3996        3997        4098        4097
         4        3997        3998        4099        4098
         4        3998        3999        4100        4099
         4        3999        4000        4101        4100
         4        4000        4001        4102        4101
         4        4001        4002        4103        4102
         4        4002        4003        4104        4103
         4        4003        4004        4105        4104
         4        4004        4005        4106        4105
         4        4005        4006        4107        4106
         4        4006        4007        4108        4107
         4        4007        4008        4109        4108
         4        4008        4009        4110        4109
         4        4009        4010        4111        4110
         4        4010        4011        4112        4111
         4        4011        4012        4113        4112
         4        4012        4013        4114        4113
         4        4013        4014        4115        4114
         4        4014        4015        4116        4115
         4        4015        4016        4117        4116
         4        4016        4017        4118        4117
         4        4017        4018        4119        4118
         4        4018        4019        4120        4119
         4        4019        4020        4121        4120
         4        4020        4021        4122        4121
         4        4021        4022        4123        4122
         4        4022        4023        4124        4123
         4        4023        4024        4125        4124
         4        4024        4025        4126        4125
         4        4025        4026        4127        4126
         4        4026        4027        4128        4127
         4        4027        4028        4129        4128
         4        4028        4029        4130        4129
         4        4029        4030        4131        4130
         4        4030        4031        4132        4131
         4        4031        4032        4133        4132
         4        4032        4033        4134        4133
         4        4033        4034        4135        4134
         4        4034        4035        4136        4135
         4        4035        4036        4137        4136
         4        4036        4037        4138        4137
         4        4037        4038        4139        4138
         4        4038        4039        4140        4139
         4        4040        4041        4142        4141
         4        4041        4042        4143        4142
         4        4042        4043        4144        4143
         4        4043        4044        4145        4144
         4        4044        4045        4146        4145
         4        4045        4046        4147        4146
         4        4046        4047        4148        4147
         4        4047        4048        4149        4148
         4        4048        4049        4150        4149
         4        4049        4050        4151        4150
         4        4050        4051        4152        4151
         4        4051        4052        4153        4152
         4        4052        4053        4154        4153
         4        4053        4054        4155        4154
         4        4054        4055        4156        4155
         4        4055        4056        4157        4156
         4        4056        4057        4158        4157
         4        4057        4058        4159        4158
         4        4058        4059        4160        4159
         4        4059        4060        4161        4160
         4        4060        4061        4162        4161
         4        4061        4062        4163        4162
         4        4062        4063        4164        4163
         4        4063        4064        4165        4164
         4        4064        4065        4166        4165
         4        4065        4066        4167        4166
         4        4066        4067        4168        4167
         4        4067        4068        4169        4168
         4        4068        4069        4170        4169
         4        4069        4070        4171        4170
         4        4070        4071        4172        4171
         4        4071        4072        4173        4172
         4        4072        4073        4174        4173
         4        4073        4074        4175        4174
         4        4074        4075        4176        4175
         4        4075        4076        4177        4176
         4        4076        4077        4178        4177
         4        4077        4078        4179        4178
         4        4078        4079        4180        4179
         4        4079        4080        4181        4180
         4        4080        4081        4182        4181
         4        4081        4082        4183        4182
         4        4082        4083        4184        4183
         4        4083        4084        4185        4184
         4        4084        4085        4186        4185
         4        4085        4086        4187        4186
         4        4086        4087        4188        4187
         4        4087        4088        4189        4188
         4        4088        4089        4190        4189
         4        4089        4090        4191        4190
         4        4090        4091        4192        4191
         4        4091        4092        4193        4192
         4        4092        4093        4194        4193
         4        4093        4094        4195        4194
         4        4094        4095        4196        4195
         4        4095        4096        4197        4196
         4        4096        4097        4198        4197
         4        4097        4098        4199        4198
         4        4098        4099        4200        4199
         4        4099        4100        4201        4200
         4        4100        4101        4202        4201
         4        4101        4102        4203        4202
         4        4102        4103        4204        4203
         4        4103        4104        4205        4204
         4        4104        4105        4206        4205
         4        4105        4106        4207        4206
         4        4106        4107        4208        4207
         4        4107        4108        4209        4208
         4        4108        4109        4210        4209
         4        4109        4110        4211        4210
         4        4110        4111        4212        4211
         4        4111        4112        4213        4212
         4        4112        4113        4214        4213
         4        4113        4114        4215        4214
         4        4114        4115        4216        4215
         4        4115        4116        4217        4216
         4        4116        4117        4218        4217
         4        4117        4118        4219        4218
         4        4118        4119        4220        4219
         4        4119        4120        4221        4220
         4        4120        4121        4222        4221
         4        4121        4122        4223        4222
         4        4122        4123        4224        4223
         4        4123        4124        4225        4224
         4        4124        4125        4226        4225
         4        4125        4126        4227        4226
         4        4126        4127        4228        4227
         4        4127        4128        4229        4228
         4        4128        4129        4230        4229
         4        4129        4130        4231        4230
         4        4130        4131        4232        4231
         4        4131        4132        4233        4232
         4        4132        4133        4234        4233
         4        4133        4134        4235        4234
         4        4134        4135        4236        4235
         4        4135        4136        4237        4236
         4        4136        4137        4238        4237
         4        4137        4138        4239        4238
         4        4138        4139        4240        4239
         4        4139        4140        4241        4240
         4        4141        4142        4243        4242
         4        4142        4143        4244        4243
         4        4143        4144        4245        4244
         4        4144        4145        4246        4245
         4        4145        4146        4247        4246
         4        4146        4147        4248        4247
         4        4147        4148        4249        4248
         4        4148        4149        4250        4249
         4        4149        4150        4251        4250
         4        4150        4151        4252        4251
         4        4151        4152        4253        4252
         4        4152        4153        4254        4253
         4        4153        4154        4255        4254
         4        4154        4155        4256        4255
         4        4155        4156        4257        4256
         4        4156        4157        4258        4257
         4        4157        4158        4259        4258
         4        4158        4159        4260        4259
         4        4159        4160        4261        4260
         4        4160        4161        4262        4261
         4        4161        4162        4263        4262
         4        4162        4163        4264        4263
         4        4163        4164        4265        4264
         4        4164        4165        4266        4265
         4        4165        4166        4267        4266
         4        4166        4167        4268        4267
         4        4167        4168        4269        4268
         4        4168        4169        4270        4269
         4        4169        4170        4271        4270
         4        4170        4171        4272        4271
         4        4171        4172        4273        4272
         4        4172        4173        4274        4273
         4        4173        4174        4275        4274
         4        4174        4175        4276        4275
         4        4175        4176        4277        4276
         4        4176        4177        4278        4277
         4        4177        4178        4279        4278
         4        4178        4179        4280        4279
         4        4179        4180        4281        4280
         4        4180        4181        4282        4281
         4        4181        4182        4283        4282
         4        4182        4183        4284        4283
         4        4183        4184        4285        4284
         4        4184        4185        4286        4285
         4        4185        4186        4287        4286
         4        4186        4187        4288        4287
         4        4187        4188        4289        4288
         4        4188        4189        4290        4289
         4        4189        4190        4291        4290
         4        4190        4191        4292        4291
         4        4191        4192        4293        4292
         4        4192        4193        4294        4293
         4        4193        4194        4295        4294
         4        4194        4195        4296        4295
         4        4195        4196        4297        4296
         4        4196        4197        4298        4297
         4        4197        4198        4299        4298
         4        4198        4199        4300        4299
         4        4199        4200        4301        4300
         4        4200        4201        4302        4301
         4        4201        4202        4303        4302
         4        4202        4203        4304        4303
         4        4203        4204        4305        4304
         4        4204        4205        4306        4305
         4        4205        4206        4307        4306
         4        4206        4207        4308        4307
         4        4207        4208        4309        4308
         4        4208        4209        4310        4309
         4        4209        4210        4311        4310
         4        4210        4211        4312        4311
         4        4211        4212        4313        4312
         4        4212        4213        4314        4313
         4        4213        4214        4315        4314
         4        4214        4215        4316        4315
         4        4215        4216        4317        4316
         4        4216        4217        4318        4317
         4        4217        4218        4319        4318
         4        4218        4219        4320        4319
         4        4219        4220        4321        4320
         4        4220        4221        4322        4321
         4        4221        4222        4323        4322
         4        4222        4223        4324        4323
         4        4223        4224        4325        4324
         4        4224        4225        4326        4325
         4        4225        4226        4327        4326
         4        4226        4227        4328        4327
         4        4227        4228        4329        4328
         4        4228        4229        4330        4329
         4        4229        4230        4331        4330
         4        4230        4231        4332        4331
         4        4231        4232        4333        4332
         4        4232        4233        4334        4333
         4        4233        4234        4335        4334
         4        4234        4235        4336        4335
         4        4235        4236        4337        4336
         4        4236        4237        4338        4337
         4        4237        4238        4339        4338
         4        4238        4239        4340        4339
         4        4239        4240        4341        4340
         4        4240        4241        4342        4341
         4        4242        4243        4344        4343
         4        4243        4244        4345        4344
         4        4244        4245        4346        4345
         4        4245        4246        4347        4346
         4        4246        4247        4348        4347
         4        4247        4248        4349        4348
         4        4248        4249        4350        4349
         4        4249        4250        4351        4350
         4        4250        4251        4352        4351
         4        4251        4252        4353        4352
         4        4252        4253        4354        4353
         4        4253        4254        4355        4354
         4        4254        4255        4356        4355
         4        4255        4256        4357        4356
         4        4256        4257        4358        4357
         4        4257        4258        4359        4358
         4        4258        4259        4360        4359
         4        4259        4260        4361        4360
         4        4260        4261        4362        4361
         4        4261        4262        4363        4362
         4        4262        4263        4364        4363
         4        4263        4264        4365        4364
         4        4264        4265        4366        4365
         4        4265        4266        4367        4366
         4        4266        4267        4368        4367
         4        4267        4268        4369        4368
         4        4268        4269        4370        4369
         4        4269        4270        4371        4370
         4        4270        4271        4372        4371
         4        4271        4272        4373        4372
         4        4272        4273        4374        4373
         4        4273        4274        4375        4374
         4        4274        4275        4376        4375
         4        4275        4276        4377        4376
         4        4276        4277        4378        4377
         4        4277        4278        4379        4378
         4        4278        4279        4380        4379
         4        4279        4280        4381        4380
         4        4280        4281        4382        4381
         4        4281        4282        4383        4382
         4        4282        4283        4384        4383
         4        4283        4284        4385        4384
         4        4284        4285        4386        4385
         4        4285        4286        4387        4386
         4        4286        4287        4388        4387
         4        4287        4288        4389        4388
         4        4288        4289        4390        4389
         4        4289        4290        4391        4390
         4        4290        4291        4392        4391
         4        4291        4292        4393        4392
         4        4292        4293        4394        4393
         4        4293        4294        4395        4394
         4        4294        4295        4396        4395
         4        4295        4296        4397        4396
         4        4296        4297        4398        4397
         4        4297        4298        4399        4398
         4        4298        4299        4400        4399
         4        4299        4300        4401        4400
         4        4300        4301        4402        4401
         4        4301        4302        4403        4402
         4        4302        4303        4404        4403
         4        4303        4304        4405        4404
         4        4304        4305        4406        4405
         4        4305        4306        4407        4406
         4        4306        4307        4408        4407
         4        4307        4308        4409        4408
         4        4308        4309        4410        4409
         4        4309        4310        4411        4410
         4        4310        4311        4412        4411
         4        4311        4312        4413        4412
         4        4312        4313        4414        4413
         4        4313        4314        4415        4414
         4        4314        4315        4416        4415
         4        4315        4316        4417        4416
         4        4316        4317        4418        4417
         4        4317        4318        4419        4418
         4        4318        4319        4420        4419
         4        4319        4320        4421        4420
         4        4320        4321        4422        4421
         4        4321        4322        4423        4422
         4        4322        4323        4424        4423
         4        4323        4324        4425        4424
         4        4324        4325        4426        4425
         4        4325        4326        4427        4426
         4        4326        4327        4428        4427
         4        4327        4328        4429        4428
         4        4328        4329        4430        4429
         4        4329        4330        4431        4430
         4        4330        4331        4432        4431
         4        4331        4332        4433        4432
         4        4332        4333        4434        4433
         4        4333        4334        4435        4434
         4        4334        4335        4436        4435
         4        4335        4336        4437        4436
         4        4336        4337        4438        4437
         4        4337        4338        4439        4438
         4        4338        4339        4440        4439
         4        4339        4340        4441        4440
         4        4340        4341        4442        4441
         4        4341        4342        4443        4442
         4        4343        4344        4445        4444
         4        4344        4345        4446        4445
         4        4345        4346        4447        4446
         4        4346        4347        4448        4447
         4        4347        4348        4449        4448
         4        4348        4349        4450        4449
         4        4349        4350        4451        4450
         4        4350        4351        4452        4451
         4        4351        4352        4453        4452
         4        4352        4353        4454        4453
         4        4353        4354        4455        4454
         4        4354        4355        4456        4455
         4        4355        4356        4457        4456
         4        4356        4357        4458        4457
         4        4357        4358        4459        4458
         4        4358        4359        4460        4459
         4        4359        4360        4461        4460
         4        4360        4361        4462        4461
         4        4361        4362        4463        4462
         4        4362        4363        4464        4463
         4        4363        4364        4465        4464
         4        4364        4365        4466        4465
         4        4365        4366        4467        4466
         4        4366        4367        4468        4467
         4        4367        4368        4469        4468
         4        4368        4369        4470        4469
         4        4369        4370        4471        4470
         4        4370        4371        4472        4471
         4        4371        4372        4473        4472
         4        4372        4373        4474        4473
         4        4373        4374        4475        4474
         4        4374        4375        4476        4475
         4        4375        4376        4477        4476
         4        4376        4377        4478        4477
         4        4377        4378        4479        4478
         4        4378        4379        4480        4479
         4        4379        4380        4481        4480
         4        4380        4381        4482        4481
         4        4381        4382        4483        4482
         4        4382        4383        4484        4483
         4        4383        4384        4485        4484
         4        4384        4385        4486        4485
         4        4385        4386        4487        4486
         4        4386        4387        4488        4487
         4        4387        4388        4489        4488
         4        4388        4389        4490        4489
         4        4389        4390        4491        4490
         4        4390        4391        4492        4491
         4        4391        4392        4493        4492
         4        4392        4393        4494        4493
         4        4393        4394        4495        4494
         4        4394        4395        4496        4495
         4        4395        4396        4497        4496
         4        4396        4397        4498        4497
         4        4397        4398        4499        4498
         4        4398        4399        4500        4499
         4        4399        4400        4501        4500
         4        4400        4401        4502        4501
         4        4401        4402        4503        4502
         4        4402        4403        4504        4503
         4        4403        4404        4505        4504
         4        4404        4405        4506        4505
         4        4405        4406        4507        4506
         4        4406        4407        4508        4507
         4        4407        4408        4509        4508
         4        4408        4409        4510        4509
         4        4409        4410        4511        4510
         4        4410        4411        4512        4511
         4        4411        4412        4513        4512
         4        4412        4413        4514        4513
         4        4413        4414        4515        4514
         4        4414        4415        4516        4515
         4        4415        4416        4517        4516
         4        4416        4417        4518        4517
         4        4417        4418        4519        4518
         4        4418        4419        4520        4519
         4        4419        4420        4521        4520
         4        4420        4421        4522        4521
         4        4421        4422        4523        4522
         4        4422        4423        4524        4523
         4        4423        4424        4525        4524
         4        4424        4425        4526        4525
         4        4425        4426        4527        4526
         4        4426        4427        4528        4527
         4        4427        4428        4529        4528
         4        4428        4429        4530        4529
         4        4429        4430        4531        4530
         4        4430        4431        4532        4531
         4        4431        4432        4533        4532
         4        4432        4433        4534        4533
         4        4433        4434        4535        4534
         4        4434        4435        4536        4535
         4        4435        4436        4537        4536
         4        4436        4437        4538        4537
         4        4437        4438        4539        4538
         4        4438        4439        4540        4539
         4        4439        4440        4541        4540
         4        4440        4441        4542        4541
         4        4441        4442        4543        4542
         4        4442        4443        4544        4543
         4        4444        4445        4546        4545
         4        4445        4446        4547        4546
         4        4446        4447        4548        4547
         4        4447        4448        4549        4548
         4        4448        4449        4550        4549
         4        4449        4450        4551        4550
         4        4450        4451        4552        4551
         4        4451        4452        4553        4552
         4        4452        4453        4554        4553
         4        4453        4454        4555        4554
         4        4454        4455        4556        4555
         4        4455        4456        4557        4556
         4        4456        4457        4558        4557
         4        4457        4458        4559        4558
         4        4458        4459        4560        4559
         4        4459        4460        4561        4560
         4        4460        4461        4562        4561
         4        4461        4462        4563        4562
         4        4462        4463        4564        4563
         4        4463        4464        4565        4564
         4        4464        4465        4566        4565
         4        4465        4466        4567        4566
         4        4466        4467        4568        4567
         4        4467        4468        4569        4568
         4        4468        4469        4570        4569
         4        4469        4470        4571        4570
         4        4470        4471        4572        4571
         4        4471        4472        4573        4572
         4        4472        4473        4574        4573
         4        4473        4474        4575        4574
         4        4474        4475        4576        4575
         4        4475        4476        4577        4576
         4        4476        4477        4578        4577
         4        4477        4478        4579        4578
         4        4478        4479        4580        4579
         4        4479        4480        4581        4580
         4        4480        4481        4582        4581
         4        4481        4482        4583        4582
         4        4482        4483        4584        4583
         4        4483        4484        4585        4584
         4        4484        4485        4586        4585
         4        4485        4486        4587        4586
         4        4486        4487        4588        4587
         4        4487        4488        4589        4588
         4        4488        4489        4590        4589
         4        4489        4490        4591        4590
         4        4490        4491        4592        4591
         4        4491        4492        4593        4592
         4        4492        4493        4594        4593
         4        4493        4494        4595        4594
         4        4494        4495        4596        4595
         4        4495        4496        4597        4596
         4        4496        4497        4598        4597
         4        4497        4498        4599        4598
         4        4498        4499        4600        4599
         4        4499        4500        4601        4600
         4        4500        4501        4602        4601
         4        4501        4502        4603        4602
         4        4502        4503        4604        4603
         4        4503        4504        4605        4604
         4        4504        4505        4606        4605
         4        4505        4506        4607        4606
         4        4506        4507        4608        4607
         4        4507        4508        4609        4608
         4        4508        4509        4610        4609
         4        4509        4510        4611        4610
         4        4510        4511        4612        4611
         4        4511        4512        4613        4612
         4        4512        4513        4614        4613
         4        4513        4514        4615        4614
         4        4514        4515        4616        4615
         4        4515        4516        4617        4616
         4        4516        4517        4618        4617
         4        4517        4518        4619        4618
         4        4518        4519        4620        4619
         4        4519        4520        4621        4620
         4        4520        4521        4622        4621
         4        4521        4522        4623        4622
         4        4522        4523        4624        4623
         4        4523        4524        4625        4624
         4        4524        4525        4626        4625
         4        4525        4526        4627        4626
         4        4526        4527        4628        4627
         4        4527        4528        4629        4628
         4        4528        4529        4630        4629
         4        4529        4530        4631        4630
         4        4530        4531        4632        4631
         4        4531        4532        4633        4632
         4        4532        4533        4634        4633
         4        4533        4534        4635        4634
         4        4534        4535        4636        4635
         4        4535        4536        4637        4636
         4        4536        4537        4638        4637
         4        4537        4538        4639        4638
         4        4538        4539        4640        4639
         4        4539        4540        4641        4640
         4        4540        4541        4642        4641
         4        4541        4542        4643        4642
         4        4542        4543        4644        4643
         4        4543        4544        4645        4644
         4        4545        4546        4647        4646
         4        4546        4547        4648        4647
         4        4547        4548        4649        4648
         4        4548        4549        4650        4649
         4        4549        4550        4651        4650
         4        4550        4551        4652        4651
         4        4551        4552        4653        4652
         4        4552        4553        4654        4653
         4        4553        4554        4655        4654
         4        4554        4555        4656        4655
         4        4555        4556        4657        4656
         4        4556        4557        4658        4657
         4        4557        4558        4659        4658
         4        4558        4559        4660        4659
         4        4559        4560        4661        4660
         4        4560        4561        4662        4661
         4        4561        4562        4663        4662
         4        4562        4563        4664        4663
         4        4563        4564        4665        4664
         4        4564        4565        4666        4665
         4        4565        4566        4667        4666
         4        4566        4567        4668        4667
         4        4567        4568        4669        4668
         4        4568        4569        4670        4669
         4        4569        4570        4671        4670
         4        4570        4571        4672        4671
         4        4571        4572        4673        4672
         4        4572        4573        4674        4673
         4        4573        4574        4675        4674
         4        4574        4575        4676        4675
         4        4575        4576        4677        4676
         4        4576        4577        4678        4677
         4        4577        4578        4679        4678
         4        4578        4579        4680        4679
         4        4579        4580        4681        4680
         4        4580        4581        4682        4681
         4        4581        4582        4683        4682
         4        4582        4583        4684        4683
         4        4583        4584        4685        4684
         4        4584        4585        4686        4685
         4        4585        4586        4687        4686
         4        4586        4587        4688        4687
         4        4587        4588        4689        4688
         4        4588        4589        4690        4689
         4        4589        4590        4691        4690
         4        4590        4591        4692        4691
         4        4591        4592        4693        4692
         4        4592        4593        4694        4693
         4        4593        4594        4695        4694
         4        4594        4595        4696        4695
         4        4595        4596        4697        4696
         4        4596        4597        4698        4697
         4        4597        4598        4699        4698
         4        4598        4599        4700        4699
         4        4599        4600        4701        4700
         4        4600        4601        4702        4701
         4        4601        4602        4703        4702
         4        4602        4603        4704        4703
         4        4603        4604        4705        4704
         4        4604        4605        4706        4705
         4        4605        4606        4707        4706
         4        4606        4607        4708        4707
         4        4607        4608        4709        4708
         4        4608        4609        4710        4709
         4        4609        4610        4711        4710
         4        4610        4611        4712        4711
         4        4611        4612        4713        4712
         4        4612        4613        4714        4713
         4        4613        4614        4715        4714
         4        4614        4615        4716        4715
         4        4615        4616        4717        4716
         4        4616        4617        4718        4717
         4        4617        4618        4719        4718
         4        4618        4619        4720        4719
         4        4619        4620        4721        4720
         4        4620        4621        4722        4721
         4        4621        4622        4723        4722
         4        4622        4623        4724        4723
         4        4623        4624        4725        4724
         4        4624        4625        4726        4725
         4        4625        4626        4727        4726
         4        4626        4627        4728        4727
         4        4627        4628        4729        4728
         4        4628        4629        4730        4729
         4        4629        4630        4731        4730
         4        4630        4631        4732        4731
         4        4631        4632        4733        4732
         4        4632        4633        4734        4733
         4        4633        4634        4735        4734
         4        4634        4635        4736        4735
         4        4635        4636        4737        4736
         4        4636        4637        4738        4737
         4        4637        4638        4739        4738
         4        4638        4639        4740        4739
         4        4639        4640        4741        4740
         4        4640        4641        4742        4741
         4        4641        4642        4743        4742
         4        4642        4643        4744        4743
         4        4643        4644        4745        4744
         4        4644        4645        4746        4745
         4        4646        4647        4748        4747
         4        4647        4648        4749        4748
         4        4648        4649        4750        4749
         4        4649        4650        4751        4750
         4        4650        4651        4752        4751
         4        4651        4652        4753        4752
         4        4652        4653        4754        4753
         4        4653        4654        4755        4754
         4        4654        4655        4756        4755
         4        4655        4656        4757        4756
         4        4656        4657        4758        4757
         4        4657        4658        4759        4758
         4        4658        4659        4760        4759
         4        4659        4660        4761        4760
         4        4660        4661        4762        4761
         4        4661        4662        4763        4762
         4        4662        4663        4764        4763
         4        4663        4664        4765        4764
         4        4664        4665        4766        4765
         4        4665        4666        4767        4766
         4        4666        4667        4768        4767
         4        4667        4668        4769        4768
         4        4668        4669        4770        4769
         4        4669        4670        4771        4770
         4        4670        4671        4772        4771
         4        4671        4672        4773        4772
         4        4672        4673        4774        4773
         4        4673        4674        4775        4774
         4        4674        4675        4776        4775
         4        4675        4676        4777        4776
         4        4676        4677        4778        4777
         4        4677        4678        4779        4778
         4        4678        4679        4780        4779
         4        4679        4680        4781        4780
         4        4680        4681        4782        4781
         4        4681        4682        4783        4782
         4        4682        4683        4784        4783
         4        4683        4684        4785        4784
         4        4684        4685        4786        4785
         4        4685        4686        4787        4786
         4        4686        4687        4788        4787
         4        4687        4688        4789        4788
         4        4688        4689        4790        4789
         4        4689        4690        4791        4790
         4        4690        4691        4792        4791
         4        4691        4692        4793        4792
         4        4692        4693        4794        4793
         4        4693        4694        4795        4794
         4        4694        4695        4796        4795
         4        4695        4696        4797        4796
         4        4696        4697        4798        4797
         4        4697        4698        4799        4798
         4        4698        4699        4800        4799
         4        4699        4700        4801        4800
         4        4700        4701        4802        4801
         4        4701        4702        4803        4802
         4        4702        4703        4804        4803
         4        4703        4704        4805        4804
         4        4704        4705        4806        4805
         4        4705        4706        4807        4806
         4        4706        4707        4808        4807
         4        4707        4708        4809        4808
         4        4708        4709        4810        4809
         4        4709        4710        4811        4810
         4        4710        4711        4812        4811
         4        4711        4712        4813        4812
         4        4712        4713        4814        4813
         4        4713        4714        4815        4814
         4        4714        4715        4816        4815
         4        4715        4716        4817        4816
         4        4716        4717        4818        4817
         4        4717        4718        4819        4818
         4        4718        4719        4820        4819
         4        4719        4720        4821        4820
         4        4720        4721        4822        4821
         4        4721        4722        4823        4822
         4        4722        4723        4824        4823
         4        4723        4724        4825        4824
         4        4724        4725        4826        4825
         4        4725        4726        4827        4826
         4        4726        4727        4828        4827
         4        4727        4728        4829        4828
         4        4728        4729        4830        4829
         4        4729        4730        4831        4830
         4        4730        4731        4832        4831
         4        4731        4732        4833        4832
         4        4732        4733        4834        4833
         4        4733        4734        4835        4834
         4        4734        4735        4836        4835
         4        4735        4736        4837        4836
         4        4736        4737        4838        4837
         4        4737        4738        4839        4838
         4        4738        4739        4840        4839
         4        4739        4740        4841        4840
         4        4740        4741        4842        4841
         4        4741        4742        4843        4842
         4        4742        4743        4844        4843
         4        4743        4744        4845        4844
         4        4744        4745        4846        4845
         4        4745        4746        4847        4846
         4        4747        4748        4849        4848
         4        4748        4749        4850        4849
         4        4749        4750        4851        4850
         4        4750        4751        4852        4851
         4        4751        4752        4853        4852
         4        4752        4753        4854        4853
         4        4753        4754        4855        4854
         4        4754        4755        4856        4855
         4        4755        4756        4857        4856
         4        4756        4757        4858        4857
         4        4757        4758        4859        4858
         4        4758        4759        4860        4859
         4        4759        4760        4861        4860
         4        4760        4761        4862        4861
         4        4761        4762        4863        4862
         4        4762        4763        4864        4863
         4        4763        4764        4865        4864
         4        4764        4765        4866        4865
         4        4765        4766        4867        4866
         4        4766        4767        4868        4867
         4        4767        4768        4869        4868
         4        4768        4769        4870        4869
         4        4769        4770        4871        4870
         4        4770        4771        4872        4871
         4        4771        4772        4873        4872
         4        4772        4773        4874        4873
         4        4773        4774        4875        4874
         4        4774        4775        4876        4875
         4        4775        4776        4877        4876
         4        4776        4777        4878        4877
         4        4777        4778        4879        4878
         4        4778        4779        4880        4879
         4        4779        4780        4881        4880
         4        4780        4781        4882        4881
         4        4781        4782        4883        4882
         4        4782        4783        4884        4883
         4        4783        4784        4885        4884
         4        4784        4785        4886        4885
         4        4785        4786        4887        4886
         4        4786        4787        4888        4887
         4        4787        4788        4889        4888
         4        4788        4789        4890        4889
         4        4789        4790        4891        4890
         4        4790        4791        4892        4891
         4        4791        4792        4893        4892
         4        4792        4793        4894        4893
         4        4793        4794        4895        4894
         4        4794        4795        4896        4895
         4        4795        4796        4897        4896
         4        4796        4797        4898        4897
         4        4797        4798        4899        4898
         4        4798        4799        4900        4899
         4        4799        4800        4901        4900
         4        4800        4801        4902        4901
         4        4801        4802        4903        4902
         4        4802        4803        4904        4903
         4        4803        4804        4905        4904
         4        4804        4805        4906        4905
         4        4805        4806        4907        4906
         4        4806        4807        4908        4907
         4        4807        4808        4909        4908
         4        4808        4809        4910        4909
         4        4809        4810        4911        4910
         4        4810        4811        4912        4911
         4        4811        4812        4913        4912
         4        4812        4813        4914        4913
         4        4813        4814        4915        4914
         4        4814        4815        4916        4915
         4        4815        4816        4917        4916
         4        4816        4817        4918        4917
         4        4817        4818        4919        4918
         4        4818        4819        4920        4919
         4        4819        4820        4921        4920
         4        4820        4821        4922        4921
         4        4821        4822        4923        4922
         4        4822        4823        4924        4923
         4        4823        4824        4925        4924
         4        4824        4825        4926        4925
         4        4825        4826        4927        4926
         4        4826        4827        4928        4927
         4        4827        4828        4929        4928
         4        4828        4829        4930        4929
         4        4829        4830        4931        4930
         4        4830        4831        4932        4931
         4        4831        4832        4933        4932
         4        4832        4833        4934        4933
         4        4833        4834        4935        4934
         4        4834        4835        4936        4935
         4        4835        4836        4937        4936
         4        4836        4837        4938        4937
         4        4837        4838        4939        4938
         4        4838        4839        4940        4939
         4        4839        4840        4941        4940
         4        4840        4841        4942        4941
         4        4841        4842        4943        4942
         4        4842        4843        4944        4943
         4        4843        4844        4945        4944
         4        4844        4845        4946        4945
         4        4845        4846        4947        4946
         4        4846        4847        4948        4947
         4        4848        4849        4950        4949
         4        4849        4850        4951        4950
         4        4850        4851        4952        4951
         4        4851        4852        4953        4952
         4        4852        4853        4954        4953
         4        4853        4854        4955        4954
         4        4854        4855        4956        4955
         4        4855        4856        4957        4956
         4        4856        4857        4958        4957
         4        4857        4858        4959        4958
         4        4858        4859        4960        4959
         4        4859        4860        4961        4960
         4        4860        4861        4962        4961
         4        4861        4862        4963        4962
         4        4862        4863        4964        4963
         4        4863        4864        4965        4964
         4        4864        4865        4966        4965
         4        4865        4866        4967        4966
         4        4866        4867        4968        4967
         4        4867        4868        4969        4968
         4        4868        4869        4970        4969
         4        4869        4870        4971        4970
         4        4870        4871        4972        4971
         4        4871        4872        4973        4972
         4        4872        4873        4974        4973
         4        4873        4874        4975        4974
         4        4874        4875        4976        4975
         4        4875        4876        4977        4976
         4        4876        4877        4978        4977
         4        4877        4878        4979        4978
         4        4878        4879        4980        4979
         4        4879        4880        4981        4980
         4        4880        4881        4982        4981
         4        4881        4882        4983        4982
         4        4882        4883        4984        4983
         4        4883        4884        4985        4984
         4        4884        4885        4986        4985
         4        4885        4886        4987        4986
         4        4886        4887        4988        4987
         4        4887        4888        4989        4988
         4        4888        4889        4990        4989
         4        4889        4890        4991        4990
         4        4890        4891        4992        4991
         4        4891        4892        4993        4992
         4        4892        4893        4994        4993
         4        4893        4894        4995        4994
         4        4894        4895        4996        4995
         4        4895        4896        4997        4996
         4        4896        4897        4998        4997
         4        4897        4898        4999        4998
         4        4898        4899        5000        4999
         4        4899        4900        5001        5000
         4        4900        4901        5002        5001
         4        4901        4902        5003        5002
         4        4902        4903        5004        5003
         4        4903        4904        5005        5004
         4        4904        4905        5006        5005
         4        4905        4906        5007        5006
         4        4906        4907        5008        5007
         4        4907        4908        5009        5008
         4        4908        4909        5010        5009
         4        4909        4910        5011        5010
         4        4910        4911        5012        5011
         4        4911        4912        5013        5012
         4        4912        4913        5014        5013
         4        4913        4914        5015        5014
         4        4914        4915        5016        5015
         4        4915        4916        5017        5016
         4        4916        4917        5018        5017
         4        4917        4918        5019        5018
         4        4918        4919        5020        5019
         4        4919        4920        5021        5020
         4        4920        4921        5022        5021
         4        4921        4922        5023        5022
         4        4922        4923        5024        5023
         4        4923        4924        5025        5024
         4        4924        4925        5026        5025
         4        4925        4926        5027        5026
         4        4926        4927        5028        5027
         4        4927        4928        5029        5028
         4        4928        4929        5030        5029
         4        4929        4930        5031        5030
         4        4930        4931        5032        5031
         4        4931        4932        5033        5032
         4        4932        4933        5034        5033
         4        4933        4934        5035        5034
         4        4934        4935        5036        5035
         4        4935        4936        5037        5036
         4        4936        4937        5038        5037
         4        4937        4938        5039        5038
         4        4938        4939        5040        5039
         4        4939        4940        5041        5040
         4        4940        4941        5042        5041
         4        4941        4942        5043        5042
         4        4942        4943        5044        5043
         4        4943        4944        5045        5044
         4        4944        4945        5046        5045
         4        4945        4946        5047        5046
         4        4946        4947        5048        5047
         4        4947        4948        5049        5048
         4        4949        4950        5051        5050
         4        4950        4951        5052        5051
         4        4951        4952        5053        5052
         4        4952        4953        5054        5053
         4        4953        4954        5055        5054
         4        4954        4955        5056        5055
         4        4955        4956        5057        5056
         4        4956        4957        5058        5057
         4        4957        4958        5059        5058
         4        4958        4959        5060        5059
         4        4959        4960        5061        5060
         4        4960        4961        5062        5061
         4        4961        4962        5063        5062
         4        4962        4963        5064        5063
         4        4963        4964        5065        5064
         4        4964        4965        5066        5065
         4        4965        4966        5067        5066
         4        4966        4967        5068        5067
         4        4967        4968        5069        5068
         4        4968        4969        5070        5069
         4        4969        4970        5071        5070
         4        4970        4971        5072        5071
         4        4971        4972        5073        5072
         4        4972        4973        5074        5073
         4        4973        4974        5075        5074
         4        4974        4975        5076        5075
         4        4975        4976        5077        5076
         4        4976        4977        5078        5077
         4        4977        4978        5079        5078
         4        4978        4979        5080        5079
         4        4979        4980        5081        5080
         4        4980        4981        5082        5081
         4        4981        4982        5083        5082
         4        4982        4983        5084        5083
         4        4983        4984        5085        5084
         4        4984        4985        5086        5085
         4        4985        4986        5087        5086
         4        4986        4987        5088        5087
         4        4987        4988        5089        5088
         4        4988        4989        5090        5089
         4        4989        4990        5091        5090
         4        4990        4991        5092        5091
         4        4991        4992        5093        5092
         4        4992        4993        5094        5093
         4        4993        4994        5095        5094
         4        4994        4995        5096        5095
         4        4995        4996        5097        5096
         4        4996        4997        5098        5097
         4        4997        4998        5099        5098
         4        4998        4999        5100        5099
         4        4999        5000        5101        5100
         4        5000        5001        5102        5101
         4        5001        5002        5103        5102
         4        5002        5003        5104        5103
         4        5003        5004        5105        5104
         4        5004        5005        5106        5105
         4        5005        5006        5107        5106
         4        5006        5007        5108        5107
         4        5007        5008        5109        5108
         4        5008        5009        5110        5109
         4        5009        5010        5111        5110
         4        5010        5011        5112        5111
         4        5011        5012        5113        5112
         4        5012        5013        5114        5113
         4        5013        5014        5115        5114
         4        5014        5015        5116        5115
         4        5015        5016        5117        5116
         4        5016        5017        5118        5117
         4        5017        5018        5119        5118
         4        5018        5019        5120        5119
         4        5019        5020        5121        5120
         4        5020        5021        5122        5121
         4        5021        5022        5123        5122
         4        5022        5023        5124        5123
         4        5023        5024        5125        5124
         4        5024        5025        5126        5125
         4        5025        5026        5127        5126
         4        5026        5027        5128        5127
         4        5027        5028        5129        5128
         4        5028        5029        5130        5129
         4        5029        5030        5131        5130
         4        5030        5031        5132        5131
         4        5031        5032        5133        5132
         4        5032        5033        5134        5133
         4        5033        5034        5135        5134
         4        5034        5035        5136        5135
         4        5035        5036        5137        5136
         4        5036        5037        5138        5137
         4        5037        5038        5139        5138
         4        5038        5039        5140        5139
         4        5039        5040        5141        5140
         4        5040        5041        5142        5141
         4        5041        5042        5143        5142
         4        5042        5043        5144        5143
         4        5043        5044        5145        5144
         4        5044        5045        5146        5145
         4        5045        5046        5147        5146
         4        5046        5047        5148        5147
         4        5047        5048        5149        5148
         4        5048        5049        5150        5149
CELL_TYPES       5000
9
9
9
9
9
9
9
9
9
9
9
9
9
9
9
9
9
9
9
9
9
9
9
9
9
9
9
9
9
9
9
9
9
9
9
9
9
9
9
9
9
9
9
9
9
9
9
9
9
9
9
9
9
9
9
9
9
9
9
9
9
9
9
9
9
9
9
9
9
9
9
9
9
9
9
9
9
9
9
9
9
9
9
9
9
9
9
9
9
9
9
9
9
9
9
9
9
9
9
9
9
9
9
9
9
9
9
9
9
9
9
9
9
9
9
9
9
9
9
9
9
9
9
9
9
9
9
9
9
9
9
9
9
9
9
9
9
9
9
9
9
9
9
9
9
9
9
9
9
9
9
9
9
9
9
9
9
9
9
9
9
9
9
9
9
9
9
9
9
9
9
9
9
9
9
9
9
9
9
9
9
9
9
9
9
9
9
9
9
9
9
9
9
9
9
9
9
9
9
9
9
9
9
9
9
9
9
9
9
9
9
9
9
9
9
9
9
9
9
9
9
9
9
9
9
9
9
9
9
9
9
9
9
9
9
9
9
9
9
9
9
9
9
9
9
9
9
9
9
9
9
9
9
9
9
9
9
9
9
9
9
9
9
9
9
9
9
9
9
9
9
9
9
9
9
9
9
9
9
9
9
9
9
9
9
9
9
9
9
9
9
9
9
9
9
9
9
9
9
9
9
9
9
9
9
9
9
9
9
9
9
9
9
9
9
9
9
9
9
9
9
9
9
9
9
9
9
9
9
9
9
9
9
9
9
9
9
9
9
9
9
9
9
9
9
9
9
9
9
9
9
9
9
9
9
9
9
9
9
9
9
9
9
9
9
9
9
9
9
9
9
9
9
9
9
9
9
9
9
9
9
9
9
9
9
9
9
9
9
9
9
9
9
9
9
9
9
9
9
9
9
9
9
9
9
9
9
9
9
9
9
9
9
9
9
9
9
9
9
9
9
9
9
9
9
9
9
9
9
9
9
9
9
9
9
9
9
9
9
9
9
9
9
9
9
9
9
9
9
9
9
9
9
9
9
9
9
9
9
9
9
9
9
9
9
9
9
9
9
9
9
9
9
9
9
9
9
9
9
9
9
9
9
9
9
9
9
9
9
9
9
9
9
9
9
9
9
9
9
9
9
9
9
9
9
9
9
9
9
9
9
9
9
9
9
9
9
9
9
9
9
9
9
9
9
9
9
9
9
9
9
9
9
9
9
9
9
9
9
9
9
9
9
9
9
9
9
9
9
9
9
9
9
9
9
9
9
9
9
9
9
9
9
9
9
9
9
9
9
9
9
9
9
9
9
9
9
9
9
9
9
9
9
9
9
9
9
9
9
9
9
9
9
9
9
9
9
9
9
9
9
9
9
9
9
9
9
9
9
9
9
9
9
9
9
9
9
9
9
9
9
9
9
9
9
9
9
9
9
9
9
9
9
9
9
9
9
9
9
9
9
9
9
9
9
9
9
9
9
9
9
9
9
9
9
9
9
9
9
9
9
9
9
9
9
9
9
9
9
9
9
9
9
9
9
9
9
9
9
9
9
9
9
9
9
9
9
9
9
9
9
9
9
9
9
9
9
9
9
9
9
9
9
9
9
9
9
9
9
9
9
9
9
9
9
9
9
9
9
9
9
9
9
9
9
9
9
9
9
9
9
9
9
9
9
9
9
9
9
9
9
9
9
9
9
9
9
9
9
9
9
9
9
9
9
9
9
9
9
9
9
9
9
9
9
9
9
9
9
9
9
9
9
9
9
9
9
9
9
9
9
9
9
9
9
9
9
9
9
9
9
9
9
9
9
9
9
9
9
9
9
9
9
9
9
9
9
9
9
9
9
9
9
9
9
9
9
9
9
9
9
9
9
9
9
9
9
9
9
9
9
9
9
9
9
9
9
9
9
9
9
9
9
9
9
9
9
9
9
9
9
9
9
9
9
9
9
9
9
9
9
9
9
9
9
9
9
9
9
9
9
9
9
9
9
9
9
9
9
9
9
9
9
9
9
9
9
9
9
9
9
9
9
9
9
9
9
9
9
9
9
9
9
9
9
9
9
9
9
9
9
9
9
9
9
9
9
9
9
9
9
9
9
9
9
9
9
9
9
9
9
9
9
9
9
9
9
9
9
9
9
9
9
9
9
9
9
9
9
9
9
9
9
9
9
9
9
9
9
9
9
9
9
9
9
9
9
9
9
9
9
9
9
9
9
9
9
9
9
9
9
9
9
9
9
9
9
9
9
9
9
9
9
9
9
9
9
9
9
9
9
9
9
9
9
9
9
9
9
9
9
9
9
9
9
9
9
9
9
9
9
9
9
9
9
9
9
9
9
9
9
9
9
9
9
9
9
9
9
9
9
9
9
9
9
9
9
9
9
9
9
9
9
9
9
9
9
9
9
9
9
9
9
9
9
9
9
9
9
9
9
9
9
9
9
9
9
9
9
9
9
9
9
9
9
9
9
9
9
9
9
9
9
9
9
9
9
9
9
9
9
9
9
9
9
9
9
9
9
9
9
9
9
9
9
9
9
9
9
9
9
9
9
9
9
9
9
9
9
9
9
9
9
9
9
9
9
9
9
9
9
9
9
9
9
9
9
9
9
9
9
9
9
9
9
9
9
9
9
9
9
9
9
9
9
9
9
9
9
9
9
9
9
9
9
9
9
9
9
9
9
9
9
9
9
9
9
9
9
9
9
9
9
9
9
9
9
9
9
9
9
9
9
9
9
9
9
9
9
9
9
9
9
9
9
9
9
9
9
9
9
9
9
9
9
9
9
9
9
9
9
9
9
9
9
9
9
9
9
9
9
9
9
9
9
9
9
9
9
9
9
9
9
9
9
9
9
9
9
9
9
9
9
9
9
9
9
9
9
9
9
9
9
9
9
9
9
9
9
9
9
9
9
9
9
9
9
9
9
9
9
9
9
9
9
9
9
9
9
9
9
9
9
9
9
9
9
9
9
9
9
9
9
9
9
9
9
9
9
9
9
9
9
9
9
9
9
9
9
9
9
9
9
9
9
9
9
9
9
9
9
9
9
9
9
9
9
9
9
9
9
9
9
9
9
9
9
9
9
9
9
9
9
9
9
9
9
9
9
9
9
9
9
9
9
9
9
9
9
9
9
9
9
9
9
9
9
9
9
9
9
9
9
9
9
9
9
9
9
9
9
9
9
9
9
9
9
9
9
9
9
9
9
9
9
9
9
9
9
9
9
9
9
9
9
9
9
9
9
9
9
9
9
9
9
9
9
9
9
9
9
9
9
9
9
9
9
9
9
9
9
9
9
9
9
9
9
9
9
9
9
9
9
9
9
9
9
9
9
9
9
9
9
9
9
9
9
9
9
9
9
9
9
9
9
9
9
9
9
9
9
9
9
9
9
9
9
9
9
9
9
9
9
9
9
9
9
9
9
9
9
9
9
9
9
9
9
9
9
9
9
9
9
9
9
9
9
9
9
9
9
9
9
9
9
9
9
9
9
9
9
9
9
9
9
9
9
9
9
9
9
9
9
9
9
9
9
9
9
9
9
9
9
9
9
9
9
9
9
9
9
9
9
9
9
9
9
9
9
9
9
9
9
9
9
9
9
9
9
9
9
9
9
9
9
9
9
9
9
9
9
9
9
9
9
9
9
9
9
9
9
9
9
9
9
9
9
9
9
9
9
9
9
9
9
9
9
9
9
9
9
9
9
9
9
9
9
9
9
9
9
9
9
9
9
9
9
9
9
9
9
9
9
9
9
9
9
9
9
9
9
9
9
9
9
9
9
9
9
9
9
9
9
9
9
9
9
9
9
9
9
9
9
9
9
9
9
9
9
9
9
9
9
9
9
9
9
9
9
9
9
9
9
9
9
9
9
9
9
9
9
9
9
9
9
9
9
9
9
9
9
9
9
9
9
9
9
9
9
9
9
9
9
9
9
9
9
9
9
9
9
9
9
9
9
9
9
9
9
9
9
9
9
9
9
9
9
9
9
9
9
9
9
9
9
9
9
9
9
9
9
9
9
9
9
9
9
9
9
9
9
9
9
9
9
9
9
9
9
9
9
9
9
9
9
9
9
9
9
9
9
9
9
9
9
9
9
9
9
9
9
9
9
9
9
9
9
9
9
9
9
9
9
9
9
9
9
9
9
9
9
9
9
9
9
9
9
9
9
9
9
9
9
9
9
9
9
9
9
9
9
9
9
9
9
9
9
9
9
9
9
9
9
9
9
9
9
9
9
9
9
9
9
9
9
9
9
9
9
9
9
9
9
9
9
9
9
9
9
9
9
9
9
9
9
9
9
9
9
9
9
9
9
9
9
9
9
9
9
9
9
9
9
9
9
9
9
9
9
9
9
9
9
9
9
9
9
9
9
9
9
9
9
9
9
9
9
9
9
9
9
9
9
9
9
9
9
9
9
9
9
9
9
9
9
9
9
9
9
9
9
9
9
9
9
9
9
9
9
9
9
9
9
9
9
9
9
9
9
9
9
9
9
9
9
9
9
9
9
9
9
9
9
9
9
9
9
9
9
9
9
9
9
9
9
9
9
9
9
9
9
9
9
9
9
9
9
9
9
9
9
9
9
9
9
9
9
9
9
9
9
9
9
9
9
9
9
9
9
9
9
9
9
9
9
9
9
9
9
9
9
9
9
9
9
9
9
9
9
9
9
9
9
9
9
9
9
9
9
9
9
9
9
9
9
9
9
9
9
9
9
9
9
9
9
9
9
9
9
9
9
9
9
9
9
9
9
9
9
9
9
9
9
9
9
9
9
9
9
9
9
9
9
9
9
9
9
9
9
9
9
9
9
9
9
9
9
9
9
9
9
9
9
9
9
9
9
9
9
9
9
9
9
9
9
9
9
9
9
9
9
9
9
9
9
9
9
9
9
9
9
9
9
9
9
9
9
9
9
9
9
9
9
9
9
9
9
9
9
9
9
9
9
9
9
9
9
9
9
9
9
9
9
9
9
9
9
9
9
9
9
9
9
9
9
9
9
9
9
9
9
9
9
9
9
9
9
9
9
9
9
9
9
9
9
9
9
9
9
9
9
9
9
9
9
9
9
9
9
9
9
9
9
9
9
9
9
9
9
9
9
9
9
9
9
9
9
9
9
9
9
9
9
9
9
9
9
9
9
9
9
9
9
9
9
9
9
9
9
9
9
9
9
9
9
9
9
9
9
9
9
9
9
9
9
9
9
9
9
9
9
9
9
9
9
9
9
9
9
9
9
9
9
9
9
9
9
9
9
9
9
9
9
9
9
9
9
9
9
9
9
9
9
9
9
9
9
9
9
9
9
9
9
9
9
9
9
9
9
9
9
9
9
9
9
9
9
9
9
9
9
9
9
9
9
9
9
9
9
9
9
9
9
9
9
9
9
9
9
9
9
9
9
9
9
9
9
9
9
9
9
9
9
9
9
9
9
9
9
9
9
9
9
9
9
9
9
9
9
9
9
9
9
9
9
9
9
9
9
9
9
9
9
9
9
9
9
9
9
9
9
9
9
9
9
9
9
9
9
9
9
9
9
9
9
9
9
9
9
9
9
9
9
9
9
9
9
9
9
9
9
9
9
9
9
9
9
9
9
9
9
9
9
9
9
9
9
9
9
9
9
9
9
9
9
9
9
9
9
9
9
9
9
9
9
9
9
9
9
9
9
9
9
9
9
9
9
9
9
9
9
9
9
9
9
9
9
9
9
9
9
9
9
9
9
9
9
9
9
9
9
9
9
9
9
9
9
9
9
9
9
9
9
9
9
9
9
9
9
9
9
9
9
9
9
9
9
9
9
9
9
9
9
9
9
9
9
9
9
9
9
9
9
9
9
9
9
9
9
9
9
9
9
9
9
9
9
9
9
9
9
9
9
9
9
9
9
9
9
9
9
9
9
9
9
9
9
9
9
9
9
9
9
9
9
9
9
9
9
9
9
9
9
9
9
9
9
9
9
9
9
9
9
9
9
9
9
9
9
9
9
9
9
9
9
9
9
9
9
9
9
9
9
9
9
9
9
9
9
9
9
9
9
9
9
9
9
9
9
9
9
9
9
9
9
9
9
9
9
9
9
9
9
9
9
9
9
9
9
9
9
9
9
9
9
9
9
9
9
9
9
9
9
9
9
9
9
9
9
9
9
9
9
9
9
9
9
9
9
9
9
9
9
9
9
9
9
9
9
9
9
9
9
9
9
9
9
9
9
9
9
9
9
9
9
9
9
9
9
9
9
9
9
9
9
9
9
9
9
9
9
9
9
9
9
9
9
9
9
9
9
9
9
9
9
9
9
9
9
9
9
9
9
9
9
9
9
9
9
9
9
9
9
9
9
9
9
9
9
9
9
9
9
9
9
9
9
9
9
9
9
9
9
9
9
9
9
9
9
9
9
9
9
9
9
9
9
9
9
9
9
9
9
9
9
9
9
9
9
9
9
9
9
9
9
9
9
9
9
9
9
9
9
9
9
9
9
9
9
9
9
9
9
9
9
9
9
9
9
9
9
9
9
9
9
9
9
9
9
9
9
9
9
9
9
9
9
9
9
9
9
9
9
9
9
9
9
9
9
9
9
9
9
9
9
9
9
9
9
9
9
9
9
9
9
9
9
9
9
9
9
9
9
9
9
9
9
9
9
9
9
9
9
9
9
9
9
9
9
9
9
9
9
9
9
9
9
9
9
9
9
9
9
9
9
9
9
9
9
9
9
9
9
9
9
9
9
9
9
9
9
9
9
9
9
9
9
9
9
9
9
9
9
9
9
9
9
9
9
9
9
9
9
9
9
9
9
9
9
9
9
9
9
9
9
9
9
9
9
9
9
9
9
9
9
9
9
9
9
9
9
9
9
9
9
9
9
9
9
9
9
9
9
9
9
9
9
9
9
9
9
9
9
9
9
9
9
9
9
9
9
9
9
9
9
9
9
9
9
9
9
9
9
9
9
9
9
9
9
9
9
9
9
9
9
9
9
9
9
9
9
9
9
9
9
9
9
9
9
9
9
9
9
9
9
9
9
9
9
9
9
9
9
9
9
9
9
9
9
9
9
9
9
9
9
9
9
9
9
9
9
9
9
9
9
9
9
9
9
9
9
9
9
9
9
9
9
9
9
9
9
9
9
9
9
9
9
9
9
9
9
9
9
9
9
9
9
9
9
9
9
9
9
9
9
9
9
9
9
9
9
9
9
9
9
9
9
9
9
9
9
9
9
9
9
9
9
9
9
9
9
9
9
9
9
9
9
9
9
9
9
9
9
9
9
9
9
9
9
9
9
9
9
9
9
9
9
9
9
9
9
9
9
9
9
9
9
9
9
9
9
9
9
9
9
9
9
9
9
9
9
9
9
9
9
9
9
9
9
9
9
9
9
9
9
9
9
9
9
9
9
9
9
9
9
9
9
9
9
9
9
9
9
9
9
9
9
9
9
9
9
9
9
9
9
9
9
9
9
9
9
9
9
9
9
9
9
9
9
9
9
9
9
9
9
9
9
9
9
9
9
9
9
9
9
9
9
9
9
9
9
9
9
9
9
9
9
9
9
9
9
9
9
9
9
9
9
9
9
9
9
9
9
9
9
9
9
9
9
9
9
9
9
9
9
9
9
9
9
9
9
9
9
9
9
9
9
9
9
9
9
9
9
9
9
9
9
9
9
9
9
9
9
9
9
9
9
9
9
9
9
9
9
9
9
9
9
9
9
9
9
9
9
9
9
9
9
9
9
9
9
9
9
9
9
9
9
9
9
9
9
9
9
9
9
9
9
9
9
9
9
9
9
9
9
9
9
9
9
9
9
9
9
9
9
9
9
9
9
9
9
9
9
9
9
9
9
9
9
9
9
9
9
9
9
9
9
9
9
9
9
9
9
9
9
9
9
9
9
9
9
9
9
9
9
9
9
9
9
9
9
9
9
9
9
9
9
9
9
9
9
9
9
9
9
9
9
9
9
9
9
9
9
9
9
9
9
9
9
9
9
9
9
9
9
9
9
9
9
9
9
9
9
9
9
9
9
9
9
9
9
9
9
9
9
9
9
9
9
9
9
9
9
9
9
9
9
9
9
9
9
9
9
9
9
9
9
9
9
9
9
9
9
9
9
9
9
9
9
9
9
9
9
9
9
9
9
9
9
9
9
9
9
9
9
9
9
9
9
9
9
9
9
9
9
9
9
9
9
9
9
9
9
9
9
9
9
9
9
9
9
9
9
9
9
9
9
9
9
9
9
9
9
9
9
9
9
9
9
9
9
9
9
9
9
9
9
9
9
9
9
9
9
9
9
9
9
9
9
9
9
9
9
9
9
9
9
9
9
9
9
9
9
9
9
9
9
9
9
9
9
9
9
9
9
9
9
9
9
9
9
9
9
9
9
9
9
9
9
9
9
9
9
9
9
9
9
9
9
9
9
9
9
9
9
9
9
9
9
9
9
9
9
9
9
9
9
9
9
9
9
9
9
9
9
9
9
9
9
9
9
9
9
9
9
9
9
9
9
9
9
9
9
9
9
9
9
9
9
9
9
9
9
9
9
9
9
9
9
9
9
9
9
9
9
9
9
9
9
9
9
9
9
9
9
9
9
9
9
9
9
9
9
9
9
9
9
9
9
9
9
9
9
9
9
9
9
9
9
9
9
9
9
9
9
9
9
9
9
9
9
9
9
9
9
9
9
9
9
9
9
9
9
9
9
9
9
9
9
9
9
9
9
9
9
9
9
9
9
9
9
9
9
9
9
9
9
9
9
9
9
9
9
9
9
9
9
9
9
9
9
9
9
9
9
9
9
9
9
9
9
9
9
9
9
9
9
9
9
9
9
9
9
9
9
9
9
9
9
9
9
9
9
9
9
9
9
9
9
9
9
9
9
9
9
9
9
9
9
9
9
9
9
9
9
9
9
9
9
9
9
9
9
9
9
9
9
9
9
9
9
9
9
9
9
9
9
9
9
9
9
9
9
9
9
9
9
9
9
9
9
9
9
9
9
9
9
9
9
9
9
9
9
9
9
9
9
9
9
9
9
9
9
9
9
9
9
9
9
9
9
9
9
9
9
9
9
9
9
9
9
9
9
9
9
9
9
9
9
9
9
9
9
9
9
9
9
9
9
9
9
9
9
9
9
9
9
9
9
9
9
9
9
9
9
9
9
9
9
9
9
9
9
9
9
9
9
9
9
9
9
9
9
9
9
9
9
9
9
9
9
9
9
9
9
9
9
9
9
9
9
9
9
9
9
9
9
9
9
9
9
9
9
9
9
9
9
9
9
9
9
9
9
9
9
9
9
9
9
9
9
9
9
9
9
9
9
9
9
9
9
9
9
9
9
9
9
9
9
9
9
9
9
9
9
9
9
9
9
9
9
9
9
9
9
9
9
9
9
9
9
9
9
9
9
9
9
9
9
9
9
9
9
9
9
9
9
9
9
9
9
9
9
9
9
9
9
9
9
9
9
9
9
9
9
9
9
9
9
9
9
9
9
9
9
9
9
9
9
9
9
9
9
9
9
9
9
9
9
9
9
9
9
9
9
9
9
9
9
9
9
9
9
9
9
9
9
9
9
9
9
9
9
9
9
9
9
9
9
9
9
9
9
9
9
9
9
9
9
9
9
9
9
9
9
9
9
9
9
9
9
9
9
9
9
9
9
9
9
9
9
9
9
9
9
9
9
9
9
9
9
9
9
9
9
9
9
9
9
9
9
9
9
9
9
9
9
9
9
9
9
9
9
9
9
9
9
9
9
9
9
9
9
9
9
9
9
9
9
9
9
9
9
9
9
9
9
9
9
9
9
9
9
9
9
9
9
9
9
9
9
9
9
9
9
9
9
9
9
9
9
9
9
9
9
9
9
9
9
9
9
9
9
9
9
9
9
9
9
9
9
9
9
9
9
9
9
9
9
9
9
9
9
9
9
9
9
9
9
9
9
9
9
9
9
9
9
9
9
9
9
9
9
9
9
9
9
9
9
9
9
9
9
9
9
9
9
9
9
9
9
9
9
9
9
9
9
9
9
9
9
9
9
9
9
9
9
9
9
9
9
9
9
9
9
9
9
9
9
9
9
9
9
9
9
9
9
9
9
9
9
9
9
9
9
9
9
9
9
9
9
9
9
9
9
9
9
9
9
9
9
9
9
9
9
9
9
9
9
9
9
9
9
9
9
9
9
9
9
9
9
9
9
9
9
9
9
9
9
9
9
9
9
9
9
9
9
9
9
9
9
9
9
9
9
9
9
9
9
9
9
9
9
9
9
9
9
9
9
9
9
9
9
9
9
9
9
9
9
9
9
9
9
9
9
9
9
9
9
9
9
9
9
9
9
9
9
9
9
9
9
9
9
9
9
9
9
9
9
9
9
9
9
9
9
9
9
9
9
9
9
9
9
9
9
9
9
9
9
9
9
9
9
9
9
9
9
9
9
9
9
9
9
9
9
9
9
9
9
9
9
9
9
9
9
9
9
9
9
9
9
9
9
9
9
9
9
9
9
9
9
9
9
9
9
9
9
9
9
9
9
9
9
9
9
9
9
9
9
9
9
9
9
9
9
9
9
9
9
9
9
9
9
9
9
9
9
9
9
9
9
9
9
9
9
9
9
9
9
9
9
9
9
9
9
9
9
9
9
9
9
9
9
9
9
9
9
9
9
9
9
9
9
9
9
9
9
9
9
9
9
9
9
9
9
9
9
9
9
9
9
9
9
9
9
9
9
9
9
9
9
9
9
9
9
9
9
9
9
9
9
9
9
9
9
9
9
9
9
9
9
9
9
9
9
9
9
9
9
9
9
9
9
9
9
9
9
9
9
9
9
9
9
9
9
9
9
9
9
9
9
9
9
9
9
9
9
9
9
9
9
9
9
9
9
9
9
9
9
9
9
9
9
9
9
9
9
9
9
9
9
9
9
9
9
9
9
9
9
9
9
9
9
9
9
9
9
9
9
9
9
9
9
9
9
9
9
9
9
9
9
9
9
9
9
9
9
9
9
9
9
9
9
9
9
9
9
9
9
9
9
9
9
9
9
9
9
9
9
9
9
9
9
9
9
9
9
9
9
9
9
9
9
9
9
9
9
9
9
9
9
9
9
9
9
9
9
9
9
9
9
9
9
9
9
9
9
9
9
9
9
9
9
9
9
9
9
9
9
9
9
9
9
9
9
9
9
9
9
9
9
9
9
9
9
9
9
9
9
9
9
9
9
9
9
9
9
9
9
9
9
9
9
9
9
9
9
9
9
9
9
9
9
9
9
9
9
9
9
9
9
9
9
9
9
9
9
9
9
9
9
9
9
9
9
9
9
9
9
9
9
9
9
9
9
9
9
9
9
9
POINT_DATA      5151
SCALARS p double 
LOOKUP_TABLE default
   50000000.0000000     
   49942108.5052937     
   49884153.1857007     
   49826070.2041777     
   49767795.6994966     
   49709265.7744714     
   49650416.4845703     
   49591183.8270388     
   49531503.7306658     
   49471312.0463203     
   49410544.5383884     
   49349136.8772437     
   49287024.6328788     
   49224143.2698343     
   49160428.1435549     
   49095814.4983094     
   49030237.4668073     
   48963632.0716493     
   48895933.2287477     
   48827075.7528539     
   48756994.3653333     
   48685623.7043227     
   48612898.3374145     
   48538752.7770035     
   48463121.4984391     
   48385938.9611228     
   48307139.6326891     
   48226658.0164131     
   48144428.6819793     
   48060386.2997532     
   47974465.6786894     
   47886601.8080105     
   47796729.9027886     
   47704785.4535582     
   47610704.2800853     
   47514422.5894118     
   47415877.0382914     
   47315004.8001263     
   47211743.6365077     
   47106031.9734529     
   46997808.9824274     
   46887014.6662256     
   46773589.9497796     
   46657476.7759441     
   46538618.2062994     
   46416958.5269979     
   46292443.3596591     
   46165019.7773061     
   46034636.4253128     
   45901243.6473087     
   45764793.6159702     
   45625240.4685958     
   45482540.4473393     
   45336652.0439447     
   45187536.1487954     
   45035156.2040547     
   44879478.3606416     
   44720471.6387449     
   44558108.0915399     
   44392362.9717266     
   44223214.9004663     
   44050646.0382404     
   43874642.2571081     
   43695193.3137898     
   43512293.0229392     
   43325939.4299181     
   43136134.9823261     
   42942886.6994744     
   42746206.3389321     
   42546110.5592081     
   42342621.0775685     
   42135764.8219219     
   41925574.0756381     
   41712086.6141048     
   41495345.8317581     
   41275400.8582615     
   41052306.6624516     
   40826124.1426093     
   40596920.2015629     
   40364767.8050945     
   40129746.0220724     
   39891940.0447120     
   39651441.1873529     
   39408346.8621337     
   39162760.5299625     
   38914791.6252146     
   38664555.4526411     
   38412173.0550557     
   38157771.0504733     
   37901481.4375184     
   37643441.3681009     
   37383792.8865843     
   37122682.6349408     
   36860261.5237218     
   36596684.3690617     
   36332109.4964010     
   36066698.3121538     
   35800614.8451818     
   35534025.2606722     
   35267097.3498582     
   35000000.0000000     
   50000000.0000000     
   49942108.5052937     
   49884153.1857007     
   49826070.2041777     
   49767795.6994966     
   49709265.7744714     
   49650416.4845704     
   49591183.8270387     
   49531503.7306658     
   49471312.0463203     
   49410544.5383884     
   49349136.8772437     
   49287024.6328788     
   49224143.2698343     
   49160428.1435549     
   49095814.4983094     
   49030237.4668073     
   48963632.0716494     
   48895933.2287477     
   48827075.7528539     
   48756994.3653333     
   48685623.7043227     
   48612898.3374145     
   48538752.7770035     
   48463121.4984391     
   48385938.9611228     
   48307139.6326891     
   48226658.0164131     
   48144428.6819793     
   48060386.2997532     
   47974465.6786895     
   47886601.8080105     
   47796729.9027886     
   47704785.4535582     
   47610704.2800853     
   47514422.5894118     
   47415877.0382914     
   47315004.8001263     
   47211743.6365077     
   47106031.9734529     
   46997808.9824274     
   46887014.6662256     
   46773589.9497796     
   46657476.7759441     
   46538618.2062994     
   46416958.5269979     
   46292443.3596591     
   46165019.7773061     
   46034636.4253128     
   45901243.6473087     
   45764793.6159702     
   45625240.4685958     
   45482540.4473393     
   45336652.0439447     
   45187536.1487954     
   45035156.2040547     
   44879478.3606416     
   44720471.6387449     
   44558108.0915399     
   44392362.9717266     
   44223214.9004663     
   44050646.0382404     
   43874642.2571081     
   43695193.3137898     
   43512293.0229392     
   43325939.4299181     
   43136134.9823261     
   42942886.6994744     
   42746206.3389321     
   42546110.5592081     
   42342621.0775685     
   42135764.8219219     
   41925574.0756381     
   41712086.6141048     
   41495345.8317581     
   41275400.8582615     
   41052306.6624516     
   40826124.1426093     
   40596920.2015629     
   40364767.8050946     
   40129746.0220724     
   39891940.0447120     
   39651441.1873529     
   39408346.8621337     
   39162760.5299625     
   38914791.6252146     
   38664555.4526411     
   38412173.0550557     
   38157771.0504733     
   37901481.4375184     
   37643441.3681010     
   37383792.8865843     
   37122682.6349409     
   36860261.5237218     
   36596684.3690617     
   36332109.4964010     
   36066698.3121538     
   35800614.8451818     
   35534025.2606722     
   35267097.3498582     
   35000000.0000000     
   50000000.0000000     
   49942108.5052937     
   49884153.1857007     
   49826070.2041777     
   49767795.6994966     
   49709265.7744714     
   49650416.4845703     
   49591183.8270388     
   49531503.7306658     
   49471312.0463203     
   49410544.5383884     
   49349136.8772437     
   49287024.6328788     
   49224143.2698343     
   49160428.1435549     
   49095814.4983094     
   49030237.4668073     
   48963632.0716494     
   48895933.2287477     
   48827075.7528539     
   48756994.3653333     
   48685623.7043227     
   48612898.3374145     
   48538752.7770035     
   48463121.4984391     
   48385938.9611228     
   48307139.6326891     
   48226658.0164131     
   48144428.6819793     
   48060386.2997532     
   47974465.6786894     
   47886601.8080105     
   47796729.9027886     
   47704785.4535582     
   47610704.2800853     
   47514422.5894118     
   47415877.0382914     
   47315004.8001263     
   47211743.6365077     
   47106031.9734530     
   46997808.9824273     
   46887014.6662256     
   46773589.9497796     
   46657476.7759441     
   46538618.2062994     
   46416958.5269979     
   46292443.3596590     
   46165019.7773061     
   46034636.4253128     
   45901243.6473086     
   45764793.6159702     
   45625240.4685958     
   45482540.4473393     
   45336652.0439447     
   45187536.1487954     
   45035156.2040547     
   44879478.3606416     
   44720471.6387450     
   44558108.0915399     
   44392362.9717266     
   44223214.9004663     
   44050646.0382404     
   43874642.2571081     
   43695193.3137898     
   43512293.0229392     
   43325939.4299181     
   43136134.9823261     
   42942886.6994744     
   42746206.3389321     
   42546110.5592081     
   42342621.0775685     
   42135764.8219219     
   41925574.0756381     
   41712086.6141048     
   41495345.8317581     
   41275400.8582615     
   41052306.6624516     
   40826124.1426093     
   40596920.2015629     
   40364767.8050946     
   40129746.0220724     
   39891940.0447120     
   39651441.1873529     
   39408346.8621337     
   39162760.5299625     
   38914791.6252146     
   38664555.4526411     
   38412173.0550557     
   38157771.0504733     
   37901481.4375184     
   37643441.3681010     
   37383792.8865843     
   37122682.6349408     
   36860261.5237218     
   36596684.3690617     
   36332109.4964010     
   36066698.3121537     
   35800614.8451818     
   35534025.2606722     
   35267097.3498582     
   35000000.0000000     
   50000000.0000000     
   49942108.5052937     
   49884153.1857007     
   49826070.2041778     
   49767795.6994966     
   49709265.7744715     
   49650416.4845703     
   49591183.8270388     
   49531503.7306658     
   49471312.0463203     
   49410544.5383884     
   49349136.8772438     
   49287024.6328789     
   49224143.2698343     
   49160428.1435548     
   49095814.4983094     
   49030237.4668074     
   48963632.0716494     
   48895933.2287477     
   48827075.7528539     
   48756994.3653333     
   48685623.7043227     
   48612898.3374145     
   48538752.7770034     
   48463121.4984392     
   48385938.9611228     
   48307139.6326891     
   48226658.0164131     
   48144428.6819792     
   48060386.2997532     
   47974465.6786894     
   47886601.8080105     
   47796729.9027886     
   47704785.4535583     
   47610704.2800853     
   47514422.5894119     
   47415877.0382914     
   47315004.8001263     
   47211743.6365078     
   47106031.9734530     
   46997808.9824273     
   46887014.6662256     
   46773589.9497796     
   46657476.7759441     
   46538618.2062995     
   46416958.5269979     
   46292443.3596590     
   46165019.7773061     
   46034636.4253128     
   45901243.6473086     
   45764793.6159702     
   45625240.4685959     
   45482540.4473393     
   45336652.0439447     
   45187536.1487954     
   45035156.2040547     
   44879478.3606416     
   44720471.6387450     
   44558108.0915399     
   44392362.9717266     
   44223214.9004664     
   44050646.0382404     
   43874642.2571081     
   43695193.3137898     
   43512293.0229392     
   43325939.4299181     
   43136134.9823261     
   42942886.6994744     
   42746206.3389321     
   42546110.5592081     
   42342621.0775685     
   42135764.8219218     
   41925574.0756381     
   41712086.6141048     
   41495345.8317581     
   41275400.8582615     
   41052306.6624517     
   40826124.1426093     
   40596920.2015628     
   40364767.8050945     
   40129746.0220724     
   39891940.0447120     
   39651441.1873529     
   39408346.8621337     
   39162760.5299625     
   38914791.6252146     
   38664555.4526411     
   38412173.0550557     
   38157771.0504733     
   37901481.4375184     
   37643441.3681010     
   37383792.8865843     
   37122682.6349409     
   36860261.5237218     
   36596684.3690617     
   36332109.4964010     
   36066698.3121537     
   35800614.8451818     
   35534025.2606722     
   35267097.3498582     
   35000000.0000000     
   50000000.0000000     
   49942108.5052937     
   49884153.1857007     
   49826070.2041778     
   49767795.6994966     
   49709265.7744715     
   49650416.4845703     
   49591183.8270387     
   49531503.7306658     
   49471312.0463203     
   49410544.5383884     
   49349136.8772438     
   49287024.6328789     
   49224143.2698343     
   49160428.1435548     
   49095814.4983094     
   49030237.4668073     
   48963632.0716494     
   48895933.2287476     
   48827075.7528539     
   48756994.3653333     
   48685623.7043227     
   48612898.3374144     
   48538752.7770034     
   48463121.4984391     
   48385938.9611228     
   48307139.6326891     
   48226658.0164131     
   48144428.6819792     
   48060386.2997532     
   47974465.6786894     
   47886601.8080105     
   47796729.9027886     
   47704785.4535582     
   47610704.2800853     
   47514422.5894119     
   47415877.0382914     
   47315004.8001264     
   47211743.6365078     
   47106031.9734530     
   46997808.9824273     
   46887014.6662256     
   46773589.9497796     
   46657476.7759441     
   46538618.2062995     
   46416958.5269979     
   46292443.3596590     
   46165019.7773061     
   46034636.4253128     
   45901243.6473086     
   45764793.6159702     
   45625240.4685958     
   45482540.4473393     
   45336652.0439447     
   45187536.1487954     
   45035156.2040547     
   44879478.3606416     
   44720471.6387450     
   44558108.0915399     
   44392362.9717265     
   44223214.9004664     
   44050646.0382404     
   43874642.2571081     
   43695193.3137898     
   43512293.0229392     
   43325939.4299181     
   43136134.9823261     
   42942886.6994744     
   42746206.3389321     
   42546110.5592080     
   42342621.0775685     
   42135764.8219218     
   41925574.0756380     
   41712086.6141048     
   41495345.8317581     
   41275400.8582615     
   41052306.6624516     
   40826124.1426092     
   40596920.2015628     
   40364767.8050945     
   40129746.0220724     
   39891940.0447119     
   39651441.1873529     
   39408346.8621337     
   39162760.5299625     
   38914791.6252146     
   38664555.4526411     
   38412173.0550557     
   38157771.0504733     
   37901481.4375183     
   37643441.3681010     
   37383792.8865843     
   37122682.6349408     
   36860261.5237218     
   36596684.3690616     
   36332109.4964010     
   36066698.3121537     
   35800614.8451818     
   35534025.2606721     
   35267097.3498582     
   35000000.0000000     
   50000000.0000000     
   49942108.5052937     
   49884153.1857007     
   49826070.2041777     
   49767795.6994966     
   49709265.7744715     
   49650416.4845703     
   49591183.8270387     
   49531503.7306658     
   49471312.0463202     
   49410544.5383884     
   49349136.8772438     
   49287024.6328789     
   49224143.2698343     
   49160428.1435548     
   49095814.4983094     
   49030237.4668073     
   48963632.0716494     
   48895933.2287476     
   48827075.7528539     
   48756994.3653332     
   48685623.7043226     
   48612898.3374144     
   48538752.7770034     
   48463121.4984391     
   48385938.9611228     
   48307139.6326891     
   48226658.0164131     
   48144428.6819792     
   48060386.2997532     
   47974465.6786894     
   47886601.8080105     
   47796729.9027885     
   47704785.4535583     
   47610704.2800853     
   47514422.5894118     
   47415877.0382914     
   47315004.8001264     
   47211743.6365078     
   47106031.9734530     
   46997808.9824273     
   46887014.6662256     
   46773589.9497796     
   46657476.7759441     
   46538618.2062995     
   46416958.5269979     
   46292443.3596590     
   46165019.7773061     
   46034636.4253128     
   45901243.6473087     
   45764793.6159702     
   45625240.4685958     
   45482540.4473393     
   45336652.0439447     
   45187536.1487954     
   45035156.2040548     
   44879478.3606416     
   44720471.6387450     
   44558108.0915399     
   44392362.9717265     
   44223214.9004663     
   44050646.0382404     
   43874642.2571080     
   43695193.3137898     
   43512293.0229392     
   43325939.4299181     
   43136134.9823261     
   42942886.6994744     
   42746206.3389320     
   42546110.5592080     
   42342621.0775685     
   42135764.8219218     
   41925574.0756380     
   41712086.6141048     
   41495345.8317581     
   41275400.8582615     
   41052306.6624516     
   40826124.1426092     
   40596920.2015628     
   40364767.8050945     
   40129746.0220724     
   39891940.0447119     
   39651441.1873528     
   39408346.8621337     
   39162760.5299625     
   38914791.6252146     
   38664555.4526410     
   38412173.0550557     
   38157771.0504733     
   37901481.4375183     
   37643441.3681009     
   37383792.8865843     
   37122682.6349408     
   36860261.5237218     
   36596684.3690616     
   36332109.4964010     
   36066698.3121536     
   35800614.8451818     
   35534025.2606721     
   35267097.3498582     
   35000000.0000000     
   50000000.0000000     
   49942108.5052937     
   49884153.1857007     
   49826070.2041777     
   49767795.6994965     
   49709265.7744714     
   49650416.4845703     
   49591183.8270387     
   49531503.7306658     
   49471312.0463202     
   49410544.5383884     
   49349136.8772438     
   49287024.6328788     
   49224143.2698343     
   49160428.1435548     
   49095814.4983094     
   49030237.4668073     
   48963632.0716494     
   48895933.2287476     
   48827075.7528539     
   48756994.3653332     
   48685623.7043226     
   48612898.3374144     
   48538752.7770034     
   48463121.4984391     
   48385938.9611228     
   48307139.6326891     
   48226658.0164130     
   48144428.6819792     
   48060386.2997532     
   47974465.6786894     
   47886601.8080105     
   47796729.9027885     
   47704785.4535583     
   47610704.2800853     
   47514422.5894118     
   47415877.0382914     
   47315004.8001264     
   47211743.6365078     
   47106031.9734530     
   46997808.9824273     
   46887014.6662256     
   46773589.9497796     
   46657476.7759441     
   46538618.2062995     
   46416958.5269979     
   46292443.3596590     
   46165019.7773061     
   46034636.4253128     
   45901243.6473087     
   45764793.6159702     
   45625240.4685958     
   45482540.4473392     
   45336652.0439447     
   45187536.1487954     
   45035156.2040548     
   44879478.3606416     
   44720471.6387450     
   44558108.0915399     
   44392362.9717265     
   44223214.9004663     
   44050646.0382403     
   43874642.2571080     
   43695193.3137898     
   43512293.0229392     
   43325939.4299181     
   43136134.9823261     
   42942886.6994744     
   42746206.3389320     
   42546110.5592079     
   42342621.0775685     
   42135764.8219218     
   41925574.0756380     
   41712086.6141048     
   41495345.8317580     
   41275400.8582615     
   41052306.6624516     
   40826124.1426092     
   40596920.2015628     
   40364767.8050945     
   40129746.0220724     
   39891940.0447119     
   39651441.1873528     
   39408346.8621336     
   39162760.5299625     
   38914791.6252146     
   38664555.4526410     
   38412173.0550557     
   38157771.0504733     
   37901481.4375183     
   37643441.3681009     
   37383792.8865843     
   37122682.6349408     
   36860261.5237217     
   36596684.3690616     
   36332109.4964010     
   36066698.3121536     
   35800614.8451817     
   35534025.2606721     
   35267097.3498582     
   35000000.0000000     
   50000000.0000000     
   49942108.5052937     
   49884153.1857007     
   49826070.2041777     
   49767795.6994965     
   49709265.7744714     
   49650416.4845702     
   49591183.8270387     
   49531503.7306657     
   49471312.0463201     
   49410544.5383884     
   49349136.8772437     
   49287024.6328788     
   49224143.2698342     
   49160428.1435548     
   49095814.4983093     
   49030237.4668073     
   48963632.0716493     
   48895933.2287476     
   48827075.7528539     
   48756994.3653332     
   48685623.7043225     
   48612898.3374144     
   48538752.7770034     
   48463121.4984391     
   48385938.9611228     
   48307139.6326891     
   48226658.0164130     
   48144428.6819792     
   48060386.2997531     
   47974465.6786894     
   47886601.8080104     
   47796729.9027885     
   47704785.4535582     
   47610704.2800853     
   47514422.5894118     
   47415877.0382914     
   47315004.8001264     
   47211743.6365078     
   47106031.9734529     
   46997808.9824273     
   46887014.6662256     
   46773589.9497795     
   46657476.7759441     
   46538618.2062994     
   46416958.5269979     
   46292443.3596590     
   46165019.7773061     
   46034636.4253128     
   45901243.6473087     
   45764793.6159702     
   45625240.4685958     
   45482540.4473392     
   45336652.0439446     
   45187536.1487954     
   45035156.2040547     
   44879478.3606416     
   44720471.6387450     
   44558108.0915398     
   44392362.9717265     
   44223214.9004663     
   44050646.0382402     
   43874642.2571079     
   43695193.3137898     
   43512293.0229392     
   43325939.4299181     
   43136134.9823261     
   42942886.6994744     
   42746206.3389320     
   42546110.5592079     
   42342621.0775685     
   42135764.8219218     
   41925574.0756379     
   41712086.6141048     
   41495345.8317580     
   41275400.8582614     
   41052306.6624516     
   40826124.1426091     
   40596920.2015627     
   40364767.8050945     
   40129746.0220723     
   39891940.0447119     
   39651441.1873528     
   39408346.8621336     
   39162760.5299625     
   38914791.6252145     
   38664555.4526410     
   38412173.0550556     
   38157771.0504733     
   37901481.4375183     
   37643441.3681009     
   37383792.8865843     
   37122682.6349408     
   36860261.5237217     
   36596684.3690616     
   36332109.4964010     
   36066698.3121536     
   35800614.8451817     
   35534025.2606720     
   35267097.3498582     
   35000000.0000000     
   50000000.0000000     
   49942108.5052937     
   49884153.1857006     
   49826070.2041777     
   49767795.6994965     
   49709265.7744714     
   49650416.4845702     
   49591183.8270387     
   49531503.7306657     
   49471312.0463201     
   49410544.5383884     
   49349136.8772437     
   49287024.6328788     
   49224143.2698342     
   49160428.1435548     
   49095814.4983093     
   49030237.4668073     
   48963632.0716493     
   48895933.2287476     
   48827075.7528539     
   48756994.3653332     
   48685623.7043225     
   48612898.3374143     
   48538752.7770033     
   48463121.4984391     
   48385938.9611227     
   48307139.6326891     
   48226658.0164130     
   48144428.6819791     
   48060386.2997531     
   47974465.6786894     
   47886601.8080104     
   47796729.9027885     
   47704785.4535581     
   47610704.2800853     
   47514422.5894117     
   47415877.0382914     
   47315004.8001264     
   47211743.6365077     
   47106031.9734530     
   46997808.9824273     
   46887014.6662256     
   46773589.9497795     
   46657476.7759440     
   46538618.2062995     
   46416958.5269979     
   46292443.3596590     
   46165019.7773061     
   46034636.4253128     
   45901243.6473086     
   45764793.6159702     
   45625240.4685958     
   45482540.4473391     
   45336652.0439446     
   45187536.1487954     
   45035156.2040548     
   44879478.3606416     
   44720471.6387450     
   44558108.0915397     
   44392362.9717265     
   44223214.9004662     
   44050646.0382402     
   43874642.2571079     
   43695193.3137898     
   43512293.0229392     
   43325939.4299181     
   43136134.9823260     
   42942886.6994743     
   42746206.3389320     
   42546110.5592079     
   42342621.0775684     
   42135764.8219217     
   41925574.0756379     
   41712086.6141048     
   41495345.8317579     
   41275400.8582614     
   41052306.6624516     
   40826124.1426091     
   40596920.2015627     
   40364767.8050944     
   40129746.0220723     
   39891940.0447118     
   39651441.1873527     
   39408346.8621335     
   39162760.5299624     
   38914791.6252145     
   38664555.4526409     
   38412173.0550556     
   38157771.0504733     
   37901481.4375182     
   37643441.3681009     
   37383792.8865843     
   37122682.6349408     
   36860261.5237217     
   36596684.3690616     
   36332109.4964010     
   36066698.3121537     
   35800614.8451816     
   35534025.2606720     
   35267097.3498581     
   35000000.0000000     
   50000000.0000000     
   49942108.5052937     
   49884153.1857006     
   49826070.2041776     
   49767795.6994965     
   49709265.7744713     
   49650416.4845702     
   49591183.8270387     
   49531503.7306657     
   49471312.0463201     
   49410544.5383884     
   49349136.8772436     
   49287024.6328788     
   49224143.2698341     
   49160428.1435548     
   49095814.4983093     
   49030237.4668073     
   48963632.0716493     
   48895933.2287476     
   48827075.7528539     
   48756994.3653332     
   48685623.7043225     
   48612898.3374143     
   48538752.7770033     
   48463121.4984391     
   48385938.9611227     
   48307139.6326891     
   48226658.0164130     
   48144428.6819791     
   48060386.2997530     
   47974465.6786894     
   47886601.8080104     
   47796729.9027884     
   47704785.4535582     
   47610704.2800853     
   47514422.5894118     
   47415877.0382914     
   47315004.8001264     
   47211743.6365078     
   47106031.9734530     
   46997808.9824273     
   46887014.6662256     
   46773589.9497795     
   46657476.7759441     
   46538618.2062994     
   46416958.5269979     
   46292443.3596590     
   46165019.7773061     
   46034636.4253128     
   45901243.6473086     
   45764793.6159702     
   45625240.4685958     
   45482540.4473391     
   45336652.0439446     
   45187536.1487954     
   45035156.2040547     
   44879478.3606417     
   44720471.6387450     
   44558108.0915397     
   44392362.9717265     
   44223214.9004662     
   44050646.0382402     
   43874642.2571079     
   43695193.3137898     
   43512293.0229392     
   43325939.4299181     
   43136134.9823260     
   42942886.6994744     
   42746206.3389319     
   42546110.5592079     
   42342621.0775684     
   42135764.8219217     
   41925574.0756378     
   41712086.6141047     
   41495345.8317579     
   41275400.8582613     
   41052306.6624516     
   40826124.1426090     
   40596920.2015627     
   40364767.8050944     
   40129746.0220723     
   39891940.0447118     
   39651441.1873526     
   39408346.8621335     
   39162760.5299624     
   38914791.6252144     
   38664555.4526409     
   38412173.0550556     
   38157771.0504733     
   37901481.4375182     
   37643441.3681009     
   37383792.8865843     
   37122682.6349408     
   36860261.5237217     
   36596684.3690616     
   36332109.4964009     
   36066698.3121536     
   35800614.8451816     
   35534025.2606720     
   35267097.3498581     
   35000000.0000000     
   50000000.0000000     
   49942108.5052938     
   49884153.1857006     
   49826070.2041776     
   49767795.6994964     
   49709265.7744713     
   49650416.4845702     
   49591183.8270387     
   49531503.7306657     
   49471312.0463201     
   49410544.5383884     
   49349136.8772436     
   49287024.6328788     
   49224143.2698342     
   49160428.1435547     
   49095814.4983093     
   49030237.4668073     
   48963632.0716493     
   48895933.2287476     
   48827075.7528539     
   48756994.3653332     
   48685623.7043225     
   48612898.3374143     
   48538752.7770033     
   48463121.4984391     
   48385938.9611227     
   48307139.6326891     
   48226658.0164130     
   48144428.6819791     
   48060386.2997530     
   47974465.6786894     
   47886601.8080104     
   47796729.9027884     
   47704785.4535581     
   47610704.2800853     
   47514422.5894118     
   47415877.0382914     
   47315004.8001264     
   47211743.6365078     
   47106031.9734530     
   46997808.9824273     
   46887014.6662255     
   46773589.9497796     
   46657476.7759441     
   46538618.2062994     
   46416958.5269978     
   46292443.3596591     
   46165019.7773062     
   46034636.4253128     
   45901243.6473087     
   45764793.6159702     
   45625240.4685958     
   45482540.4473391     
   45336652.0439446     
   45187536.1487954     
   45035156.2040548     
   44879478.3606417     
   44720471.6387450     
   44558108.0915397     
   44392362.9717265     
   44223214.9004662     
   44050646.0382401     
   43874642.2571079     
   43695193.3137898     
   43512293.0229392     
   43325939.4299180     
   43136134.9823260     
   42942886.6994743     
   42746206.3389319     
   42546110.5592079     
   42342621.0775683     
   42135764.8219217     
   41925574.0756379     
   41712086.6141047     
   41495345.8317579     
   41275400.8582613     
   41052306.6624516     
   40826124.1426090     
   40596920.2015626     
   40364767.8050944     
   40129746.0220723     
   39891940.0447118     
   39651441.1873526     
   39408346.8621335     
   39162760.5299624     
   38914791.6252144     
   38664555.4526409     
   38412173.0550555     
   38157771.0504732     
   37901481.4375182     
   37643441.3681009     
   37383792.8865843     
   37122682.6349408     
   36860261.5237216     
   36596684.3690616     
   36332109.4964009     
   36066698.3121536     
   35800614.8451816     
   35534025.2606720     
   35267097.3498581     
   35000000.0000000     
   50000000.0000000     
   49942108.5052938     
   49884153.1857006     
   49826070.2041775     
   49767795.6994964     
   49709265.7744713     
   49650416.4845702     
   49591183.8270386     
   49531503.7306657     
   49471312.0463201     
   49410544.5383884     
   49349136.8772436     
   49287024.6328788     
   49224143.2698342     
   49160428.1435548     
   49095814.4983093     
   49030237.4668073     
   48963632.0716494     
   48895933.2287476     
   48827075.7528539     
   48756994.3653331     
   48685623.7043225     
   48612898.3374143     
   48538752.7770033     
   48463121.4984391     
   48385938.9611227     
   48307139.6326890     
   48226658.0164130     
   48144428.6819790     
   48060386.2997530     
   47974465.6786894     
   47886601.8080103     
   47796729.9027884     
   47704785.4535581     
   47610704.2800853     
   47514422.5894118     
   47415877.0382914     
   47315004.8001264     
   47211743.6365078     
   47106031.9734530     
   46997808.9824273     
   46887014.6662256     
   46773589.9497795     
   46657476.7759441     
   46538618.2062994     
   46416958.5269979     
   46292443.3596590     
   46165019.7773062     
   46034636.4253128     
   45901243.6473087     
   45764793.6159702     
   45625240.4685957     
   45482540.4473392     
   45336652.0439446     
   45187536.1487954     
   45035156.2040548     
   44879478.3606417     
   44720471.6387450     
   44558108.0915397     
   44392362.9717265     
   44223214.9004662     
   44050646.0382401     
   43874642.2571079     
   43695193.3137897     
   43512293.0229392     
   43325939.4299180     
   43136134.9823260     
   42942886.6994743     
   42746206.3389319     
   42546110.5592078     
   42342621.0775683     
   42135764.8219216     
   41925574.0756378     
   41712086.6141047     
   41495345.8317579     
   41275400.8582613     
   41052306.6624515     
   40826124.1426090     
   40596920.2015626     
   40364767.8050943     
   40129746.0220722     
   39891940.0447117     
   39651441.1873526     
   39408346.8621334     
   39162760.5299623     
   38914791.6252144     
   38664555.4526408     
   38412173.0550555     
   38157771.0504732     
   37901481.4375183     
   37643441.3681009     
   37383792.8865843     
   37122682.6349408     
   36860261.5237216     
   36596684.3690616     
   36332109.4964009     
   36066698.3121536     
   35800614.8451816     
   35534025.2606720     
   35267097.3498581     
   35000000.0000000     
   50000000.0000000     
   49942108.5052938     
   49884153.1857006     
   49826070.2041775     
   49767795.6994964     
   49709265.7744713     
   49650416.4845701     
   49591183.8270386     
   49531503.7306656     
   49471312.0463200     
   49410544.5383883     
   49349136.8772436     
   49287024.6328787     
   49224143.2698341     
   49160428.1435547     
   49095814.4983093     
   49030237.4668073     
   48963632.0716493     
   48895933.2287476     
   48827075.7528539     
   48756994.3653331     
   48685623.7043225     
   48612898.3374143     
   48538752.7770032     
   48463121.4984390     
   48385938.9611227     
   48307139.6326890     
   48226658.0164130     
   48144428.6819790     
   48060386.2997530     
   47974465.6786894     
   47886601.8080103     
   47796729.9027884     
   47704785.4535580     
   47610704.2800852     
   47514422.5894118     
   47415877.0382914     
   47315004.8001264     
   47211743.6365078     
   47106031.9734530     
   46997808.9824273     
   46887014.6662256     
   46773589.9497796     
   46657476.7759441     
   46538618.2062994     
   46416958.5269979     
   46292443.3596591     
   46165019.7773062     
   46034636.4253128     
   45901243.6473087     
   45764793.6159702     
   45625240.4685957     
   45482540.4473391     
   45336652.0439446     
   45187536.1487954     
   45035156.2040548     
   44879478.3606417     
   44720471.6387450     
   44558108.0915397     
   44392362.9717265     
   44223214.9004662     
   44050646.0382401     
   43874642.2571079     
   43695193.3137897     
   43512293.0229392     
   43325939.4299180     
   43136134.9823260     
   42942886.6994743     
   42746206.3389319     
   42546110.5592078     
   42342621.0775683     
   42135764.8219216     
   41925574.0756378     
   41712086.6141046     
   41495345.8317579     
   41275400.8582612     
   41052306.6624515     
   40826124.1426090     
   40596920.2015626     
   40364767.8050943     
   40129746.0220722     
   39891940.0447117     
   39651441.1873526     
   39408346.8621334     
   39162760.5299623     
   38914791.6252144     
   38664555.4526408     
   38412173.0550555     
   38157771.0504731     
   37901481.4375182     
   37643441.3681008     
   37383792.8865843     
   37122682.6349407     
   36860261.5237217     
   36596684.3690616     
   36332109.4964009     
   36066698.3121535     
   35800614.8451816     
   35534025.2606720     
   35267097.3498582     
   35000000.0000000     
   50000000.0000000     
   49942108.5052938     
   49884153.1857006     
   49826070.2041774     
   49767795.6994963     
   49709265.7744712     
   49650416.4845701     
   49591183.8270385     
   49531503.7306656     
   49471312.0463200     
   49410544.5383883     
   49349136.8772436     
   49287024.6328787     
   49224143.2698341     
   49160428.1435547     
   49095814.4983093     
   49030237.4668073     
   48963632.0716493     
   48895933.2287476     
   48827075.7528539     
   48756994.3653331     
   48685623.7043224     
   48612898.3374142     
   48538752.7770033     
   48463121.4984391     
   48385938.9611227     
   48307139.6326890     
   48226658.0164130     
   48144428.6819789     
   48060386.2997530     
   47974465.6786894     
   47886601.8080103     
   47796729.9027883     
   47704785.4535580     
   47610704.2800852     
   47514422.5894117     
   47415877.0382913     
   47315004.8001264     
   47211743.6365078     
   47106031.9734530     
   46997808.9824274     
   46887014.6662256     
   46773589.9497796     
   46657476.7759441     
   46538618.2062994     
   46416958.5269979     
   46292443.3596590     
   46165019.7773062     
   46034636.4253128     
   45901243.6473087     
   45764793.6159702     
   45625240.4685957     
   45482540.4473391     
   45336652.0439445     
   45187536.1487954     
   45035156.2040548     
   44879478.3606418     
   44720471.6387450     
   44558108.0915397     
   44392362.9717265     
   44223214.9004662     
   44050646.0382401     
   43874642.2571078     
   43695193.3137897     
   43512293.0229392     
   43325939.4299180     
   43136134.9823260     
   42942886.6994743     
   42746206.3389319     
   42546110.5592078     
   42342621.0775683     
   42135764.8219216     
   41925574.0756377     
   41712086.6141046     
   41495345.8317579     
   41275400.8582612     
   41052306.6624515     
   40826124.1426090     
   40596920.2015625     
   40364767.8050943     
   40129746.0220722     
   39891940.0447117     
   39651441.1873526     
   39408346.8621334     
   39162760.5299623     
   38914791.6252144     
   38664555.4526408     
   38412173.0550555     
   38157771.0504731     
   37901481.4375182     
   37643441.3681008     
   37383792.8865843     
   37122682.6349407     
   36860261.5237217     
   36596684.3690615     
   36332109.4964008     
   36066698.3121535     
   35800614.8451816     
   35534025.2606720     
   35267097.3498582     
   35000000.0000000     
   50000000.0000000     
   49942108.5052938     
   49884153.1857006     
   49826070.2041774     
   49767795.6994963     
   49709265.7744712     
   49650416.4845700     
   49591183.8270385     
   49531503.7306655     
   49471312.0463199     
   49410544.5383883     
   49349136.8772435     
   49287024.6328788     
   49224143.2698341     
   49160428.1435547     
   49095814.4983092     
   49030237.4668072     
   48963632.0716493     
   48895933.2287475     
   48827075.7528538     
   48756994.3653331     
   48685623.7043224     
   48612898.3374141     
   48538752.7770032     
   48463121.4984390     
   48385938.9611227     
   48307139.6326889     
   48226658.0164129     
   48144428.6819789     
   48060386.2997530     
   47974465.6786893     
   47886601.8080103     
   47796729.9027883     
   47704785.4535580     
   47610704.2800852     
   47514422.5894116     
   47415877.0382913     
   47315004.8001264     
   47211743.6365079     
   47106031.9734530     
   46997808.9824273     
   46887014.6662255     
   46773589.9497796     
   46657476.7759441     
   46538618.2062994     
   46416958.5269979     
   46292443.3596590     
   46165019.7773062     
   46034636.4253128     
   45901243.6473086     
   45764793.6159702     
   45625240.4685957     
   45482540.4473390     
   45336652.0439445     
   45187536.1487953     
   45035156.2040548     
   44879478.3606418     
   44720471.6387450     
   44558108.0915397     
   44392362.9717265     
   44223214.9004662     
   44050646.0382400     
   43874642.2571078     
   43695193.3137897     
   43512293.0229392     
   43325939.4299179     
   43136134.9823260     
   42942886.6994743     
   42746206.3389319     
   42546110.5592078     
   42342621.0775682     
   42135764.8219215     
   41925574.0756377     
   41712086.6141045     
   41495345.8317578     
   41275400.8582612     
   41052306.6624514     
   40826124.1426090     
   40596920.2015625     
   40364767.8050943     
   40129746.0220721     
   39891940.0447117     
   39651441.1873526     
   39408346.8621334     
   39162760.5299623     
   38914791.6252144     
   38664555.4526408     
   38412173.0550555     
   38157771.0504731     
   37901481.4375182     
   37643441.3681008     
   37383792.8865842     
   37122682.6349407     
   36860261.5237216     
   36596684.3690615     
   36332109.4964008     
   36066698.3121535     
   35800614.8451816     
   35534025.2606720     
   35267097.3498581     
   35000000.0000000     
   50000000.0000000     
   49942108.5052938     
   49884153.1857006     
   49826070.2041774     
   49767795.6994962     
   49709265.7744712     
   49650416.4845699     
   49591183.8270385     
   49531503.7306654     
   49471312.0463199     
   49410544.5383883     
   49349136.8772434     
   49287024.6328787     
   49224143.2698341     
   49160428.1435547     
   49095814.4983092     
   49030237.4668071     
   48963632.0716492     
   48895933.2287475     
   48827075.7528538     
   48756994.3653331     
   48685623.7043223     
   48612898.3374141     
   48538752.7770031     
   48463121.4984390     
   48385938.9611226     
   48307139.6326889     
   48226658.0164129     
   48144428.6819790     
   48060386.2997529     
   47974465.6786893     
   47886601.8080103     
   47796729.9027883     
   47704785.4535579     
   47610704.2800851     
   47514422.5894116     
   47415877.0382912     
   47315004.8001264     
   47211743.6365078     
   47106031.9734531     
   46997808.9824273     
   46887014.6662255     
   46773589.9497796     
   46657476.7759441     
   46538618.2062994     
   46416958.5269978     
   46292443.3596591     
   46165019.7773062     
   46034636.4253128     
   45901243.6473086     
   45764793.6159702     
   45625240.4685957     
   45482540.4473390     
   45336652.0439445     
   45187536.1487953     
   45035156.2040548     
   44879478.3606418     
   44720471.6387450     
   44558108.0915397     
   44392362.9717265     
   44223214.9004662     
   44050646.0382400     
   43874642.2571077     
   43695193.3137897     
   43512293.0229392     
   43325939.4299179     
   43136134.9823259     
   42942886.6994743     
   42746206.3389319     
   42546110.5592077     
   42342621.0775682     
   42135764.8219215     
   41925574.0756377     
   41712086.6141045     
   41495345.8317578     
   41275400.8582612     
   41052306.6624514     
   40826124.1426089     
   40596920.2015624     
   40364767.8050943     
   40129746.0220721     
   39891940.0447117     
   39651441.1873526     
   39408346.8621334     
   39162760.5299622     
   38914791.6252143     
   38664555.4526408     
   38412173.0550555     
   38157771.0504731     
   37901481.4375182     
   37643441.3681007     
   37383792.8865842     
   37122682.6349407     
   36860261.5237216     
   36596684.3690615     
   36332109.4964008     
   36066698.3121535     
   35800614.8451816     
   35534025.2606720     
   35267097.3498581     
   35000000.0000000     
   50000000.0000000     
   49942108.5052938     
   49884153.1857006     
   49826070.2041774     
   49767795.6994962     
   49709265.7744711     
   49650416.4845699     
   49591183.8270385     
   49531503.7306654     
   49471312.0463198     
   49410544.5383882     
   49349136.8772434     
   49287024.6328787     
   49224143.2698340     
   49160428.1435546     
   49095814.4983092     
   49030237.4668071     
   48963632.0716492     
   48895933.2287475     
   48827075.7528537     
   48756994.3653331     
   48685623.7043223     
   48612898.3374140     
   48538752.7770031     
   48463121.4984389     
   48385938.9611226     
   48307139.6326889     
   48226658.0164128     
   48144428.6819789     
   48060386.2997529     
   47974465.6786892     
   47886601.8080103     
   47796729.9027882     
   47704785.4535579     
   47610704.2800851     
   47514422.5894116     
   47415877.0382912     
   47315004.8001264     
   47211743.6365078     
   47106031.9734531     
   46997808.9824273     
   46887014.6662255     
   46773589.9497795     
   46657476.7759441     
   46538618.2062994     
   46416958.5269978     
   46292443.3596591     
   46165019.7773061     
   46034636.4253128     
   45901243.6473086     
   45764793.6159702     
   45625240.4685957     
   45482540.4473390     
   45336652.0439445     
   45187536.1487953     
   45035156.2040548     
   44879478.3606418     
   44720471.6387450     
   44558108.0915398     
   44392362.9717265     
   44223214.9004662     
   44050646.0382400     
   43874642.2571077     
   43695193.3137897     
   43512293.0229392     
   43325939.4299180     
   43136134.9823260     
   42942886.6994743     
   42746206.3389319     
   42546110.5592077     
   42342621.0775682     
   42135764.8219215     
   41925574.0756377     
   41712086.6141045     
   41495345.8317578     
   41275400.8582612     
   41052306.6624514     
   40826124.1426089     
   40596920.2015625     
   40364767.8050942     
   40129746.0220721     
   39891940.0447117     
   39651441.1873526     
   39408346.8621334     
   39162760.5299622     
   38914791.6252143     
   38664555.4526408     
   38412173.0550554     
   38157771.0504730     
   37901481.4375181     
   37643441.3681007     
   37383792.8865841     
   37122682.6349406     
   36860261.5237216     
   36596684.3690614     
   36332109.4964007     
   36066698.3121535     
   35800614.8451816     
   35534025.2606720     
   35267097.3498581     
   35000000.0000000     
   50000000.0000000     
   49942108.5052937     
   49884153.1857006     
   49826070.2041774     
   49767795.6994962     
   49709265.7744711     
   49650416.4845698     
   49591183.8270384     
   49531503.7306654     
   49471312.0463198     
   49410544.5383881     
   49349136.8772434     
   49287024.6328786     
   49224143.2698340     
   49160428.1435546     
   49095814.4983092     
   49030237.4668071     
   48963632.0716491     
   48895933.2287475     
   48827075.7528536     
   48756994.3653330     
   48685623.7043223     
   48612898.3374139     
   48538752.7770031     
   48463121.4984388     
   48385938.9611226     
   48307139.6326889     
   48226658.0164128     
   48144428.6819789     
   48060386.2997528     
   47974465.6786892     
   47886601.8080103     
   47796729.9027882     
   47704785.4535579     
   47610704.2800850     
   47514422.5894115     
   47415877.0382912     
   47315004.8001263     
   47211743.6365078     
   47106031.9734531     
   46997808.9824273     
   46887014.6662255     
   46773589.9497795     
   46657476.7759441     
   46538618.2062994     
   46416958.5269979     
   46292443.3596591     
   46165019.7773062     
   46034636.4253128     
   45901243.6473087     
   45764793.6159702     
   45625240.4685958     
   45482540.4473391     
   45336652.0439445     
   45187536.1487954     
   45035156.2040548     
   44879478.3606418     
   44720471.6387451     
   44558108.0915398     
   44392362.9717265     
   44223214.9004662     
   44050646.0382401     
   43874642.2571078     
   43695193.3137897     
   43512293.0229392     
   43325939.4299180     
   43136134.9823260     
   42942886.6994743     
   42746206.3389319     
   42546110.5592077     
   42342621.0775681     
   42135764.8219215     
   41925574.0756377     
   41712086.6141045     
   41495345.8317578     
   41275400.8582612     
   41052306.6624514     
   40826124.1426089     
   40596920.2015625     
   40364767.8050942     
   40129746.0220721     
   39891940.0447116     
   39651441.1873526     
   39408346.8621334     
   39162760.5299622     
   38914791.6252143     
   38664555.4526407     
   38412173.0550554     
   38157771.0504730     
   37901481.4375181     
   37643441.3681006     
   37383792.8865841     
   37122682.6349406     
   36860261.5237215     
   36596684.3690614     
   36332109.4964007     
   36066698.3121534     
   35800614.8451816     
   35534025.2606720     
   35267097.3498580     
   35000000.0000000     
   50000000.0000000     
   49942108.5052937     
   49884153.1857006     
   49826070.2041774     
   49767795.6994961     
   49709265.7744710     
   49650416.4845697     
   49591183.8270384     
   49531503.7306653     
   49471312.0463197     
   49410544.5383881     
   49349136.8772433     
   49287024.6328785     
   49224143.2698339     
   49160428.1435546     
   49095814.4983091     
   49030237.4668070     
   48963632.0716491     
   48895933.2287474     
   48827075.7528535     
   48756994.3653329     
   48685623.7043222     
   48612898.3374138     
   48538752.7770031     
   48463121.4984388     
   48385938.9611226     
   48307139.6326888     
   48226658.0164128     
   48144428.6819789     
   48060386.2997528     
   47974465.6786892     
   47886601.8080103     
   47796729.9027881     
   47704785.4535578     
   47610704.2800850     
   47514422.5894116     
   47415877.0382912     
   47315004.8001264     
   47211743.6365078     
   47106031.9734531     
   46997808.9824273     
   46887014.6662255     
   46773589.9497796     
   46657476.7759441     
   46538618.2062994     
   46416958.5269979     
   46292443.3596592     
   46165019.7773062     
   46034636.4253128     
   45901243.6473086     
   45764793.6159703     
   45625240.4685958     
   45482540.4473391     
   45336652.0439446     
   45187536.1487953     
   45035156.2040549     
   44879478.3606419     
   44720471.6387451     
   44558108.0915398     
   44392362.9717265     
   44223214.9004662     
   44050646.0382401     
   43874642.2571078     
   43695193.3137897     
   43512293.0229392     
   43325939.4299181     
   43136134.9823260     
   42942886.6994743     
   42746206.3389319     
   42546110.5592077     
   42342621.0775682     
   42135764.8219215     
   41925574.0756377     
   41712086.6141045     
   41495345.8317577     
   41275400.8582611     
   41052306.6624514     
   40826124.1426088     
   40596920.2015625     
   40364767.8050943     
   40129746.0220721     
   39891940.0447116     
   39651441.1873526     
   39408346.8621334     
   39162760.5299622     
   38914791.6252142     
   38664555.4526407     
   38412173.0550554     
   38157771.0504730     
   37901481.4375181     
   37643441.3681006     
   37383792.8865841     
   37122682.6349406     
   36860261.5237215     
   36596684.3690614     
   36332109.4964007     
   36066698.3121534     
   35800614.8451816     
   35534025.2606720     
   35267097.3498580     
   35000000.0000000     
   50000000.0000000     
   49942108.5052936     
   49884153.1857006     
   49826070.2041774     
   49767795.6994961     
   49709265.7744710     
   49650416.4845697     
   49591183.8270383     
   49531503.7306653     
   49471312.0463197     
   49410544.5383880     
   49349136.8772433     
   49287024.6328784     
   49224143.2698339     
   49160428.1435545     
   49095814.4983091     
   49030237.4668070     
   48963632.0716491     
   48895933.2287474     
   48827075.7528535     
   48756994.3653328     
   48685623.7043222     
   48612898.3374139     
   48538752.7770030     
   48463121.4984388     
   48385938.9611226     
   48307139.6326889     
   48226658.0164127     
   48144428.6819788     
   48060386.2997528     
   47974465.6786891     
   47886601.8080102     
   47796729.9027881     
   47704785.4535578     
   47610704.2800849     
   47514422.5894116     
   47415877.0382912     
   47315004.8001263     
   47211743.6365078     
   47106031.9734531     
   46997808.9824274     
   46887014.6662255     
   46773589.9497796     
   46657476.7759441     
   46538618.2062994     
   46416958.5269980     
   46292443.3596592     
   46165019.7773062     
   46034636.4253128     
   45901243.6473087     
   45764793.6159703     
   45625240.4685958     
   45482540.4473391     
   45336652.0439446     
   45187536.1487954     
   45035156.2040549     
   44879478.3606419     
   44720471.6387451     
   44558108.0915399     
   44392362.9717265     
   44223214.9004662     
   44050646.0382401     
   43874642.2571078     
   43695193.3137897     
   43512293.0229392     
   43325939.4299181     
   43136134.9823260     
   42942886.6994743     
   42746206.3389318     
   42546110.5592077     
   42342621.0775682     
   42135764.8219215     
   41925574.0756377     
   41712086.6141046     
   41495345.8317578     
   41275400.8582612     
   41052306.6624513     
   40826124.1426088     
   40596920.2015625     
   40364767.8050943     
   40129746.0220721     
   39891940.0447116     
   39651441.1873526     
   39408346.8621334     
   39162760.5299622     
   38914791.6252142     
   38664555.4526407     
   38412173.0550553     
   38157771.0504730     
   37901481.4375181     
   37643441.3681005     
   37383792.8865840     
   37122682.6349406     
   36860261.5237215     
   36596684.3690613     
   36332109.4964007     
   36066698.3121534     
   35800614.8451816     
   35534025.2606720     
   35267097.3498580     
   35000000.0000000     
   50000000.0000000     
   49942108.5052936     
   49884153.1857006     
   49826070.2041774     
   49767795.6994961     
   49709265.7744710     
   49650416.4845698     
   49591183.8270383     
   49531503.7306653     
   49471312.0463197     
   49410544.5383879     
   49349136.8772432     
   49287024.6328784     
   49224143.2698338     
   49160428.1435545     
   49095814.4983091     
   49030237.4668070     
   48963632.0716490     
   48895933.2287473     
   48827075.7528534     
   48756994.3653327     
   48685623.7043221     
   48612898.3374138     
   48538752.7770030     
   48463121.4984387     
   48385938.9611226     
   48307139.6326889     
   48226658.0164127     
   48144428.6819788     
   48060386.2997527     
   47974465.6786891     
   47886601.8080102     
   47796729.9027880     
   47704785.4535578     
   47610704.2800849     
   47514422.5894116     
   47415877.0382912     
   47315004.8001264     
   47211743.6365077     
   47106031.9734531     
   46997808.9824274     
   46887014.6662255     
   46773589.9497796     
   46657476.7759441     
   46538618.2062995     
   46416958.5269979     
   46292443.3596592     
   46165019.7773062     
   46034636.4253128     
   45901243.6473087     
   45764793.6159704     
   45625240.4685959     
   45482540.4473392     
   45336652.0439446     
   45187536.1487954     
   45035156.2040549     
   44879478.3606419     
   44720471.6387452     
   44558108.0915399     
   44392362.9717265     
   44223214.9004662     
   44050646.0382401     
   43874642.2571078     
   43695193.3137898     
   43512293.0229392     
   43325939.4299181     
   43136134.9823259     
   42942886.6994743     
   42746206.3389318     
   42546110.5592078     
   42342621.0775682     
   42135764.8219215     
   41925574.0756377     
   41712086.6141046     
   41495345.8317578     
   41275400.8582611     
   41052306.6624513     
   40826124.1426089     
   40596920.2015624     
   40364767.8050943     
   40129746.0220721     
   39891940.0447116     
   39651441.1873526     
   39408346.8621334     
   39162760.5299622     
   38914791.6252142     
   38664555.4526407     
   38412173.0550553     
   38157771.0504730     
   37901481.4375180     
   37643441.3681005     
   37383792.8865840     
   37122682.6349406     
   36860261.5237215     
   36596684.3690613     
   36332109.4964006     
   36066698.3121534     
   35800614.8451815     
   35534025.2606720     
   35267097.3498580     
   35000000.0000000     
   50000000.0000000     
   49942108.5052936     
   49884153.1857005     
   49826070.2041774     
   49767795.6994960     
   49709265.7744709     
   49650416.4845697     
   49591183.8270382     
   49531503.7306652     
   49471312.0463196     
   49410544.5383878     
   49349136.8772432     
   49287024.6328783     
   49224143.2698338     
   49160428.1435544     
   49095814.4983090     
   49030237.4668069     
   48963632.0716490     
   48895933.2287472     
   48827075.7528534     
   48756994.3653327     
   48685623.7043220     
   48612898.3374138     
   48538752.7770029     
   48463121.4984387     
   48385938.9611225     
   48307139.6326889     
   48226658.0164127     
   48144428.6819788     
   48060386.2997527     
   47974465.6786891     
   47886601.8080102     
   47796729.9027880     
   47704785.4535578     
   47610704.2800849     
   47514422.5894116     
   47415877.0382912     
   47315004.8001264     
   47211743.6365077     
   47106031.9734531     
   46997808.9824274     
   46887014.6662255     
   46773589.9497796     
   46657476.7759441     
   46538618.2062995     
   46416958.5269979     
   46292443.3596592     
   46165019.7773063     
   46034636.4253128     
   45901243.6473088     
   45764793.6159704     
   45625240.4685959     
   45482540.4473392     
   45336652.0439447     
   45187536.1487955     
   45035156.2040550     
   44879478.3606420     
   44720471.6387452     
   44558108.0915399     
   44392362.9717265     
   44223214.9004662     
   44050646.0382401     
   43874642.2571079     
   43695193.3137898     
   43512293.0229392     
   43325939.4299181     
   43136134.9823260     
   42942886.6994743     
   42746206.3389318     
   42546110.5592078     
   42342621.0775682     
   42135764.8219215     
   41925574.0756377     
   41712086.6141045     
   41495345.8317578     
   41275400.8582612     
   41052306.6624513     
   40826124.1426088     
   40596920.2015625     
   40364767.8050943     
   40129746.0220722     
   39891940.0447116     
   39651441.1873526     
   39408346.8621334     
   39162760.5299622     
   38914791.6252141     
   38664555.4526406     
   38412173.0550554     
   38157771.0504729     
   37901481.4375180     
   37643441.3681005     
   37383792.8865840     
   37122682.6349406     
   36860261.5237215     
   36596684.3690612     
   36332109.4964006     
   36066698.3121533     
   35800614.8451815     
   35534025.2606719     
   35267097.3498580     
   35000000.0000000     
   50000000.0000000     
   49942108.5052936     
   49884153.1857004     
   49826070.2041774     
   49767795.6994959     
   49709265.7744708     
   49650416.4845697     
   49591183.8270382     
   49531503.7306651     
   49471312.0463196     
   49410544.5383877     
   49349136.8772432     
   49287024.6328783     
   49224143.2698337     
   49160428.1435544     
   49095814.4983090     
   49030237.4668069     
   48963632.0716490     
   48895933.2287471     
   48827075.7528533     
   48756994.3653326     
   48685623.7043220     
   48612898.3374137     
   48538752.7770028     
   48463121.4984386     
   48385938.9611225     
   48307139.6326888     
   48226658.0164126     
   48144428.6819787     
   48060386.2997527     
   47974465.6786891     
   47886601.8080101     
   47796729.9027880     
   47704785.4535577     
   47610704.2800849     
   47514422.5894116     
   47415877.0382912     
   47315004.8001263     
   47211743.6365078     
   47106031.9734531     
   46997808.9824273     
   46887014.6662255     
   46773589.9497796     
   46657476.7759442     
   46538618.2062995     
   46416958.5269979     
   46292443.3596592     
   46165019.7773062     
   46034636.4253129     
   45901243.6473089     
   45764793.6159705     
   45625240.4685959     
   45482540.4473392     
   45336652.0439447     
   45187536.1487955     
   45035156.2040550     
   44879478.3606420     
   44720471.6387453     
   44558108.0915399     
   44392362.9717265     
   44223214.9004662     
   44050646.0382401     
   43874642.2571079     
   43695193.3137898     
   43512293.0229393     
   43325939.4299181     
   43136134.9823260     
   42942886.6994743     
   42746206.3389318     
   42546110.5592078     
   42342621.0775683     
   42135764.8219215     
   41925574.0756377     
   41712086.6141046     
   41495345.8317578     
   41275400.8582611     
   41052306.6624514     
   40826124.1426088     
   40596920.2015625     
   40364767.8050943     
   40129746.0220722     
   39891940.0447116     
   39651441.1873527     
   39408346.8621334     
   39162760.5299622     
   38914791.6252141     
   38664555.4526406     
   38412173.0550553     
   38157771.0504729     
   37901481.4375179     
   37643441.3681005     
   37383792.8865840     
   37122682.6349405     
   36860261.5237214     
   36596684.3690612     
   36332109.4964005     
   36066698.3121533     
   35800614.8451815     
   35534025.2606719     
   35267097.3498580     
   35000000.0000000     
   50000000.0000000     
   49942108.5052936     
   49884153.1857004     
   49826070.2041773     
   49767795.6994959     
   49709265.7744708     
   49650416.4845697     
   49591183.8270381     
   49531503.7306651     
   49471312.0463195     
   49410544.5383877     
   49349136.8772430     
   49287024.6328783     
   49224143.2698337     
   49160428.1435543     
   49095814.4983089     
   49030237.4668068     
   48963632.0716489     
   48895933.2287471     
   48827075.7528533     
   48756994.3653326     
   48685623.7043219     
   48612898.3374136     
   48538752.7770028     
   48463121.4984386     
   48385938.9611224     
   48307139.6326887     
   48226658.0164126     
   48144428.6819786     
   48060386.2997526     
   47974465.6786890     
   47886601.8080101     
   47796729.9027879     
   47704785.4535577     
   47610704.2800849     
   47514422.5894116     
   47415877.0382912     
   47315004.8001263     
   47211743.6365078     
   47106031.9734530     
   46997808.9824274     
   46887014.6662256     
   46773589.9497797     
   46657476.7759442     
   46538618.2062996     
   46416958.5269979     
   46292443.3596592     
   46165019.7773063     
   46034636.4253128     
   45901243.6473089     
   45764793.6159704     
   45625240.4685960     
   45482540.4473393     
   45336652.0439447     
   45187536.1487955     
   45035156.2040551     
   44879478.3606420     
   44720471.6387453     
   44558108.0915400     
   44392362.9717265     
   44223214.9004662     
   44050646.0382401     
   43874642.2571079     
   43695193.3137899     
   43512293.0229393     
   43325939.4299181     
   43136134.9823260     
   42942886.6994743     
   42746206.3389318     
   42546110.5592078     
   42342621.0775682     
   42135764.8219215     
   41925574.0756377     
   41712086.6141045     
   41495345.8317578     
   41275400.8582611     
   41052306.6624514     
   40826124.1426088     
   40596920.2015624     
   40364767.8050943     
   40129746.0220722     
   39891940.0447116     
   39651441.1873527     
   39408346.8621334     
   39162760.5299622     
   38914791.6252141     
   38664555.4526406     
   38412173.0550553     
   38157771.0504729     
   37901481.4375178     
   37643441.3681005     
   37383792.8865839     
   37122682.6349405     
   36860261.5237214     
   36596684.3690612     
   36332109.4964005     
   36066698.3121533     
   35800614.8451815     
   35534025.2606719     
   35267097.3498580     
   35000000.0000000     
   50000000.0000000     
   49942108.5052936     
   49884153.1857003     
   49826070.2041773     
   49767795.6994959     
   49709265.7744707     
   49650416.4845696     
   49591183.8270381     
   49531503.7306650     
   49471312.0463195     
   49410544.5383876     
   49349136.8772429     
   49287024.6328782     
   49224143.2698336     
   49160428.1435542     
   49095814.4983088     
   49030237.4668067     
   48963632.0716488     
   48895933.2287471     
   48827075.7528533     
   48756994.3653324     
   48685623.7043218     
   48612898.3374134     
   48538752.7770027     
   48463121.4984385     
   48385938.9611224     
   48307139.6326887     
   48226658.0164125     
   48144428.6819786     
   48060386.2997526     
   47974465.6786890     
   47886601.8080100     
   47796729.9027879     
   47704785.4535577     
   47610704.2800849     
   47514422.5894116     
   47415877.0382911     
   47315004.8001263     
   47211743.6365078     
   47106031.9734530     
   46997808.9824274     
   46887014.6662256     
   46773589.9497797     
   46657476.7759442     
   46538618.2062996     
   46416958.5269980     
   46292443.3596592     
   46165019.7773062     
   46034636.4253128     
   45901243.6473089     
   45764793.6159704     
   45625240.4685959     
   45482540.4473393     
   45336652.0439447     
   45187536.1487956     
   45035156.2040551     
   44879478.3606420     
   44720471.6387453     
   44558108.0915400     
   44392362.9717265     
   44223214.9004662     
   44050646.0382401     
   43874642.2571079     
   43695193.3137899     
   43512293.0229393     
   43325939.4299181     
   43136134.9823260     
   42942886.6994743     
   42746206.3389318     
   42546110.5592077     
   42342621.0775682     
   42135764.8219215     
   41925574.0756377     
   41712086.6141045     
   41495345.8317577     
   41275400.8582611     
   41052306.6624513     
   40826124.1426088     
   40596920.2015624     
   40364767.8050942     
   40129746.0220722     
   39891940.0447116     
   39651441.1873527     
   39408346.8621334     
   39162760.5299622     
   38914791.6252141     
   38664555.4526406     
   38412173.0550553     
   38157771.0504728     
   37901481.4375178     
   37643441.3681004     
   37383792.8865839     
   37122682.6349404     
   36860261.5237213     
   36596684.3690611     
   36332109.4964004     
   36066698.3121533     
   35800614.8451814     
   35534025.2606719     
   35267097.3498580     
   35000000.0000000     
   50000000.0000000     
   49942108.5052936     
   49884153.1857003     
   49826070.2041772     
   49767795.6994959     
   49709265.7744706     
   49650416.4845696     
   49591183.8270381     
   49531503.7306650     
   49471312.0463194     
   49410544.5383876     
   49349136.8772429     
   49287024.6328781     
   49224143.2698335     
   49160428.1435541     
   49095814.4983087     
   49030237.4668067     
   48963632.0716487     
   48895933.2287470     
   48827075.7528532     
   48756994.3653324     
   48685623.7043217     
   48612898.3374134     
   48538752.7770026     
   48463121.4984384     
   48385938.9611223     
   48307139.6326886     
   48226658.0164124     
   48144428.6819785     
   48060386.2997525     
   47974465.6786889     
   47886601.8080100     
   47796729.9027878     
   47704785.4535577     
   47610704.2800849     
   47514422.5894115     
   47415877.0382912     
   47315004.8001263     
   47211743.6365077     
   47106031.9734531     
   46997808.9824274     
   46887014.6662255     
   46773589.9497797     
   46657476.7759442     
   46538618.2062996     
   46416958.5269980     
   46292443.3596592     
   46165019.7773063     
   46034636.4253128     
   45901243.6473089     
   45764793.6159704     
   45625240.4685959     
   45482540.4473393     
   45336652.0439447     
   45187536.1487956     
   45035156.2040551     
   44879478.3606420     
   44720471.6387453     
   44558108.0915399     
   44392362.9717266     
   44223214.9004662     
   44050646.0382400     
   43874642.2571080     
   43695193.3137899     
   43512293.0229393     
   43325939.4299181     
   43136134.9823260     
   42942886.6994743     
   42746206.3389318     
   42546110.5592077     
   42342621.0775682     
   42135764.8219215     
   41925574.0756377     
   41712086.6141045     
   41495345.8317577     
   41275400.8582611     
   41052306.6624514     
   40826124.1426088     
   40596920.2015624     
   40364767.8050942     
   40129746.0220722     
   39891940.0447117     
   39651441.1873527     
   39408346.8621334     
   39162760.5299622     
   38914791.6252141     
   38664555.4526406     
   38412173.0550553     
   38157771.0504728     
   37901481.4375178     
   37643441.3681004     
   37383792.8865838     
   37122682.6349403     
   36860261.5237213     
   36596684.3690611     
   36332109.4964004     
   36066698.3121532     
   35800614.8451814     
   35534025.2606719     
   35267097.3498580     
   35000000.0000000     
   50000000.0000000     
   49942108.5052936     
   49884153.1857003     
   49826070.2041772     
   49767795.6994958     
   49709265.7744706     
   49650416.4845695     
   49591183.8270380     
   49531503.7306649     
   49471312.0463194     
   49410544.5383875     
   49349136.8772428     
   49287024.6328780     
   49224143.2698335     
   49160428.1435540     
   49095814.4983086     
   49030237.4668066     
   48963632.0716486     
   48895933.2287469     
   48827075.7528532     
   48756994.3653323     
   48685623.7043217     
   48612898.3374134     
   48538752.7770026     
   48463121.4984384     
   48385938.9611223     
   48307139.6326886     
   48226658.0164124     
   48144428.6819785     
   48060386.2997525     
   47974465.6786888     
   47886601.8080099     
   47796729.9027879     
   47704785.4535577     
   47610704.2800849     
   47514422.5894115     
   47415877.0382912     
   47315004.8001263     
   47211743.6365078     
   47106031.9734531     
   46997808.9824274     
   46887014.6662256     
   46773589.9497797     
   46657476.7759443     
   46538618.2062996     
   46416958.5269981     
   46292443.3596592     
   46165019.7773063     
   46034636.4253129     
   45901243.6473089     
   45764793.6159705     
   45625240.4685959     
   45482540.4473394     
   45336652.0439448     
   45187536.1487956     
   45035156.2040551     
   44879478.3606421     
   44720471.6387454     
   44558108.0915400     
   44392362.9717266     
   44223214.9004662     
   44050646.0382401     
   43874642.2571080     
   43695193.3137899     
   43512293.0229393     
   43325939.4299181     
   43136134.9823259     
   42942886.6994743     
   42746206.3389319     
   42546110.5592077     
   42342621.0775682     
   42135764.8219215     
   41925574.0756377     
   41712086.6141045     
   41495345.8317577     
   41275400.8582611     
   41052306.6624514     
   40826124.1426089     
   40596920.2015624     
   40364767.8050942     
   40129746.0220722     
   39891940.0447117     
   39651441.1873527     
   39408346.8621334     
   39162760.5299622     
   38914791.6252141     
   38664555.4526406     
   38412173.0550552     
   38157771.0504728     
   37901481.4375178     
   37643441.3681004     
   37383792.8865838     
   37122682.6349403     
   36860261.5237212     
   36596684.3690610     
   36332109.4964004     
   36066698.3121532     
   35800614.8451813     
   35534025.2606719     
   35267097.3498580     
   35000000.0000000     
   50000000.0000000     
   49942108.5052935     
   49884153.1857003     
   49826070.2041771     
   49767795.6994957     
   49709265.7744705     
   49650416.4845695     
   49591183.8270379     
   49531503.7306649     
   49471312.0463193     
   49410544.5383875     
   49349136.8772427     
   49287024.6328780     
   49224143.2698334     
   49160428.1435539     
   49095814.4983085     
   49030237.4668065     
   48963632.0716486     
   48895933.2287468     
   48827075.7528532     
   48756994.3653322     
   48685623.7043216     
   48612898.3374134     
   48538752.7770025     
   48463121.4984383     
   48385938.9611222     
   48307139.6326886     
   48226658.0164123     
   48144428.6819785     
   48060386.2997525     
   47974465.6786887     
   47886601.8080099     
   47796729.9027879     
   47704785.4535576     
   47610704.2800849     
   47514422.5894115     
   47415877.0382912     
   47315004.8001263     
   47211743.6365077     
   47106031.9734531     
   46997808.9824274     
   46887014.6662256     
   46773589.9497796     
   46657476.7759443     
   46538618.2062996     
   46416958.5269981     
   46292443.3596592     
   46165019.7773063     
   46034636.4253129     
   45901243.6473089     
   45764793.6159705     
   45625240.4685960     
   45482540.4473394     
   45336652.0439447     
   45187536.1487956     
   45035156.2040552     
   44879478.3606421     
   44720471.6387453     
   44558108.0915400     
   44392362.9717266     
   44223214.9004662     
   44050646.0382402     
   43874642.2571081     
   43695193.3137900     
   43512293.0229394     
   43325939.4299181     
   43136134.9823259     
   42942886.6994742     
   42746206.3389318     
   42546110.5592077     
   42342621.0775681     
   42135764.8219215     
   41925574.0756377     
   41712086.6141045     
   41495345.8317578     
   41275400.8582611     
   41052306.6624514     
   40826124.1426088     
   40596920.2015624     
   40364767.8050943     
   40129746.0220722     
   39891940.0447117     
   39651441.1873527     
   39408346.8621334     
   39162760.5299622     
   38914791.6252142     
   38664555.4526405     
   38412173.0550551     
   38157771.0504728     
   37901481.4375178     
   37643441.3681004     
   37383792.8865837     
   37122682.6349402     
   36860261.5237212     
   36596684.3690610     
   36332109.4964004     
   36066698.3121531     
   35800614.8451813     
   35534025.2606719     
   35267097.3498580     
   35000000.0000000     
   50000000.0000000     
   49942108.5052935     
   49884153.1857003     
   49826070.2041770     
   49767795.6994957     
   49709265.7744705     
   49650416.4845694     
   49591183.8270379     
   49531503.7306649     
   49471312.0463193     
   49410544.5383875     
   49349136.8772427     
   49287024.6328778     
   49224143.2698334     
   49160428.1435539     
   49095814.4983084     
   49030237.4668064     
   48963632.0716486     
   48895933.2287468     
   48827075.7528531     
   48756994.3653322     
   48685623.7043216     
   48612898.3374134     
   48538752.7770025     
   48463121.4984383     
   48385938.9611222     
   48307139.6326886     
   48226658.0164124     
   48144428.6819785     
   48060386.2997524     
   47974465.6786887     
   47886601.8080098     
   47796729.9027878     
   47704785.4535576     
   47610704.2800849     
   47514422.5894115     
   47415877.0382912     
   47315004.8001262     
   47211743.6365077     
   47106031.9734531     
   46997808.9824274     
   46887014.6662256     
   46773589.9497796     
   46657476.7759442     
   46538618.2062996     
   46416958.5269981     
   46292443.3596593     
   46165019.7773063     
   46034636.4253129     
   45901243.6473090     
   45764793.6159705     
   45625240.4685960     
   45482540.4473395     
   45336652.0439448     
   45187536.1487957     
   45035156.2040552     
   44879478.3606421     
   44720471.6387453     
   44558108.0915400     
   44392362.9717266     
   44223214.9004662     
   44050646.0382401     
   43874642.2571081     
   43695193.3137900     
   43512293.0229394     
   43325939.4299181     
   43136134.9823259     
   42942886.6994742     
   42746206.3389318     
   42546110.5592077     
   42342621.0775681     
   42135764.8219215     
   41925574.0756377     
   41712086.6141045     
   41495345.8317578     
   41275400.8582610     
   41052306.6624514     
   40826124.1426088     
   40596920.2015624     
   40364767.8050942     
   40129746.0220723     
   39891940.0447118     
   39651441.1873527     
   39408346.8621335     
   39162760.5299621     
   38914791.6252142     
   38664555.4526406     
   38412173.0550551     
   38157771.0504728     
   37901481.4375178     
   37643441.3681003     
   37383792.8865836     
   37122682.6349402     
   36860261.5237211     
   36596684.3690609     
   36332109.4964003     
   36066698.3121531     
   35800614.8451813     
   35534025.2606719     
   35267097.3498580     
   35000000.0000000     
   50000000.0000000     
   49942108.5052935     
   49884153.1857002     
   49826070.2041769     
   49767795.6994956     
   49709265.7744705     
   49650416.4845693     
   49591183.8270378     
   49531503.7306648     
   49471312.0463192     
   49410544.5383874     
   49349136.8772426     
   49287024.6328778     
   49224143.2698334     
   49160428.1435538     
   49095814.4983084     
   49030237.4668063     
   48963632.0716485     
   48895933.2287467     
   48827075.7528530     
   48756994.3653321     
   48685623.7043215     
   48612898.3374134     
   48538752.7770024     
   48463121.4984383     
   48385938.9611222     
   48307139.6326886     
   48226658.0164124     
   48144428.6819784     
   48060386.2997524     
   47974465.6786887     
   47886601.8080098     
   47796729.9027878     
   47704785.4535575     
   47610704.2800849     
   47514422.5894115     
   47415877.0382912     
   47315004.8001262     
   47211743.6365077     
   47106031.9734531     
   46997808.9824274     
   46887014.6662255     
   46773589.9497796     
   46657476.7759442     
   46538618.2062997     
   46416958.5269981     
   46292443.3596593     
   46165019.7773063     
   46034636.4253130     
   45901243.6473090     
   45764793.6159706     
   45625240.4685961     
   45482540.4473395     
   45336652.0439448     
   45187536.1487957     
   45035156.2040552     
   44879478.3606421     
   44720471.6387452     
   44558108.0915400     
   44392362.9717266     
   44223214.9004662     
   44050646.0382402     
   43874642.2571081     
   43695193.3137901     
   43512293.0229394     
   43325939.4299181     
   43136134.9823258     
   42942886.6994742     
   42746206.3389318     
   42546110.5592077     
   42342621.0775681     
   42135764.8219215     
   41925574.0756377     
   41712086.6141045     
   41495345.8317578     
   41275400.8582611     
   41052306.6624514     
   40826124.1426087     
   40596920.2015624     
   40364767.8050942     
   40129746.0220722     
   39891940.0447118     
   39651441.1873527     
   39408346.8621334     
   39162760.5299622     
   38914791.6252141     
   38664555.4526406     
   38412173.0550550     
   38157771.0504727     
   37901481.4375178     
   37643441.3681003     
   37383792.8865835     
   37122682.6349401     
   36860261.5237210     
   36596684.3690609     
   36332109.4964003     
   36066698.3121531     
   35800614.8451812     
   35534025.2606718     
   35267097.3498580     
   35000000.0000000     
   50000000.0000000     
   49942108.5052935     
   49884153.1857001     
   49826070.2041769     
   49767795.6994956     
   49709265.7744705     
   49650416.4845693     
   49591183.8270378     
   49531503.7306647     
   49471312.0463192     
   49410544.5383873     
   49349136.8772425     
   49287024.6328777     
   49224143.2698333     
   49160428.1435538     
   49095814.4983083     
   49030237.4668063     
   48963632.0716484     
   48895933.2287468     
   48827075.7528529     
   48756994.3653321     
   48685623.7043215     
   48612898.3374134     
   48538752.7770024     
   48463121.4984383     
   48385938.9611221     
   48307139.6326886     
   48226658.0164123     
   48144428.6819784     
   48060386.2997523     
   47974465.6786886     
   47886601.8080098     
   47796729.9027878     
   47704785.4535575     
   47610704.2800849     
   47514422.5894115     
   47415877.0382911     
   47315004.8001261     
   47211743.6365077     
   47106031.9734531     
   46997808.9824273     
   46887014.6662255     
   46773589.9497796     
   46657476.7759442     
   46538618.2062997     
   46416958.5269981     
   46292443.3596593     
   46165019.7773063     
   46034636.4253130     
   45901243.6473090     
   45764793.6159706     
   45625240.4685961     
   45482540.4473395     
   45336652.0439449     
   45187536.1487958     
   45035156.2040552     
   44879478.3606422     
   44720471.6387453     
   44558108.0915400     
   44392362.9717266     
   44223214.9004662     
   44050646.0382402     
   43874642.2571082     
   43695193.3137901     
   43512293.0229394     
   43325939.4299181     
   43136134.9823259     
   42942886.6994742     
   42746206.3389318     
   42546110.5592077     
   42342621.0775682     
   42135764.8219215     
   41925574.0756378     
   41712086.6141046     
   41495345.8317578     
   41275400.8582612     
   41052306.6624514     
   40826124.1426087     
   40596920.2015624     
   40364767.8050942     
   40129746.0220722     
   39891940.0447118     
   39651441.1873527     
   39408346.8621334     
   39162760.5299622     
   38914791.6252142     
   38664555.4526405     
   38412173.0550551     
   38157771.0504727     
   37901481.4375177     
   37643441.3681002     
   37383792.8865834     
   37122682.6349400     
   36860261.5237210     
   36596684.3690609     
   36332109.4964003     
   36066698.3121530     
   35800614.8451812     
   35534025.2606718     
   35267097.3498580     
   35000000.0000000     
   50000000.0000000     
   49942108.5052935     
   49884153.1857001     
   49826070.2041769     
   49767795.6994955     
   49709265.7744704     
   49650416.4845692     
   49591183.8270377     
   49531503.7306647     
   49471312.0463191     
   49410544.5383873     
   49349136.8772424     
   49287024.6328776     
   49224143.2698332     
   49160428.1435537     
   49095814.4983082     
   49030237.4668062     
   48963632.0716484     
   48895933.2287468     
   48827075.7528528     
   48756994.3653320     
   48685623.7043214     
   48612898.3374133     
   48538752.7770023     
   48463121.4984383     
   48385938.9611222     
   48307139.6326886     
   48226658.0164124     
   48144428.6819783     
   48060386.2997523     
   47974465.6786886     
   47886601.8080098     
   47796729.9027878     
   47704785.4535575     
   47610704.2800849     
   47514422.5894115     
   47415877.0382911     
   47315004.8001262     
   47211743.6365077     
   47106031.9734531     
   46997808.9824273     
   46887014.6662256     
   46773589.9497797     
   46657476.7759442     
   46538618.2062997     
   46416958.5269981     
   46292443.3596593     
   46165019.7773064     
   46034636.4253131     
   45901243.6473090     
   45764793.6159707     
   45625240.4685961     
   45482540.4473396     
   45336652.0439449     
   45187536.1487958     
   45035156.2040553     
   44879478.3606422     
   44720471.6387453     
   44558108.0915400     
   44392362.9717267     
   44223214.9004662     
   44050646.0382402     
   43874642.2571082     
   43695193.3137901     
   43512293.0229395     
   43325939.4299181     
   43136134.9823259     
   42942886.6994742     
   42746206.3389318     
   42546110.5592077     
   42342621.0775682     
   42135764.8219215     
   41925574.0756378     
   41712086.6141046     
   41495345.8317578     
   41275400.8582612     
   41052306.6624514     
   40826124.1426087     
   40596920.2015624     
   40364767.8050942     
   40129746.0220721     
   39891940.0447119     
   39651441.1873527     
   39408346.8621334     
   39162760.5299622     
   38914791.6252142     
   38664555.4526406     
   38412173.0550550     
   38157771.0504726     
   37901481.4375177     
   37643441.3681002     
   37383792.8865834     
   37122682.6349400     
   36860261.5237209     
   36596684.3690609     
   36332109.4964002     
   36066698.3121530     
   35800614.8451813     
   35534025.2606717     
   35267097.3498580     
   35000000.0000000     
   50000000.0000000     
   49942108.5052935     
   49884153.1857000     
   49826070.2041768     
   49767795.6994955     
   49709265.7744704     
   49650416.4845692     
   49591183.8270377     
   49531503.7306646     
   49471312.0463191     
   49410544.5383873     
   49349136.8772424     
   49287024.6328776     
   49224143.2698332     
   49160428.1435537     
   49095814.4983082     
   49030237.4668062     
   48963632.0716483     
   48895933.2287467     
   48827075.7528528     
   48756994.3653320     
   48685623.7043214     
   48612898.3374132     
   48538752.7770023     
   48463121.4984383     
   48385938.9611222     
   48307139.6326886     
   48226658.0164124     
   48144428.6819784     
   48060386.2997523     
   47974465.6786886     
   47886601.8080097     
   47796729.9027879     
   47704785.4535575     
   47610704.2800849     
   47514422.5894115     
   47415877.0382911     
   47315004.8001262     
   47211743.6365077     
   47106031.9734531     
   46997808.9824273     
   46887014.6662255     
   46773589.9497797     
   46657476.7759442     
   46538618.2062997     
   46416958.5269981     
   46292443.3596593     
   46165019.7773064     
   46034636.4253131     
   45901243.6473091     
   45764793.6159707     
   45625240.4685961     
   45482540.4473396     
   45336652.0439449     
   45187536.1487958     
   45035156.2040553     
   44879478.3606422     
   44720471.6387453     
   44558108.0915401     
   44392362.9717266     
   44223214.9004662     
   44050646.0382403     
   43874642.2571082     
   43695193.3137901     
   43512293.0229395     
   43325939.4299181     
   43136134.9823259     
   42942886.6994741     
   42746206.3389318     
   42546110.5592077     
   42342621.0775681     
   42135764.8219215     
   41925574.0756379     
   41712086.6141045     
   41495345.8317578     
   41275400.8582611     
   41052306.6624514     
   40826124.1426088     
   40596920.2015623     
   40364767.8050942     
   40129746.0220721     
   39891940.0447119     
   39651441.1873526     
   39408346.8621334     
   39162760.5299622     
   38914791.6252142     
   38664555.4526406     
   38412173.0550550     
   38157771.0504726     
   37901481.4375177     
   37643441.3681001     
   37383792.8865834     
   37122682.6349399     
   36860261.5237209     
   36596684.3690608     
   36332109.4964003     
   36066698.3121530     
   35800614.8451812     
   35534025.2606718     
   35267097.3498580     
   35000000.0000000     
   50000000.0000000     
   49942108.5052935     
   49884153.1857000     
   49826070.2041768     
   49767795.6994955     
   49709265.7744704     
   49650416.4845692     
   49591183.8270376     
   49531503.7306645     
   49471312.0463190     
   49410544.5383872     
   49349136.8772424     
   49287024.6328775     
   49224143.2698331     
   49160428.1435537     
   49095814.4983081     
   49030237.4668063     
   48963632.0716483     
   48895933.2287467     
   48827075.7528527     
   48756994.3653319     
   48685623.7043214     
   48612898.3374132     
   48538752.7770023     
   48463121.4984383     
   48385938.9611221     
   48307139.6326885     
   48226658.0164125     
   48144428.6819784     
   48060386.2997523     
   47974465.6786886     
   47886601.8080097     
   47796729.9027880     
   47704785.4535576     
   47610704.2800849     
   47514422.5894115     
   47415877.0382911     
   47315004.8001262     
   47211743.6365078     
   47106031.9734531     
   46997808.9824273     
   46887014.6662255     
   46773589.9497797     
   46657476.7759443     
   46538618.2062997     
   46416958.5269982     
   46292443.3596593     
   46165019.7773063     
   46034636.4253131     
   45901243.6473091     
   45764793.6159707     
   45625240.4685962     
   45482540.4473397     
   45336652.0439449     
   45187536.1487959     
   45035156.2040553     
   44879478.3606422     
   44720471.6387453     
   44558108.0915401     
   44392362.9717267     
   44223214.9004662     
   44050646.0382403     
   43874642.2571082     
   43695193.3137901     
   43512293.0229395     
   43325939.4299182     
   43136134.9823259     
   42942886.6994741     
   42746206.3389317     
   42546110.5592077     
   42342621.0775681     
   42135764.8219215     
   41925574.0756379     
   41712086.6141046     
   41495345.8317578     
   41275400.8582611     
   41052306.6624513     
   40826124.1426087     
   40596920.2015623     
   40364767.8050941     
   40129746.0220721     
   39891940.0447118     
   39651441.1873526     
   39408346.8621335     
   39162760.5299622     
   38914791.6252142     
   38664555.4526405     
   38412173.0550550     
   38157771.0504725     
   37901481.4375176     
   37643441.3681001     
   37383792.8865834     
   37122682.6349399     
   36860261.5237208     
   36596684.3690608     
   36332109.4964002     
   36066698.3121530     
   35800614.8451812     
   35534025.2606718     
   35267097.3498580     
   35000000.0000000     
   50000000.0000000     
   49942108.5052935     
   49884153.1857000     
   49826070.2041767     
   49767795.6994955     
   49709265.7744703     
   49650416.4845691     
   49591183.8270376     
   49531503.7306645     
   49471312.0463189     
   49410544.5383872     
   49349136.8772424     
   49287024.6328775     
   49224143.2698331     
   49160428.1435536     
   49095814.4983081     
   49030237.4668063     
   48963632.0716483     
   48895933.2287466     
   48827075.7528526     
   48756994.3653319     
   48685623.7043214     
   48612898.3374131     
   48538752.7770023     
   48463121.4984383     
   48385938.9611221     
   48307139.6326886     
   48226658.0164125     
   48144428.6819784     
   48060386.2997523     
   47974465.6786886     
   47886601.8080097     
   47796729.9027880     
   47704785.4535577     
   47610704.2800849     
   47514422.5894115     
   47415877.0382912     
   47315004.8001262     
   47211743.6365078     
   47106031.9734531     
   46997808.9824273     
   46887014.6662255     
   46773589.9497796     
   46657476.7759443     
   46538618.2062997     
   46416958.5269982     
   46292443.3596593     
   46165019.7773064     
   46034636.4253131     
   45901243.6473092     
   45764793.6159708     
   45625240.4685963     
   45482540.4473396     
   45336652.0439450     
   45187536.1487959     
   45035156.2040553     
   44879478.3606422     
   44720471.6387454     
   44558108.0915401     
   44392362.9717267     
   44223214.9004662     
   44050646.0382403     
   43874642.2571082     
   43695193.3137901     
   43512293.0229395     
   43325939.4299182     
   43136134.9823259     
   42942886.6994741     
   42746206.3389317     
   42546110.5592077     
   42342621.0775682     
   42135764.8219216     
   41925574.0756379     
   41712086.6141046     
   41495345.8317578     
   41275400.8582612     
   41052306.6624513     
   40826124.1426087     
   40596920.2015623     
   40364767.8050941     
   40129746.0220720     
   39891940.0447118     
   39651441.1873527     
   39408346.8621335     
   39162760.5299622     
   38914791.6252141     
   38664555.4526406     
   38412173.0550550     
   38157771.0504725     
   37901481.4375176     
   37643441.3681001     
   37383792.8865834     
   37122682.6349398     
   36860261.5237208     
   36596684.3690607     
   36332109.4964002     
   36066698.3121530     
   35800614.8451812     
   35534025.2606717     
   35267097.3498580     
   35000000.0000000     
   50000000.0000000     
   49942108.5052934     
   49884153.1857000     
   49826070.2041767     
   49767795.6994955     
   49709265.7744703     
   49650416.4845691     
   49591183.8270375     
   49531503.7306644     
   49471312.0463189     
   49410544.5383871     
   49349136.8772423     
   49287024.6328774     
   49224143.2698330     
   49160428.1435535     
   49095814.4983081     
   49030237.4668062     
   48963632.0716483     
   48895933.2287465     
   48827075.7528526     
   48756994.3653319     
   48685623.7043213     
   48612898.3374131     
   48538752.7770023     
   48463121.4984383     
   48385938.9611220     
   48307139.6326886     
   48226658.0164125     
   48144428.6819784     
   48060386.2997523     
   47974465.6786886     
   47886601.8080097     
   47796729.9027880     
   47704785.4535577     
   47610704.2800849     
   47514422.5894115     
   47415877.0382912     
   47315004.8001263     
   47211743.6365078     
   47106031.9734531     
   46997808.9824273     
   46887014.6662255     
   46773589.9497797     
   46657476.7759443     
   46538618.2062997     
   46416958.5269982     
   46292443.3596593     
   46165019.7773064     
   46034636.4253132     
   45901243.6473092     
   45764793.6159708     
   45625240.4685963     
   45482540.4473396     
   45336652.0439450     
   45187536.1487960     
   45035156.2040554     
   44879478.3606423     
   44720471.6387455     
   44558108.0915402     
   44392362.9717267     
   44223214.9004663     
   44050646.0382403     
   43874642.2571082     
   43695193.3137901     
   43512293.0229395     
   43325939.4299182     
   43136134.9823259     
   42942886.6994741     
   42746206.3389317     
   42546110.5592077     
   42342621.0775682     
   42135764.8219216     
   41925574.0756378     
   41712086.6141047     
   41495345.8317578     
   41275400.8582612     
   41052306.6624514     
   40826124.1426088     
   40596920.2015622     
   40364767.8050940     
   40129746.0220720     
   39891940.0447117     
   39651441.1873527     
   39408346.8621334     
   39162760.5299622     
   38914791.6252141     
   38664555.4526406     
   38412173.0550550     
   38157771.0504726     
   37901481.4375176     
   37643441.3681000     
   37383792.8865833     
   37122682.6349398     
   36860261.5237207     
   36596684.3690607     
   36332109.4964002     
   36066698.3121529     
   35800614.8451812     
   35534025.2606717     
   35267097.3498580     
   35000000.0000000     
   50000000.0000000     
   49942108.5052934     
   49884153.1857000     
   49826070.2041766     
   49767795.6994954     
   49709265.7744702     
   49650416.4845690     
   49591183.8270375     
   49531503.7306643     
   49471312.0463188     
   49410544.5383871     
   49349136.8772423     
   49287024.6328774     
   49224143.2698329     
   49160428.1435535     
   49095814.4983081     
   49030237.4668061     
   48963632.0716483     
   48895933.2287465     
   48827075.7528526     
   48756994.3653319     
   48685623.7043213     
   48612898.3374131     
   48538752.7770022     
   48463121.4984382     
   48385938.9611220     
   48307139.6326886     
   48226658.0164125     
   48144428.6819784     
   48060386.2997524     
   47974465.6786886     
   47886601.8080098     
   47796729.9027881     
   47704785.4535577     
   47610704.2800850     
   47514422.5894115     
   47415877.0382912     
   47315004.8001264     
   47211743.6365078     
   47106031.9734531     
   46997808.9824273     
   46887014.6662255     
   46773589.9497796     
   46657476.7759443     
   46538618.2062997     
   46416958.5269983     
   46292443.3596593     
   46165019.7773065     
   46034636.4253133     
   45901243.6473093     
   45764793.6159708     
   45625240.4685963     
   45482540.4473396     
   45336652.0439451     
   45187536.1487959     
   45035156.2040554     
   44879478.3606423     
   44720471.6387455     
   44558108.0915403     
   44392362.9717267     
   44223214.9004663     
   44050646.0382403     
   43874642.2571082     
   43695193.3137902     
   43512293.0229395     
   43325939.4299182     
   43136134.9823259     
   42942886.6994742     
   42746206.3389318     
   42546110.5592077     
   42342621.0775683     
   42135764.8219216     
   41925574.0756379     
   41712086.6141046     
   41495345.8317578     
   41275400.8582612     
   41052306.6624513     
   40826124.1426088     
   40596920.2015622     
   40364767.8050940     
   40129746.0220720     
   39891940.0447117     
   39651441.1873527     
   39408346.8621335     
   39162760.5299623     
   38914791.6252141     
   38664555.4526405     
   38412173.0550551     
   38157771.0504726     
   37901481.4375176     
   37643441.3680999     
   37383792.8865832     
   37122682.6349398     
   36860261.5237207     
   36596684.3690607     
   36332109.4964002     
   36066698.3121529     
   35800614.8451811     
   35534025.2606717     
   35267097.3498580     
   35000000.0000000     
   50000000.0000000     
   49942108.5052934     
   49884153.1857000     
   49826070.2041766     
   49767795.6994954     
   49709265.7744702     
   49650416.4845690     
   49591183.8270374     
   49531503.7306643     
   49471312.0463187     
   49410544.5383870     
   49349136.8772422     
   49287024.6328774     
   49224143.2698329     
   49160428.1435535     
   49095814.4983082     
   49030237.4668061     
   48963632.0716482     
   48895933.2287464     
   48827075.7528526     
   48756994.3653318     
   48685623.7043213     
   48612898.3374131     
   48538752.7770022     
   48463121.4984381     
   48385938.9611220     
   48307139.6326885     
   48226658.0164125     
   48144428.6819785     
   48060386.2997523     
   47974465.6786886     
   47886601.8080098     
   47796729.9027881     
   47704785.4535577     
   47610704.2800849     
   47514422.5894115     
   47415877.0382912     
   47315004.8001264     
   47211743.6365079     
   47106031.9734531     
   46997808.9824273     
   46887014.6662255     
   46773589.9497796     
   46657476.7759443     
   46538618.2062997     
   46416958.5269983     
   46292443.3596593     
   46165019.7773065     
   46034636.4253133     
   45901243.6473092     
   45764793.6159708     
   45625240.4685964     
   45482540.4473396     
   45336652.0439451     
   45187536.1487959     
   45035156.2040554     
   44879478.3606423     
   44720471.6387455     
   44558108.0915402     
   44392362.9717268     
   44223214.9004663     
   44050646.0382403     
   43874642.2571082     
   43695193.3137902     
   43512293.0229395     
   43325939.4299182     
   43136134.9823260     
   42942886.6994742     
   42746206.3389318     
   42546110.5592077     
   42342621.0775683     
   42135764.8219216     
   41925574.0756380     
   41712086.6141047     
   41495345.8317579     
   41275400.8582612     
   41052306.6624513     
   40826124.1426088     
   40596920.2015622     
   40364767.8050940     
   40129746.0220720     
   39891940.0447117     
   39651441.1873527     
   39408346.8621335     
   39162760.5299623     
   38914791.6252141     
   38664555.4526406     
   38412173.0550551     
   38157771.0504726     
   37901481.4375175     
   37643441.3680999     
   37383792.8865832     
   37122682.6349397     
   36860261.5237207     
   36596684.3690606     
   36332109.4964001     
   36066698.3121529     
   35800614.8451811     
   35534025.2606717     
   35267097.3498580     
   35000000.0000000     
   50000000.0000000     
   49942108.5052934     
   49884153.1857000     
   49826070.2041766     
   49767795.6994954     
   49709265.7744701     
   49650416.4845689     
   49591183.8270374     
   49531503.7306643     
   49471312.0463187     
   49410544.5383870     
   49349136.8772422     
   49287024.6328773     
   49224143.2698328     
   49160428.1435535     
   49095814.4983082     
   49030237.4668060     
   48963632.0716483     
   48895933.2287464     
   48827075.7528525     
   48756994.3653318     
   48685623.7043212     
   48612898.3374131     
   48538752.7770021     
   48463121.4984381     
   48385938.9611220     
   48307139.6326884     
   48226658.0164125     
   48144428.6819785     
   48060386.2997523     
   47974465.6786886     
   47886601.8080099     
   47796729.9027881     
   47704785.4535577     
   47610704.2800850     
   47514422.5894115     
   47415877.0382912     
   47315004.8001264     
   47211743.6365079     
   47106031.9734532     
   46997808.9824273     
   46887014.6662255     
   46773589.9497795     
   46657476.7759443     
   46538618.2062997     
   46416958.5269983     
   46292443.3596593     
   46165019.7773065     
   46034636.4253134     
   45901243.6473092     
   45764793.6159708     
   45625240.4685964     
   45482540.4473397     
   45336652.0439451     
   45187536.1487959     
   45035156.2040554     
   44879478.3606423     
   44720471.6387454     
   44558108.0915403     
   44392362.9717268     
   44223214.9004663     
   44050646.0382404     
   43874642.2571082     
   43695193.3137902     
   43512293.0229394     
   43325939.4299182     
   43136134.9823260     
   42942886.6994742     
   42746206.3389318     
   42546110.5592077     
   42342621.0775683     
   42135764.8219216     
   41925574.0756379     
   41712086.6141047     
   41495345.8317579     
   41275400.8582612     
   41052306.6624513     
   40826124.1426088     
   40596920.2015622     
   40364767.8050940     
   40129746.0220720     
   39891940.0447117     
   39651441.1873527     
   39408346.8621335     
   39162760.5299623     
   38914791.6252142     
   38664555.4526406     
   38412173.0550551     
   38157771.0504726     
   37901481.4375175     
   37643441.3680998     
   37383792.8865832     
   37122682.6349397     
   36860261.5237207     
   36596684.3690606     
   36332109.4964001     
   36066698.3121529     
   35800614.8451811     
   35534025.2606717     
   35267097.3498580     
   35000000.0000000     
   50000000.0000000     
   49942108.5052934     
   49884153.1856999     
   49826070.2041766     
   49767795.6994953     
   49709265.7744701     
   49650416.4845689     
   49591183.8270373     
   49531503.7306642     
   49471312.0463186     
   49410544.5383869     
   49349136.8772422     
   49287024.6328773     
   49224143.2698328     
   49160428.1435534     
   49095814.4983081     
   49030237.4668060     
   48963632.0716482     
   48895933.2287463     
   48827075.7528525     
   48756994.3653318     
   48685623.7043212     
   48612898.3374130     
   48538752.7770021     
   48463121.4984380     
   48385938.9611220     
   48307139.6326884     
   48226658.0164125     
   48144428.6819785     
   48060386.2997523     
   47974465.6786887     
   47886601.8080100     
   47796729.9027881     
   47704785.4535578     
   47610704.2800849     
   47514422.5894116     
   47415877.0382913     
   47315004.8001264     
   47211743.6365079     
   47106031.9734531     
   46997808.9824273     
   46887014.6662254     
   46773589.9497795     
   46657476.7759443     
   46538618.2062997     
   46416958.5269983     
   46292443.3596594     
   46165019.7773066     
   46034636.4253134     
   45901243.6473092     
   45764793.6159708     
   45625240.4685963     
   45482540.4473397     
   45336652.0439450     
   45187536.1487959     
   45035156.2040554     
   44879478.3606423     
   44720471.6387454     
   44558108.0915402     
   44392362.9717269     
   44223214.9004663     
   44050646.0382404     
   43874642.2571082     
   43695193.3137902     
   43512293.0229395     
   43325939.4299183     
   43136134.9823260     
   42942886.6994742     
   42746206.3389319     
   42546110.5592077     
   42342621.0775683     
   42135764.8219216     
   41925574.0756379     
   41712086.6141047     
   41495345.8317579     
   41275400.8582611     
   41052306.6624513     
   40826124.1426088     
   40596920.2015622     
   40364767.8050939     
   40129746.0220720     
   39891940.0447116     
   39651441.1873526     
   39408346.8621335     
   39162760.5299623     
   38914791.6252142     
   38664555.4526406     
   38412173.0550551     
   38157771.0504726     
   37901481.4375175     
   37643441.3680998     
   37383792.8865832     
   37122682.6349397     
   36860261.5237207     
   36596684.3690606     
   36332109.4964000     
   36066698.3121529     
   35800614.8451810     
   35534025.2606717     
   35267097.3498580     
   35000000.0000000     
   50000000.0000000     
   49942108.5052934     
   49884153.1856999     
   49826070.2041766     
   49767795.6994953     
   49709265.7744701     
   49650416.4845689     
   49591183.8270372     
   49531503.7306641     
   49471312.0463186     
   49410544.5383869     
   49349136.8772422     
   49287024.6328772     
   49224143.2698327     
   49160428.1435534     
   49095814.4983081     
   49030237.4668060     
   48963632.0716481     
   48895933.2287463     
   48827075.7528525     
   48756994.3653318     
   48685623.7043212     
   48612898.3374131     
   48538752.7770021     
   48463121.4984380     
   48385938.9611219     
   48307139.6326883     
   48226658.0164125     
   48144428.6819785     
   48060386.2997523     
   47974465.6786887     
   47886601.8080100     
   47796729.9027881     
   47704785.4535578     
   47610704.2800849     
   47514422.5894116     
   47415877.0382913     
   47315004.8001264     
   47211743.6365080     
   47106031.9734531     
   46997808.9824273     
   46887014.6662254     
   46773589.9497795     
   46657476.7759442     
   46538618.2062997     
   46416958.5269983     
   46292443.3596593     
   46165019.7773067     
   46034636.4253134     
   45901243.6473092     
   45764793.6159708     
   45625240.4685963     
   45482540.4473396     
   45336652.0439450     
   45187536.1487958     
   45035156.2040554     
   44879478.3606423     
   44720471.6387455     
   44558108.0915403     
   44392362.9717268     
   44223214.9004664     
   44050646.0382404     
   43874642.2571082     
   43695193.3137902     
   43512293.0229395     
   43325939.4299183     
   43136134.9823261     
   42942886.6994742     
   42746206.3389319     
   42546110.5592078     
   42342621.0775682     
   42135764.8219216     
   41925574.0756379     
   41712086.6141047     
   41495345.8317580     
   41275400.8582610     
   41052306.6624513     
   40826124.1426087     
   40596920.2015622     
   40364767.8050939     
   40129746.0220720     
   39891940.0447117     
   39651441.1873526     
   39408346.8621335     
   39162760.5299623     
   38914791.6252142     
   38664555.4526406     
   38412173.0550551     
   38157771.0504726     
   37901481.4375175     
   37643441.3680998     
   37383792.8865832     
   37122682.6349397     
   36860261.5237207     
   36596684.3690606     
   36332109.4964001     
   36066698.3121528     
   35800614.8451810     
   35534025.2606716     
   35267097.3498580     
   35000000.0000000     
   50000000.0000000     
   49942108.5052935     
   49884153.1856999     
   49826070.2041766     
   49767795.6994952     
   49709265.7744701     
   49650416.4845688     
   49591183.8270372     
   49531503.7306641     
   49471312.0463185     
   49410544.5383868     
   49349136.8772421     
   49287024.6328771     
   49224143.2698327     
   49160428.1435533     
   49095814.4983080     
   49030237.4668060     
   48963632.0716480     
   48895933.2287462     
   48827075.7528524     
   48756994.3653317     
   48685623.7043211     
   48612898.3374130     
   48538752.7770022     
   48463121.4984379     
   48385938.9611219     
   48307139.6326882     
   48226658.0164124     
   48144428.6819786     
   48060386.2997523     
   47974465.6786888     
   47886601.8080100     
   47796729.9027881     
   47704785.4535579     
   47610704.2800850     
   47514422.5894117     
   47415877.0382913     
   47315004.8001265     
   47211743.6365080     
   47106031.9734532     
   46997808.9824273     
   46887014.6662255     
   46773589.9497795     
   46657476.7759442     
   46538618.2062997     
   46416958.5269983     
   46292443.3596593     
   46165019.7773067     
   46034636.4253134     
   45901243.6473092     
   45764793.6159709     
   45625240.4685963     
   45482540.4473396     
   45336652.0439450     
   45187536.1487959     
   45035156.2040554     
   44879478.3606422     
   44720471.6387454     
   44558108.0915403     
   44392362.9717269     
   44223214.9004665     
   44050646.0382404     
   43874642.2571083     
   43695193.3137903     
   43512293.0229395     
   43325939.4299183     
   43136134.9823261     
   42942886.6994743     
   42746206.3389319     
   42546110.5592078     
   42342621.0775682     
   42135764.8219216     
   41925574.0756378     
   41712086.6141047     
   41495345.8317579     
   41275400.8582609     
   41052306.6624512     
   40826124.1426087     
   40596920.2015622     
   40364767.8050939     
   40129746.0220719     
   39891940.0447116     
   39651441.1873526     
   39408346.8621335     
   39162760.5299623     
   38914791.6252142     
   38664555.4526406     
   38412173.0550551     
   38157771.0504726     
   37901481.4375175     
   37643441.3680998     
   37383792.8865832     
   37122682.6349397     
   36860261.5237207     
   36596684.3690606     
   36332109.4964001     
   36066698.3121528     
   35800614.8451810     
   35534025.2606716     
   35267097.3498580     
   35000000.0000000     
   50000000.0000000     
   49942108.5052934     
   49884153.1856999     
   49826070.2041766     
   49767795.6994952     
   49709265.7744700     
   49650416.4845688     
   49591183.8270371     
   49531503.7306641     
   49471312.0463184     
   49410544.5383868     
   49349136.8772420     
   49287024.6328770     
   49224143.2698326     
   49160428.1435533     
   49095814.4983080     
   49030237.4668059     
   48963632.0716480     
   48895933.2287462     
   48827075.7528524     
   48756994.3653317     
   48685623.7043212     
   48612898.3374130     
   48538752.7770022     
   48463121.4984379     
   48385938.9611218     
   48307139.6326882     
   48226658.0164124     
   48144428.6819786     
   48060386.2997524     
   47974465.6786888     
   47886601.8080100     
   47796729.9027881     
   47704785.4535580     
   47610704.2800850     
   47514422.5894117     
   47415877.0382913     
   47315004.8001265     
   47211743.6365080     
   47106031.9734532     
   46997808.9824273     
   46887014.6662255     
   46773589.9497794     
   46657476.7759441     
   46538618.2062998     
   46416958.5269982     
   46292443.3596594     
   46165019.7773066     
   46034636.4253134     
   45901243.6473092     
   45764793.6159708     
   45625240.4685963     
   45482540.4473397     
   45336652.0439449     
   45187536.1487958     
   45035156.2040554     
   44879478.3606422     
   44720471.6387454     
   44558108.0915403     
   44392362.9717269     
   44223214.9004666     
   44050646.0382404     
   43874642.2571083     
   43695193.3137903     
   43512293.0229396     
   43325939.4299184     
   43136134.9823261     
   42942886.6994744     
   42746206.3389319     
   42546110.5592078     
   42342621.0775682     
   42135764.8219216     
   41925574.0756378     
   41712086.6141047     
   41495345.8317579     
   41275400.8582610     
   41052306.6624512     
   40826124.1426087     
   40596920.2015622     
   40364767.8050939     
   40129746.0220720     
   39891940.0447116     
   39651441.1873526     
   39408346.8621335     
   39162760.5299623     
   38914791.6252142     
   38664555.4526405     
   38412173.0550551     
   38157771.0504725     
   37901481.4375175     
   37643441.3680997     
   37383792.8865831     
   37122682.6349397     
   36860261.5237207     
   36596684.3690606     
   36332109.4964000     
   36066698.3121528     
   35800614.8451810     
   35534025.2606716     
   35267097.3498579     
   35000000.0000000     
   50000000.0000000     
   49942108.5052934     
   49884153.1856999     
   49826070.2041765     
   49767795.6994952     
   49709265.7744699     
   49650416.4845688     
   49591183.8270371     
   49531503.7306640     
   49471312.0463183     
   49410544.5383866     
   49349136.8772419     
   49287024.6328770     
   49224143.2698326     
   49160428.1435533     
   49095814.4983080     
   49030237.4668059     
   48963632.0716480     
   48895933.2287461     
   48827075.7528524     
   48756994.3653317     
   48685623.7043211     
   48612898.3374130     
   48538752.7770022     
   48463121.4984380     
   48385938.9611218     
   48307139.6326882     
   48226658.0164123     
   48144428.6819785     
   48060386.2997525     
   47974465.6786889     
   47886601.8080100     
   47796729.9027882     
   47704785.4535579     
   47610704.2800850     
   47514422.5894117     
   47415877.0382914     
   47315004.8001265     
   47211743.6365080     
   47106031.9734532     
   46997808.9824273     
   46887014.6662255     
   46773589.9497795     
   46657476.7759442     
   46538618.2062997     
   46416958.5269982     
   46292443.3596594     
   46165019.7773066     
   46034636.4253134     
   45901243.6473093     
   45764793.6159708     
   45625240.4685963     
   45482540.4473396     
   45336652.0439449     
   45187536.1487958     
   45035156.2040553     
   44879478.3606422     
   44720471.6387454     
   44558108.0915403     
   44392362.9717270     
   44223214.9004666     
   44050646.0382405     
   43874642.2571083     
   43695193.3137903     
   43512293.0229396     
   43325939.4299184     
   43136134.9823262     
   42942886.6994745     
   42746206.3389320     
   42546110.5592078     
   42342621.0775682     
   42135764.8219215     
   41925574.0756378     
   41712086.6141047     
   41495345.8317578     
   41275400.8582610     
   41052306.6624512     
   40826124.1426087     
   40596920.2015622     
   40364767.8050939     
   40129746.0220720     
   39891940.0447116     
   39651441.1873527     
   39408346.8621335     
   39162760.5299623     
   38914791.6252142     
   38664555.4526405     
   38412173.0550551     
   38157771.0504725     
   37901481.4375175     
   37643441.3680997     
   37383792.8865831     
   37122682.6349397     
   36860261.5237206     
   36596684.3690606     
   36332109.4964000     
   36066698.3121528     
   35800614.8451810     
   35534025.2606715     
   35267097.3498579     
   35000000.0000000     
   50000000.0000000     
   49942108.5052934     
   49884153.1856999     
   49826070.2041765     
   49767795.6994952     
   49709265.7744699     
   49650416.4845687     
   49591183.8270371     
   49531503.7306640     
   49471312.0463183     
   49410544.5383866     
   49349136.8772419     
   49287024.6328769     
   49224143.2698325     
   49160428.1435533     
   49095814.4983080     
   49030237.4668058     
   48963632.0716479     
   48895933.2287461     
   48827075.7528523     
   48756994.3653317     
   48685623.7043211     
   48612898.3374130     
   48538752.7770022     
   48463121.4984380     
   48385938.9611217     
   48307139.6326882     
   48226658.0164123     
   48144428.6819785     
   48060386.2997524     
   47974465.6786889     
   47886601.8080100     
   47796729.9027882     
   47704785.4535579     
   47610704.2800850     
   47514422.5894117     
   47415877.0382914     
   47315004.8001265     
   47211743.6365080     
   47106031.9734532     
   46997808.9824273     
   46887014.6662255     
   46773589.9497794     
   46657476.7759442     
   46538618.2062997     
   46416958.5269982     
   46292443.3596594     
   46165019.7773066     
   46034636.4253135     
   45901243.6473093     
   45764793.6159708     
   45625240.4685962     
   45482540.4473396     
   45336652.0439449     
   45187536.1487958     
   45035156.2040553     
   44879478.3606422     
   44720471.6387454     
   44558108.0915403     
   44392362.9717270     
   44223214.9004667     
   44050646.0382405     
   43874642.2571084     
   43695193.3137904     
   43512293.0229397     
   43325939.4299185     
   43136134.9823262     
   42942886.6994745     
   42746206.3389320     
   42546110.5592078     
   42342621.0775682     
   42135764.8219215     
   41925574.0756378     
   41712086.6141046     
   41495345.8317579     
   41275400.8582610     
   41052306.6624512     
   40826124.1426087     
   40596920.2015622     
   40364767.8050939     
   40129746.0220720     
   39891940.0447116     
   39651441.1873528     
   39408346.8621335     
   39162760.5299623     
   38914791.6252141     
   38664555.4526406     
   38412173.0550551     
   38157771.0504726     
   37901481.4375174     
   37643441.3680997     
   37383792.8865831     
   37122682.6349396     
   36860261.5237206     
   36596684.3690606     
   36332109.4963999     
   36066698.3121528     
   35800614.8451810     
   35534025.2606715     
   35267097.3498579     
   35000000.0000000     
   50000000.0000000     
   49942108.5052934     
   49884153.1856999     
   49826070.2041765     
   49767795.6994952     
   49709265.7744699     
   49650416.4845687     
   49591183.8270371     
   49531503.7306639     
   49471312.0463182     
   49410544.5383865     
   49349136.8772418     
   49287024.6328769     
   49224143.2698325     
   49160428.1435533     
   49095814.4983080     
   49030237.4668058     
   48963632.0716480     
   48895933.2287461     
   48827075.7528523     
   48756994.3653317     
   48685623.7043211     
   48612898.3374130     
   48538752.7770022     
   48463121.4984380     
   48385938.9611217     
   48307139.6326881     
   48226658.0164123     
   48144428.6819784     
   48060386.2997524     
   47974465.6786889     
   47886601.8080101     
   47796729.9027883     
   47704785.4535579     
   47610704.2800851     
   47514422.5894117     
   47415877.0382913     
   47315004.8001265     
   47211743.6365081     
   47106031.9734532     
   46997808.9824273     
   46887014.6662255     
   46773589.9497795     
   46657476.7759442     
   46538618.2062997     
   46416958.5269982     
   46292443.3596594     
   46165019.7773066     
   46034636.4253135     
   45901243.6473093     
   45764793.6159708     
   45625240.4685962     
   45482540.4473396     
   45336652.0439449     
   45187536.1487957     
   45035156.2040553     
   44879478.3606422     
   44720471.6387453     
   44558108.0915404     
   44392362.9717271     
   44223214.9004667     
   44050646.0382405     
   43874642.2571085     
   43695193.3137904     
   43512293.0229397     
   43325939.4299185     
   43136134.9823263     
   42942886.6994745     
   42746206.3389320     
   42546110.5592079     
   42342621.0775682     
   42135764.8219215     
   41925574.0756378     
   41712086.6141046     
   41495345.8317578     
   41275400.8582610     
   41052306.6624511     
   40826124.1426087     
   40596920.2015622     
   40364767.8050939     
   40129746.0220719     
   39891940.0447116     
   39651441.1873527     
   39408346.8621335     
   39162760.5299624     
   38914791.6252142     
   38664555.4526407     
   38412173.0550551     
   38157771.0504726     
   37901481.4375174     
   37643441.3680997     
   37383792.8865831     
   37122682.6349397     
   36860261.5237206     
   36596684.3690606     
   36332109.4963999     
   36066698.3121528     
   35800614.8451809     
   35534025.2606715     
   35267097.3498579     
   35000000.0000000     
   50000000.0000000     
   49942108.5052934     
   49884153.1856999     
   49826070.2041765     
   49767795.6994952     
   49709265.7744699     
   49650416.4845686     
   49591183.8270371     
   49531503.7306639     
   49471312.0463182     
   49410544.5383865     
   49349136.8772417     
   49287024.6328768     
   49224143.2698324     
   49160428.1435533     
   49095814.4983079     
   49030237.4668058     
   48963632.0716479     
   48895933.2287461     
   48827075.7528524     
   48756994.3653317     
   48685623.7043212     
   48612898.3374131     
   48538752.7770023     
   48463121.4984380     
   48385938.9611217     
   48307139.6326881     
   48226658.0164122     
   48144428.6819784     
   48060386.2997524     
   47974465.6786888     
   47886601.8080101     
   47796729.9027883     
   47704785.4535579     
   47610704.2800850     
   47514422.5894117     
   47415877.0382912     
   47315004.8001265     
   47211743.6365081     
   47106031.9734532     
   46997808.9824273     
   46887014.6662255     
   46773589.9497795     
   46657476.7759442     
   46538618.2062997     
   46416958.5269982     
   46292443.3596594     
   46165019.7773066     
   46034636.4253135     
   45901243.6473093     
   45764793.6159708     
   45625240.4685962     
   45482540.4473396     
   45336652.0439449     
   45187536.1487956     
   45035156.2040552     
   44879478.3606421     
   44720471.6387453     
   44558108.0915404     
   44392362.9717271     
   44223214.9004667     
   44050646.0382405     
   43874642.2571085     
   43695193.3137905     
   43512293.0229397     
   43325939.4299185     
   43136134.9823263     
   42942886.6994745     
   42746206.3389320     
   42546110.5592079     
   42342621.0775681     
   42135764.8219215     
   41925574.0756378     
   41712086.6141046     
   41495345.8317577     
   41275400.8582610     
   41052306.6624511     
   40826124.1426086     
   40596920.2015622     
   40364767.8050939     
   40129746.0220719     
   39891940.0447117     
   39651441.1873527     
   39408346.8621335     
   39162760.5299624     
   38914791.6252142     
   38664555.4526406     
   38412173.0550551     
   38157771.0504725     
   37901481.4375174     
   37643441.3680997     
   37383792.8865831     
   37122682.6349396     
   36860261.5237206     
   36596684.3690606     
   36332109.4964000     
   36066698.3121528     
   35800614.8451809     
   35534025.2606715     
   35267097.3498579     
   35000000.0000000     
   50000000.0000000     
   49942108.5052934     
   49884153.1856999     
   49826070.2041765     
   49767795.6994952     
   49709265.7744700     
   49650416.4845686     
   49591183.8270371     
   49531503.7306638     
   49471312.0463182     
   49410544.5383864     
   49349136.8772417     
   49287024.6328767     
   49224143.2698324     
   49160428.1435533     
   49095814.4983078     
   49030237.4668058     
   48963632.0716479     
   48895933.2287461     
   48827075.7528523     
   48756994.3653316     
   48685623.7043212     
   48612898.3374131     
   48538752.7770023     
   48463121.4984380     
   48385938.9611217     
   48307139.6326881     
   48226658.0164122     
   48144428.6819784     
   48060386.2997524     
   47974465.6786889     
   47886601.8080101     
   47796729.9027884     
   47704785.4535579     
   47610704.2800851     
   47514422.5894117     
   47415877.0382913     
   47315004.8001265     
   47211743.6365081     
   47106031.9734532     
   46997808.9824273     
   46887014.6662255     
   46773589.9497796     
   46657476.7759441     
   46538618.2062997     
   46416958.5269982     
   46292443.3596594     
   46165019.7773065     
   46034636.4253134     
   45901243.6473093     
   45764793.6159708     
   45625240.4685962     
   45482540.4473396     
   45336652.0439450     
   45187536.1487956     
   45035156.2040551     
   44879478.3606421     
   44720471.6387453     
   44558108.0915404     
   44392362.9717271     
   44223214.9004668     
   44050646.0382406     
   43874642.2571085     
   43695193.3137905     
   43512293.0229397     
   43325939.4299185     
   43136134.9823263     
   42942886.6994745     
   42746206.3389320     
   42546110.5592079     
   42342621.0775682     
   42135764.8219215     
   41925574.0756378     
   41712086.6141045     
   41495345.8317577     
   41275400.8582610     
   41052306.6624511     
   40826124.1426085     
   40596920.2015622     
   40364767.8050939     
   40129746.0220719     
   39891940.0447117     
   39651441.1873527     
   39408346.8621336     
   39162760.5299624     
   38914791.6252142     
   38664555.4526407     
   38412173.0550551     
   38157771.0504725     
   37901481.4375174     
   37643441.3680998     
   37383792.8865830     
   37122682.6349396     
   36860261.5237206     
   36596684.3690606     
   36332109.4964000     
   36066698.3121527     
   35800614.8451808     
   35534025.2606715     
   35267097.3498578     
   35000000.0000000     
   50000000.0000000     
   49942108.5052934     
   49884153.1857000     
   49826070.2041765     
   49767795.6994952     
   49709265.7744699     
   49650416.4845686     
   49591183.8270371     
   49531503.7306638     
   49471312.0463183     
   49410544.5383864     
   49349136.8772416     
   49287024.6328768     
   49224143.2698324     
   49160428.1435532     
   49095814.4983078     
   49030237.4668058     
   48963632.0716478     
   48895933.2287460     
   48827075.7528523     
   48756994.3653316     
   48685623.7043212     
   48612898.3374131     
   48538752.7770023     
   48463121.4984380     
   48385938.9611217     
   48307139.6326881     
   48226658.0164122     
   48144428.6819784     
   48060386.2997524     
   47974465.6786889     
   47886601.8080101     
   47796729.9027884     
   47704785.4535579     
   47610704.2800851     
   47514422.5894117     
   47415877.0382913     
   47315004.8001264     
   47211743.6365081     
   47106031.9734532     
   46997808.9824274     
   46887014.6662255     
   46773589.9497796     
   46657476.7759441     
   46538618.2062997     
   46416958.5269983     
   46292443.3596594     
   46165019.7773066     
   46034636.4253134     
   45901243.6473093     
   45764793.6159707     
   45625240.4685962     
   45482540.4473396     
   45336652.0439450     
   45187536.1487957     
   45035156.2040550     
   44879478.3606421     
   44720471.6387453     
   44558108.0915404     
   44392362.9717271     
   44223214.9004667     
   44050646.0382406     
   43874642.2571085     
   43695193.3137905     
   43512293.0229397     
   43325939.4299185     
   43136134.9823264     
   42942886.6994746     
   42746206.3389320     
   42546110.5592079     
   42342621.0775682     
   42135764.8219215     
   41925574.0756378     
   41712086.6141045     
   41495345.8317577     
   41275400.8582610     
   41052306.6624511     
   40826124.1426085     
   40596920.2015622     
   40364767.8050939     
   40129746.0220719     
   39891940.0447116     
   39651441.1873527     
   39408346.8621336     
   39162760.5299623     
   38914791.6252142     
   38664555.4526407     
   38412173.0550551     
   38157771.0504725     
   37901481.4375174     
   37643441.3680998     
   37383792.8865831     
   37122682.6349396     
   36860261.5237206     
   36596684.3690606     
   36332109.4963999     
   36066698.3121527     
   35800614.8451808     
   35534025.2606714     
   35267097.3498578     
   35000000.0000000     
   50000000.0000000     
   49942108.5052934     
   49884153.1857000     
   49826070.2041764     
   49767795.6994953     
   49709265.7744699     
   49650416.4845686     
   49591183.8270370     
   49531503.7306638     
   49471312.0463183     
   49410544.5383864     
   49349136.8772416     
   49287024.6328767     
   49224143.2698324     
   49160428.1435532     
   49095814.4983078     
   49030237.4668057     
   48963632.0716478     
   48895933.2287460     
   48827075.7528523     
   48756994.3653316     
   48685623.7043212     
   48612898.3374131     
   48538752.7770023     
   48463121.4984380     
   48385938.9611217     
   48307139.6326881     
   48226658.0164122     
   48144428.6819784     
   48060386.2997524     
   47974465.6786889     
   47886601.8080102     
   47796729.9027884     
   47704785.4535579     
   47610704.2800851     
   47514422.5894118     
   47415877.0382913     
   47315004.8001264     
   47211743.6365081     
   47106031.9734532     
   46997808.9824274     
   46887014.6662255     
   46773589.9497796     
   46657476.7759441     
   46538618.2062997     
   46416958.5269982     
   46292443.3596595     
   46165019.7773066     
   46034636.4253133     
   45901243.6473092     
   45764793.6159708     
   45625240.4685962     
   45482540.4473397     
   45336652.0439450     
   45187536.1487956     
   45035156.2040550     
   44879478.3606421     
   44720471.6387453     
   44558108.0915404     
   44392362.9717271     
   44223214.9004667     
   44050646.0382406     
   43874642.2571086     
   43695193.3137905     
   43512293.0229397     
   43325939.4299184     
   43136134.9823264     
   42942886.6994745     
   42746206.3389320     
   42546110.5592079     
   42342621.0775681     
   42135764.8219216     
   41925574.0756378     
   41712086.6141045     
   41495345.8317577     
   41275400.8582610     
   41052306.6624511     
   40826124.1426085     
   40596920.2015622     
   40364767.8050939     
   40129746.0220718     
   39891940.0447117     
   39651441.1873527     
   39408346.8621336     
   39162760.5299623     
   38914791.6252141     
   38664555.4526407     
   38412173.0550551     
   38157771.0504725     
   37901481.4375174     
   37643441.3680998     
   37383792.8865831     
   37122682.6349396     
   36860261.5237206     
   36596684.3690605     
   36332109.4963999     
   36066698.3121526     
   35800614.8451808     
   35534025.2606714     
   35267097.3498578     
   35000000.0000000     
   50000000.0000000     
   49942108.5052934     
   49884153.1857000     
   49826070.2041765     
   49767795.6994952     
   49709265.7744700     
   49650416.4845686     
   49591183.8270370     
   49531503.7306638     
   49471312.0463183     
   49410544.5383864     
   49349136.8772416     
   49287024.6328768     
   49224143.2698324     
   49160428.1435532     
   49095814.4983078     
   49030237.4668057     
   48963632.0716477     
   48895933.2287460     
   48827075.7528523     
   48756994.3653316     
   48685623.7043213     
   48612898.3374131     
   48538752.7770022     
   48463121.4984379     
   48385938.9611217     
   48307139.6326881     
   48226658.0164122     
   48144428.6819784     
   48060386.2997524     
   47974465.6786888     
   47886601.8080102     
   47796729.9027884     
   47704785.4535579     
   47610704.2800851     
   47514422.5894118     
   47415877.0382913     
   47315004.8001264     
   47211743.6365080     
   47106031.9734532     
   46997808.9824274     
   46887014.6662255     
   46773589.9497796     
   46657476.7759441     
   46538618.2062996     
   46416958.5269983     
   46292443.3596595     
   46165019.7773066     
   46034636.4253133     
   45901243.6473092     
   45764793.6159707     
   45625240.4685962     
   45482540.4473396     
   45336652.0439450     
   45187536.1487956     
   45035156.2040550     
   44879478.3606421     
   44720471.6387453     
   44558108.0915404     
   44392362.9717271     
   44223214.9004667     
   44050646.0382406     
   43874642.2571086     
   43695193.3137906     
   43512293.0229398     
   43325939.4299184     
   43136134.9823264     
   42942886.6994745     
   42746206.3389320     
   42546110.5592078     
   42342621.0775681     
   42135764.8219216     
   41925574.0756378     
   41712086.6141045     
   41495345.8317577     
   41275400.8582609     
   41052306.6624511     
   40826124.1426085     
   40596920.2015621     
   40364767.8050938     
   40129746.0220718     
   39891940.0447116     
   39651441.1873527     
   39408346.8621335     
   39162760.5299623     
   38914791.6252141     
   38664555.4526407     
   38412173.0550551     
   38157771.0504725     
   37901481.4375174     
   37643441.3680998     
   37383792.8865831     
   37122682.6349396     
   36860261.5237206     
   36596684.3690605     
   36332109.4963999     
   36066698.3121526     
   35800614.8451808     
   35534025.2606714     
   35267097.3498578     
   35000000.0000000     
VECTORS u double 
    0.00000E+00         0.00000E+00         0.00000E+00
    0.00000E+00         0.00000E+00         0.00000E+00
    0.00000E+00         0.00000E+00         0.00000E+00
    0.00000E+00         0.00000E+00         0.00000E+00
    0.00000E+00         0.00000E+00         0.00000E+00
    0.00000E+00         0.00000E+00         0.00000E+00
    0.00000E+00         0.00000E+00         0.00000E+00
    0.00000E+00         0.00000E+00         0.00000E+00
    0.00000E+00         0.00000E+00         0.00000E+00
    0.00000E+00         0.00000E+00         0.00000E+00
    0.00000E+00         0.00000E+00         0.00000E+00
    0.00000E+00         0.00000E+00         0.00000E+00
    0.00000E+00         0.00000E+00         0.00000E+00
    0.00000E+00         0.00000E+00         0.00000E+00
    0.00000E+00         0.00000E+00         0.00000E+00
    0.00000E+00         0.00000E+00         0.00000E+00
    0.00000E+00         0.00000E+00         0.00000E+00
    0.00000E+00         0.00000E+00         0.00000E+00
    0.00000E+00         0.00000E+00         0.00000E+00
    0.00000E+00         0.00000E+00         0.00000E+00
    0.00000E+00         0.00000E+00         0.00000E+00
    0.00000E+00         0.00000E+00         0.00000E+00
    0.00000E+00         0.00000E+00         0.00000E+00
    0.00000E+00         0.00000E+00         0.00000E+00
    0.00000E+00         0.00000E+00         0.00000E+00
    0.00000E+00         0.00000E+00         0.00000E+00
    0.00000E+00         0.00000E+00         0.00000E+00
    0.00000E+00         0.00000E+00         0.00000E+00
    0.00000E+00         0.00000E+00         0.00000E+00
    0.00000E+00         0.00000E+00         0.00000E+00
    0.00000E+00         0.00000E+00         0.00000E+00
    0.00000E+00         0.00000E+00         0.00000E+00
    0.00000E+00         0.00000E+00         0.00000E+00
    0.00000E+00         0.00000E+00         0.00000E+00
    0.00000E+00         0.00000E+00         0.00000E+00
    0.00000E+00         0.00000E+00         0.00000E+00
    0.00000E+00         0.00000E+00         0.00000E+00
    0.00000E+00         0.00000E+00         0.00000E+00
    0.00000E+00         0.00000E+00         0.00000E+00
    0.00000E+00         0.00000E+00         0.00000E+00
    0.00000E+00         0.00000E+00         0.00000E+00
    0.00000E+00         0.00000E+00         0.00000E+00
    0.00000E+00         0.00000E+00         0.00000E+00
    0.00000E+00         0.00000E+00         0.00000E+00
    0.00000E+00         0.00000E+00         0.00000E+00
    0.00000E+00         0.00000E+00         0.00000E+00
    0.00000E+00         0.00000E+00         0.00000E+00
    0.00000E+00         0.00000E+00         0.00000E+00
    0.00000E+00         0.00000E+00         0.00000E+00
    0.00000E+00         0.00000E+00         0.00000E+00
    0.00000E+00         0.00000E+00         0.00000E+00
    0.00000E+00         0.00000E+00         0.00000E+00
    0.00000E+00         0.00000E+00         0.00000E+00
    0.00000E+00         0.00000E+00         0.00000E+00
    0.00000E+00         0.00000E+00         0.00000E+00
    0.00000E+00         0.00000E+00         0.00000E+00
    0.00000E+00         0.00000E+00         0.00000E+00
    0.00000E+00         0.00000E+00         0.00000E+00
    0.00000E+00         0.00000E+00         0.00000E+00
    0.00000E+00         0.00000E+00         0.00000E+00
    0.00000E+00         0.00000E+00         0.00000E+00
    0.00000E+00         0.00000E+00         0.00000E+00
    0.00000E+00         0.00000E+00         0.00000E+00
    0.00000E+00         0.00000E+00         0.00000E+00
    0.00000E+00         0.00000E+00         0.00000E+00
    0.00000E+00         0.00000E+00         0.00000E+00
    0.00000E+00         0.00000E+00         0.00000E+00
    0.00000E+00         0.00000E+00         0.00000E+00
    0.00000E+00         0.00000E+00         0.00000E+00
    0.00000E+00         0.00000E+00         0.00000E+00
    0.00000E+00         0.00000E+00         0.00000E+00
    0.00000E+00         0.00000E+00         0.00000E+00
    0.00000E+00         0.00000E+00         0.00000E+00
    0.00000E+00         0.00000E+00         0.00000E+00
    0.00000E+00         0.00000E+00         0.00000E+00
    0.00000E+00         0.00000E+00         0.00000E+00
    0.00000E+00         0.00000E+00         0.00000E+00
    0.00000E+00         0.00000E+00         0.00000E+00
    0.00000E+00         0.00000E+00         0.00000E+00
    0.00000E+00         0.00000E+00         0.00000E+00
    0.00000E+00         0.00000E+00         0.00000E+00
    0.00000E+00         0.00000E+00         0.00000E+00
    0.00000E+00         0.00000E+00         0.00000E+00
    0.00000E+00         0.00000E+00         0.00000E+00
    0.00000E+00         0.00000E+00         0.00000E+00
    0.00000E+00         0.00000E+00         0.00000E+00
    0.00000E+00         0.00000E+00         0.00000E+00
    0.00000E+00         0.00000E+00         0.00000E+00
    0.00000E+00         0.00000E+00         0.00000E+00
    0.00000E+00         0.00000E+00         0.00000E+00
    0.00000E+00         0.00000E+00         0.00000E+00
    0.00000E+00         0.00000E+00         0.00000E+00
    0.00000E+00         0.00000E+00         0.00000E+00
    0.00000E+00         0.00000E+00         0.00000E+00
    0.00000E+00         0.00000E+00         0.00000E+00
    0.00000E+00         0.00000E+00         0.00000E+00
    0.00000E+00         0.00000E+00         0.00000E+00
    0.00000E+00         0.00000E+00         0.00000E+00
    0.00000E+00         0.00000E+00         0.00000E+00
    0.00000E+00         0.00000E+00         0.00000E+00
    0.00000E+00         0.00000E+00         0.00000E+00
    0.00000E+00         0.10649E-05         0.00000E+00
    0.75824E-05         0.23002E-06         0.00000E+00
    0.12165E-04        -0.13792E-05         0.00000E+00
    0.15850E-04        -0.31108E-05         0.00000E+00
    0.18942E-04        -0.50889E-05         0.00000E+00
    0.21696E-04        -0.72182E-05         0.00000E+00
    0.24235E-04        -0.94915E-05         0.00000E+00
    0.26639E-04        -0.11871E-04         0.00000E+00
    0.28953E-04        -0.14338E-04         0.00000E+00
    0.31204E-04        -0.16870E-04         0.00000E+00
    0.33404E-04        -0.19453E-04         0.00000E+00
    0.35560E-04        -0.22076E-04         0.00000E+00
    0.37674E-04        -0.24732E-04         0.00000E+00
    0.39747E-04        -0.27415E-04         0.00000E+00
    0.41780E-04        -0.30123E-04         0.00000E+00
    0.43774E-04        -0.32855E-04         0.00000E+00
    0.45729E-04        -0.35613E-04         0.00000E+00
    0.47649E-04        -0.38398E-04         0.00000E+00
    0.49536E-04        -0.41212E-04         0.00000E+00
    0.51393E-04        -0.44058E-04         0.00000E+00
    0.53224E-04        -0.46940E-04         0.00000E+00
    0.55034E-04        -0.49861E-04         0.00000E+00
    0.56825E-04        -0.52824E-04         0.00000E+00
    0.58603E-04        -0.55834E-04         0.00000E+00
    0.60371E-04        -0.58895E-04         0.00000E+00
    0.62134E-04        -0.62008E-04         0.00000E+00
    0.63894E-04        -0.65179E-04         0.00000E+00
    0.65656E-04        -0.68411E-04         0.00000E+00
    0.67422E-04        -0.71707E-04         0.00000E+00
    0.69196E-04        -0.75070E-04         0.00000E+00
    0.70980E-04        -0.78504E-04         0.00000E+00
    0.72775E-04        -0.82013E-04         0.00000E+00
    0.74585E-04        -0.85598E-04         0.00000E+00
    0.76411E-04        -0.89264E-04         0.00000E+00
    0.78253E-04        -0.93013E-04         0.00000E+00
    0.80113E-04        -0.96849E-04         0.00000E+00
    0.81992E-04        -0.10077E-03         0.00000E+00
    0.83891E-04        -0.10479E-03         0.00000E+00
    0.85809E-04        -0.10890E-03         0.00000E+00
    0.87747E-04        -0.11311E-03         0.00000E+00
    0.89704E-04        -0.11743E-03         0.00000E+00
    0.91680E-04        -0.12184E-03         0.00000E+00
    0.93674E-04        -0.12636E-03         0.00000E+00
    0.95685E-04        -0.13099E-03         0.00000E+00
    0.97712E-04        -0.13574E-03         0.00000E+00
    0.99754E-04        -0.14059E-03         0.00000E+00
    0.10181E-03        -0.14557E-03         0.00000E+00
    0.10387E-03        -0.15066E-03         0.00000E+00
    0.10595E-03        -0.15588E-03         0.00000E+00
    0.10803E-03        -0.16121E-03         0.00000E+00
    0.11012E-03        -0.16668E-03         0.00000E+00
    0.11220E-03        -0.17228E-03         0.00000E+00
    0.11428E-03        -0.17800E-03         0.00000E+00
    0.11636E-03        -0.18386E-03         0.00000E+00
    0.11843E-03        -0.18985E-03         0.00000E+00
    0.12048E-03        -0.19598E-03         0.00000E+00
    0.12252E-03        -0.20225E-03         0.00000E+00
    0.12453E-03        -0.20867E-03         0.00000E+00
    0.12651E-03        -0.21522E-03         0.00000E+00
    0.12846E-03        -0.22192E-03         0.00000E+00
    0.13036E-03        -0.22876E-03         0.00000E+00
    0.13222E-03        -0.23575E-03         0.00000E+00
    0.13403E-03        -0.24289E-03         0.00000E+00
    0.13577E-03        -0.25018E-03         0.00000E+00
    0.13744E-03        -0.25762E-03         0.00000E+00
    0.13904E-03        -0.26522E-03         0.00000E+00
    0.14054E-03        -0.27296E-03         0.00000E+00
    0.14194E-03        -0.28086E-03         0.00000E+00
    0.14324E-03        -0.28892E-03         0.00000E+00
    0.14441E-03        -0.29713E-03         0.00000E+00
    0.14544E-03        -0.30550E-03         0.00000E+00
    0.14633E-03        -0.31403E-03         0.00000E+00
    0.14705E-03        -0.32272E-03         0.00000E+00
    0.14759E-03        -0.33157E-03         0.00000E+00
    0.14794E-03        -0.34057E-03         0.00000E+00
    0.14807E-03        -0.34974E-03         0.00000E+00
    0.14797E-03        -0.35907E-03         0.00000E+00
    0.14762E-03        -0.36857E-03         0.00000E+00
    0.14701E-03        -0.37823E-03         0.00000E+00
    0.14610E-03        -0.38805E-03         0.00000E+00
    0.14488E-03        -0.39804E-03         0.00000E+00
    0.14333E-03        -0.40820E-03         0.00000E+00
    0.14144E-03        -0.41852E-03         0.00000E+00
    0.13919E-03        -0.42900E-03         0.00000E+00
    0.13656E-03        -0.43965E-03         0.00000E+00
    0.13356E-03        -0.45044E-03         0.00000E+00
    0.13016E-03        -0.46138E-03         0.00000E+00
    0.12637E-03        -0.47245E-03         0.00000E+00
    0.12219E-03        -0.48362E-03         0.00000E+00
    0.11762E-03        -0.49486E-03         0.00000E+00
    0.11267E-03        -0.50614E-03         0.00000E+00
    0.10732E-03        -0.51740E-03         0.00000E+00
    0.10157E-03        -0.52856E-03         0.00000E+00
    0.95355E-04        -0.53955E-03         0.00000E+00
    0.88569E-04        -0.55025E-03         0.00000E+00
    0.81012E-04        -0.56054E-03         0.00000E+00
    0.72330E-04        -0.57024E-03         0.00000E+00
    0.61962E-04        -0.57929E-03         0.00000E+00
    0.48755E-04        -0.58724E-03         0.00000E+00
    0.31325E-04        -0.59465E-03         0.00000E+00
    0.00000E+00        -0.59850E-03         0.00000E+00
    0.00000E+00         0.99573E-06         0.00000E+00
    0.14286E-04        -0.37259E-06         0.00000E+00
    0.23660E-04        -0.33055E-05         0.00000E+00
    0.31053E-04        -0.67118E-05         0.00000E+00
    0.37315E-04        -0.10587E-04         0.00000E+00
    0.42873E-04        -0.14816E-04         0.00000E+00
    0.47995E-04        -0.19335E-04         0.00000E+00
    0.52835E-04        -0.24080E-04         0.00000E+00
    0.57486E-04        -0.29002E-04         0.00000E+00
    0.62000E-04        -0.34058E-04         0.00000E+00
    0.66405E-04        -0.39217E-04         0.00000E+00
    0.70715E-04        -0.44457E-04         0.00000E+00
    0.74937E-04        -0.49762E-04         0.00000E+00
    0.79074E-04        -0.55122E-04         0.00000E+00
    0.83128E-04        -0.60532E-04         0.00000E+00
    0.87101E-04        -0.65991E-04         0.00000E+00
    0.90997E-04        -0.71501E-04         0.00000E+00
    0.94821E-04        -0.77066E-04         0.00000E+00
    0.98578E-04        -0.82689E-04         0.00000E+00
    0.10228E-03        -0.88377E-04         0.00000E+00
    0.10592E-03        -0.94138E-04         0.00000E+00
    0.10952E-03        -0.99977E-04         0.00000E+00
    0.11309E-03        -0.10590E-03         0.00000E+00
    0.11663E-03        -0.11192E-03         0.00000E+00
    0.12015E-03        -0.11804E-03         0.00000E+00
    0.12366E-03        -0.12427E-03         0.00000E+00
    0.12716E-03        -0.13061E-03         0.00000E+00
    0.13067E-03        -0.13707E-03         0.00000E+00
    0.13418E-03        -0.14366E-03         0.00000E+00
    0.13771E-03        -0.15039E-03         0.00000E+00
    0.14126E-03        -0.15726E-03         0.00000E+00
    0.14483E-03        -0.16428E-03         0.00000E+00
    0.14844E-03        -0.17145E-03         0.00000E+00
    0.15207E-03        -0.17879E-03         0.00000E+00
    0.15574E-03        -0.18629E-03         0.00000E+00
    0.15944E-03        -0.19396E-03         0.00000E+00
    0.16318E-03        -0.20181E-03         0.00000E+00
    0.16695E-03        -0.20985E-03         0.00000E+00
    0.17077E-03        -0.21808E-03         0.00000E+00
    0.17463E-03        -0.22650E-03         0.00000E+00
    0.17852E-03        -0.23513E-03         0.00000E+00
    0.18245E-03        -0.24396E-03         0.00000E+00
    0.18642E-03        -0.25301E-03         0.00000E+00
    0.19042E-03        -0.26227E-03         0.00000E+00
    0.19446E-03        -0.27176E-03         0.00000E+00
    0.19852E-03        -0.28148E-03         0.00000E+00
    0.20261E-03        -0.29143E-03         0.00000E+00
    0.20672E-03        -0.30161E-03         0.00000E+00
    0.21084E-03        -0.31204E-03         0.00000E+00
    0.21498E-03        -0.32272E-03         0.00000E+00
    0.21913E-03        -0.33366E-03         0.00000E+00
    0.22328E-03        -0.34485E-03         0.00000E+00
    0.22742E-03        -0.35630E-03         0.00000E+00
    0.23156E-03        -0.36801E-03         0.00000E+00
    0.23567E-03        -0.38000E-03         0.00000E+00
    0.23975E-03        -0.39226E-03         0.00000E+00
    0.24380E-03        -0.40480E-03         0.00000E+00
    0.24780E-03        -0.41761E-03         0.00000E+00
    0.25174E-03        -0.43072E-03         0.00000E+00
    0.25562E-03        -0.44411E-03         0.00000E+00
    0.25941E-03        -0.45779E-03         0.00000E+00
    0.26311E-03        -0.47176E-03         0.00000E+00
    0.26669E-03        -0.48604E-03         0.00000E+00
    0.27016E-03        -0.50061E-03         0.00000E+00
    0.27348E-03        -0.51548E-03         0.00000E+00
    0.27665E-03        -0.53065E-03         0.00000E+00
    0.27964E-03        -0.54613E-03         0.00000E+00
    0.28243E-03        -0.56192E-03         0.00000E+00
    0.28500E-03        -0.57802E-03         0.00000E+00
    0.28733E-03        -0.59442E-03         0.00000E+00
    0.28938E-03        -0.61114E-03         0.00000E+00
    0.29114E-03        -0.62818E-03         0.00000E+00
    0.29257E-03        -0.64553E-03         0.00000E+00
    0.29365E-03        -0.66319E-03         0.00000E+00
    0.29433E-03        -0.68118E-03         0.00000E+00
    0.29459E-03        -0.69949E-03         0.00000E+00
    0.29439E-03        -0.71811E-03         0.00000E+00
    0.29369E-03        -0.73707E-03         0.00000E+00
    0.29245E-03        -0.75635E-03         0.00000E+00
    0.29064E-03        -0.77595E-03         0.00000E+00
    0.28821E-03        -0.79589E-03         0.00000E+00
    0.28512E-03        -0.81615E-03         0.00000E+00
    0.28135E-03        -0.83674E-03         0.00000E+00
    0.27686E-03        -0.85766E-03         0.00000E+00
    0.27162E-03        -0.87889E-03         0.00000E+00
    0.26561E-03        -0.90043E-03         0.00000E+00
    0.25882E-03        -0.92225E-03         0.00000E+00
    0.25124E-03        -0.94432E-03         0.00000E+00
    0.24287E-03        -0.96660E-03         0.00000E+00
    0.23371E-03        -0.98904E-03         0.00000E+00
    0.22376E-03        -0.10115E-02         0.00000E+00
    0.21301E-03        -0.10340E-02         0.00000E+00
    0.20141E-03        -0.10563E-02         0.00000E+00
    0.18884E-03        -0.10782E-02         0.00000E+00
    0.17508E-03        -0.10995E-02         0.00000E+00
    0.15973E-03        -0.11199E-02         0.00000E+00
    0.14210E-03        -0.11391E-02         0.00000E+00
    0.12098E-03        -0.11569E-02         0.00000E+00
    0.94440E-04        -0.11725E-02         0.00000E+00
    0.58604E-04        -0.11860E-02         0.00000E+00
    0.00000E+00        -0.11923E-02         0.00000E+00
    0.00000E+00        -0.22520E-07         0.00000E+00
    0.20349E-04        -0.17688E-05         0.00000E+00
    0.34506E-04        -0.58081E-05         0.00000E+00
    0.45662E-04        -0.10795E-04         0.00000E+00
    0.55136E-04        -0.16506E-04         0.00000E+00
    0.63548E-04        -0.22794E-04         0.00000E+00
    0.71292E-04        -0.29535E-04         0.00000E+00
    0.78597E-04        -0.36628E-04         0.00000E+00
    0.85604E-04        -0.43993E-04         0.00000E+00
    0.92392E-04        -0.51564E-04         0.00000E+00
    0.99006E-04        -0.59292E-04         0.00000E+00
    0.10547E-03        -0.67141E-04         0.00000E+00
    0.11179E-03        -0.75089E-04         0.00000E+00
    0.11798E-03        -0.83119E-04         0.00000E+00
    0.12405E-03        -0.91226E-04         0.00000E+00
    0.12999E-03        -0.99406E-04         0.00000E+00
    0.13581E-03        -0.10766E-03         0.00000E+00
    0.14152E-03        -0.11600E-03         0.00000E+00
    0.14713E-03        -0.12443E-03         0.00000E+00
    0.15265E-03        -0.13296E-03         0.00000E+00
    0.15809E-03        -0.14159E-03         0.00000E+00
    0.16347E-03        -0.15034E-03         0.00000E+00
    0.16879E-03        -0.15923E-03         0.00000E+00
    0.17407E-03        -0.16825E-03         0.00000E+00
    0.17933E-03        -0.17743E-03         0.00000E+00
    0.18456E-03        -0.18677E-03         0.00000E+00
    0.18979E-03        -0.19628E-03         0.00000E+00
    0.19503E-03        -0.20598E-03         0.00000E+00
    0.20028E-03        -0.21587E-03         0.00000E+00
    0.20554E-03        -0.22596E-03         0.00000E+00
    0.21084E-03        -0.23627E-03         0.00000E+00
    0.21618E-03        -0.24680E-03         0.00000E+00
    0.22155E-03        -0.25756E-03         0.00000E+00
    0.22697E-03        -0.26857E-03         0.00000E+00
    0.23245E-03        -0.27982E-03         0.00000E+00
    0.23797E-03        -0.29134E-03         0.00000E+00
    0.24355E-03        -0.30312E-03         0.00000E+00
    0.24919E-03        -0.31518E-03         0.00000E+00
    0.25489E-03        -0.32753E-03         0.00000E+00
    0.26064E-03        -0.34017E-03         0.00000E+00
    0.26645E-03        -0.35311E-03         0.00000E+00
    0.27232E-03        -0.36636E-03         0.00000E+00
    0.27824E-03        -0.37994E-03         0.00000E+00
    0.28421E-03        -0.39383E-03         0.00000E+00
    0.29023E-03        -0.40807E-03         0.00000E+00
    0.29629E-03        -0.42265E-03         0.00000E+00
    0.30239E-03        -0.43757E-03         0.00000E+00
    0.30852E-03        -0.45286E-03         0.00000E+00
    0.31468E-03        -0.46850E-03         0.00000E+00
    0.32086E-03        -0.48452E-03         0.00000E+00
    0.32705E-03        -0.50092E-03         0.00000E+00
    0.33324E-03        -0.51771E-03         0.00000E+00
    0.33942E-03        -0.53488E-03         0.00000E+00
    0.34559E-03        -0.55245E-03         0.00000E+00
    0.35172E-03        -0.57043E-03         0.00000E+00
    0.35781E-03        -0.58882E-03         0.00000E+00
    0.36385E-03        -0.60762E-03         0.00000E+00
    0.36982E-03        -0.62684E-03         0.00000E+00
    0.37570E-03        -0.64649E-03         0.00000E+00
    0.38148E-03        -0.66656E-03         0.00000E+00
    0.38713E-03        -0.68708E-03         0.00000E+00
    0.39265E-03        -0.70803E-03         0.00000E+00
    0.39800E-03        -0.72942E-03         0.00000E+00
    0.40317E-03        -0.75127E-03         0.00000E+00
    0.40813E-03        -0.77356E-03         0.00000E+00
    0.41285E-03        -0.79630E-03         0.00000E+00
    0.41731E-03        -0.81950E-03         0.00000E+00
    0.42147E-03        -0.84316E-03         0.00000E+00
    0.42530E-03        -0.86728E-03         0.00000E+00
    0.42876E-03        -0.89187E-03         0.00000E+00
    0.43183E-03        -0.91691E-03         0.00000E+00
    0.43445E-03        -0.94243E-03         0.00000E+00
    0.43658E-03        -0.96842E-03         0.00000E+00
    0.43818E-03        -0.99488E-03         0.00000E+00
    0.43919E-03        -0.10218E-02         0.00000E+00
    0.43958E-03        -0.10492E-02         0.00000E+00
    0.43927E-03        -0.10771E-02         0.00000E+00
    0.43822E-03        -0.11055E-02         0.00000E+00
    0.43636E-03        -0.11344E-02         0.00000E+00
    0.43364E-03        -0.11637E-02         0.00000E+00
    0.43001E-03        -0.11935E-02         0.00000E+00
    0.42540E-03        -0.12239E-02         0.00000E+00
    0.41975E-03        -0.12547E-02         0.00000E+00
    0.41303E-03        -0.12860E-02         0.00000E+00
    0.40519E-03        -0.13177E-02         0.00000E+00
    0.39620E-03        -0.13500E-02         0.00000E+00
    0.38602E-03        -0.13826E-02         0.00000E+00
    0.37465E-03        -0.14156E-02         0.00000E+00
    0.36208E-03        -0.14490E-02         0.00000E+00
    0.34831E-03        -0.14825E-02         0.00000E+00
    0.33332E-03        -0.15162E-02         0.00000E+00
    0.31709E-03        -0.15498E-02         0.00000E+00
    0.29954E-03        -0.15831E-02         0.00000E+00
    0.28049E-03        -0.16158E-02         0.00000E+00
    0.25959E-03        -0.16476E-02         0.00000E+00
    0.23623E-03        -0.16781E-02         0.00000E+00
    0.20939E-03        -0.17067E-02         0.00000E+00
    0.17731E-03        -0.17328E-02         0.00000E+00
    0.13716E-03        -0.17556E-02         0.00000E+00
    0.82934E-04        -0.17742E-02         0.00000E+00
    0.00000E+00        -0.17822E-02         0.00000E+00
    0.00000E+00        -0.18692E-05         0.00000E+00
    0.25920E-04        -0.39087E-05         0.00000E+00
    0.44760E-04        -0.88956E-05         0.00000E+00
    0.59712E-04        -0.15359E-04         0.00000E+00
    0.72431E-04        -0.22852E-04         0.00000E+00
    0.83737E-04        -0.31158E-04         0.00000E+00
    0.94135E-04        -0.40094E-04         0.00000E+00
    0.10393E-03        -0.49518E-04         0.00000E+00
    0.11331E-03        -0.59313E-04         0.00000E+00
    0.12238E-03        -0.69388E-04         0.00000E+00
    0.13121E-03        -0.79676E-04         0.00000E+00
    0.13983E-03        -0.90128E-04         0.00000E+00
    0.14825E-03        -0.10071E-03         0.00000E+00
    0.15648E-03        -0.11141E-03         0.00000E+00
    0.16454E-03        -0.12220E-03         0.00000E+00
    0.17243E-03        -0.13310E-03         0.00000E+00
    0.18016E-03        -0.14409E-03         0.00000E+00
    0.18774E-03        -0.15520E-03         0.00000E+00
    0.19519E-03        -0.16643E-03         0.00000E+00
    0.20252E-03        -0.17779E-03         0.00000E+00
    0.20974E-03        -0.18930E-03         0.00000E+00
    0.21687E-03        -0.20096E-03         0.00000E+00
    0.22394E-03        -0.21280E-03         0.00000E+00
    0.23094E-03        -0.22483E-03         0.00000E+00
    0.23791E-03        -0.23707E-03         0.00000E+00
    0.24486E-03        -0.24952E-03         0.00000E+00
    0.25180E-03        -0.26220E-03         0.00000E+00
    0.25874E-03        -0.27513E-03         0.00000E+00
    0.26571E-03        -0.28832E-03         0.00000E+00
    0.27270E-03        -0.30178E-03         0.00000E+00
    0.27972E-03        -0.31552E-03         0.00000E+00
    0.28680E-03        -0.32957E-03         0.00000E+00
    0.29393E-03        -0.34392E-03         0.00000E+00
    0.30112E-03        -0.35860E-03         0.00000E+00
    0.30838E-03        -0.37361E-03         0.00000E+00
    0.31571E-03        -0.38897E-03         0.00000E+00
    0.32312E-03        -0.40468E-03         0.00000E+00
    0.33059E-03        -0.42077E-03         0.00000E+00
    0.33815E-03        -0.43724E-03         0.00000E+00
    0.34578E-03        -0.45410E-03         0.00000E+00
    0.35349E-03        -0.47136E-03         0.00000E+00
    0.36127E-03        -0.48903E-03         0.00000E+00
    0.36913E-03        -0.50714E-03         0.00000E+00
    0.37705E-03        -0.52567E-03         0.00000E+00
    0.38503E-03        -0.54466E-03         0.00000E+00
    0.39307E-03        -0.56410E-03         0.00000E+00
    0.40116E-03        -0.58400E-03         0.00000E+00
    0.40930E-03        -0.60438E-03         0.00000E+00
    0.41747E-03        -0.62525E-03         0.00000E+00
    0.42566E-03        -0.64661E-03         0.00000E+00
    0.43387E-03        -0.66847E-03         0.00000E+00
    0.44208E-03        -0.69085E-03         0.00000E+00
    0.45028E-03        -0.71375E-03         0.00000E+00
    0.45845E-03        -0.73718E-03         0.00000E+00
    0.46659E-03        -0.76114E-03         0.00000E+00
    0.47467E-03        -0.78565E-03         0.00000E+00
    0.48267E-03        -0.81072E-03         0.00000E+00
    0.49059E-03        -0.83634E-03         0.00000E+00
    0.49839E-03        -0.86253E-03         0.00000E+00
    0.50605E-03        -0.88929E-03         0.00000E+00
    0.51355E-03        -0.91662E-03         0.00000E+00
    0.52086E-03        -0.94454E-03         0.00000E+00
    0.52796E-03        -0.97305E-03         0.00000E+00
    0.53481E-03        -0.10022E-02         0.00000E+00
    0.54138E-03        -0.10319E-02         0.00000E+00
    0.54764E-03        -0.10622E-02         0.00000E+00
    0.55354E-03        -0.10931E-02         0.00000E+00
    0.55906E-03        -0.11246E-02         0.00000E+00
    0.56413E-03        -0.11567E-02         0.00000E+00
    0.56873E-03        -0.11895E-02         0.00000E+00
    0.57278E-03        -0.12228E-02         0.00000E+00
    0.57625E-03        -0.12568E-02         0.00000E+00
    0.57908E-03        -0.12914E-02         0.00000E+00
    0.58119E-03        -0.13266E-02         0.00000E+00
    0.58254E-03        -0.13625E-02         0.00000E+00
    0.58304E-03        -0.13990E-02         0.00000E+00
    0.58262E-03        -0.14361E-02         0.00000E+00
    0.58122E-03        -0.14738E-02         0.00000E+00
    0.57875E-03        -0.15122E-02         0.00000E+00
    0.57514E-03        -0.15513E-02         0.00000E+00
    0.57031E-03        -0.15910E-02         0.00000E+00
    0.56418E-03        -0.16313E-02         0.00000E+00
    0.55667E-03        -0.16723E-02         0.00000E+00
    0.54774E-03        -0.17139E-02         0.00000E+00
    0.53731E-03        -0.17562E-02         0.00000E+00
    0.52533E-03        -0.17990E-02         0.00000E+00
    0.51178E-03        -0.18424E-02         0.00000E+00
    0.49662E-03        -0.18864E-02         0.00000E+00
    0.47984E-03        -0.19307E-02         0.00000E+00
    0.46143E-03        -0.19753E-02         0.00000E+00
    0.44137E-03        -0.20201E-02         0.00000E+00
    0.41961E-03        -0.20648E-02         0.00000E+00
    0.39601E-03        -0.21090E-02         0.00000E+00
    0.37035E-03        -0.21525E-02         0.00000E+00
    0.34215E-03        -0.21947E-02         0.00000E+00
    0.31060E-03        -0.22351E-02         0.00000E+00
    0.27434E-03        -0.22728E-02         0.00000E+00
    0.23111E-03        -0.23070E-02         0.00000E+00
    0.17718E-03        -0.23366E-02         0.00000E+00
    0.10501E-03        -0.23595E-02         0.00000E+00
    0.00000E+00        -0.23688E-02         0.00000E+00
    0.00000E+00        -0.44584E-05         0.00000E+00
    0.31101E-04        -0.67430E-05         0.00000E+00
    0.54485E-04        -0.12563E-04         0.00000E+00
    0.73237E-04        -0.20407E-04         0.00000E+00
    0.89226E-04        -0.29625E-04         0.00000E+00
    0.10346E-03        -0.39910E-04         0.00000E+00
    0.11654E-03        -0.51016E-04         0.00000E+00
    0.12885E-03        -0.62752E-04         0.00000E+00
    0.14062E-03        -0.74963E-04         0.00000E+00
    0.15198E-03        -0.87532E-04         0.00000E+00
    0.16303E-03        -0.10037E-03         0.00000E+00
    0.17379E-03        -0.11342E-03         0.00000E+00
    0.18430E-03        -0.12663E-03         0.00000E+00
    0.19457E-03        -0.13998E-03         0.00000E+00
    0.20461E-03        -0.15346E-03         0.00000E+00
    0.21444E-03        -0.16706E-03         0.00000E+00
    0.22406E-03        -0.18079E-03         0.00000E+00
    0.23350E-03        -0.19466E-03         0.00000E+00
    0.24276E-03        -0.20869E-03         0.00000E+00
    0.25188E-03        -0.22288E-03         0.00000E+00
    0.26086E-03        -0.23725E-03         0.00000E+00
    0.26974E-03        -0.25183E-03         0.00000E+00
    0.27852E-03        -0.26662E-03         0.00000E+00
    0.28724E-03        -0.28166E-03         0.00000E+00
    0.29591E-03        -0.29694E-03         0.00000E+00
    0.30455E-03        -0.31251E-03         0.00000E+00
    0.31318E-03        -0.32836E-03         0.00000E+00
    0.32181E-03        -0.34452E-03         0.00000E+00
    0.33047E-03        -0.36101E-03         0.00000E+00
    0.33916E-03        -0.37784E-03         0.00000E+00
    0.34790E-03        -0.39502E-03         0.00000E+00
    0.35670E-03        -0.41258E-03         0.00000E+00
    0.36557E-03        -0.43053E-03         0.00000E+00
    0.37452E-03        -0.44888E-03         0.00000E+00
    0.38355E-03        -0.46765E-03         0.00000E+00
    0.39266E-03        -0.48685E-03         0.00000E+00
    0.40187E-03        -0.50650E-03         0.00000E+00
    0.41117E-03        -0.52662E-03         0.00000E+00
    0.42056E-03        -0.54721E-03         0.00000E+00
    0.43006E-03        -0.56829E-03         0.00000E+00
    0.43964E-03        -0.58987E-03         0.00000E+00
    0.44932E-03        -0.61197E-03         0.00000E+00
    0.45909E-03        -0.63461E-03         0.00000E+00
    0.46894E-03        -0.65778E-03         0.00000E+00
    0.47886E-03        -0.68152E-03         0.00000E+00
    0.48886E-03        -0.70582E-03         0.00000E+00
    0.49892E-03        -0.73071E-03         0.00000E+00
    0.50904E-03        -0.75619E-03         0.00000E+00
    0.51919E-03        -0.78227E-03         0.00000E+00
    0.52938E-03        -0.80897E-03         0.00000E+00
    0.53959E-03        -0.83631E-03         0.00000E+00
    0.54979E-03        -0.86428E-03         0.00000E+00
    0.55999E-03        -0.89290E-03         0.00000E+00
    0.57015E-03        -0.92218E-03         0.00000E+00
    0.58027E-03        -0.95213E-03         0.00000E+00
    0.59032E-03        -0.98276E-03         0.00000E+00
    0.60027E-03        -0.10141E-02         0.00000E+00
    0.61011E-03        -0.10461E-02         0.00000E+00
    0.61980E-03        -0.10788E-02         0.00000E+00
    0.62933E-03        -0.11123E-02         0.00000E+00
    0.63865E-03        -0.11464E-02         0.00000E+00
    0.64774E-03        -0.11813E-02         0.00000E+00
    0.65656E-03        -0.12169E-02         0.00000E+00
    0.66508E-03        -0.12533E-02         0.00000E+00
    0.67325E-03        -0.12904E-02         0.00000E+00
    0.68102E-03        -0.13282E-02         0.00000E+00
    0.68836E-03        -0.13668E-02         0.00000E+00
    0.69521E-03        -0.14062E-02         0.00000E+00
    0.70152E-03        -0.14463E-02         0.00000E+00
    0.70723E-03        -0.14872E-02         0.00000E+00
    0.71227E-03        -0.15288E-02         0.00000E+00
    0.71658E-03        -0.15713E-02         0.00000E+00
    0.72008E-03        -0.16144E-02         0.00000E+00
    0.72271E-03        -0.16584E-02         0.00000E+00
    0.72437E-03        -0.17032E-02         0.00000E+00
    0.72499E-03        -0.17487E-02         0.00000E+00
    0.72447E-03        -0.17950E-02         0.00000E+00
    0.72272E-03        -0.18421E-02         0.00000E+00
    0.71964E-03        -0.18900E-02         0.00000E+00
    0.71514E-03        -0.19387E-02         0.00000E+00
    0.70912E-03        -0.19882E-02         0.00000E+00
    0.70148E-03        -0.20385E-02         0.00000E+00
    0.69214E-03        -0.20896E-02         0.00000E+00
    0.68100E-03        -0.21415E-02         0.00000E+00
    0.66799E-03        -0.21942E-02         0.00000E+00
    0.65305E-03        -0.22476E-02         0.00000E+00
    0.63613E-03        -0.23017E-02         0.00000E+00
    0.61718E-03        -0.23565E-02         0.00000E+00
    0.59619E-03        -0.24118E-02         0.00000E+00
    0.57312E-03        -0.24674E-02         0.00000E+00
    0.54795E-03        -0.25232E-02         0.00000E+00
    0.52058E-03        -0.25789E-02         0.00000E+00
    0.49086E-03        -0.26341E-02         0.00000E+00
    0.45847E-03        -0.26883E-02         0.00000E+00
    0.42283E-03        -0.27408E-02         0.00000E+00
    0.38292E-03        -0.27908E-02         0.00000E+00
    0.33707E-03        -0.28375E-02         0.00000E+00
    0.28255E-03        -0.28795E-02         0.00000E+00
    0.21480E-03        -0.29154E-02         0.00000E+00
    0.12531E-03        -0.29421E-02         0.00000E+00
    0.00000E+00        -0.29526E-02         0.00000E+00
    0.00000E+00        -0.77253E-05         0.00000E+00
    0.35963E-04        -0.10227E-04         0.00000E+00
    0.63742E-04        -0.16799E-04         0.00000E+00
    0.86271E-04        -0.25937E-04         0.00000E+00
    0.10554E-03        -0.36827E-04         0.00000E+00
    0.12272E-03        -0.49052E-04         0.00000E+00
    0.13851E-03        -0.62302E-04         0.00000E+00
    0.15335E-03        -0.76330E-04         0.00000E+00
    0.16753E-03        -0.90943E-04         0.00000E+00
    0.18119E-03        -0.10599E-03         0.00000E+00
    0.19445E-03        -0.12137E-03         0.00000E+00
    0.20736E-03        -0.13700E-03         0.00000E+00
    0.21995E-03        -0.15283E-03         0.00000E+00
    0.23225E-03        -0.16883E-03         0.00000E+00
    0.24426E-03        -0.18499E-03         0.00000E+00
    0.25601E-03        -0.20129E-03         0.00000E+00
    0.26751E-03        -0.21776E-03         0.00000E+00
    0.27878E-03        -0.23439E-03         0.00000E+00
    0.28985E-03        -0.25120E-03         0.00000E+00
    0.30074E-03        -0.26821E-03         0.00000E+00
    0.31147E-03        -0.28545E-03         0.00000E+00
    0.32206E-03        -0.30293E-03         0.00000E+00
    0.33255E-03        -0.32068E-03         0.00000E+00
    0.34296E-03        -0.33872E-03         0.00000E+00
    0.35331E-03        -0.35706E-03         0.00000E+00
    0.36362E-03        -0.37573E-03         0.00000E+00
    0.37392E-03        -0.39476E-03         0.00000E+00
    0.38423E-03        -0.41415E-03         0.00000E+00
    0.39457E-03        -0.43394E-03         0.00000E+00
    0.40495E-03        -0.45413E-03         0.00000E+00
    0.41538E-03        -0.47476E-03         0.00000E+00
    0.42589E-03        -0.49584E-03         0.00000E+00
    0.43648E-03        -0.51738E-03         0.00000E+00
    0.44716E-03        -0.53941E-03         0.00000E+00
    0.45793E-03        -0.56194E-03         0.00000E+00
    0.46881E-03        -0.58499E-03         0.00000E+00
    0.47981E-03        -0.60858E-03         0.00000E+00
    0.49091E-03        -0.63272E-03         0.00000E+00
    0.50213E-03        -0.65744E-03         0.00000E+00
    0.51346E-03        -0.68274E-03         0.00000E+00
    0.52490E-03        -0.70865E-03         0.00000E+00
    0.53645E-03        -0.73518E-03         0.00000E+00
    0.54811E-03        -0.76235E-03         0.00000E+00
    0.55987E-03        -0.79016E-03         0.00000E+00
    0.57172E-03        -0.81865E-03         0.00000E+00
    0.58366E-03        -0.84782E-03         0.00000E+00
    0.59567E-03        -0.87769E-03         0.00000E+00
    0.60774E-03        -0.90827E-03         0.00000E+00
    0.61986E-03        -0.93957E-03         0.00000E+00
    0.63202E-03        -0.97162E-03         0.00000E+00
    0.64421E-03        -0.10044E-02         0.00000E+00
    0.65639E-03        -0.10380E-02         0.00000E+00
    0.66856E-03        -0.10723E-02         0.00000E+00
    0.68069E-03        -0.11075E-02         0.00000E+00
    0.69277E-03        -0.11434E-02         0.00000E+00
    0.70476E-03        -0.11801E-02         0.00000E+00
    0.71664E-03        -0.12177E-02         0.00000E+00
    0.72838E-03        -0.12561E-02         0.00000E+00
    0.73995E-03        -0.12954E-02         0.00000E+00
    0.75132E-03        -0.13355E-02         0.00000E+00
    0.76244E-03        -0.13765E-02         0.00000E+00
    0.77329E-03        -0.14183E-02         0.00000E+00
    0.78382E-03        -0.14610E-02         0.00000E+00
    0.79398E-03        -0.15046E-02         0.00000E+00
    0.80373E-03        -0.15491E-02         0.00000E+00
    0.81301E-03        -0.15945E-02         0.00000E+00
    0.82177E-03        -0.16408E-02         0.00000E+00
    0.82994E-03        -0.16880E-02         0.00000E+00
    0.83747E-03        -0.17361E-02         0.00000E+00
    0.84428E-03        -0.17851E-02         0.00000E+00
    0.85029E-03        -0.18350E-02         0.00000E+00
    0.85543E-03        -0.18858E-02         0.00000E+00
    0.85961E-03        -0.19376E-02         0.00000E+00
    0.86274E-03        -0.19903E-02         0.00000E+00
    0.86472E-03        -0.20439E-02         0.00000E+00
    0.86545E-03        -0.20984E-02         0.00000E+00
    0.86483E-03        -0.21539E-02         0.00000E+00
    0.86273E-03        -0.22103E-02         0.00000E+00
    0.85905E-03        -0.22677E-02         0.00000E+00
    0.85367E-03        -0.23260E-02         0.00000E+00
    0.84648E-03        -0.23853E-02         0.00000E+00
    0.83734E-03        -0.24455E-02         0.00000E+00
    0.82617E-03        -0.25067E-02         0.00000E+00
    0.81284E-03        -0.25688E-02         0.00000E+00
    0.79727E-03        -0.26318E-02         0.00000E+00
    0.77938E-03        -0.26958E-02         0.00000E+00
    0.75910E-03        -0.27605E-02         0.00000E+00
    0.73637E-03        -0.28261E-02         0.00000E+00
    0.71115E-03        -0.28922E-02         0.00000E+00
    0.68341E-03        -0.29588E-02         0.00000E+00
    0.65308E-03        -0.30256E-02         0.00000E+00
    0.62006E-03        -0.30922E-02         0.00000E+00
    0.58413E-03        -0.31582E-02         0.00000E+00
    0.54491E-03        -0.32230E-02         0.00000E+00
    0.50169E-03        -0.32857E-02         0.00000E+00
    0.45328E-03        -0.33453E-02         0.00000E+00
    0.39771E-03        -0.34007E-02         0.00000E+00
    0.33179E-03        -0.34503E-02         0.00000E+00
    0.25029E-03        -0.34921E-02         0.00000E+00
    0.14415E-03        -0.35222E-02         0.00000E+00
    0.00000E+00        -0.35337E-02         0.00000E+00
    0.00000E+00        -0.11618E-04         0.00000E+00
    0.40559E-04        -0.14319E-04         0.00000E+00
    0.72584E-04        -0.21585E-04         0.00000E+00
    0.98850E-04        -0.31945E-04         0.00000E+00
    0.12141E-03        -0.44455E-04         0.00000E+00
    0.14155E-03        -0.58586E-04         0.00000E+00
    0.16006E-03        -0.73953E-04         0.00000E+00
    0.17746E-03        -0.90254E-04         0.00000E+00
    0.19405E-03        -0.10725E-03         0.00000E+00
    0.21002E-03        -0.12478E-03         0.00000E+00
    0.22550E-03        -0.14268E-03         0.00000E+00
    0.24055E-03        -0.16089E-03         0.00000E+00
    0.25522E-03        -0.17933E-03         0.00000E+00
    0.26952E-03        -0.19797E-03         0.00000E+00
    0.28349E-03        -0.21680E-03         0.00000E+00
    0.29715E-03        -0.23580E-03         0.00000E+00
    0.31051E-03        -0.25498E-03         0.00000E+00
    0.32361E-03        -0.27436E-03         0.00000E+00
    0.33646E-03        -0.29396E-03         0.00000E+00
    0.34910E-03        -0.31380E-03         0.00000E+00
    0.36155E-03        -0.33390E-03         0.00000E+00
    0.37385E-03        -0.35428E-03         0.00000E+00
    0.38602E-03        -0.37498E-03         0.00000E+00
    0.39810E-03        -0.39601E-03         0.00000E+00
    0.41011E-03        -0.41741E-03         0.00000E+00
    0.42208E-03        -0.43919E-03         0.00000E+00
    0.43404E-03        -0.46138E-03         0.00000E+00
    0.44600E-03        -0.48401E-03         0.00000E+00
    0.45800E-03        -0.50710E-03         0.00000E+00
    0.47005E-03        -0.53067E-03         0.00000E+00
    0.48216E-03        -0.55473E-03         0.00000E+00
    0.49435E-03        -0.57933E-03         0.00000E+00
    0.50664E-03        -0.60447E-03         0.00000E+00
    0.51903E-03        -0.63017E-03         0.00000E+00
    0.53154E-03        -0.65647E-03         0.00000E+00
    0.54417E-03        -0.68337E-03         0.00000E+00
    0.55693E-03        -0.71090E-03         0.00000E+00
    0.56982E-03        -0.73908E-03         0.00000E+00
    0.58284E-03        -0.76792E-03         0.00000E+00
    0.59599E-03        -0.79745E-03         0.00000E+00
    0.60927E-03        -0.82769E-03         0.00000E+00
    0.62268E-03        -0.85864E-03         0.00000E+00
    0.63621E-03        -0.89035E-03         0.00000E+00
    0.64985E-03        -0.92281E-03         0.00000E+00
    0.66361E-03        -0.95605E-03         0.00000E+00
    0.67746E-03        -0.99009E-03         0.00000E+00
    0.69140E-03        -0.10249E-02         0.00000E+00
    0.70541E-03        -0.10606E-02         0.00000E+00
    0.71948E-03        -0.10971E-02         0.00000E+00
    0.73359E-03        -0.11345E-02         0.00000E+00
    0.74773E-03        -0.11728E-02         0.00000E+00
    0.76187E-03        -0.12120E-02         0.00000E+00
    0.77599E-03        -0.12520E-02         0.00000E+00
    0.79007E-03        -0.12930E-02         0.00000E+00
    0.80408E-03        -0.13349E-02         0.00000E+00
    0.81799E-03        -0.13778E-02         0.00000E+00
    0.83178E-03        -0.14216E-02         0.00000E+00
    0.84540E-03        -0.14664E-02         0.00000E+00
    0.85883E-03        -0.15122E-02         0.00000E+00
    0.87202E-03        -0.15590E-02         0.00000E+00
    0.88493E-03        -0.16068E-02         0.00000E+00
    0.89752E-03        -0.16555E-02         0.00000E+00
    0.90974E-03        -0.17053E-02         0.00000E+00
    0.92153E-03        -0.17562E-02         0.00000E+00
    0.93284E-03        -0.18080E-02         0.00000E+00
    0.94361E-03        -0.18610E-02         0.00000E+00
    0.95377E-03        -0.19149E-02         0.00000E+00
    0.96325E-03        -0.19699E-02         0.00000E+00
    0.97198E-03        -0.20260E-02         0.00000E+00
    0.97988E-03        -0.20831E-02         0.00000E+00
    0.98685E-03        -0.21412E-02         0.00000E+00
    0.99281E-03        -0.22005E-02         0.00000E+00
    0.99766E-03        -0.22608E-02         0.00000E+00
    0.10013E-02        -0.23222E-02         0.00000E+00
    0.10036E-02        -0.23846E-02         0.00000E+00
    0.10044E-02        -0.24481E-02         0.00000E+00
    0.10037E-02        -0.25127E-02         0.00000E+00
    0.10013E-02        -0.25784E-02         0.00000E+00
    0.99700E-03        -0.26452E-02         0.00000E+00
    0.99075E-03        -0.27131E-02         0.00000E+00
    0.98239E-03        -0.27821E-02         0.00000E+00
    0.97178E-03        -0.28522E-02         0.00000E+00
    0.95879E-03        -0.29234E-02         0.00000E+00
    0.94330E-03        -0.29957E-02         0.00000E+00
    0.92518E-03        -0.30691E-02         0.00000E+00
    0.90435E-03        -0.31435E-02         0.00000E+00
    0.88071E-03        -0.32188E-02         0.00000E+00
    0.85421E-03        -0.32951E-02         0.00000E+00
    0.82476E-03        -0.33720E-02         0.00000E+00
    0.79232E-03        -0.34495E-02         0.00000E+00
    0.75681E-03        -0.35272E-02         0.00000E+00
    0.71808E-03        -0.36047E-02         0.00000E+00
    0.67587E-03        -0.36814E-02         0.00000E+00
    0.62972E-03        -0.37567E-02         0.00000E+00
    0.57881E-03        -0.38295E-02         0.00000E+00
    0.52177E-03        -0.38986E-02         0.00000E+00
    0.45636E-03        -0.39625E-02         0.00000E+00
    0.37900E-03        -0.40194E-02         0.00000E+00
    0.28392E-03        -0.40667E-02         0.00000E+00
    0.16178E-03        -0.41000E-02         0.00000E+00
    0.00000E+00        -0.41124E-02         0.00000E+00
    0.00000E+00        -0.16093E-04         0.00000E+00
    0.44928E-04        -0.18985E-04         0.00000E+00
    0.81055E-04        -0.26903E-04         0.00000E+00
    0.11101E-03        -0.38426E-04         0.00000E+00
    0.13685E-03        -0.52508E-04         0.00000E+00
    0.15996E-03        -0.68511E-04         0.00000E+00
    0.18121E-03        -0.85970E-04         0.00000E+00
    0.20117E-03        -0.10453E-03         0.00000E+00
    0.22018E-03        -0.12390E-03         0.00000E+00
    0.23847E-03        -0.14388E-03         0.00000E+00
    0.25617E-03        -0.16430E-03         0.00000E+00
    0.27336E-03        -0.18508E-03         0.00000E+00
    0.29009E-03        -0.20612E-03         0.00000E+00
    0.30640E-03        -0.22739E-03         0.00000E+00
    0.32231E-03        -0.24888E-03         0.00000E+00
    0.33786E-03        -0.27057E-03         0.00000E+00
    0.35307E-03        -0.29247E-03         0.00000E+00
    0.36796E-03        -0.31460E-03         0.00000E+00
    0.38258E-03        -0.33697E-03         0.00000E+00
    0.39695E-03        -0.35963E-03         0.00000E+00
    0.41111E-03        -0.38258E-03         0.00000E+00
    0.42509E-03        -0.40587E-03         0.00000E+00
    0.43893E-03        -0.42951E-03         0.00000E+00
    0.45267E-03        -0.45354E-03         0.00000E+00
    0.46632E-03        -0.47799E-03         0.00000E+00
    0.47993E-03        -0.50288E-03         0.00000E+00
    0.49352E-03        -0.52824E-03         0.00000E+00
    0.50713E-03        -0.55410E-03         0.00000E+00
    0.52077E-03        -0.58049E-03         0.00000E+00
    0.53446E-03        -0.60743E-03         0.00000E+00
    0.54823E-03        -0.63494E-03         0.00000E+00
    0.56209E-03        -0.66306E-03         0.00000E+00
    0.57606E-03        -0.69179E-03         0.00000E+00
    0.59015E-03        -0.72118E-03         0.00000E+00
    0.60438E-03        -0.75124E-03         0.00000E+00
    0.61873E-03        -0.78199E-03         0.00000E+00
    0.63324E-03        -0.81346E-03         0.00000E+00
    0.64789E-03        -0.84568E-03         0.00000E+00
    0.66269E-03        -0.87865E-03         0.00000E+00
    0.67764E-03        -0.91241E-03         0.00000E+00
    0.69274E-03        -0.94697E-03         0.00000E+00
    0.70798E-03        -0.98237E-03         0.00000E+00
    0.72337E-03        -0.10186E-02         0.00000E+00
    0.73888E-03        -0.10557E-02         0.00000E+00
    0.75452E-03        -0.10937E-02         0.00000E+00
    0.77026E-03        -0.11326E-02         0.00000E+00
    0.78611E-03        -0.11725E-02         0.00000E+00
    0.80204E-03        -0.12132E-02         0.00000E+00
    0.81803E-03        -0.12550E-02         0.00000E+00
    0.83408E-03        -0.12977E-02         0.00000E+00
    0.85015E-03        -0.13414E-02         0.00000E+00
    0.86622E-03        -0.13862E-02         0.00000E+00
    0.88228E-03        -0.14320E-02         0.00000E+00
    0.89828E-03        -0.14788E-02         0.00000E+00
    0.91421E-03        -0.15267E-02         0.00000E+00
    0.93003E-03        -0.15757E-02         0.00000E+00
    0.94570E-03        -0.16258E-02         0.00000E+00
    0.96119E-03        -0.16770E-02         0.00000E+00
    0.97645E-03        -0.17293E-02         0.00000E+00
    0.99144E-03        -0.17827E-02         0.00000E+00
    0.10061E-02        -0.18373E-02         0.00000E+00
    0.10204E-02        -0.18930E-02         0.00000E+00
    0.10343E-02        -0.19499E-02         0.00000E+00
    0.10477E-02        -0.20080E-02         0.00000E+00
    0.10606E-02        -0.20672E-02         0.00000E+00
    0.10728E-02        -0.21276E-02         0.00000E+00
    0.10844E-02        -0.21892E-02         0.00000E+00
    0.10951E-02        -0.22520E-02         0.00000E+00
    0.11051E-02        -0.23160E-02         0.00000E+00
    0.11140E-02        -0.23812E-02         0.00000E+00
    0.11220E-02        -0.24476E-02         0.00000E+00
    0.11287E-02        -0.25152E-02         0.00000E+00
    0.11343E-02        -0.25841E-02         0.00000E+00
    0.11384E-02        -0.26541E-02         0.00000E+00
    0.11410E-02        -0.27254E-02         0.00000E+00
    0.11420E-02        -0.27978E-02         0.00000E+00
    0.11411E-02        -0.28715E-02         0.00000E+00
    0.11384E-02        -0.29465E-02         0.00000E+00
    0.11335E-02        -0.30227E-02         0.00000E+00
    0.11264E-02        -0.31001E-02         0.00000E+00
    0.11169E-02        -0.31788E-02         0.00000E+00
    0.11048E-02        -0.32587E-02         0.00000E+00
    0.10900E-02        -0.33399E-02         0.00000E+00
    0.10724E-02        -0.34223E-02         0.00000E+00
    0.10517E-02        -0.35059E-02         0.00000E+00
    0.10280E-02        -0.35907E-02         0.00000E+00
    0.10010E-02        -0.36766E-02         0.00000E+00
    0.97073E-03        -0.37635E-02         0.00000E+00
    0.93705E-03        -0.38512E-02         0.00000E+00
    0.89990E-03        -0.39395E-02         0.00000E+00
    0.85917E-03        -0.40280E-02         0.00000E+00
    0.81468E-03        -0.41163E-02         0.00000E+00
    0.76612E-03        -0.42037E-02         0.00000E+00
    0.71296E-03        -0.42894E-02         0.00000E+00
    0.65425E-03        -0.43721E-02         0.00000E+00
    0.58848E-03        -0.44506E-02         0.00000E+00
    0.51315E-03        -0.45229E-02         0.00000E+00
    0.42435E-03        -0.45869E-02         0.00000E+00
    0.31589E-03        -0.46395E-02         0.00000E+00
    0.17840E-03        -0.46757E-02         0.00000E+00
    0.00000E+00        -0.46889E-02         0.00000E+00
    0.00000E+00        -0.21116E-04         0.00000E+00
    0.49101E-04        -0.24191E-04         0.00000E+00
    0.89197E-04        -0.32733E-04         0.00000E+00
    0.12277E-03        -0.45371E-04         0.00000E+00
    0.15188E-03        -0.60984E-04         0.00000E+00
    0.17797E-03        -0.78825E-04         0.00000E+00
    0.20198E-03        -0.98353E-04         0.00000E+00
    0.22451E-03        -0.11914E-03         0.00000E+00
    0.24595E-03        -0.14087E-03         0.00000E+00
    0.26656E-03        -0.16329E-03         0.00000E+00
    0.28647E-03        -0.18623E-03         0.00000E+00
    0.30579E-03        -0.20956E-03         0.00000E+00
    0.32458E-03        -0.23319E-03         0.00000E+00
    0.34288E-03        -0.25709E-03         0.00000E+00
    0.36072E-03        -0.28123E-03         0.00000E+00
    0.37815E-03        -0.30560E-03         0.00000E+00
    0.39518E-03        -0.33021E-03         0.00000E+00
    0.41186E-03        -0.35508E-03         0.00000E+00
    0.42823E-03        -0.38023E-03         0.00000E+00
    0.44431E-03        -0.40570E-03         0.00000E+00
    0.46016E-03        -0.43150E-03         0.00000E+00
    0.47581E-03        -0.45769E-03         0.00000E+00
    0.49129E-03        -0.48427E-03         0.00000E+00
    0.50666E-03        -0.51130E-03         0.00000E+00
    0.52194E-03        -0.53880E-03         0.00000E+00
    0.53717E-03        -0.56680E-03         0.00000E+00
    0.55238E-03        -0.59533E-03         0.00000E+00
    0.56760E-03        -0.62442E-03         0.00000E+00
    0.58286E-03        -0.65411E-03         0.00000E+00
    0.59819E-03        -0.68442E-03         0.00000E+00
    0.61360E-03        -0.71538E-03         0.00000E+00
    0.62911E-03        -0.74701E-03         0.00000E+00
    0.64474E-03        -0.77935E-03         0.00000E+00
    0.66051E-03        -0.81242E-03         0.00000E+00
    0.67643E-03        -0.84625E-03         0.00000E+00
    0.69250E-03        -0.88086E-03         0.00000E+00
    0.70873E-03        -0.91627E-03         0.00000E+00
    0.72512E-03        -0.95252E-03         0.00000E+00
    0.74169E-03        -0.98963E-03         0.00000E+00
    0.75842E-03        -0.10276E-02         0.00000E+00
    0.77532E-03        -0.10665E-02         0.00000E+00
    0.79238E-03        -0.11063E-02         0.00000E+00
    0.80959E-03        -0.11471E-02         0.00000E+00
    0.82695E-03        -0.11889E-02         0.00000E+00
    0.84445E-03        -0.12316E-02         0.00000E+00
    0.86207E-03        -0.12754E-02         0.00000E+00
    0.87980E-03        -0.13202E-02         0.00000E+00
    0.89763E-03        -0.13661E-02         0.00000E+00
    0.91553E-03        -0.14131E-02         0.00000E+00
    0.93349E-03        -0.14612E-02         0.00000E+00
    0.95147E-03        -0.15104E-02         0.00000E+00
    0.96946E-03        -0.15607E-02         0.00000E+00
    0.98742E-03        -0.16122E-02         0.00000E+00
    0.10053E-02        -0.16649E-02         0.00000E+00
    0.10232E-02        -0.17188E-02         0.00000E+00
    0.10409E-02        -0.17739E-02         0.00000E+00
    0.10584E-02        -0.18302E-02         0.00000E+00
    0.10757E-02        -0.18878E-02         0.00000E+00
    0.10928E-02        -0.19466E-02         0.00000E+00
    0.11096E-02        -0.20067E-02         0.00000E+00
    0.11260E-02        -0.20680E-02         0.00000E+00
    0.11420E-02        -0.21307E-02         0.00000E+00
    0.11576E-02        -0.21947E-02         0.00000E+00
    0.11726E-02        -0.22599E-02         0.00000E+00
    0.11869E-02        -0.23265E-02         0.00000E+00
    0.12006E-02        -0.23945E-02         0.00000E+00
    0.12136E-02        -0.24637E-02         0.00000E+00
    0.12256E-02        -0.25343E-02         0.00000E+00
    0.12367E-02        -0.26062E-02         0.00000E+00
    0.12468E-02        -0.26795E-02         0.00000E+00
    0.12557E-02        -0.27541E-02         0.00000E+00
    0.12632E-02        -0.28301E-02         0.00000E+00
    0.12694E-02        -0.29074E-02         0.00000E+00
    0.12740E-02        -0.29861E-02         0.00000E+00
    0.12770E-02        -0.30661E-02         0.00000E+00
    0.12780E-02        -0.31475E-02         0.00000E+00
    0.12771E-02        -0.32303E-02         0.00000E+00
    0.12740E-02        -0.33145E-02         0.00000E+00
    0.12686E-02        -0.34000E-02         0.00000E+00
    0.12606E-02        -0.34869E-02         0.00000E+00
    0.12500E-02        -0.35752E-02         0.00000E+00
    0.12365E-02        -0.36649E-02         0.00000E+00
    0.12199E-02        -0.37560E-02         0.00000E+00
    0.12001E-02        -0.38485E-02         0.00000E+00
    0.11770E-02        -0.39423E-02         0.00000E+00
    0.11503E-02        -0.40375E-02         0.00000E+00
    0.11200E-02        -0.41338E-02         0.00000E+00
    0.10860E-02        -0.42313E-02         0.00000E+00
    0.10481E-02        -0.43297E-02         0.00000E+00
    0.10062E-02        -0.44288E-02         0.00000E+00
    0.96021E-03        -0.45281E-02         0.00000E+00
    0.90991E-03        -0.46271E-02         0.00000E+00
    0.85494E-03        -0.47251E-02         0.00000E+00
    0.79467E-03        -0.48210E-02         0.00000E+00
    0.72809E-03        -0.49137E-02         0.00000E+00
    0.65349E-03        -0.50013E-02         0.00000E+00
    0.56819E-03        -0.50819E-02         0.00000E+00
    0.46798E-03        -0.51528E-02         0.00000E+00
    0.34639E-03        -0.52104E-02         0.00000E+00
    0.19414E-03        -0.52494E-02         0.00000E+00
    0.00000E+00        -0.52634E-02         0.00000E+00
    0.00000E+00        -0.26653E-04         0.00000E+00
    0.53104E-04        -0.29910E-04         0.00000E+00
    0.97042E-04        -0.39055E-04         0.00000E+00
    0.13418E-03        -0.52771E-04         0.00000E+00
    0.16654E-03        -0.69877E-04         0.00000E+00
    0.19560E-03        -0.89529E-04         0.00000E+00
    0.22236E-03        -0.11110E-03         0.00000E+00
    0.24747E-03        -0.13411E-03         0.00000E+00
    0.27135E-03        -0.15818E-03         0.00000E+00
    0.29428E-03        -0.18303E-03         0.00000E+00
    0.31641E-03        -0.20846E-03         0.00000E+00
    0.33786E-03        -0.23433E-03         0.00000E+00
    0.35869E-03        -0.26055E-03         0.00000E+00
    0.37897E-03        -0.28707E-03         0.00000E+00
    0.39873E-03        -0.31385E-03         0.00000E+00
    0.41801E-03        -0.34089E-03         0.00000E+00
    0.43685E-03        -0.36820E-03         0.00000E+00
    0.45530E-03        -0.39581E-03         0.00000E+00
    0.47339E-03        -0.42373E-03         0.00000E+00
    0.49117E-03        -0.45200E-03         0.00000E+00
    0.50869E-03        -0.48066E-03         0.00000E+00
    0.52598E-03        -0.50973E-03         0.00000E+00
    0.54310E-03        -0.53926E-03         0.00000E+00
    0.56008E-03        -0.56928E-03         0.00000E+00
    0.57696E-03        -0.59983E-03         0.00000E+00
    0.59379E-03        -0.63094E-03         0.00000E+00
    0.61060E-03        -0.66264E-03         0.00000E+00
    0.62743E-03        -0.69497E-03         0.00000E+00
    0.64429E-03        -0.72796E-03         0.00000E+00
    0.66123E-03        -0.76164E-03         0.00000E+00
    0.67826E-03        -0.79604E-03         0.00000E+00
    0.69540E-03        -0.83120E-03         0.00000E+00
    0.71268E-03        -0.86714E-03         0.00000E+00
    0.73011E-03        -0.90389E-03         0.00000E+00
    0.74770E-03        -0.94149E-03         0.00000E+00
    0.76546E-03        -0.97995E-03         0.00000E+00
    0.78340E-03        -0.10193E-02         0.00000E+00
    0.80152E-03        -0.10596E-02         0.00000E+00
    0.81983E-03        -0.11008E-02         0.00000E+00
    0.83832E-03        -0.11431E-02         0.00000E+00
    0.85700E-03        -0.11863E-02         0.00000E+00
    0.87585E-03        -0.12306E-02         0.00000E+00
    0.89488E-03        -0.12759E-02         0.00000E+00
    0.91407E-03        -0.13223E-02         0.00000E+00
    0.93341E-03        -0.13698E-02         0.00000E+00
    0.95288E-03        -0.14185E-02         0.00000E+00
    0.97248E-03        -0.14683E-02         0.00000E+00
    0.99219E-03        -0.15193E-02         0.00000E+00
    0.10120E-02        -0.15714E-02         0.00000E+00
    0.10318E-02        -0.16249E-02         0.00000E+00
    0.10517E-02        -0.16795E-02         0.00000E+00
    0.10716E-02        -0.17355E-02         0.00000E+00
    0.10914E-02        -0.17927E-02         0.00000E+00
    0.11112E-02        -0.18512E-02         0.00000E+00
    0.11309E-02        -0.19111E-02         0.00000E+00
    0.11505E-02        -0.19723E-02         0.00000E+00
    0.11699E-02        -0.20349E-02         0.00000E+00
    0.11890E-02        -0.20988E-02         0.00000E+00
    0.12079E-02        -0.21641E-02         0.00000E+00
    0.12265E-02        -0.22309E-02         0.00000E+00
    0.12446E-02        -0.22990E-02         0.00000E+00
    0.12623E-02        -0.23686E-02         0.00000E+00
    0.12795E-02        -0.24397E-02         0.00000E+00
    0.12961E-02        -0.25121E-02         0.00000E+00
    0.13120E-02        -0.25861E-02         0.00000E+00
    0.13271E-02        -0.26615E-02         0.00000E+00
    0.13414E-02        -0.27384E-02         0.00000E+00
    0.13547E-02        -0.28167E-02         0.00000E+00
    0.13670E-02        -0.28966E-02         0.00000E+00
    0.13781E-02        -0.29779E-02         0.00000E+00
    0.13879E-02        -0.30607E-02         0.00000E+00
    0.13963E-02        -0.31450E-02         0.00000E+00
    0.14031E-02        -0.32308E-02         0.00000E+00
    0.14082E-02        -0.33181E-02         0.00000E+00
    0.14115E-02        -0.34069E-02         0.00000E+00
    0.14127E-02        -0.34972E-02         0.00000E+00
    0.14117E-02        -0.35890E-02         0.00000E+00
    0.14083E-02        -0.36823E-02         0.00000E+00
    0.14023E-02        -0.37772E-02         0.00000E+00
    0.13935E-02        -0.38736E-02         0.00000E+00
    0.13817E-02        -0.39715E-02         0.00000E+00
    0.13668E-02        -0.40709E-02         0.00000E+00
    0.13485E-02        -0.41719E-02         0.00000E+00
    0.13266E-02        -0.42744E-02         0.00000E+00
    0.13009E-02        -0.43783E-02         0.00000E+00
    0.12714E-02        -0.44838E-02         0.00000E+00
    0.12378E-02        -0.45906E-02         0.00000E+00
    0.12000E-02        -0.46986E-02         0.00000E+00
    0.11578E-02        -0.48076E-02         0.00000E+00
    0.11112E-02        -0.49173E-02         0.00000E+00
    0.10600E-02        -0.50273E-02         0.00000E+00
    0.10038E-02        -0.51370E-02         0.00000E+00
    0.94237E-03        -0.52455E-02         0.00000E+00
    0.87494E-03        -0.53517E-02         0.00000E+00
    0.80039E-03        -0.54541E-02         0.00000E+00
    0.71690E-03        -0.55508E-02         0.00000E+00
    0.62159E-03        -0.56395E-02         0.00000E+00
    0.51004E-03        -0.57170E-02         0.00000E+00
    0.37559E-03        -0.57795E-02         0.00000E+00
    0.20912E-03        -0.58212E-02         0.00000E+00
    0.00000E+00        -0.58361E-02         0.00000E+00
    0.00000E+00        -0.32677E-04         0.00000E+00
    0.56957E-04        -0.36115E-04         0.00000E+00
    0.10462E-03        -0.45852E-04         0.00000E+00
    0.14525E-03        -0.60617E-04         0.00000E+00
    0.18083E-03        -0.79184E-04         0.00000E+00
    0.21286E-03        -0.10062E-03         0.00000E+00
    0.24238E-03        -0.12421E-03         0.00000E+00
    0.27008E-03        -0.14942E-03         0.00000E+00
    0.29640E-03        -0.17581E-03         0.00000E+00
    0.32165E-03        -0.20308E-03         0.00000E+00
    0.34599E-03        -0.23100E-03         0.00000E+00
    0.36956E-03        -0.25940E-03         0.00000E+00
    0.39243E-03        -0.28820E-03         0.00000E+00
    0.41467E-03        -0.31732E-03         0.00000E+00
    0.43633E-03        -0.34673E-03         0.00000E+00
    0.45746E-03        -0.37644E-03         0.00000E+00
    0.47809E-03        -0.40645E-03         0.00000E+00
    0.49828E-03        -0.43678E-03         0.00000E+00
    0.51808E-03        -0.46747E-03         0.00000E+00
    0.53754E-03        -0.49854E-03         0.00000E+00
    0.55671E-03        -0.53005E-03         0.00000E+00
    0.57562E-03        -0.56201E-03         0.00000E+00
    0.59435E-03        -0.59448E-03         0.00000E+00
    0.61292E-03        -0.62749E-03         0.00000E+00
    0.63140E-03        -0.66108E-03         0.00000E+00
    0.64981E-03        -0.69530E-03         0.00000E+00
    0.66820E-03        -0.73017E-03         0.00000E+00
    0.68660E-03        -0.76573E-03         0.00000E+00
    0.70505E-03        -0.80202E-03         0.00000E+00
    0.72358E-03        -0.83907E-03         0.00000E+00
    0.74221E-03        -0.87693E-03         0.00000E+00
    0.76097E-03        -0.91561E-03         0.00000E+00
    0.77988E-03        -0.95515E-03         0.00000E+00
    0.79895E-03        -0.99559E-03         0.00000E+00
    0.81819E-03        -0.10370E-02         0.00000E+00
    0.83762E-03        -0.10793E-02         0.00000E+00
    0.85725E-03        -0.11226E-02         0.00000E+00
    0.87708E-03        -0.11669E-02         0.00000E+00
    0.89711E-03        -0.12123E-02         0.00000E+00
    0.91734E-03        -0.12588E-02         0.00000E+00
    0.93778E-03        -0.13063E-02         0.00000E+00
    0.95841E-03        -0.13550E-02         0.00000E+00
    0.97923E-03        -0.14049E-02         0.00000E+00
    0.10002E-02        -0.14560E-02         0.00000E+00
    0.10214E-02        -0.15082E-02         0.00000E+00
    0.10427E-02        -0.15618E-02         0.00000E+00
    0.10641E-02        -0.16165E-02         0.00000E+00
    0.10857E-02        -0.16726E-02         0.00000E+00
    0.11074E-02        -0.17301E-02         0.00000E+00
    0.11291E-02        -0.17888E-02         0.00000E+00
    0.11508E-02        -0.18490E-02         0.00000E+00
    0.11726E-02        -0.19105E-02         0.00000E+00
    0.11943E-02        -0.19734E-02         0.00000E+00
    0.12160E-02        -0.20378E-02         0.00000E+00
    0.12375E-02        -0.21036E-02         0.00000E+00
    0.12589E-02        -0.21710E-02         0.00000E+00
    0.12801E-02        -0.22398E-02         0.00000E+00
    0.13011E-02        -0.23101E-02         0.00000E+00
    0.13217E-02        -0.23819E-02         0.00000E+00
    0.13420E-02        -0.24553E-02         0.00000E+00
    0.13619E-02        -0.25303E-02         0.00000E+00
    0.13813E-02        -0.26068E-02         0.00000E+00
    0.14001E-02        -0.26849E-02         0.00000E+00
    0.14182E-02        -0.27645E-02         0.00000E+00
    0.14356E-02        -0.28458E-02         0.00000E+00
    0.14522E-02        -0.29287E-02         0.00000E+00
    0.14678E-02        -0.30132E-02         0.00000E+00
    0.14824E-02        -0.30993E-02         0.00000E+00
    0.14958E-02        -0.31871E-02         0.00000E+00
    0.15080E-02        -0.32764E-02         0.00000E+00
    0.15187E-02        -0.33674E-02         0.00000E+00
    0.15279E-02        -0.34600E-02         0.00000E+00
    0.15354E-02        -0.35543E-02         0.00000E+00
    0.15410E-02        -0.36502E-02         0.00000E+00
    0.15446E-02        -0.37477E-02         0.00000E+00
    0.15459E-02        -0.38469E-02         0.00000E+00
    0.15448E-02        -0.39477E-02         0.00000E+00
    0.15411E-02        -0.40502E-02         0.00000E+00
    0.15346E-02        -0.41543E-02         0.00000E+00
    0.15250E-02        -0.42601E-02         0.00000E+00
    0.15121E-02        -0.43675E-02         0.00000E+00
    0.14957E-02        -0.44766E-02         0.00000E+00
    0.14757E-02        -0.45874E-02         0.00000E+00
    0.14517E-02        -0.46999E-02         0.00000E+00
    0.14236E-02        -0.48140E-02         0.00000E+00
    0.13912E-02        -0.49296E-02         0.00000E+00
    0.13543E-02        -0.50468E-02         0.00000E+00
    0.13127E-02        -0.51652E-02         0.00000E+00
    0.12664E-02        -0.52848E-02         0.00000E+00
    0.12150E-02        -0.54052E-02         0.00000E+00
    0.11585E-02        -0.55258E-02         0.00000E+00
    0.10964E-02        -0.56460E-02         0.00000E+00
    0.10285E-02        -0.57649E-02         0.00000E+00
    0.95381E-03        -0.58812E-02         0.00000E+00
    0.87123E-03        -0.59933E-02         0.00000E+00
    0.77880E-03        -0.60990E-02         0.00000E+00
    0.67347E-03        -0.61957E-02         0.00000E+00
    0.55065E-03        -0.62798E-02         0.00000E+00
    0.40361E-03        -0.63469E-02         0.00000E+00
    0.22343E-03        -0.63913E-02         0.00000E+00
    0.00000E+00        -0.64070E-02         0.00000E+00
    0.00000E+00        -0.39163E-04         0.00000E+00
    0.60675E-04        -0.42783E-04         0.00000E+00
    0.11196E-03        -0.53103E-04         0.00000E+00
    0.15601E-03        -0.68896E-04         0.00000E+00
    0.19478E-03        -0.88898E-04         0.00000E+00
    0.22977E-03        -0.11209E-03         0.00000E+00
    0.26205E-03        -0.13769E-03         0.00000E+00
    0.29234E-03        -0.16507E-03         0.00000E+00
    0.32111E-03        -0.19378E-03         0.00000E+00
    0.34867E-03        -0.22345E-03         0.00000E+00
    0.37522E-03        -0.25384E-03         0.00000E+00
    0.40090E-03        -0.28477E-03         0.00000E+00
    0.42580E-03        -0.31612E-03         0.00000E+00
    0.44999E-03        -0.34784E-03         0.00000E+00
    0.47354E-03        -0.37988E-03         0.00000E+00
    0.49648E-03        -0.41224E-03         0.00000E+00
    0.51889E-03        -0.44494E-03         0.00000E+00
    0.54081E-03        -0.47800E-03         0.00000E+00
    0.56230E-03        -0.51144E-03         0.00000E+00
    0.58342E-03        -0.54532E-03         0.00000E+00
    0.60421E-03        -0.57966E-03         0.00000E+00
    0.62473E-03        -0.61451E-03         0.00000E+00
    0.64505E-03        -0.64991E-03         0.00000E+00
    0.66520E-03        -0.68592E-03         0.00000E+00
    0.68524E-03        -0.72255E-03         0.00000E+00
    0.70521E-03        -0.75987E-03         0.00000E+00
    0.72516E-03        -0.79791E-03         0.00000E+00
    0.74513E-03        -0.83671E-03         0.00000E+00
    0.76514E-03        -0.87630E-03         0.00000E+00
    0.78525E-03        -0.91673E-03         0.00000E+00
    0.80546E-03        -0.95803E-03         0.00000E+00
    0.82581E-03        -0.10002E-02         0.00000E+00
    0.84633E-03        -0.10434E-02         0.00000E+00
    0.86702E-03        -0.10875E-02         0.00000E+00
    0.88790E-03        -0.11327E-02         0.00000E+00
    0.90898E-03        -0.11788E-02         0.00000E+00
    0.93028E-03        -0.12261E-02         0.00000E+00
    0.95179E-03        -0.12745E-02         0.00000E+00
    0.97353E-03        -0.13240E-02         0.00000E+00
    0.99549E-03        -0.13747E-02         0.00000E+00
    0.10177E-02        -0.14266E-02         0.00000E+00
    0.10400E-02        -0.14797E-02         0.00000E+00
    0.10626E-02        -0.15341E-02         0.00000E+00
    0.10854E-02        -0.15899E-02         0.00000E+00
    0.11084E-02        -0.16469E-02         0.00000E+00
    0.11315E-02        -0.17053E-02         0.00000E+00
    0.11548E-02        -0.17651E-02         0.00000E+00
    0.11782E-02        -0.18263E-02         0.00000E+00
    0.12017E-02        -0.18889E-02         0.00000E+00
    0.12252E-02        -0.19530E-02         0.00000E+00
    0.12488E-02        -0.20186E-02         0.00000E+00
    0.12724E-02        -0.20858E-02         0.00000E+00
    0.12960E-02        -0.21544E-02         0.00000E+00
    0.13195E-02        -0.22246E-02         0.00000E+00
    0.13429E-02        -0.22964E-02         0.00000E+00
    0.13662E-02        -0.23699E-02         0.00000E+00
    0.13892E-02        -0.24449E-02         0.00000E+00
    0.14119E-02        -0.25216E-02         0.00000E+00
    0.14343E-02        -0.26000E-02         0.00000E+00
    0.14564E-02        -0.26800E-02         0.00000E+00
    0.14779E-02        -0.27617E-02         0.00000E+00
    0.14989E-02        -0.28451E-02         0.00000E+00
    0.15193E-02        -0.29303E-02         0.00000E+00
    0.15390E-02        -0.30171E-02         0.00000E+00
    0.15579E-02        -0.31058E-02         0.00000E+00
    0.15759E-02        -0.31961E-02         0.00000E+00
    0.15929E-02        -0.32882E-02         0.00000E+00
    0.16087E-02        -0.33821E-02         0.00000E+00
    0.16233E-02        -0.34777E-02         0.00000E+00
    0.16365E-02        -0.35751E-02         0.00000E+00
    0.16482E-02        -0.36742E-02         0.00000E+00
    0.16582E-02        -0.37751E-02         0.00000E+00
    0.16663E-02        -0.38778E-02         0.00000E+00
    0.16724E-02        -0.39823E-02         0.00000E+00
    0.16763E-02        -0.40885E-02         0.00000E+00
    0.16777E-02        -0.41965E-02         0.00000E+00
    0.16766E-02        -0.43063E-02         0.00000E+00
    0.16726E-02        -0.44179E-02         0.00000E+00
    0.16655E-02        -0.45312E-02         0.00000E+00
    0.16551E-02        -0.46464E-02         0.00000E+00
    0.16411E-02        -0.47634E-02         0.00000E+00
    0.16234E-02        -0.48821E-02         0.00000E+00
    0.16016E-02        -0.50027E-02         0.00000E+00
    0.15756E-02        -0.51251E-02         0.00000E+00
    0.15450E-02        -0.52492E-02         0.00000E+00
    0.15098E-02        -0.53750E-02         0.00000E+00
    0.14696E-02        -0.55025E-02         0.00000E+00
    0.14243E-02        -0.56313E-02         0.00000E+00
    0.13737E-02        -0.57614E-02         0.00000E+00
    0.13176E-02        -0.58923E-02         0.00000E+00
    0.12558E-02        -0.60235E-02         0.00000E+00
    0.11878E-02        -0.61542E-02         0.00000E+00
    0.11133E-02        -0.62834E-02         0.00000E+00
    0.10314E-02        -0.64098E-02         0.00000E+00
    0.94069E-03        -0.65314E-02         0.00000E+00
    0.83927E-03        -0.66460E-02         0.00000E+00
    0.72393E-03        -0.67505E-02         0.00000E+00
    0.58996E-03        -0.68410E-02         0.00000E+00
    0.43060E-03        -0.69127E-02         0.00000E+00
    0.23717E-03        -0.69597E-02         0.00000E+00
    0.00000E+00        -0.69762E-02         0.00000E+00
    0.00000E+00        -0.46088E-04         0.00000E+00
    0.64274E-04        -0.49891E-04         0.00000E+00
    0.11908E-03        -0.60792E-04         0.00000E+00
    0.16649E-03        -0.77597E-04         0.00000E+00
    0.20842E-03        -0.99013E-04         0.00000E+00
    0.24636E-03        -0.12395E-03         0.00000E+00
    0.28139E-03        -0.15152E-03         0.00000E+00
    0.31427E-03        -0.18107E-03         0.00000E+00
    0.34548E-03        -0.21207E-03         0.00000E+00
    0.37536E-03        -0.24413E-03         0.00000E+00
    0.40411E-03        -0.27698E-03         0.00000E+00
    0.43189E-03        -0.31042E-03         0.00000E+00
    0.45881E-03        -0.34432E-03         0.00000E+00
    0.48494E-03        -0.37862E-03         0.00000E+00
    0.51035E-03        -0.41329E-03         0.00000E+00
    0.53510E-03        -0.44830E-03         0.00000E+00
    0.55926E-03        -0.48368E-03         0.00000E+00
    0.58289E-03        -0.51945E-03         0.00000E+00
    0.60605E-03        -0.55565E-03         0.00000E+00
    0.62880E-03        -0.59232E-03         0.00000E+00
    0.65120E-03        -0.62949E-03         0.00000E+00
    0.67331E-03        -0.66723E-03         0.00000E+00
    0.69519E-03        -0.70557E-03         0.00000E+00
    0.71690E-03        -0.74456E-03         0.00000E+00
    0.73848E-03        -0.78424E-03         0.00000E+00
    0.76000E-03        -0.82466E-03         0.00000E+00
    0.78149E-03        -0.86587E-03         0.00000E+00
    0.80300E-03        -0.90790E-03         0.00000E+00
    0.82456E-03        -0.95080E-03         0.00000E+00
    0.84622E-03        -0.99460E-03         0.00000E+00
    0.86800E-03        -0.10393E-02         0.00000E+00
    0.88993E-03        -0.10851E-02         0.00000E+00
    0.91203E-03        -0.11318E-02         0.00000E+00
    0.93432E-03        -0.11797E-02         0.00000E+00
    0.95682E-03        -0.12286E-02         0.00000E+00
    0.97954E-03        -0.12786E-02         0.00000E+00
    0.10025E-02        -0.13298E-02         0.00000E+00
    0.10257E-02        -0.13823E-02         0.00000E+00
    0.10491E-02        -0.14359E-02         0.00000E+00
    0.10727E-02        -0.14909E-02         0.00000E+00
    0.10966E-02        -0.15471E-02         0.00000E+00
    0.11208E-02        -0.16047E-02         0.00000E+00
    0.11451E-02        -0.16636E-02         0.00000E+00
    0.11697E-02        -0.17240E-02         0.00000E+00
    0.11944E-02        -0.17858E-02         0.00000E+00
    0.12193E-02        -0.18491E-02         0.00000E+00
    0.12444E-02        -0.19139E-02         0.00000E+00
    0.12696E-02        -0.19802E-02         0.00000E+00
    0.12949E-02        -0.20480E-02         0.00000E+00
    0.13203E-02        -0.21175E-02         0.00000E+00
    0.13458E-02        -0.21886E-02         0.00000E+00
    0.13712E-02        -0.22613E-02         0.00000E+00
    0.13966E-02        -0.23356E-02         0.00000E+00
    0.14219E-02        -0.24117E-02         0.00000E+00
    0.14472E-02        -0.24895E-02         0.00000E+00
    0.14722E-02        -0.25690E-02         0.00000E+00
    0.14970E-02        -0.26503E-02         0.00000E+00
    0.15215E-02        -0.27334E-02         0.00000E+00
    0.15457E-02        -0.28182E-02         0.00000E+00
    0.15694E-02        -0.29049E-02         0.00000E+00
    0.15926E-02        -0.29934E-02         0.00000E+00
    0.16153E-02        -0.30837E-02         0.00000E+00
    0.16373E-02        -0.31759E-02         0.00000E+00
    0.16585E-02        -0.32699E-02         0.00000E+00
    0.16789E-02        -0.33659E-02         0.00000E+00
    0.16983E-02        -0.34637E-02         0.00000E+00
    0.17166E-02        -0.35634E-02         0.00000E+00
    0.17336E-02        -0.36650E-02         0.00000E+00
    0.17494E-02        -0.37685E-02         0.00000E+00
    0.17636E-02        -0.38738E-02         0.00000E+00
    0.17762E-02        -0.39811E-02         0.00000E+00
    0.17870E-02        -0.40903E-02         0.00000E+00
    0.17958E-02        -0.42014E-02         0.00000E+00
    0.18024E-02        -0.43144E-02         0.00000E+00
    0.18066E-02        -0.44293E-02         0.00000E+00
    0.18082E-02        -0.45462E-02         0.00000E+00
    0.18069E-02        -0.46649E-02         0.00000E+00
    0.18027E-02        -0.47855E-02         0.00000E+00
    0.17950E-02        -0.49081E-02         0.00000E+00
    0.17839E-02        -0.50326E-02         0.00000E+00
    0.17689E-02        -0.51590E-02         0.00000E+00
    0.17498E-02        -0.52874E-02         0.00000E+00
    0.17263E-02        -0.54177E-02         0.00000E+00
    0.16982E-02        -0.55499E-02         0.00000E+00
    0.16653E-02        -0.56840E-02         0.00000E+00
    0.16272E-02        -0.58200E-02         0.00000E+00
    0.15838E-02        -0.59576E-02         0.00000E+00
    0.15348E-02        -0.60969E-02         0.00000E+00
    0.14799E-02        -0.62373E-02         0.00000E+00
    0.14191E-02        -0.63787E-02         0.00000E+00
    0.13519E-02        -0.65203E-02         0.00000E+00
    0.12781E-02        -0.66615E-02         0.00000E+00
    0.11969E-02        -0.68010E-02         0.00000E+00
    0.11076E-02        -0.69373E-02         0.00000E+00
    0.10088E-02        -0.70684E-02         0.00000E+00
    0.89841E-03        -0.71917E-02         0.00000E+00
    0.77308E-03        -0.73039E-02         0.00000E+00
    0.62805E-03        -0.74007E-02         0.00000E+00
    0.45664E-03        -0.74770E-02         0.00000E+00
    0.25038E-03        -0.75266E-02         0.00000E+00
    0.00000E+00        -0.75439E-02         0.00000E+00
    0.00000E+00        -0.53432E-04         0.00000E+00
    0.67765E-04        -0.57420E-04         0.00000E+00
    0.12600E-03        -0.68901E-04         0.00000E+00
    0.17671E-03        -0.86710E-04         0.00000E+00
    0.22176E-03        -0.10952E-03         0.00000E+00
    0.26263E-03        -0.13617E-03         0.00000E+00
    0.30042E-03        -0.16572E-03         0.00000E+00
    0.33588E-03        -0.19742E-03         0.00000E+00
    0.36953E-03        -0.23069E-03         0.00000E+00
    0.40172E-03        -0.26513E-03         0.00000E+00
    0.43267E-03        -0.30042E-03         0.00000E+00
    0.46254E-03        -0.33636E-03         0.00000E+00
    0.49146E-03        -0.37280E-03         0.00000E+00
    0.51951E-03        -0.40968E-03         0.00000E+00
    0.54677E-03        -0.44695E-03         0.00000E+00
    0.57331E-03        -0.48460E-03         0.00000E+00
    0.59921E-03        -0.52266E-03         0.00000E+00
    0.62452E-03        -0.56114E-03         0.00000E+00
    0.64933E-03        -0.60009E-03         0.00000E+00
    0.67369E-03        -0.63954E-03         0.00000E+00
    0.69768E-03        -0.67955E-03         0.00000E+00
    0.72135E-03        -0.72017E-03         0.00000E+00
    0.74478E-03        -0.76144E-03         0.00000E+00
    0.76802E-03        -0.80341E-03         0.00000E+00
    0.79114E-03        -0.84614E-03         0.00000E+00
    0.81417E-03        -0.88966E-03         0.00000E+00
    0.83719E-03        -0.93404E-03         0.00000E+00
    0.86022E-03        -0.97930E-03         0.00000E+00
    0.88331E-03        -0.10255E-02         0.00000E+00
    0.90651E-03        -0.10727E-02         0.00000E+00
    0.92983E-03        -0.11209E-02         0.00000E+00
    0.95331E-03        -0.11701E-02         0.00000E+00
    0.97698E-03        -0.12205E-02         0.00000E+00
    0.10009E-02        -0.12720E-02         0.00000E+00
    0.10250E-02        -0.13247E-02         0.00000E+00
    0.10493E-02        -0.13786E-02         0.00000E+00
    0.10739E-02        -0.14338E-02         0.00000E+00
    0.10987E-02        -0.14903E-02         0.00000E+00
    0.11238E-02        -0.15481E-02         0.00000E+00
    0.11491E-02        -0.16072E-02         0.00000E+00
    0.11747E-02        -0.16678E-02         0.00000E+00
    0.12006E-02        -0.17299E-02         0.00000E+00
    0.12266E-02        -0.17934E-02         0.00000E+00
    0.12529E-02        -0.18584E-02         0.00000E+00
    0.12794E-02        -0.19250E-02         0.00000E+00
    0.13061E-02        -0.19931E-02         0.00000E+00
    0.13330E-02        -0.20629E-02         0.00000E+00
    0.13600E-02        -0.21343E-02         0.00000E+00
    0.13871E-02        -0.22074E-02         0.00000E+00
    0.14143E-02        -0.22822E-02         0.00000E+00
    0.14416E-02        -0.23587E-02         0.00000E+00
    0.14688E-02        -0.24370E-02         0.00000E+00
    0.14961E-02        -0.25171E-02         0.00000E+00
    0.15232E-02        -0.25990E-02         0.00000E+00
    0.15502E-02        -0.26828E-02         0.00000E+00
    0.15770E-02        -0.27684E-02         0.00000E+00
    0.16036E-02        -0.28559E-02         0.00000E+00
    0.16299E-02        -0.29453E-02         0.00000E+00
    0.16558E-02        -0.30367E-02         0.00000E+00
    0.16812E-02        -0.31300E-02         0.00000E+00
    0.17061E-02        -0.32252E-02         0.00000E+00
    0.17304E-02        -0.33225E-02         0.00000E+00
    0.17539E-02        -0.34217E-02         0.00000E+00
    0.17767E-02        -0.35229E-02         0.00000E+00
    0.17985E-02        -0.36262E-02         0.00000E+00
    0.18193E-02        -0.37314E-02         0.00000E+00
    0.18389E-02        -0.38387E-02         0.00000E+00
    0.18572E-02        -0.39480E-02         0.00000E+00
    0.18741E-02        -0.40594E-02         0.00000E+00
    0.18893E-02        -0.41727E-02         0.00000E+00
    0.19028E-02        -0.42882E-02         0.00000E+00
    0.19144E-02        -0.44056E-02         0.00000E+00
    0.19238E-02        -0.45251E-02         0.00000E+00
    0.19309E-02        -0.46466E-02         0.00000E+00
    0.19355E-02        -0.47702E-02         0.00000E+00
    0.19372E-02        -0.48958E-02         0.00000E+00
    0.19359E-02        -0.50234E-02         0.00000E+00
    0.19314E-02        -0.51531E-02         0.00000E+00
    0.19233E-02        -0.52848E-02         0.00000E+00
    0.19114E-02        -0.54186E-02         0.00000E+00
    0.18953E-02        -0.55545E-02         0.00000E+00
    0.18749E-02        -0.56924E-02         0.00000E+00
    0.18498E-02        -0.58324E-02         0.00000E+00
    0.18197E-02        -0.59744E-02         0.00000E+00
    0.17843E-02        -0.61185E-02         0.00000E+00
    0.17435E-02        -0.62645E-02         0.00000E+00
    0.16968E-02        -0.64123E-02         0.00000E+00
    0.16441E-02        -0.65618E-02         0.00000E+00
    0.15851E-02        -0.67126E-02         0.00000E+00
    0.15195E-02        -0.68644E-02         0.00000E+00
    0.14470E-02        -0.70164E-02         0.00000E+00
    0.13672E-02        -0.71679E-02         0.00000E+00
    0.12794E-02        -0.73175E-02         0.00000E+00
    0.11827E-02        -0.74637E-02         0.00000E+00
    0.10758E-02        -0.76043E-02         0.00000E+00
    0.95630E-03        -0.77363E-02         0.00000E+00
    0.82100E-03        -0.78561E-02         0.00000E+00
    0.66506E-03        -0.79591E-02         0.00000E+00
    0.48183E-03        -0.80398E-02         0.00000E+00
    0.26313E-03        -0.80920E-02         0.00000E+00
    0.00000E+00        -0.81101E-02         0.00000E+00
    0.00000E+00        -0.61175E-04         0.00000E+00
    0.71159E-04        -0.65351E-04         0.00000E+00
    0.13273E-03        -0.77416E-04         0.00000E+00
    0.18669E-03        -0.96222E-04         0.00000E+00
    0.23482E-03        -0.12042E-03         0.00000E+00
    0.27860E-03        -0.14878E-03         0.00000E+00
    0.31913E-03        -0.18027E-03         0.00000E+00
    0.35718E-03        -0.21410E-03         0.00000E+00
    0.39327E-03        -0.24964E-03         0.00000E+00
    0.42776E-03        -0.28644E-03         0.00000E+00
    0.46089E-03        -0.32416E-03         0.00000E+00
    0.49285E-03        -0.36258E-03         0.00000E+00
    0.52375E-03        -0.40155E-03         0.00000E+00
    0.55371E-03        -0.44100E-03         0.00000E+00
    0.58280E-03        -0.48087E-03         0.00000E+00
    0.61111E-03        -0.52115E-03         0.00000E+00
    0.63873E-03        -0.56187E-03         0.00000E+00
    0.66571E-03        -0.60306E-03         0.00000E+00
    0.69214E-03        -0.64475E-03         0.00000E+00
    0.71810E-03        -0.68698E-03         0.00000E+00
    0.74365E-03        -0.72982E-03         0.00000E+00
    0.76887E-03        -0.77332E-03         0.00000E+00
    0.79382E-03        -0.81751E-03         0.00000E+00
    0.81858E-03        -0.86247E-03         0.00000E+00
    0.84320E-03        -0.90824E-03         0.00000E+00
    0.86774E-03        -0.95487E-03         0.00000E+00
    0.89225E-03        -0.10024E-02         0.00000E+00
    0.91679E-03        -0.10509E-02         0.00000E+00
    0.94139E-03        -0.11004E-02         0.00000E+00
    0.96610E-03        -0.11510E-02         0.00000E+00
    0.99095E-03        -0.12026E-02         0.00000E+00
    0.10160E-02        -0.12554E-02         0.00000E+00
    0.10412E-02        -0.13094E-02         0.00000E+00
    0.10666E-02        -0.13646E-02         0.00000E+00
    0.10923E-02        -0.14211E-02         0.00000E+00
    0.11182E-02        -0.14788E-02         0.00000E+00
    0.11444E-02        -0.15380E-02         0.00000E+00
    0.11709E-02        -0.15985E-02         0.00000E+00
    0.11976E-02        -0.16604E-02         0.00000E+00
    0.12246E-02        -0.17239E-02         0.00000E+00
    0.12519E-02        -0.17888E-02         0.00000E+00
    0.12794E-02        -0.18553E-02         0.00000E+00
    0.13072E-02        -0.19233E-02         0.00000E+00
    0.13353E-02        -0.19930E-02         0.00000E+00
    0.13635E-02        -0.20643E-02         0.00000E+00
    0.13920E-02        -0.21374E-02         0.00000E+00
    0.14206E-02        -0.22121E-02         0.00000E+00
    0.14494E-02        -0.22887E-02         0.00000E+00
    0.14783E-02        -0.23670E-02         0.00000E+00
    0.15073E-02        -0.24471E-02         0.00000E+00
    0.15363E-02        -0.25291E-02         0.00000E+00
    0.15654E-02        -0.26130E-02         0.00000E+00
    0.15944E-02        -0.26988E-02         0.00000E+00
    0.16233E-02        -0.27866E-02         0.00000E+00
    0.16521E-02        -0.28763E-02         0.00000E+00
    0.16807E-02        -0.29680E-02         0.00000E+00
    0.17090E-02        -0.30618E-02         0.00000E+00
    0.17370E-02        -0.31575E-02         0.00000E+00
    0.17646E-02        -0.32554E-02         0.00000E+00
    0.17917E-02        -0.33553E-02         0.00000E+00
    0.18182E-02        -0.34573E-02         0.00000E+00
    0.18441E-02        -0.35615E-02         0.00000E+00
    0.18692E-02        -0.36677E-02         0.00000E+00
    0.18935E-02        -0.37761E-02         0.00000E+00
    0.19168E-02        -0.38866E-02         0.00000E+00
    0.19389E-02        -0.39993E-02         0.00000E+00
    0.19598E-02        -0.41142E-02         0.00000E+00
    0.19794E-02        -0.42312E-02         0.00000E+00
    0.19974E-02        -0.43504E-02         0.00000E+00
    0.20137E-02        -0.44717E-02         0.00000E+00
    0.20281E-02        -0.45953E-02         0.00000E+00
    0.20405E-02        -0.47210E-02         0.00000E+00
    0.20505E-02        -0.48488E-02         0.00000E+00
    0.20581E-02        -0.49788E-02         0.00000E+00
    0.20630E-02        -0.51110E-02         0.00000E+00
    0.20649E-02        -0.52454E-02         0.00000E+00
    0.20636E-02        -0.53819E-02         0.00000E+00
    0.20588E-02        -0.55206E-02         0.00000E+00
    0.20502E-02        -0.56615E-02         0.00000E+00
    0.20375E-02        -0.58045E-02         0.00000E+00
    0.20205E-02        -0.59498E-02         0.00000E+00
    0.19987E-02        -0.60972E-02         0.00000E+00
    0.19720E-02        -0.62468E-02         0.00000E+00
    0.19399E-02        -0.63986E-02         0.00000E+00
    0.19022E-02        -0.65525E-02         0.00000E+00
    0.18586E-02        -0.67085E-02         0.00000E+00
    0.18087E-02        -0.68665E-02         0.00000E+00
    0.17523E-02        -0.70261E-02         0.00000E+00
    0.16891E-02        -0.71872E-02         0.00000E+00
    0.16188E-02        -0.73493E-02         0.00000E+00
    0.15410E-02        -0.75117E-02         0.00000E+00
    0.14552E-02        -0.76734E-02         0.00000E+00
    0.13608E-02        -0.78331E-02         0.00000E+00
    0.12567E-02        -0.79891E-02         0.00000E+00
    0.11415E-02        -0.81390E-02         0.00000E+00
    0.10130E-02        -0.82795E-02         0.00000E+00
    0.86780E-03        -0.84069E-02         0.00000E+00
    0.70106E-03        -0.85161E-02         0.00000E+00
    0.50627E-03        -0.86013E-02         0.00000E+00
    0.27547E-03        -0.86560E-02         0.00000E+00
    0.00000E+00        -0.86750E-02         0.00000E+00
    0.00000E+00        -0.69299E-04         0.00000E+00
    0.74463E-04        -0.73667E-04         0.00000E+00
    0.13931E-03        -0.86320E-04         0.00000E+00
    0.19644E-03        -0.10612E-03         0.00000E+00
    0.24763E-03        -0.13170E-03         0.00000E+00
    0.29430E-03        -0.16174E-03         0.00000E+00
    0.33756E-03        -0.19518E-03         0.00000E+00
    0.37818E-03        -0.23112E-03         0.00000E+00
    0.41670E-03        -0.26891E-03         0.00000E+00
    0.45349E-03        -0.30805E-03         0.00000E+00
    0.48880E-03        -0.34819E-03         0.00000E+00
    0.52283E-03        -0.38909E-03         0.00000E+00
    0.55570E-03        -0.43058E-03         0.00000E+00
    0.58755E-03        -0.47258E-03         0.00000E+00
    0.61845E-03        -0.51503E-03         0.00000E+00
    0.64852E-03        -0.55795E-03         0.00000E+00
    0.67782E-03        -0.60133E-03         0.00000E+00
    0.70645E-03        -0.64521E-03         0.00000E+00
    0.73449E-03        -0.68963E-03         0.00000E+00
    0.76201E-03        -0.73465E-03         0.00000E+00
    0.78911E-03        -0.78031E-03         0.00000E+00
    0.81585E-03        -0.82668E-03         0.00000E+00
    0.84231E-03        -0.87380E-03         0.00000E+00
    0.86856E-03        -0.92174E-03         0.00000E+00
    0.89467E-03        -0.97055E-03         0.00000E+00
    0.92069E-03        -0.10203E-02         0.00000E+00
    0.94668E-03        -0.10710E-02         0.00000E+00
    0.97270E-03        -0.11227E-02         0.00000E+00
    0.99880E-03        -0.11755E-02         0.00000E+00
    0.10250E-02        -0.12295E-02         0.00000E+00
    0.10514E-02        -0.12846E-02         0.00000E+00
    0.10779E-02        -0.13409E-02         0.00000E+00
    0.11046E-02        -0.13985E-02         0.00000E+00
    0.11316E-02        -0.14574E-02         0.00000E+00
    0.11589E-02        -0.15176E-02         0.00000E+00
    0.11864E-02        -0.15793E-02         0.00000E+00
    0.12142E-02        -0.16423E-02         0.00000E+00
    0.12422E-02        -0.17069E-02         0.00000E+00
    0.12706E-02        -0.17730E-02         0.00000E+00
    0.12992E-02        -0.18407E-02         0.00000E+00
    0.13282E-02        -0.19100E-02         0.00000E+00
    0.13574E-02        -0.19809E-02         0.00000E+00
    0.13869E-02        -0.20535E-02         0.00000E+00
    0.14166E-02        -0.21278E-02         0.00000E+00
    0.14466E-02        -0.22039E-02         0.00000E+00
    0.14768E-02        -0.22819E-02         0.00000E+00
    0.15071E-02        -0.23616E-02         0.00000E+00
    0.15377E-02        -0.24432E-02         0.00000E+00
    0.15683E-02        -0.25268E-02         0.00000E+00
    0.15991E-02        -0.26123E-02         0.00000E+00
    0.16299E-02        -0.26998E-02         0.00000E+00
    0.16607E-02        -0.27892E-02         0.00000E+00
    0.16915E-02        -0.28808E-02         0.00000E+00
    0.17222E-02        -0.29744E-02         0.00000E+00
    0.17528E-02        -0.30700E-02         0.00000E+00
    0.17831E-02        -0.31679E-02         0.00000E+00
    0.18132E-02        -0.32678E-02         0.00000E+00
    0.18429E-02        -0.33700E-02         0.00000E+00
    0.18722E-02        -0.34743E-02         0.00000E+00
    0.19010E-02        -0.35808E-02         0.00000E+00
    0.19291E-02        -0.36896E-02         0.00000E+00
    0.19566E-02        -0.38006E-02         0.00000E+00
    0.19833E-02        -0.39139E-02         0.00000E+00
    0.20090E-02        -0.40295E-02         0.00000E+00
    0.20337E-02        -0.41473E-02         0.00000E+00
    0.20572E-02        -0.42674E-02         0.00000E+00
    0.20794E-02        -0.43898E-02         0.00000E+00
    0.21002E-02        -0.45145E-02         0.00000E+00
    0.21193E-02        -0.46416E-02         0.00000E+00
    0.21366E-02        -0.47709E-02         0.00000E+00
    0.21520E-02        -0.49025E-02         0.00000E+00
    0.21651E-02        -0.50364E-02         0.00000E+00
    0.21759E-02        -0.51726E-02         0.00000E+00
    0.21840E-02        -0.53111E-02         0.00000E+00
    0.21892E-02        -0.54519E-02         0.00000E+00
    0.21913E-02        -0.55950E-02         0.00000E+00
    0.21899E-02        -0.57404E-02         0.00000E+00
    0.21849E-02        -0.58880E-02         0.00000E+00
    0.21758E-02        -0.60380E-02         0.00000E+00
    0.21624E-02        -0.61903E-02         0.00000E+00
    0.21444E-02        -0.63449E-02         0.00000E+00
    0.21214E-02        -0.65018E-02         0.00000E+00
    0.20930E-02        -0.66610E-02         0.00000E+00
    0.20590E-02        -0.68225E-02         0.00000E+00
    0.20190E-02        -0.69862E-02         0.00000E+00
    0.19726E-02        -0.71521E-02         0.00000E+00
    0.19196E-02        -0.73201E-02         0.00000E+00
    0.18596E-02        -0.74899E-02         0.00000E+00
    0.17922E-02        -0.76612E-02         0.00000E+00
    0.17171E-02        -0.78335E-02         0.00000E+00
    0.16340E-02        -0.80062E-02         0.00000E+00
    0.15422E-02        -0.81780E-02         0.00000E+00
    0.14411E-02        -0.83478E-02         0.00000E+00
    0.13296E-02        -0.85135E-02         0.00000E+00
    0.12062E-02        -0.86726E-02         0.00000E+00
    0.10687E-02        -0.88216E-02         0.00000E+00
    0.91357E-03        -0.89565E-02         0.00000E+00
    0.73615E-03        -0.90718E-02         0.00000E+00
    0.53002E-03        -0.91614E-02         0.00000E+00
    0.28745E-03        -0.92187E-02         0.00000E+00
    0.00000E+00        -0.92386E-02         0.00000E+00
    0.00000E+00        -0.77789E-04         0.00000E+00
    0.77688E-04        -0.82352E-04         0.00000E+00
    0.14573E-03        -0.95599E-04         0.00000E+00
    0.20599E-03        -0.11640E-03         0.00000E+00
    0.26019E-03        -0.14334E-03         0.00000E+00
    0.30973E-03        -0.17507E-03         0.00000E+00
    0.35571E-03        -0.21043E-03         0.00000E+00
    0.39890E-03        -0.24848E-03         0.00000E+00
    0.43984E-03        -0.28850E-03         0.00000E+00
    0.47892E-03        -0.32998E-03         0.00000E+00
    0.51640E-03        -0.37252E-03         0.00000E+00
    0.55248E-03        -0.41588E-03         0.00000E+00
    0.58731E-03        -0.45987E-03         0.00000E+00
    0.62103E-03        -0.50441E-03         0.00000E+00
    0.65373E-03        -0.54945E-03         0.00000E+00
    0.68552E-03        -0.59498E-03         0.00000E+00
    0.71650E-03        -0.64101E-03         0.00000E+00
    0.74675E-03        -0.68758E-03         0.00000E+00
    0.77637E-03        -0.73473E-03         0.00000E+00
    0.80545E-03        -0.78252E-03         0.00000E+00
    0.83407E-03        -0.83100E-03         0.00000E+00
    0.86231E-03        -0.88024E-03         0.00000E+00
    0.89025E-03        -0.93029E-03         0.00000E+00
    0.91797E-03        -0.98121E-03         0.00000E+00
    0.94554E-03        -0.10331E-02         0.00000E+00
    0.97303E-03        -0.10859E-02         0.00000E+00
    0.10005E-02        -0.11398E-02         0.00000E+00
    0.10280E-02        -0.11947E-02         0.00000E+00
    0.10555E-02        -0.12508E-02         0.00000E+00
    0.10832E-02        -0.13081E-02         0.00000E+00
    0.11111E-02        -0.13667E-02         0.00000E+00
    0.11391E-02        -0.14266E-02         0.00000E+00
    0.11673E-02        -0.14878E-02         0.00000E+00
    0.11959E-02        -0.15503E-02         0.00000E+00
    0.12246E-02        -0.16144E-02         0.00000E+00
    0.12537E-02        -0.16799E-02         0.00000E+00
    0.12831E-02        -0.17469E-02         0.00000E+00
    0.13127E-02        -0.18156E-02         0.00000E+00
    0.13427E-02        -0.18858E-02         0.00000E+00
    0.13730E-02        -0.19577E-02         0.00000E+00
    0.14035E-02        -0.20314E-02         0.00000E+00
    0.14344E-02        -0.21067E-02         0.00000E+00
    0.14656E-02        -0.21839E-02         0.00000E+00
    0.14970E-02        -0.22629E-02         0.00000E+00
    0.15287E-02        -0.23438E-02         0.00000E+00
    0.15606E-02        -0.24266E-02         0.00000E+00
    0.15927E-02        -0.25113E-02         0.00000E+00
    0.16249E-02        -0.25981E-02         0.00000E+00
    0.16574E-02        -0.26868E-02         0.00000E+00
    0.16899E-02        -0.27777E-02         0.00000E+00
    0.17224E-02        -0.28706E-02         0.00000E+00
    0.17550E-02        -0.29657E-02         0.00000E+00
    0.17876E-02        -0.30629E-02         0.00000E+00
    0.18200E-02        -0.31624E-02         0.00000E+00
    0.18523E-02        -0.32640E-02         0.00000E+00
    0.18844E-02        -0.33679E-02         0.00000E+00
    0.19161E-02        -0.34741E-02         0.00000E+00
    0.19476E-02        -0.35826E-02         0.00000E+00
    0.19785E-02        -0.36934E-02         0.00000E+00
    0.20089E-02        -0.38066E-02         0.00000E+00
    0.20387E-02        -0.39221E-02         0.00000E+00
    0.20678E-02        -0.40400E-02         0.00000E+00
    0.20960E-02        -0.41603E-02         0.00000E+00
    0.21232E-02        -0.42830E-02         0.00000E+00
    0.21493E-02        -0.44081E-02         0.00000E+00
    0.21742E-02        -0.45357E-02         0.00000E+00
    0.21977E-02        -0.46656E-02         0.00000E+00
    0.22197E-02        -0.47980E-02         0.00000E+00
    0.22399E-02        -0.49328E-02         0.00000E+00
    0.22583E-02        -0.50701E-02         0.00000E+00
    0.22745E-02        -0.52098E-02         0.00000E+00
    0.22884E-02        -0.53519E-02         0.00000E+00
    0.22998E-02        -0.54964E-02         0.00000E+00
    0.23084E-02        -0.56434E-02         0.00000E+00
    0.23140E-02        -0.57928E-02         0.00000E+00
    0.23163E-02        -0.59446E-02         0.00000E+00
    0.23149E-02        -0.60988E-02         0.00000E+00
    0.23097E-02        -0.62554E-02         0.00000E+00
    0.23002E-02        -0.64144E-02         0.00000E+00
    0.22861E-02        -0.65759E-02         0.00000E+00
    0.22671E-02        -0.67398E-02         0.00000E+00
    0.22428E-02        -0.69061E-02         0.00000E+00
    0.22129E-02        -0.70748E-02         0.00000E+00
    0.21770E-02        -0.72460E-02         0.00000E+00
    0.21347E-02        -0.74195E-02         0.00000E+00
    0.20856E-02        -0.75953E-02         0.00000E+00
    0.20294E-02        -0.77733E-02         0.00000E+00
    0.19658E-02        -0.79531E-02         0.00000E+00
    0.18943E-02        -0.81346E-02         0.00000E+00
    0.18145E-02        -0.83171E-02         0.00000E+00
    0.17260E-02        -0.84998E-02         0.00000E+00
    0.16283E-02        -0.86818E-02         0.00000E+00
    0.15205E-02        -0.88615E-02         0.00000E+00
    0.14015E-02        -0.90368E-02         0.00000E+00
    0.12699E-02        -0.92050E-02         0.00000E+00
    0.11233E-02        -0.93625E-02         0.00000E+00
    0.95840E-03        -0.95048E-02         0.00000E+00
    0.77042E-03        -0.96262E-02         0.00000E+00
    0.55316E-03        -0.97202E-02         0.00000E+00
    0.29909E-03        -0.97802E-02         0.00000E+00
    0.00000E+00        -0.98009E-02         0.00000E+00
    0.00000E+00        -0.86627E-04         0.00000E+00
    0.80839E-04        -0.91390E-04         0.00000E+00
    0.15201E-03        -0.10524E-03         0.00000E+00
    0.21535E-03        -0.12704E-03         0.00000E+00
    0.27252E-03        -0.15536E-03         0.00000E+00
    0.32492E-03        -0.18876E-03         0.00000E+00
    0.37361E-03        -0.22603E-03         0.00000E+00
    0.41935E-03        -0.26617E-03         0.00000E+00
    0.46271E-03        -0.30842E-03         0.00000E+00
    0.50406E-03        -0.35221E-03         0.00000E+00
    0.54370E-03        -0.39714E-03         0.00000E+00
    0.58182E-03        -0.44294E-03         0.00000E+00
    0.61859E-03        -0.48943E-03         0.00000E+00
    0.65416E-03        -0.53650E-03         0.00000E+00
    0.68863E-03        -0.58411E-03         0.00000E+00
    0.72213E-03        -0.63224E-03         0.00000E+00
    0.75476E-03        -0.68092E-03         0.00000E+00
    0.78661E-03        -0.73017E-03         0.00000E+00
    0.81779E-03        -0.78005E-03         0.00000E+00
    0.84840E-03        -0.83060E-03         0.00000E+00
    0.87851E-03        -0.88190E-03         0.00000E+00
    0.90823E-03        -0.93401E-03         0.00000E+00
    0.93764E-03        -0.98698E-03         0.00000E+00
    0.96682E-03        -0.10409E-02         0.00000E+00
    0.99583E-03        -0.10958E-02         0.00000E+00
    0.10248E-02        -0.11517E-02         0.00000E+00
    0.10536E-02        -0.12087E-02         0.00000E+00
    0.10826E-02        -0.12669E-02         0.00000E+00
    0.11116E-02        -0.13263E-02         0.00000E+00
    0.11407E-02        -0.13870E-02         0.00000E+00
    0.11700E-02        -0.14490E-02         0.00000E+00
    0.11995E-02        -0.15124E-02         0.00000E+00
    0.12293E-02        -0.15772E-02         0.00000E+00
    0.12593E-02        -0.16435E-02         0.00000E+00
    0.12896E-02        -0.17113E-02         0.00000E+00
    0.13202E-02        -0.17807E-02         0.00000E+00
    0.13511E-02        -0.18517E-02         0.00000E+00
    0.13824E-02        -0.19244E-02         0.00000E+00
    0.14139E-02        -0.19988E-02         0.00000E+00
    0.14458E-02        -0.20750E-02         0.00000E+00
    0.14780E-02        -0.21530E-02         0.00000E+00
    0.15105E-02        -0.22328E-02         0.00000E+00
    0.15433E-02        -0.23145E-02         0.00000E+00
    0.15764E-02        -0.23982E-02         0.00000E+00
    0.16098E-02        -0.24838E-02         0.00000E+00
    0.16434E-02        -0.25715E-02         0.00000E+00
    0.16772E-02        -0.26613E-02         0.00000E+00
    0.17112E-02        -0.27531E-02         0.00000E+00
    0.17453E-02        -0.28471E-02         0.00000E+00
    0.17796E-02        -0.29433E-02         0.00000E+00
    0.18139E-02        -0.30417E-02         0.00000E+00
    0.18482E-02        -0.31424E-02         0.00000E+00
    0.18825E-02        -0.32453E-02         0.00000E+00
    0.19166E-02        -0.33506E-02         0.00000E+00
    0.19506E-02        -0.34582E-02         0.00000E+00
    0.19844E-02        -0.35682E-02         0.00000E+00
    0.20179E-02        -0.36806E-02         0.00000E+00
    0.20510E-02        -0.37955E-02         0.00000E+00
    0.20836E-02        -0.39128E-02         0.00000E+00
    0.21157E-02        -0.40325E-02         0.00000E+00
    0.21471E-02        -0.41548E-02         0.00000E+00
    0.21777E-02        -0.42796E-02         0.00000E+00
    0.22074E-02        -0.44069E-02         0.00000E+00
    0.22361E-02        -0.45367E-02         0.00000E+00
    0.22636E-02        -0.46691E-02         0.00000E+00
    0.22899E-02        -0.48041E-02         0.00000E+00
    0.23146E-02        -0.49416E-02         0.00000E+00
    0.23378E-02        -0.50816E-02         0.00000E+00
    0.23592E-02        -0.52243E-02         0.00000E+00
    0.23785E-02        -0.53694E-02         0.00000E+00
    0.23957E-02        -0.55172E-02         0.00000E+00
    0.24104E-02        -0.56675E-02         0.00000E+00
    0.24224E-02        -0.58203E-02         0.00000E+00
    0.24316E-02        -0.59757E-02         0.00000E+00
    0.24375E-02        -0.61336E-02         0.00000E+00
    0.24400E-02        -0.62941E-02         0.00000E+00
    0.24386E-02        -0.64571E-02         0.00000E+00
    0.24332E-02        -0.66227E-02         0.00000E+00
    0.24232E-02        -0.67907E-02         0.00000E+00
    0.24085E-02        -0.69613E-02         0.00000E+00
    0.23886E-02        -0.71345E-02         0.00000E+00
    0.23631E-02        -0.73102E-02         0.00000E+00
    0.23316E-02        -0.74884E-02         0.00000E+00
    0.22938E-02        -0.76692E-02         0.00000E+00
    0.22493E-02        -0.78524E-02         0.00000E+00
    0.21976E-02        -0.80380E-02         0.00000E+00
    0.21383E-02        -0.82259E-02         0.00000E+00
    0.20710E-02        -0.84158E-02         0.00000E+00
    0.19954E-02        -0.86073E-02         0.00000E+00
    0.19109E-02        -0.87999E-02         0.00000E+00
    0.18172E-02        -0.89927E-02         0.00000E+00
    0.17134E-02        -0.91847E-02         0.00000E+00
    0.15989E-02        -0.93742E-02         0.00000E+00
    0.14725E-02        -0.95591E-02         0.00000E+00
    0.13327E-02        -0.97364E-02         0.00000E+00
    0.11771E-02        -0.99022E-02         0.00000E+00
    0.10024E-02        -0.10052E-01         0.00000E+00
    0.80394E-03        -0.10179E-01         0.00000E+00
    0.57574E-03        -0.10278E-01         0.00000E+00
    0.31044E-03        -0.10341E-01         0.00000E+00
    0.00000E+00        -0.10362E-01         0.00000E+00
    0.00000E+00        -0.95801E-04         0.00000E+00
    0.83923E-04        -0.10077E-03         0.00000E+00
    0.15816E-03        -0.11523E-03         0.00000E+00
    0.22453E-03        -0.13805E-03         0.00000E+00
    0.28465E-03        -0.16773E-03         0.00000E+00
    0.33988E-03        -0.20280E-03         0.00000E+00
    0.39126E-03        -0.24197E-03         0.00000E+00
    0.43955E-03        -0.28419E-03         0.00000E+00
    0.48531E-03        -0.32864E-03         0.00000E+00
    0.52893E-03        -0.37474E-03         0.00000E+00
    0.57070E-03        -0.42205E-03         0.00000E+00
    0.61085E-03        -0.47028E-03         0.00000E+00
    0.64954E-03        -0.51925E-03         0.00000E+00
    0.68694E-03        -0.56885E-03         0.00000E+00
    0.72317E-03        -0.61901E-03         0.00000E+00
    0.75835E-03        -0.66974E-03         0.00000E+00
    0.79261E-03        -0.72105E-03         0.00000E+00
    0.82604E-03        -0.77298E-03         0.00000E+00
    0.85876E-03        -0.82557E-03         0.00000E+00
    0.89086E-03        -0.87889E-03         0.00000E+00
    0.92246E-03        -0.93301E-03         0.00000E+00
    0.95363E-03        -0.98797E-03         0.00000E+00
    0.98448E-03        -0.10439E-02         0.00000E+00
    0.10151E-02        -0.11007E-02         0.00000E+00
    0.10455E-02        -0.11587E-02         0.00000E+00
    0.10759E-02        -0.12177E-02         0.00000E+00
    0.11062E-02        -0.12779E-02         0.00000E+00
    0.11365E-02        -0.13393E-02         0.00000E+00
    0.11670E-02        -0.14020E-02         0.00000E+00
    0.11975E-02        -0.14661E-02         0.00000E+00
    0.12283E-02        -0.15316E-02         0.00000E+00
    0.12593E-02        -0.15985E-02         0.00000E+00
    0.12905E-02        -0.16669E-02         0.00000E+00
    0.13220E-02        -0.17369E-02         0.00000E+00
    0.13538E-02        -0.18085E-02         0.00000E+00
    0.13859E-02        -0.18818E-02         0.00000E+00
    0.14184E-02        -0.19568E-02         0.00000E+00
    0.14511E-02        -0.20335E-02         0.00000E+00
    0.14843E-02        -0.21120E-02         0.00000E+00
    0.15177E-02        -0.21925E-02         0.00000E+00
    0.15515E-02        -0.22748E-02         0.00000E+00
    0.15857E-02        -0.23591E-02         0.00000E+00
    0.16201E-02        -0.24454E-02         0.00000E+00
    0.16549E-02        -0.25337E-02         0.00000E+00
    0.16899E-02        -0.26241E-02         0.00000E+00
    0.17252E-02        -0.27167E-02         0.00000E+00
    0.17607E-02        -0.28114E-02         0.00000E+00
    0.17964E-02        -0.29084E-02         0.00000E+00
    0.18322E-02        -0.30076E-02         0.00000E+00
    0.18682E-02        -0.31091E-02         0.00000E+00
    0.19042E-02        -0.32130E-02         0.00000E+00
    0.19402E-02        -0.33193E-02         0.00000E+00
    0.19762E-02        -0.34279E-02         0.00000E+00
    0.20121E-02        -0.35390E-02         0.00000E+00
    0.20478E-02        -0.36526E-02         0.00000E+00
    0.20833E-02        -0.37687E-02         0.00000E+00
    0.21185E-02        -0.38873E-02         0.00000E+00
    0.21532E-02        -0.40085E-02         0.00000E+00
    0.21875E-02        -0.41323E-02         0.00000E+00
    0.22211E-02        -0.42587E-02         0.00000E+00
    0.22541E-02        -0.43877E-02         0.00000E+00
    0.22863E-02        -0.45194E-02         0.00000E+00
    0.23175E-02        -0.46537E-02         0.00000E+00
    0.23476E-02        -0.47906E-02         0.00000E+00
    0.23766E-02        -0.49303E-02         0.00000E+00
    0.24042E-02        -0.50726E-02         0.00000E+00
    0.24302E-02        -0.52177E-02         0.00000E+00
    0.24546E-02        -0.53654E-02         0.00000E+00
    0.24770E-02        -0.55158E-02         0.00000E+00
    0.24974E-02        -0.56689E-02         0.00000E+00
    0.25155E-02        -0.58247E-02         0.00000E+00
    0.25310E-02        -0.59831E-02         0.00000E+00
    0.25437E-02        -0.61443E-02         0.00000E+00
    0.25534E-02        -0.63081E-02         0.00000E+00
    0.25597E-02        -0.64745E-02         0.00000E+00
    0.25623E-02        -0.66437E-02         0.00000E+00
    0.25610E-02        -0.68154E-02         0.00000E+00
    0.25554E-02        -0.69899E-02         0.00000E+00
    0.25451E-02        -0.71669E-02         0.00000E+00
    0.25297E-02        -0.73467E-02         0.00000E+00
    0.25089E-02        -0.75290E-02         0.00000E+00
    0.24822E-02        -0.77141E-02         0.00000E+00
    0.24493E-02        -0.79018E-02         0.00000E+00
    0.24096E-02        -0.80921E-02         0.00000E+00
    0.23628E-02        -0.82850E-02         0.00000E+00
    0.23085E-02        -0.84803E-02         0.00000E+00
    0.22462E-02        -0.86780E-02         0.00000E+00
    0.21754E-02        -0.88778E-02         0.00000E+00
    0.20956E-02        -0.90793E-02         0.00000E+00
    0.20065E-02        -0.92819E-02         0.00000E+00
    0.19074E-02        -0.94848E-02         0.00000E+00
    0.17977E-02        -0.96867E-02         0.00000E+00
    0.16765E-02        -0.98860E-02         0.00000E+00
    0.15427E-02        -0.10080E-01         0.00000E+00
    0.13946E-02        -0.10267E-01         0.00000E+00
    0.12300E-02        -0.10441E-01         0.00000E+00
    0.10456E-02        -0.10598E-01         0.00000E+00
    0.83680E-03        -0.10731E-01         0.00000E+00
    0.59783E-03        -0.10834E-01         0.00000E+00
    0.32152E-03        -0.10900E-01         0.00000E+00
    0.00000E+00        -0.10922E-01         0.00000E+00
    0.00000E+00        -0.10529E-03         0.00000E+00
    0.86946E-04        -0.11047E-03         0.00000E+00
    0.16420E-03        -0.12556E-03         0.00000E+00
    0.23355E-03        -0.14939E-03         0.00000E+00
    0.29658E-03        -0.18045E-03         0.00000E+00
    0.35462E-03        -0.21719E-03         0.00000E+00
    0.40868E-03        -0.25826E-03         0.00000E+00
    0.45950E-03        -0.30254E-03         0.00000E+00
    0.50765E-03        -0.34919E-03         0.00000E+00
    0.55353E-03        -0.39757E-03         0.00000E+00
    0.59742E-03        -0.44724E-03         0.00000E+00
    0.63957E-03        -0.49790E-03         0.00000E+00
    0.68017E-03        -0.54933E-03         0.00000E+00
    0.71938E-03        -0.60144E-03         0.00000E+00
    0.75734E-03        -0.65415E-03         0.00000E+00
    0.79419E-03        -0.70747E-03         0.00000E+00
    0.83004E-03        -0.76140E-03         0.00000E+00
    0.86503E-03        -0.81600E-03         0.00000E+00
    0.89926E-03        -0.87131E-03         0.00000E+00
    0.93285E-03        -0.92739E-03         0.00000E+00
    0.96590E-03        -0.98431E-03         0.00000E+00
    0.99851E-03        -0.10421E-02         0.00000E+00
    0.10308E-02        -0.11009E-02         0.00000E+00
    0.10628E-02        -0.11608E-02         0.00000E+00
    0.10946E-02        -0.12217E-02         0.00000E+00
    0.11264E-02        -0.12839E-02         0.00000E+00
    0.11581E-02        -0.13472E-02         0.00000E+00
    0.11898E-02        -0.14119E-02         0.00000E+00
    0.12217E-02        -0.14779E-02         0.00000E+00
    0.12537E-02        -0.15454E-02         0.00000E+00
    0.12859E-02        -0.16143E-02         0.00000E+00
    0.13183E-02        -0.16848E-02         0.00000E+00
    0.13509E-02        -0.17568E-02         0.00000E+00
    0.13839E-02        -0.18305E-02         0.00000E+00
    0.14172E-02        -0.19059E-02         0.00000E+00
    0.14508E-02        -0.19830E-02         0.00000E+00
    0.14848E-02        -0.20620E-02         0.00000E+00
    0.15191E-02        -0.21428E-02         0.00000E+00
    0.15538E-02        -0.22255E-02         0.00000E+00
    0.15888E-02        -0.23101E-02         0.00000E+00
    0.16242E-02        -0.23968E-02         0.00000E+00
    0.16599E-02        -0.24856E-02         0.00000E+00
    0.16960E-02        -0.25764E-02         0.00000E+00
    0.17323E-02        -0.26694E-02         0.00000E+00
    0.17690E-02        -0.27646E-02         0.00000E+00
    0.18059E-02        -0.28620E-02         0.00000E+00
    0.18431E-02        -0.29618E-02         0.00000E+00
    0.18805E-02        -0.30639E-02         0.00000E+00
    0.19180E-02        -0.31683E-02         0.00000E+00
    0.19557E-02        -0.32752E-02         0.00000E+00
    0.19934E-02        -0.33845E-02         0.00000E+00
    0.20311E-02        -0.34964E-02         0.00000E+00
    0.20688E-02        -0.36108E-02         0.00000E+00
    0.21064E-02        -0.37277E-02         0.00000E+00
    0.21438E-02        -0.38472E-02         0.00000E+00
    0.21810E-02        -0.39694E-02         0.00000E+00
    0.22178E-02        -0.40943E-02         0.00000E+00
    0.22542E-02        -0.42218E-02         0.00000E+00
    0.22901E-02        -0.43521E-02         0.00000E+00
    0.23254E-02        -0.44850E-02         0.00000E+00
    0.23599E-02        -0.46208E-02         0.00000E+00
    0.23936E-02        -0.47593E-02         0.00000E+00
    0.24263E-02        -0.49006E-02         0.00000E+00
    0.24579E-02        -0.50447E-02         0.00000E+00
    0.24882E-02        -0.51916E-02         0.00000E+00
    0.25172E-02        -0.53414E-02         0.00000E+00
    0.25445E-02        -0.54939E-02         0.00000E+00
    0.25700E-02        -0.56493E-02         0.00000E+00
    0.25936E-02        -0.58075E-02         0.00000E+00
    0.26150E-02        -0.59685E-02         0.00000E+00
    0.26339E-02        -0.61323E-02         0.00000E+00
    0.26503E-02        -0.62989E-02         0.00000E+00
    0.26636E-02        -0.64683E-02         0.00000E+00
    0.26738E-02        -0.66405E-02         0.00000E+00
    0.26805E-02        -0.68155E-02         0.00000E+00
    0.26834E-02        -0.69932E-02         0.00000E+00
    0.26821E-02        -0.71737E-02         0.00000E+00
    0.26763E-02        -0.73570E-02         0.00000E+00
    0.26657E-02        -0.75430E-02         0.00000E+00
    0.26497E-02        -0.77318E-02         0.00000E+00
    0.26280E-02        -0.79234E-02         0.00000E+00
    0.26002E-02        -0.81177E-02         0.00000E+00
    0.25658E-02        -0.83148E-02         0.00000E+00
    0.25243E-02        -0.85146E-02         0.00000E+00
    0.24754E-02        -0.87171E-02         0.00000E+00
    0.24185E-02        -0.89222E-02         0.00000E+00
    0.23531E-02        -0.91297E-02         0.00000E+00
    0.22788E-02        -0.93393E-02         0.00000E+00
    0.21950E-02        -0.95508E-02         0.00000E+00
    0.21013E-02        -0.97633E-02         0.00000E+00
    0.19969E-02        -0.99761E-02         0.00000E+00
    0.18813E-02        -0.10188E-01         0.00000E+00
    0.17534E-02        -0.10397E-01         0.00000E+00
    0.16121E-02        -0.10601E-01         0.00000E+00
    0.14558E-02        -0.10796E-01         0.00000E+00
    0.12822E-02        -0.10978E-01         0.00000E+00
    0.10881E-02        -0.11143E-01         0.00000E+00
    0.86906E-03        -0.11282E-01         0.00000E+00
    0.61948E-03        -0.11390E-01         0.00000E+00
    0.33238E-03        -0.11458E-01         0.00000E+00
    0.00000E+00        -0.11481E-01         0.00000E+00
    0.00000E+00        -0.11509E-03         0.00000E+00
    0.89914E-04        -0.12049E-03         0.00000E+00
    0.17013E-03        -0.13621E-03         0.00000E+00
    0.24242E-03        -0.16108E-03         0.00000E+00
    0.30834E-03        -0.19352E-03         0.00000E+00
    0.36917E-03        -0.23192E-03         0.00000E+00
    0.42588E-03        -0.27488E-03         0.00000E+00
    0.47923E-03        -0.32121E-03         0.00000E+00
    0.52976E-03        -0.37004E-03         0.00000E+00
    0.57787E-03        -0.42070E-03         0.00000E+00
    0.62387E-03        -0.47272E-03         0.00000E+00
    0.66801E-03        -0.52578E-03         0.00000E+00
    0.71049E-03        -0.57967E-03         0.00000E+00
    0.75149E-03        -0.63427E-03         0.00000E+00
    0.79116E-03        -0.68952E-03         0.00000E+00
    0.82964E-03        -0.74542E-03         0.00000E+00
    0.86708E-03        -0.80197E-03         0.00000E+00
    0.90359E-03        -0.85923E-03         0.00000E+00
    0.93931E-03        -0.91724E-03         0.00000E+00
    0.97436E-03        -0.97608E-03         0.00000E+00
    0.10088E-02        -0.10358E-02         0.00000E+00
    0.10429E-02        -0.10965E-02         0.00000E+00
    0.10765E-02        -0.11582E-02         0.00000E+00
    0.11099E-02        -0.12210E-02         0.00000E+00
    0.11431E-02        -0.12850E-02         0.00000E+00
    0.11762E-02        -0.13502E-02         0.00000E+00
    0.12093E-02        -0.14168E-02         0.00000E+00
    0.12425E-02        -0.14847E-02         0.00000E+00
    0.12757E-02        -0.15540E-02         0.00000E+00
    0.13091E-02        -0.16248E-02         0.00000E+00
    0.13427E-02        -0.16972E-02         0.00000E+00
    0.13765E-02        -0.17712E-02         0.00000E+00
    0.14106E-02        -0.18469E-02         0.00000E+00
    0.14450E-02        -0.19243E-02         0.00000E+00
    0.14798E-02        -0.20034E-02         0.00000E+00
    0.15149E-02        -0.20844E-02         0.00000E+00
    0.15503E-02        -0.21674E-02         0.00000E+00
    0.15862E-02        -0.22522E-02         0.00000E+00
    0.16224E-02        -0.23391E-02         0.00000E+00
    0.16590E-02        -0.24280E-02         0.00000E+00
    0.16959E-02        -0.25190E-02         0.00000E+00
    0.17332E-02        -0.26122E-02         0.00000E+00
    0.17709E-02        -0.27076E-02         0.00000E+00
    0.18089E-02        -0.28053E-02         0.00000E+00
    0.18472E-02        -0.29053E-02         0.00000E+00
    0.18857E-02        -0.30076E-02         0.00000E+00
    0.19245E-02        -0.31124E-02         0.00000E+00
    0.19636E-02        -0.32196E-02         0.00000E+00
    0.20028E-02        -0.33293E-02         0.00000E+00
    0.20421E-02        -0.34415E-02         0.00000E+00
    0.20815E-02        -0.35563E-02         0.00000E+00
    0.21209E-02        -0.36737E-02         0.00000E+00
    0.21603E-02        -0.37938E-02         0.00000E+00
    0.21996E-02        -0.39166E-02         0.00000E+00
    0.22386E-02        -0.40421E-02         0.00000E+00
    0.22775E-02        -0.41704E-02         0.00000E+00
    0.23159E-02        -0.43014E-02         0.00000E+00
    0.23540E-02        -0.44353E-02         0.00000E+00
    0.23915E-02        -0.45720E-02         0.00000E+00
    0.24283E-02        -0.47116E-02         0.00000E+00
    0.24644E-02        -0.48541E-02         0.00000E+00
    0.24996E-02        -0.49994E-02         0.00000E+00
    0.25338E-02        -0.51477E-02         0.00000E+00
    0.25669E-02        -0.52990E-02         0.00000E+00
    0.25986E-02        -0.54531E-02         0.00000E+00
    0.26288E-02        -0.56102E-02         0.00000E+00
    0.26574E-02        -0.57703E-02         0.00000E+00
    0.26841E-02        -0.59333E-02         0.00000E+00
    0.27088E-02        -0.60992E-02         0.00000E+00
    0.27312E-02        -0.62681E-02         0.00000E+00
    0.27511E-02        -0.64399E-02         0.00000E+00
    0.27682E-02        -0.66147E-02         0.00000E+00
    0.27823E-02        -0.67923E-02         0.00000E+00
    0.27930E-02        -0.69729E-02         0.00000E+00
    0.28001E-02        -0.71564E-02         0.00000E+00
    0.28032E-02        -0.73427E-02         0.00000E+00
    0.28020E-02        -0.75320E-02         0.00000E+00
    0.27961E-02        -0.77241E-02         0.00000E+00
    0.27850E-02        -0.79190E-02         0.00000E+00
    0.27685E-02        -0.81169E-02         0.00000E+00
    0.27460E-02        -0.83176E-02         0.00000E+00
    0.27170E-02        -0.85212E-02         0.00000E+00
    0.26812E-02        -0.87276E-02         0.00000E+00
    0.26380E-02        -0.89369E-02         0.00000E+00
    0.25870E-02        -0.91489E-02         0.00000E+00
    0.25275E-02        -0.93636E-02         0.00000E+00
    0.24592E-02        -0.95809E-02         0.00000E+00
    0.23814E-02        -0.98003E-02         0.00000E+00
    0.22936E-02        -0.10022E-01         0.00000E+00
    0.21953E-02        -0.10244E-01         0.00000E+00
    0.20857E-02        -0.10467E-01         0.00000E+00
    0.19641E-02        -0.10688E-01         0.00000E+00
    0.18295E-02        -0.10907E-01         0.00000E+00
    0.16808E-02        -0.11120E-01         0.00000E+00
    0.15163E-02        -0.11324E-01         0.00000E+00
    0.13337E-02        -0.11514E-01         0.00000E+00
    0.11299E-02        -0.11686E-01         0.00000E+00
    0.90080E-03        -0.11832E-01         0.00000E+00
    0.64074E-03        -0.11944E-01         0.00000E+00
    0.34302E-03        -0.12015E-01         0.00000E+00
    0.00000E+00        -0.12039E-01         0.00000E+00
    0.00000E+00        -0.12519E-03         0.00000E+00
    0.92833E-04        -0.13080E-03         0.00000E+00
    0.17597E-03        -0.14718E-03         0.00000E+00
    0.25117E-03        -0.17309E-03         0.00000E+00
    0.31994E-03        -0.20692E-03         0.00000E+00
    0.38353E-03        -0.24699E-03         0.00000E+00
    0.44289E-03        -0.29182E-03         0.00000E+00
    0.49874E-03        -0.34021E-03         0.00000E+00
    0.55163E-03        -0.39120E-03         0.00000E+00
    0.60196E-03        -0.44412E-03         0.00000E+00
    0.65005E-03        -0.49848E-03         0.00000E+00
    0.69616E-03        -0.55393E-03         0.00000E+00
    0.74050E-03        -0.61026E-03         0.00000E+00
    0.78326E-03        -0.66734E-03         0.00000E+00
    0.82461E-03        -0.72513E-03         0.00000E+00
    0.86471E-03        -0.78359E-03         0.00000E+00
    0.90370E-03        -0.84275E-03         0.00000E+00
    0.94173E-03        -0.90267E-03         0.00000E+00
    0.97891E-03        -0.96338E-03         0.00000E+00
    0.10154E-02        -0.10250E-02         0.00000E+00
    0.10513E-02        -0.10875E-02         0.00000E+00
    0.10867E-02        -0.11510E-02         0.00000E+00
    0.11217E-02        -0.12156E-02         0.00000E+00
    0.11565E-02        -0.12814E-02         0.00000E+00
    0.11910E-02        -0.13485E-02         0.00000E+00
    0.12255E-02        -0.14168E-02         0.00000E+00
    0.12600E-02        -0.14865E-02         0.00000E+00
    0.12945E-02        -0.15576E-02         0.00000E+00
    0.13291E-02        -0.16303E-02         0.00000E+00
    0.13638E-02        -0.17045E-02         0.00000E+00
    0.13988E-02        -0.17803E-02         0.00000E+00
    0.14340E-02        -0.18578E-02         0.00000E+00
    0.14696E-02        -0.19371E-02         0.00000E+00
    0.15054E-02        -0.20182E-02         0.00000E+00
    0.15416E-02        -0.21012E-02         0.00000E+00
    0.15781E-02        -0.21861E-02         0.00000E+00
    0.16151E-02        -0.22730E-02         0.00000E+00
    0.16524E-02        -0.23619E-02         0.00000E+00
    0.16901E-02        -0.24529E-02         0.00000E+00
    0.17282E-02        -0.25461E-02         0.00000E+00
    0.17667E-02        -0.26415E-02         0.00000E+00
    0.18056E-02        -0.27391E-02         0.00000E+00
    0.18448E-02        -0.28391E-02         0.00000E+00
    0.18844E-02        -0.29414E-02         0.00000E+00
    0.19243E-02        -0.30462E-02         0.00000E+00
    0.19645E-02        -0.31534E-02         0.00000E+00
    0.20049E-02        -0.32632E-02         0.00000E+00
    0.20456E-02        -0.33755E-02         0.00000E+00
    0.20865E-02        -0.34904E-02         0.00000E+00
    0.21274E-02        -0.36080E-02         0.00000E+00
    0.21685E-02        -0.37282E-02         0.00000E+00
    0.22096E-02        -0.38513E-02         0.00000E+00
    0.22506E-02        -0.39770E-02         0.00000E+00
    0.22915E-02        -0.41057E-02         0.00000E+00
    0.23323E-02        -0.42371E-02         0.00000E+00
    0.23728E-02        -0.43715E-02         0.00000E+00
    0.24129E-02        -0.45087E-02         0.00000E+00
    0.24525E-02        -0.46490E-02         0.00000E+00
    0.24916E-02        -0.47921E-02         0.00000E+00
    0.25300E-02        -0.49383E-02         0.00000E+00
    0.25677E-02        -0.50875E-02         0.00000E+00
    0.26044E-02        -0.52398E-02         0.00000E+00
    0.26401E-02        -0.53950E-02         0.00000E+00
    0.26745E-02        -0.55534E-02         0.00000E+00
    0.27076E-02        -0.57148E-02         0.00000E+00
    0.27392E-02        -0.58792E-02         0.00000E+00
    0.27690E-02        -0.60468E-02         0.00000E+00
    0.27969E-02        -0.62174E-02         0.00000E+00
    0.28227E-02        -0.63911E-02         0.00000E+00
    0.28461E-02        -0.65679E-02         0.00000E+00
    0.28669E-02        -0.67477E-02         0.00000E+00
    0.28848E-02        -0.69306E-02         0.00000E+00
    0.28996E-02        -0.71165E-02         0.00000E+00
    0.29109E-02        -0.73054E-02         0.00000E+00
    0.29184E-02        -0.74973E-02         0.00000E+00
    0.29217E-02        -0.76922E-02         0.00000E+00
    0.29206E-02        -0.78902E-02         0.00000E+00
    0.29146E-02        -0.80911E-02         0.00000E+00
    0.29032E-02        -0.82949E-02         0.00000E+00
    0.28861E-02        -0.85018E-02         0.00000E+00
    0.28628E-02        -0.87116E-02         0.00000E+00
    0.28328E-02        -0.89244E-02         0.00000E+00
    0.27956E-02        -0.91402E-02         0.00000E+00
    0.27507E-02        -0.93588E-02         0.00000E+00
    0.26976E-02        -0.95804E-02         0.00000E+00
    0.26357E-02        -0.98047E-02         0.00000E+00
    0.25644E-02        -0.10032E-01         0.00000E+00
    0.24832E-02        -0.10261E-01         0.00000E+00
    0.23915E-02        -0.10492E-01         0.00000E+00
    0.22886E-02        -0.10724E-01         0.00000E+00
    0.21738E-02        -0.10956E-01         0.00000E+00
    0.20463E-02        -0.11188E-01         0.00000E+00
    0.19050E-02        -0.11416E-01         0.00000E+00
    0.17489E-02        -0.11638E-01         0.00000E+00
    0.15762E-02        -0.11851E-01         0.00000E+00
    0.13846E-02        -0.12050E-01         0.00000E+00
    0.11713E-02        -0.12229E-01         0.00000E+00
    0.93207E-03        -0.12380E-01         0.00000E+00
    0.66166E-03        -0.12497E-01         0.00000E+00
    0.35349E-03        -0.12571E-01         0.00000E+00
    0.00000E+00        -0.12596E-01         0.00000E+00
    0.00000E+00        -0.13557E-03         0.00000E+00
    0.95706E-04        -0.14141E-03         0.00000E+00
    0.18172E-03        -0.15845E-03         0.00000E+00
    0.25979E-03        -0.18543E-03         0.00000E+00
    0.33139E-03        -0.22065E-03         0.00000E+00
    0.39773E-03        -0.26239E-03         0.00000E+00
    0.45971E-03        -0.30910E-03         0.00000E+00
    0.51806E-03        -0.35952E-03         0.00000E+00
    0.57329E-03        -0.41267E-03         0.00000E+00
    0.62582E-03        -0.46783E-03         0.00000E+00
    0.67598E-03        -0.52451E-03         0.00000E+00
    0.72403E-03        -0.58234E-03         0.00000E+00
    0.77021E-03        -0.64109E-03         0.00000E+00
    0.81471E-03        -0.70066E-03         0.00000E+00
    0.85772E-03        -0.76095E-03         0.00000E+00
    0.89941E-03        -0.82198E-03         0.00000E+00
    0.93993E-03        -0.88374E-03         0.00000E+00
    0.97943E-03        -0.94630E-03         0.00000E+00
    0.10181E-02        -0.10097E-02         0.00000E+00
    0.10559E-02        -0.10740E-02         0.00000E+00
    0.10932E-02        -0.11394E-02         0.00000E+00
    0.11300E-02        -0.12057E-02         0.00000E+00
    0.11664E-02        -0.12733E-02         0.00000E+00
    0.12025E-02        -0.13420E-02         0.00000E+00
    0.12384E-02        -0.14121E-02         0.00000E+00
    0.12742E-02        -0.14835E-02         0.00000E+00
    0.13099E-02        -0.15564E-02         0.00000E+00
    0.13458E-02        -0.16307E-02         0.00000E+00
    0.13817E-02        -0.17067E-02         0.00000E+00
    0.14179E-02        -0.17843E-02         0.00000E+00
    0.14542E-02        -0.18636E-02         0.00000E+00
    0.14908E-02        -0.19446E-02         0.00000E+00
    0.15277E-02        -0.20275E-02         0.00000E+00
    0.15650E-02        -0.21123E-02         0.00000E+00
    0.16026E-02        -0.21991E-02         0.00000E+00
    0.16406E-02        -0.22879E-02         0.00000E+00
    0.16790E-02        -0.23787E-02         0.00000E+00
    0.17178E-02        -0.24717E-02         0.00000E+00
    0.17570E-02        -0.25669E-02         0.00000E+00
    0.17966E-02        -0.26643E-02         0.00000E+00
    0.18366E-02        -0.27641E-02         0.00000E+00
    0.18770E-02        -0.28662E-02         0.00000E+00
    0.19178E-02        -0.29707E-02         0.00000E+00
    0.19590E-02        -0.30778E-02         0.00000E+00
    0.20005E-02        -0.31873E-02         0.00000E+00
    0.20423E-02        -0.32994E-02         0.00000E+00
    0.20843E-02        -0.34142E-02         0.00000E+00
    0.21266E-02        -0.35316E-02         0.00000E+00
    0.21691E-02        -0.36517E-02         0.00000E+00
    0.22117E-02        -0.37746E-02         0.00000E+00
    0.22544E-02        -0.39004E-02         0.00000E+00
    0.22971E-02        -0.40290E-02         0.00000E+00
    0.23398E-02        -0.41605E-02         0.00000E+00
    0.23824E-02        -0.42949E-02         0.00000E+00
    0.24248E-02        -0.44324E-02         0.00000E+00
    0.24669E-02        -0.45728E-02         0.00000E+00
    0.25086E-02        -0.47163E-02         0.00000E+00
    0.25498E-02        -0.48628E-02         0.00000E+00
    0.25905E-02        -0.50125E-02         0.00000E+00
    0.26305E-02        -0.51652E-02         0.00000E+00
    0.26697E-02        -0.53212E-02         0.00000E+00
    0.27079E-02        -0.54802E-02         0.00000E+00
    0.27450E-02        -0.56425E-02         0.00000E+00
    0.27809E-02        -0.58079E-02         0.00000E+00
    0.28154E-02        -0.59766E-02         0.00000E+00
    0.28482E-02        -0.61484E-02         0.00000E+00
    0.28793E-02        -0.63235E-02         0.00000E+00
    0.29084E-02        -0.65017E-02         0.00000E+00
    0.29353E-02        -0.66831E-02         0.00000E+00
    0.29597E-02        -0.68678E-02         0.00000E+00
    0.29814E-02        -0.70556E-02         0.00000E+00
    0.30001E-02        -0.72465E-02         0.00000E+00
    0.30156E-02        -0.74406E-02         0.00000E+00
    0.30274E-02        -0.76379E-02         0.00000E+00
    0.30354E-02        -0.78383E-02         0.00000E+00
    0.30390E-02        -0.80418E-02         0.00000E+00
    0.30380E-02        -0.82483E-02         0.00000E+00
    0.30318E-02        -0.84580E-02         0.00000E+00
    0.30202E-02        -0.86708E-02         0.00000E+00
    0.30026E-02        -0.88866E-02         0.00000E+00
    0.29785E-02        -0.91055E-02         0.00000E+00
    0.29475E-02        -0.93274E-02         0.00000E+00
    0.29090E-02        -0.95525E-02         0.00000E+00
    0.28624E-02        -0.97805E-02         0.00000E+00
    0.28073E-02        -0.10011E-01         0.00000E+00
    0.27429E-02        -0.10245E-01         0.00000E+00
    0.26688E-02        -0.10482E-01         0.00000E+00
    0.25842E-02        -0.10721E-01         0.00000E+00
    0.24886E-02        -0.10961E-01         0.00000E+00
    0.23812E-02        -0.11203E-01         0.00000E+00
    0.22612E-02        -0.11445E-01         0.00000E+00
    0.21278E-02        -0.11686E-01         0.00000E+00
    0.19800E-02        -0.11924E-01         0.00000E+00
    0.18164E-02        -0.12155E-01         0.00000E+00
    0.16355E-02        -0.12377E-01         0.00000E+00
    0.14351E-02        -0.12584E-01         0.00000E+00
    0.12122E-02        -0.12770E-01         0.00000E+00
    0.96295E-03        -0.12928E-01         0.00000E+00
    0.68229E-03        -0.13049E-01         0.00000E+00
    0.36380E-03        -0.13126E-01         0.00000E+00
    0.00000E+00        -0.13153E-01         0.00000E+00
    0.00000E+00        -0.14622E-03         0.00000E+00
    0.98539E-04        -0.15229E-03         0.00000E+00
    0.18740E-03        -0.17001E-03         0.00000E+00
    0.26831E-03        -0.19807E-03         0.00000E+00
    0.34272E-03        -0.23471E-03         0.00000E+00
    0.41177E-03        -0.27812E-03         0.00000E+00
    0.47637E-03        -0.32670E-03         0.00000E+00
    0.53719E-03        -0.37914E-03         0.00000E+00
    0.59474E-03        -0.43443E-03         0.00000E+00
    0.64946E-03        -0.49183E-03         0.00000E+00
    0.70166E-03        -0.55081E-03         0.00000E+00
    0.75164E-03        -0.61100E-03         0.00000E+00
    0.79963E-03        -0.67218E-03         0.00000E+00
    0.84585E-03        -0.73420E-03         0.00000E+00
    0.89049E-03        -0.79700E-03         0.00000E+00
    0.93374E-03        -0.86057E-03         0.00000E+00
    0.97576E-03        -0.92494E-03         0.00000E+00
    0.10167E-02        -0.99014E-03         0.00000E+00
    0.10568E-02        -0.10562E-02         0.00000E+00
    0.10960E-02        -0.11233E-02         0.00000E+00
    0.11346E-02        -0.11914E-02         0.00000E+00
    0.11727E-02        -0.12606E-02         0.00000E+00
    0.12105E-02        -0.13311E-02         0.00000E+00
    0.12479E-02        -0.14028E-02         0.00000E+00
    0.12851E-02        -0.14759E-02         0.00000E+00
    0.13222E-02        -0.15504E-02         0.00000E+00
    0.13593E-02        -0.16264E-02         0.00000E+00
    0.13964E-02        -0.17040E-02         0.00000E+00
    0.14337E-02        -0.17833E-02         0.00000E+00
    0.14712E-02        -0.18643E-02         0.00000E+00
    0.15089E-02        -0.19470E-02         0.00000E+00
    0.15468E-02        -0.20316E-02         0.00000E+00
    0.15851E-02        -0.21181E-02         0.00000E+00
    0.16238E-02        -0.22067E-02         0.00000E+00
    0.16628E-02        -0.22972E-02         0.00000E+00
    0.17022E-02        -0.23899E-02         0.00000E+00
    0.17420E-02        -0.24847E-02         0.00000E+00
    0.17823E-02        -0.25818E-02         0.00000E+00
    0.18230E-02        -0.26811E-02         0.00000E+00
    0.18641E-02        -0.27828E-02         0.00000E+00
    0.19056E-02        -0.28869E-02         0.00000E+00
    0.19475E-02        -0.29935E-02         0.00000E+00
    0.19899E-02        -0.31026E-02         0.00000E+00
    0.20326E-02        -0.32143E-02         0.00000E+00
    0.20756E-02        -0.33286E-02         0.00000E+00
    0.21190E-02        -0.34456E-02         0.00000E+00
    0.21627E-02        -0.35653E-02         0.00000E+00
    0.22066E-02        -0.36879E-02         0.00000E+00
    0.22507E-02        -0.38133E-02         0.00000E+00
    0.22949E-02        -0.39415E-02         0.00000E+00
    0.23392E-02        -0.40727E-02         0.00000E+00
    0.23836E-02        -0.42069E-02         0.00000E+00
    0.24279E-02        -0.43441E-02         0.00000E+00
    0.24721E-02        -0.44844E-02         0.00000E+00
    0.25161E-02        -0.46278E-02         0.00000E+00
    0.25598E-02        -0.47743E-02         0.00000E+00
    0.26031E-02        -0.49240E-02         0.00000E+00
    0.26459E-02        -0.50769E-02         0.00000E+00
    0.26882E-02        -0.52330E-02         0.00000E+00
    0.27297E-02        -0.53924E-02         0.00000E+00
    0.27704E-02        -0.55550E-02         0.00000E+00
    0.28101E-02        -0.57209E-02         0.00000E+00
    0.28487E-02        -0.58901E-02         0.00000E+00
    0.28860E-02        -0.60627E-02         0.00000E+00
    0.29218E-02        -0.62385E-02         0.00000E+00
    0.29560E-02        -0.64177E-02         0.00000E+00
    0.29883E-02        -0.66003E-02         0.00000E+00
    0.30185E-02        -0.67861E-02         0.00000E+00
    0.30465E-02        -0.69753E-02         0.00000E+00
    0.30719E-02        -0.71677E-02         0.00000E+00
    0.30946E-02        -0.73635E-02         0.00000E+00
    0.31141E-02        -0.75625E-02         0.00000E+00
    0.31303E-02        -0.77649E-02         0.00000E+00
    0.31427E-02        -0.79704E-02         0.00000E+00
    0.31511E-02        -0.81792E-02         0.00000E+00
    0.31550E-02        -0.83913E-02         0.00000E+00
    0.31541E-02        -0.86065E-02         0.00000E+00
    0.31479E-02        -0.88249E-02         0.00000E+00
    0.31360E-02        -0.90465E-02         0.00000E+00
    0.31180E-02        -0.92713E-02         0.00000E+00
    0.30932E-02        -0.94992E-02         0.00000E+00
    0.30612E-02        -0.97303E-02         0.00000E+00
    0.30214E-02        -0.99645E-02         0.00000E+00
    0.29732E-02        -0.10202E-01         0.00000E+00
    0.29161E-02        -0.10442E-01         0.00000E+00
    0.28494E-02        -0.10685E-01         0.00000E+00
    0.27724E-02        -0.10931E-01         0.00000E+00
    0.26845E-02        -0.11180E-01         0.00000E+00
    0.25850E-02        -0.11430E-01         0.00000E+00
    0.24732E-02        -0.11682E-01         0.00000E+00
    0.23481E-02        -0.11933E-01         0.00000E+00
    0.22089E-02        -0.12184E-01         0.00000E+00
    0.20545E-02        -0.12431E-01         0.00000E+00
    0.18835E-02        -0.12671E-01         0.00000E+00
    0.16944E-02        -0.12902E-01         0.00000E+00
    0.14851E-02        -0.13117E-01         0.00000E+00
    0.12527E-02        -0.13310E-01         0.00000E+00
    0.99351E-03        -0.13474E-01         0.00000E+00
    0.70268E-03        -0.13601E-01         0.00000E+00
    0.37398E-03        -0.13681E-01         0.00000E+00
    0.00000E+00        -0.13708E-01         0.00000E+00
    0.00000E+00        -0.15713E-03         0.00000E+00
    0.10134E-03        -0.16344E-03         0.00000E+00
    0.19301E-03        -0.18187E-03         0.00000E+00
    0.27673E-03        -0.21102E-03         0.00000E+00
    0.35392E-03        -0.24908E-03         0.00000E+00
    0.42569E-03        -0.29417E-03         0.00000E+00
    0.49288E-03        -0.34462E-03         0.00000E+00
    0.55615E-03        -0.39907E-03         0.00000E+00
    0.61601E-03        -0.45650E-03         0.00000E+00
    0.67288E-03        -0.51611E-03         0.00000E+00
    0.72711E-03        -0.57738E-03         0.00000E+00
    0.77898E-03        -0.63992E-03         0.00000E+00
    0.82876E-03        -0.70350E-03         0.00000E+00
    0.87667E-03        -0.76797E-03         0.00000E+00
    0.92291E-03        -0.83327E-03         0.00000E+00
    0.96770E-03        -0.89938E-03         0.00000E+00
    0.10112E-02        -0.96633E-03         0.00000E+00
    0.10536E-02        -0.10342E-02         0.00000E+00
    0.10950E-02        -0.11029E-02         0.00000E+00
    0.11356E-02        -0.11727E-02         0.00000E+00
    0.11756E-02        -0.12436E-02         0.00000E+00
    0.12150E-02        -0.13157E-02         0.00000E+00
    0.12540E-02        -0.13891E-02         0.00000E+00
    0.12927E-02        -0.14637E-02         0.00000E+00
    0.13312E-02        -0.15399E-02         0.00000E+00
    0.13696E-02        -0.16175E-02         0.00000E+00
    0.14080E-02        -0.16966E-02         0.00000E+00
    0.14465E-02        -0.17775E-02         0.00000E+00
    0.14850E-02        -0.18600E-02         0.00000E+00
    0.15238E-02        -0.19444E-02         0.00000E+00
    0.15628E-02        -0.20306E-02         0.00000E+00
    0.16021E-02        -0.21188E-02         0.00000E+00
    0.16418E-02        -0.22089E-02         0.00000E+00
    0.16818E-02        -0.23011E-02         0.00000E+00
    0.17222E-02        -0.23955E-02         0.00000E+00
    0.17630E-02        -0.24920E-02         0.00000E+00
    0.18043E-02        -0.25908E-02         0.00000E+00
    0.18459E-02        -0.26920E-02         0.00000E+00
    0.18881E-02        -0.27955E-02         0.00000E+00
    0.19307E-02        -0.29014E-02         0.00000E+00
    0.19737E-02        -0.30099E-02         0.00000E+00
    0.20171E-02        -0.31210E-02         0.00000E+00
    0.20610E-02        -0.32346E-02         0.00000E+00
    0.21052E-02        -0.33510E-02         0.00000E+00
    0.21498E-02        -0.34701E-02         0.00000E+00
    0.21947E-02        -0.35920E-02         0.00000E+00
    0.22400E-02        -0.37167E-02         0.00000E+00
    0.22855E-02        -0.38444E-02         0.00000E+00
    0.23311E-02        -0.39750E-02         0.00000E+00
    0.23770E-02        -0.41086E-02         0.00000E+00
    0.24229E-02        -0.42453E-02         0.00000E+00
    0.24689E-02        -0.43851E-02         0.00000E+00
    0.25148E-02        -0.45280E-02         0.00000E+00
    0.25606E-02        -0.46741E-02         0.00000E+00
    0.26062E-02        -0.48234E-02         0.00000E+00
    0.26515E-02        -0.49760E-02         0.00000E+00
    0.26964E-02        -0.51319E-02         0.00000E+00
    0.27408E-02        -0.52911E-02         0.00000E+00
    0.27846E-02        -0.54537E-02         0.00000E+00
    0.28277E-02        -0.56196E-02         0.00000E+00
    0.28699E-02        -0.57890E-02         0.00000E+00
    0.29111E-02        -0.59617E-02         0.00000E+00
    0.29511E-02        -0.61379E-02         0.00000E+00
    0.29898E-02        -0.63176E-02         0.00000E+00
    0.30269E-02        -0.65007E-02         0.00000E+00
    0.30624E-02        -0.66872E-02         0.00000E+00
    0.30960E-02        -0.68772E-02         0.00000E+00
    0.31274E-02        -0.70706E-02         0.00000E+00
    0.31565E-02        -0.72675E-02         0.00000E+00
    0.31829E-02        -0.74678E-02         0.00000E+00
    0.32065E-02        -0.76715E-02         0.00000E+00
    0.32268E-02        -0.78786E-02         0.00000E+00
    0.32437E-02        -0.80891E-02         0.00000E+00
    0.32567E-02        -0.83030E-02         0.00000E+00
    0.32655E-02        -0.85202E-02         0.00000E+00
    0.32698E-02        -0.87407E-02         0.00000E+00
    0.32690E-02        -0.89646E-02         0.00000E+00
    0.32628E-02        -0.91917E-02         0.00000E+00
    0.32507E-02        -0.94221E-02         0.00000E+00
    0.32322E-02        -0.96558E-02         0.00000E+00
    0.32067E-02        -0.98927E-02         0.00000E+00
    0.31738E-02        -0.10133E-01         0.00000E+00
    0.31328E-02        -0.10376E-01         0.00000E+00
    0.30830E-02        -0.10623E-01         0.00000E+00
    0.30240E-02        -0.10873E-01         0.00000E+00
    0.29550E-02        -0.11125E-01         0.00000E+00
    0.28753E-02        -0.11381E-01         0.00000E+00
    0.27842E-02        -0.11639E-01         0.00000E+00
    0.26809E-02        -0.11899E-01         0.00000E+00
    0.25646E-02        -0.12160E-01         0.00000E+00
    0.24345E-02        -0.12421E-01         0.00000E+00
    0.22895E-02        -0.12681E-01         0.00000E+00
    0.21285E-02        -0.12937E-01         0.00000E+00
    0.19502E-02        -0.13186E-01         0.00000E+00
    0.17530E-02        -0.13425E-01         0.00000E+00
    0.15348E-02        -0.13649E-01         0.00000E+00
    0.12929E-02        -0.13850E-01         0.00000E+00
    0.10238E-02        -0.14020E-01         0.00000E+00
    0.72287E-03        -0.14151E-01         0.00000E+00
    0.38405E-03        -0.14234E-01         0.00000E+00
    0.00000E+00        -0.14263E-01         0.00000E+00
    0.00000E+00        -0.16829E-03         0.00000E+00
    0.10410E-03        -0.17485E-03         0.00000E+00
    0.19856E-03        -0.19399E-03         0.00000E+00
    0.28508E-03        -0.22427E-03         0.00000E+00
    0.36503E-03        -0.26377E-03         0.00000E+00
    0.43949E-03        -0.31054E-03         0.00000E+00
    0.50925E-03        -0.36285E-03         0.00000E+00
    0.57495E-03        -0.41931E-03         0.00000E+00
    0.63710E-03        -0.47885E-03         0.00000E+00
    0.69611E-03        -0.54067E-03         0.00000E+00
    0.75233E-03        -0.60421E-03         0.00000E+00
    0.80608E-03        -0.66909E-03         0.00000E+00
    0.85761E-03        -0.73506E-03         0.00000E+00
    0.90718E-03        -0.80196E-03         0.00000E+00
    0.95501E-03        -0.86975E-03         0.00000E+00
    0.10013E-02        -0.93839E-03         0.00000E+00
    0.10462E-02        -0.10079E-02         0.00000E+00
    0.10900E-02        -0.10784E-02         0.00000E+00
    0.11328E-02        -0.11498E-02         0.00000E+00
    0.11748E-02        -0.12224E-02         0.00000E+00
    0.12160E-02        -0.12960E-02         0.00000E+00
    0.12567E-02        -0.13710E-02         0.00000E+00
    0.12970E-02        -0.14472E-02         0.00000E+00
    0.13370E-02        -0.15249E-02         0.00000E+00
    0.13768E-02        -0.16040E-02         0.00000E+00
    0.14164E-02        -0.16847E-02         0.00000E+00
    0.14561E-02        -0.17670E-02         0.00000E+00
    0.14958E-02        -0.18511E-02         0.00000E+00
    0.15357E-02        -0.19370E-02         0.00000E+00
    0.15757E-02        -0.20247E-02         0.00000E+00
    0.16161E-02        -0.21144E-02         0.00000E+00
    0.16567E-02        -0.22061E-02         0.00000E+00
    0.16977E-02        -0.22999E-02         0.00000E+00
    0.17390E-02        -0.23958E-02         0.00000E+00
    0.17808E-02        -0.24939E-02         0.00000E+00
    0.18230E-02        -0.25944E-02         0.00000E+00
    0.18656E-02        -0.26972E-02         0.00000E+00
    0.19087E-02        -0.28024E-02         0.00000E+00
    0.19523E-02        -0.29100E-02         0.00000E+00
    0.19963E-02        -0.30203E-02         0.00000E+00
    0.20408E-02        -0.31331E-02         0.00000E+00
    0.20857E-02        -0.32486E-02         0.00000E+00
    0.21311E-02        -0.33668E-02         0.00000E+00
    0.21769E-02        -0.34879E-02         0.00000E+00
    0.22230E-02        -0.36118E-02         0.00000E+00
    0.22695E-02        -0.37385E-02         0.00000E+00
    0.23163E-02        -0.38683E-02         0.00000E+00
    0.23633E-02        -0.40011E-02         0.00000E+00
    0.24106E-02        -0.41369E-02         0.00000E+00
    0.24580E-02        -0.42759E-02         0.00000E+00
    0.25055E-02        -0.44180E-02         0.00000E+00
    0.25531E-02        -0.45634E-02         0.00000E+00
    0.26006E-02        -0.47120E-02         0.00000E+00
    0.26480E-02        -0.48640E-02         0.00000E+00
    0.26952E-02        -0.50193E-02         0.00000E+00
    0.27420E-02        -0.51779E-02         0.00000E+00
    0.27885E-02        -0.53400E-02         0.00000E+00
    0.28345E-02        -0.55056E-02         0.00000E+00
    0.28798E-02        -0.56746E-02         0.00000E+00
    0.29244E-02        -0.58471E-02         0.00000E+00
    0.29681E-02        -0.60232E-02         0.00000E+00
    0.30108E-02        -0.62028E-02         0.00000E+00
    0.30522E-02        -0.63859E-02         0.00000E+00
    0.30923E-02        -0.65726E-02         0.00000E+00
    0.31308E-02        -0.67629E-02         0.00000E+00
    0.31675E-02        -0.69568E-02         0.00000E+00
    0.32023E-02        -0.71543E-02         0.00000E+00
    0.32349E-02        -0.73553E-02         0.00000E+00
    0.32651E-02        -0.75599E-02         0.00000E+00
    0.32926E-02        -0.77680E-02         0.00000E+00
    0.33170E-02        -0.79796E-02         0.00000E+00
    0.33382E-02        -0.81948E-02         0.00000E+00
    0.33558E-02        -0.84135E-02         0.00000E+00
    0.33695E-02        -0.86356E-02         0.00000E+00
    0.33788E-02        -0.88612E-02         0.00000E+00
    0.33833E-02        -0.90902E-02         0.00000E+00
    0.33827E-02        -0.93227E-02         0.00000E+00
    0.33765E-02        -0.95585E-02         0.00000E+00
    0.33642E-02        -0.97977E-02         0.00000E+00
    0.33453E-02        -0.10040E-01         0.00000E+00
    0.33192E-02        -0.10286E-01         0.00000E+00
    0.32854E-02        -0.10535E-01         0.00000E+00
    0.32432E-02        -0.10788E-01         0.00000E+00
    0.31920E-02        -0.11044E-01         0.00000E+00
    0.31311E-02        -0.11303E-01         0.00000E+00
    0.30598E-02        -0.11565E-01         0.00000E+00
    0.29774E-02        -0.11830E-01         0.00000E+00
    0.28831E-02        -0.12097E-01         0.00000E+00
    0.27761E-02        -0.12366E-01         0.00000E+00
    0.26555E-02        -0.12637E-01         0.00000E+00
    0.25204E-02        -0.12907E-01         0.00000E+00
    0.23696E-02        -0.13177E-01         0.00000E+00
    0.22022E-02        -0.13442E-01         0.00000E+00
    0.20166E-02        -0.13700E-01         0.00000E+00
    0.18113E-02        -0.13948E-01         0.00000E+00
    0.15842E-02        -0.14179E-01         0.00000E+00
    0.13329E-02        -0.14388E-01         0.00000E+00
    0.10539E-02        -0.14564E-01         0.00000E+00
    0.74292E-03        -0.14701E-01         0.00000E+00
    0.39405E-03        -0.14787E-01         0.00000E+00
    0.00000E+00        -0.14816E-01         0.00000E+00
    0.00000E+00        -0.17968E-03         0.00000E+00
    0.10685E-03        -0.18651E-03         0.00000E+00
    0.20407E-03        -0.20639E-03         0.00000E+00
    0.29336E-03        -0.23781E-03         0.00000E+00
    0.37606E-03        -0.27877E-03         0.00000E+00
    0.45319E-03        -0.32722E-03         0.00000E+00
    0.52550E-03        -0.38139E-03         0.00000E+00
    0.59362E-03        -0.43985E-03         0.00000E+00
    0.65803E-03        -0.50150E-03         0.00000E+00
    0.71915E-03        -0.56551E-03         0.00000E+00
    0.77734E-03        -0.63131E-03         0.00000E+00
    0.83293E-03        -0.69850E-03         0.00000E+00
    0.88619E-03        -0.76684E-03         0.00000E+00
    0.93739E-03        -0.83618E-03         0.00000E+00
    0.98677E-03        -0.90643E-03         0.00000E+00
    0.10345E-02        -0.97760E-03         0.00000E+00
    0.10809E-02        -0.10497E-02         0.00000E+00
    0.11260E-02        -0.11228E-02         0.00000E+00
    0.11702E-02        -0.11969E-02         0.00000E+00
    0.12134E-02        -0.12721E-02         0.00000E+00
    0.12560E-02        -0.13486E-02         0.00000E+00
    0.12979E-02        -0.14264E-02         0.00000E+00
    0.13395E-02        -0.15055E-02         0.00000E+00
    0.13807E-02        -0.15861E-02         0.00000E+00
    0.14217E-02        -0.16683E-02         0.00000E+00
    0.14626E-02        -0.17521E-02         0.00000E+00
    0.15035E-02        -0.18376E-02         0.00000E+00
    0.15445E-02        -0.19249E-02         0.00000E+00
    0.15856E-02        -0.20141E-02         0.00000E+00
    0.16270E-02        -0.21052E-02         0.00000E+00
    0.16686E-02        -0.21983E-02         0.00000E+00
    0.17105E-02        -0.22936E-02         0.00000E+00
    0.17528E-02        -0.23910E-02         0.00000E+00
    0.17955E-02        -0.24906E-02         0.00000E+00
    0.18386E-02        -0.25926E-02         0.00000E+00
    0.18821E-02        -0.26969E-02         0.00000E+00
    0.19262E-02        -0.28036E-02         0.00000E+00
    0.19707E-02        -0.29129E-02         0.00000E+00
    0.20157E-02        -0.30248E-02         0.00000E+00
    0.20611E-02        -0.31393E-02         0.00000E+00
    0.21070E-02        -0.32565E-02         0.00000E+00
    0.21534E-02        -0.33764E-02         0.00000E+00
    0.22003E-02        -0.34992E-02         0.00000E+00
    0.22475E-02        -0.36250E-02         0.00000E+00
    0.22952E-02        -0.37536E-02         0.00000E+00
    0.23432E-02        -0.38853E-02         0.00000E+00
    0.23915E-02        -0.40201E-02         0.00000E+00
    0.24401E-02        -0.41580E-02         0.00000E+00
    0.24889E-02        -0.42990E-02         0.00000E+00
    0.25379E-02        -0.44434E-02         0.00000E+00
    0.25870E-02        -0.45910E-02         0.00000E+00
    0.26361E-02        -0.47419E-02         0.00000E+00
    0.26852E-02        -0.48963E-02         0.00000E+00
    0.27342E-02        -0.50540E-02         0.00000E+00
    0.27830E-02        -0.52153E-02         0.00000E+00
    0.28314E-02        -0.53800E-02         0.00000E+00
    0.28794E-02        -0.55483E-02         0.00000E+00
    0.29270E-02        -0.57202E-02         0.00000E+00
    0.29738E-02        -0.58956E-02         0.00000E+00
    0.30199E-02        -0.60747E-02         0.00000E+00
    0.30651E-02        -0.62575E-02         0.00000E+00
    0.31092E-02        -0.64439E-02         0.00000E+00
    0.31520E-02        -0.66340E-02         0.00000E+00
    0.31935E-02        -0.68278E-02         0.00000E+00
    0.32333E-02        -0.70253E-02         0.00000E+00
    0.32714E-02        -0.72265E-02         0.00000E+00
    0.33074E-02        -0.74314E-02         0.00000E+00
    0.33412E-02        -0.76400E-02         0.00000E+00
    0.33724E-02        -0.78523E-02         0.00000E+00
    0.34009E-02        -0.80683E-02         0.00000E+00
    0.34263E-02        -0.82878E-02         0.00000E+00
    0.34484E-02        -0.85111E-02         0.00000E+00
    0.34667E-02        -0.87379E-02         0.00000E+00
    0.34809E-02        -0.89683E-02         0.00000E+00
    0.34907E-02        -0.92022E-02         0.00000E+00
    0.34957E-02        -0.94397E-02         0.00000E+00
    0.34953E-02        -0.96807E-02         0.00000E+00
    0.34891E-02        -0.99252E-02         0.00000E+00
    0.34766E-02        -0.10173E-01         0.00000E+00
    0.34574E-02        -0.10425E-01         0.00000E+00
    0.34307E-02        -0.10679E-01         0.00000E+00
    0.33960E-02        -0.10938E-01         0.00000E+00
    0.33527E-02        -0.11199E-01         0.00000E+00
    0.33000E-02        -0.11464E-01         0.00000E+00
    0.32374E-02        -0.11732E-01         0.00000E+00
    0.31639E-02        -0.12004E-01         0.00000E+00
    0.30789E-02        -0.12278E-01         0.00000E+00
    0.29815E-02        -0.12555E-01         0.00000E+00
    0.28708E-02        -0.12833E-01         0.00000E+00
    0.27460E-02        -0.13113E-01         0.00000E+00
    0.26059E-02        -0.13393E-01         0.00000E+00
    0.24495E-02        -0.13672E-01         0.00000E+00
    0.22756E-02        -0.13946E-01         0.00000E+00
    0.20828E-02        -0.14214E-01         0.00000E+00
    0.18694E-02        -0.14470E-01         0.00000E+00
    0.16335E-02        -0.14709E-01         0.00000E+00
    0.13727E-02        -0.14925E-01         0.00000E+00
    0.10839E-02        -0.15108E-01         0.00000E+00
    0.76285E-03        -0.15249E-01         0.00000E+00
    0.40398E-03        -0.15339E-01         0.00000E+00
    0.00000E+00        -0.15369E-01         0.00000E+00
    0.00000E+00        -0.19131E-03         0.00000E+00
    0.10957E-03        -0.19840E-03         0.00000E+00
    0.20953E-03        -0.21905E-03         0.00000E+00
    0.30158E-03        -0.25164E-03         0.00000E+00
    0.38702E-03        -0.29406E-03         0.00000E+00
    0.46681E-03        -0.34421E-03         0.00000E+00
    0.54166E-03        -0.40024E-03         0.00000E+00
    0.61216E-03        -0.46069E-03         0.00000E+00
    0.67881E-03        -0.52442E-03         0.00000E+00
    0.74201E-03        -0.59061E-03         0.00000E+00
    0.80215E-03        -0.65865E-03         0.00000E+00
    0.85955E-03        -0.72816E-03         0.00000E+00
    0.91451E-03        -0.79886E-03         0.00000E+00
    0.96731E-03        -0.87060E-03         0.00000E+00
    0.10182E-02        -0.94332E-03         0.00000E+00
    0.10674E-02        -0.10170E-02         0.00000E+00
    0.11152E-02        -0.10917E-02         0.00000E+00
    0.11617E-02        -0.11673E-02         0.00000E+00
    0.12071E-02        -0.12441E-02         0.00000E+00
    0.12516E-02        -0.13221E-02         0.00000E+00
    0.12954E-02        -0.14013E-02         0.00000E+00
    0.13386E-02        -0.14819E-02         0.00000E+00
    0.13814E-02        -0.15640E-02         0.00000E+00
    0.14238E-02        -0.16475E-02         0.00000E+00
    0.14660E-02        -0.17327E-02         0.00000E+00
    0.15082E-02        -0.18196E-02         0.00000E+00
    0.15503E-02        -0.19083E-02         0.00000E+00
    0.15925E-02        -0.19988E-02         0.00000E+00
    0.16349E-02        -0.20913E-02         0.00000E+00
    0.16775E-02        -0.21858E-02         0.00000E+00
    0.17203E-02        -0.22824E-02         0.00000E+00
    0.17636E-02        -0.23812E-02         0.00000E+00
    0.18071E-02        -0.24823E-02         0.00000E+00
    0.18511E-02        -0.25856E-02         0.00000E+00
    0.18956E-02        -0.26914E-02         0.00000E+00
    0.19405E-02        -0.27996E-02         0.00000E+00
    0.19859E-02        -0.29103E-02         0.00000E+00
    0.20317E-02        -0.30237E-02         0.00000E+00
    0.20781E-02        -0.31397E-02         0.00000E+00
    0.21250E-02        -0.32584E-02         0.00000E+00
    0.21724E-02        -0.33800E-02         0.00000E+00
    0.22202E-02        -0.35044E-02         0.00000E+00
    0.22685E-02        -0.36318E-02         0.00000E+00
    0.23172E-02        -0.37622E-02         0.00000E+00
    0.23664E-02        -0.38957E-02         0.00000E+00
    0.24159E-02        -0.40322E-02         0.00000E+00
    0.24657E-02        -0.41720E-02         0.00000E+00
    0.25158E-02        -0.43150E-02         0.00000E+00
    0.25662E-02        -0.44613E-02         0.00000E+00
    0.26167E-02        -0.46110E-02         0.00000E+00
    0.26674E-02        -0.47641E-02         0.00000E+00
    0.27181E-02        -0.49206E-02         0.00000E+00
    0.27687E-02        -0.50807E-02         0.00000E+00
    0.28193E-02        -0.52443E-02         0.00000E+00
    0.28696E-02        -0.54115E-02         0.00000E+00
    0.29196E-02        -0.55823E-02         0.00000E+00
    0.29692E-02        -0.57568E-02         0.00000E+00
    0.30182E-02        -0.59350E-02         0.00000E+00
    0.30666E-02        -0.61169E-02         0.00000E+00
    0.31142E-02        -0.63026E-02         0.00000E+00
    0.31608E-02        -0.64920E-02         0.00000E+00
    0.32063E-02        -0.66853E-02         0.00000E+00
    0.32506E-02        -0.68823E-02         0.00000E+00
    0.32934E-02        -0.70832E-02         0.00000E+00
    0.33346E-02        -0.72879E-02         0.00000E+00
    0.33739E-02        -0.74964E-02         0.00000E+00
    0.34112E-02        -0.77088E-02         0.00000E+00
    0.34461E-02        -0.79249E-02         0.00000E+00
    0.34785E-02        -0.81449E-02         0.00000E+00
    0.35080E-02        -0.83686E-02         0.00000E+00
    0.35343E-02        -0.85961E-02         0.00000E+00
    0.35572E-02        -0.88274E-02         0.00000E+00
    0.35763E-02        -0.90623E-02         0.00000E+00
    0.35912E-02        -0.93010E-02         0.00000E+00
    0.36015E-02        -0.95433E-02         0.00000E+00
    0.36068E-02        -0.97892E-02         0.00000E+00
    0.36066E-02        -0.10039E-01         0.00000E+00
    0.36005E-02        -0.10292E-01         0.00000E+00
    0.35879E-02        -0.10549E-01         0.00000E+00
    0.35683E-02        -0.10809E-01         0.00000E+00
    0.35411E-02        -0.11073E-01         0.00000E+00
    0.35057E-02        -0.11340E-01         0.00000E+00
    0.34613E-02        -0.11610E-01         0.00000E+00
    0.34073E-02        -0.11885E-01         0.00000E+00
    0.33429E-02        -0.12162E-01         0.00000E+00
    0.32673E-02        -0.12442E-01         0.00000E+00
    0.31798E-02        -0.12726E-01         0.00000E+00
    0.30793E-02        -0.13012E-01         0.00000E+00
    0.29651E-02        -0.13300E-01         0.00000E+00
    0.28360E-02        -0.13589E-01         0.00000E+00
    0.26911E-02        -0.13879E-01         0.00000E+00
    0.25291E-02        -0.14166E-01         0.00000E+00
    0.23488E-02        -0.14450E-01         0.00000E+00
    0.21488E-02        -0.14726E-01         0.00000E+00
    0.19274E-02        -0.14991E-01         0.00000E+00
    0.16827E-02        -0.15238E-01         0.00000E+00
    0.14125E-02        -0.15461E-01         0.00000E+00
    0.11138E-02        -0.15651E-01         0.00000E+00
    0.78274E-03        -0.15797E-01         0.00000E+00
    0.41387E-03        -0.15890E-01         0.00000E+00
    0.00000E+00        -0.15922E-01         0.00000E+00
    0.00000E+00        -0.20316E-03         0.00000E+00
    0.11227E-03        -0.21053E-03         0.00000E+00
    0.21497E-03        -0.23197E-03         0.00000E+00
    0.30977E-03        -0.26575E-03         0.00000E+00
    0.39793E-03        -0.30966E-03         0.00000E+00
    0.48036E-03        -0.36150E-03         0.00000E+00
    0.55773E-03        -0.41939E-03         0.00000E+00
    0.63060E-03        -0.48182E-03         0.00000E+00
    0.69945E-03        -0.54763E-03         0.00000E+00
    0.76471E-03        -0.61597E-03         0.00000E+00
    0.82676E-03        -0.68625E-03         0.00000E+00
    0.88594E-03        -0.75805E-03         0.00000E+00
    0.94257E-03        -0.83109E-03         0.00000E+00
    0.99694E-03        -0.90524E-03         0.00000E+00
    0.10493E-02        -0.98041E-03         0.00000E+00
    0.10999E-02        -0.10566E-02         0.00000E+00
    0.11491E-02        -0.11338E-02         0.00000E+00
    0.11969E-02        -0.12121E-02         0.00000E+00
    0.12436E-02        -0.12915E-02         0.00000E+00
    0.12893E-02        -0.13722E-02         0.00000E+00
    0.13343E-02        -0.14542E-02         0.00000E+00
    0.13788E-02        -0.15377E-02         0.00000E+00
    0.14227E-02        -0.16226E-02         0.00000E+00
    0.14664E-02        -0.17091E-02         0.00000E+00
    0.15098E-02        -0.17973E-02         0.00000E+00
    0.15531E-02        -0.18873E-02         0.00000E+00
    0.15965E-02        -0.19792E-02         0.00000E+00
    0.16399E-02        -0.20729E-02         0.00000E+00
    0.16835E-02        -0.21687E-02         0.00000E+00
    0.17273E-02        -0.22666E-02         0.00000E+00
    0.17714E-02        -0.23667E-02         0.00000E+00
    0.18159E-02        -0.24690E-02         0.00000E+00
    0.18607E-02        -0.25737E-02         0.00000E+00
    0.19060E-02        -0.26808E-02         0.00000E+00
    0.19518E-02        -0.27903E-02         0.00000E+00
    0.19980E-02        -0.29024E-02         0.00000E+00
    0.20447E-02        -0.30171E-02         0.00000E+00
    0.20919E-02        -0.31345E-02         0.00000E+00
    0.21397E-02        -0.32547E-02         0.00000E+00
    0.21880E-02        -0.33778E-02         0.00000E+00
    0.22367E-02        -0.35037E-02         0.00000E+00
    0.22860E-02        -0.36326E-02         0.00000E+00
    0.23357E-02        -0.37646E-02         0.00000E+00
    0.23859E-02        -0.38996E-02         0.00000E+00
    0.24365E-02        -0.40379E-02         0.00000E+00
    0.24875E-02        -0.41794E-02         0.00000E+00
    0.25389E-02        -0.43241E-02         0.00000E+00
    0.25905E-02        -0.44723E-02         0.00000E+00
    0.26424E-02        -0.46238E-02         0.00000E+00
    0.26945E-02        -0.47788E-02         0.00000E+00
    0.27467E-02        -0.49374E-02         0.00000E+00
    0.27989E-02        -0.50995E-02         0.00000E+00
    0.28511E-02        -0.52653E-02         0.00000E+00
    0.29032E-02        -0.54347E-02         0.00000E+00
    0.29550E-02        -0.56078E-02         0.00000E+00
    0.30066E-02        -0.57847E-02         0.00000E+00
    0.30577E-02        -0.59654E-02         0.00000E+00
    0.31082E-02        -0.61499E-02         0.00000E+00
    0.31581E-02        -0.63383E-02         0.00000E+00
    0.32072E-02        -0.65305E-02         0.00000E+00
    0.32553E-02        -0.67267E-02         0.00000E+00
    0.33022E-02        -0.69268E-02         0.00000E+00
    0.33479E-02        -0.71308E-02         0.00000E+00
    0.33921E-02        -0.73387E-02         0.00000E+00
    0.34346E-02        -0.75506E-02         0.00000E+00
    0.34752E-02        -0.77664E-02         0.00000E+00
    0.35137E-02        -0.79862E-02         0.00000E+00
    0.35498E-02        -0.82099E-02         0.00000E+00
    0.35832E-02        -0.84376E-02         0.00000E+00
    0.36138E-02        -0.86691E-02         0.00000E+00
    0.36411E-02        -0.89045E-02         0.00000E+00
    0.36648E-02        -0.91438E-02         0.00000E+00
    0.36846E-02        -0.93868E-02         0.00000E+00
    0.37002E-02        -0.96337E-02         0.00000E+00
    0.37110E-02        -0.98844E-02         0.00000E+00
    0.37167E-02        -0.10139E-01         0.00000E+00
    0.37168E-02        -0.10397E-01         0.00000E+00
    0.37108E-02        -0.10659E-01         0.00000E+00
    0.36981E-02        -0.10924E-01         0.00000E+00
    0.36783E-02        -0.11193E-01         0.00000E+00
    0.36506E-02        -0.11466E-01         0.00000E+00
    0.36143E-02        -0.11742E-01         0.00000E+00
    0.35690E-02        -0.12021E-01         0.00000E+00
    0.35136E-02        -0.12305E-01         0.00000E+00
    0.34476E-02        -0.12591E-01         0.00000E+00
    0.33700E-02        -0.12881E-01         0.00000E+00
    0.32800E-02        -0.13173E-01         0.00000E+00
    0.31766E-02        -0.13469E-01         0.00000E+00
    0.30589E-02        -0.13766E-01         0.00000E+00
    0.29257E-02        -0.14065E-01         0.00000E+00
    0.27760E-02        -0.14363E-01         0.00000E+00
    0.26085E-02        -0.14660E-01         0.00000E+00
    0.24219E-02        -0.14952E-01         0.00000E+00
    0.22147E-02        -0.15237E-01         0.00000E+00
    0.19853E-02        -0.15510E-01         0.00000E+00
    0.17319E-02        -0.15766E-01         0.00000E+00
    0.14523E-02        -0.15996E-01         0.00000E+00
    0.11437E-02        -0.16192E-01         0.00000E+00
    0.80262E-03        -0.16344E-01         0.00000E+00
    0.42376E-03        -0.16440E-01         0.00000E+00
    0.00000E+00        -0.16474E-01         0.00000E+00
    0.00000E+00        -0.21523E-03         0.00000E+00
    0.11497E-03        -0.22288E-03         0.00000E+00
    0.22039E-03        -0.24513E-03         0.00000E+00
    0.31794E-03        -0.28014E-03         0.00000E+00
    0.40881E-03        -0.32555E-03         0.00000E+00
    0.49387E-03        -0.37910E-03         0.00000E+00
    0.57373E-03        -0.43884E-03         0.00000E+00
    0.64895E-03        -0.50324E-03         0.00000E+00
    0.71998E-03        -0.57111E-03         0.00000E+00
    0.78726E-03        -0.64160E-03         0.00000E+00
    0.85119E-03        -0.71409E-03         0.00000E+00
    0.91212E-03        -0.78816E-03         0.00000E+00
    0.97038E-03        -0.86355E-03         0.00000E+00
    0.10263E-02        -0.94008E-03         0.00000E+00
    0.10801E-02        -0.10177E-02         0.00000E+00
    0.11321E-02        -0.10964E-02         0.00000E+00
    0.11826E-02        -0.11761E-02         0.00000E+00
    0.12316E-02        -0.12570E-02         0.00000E+00
    0.12796E-02        -0.13391E-02         0.00000E+00
    0.13266E-02        -0.14225E-02         0.00000E+00
    0.13728E-02        -0.15073E-02         0.00000E+00
    0.14184E-02        -0.15936E-02         0.00000E+00
    0.14635E-02        -0.16814E-02         0.00000E+00
    0.15083E-02        -0.17709E-02         0.00000E+00
    0.15529E-02        -0.18621E-02         0.00000E+00
    0.15974E-02        -0.19552E-02         0.00000E+00
    0.16420E-02        -0.20502E-02         0.00000E+00
    0.16866E-02        -0.21472E-02         0.00000E+00
    0.17314E-02        -0.22463E-02         0.00000E+00
    0.17764E-02        -0.23476E-02         0.00000E+00
    0.18217E-02        -0.24511E-02         0.00000E+00
    0.18674E-02        -0.25570E-02         0.00000E+00
    0.19135E-02        -0.26653E-02         0.00000E+00
    0.19601E-02        -0.27761E-02         0.00000E+00
    0.20071E-02        -0.28894E-02         0.00000E+00
    0.20547E-02        -0.30054E-02         0.00000E+00
    0.21027E-02        -0.31241E-02         0.00000E+00
    0.21513E-02        -0.32456E-02         0.00000E+00
    0.22004E-02        -0.33700E-02         0.00000E+00
    0.22500E-02        -0.34973E-02         0.00000E+00
    0.23002E-02        -0.36276E-02         0.00000E+00
    0.23509E-02        -0.37610E-02         0.00000E+00
    0.24020E-02        -0.38975E-02         0.00000E+00
    0.24537E-02        -0.40373E-02         0.00000E+00
    0.25057E-02        -0.41803E-02         0.00000E+00
    0.25582E-02        -0.43267E-02         0.00000E+00
    0.26110E-02        -0.44764E-02         0.00000E+00
    0.26642E-02        -0.46297E-02         0.00000E+00
    0.27176E-02        -0.47865E-02         0.00000E+00
    0.27711E-02        -0.49469E-02         0.00000E+00
    0.28248E-02        -0.51109E-02         0.00000E+00
    0.28786E-02        -0.52786E-02         0.00000E+00
    0.29323E-02        -0.54500E-02         0.00000E+00
    0.29859E-02        -0.56253E-02         0.00000E+00
    0.30393E-02        -0.58044E-02         0.00000E+00
    0.30923E-02        -0.59873E-02         0.00000E+00
    0.31450E-02        -0.61742E-02         0.00000E+00
    0.31970E-02        -0.63651E-02         0.00000E+00
    0.32484E-02        -0.65599E-02         0.00000E+00
    0.32989E-02        -0.67587E-02         0.00000E+00
    0.33485E-02        -0.69615E-02         0.00000E+00
    0.33969E-02        -0.71684E-02         0.00000E+00
    0.34440E-02        -0.73793E-02         0.00000E+00
    0.34895E-02        -0.75944E-02         0.00000E+00
    0.35333E-02        -0.78134E-02         0.00000E+00
    0.35752E-02        -0.80366E-02         0.00000E+00
    0.36149E-02        -0.82638E-02         0.00000E+00
    0.36522E-02        -0.84951E-02         0.00000E+00
    0.36867E-02        -0.87304E-02         0.00000E+00
    0.37183E-02        -0.89697E-02         0.00000E+00
    0.37465E-02        -0.92130E-02         0.00000E+00
    0.37711E-02        -0.94602E-02         0.00000E+00
    0.37917E-02        -0.97114E-02         0.00000E+00
    0.38079E-02        -0.99665E-02         0.00000E+00
    0.38193E-02        -0.10225E-01         0.00000E+00
    0.38255E-02        -0.10488E-01         0.00000E+00
    0.38258E-02        -0.10755E-01         0.00000E+00
    0.38200E-02        -0.11025E-01         0.00000E+00
    0.38073E-02        -0.11299E-01         0.00000E+00
    0.37871E-02        -0.11577E-01         0.00000E+00
    0.37590E-02        -0.11858E-01         0.00000E+00
    0.37221E-02        -0.12143E-01         0.00000E+00
    0.36758E-02        -0.12432E-01         0.00000E+00
    0.36192E-02        -0.12724E-01         0.00000E+00
    0.35516E-02        -0.13020E-01         0.00000E+00
    0.34721E-02        -0.13319E-01         0.00000E+00
    0.33797E-02        -0.13621E-01         0.00000E+00
    0.32734E-02        -0.13925E-01         0.00000E+00
    0.31523E-02        -0.14232E-01         0.00000E+00
    0.30151E-02        -0.14539E-01         0.00000E+00
    0.28607E-02        -0.14847E-01         0.00000E+00
    0.26878E-02        -0.15152E-01         0.00000E+00
    0.24950E-02        -0.15454E-01         0.00000E+00
    0.22807E-02        -0.15747E-01         0.00000E+00
    0.20434E-02        -0.16029E-01         0.00000E+00
    0.17812E-02        -0.16292E-01         0.00000E+00
    0.14922E-02        -0.16530E-01         0.00000E+00
    0.11737E-02        -0.16733E-01         0.00000E+00
    0.82254E-03        -0.16890E-01         0.00000E+00
    0.43366E-03        -0.16990E-01         0.00000E+00
    0.00000E+00        -0.17025E-01         0.00000E+00
    0.00000E+00        -0.22749E-03         0.00000E+00
    0.11766E-03        -0.23545E-03         0.00000E+00
    0.22580E-03        -0.25855E-03         0.00000E+00
    0.32609E-03        -0.29479E-03         0.00000E+00
    0.41968E-03        -0.34173E-03         0.00000E+00
    0.50735E-03        -0.39699E-03         0.00000E+00
    0.58969E-03        -0.45858E-03         0.00000E+00
    0.66722E-03        -0.52493E-03         0.00000E+00
    0.74040E-03        -0.59486E-03         0.00000E+00
    0.80968E-03        -0.66748E-03         0.00000E+00
    0.87545E-03        -0.74217E-03         0.00000E+00
    0.93809E-03        -0.81850E-03         0.00000E+00
    0.99795E-03        -0.89621E-03         0.00000E+00
    0.10554E-02        -0.97512E-03         0.00000E+00
    0.11106E-02        -0.10552E-02         0.00000E+00
    0.11640E-02        -0.11363E-02         0.00000E+00
    0.12157E-02        -0.12186E-02         0.00000E+00
    0.12660E-02        -0.13021E-02         0.00000E+00
    0.13152E-02        -0.13869E-02         0.00000E+00
    0.13634E-02        -0.14730E-02         0.00000E+00
    0.14107E-02        -0.15605E-02         0.00000E+00
    0.14575E-02        -0.16496E-02         0.00000E+00
    0.15038E-02        -0.17403E-02         0.00000E+00
    0.15497E-02        -0.18327E-02         0.00000E+00
    0.15955E-02        -0.19270E-02         0.00000E+00
    0.16412E-02        -0.20232E-02         0.00000E+00
    0.16868E-02        -0.21213E-02         0.00000E+00
    0.17326E-02        -0.22216E-02         0.00000E+00
    0.17786E-02        -0.23240E-02         0.00000E+00
    0.18248E-02        -0.24287E-02         0.00000E+00
    0.18713E-02        -0.25357E-02         0.00000E+00
    0.19182E-02        -0.26451E-02         0.00000E+00
    0.19656E-02        -0.27570E-02         0.00000E+00
    0.20134E-02        -0.28715E-02         0.00000E+00
    0.20617E-02        -0.29887E-02         0.00000E+00
    0.21105E-02        -0.31086E-02         0.00000E+00
    0.21599E-02        -0.32313E-02         0.00000E+00
    0.22097E-02        -0.33568E-02         0.00000E+00
    0.22602E-02        -0.34854E-02         0.00000E+00
    0.23112E-02        -0.36169E-02         0.00000E+00
    0.23627E-02        -0.37516E-02         0.00000E+00
    0.24148E-02        -0.38895E-02         0.00000E+00
    0.24674E-02        -0.40306E-02         0.00000E+00
    0.25204E-02        -0.41750E-02         0.00000E+00
    0.25739E-02        -0.43228E-02         0.00000E+00
    0.26278E-02        -0.44741E-02         0.00000E+00
    0.26821E-02        -0.46289E-02         0.00000E+00
    0.27367E-02        -0.47873E-02         0.00000E+00
    0.27916E-02        -0.49493E-02         0.00000E+00
    0.28467E-02        -0.51150E-02         0.00000E+00
    0.29019E-02        -0.52845E-02         0.00000E+00
    0.29572E-02        -0.54578E-02         0.00000E+00
    0.30124E-02        -0.56350E-02         0.00000E+00
    0.30675E-02        -0.58161E-02         0.00000E+00
    0.31224E-02        -0.60011E-02         0.00000E+00
    0.31770E-02        -0.61901E-02         0.00000E+00
    0.32311E-02        -0.63832E-02         0.00000E+00
    0.32846E-02        -0.65804E-02         0.00000E+00
    0.33375E-02        -0.67816E-02         0.00000E+00
    0.33895E-02        -0.69870E-02         0.00000E+00
    0.34405E-02        -0.71965E-02         0.00000E+00
    0.34903E-02        -0.74102E-02         0.00000E+00
    0.35387E-02        -0.76281E-02         0.00000E+00
    0.35856E-02        -0.78502E-02         0.00000E+00
    0.36308E-02        -0.80764E-02         0.00000E+00
    0.36739E-02        -0.83069E-02         0.00000E+00
    0.37148E-02        -0.85415E-02         0.00000E+00
    0.37533E-02        -0.87803E-02         0.00000E+00
    0.37889E-02        -0.90232E-02         0.00000E+00
    0.38215E-02        -0.92703E-02         0.00000E+00
    0.38507E-02        -0.95215E-02         0.00000E+00
    0.38762E-02        -0.97768E-02         0.00000E+00
    0.38976E-02        -0.10036E-01         0.00000E+00
    0.39145E-02        -0.10299E-01         0.00000E+00
    0.39265E-02        -0.10567E-01         0.00000E+00
    0.39330E-02        -0.10838E-01         0.00000E+00
    0.39337E-02        -0.11113E-01         0.00000E+00
    0.39280E-02        -0.11392E-01         0.00000E+00
    0.39153E-02        -0.11674E-01         0.00000E+00
    0.38950E-02        -0.11961E-01         0.00000E+00
    0.38665E-02        -0.12251E-01         0.00000E+00
    0.38290E-02        -0.12545E-01         0.00000E+00
    0.37817E-02        -0.12843E-01         0.00000E+00
    0.37240E-02        -0.13144E-01         0.00000E+00
    0.36549E-02        -0.13448E-01         0.00000E+00
    0.35735E-02        -0.13756E-01         0.00000E+00
    0.34788E-02        -0.14067E-01         0.00000E+00
    0.33698E-02        -0.14381E-01         0.00000E+00
    0.32454E-02        -0.14697E-01         0.00000E+00
    0.31043E-02        -0.15013E-01         0.00000E+00
    0.29453E-02        -0.15330E-01         0.00000E+00
    0.27671E-02        -0.15644E-01         0.00000E+00
    0.25681E-02        -0.15955E-01         0.00000E+00
    0.23468E-02        -0.16257E-01         0.00000E+00
    0.21017E-02        -0.16547E-01         0.00000E+00
    0.18308E-02        -0.16818E-01         0.00000E+00
    0.15323E-02        -0.17063E-01         0.00000E+00
    0.12039E-02        -0.17273E-01         0.00000E+00
    0.84257E-03        -0.17435E-01         0.00000E+00
    0.44360E-03        -0.17539E-01         0.00000E+00
    0.00000E+00        -0.17575E-01         0.00000E+00
    0.00000E+00        -0.23996E-03         0.00000E+00
    0.12035E-03        -0.24823E-03         0.00000E+00
    0.23122E-03        -0.27220E-03         0.00000E+00
    0.33426E-03        -0.30972E-03         0.00000E+00
    0.43056E-03        -0.35820E-03         0.00000E+00
    0.52082E-03        -0.41517E-03         0.00000E+00
    0.60562E-03        -0.47861E-03         0.00000E+00
    0.68544E-03        -0.54691E-03         0.00000E+00
    0.76074E-03        -0.61887E-03         0.00000E+00
    0.83197E-03        -0.69360E-03         0.00000E+00
    0.89954E-03        -0.77048E-03         0.00000E+00
    0.96386E-03        -0.84906E-03         0.00000E+00
    0.10253E-02        -0.92907E-03         0.00000E+00
    0.10842E-02        -0.10104E-02         0.00000E+00
    0.11408E-02        -0.10928E-02         0.00000E+00
    0.11955E-02        -0.11764E-02         0.00000E+00
    0.12484E-02        -0.12613E-02         0.00000E+00
    0.13000E-02        -0.13473E-02         0.00000E+00
    0.13503E-02        -0.14347E-02         0.00000E+00
    0.13997E-02        -0.15235E-02         0.00000E+00
    0.14482E-02        -0.16139E-02         0.00000E+00
    0.14961E-02        -0.17058E-02         0.00000E+00
    0.15435E-02        -0.17994E-02         0.00000E+00
    0.15906E-02        -0.18948E-02         0.00000E+00
    0.16375E-02        -0.19920E-02         0.00000E+00
    0.16842E-02        -0.20913E-02         0.00000E+00
    0.17310E-02        -0.21926E-02         0.00000E+00
    0.17780E-02        -0.22961E-02         0.00000E+00
    0.18251E-02        -0.24018E-02         0.00000E+00
    0.18725E-02        -0.25099E-02         0.00000E+00
    0.19202E-02        -0.26204E-02         0.00000E+00
    0.19683E-02        -0.27333E-02         0.00000E+00
    0.20169E-02        -0.28489E-02         0.00000E+00
    0.20659E-02        -0.29671E-02         0.00000E+00
    0.21154E-02        -0.30881E-02         0.00000E+00
    0.21655E-02        -0.32119E-02         0.00000E+00
    0.22161E-02        -0.33385E-02         0.00000E+00
    0.22673E-02        -0.34682E-02         0.00000E+00
    0.23191E-02        -0.36009E-02         0.00000E+00
    0.23714E-02        -0.37368E-02         0.00000E+00
    0.24243E-02        -0.38758E-02         0.00000E+00
    0.24778E-02        -0.40182E-02         0.00000E+00
    0.25317E-02        -0.41639E-02         0.00000E+00
    0.25862E-02        -0.43130E-02         0.00000E+00
    0.26411E-02        -0.44656E-02         0.00000E+00
    0.26965E-02        -0.46218E-02         0.00000E+00
    0.27522E-02        -0.47816E-02         0.00000E+00
    0.28083E-02        -0.49451E-02         0.00000E+00
    0.28646E-02        -0.51123E-02         0.00000E+00
    0.29212E-02        -0.52834E-02         0.00000E+00
    0.29779E-02        -0.54584E-02         0.00000E+00
    0.30346E-02        -0.56372E-02         0.00000E+00
    0.30913E-02        -0.58201E-02         0.00000E+00
    0.31479E-02        -0.60070E-02         0.00000E+00
    0.32043E-02        -0.61980E-02         0.00000E+00
    0.32604E-02        -0.63931E-02         0.00000E+00
    0.33160E-02        -0.65924E-02         0.00000E+00
    0.33710E-02        -0.67958E-02         0.00000E+00
    0.34253E-02        -0.70035E-02         0.00000E+00
    0.34788E-02        -0.72154E-02         0.00000E+00
    0.35312E-02        -0.74317E-02         0.00000E+00
    0.35824E-02        -0.76522E-02         0.00000E+00
    0.36322E-02        -0.78770E-02         0.00000E+00
    0.36805E-02        -0.81061E-02         0.00000E+00
    0.37269E-02        -0.83395E-02         0.00000E+00
    0.37713E-02        -0.85773E-02         0.00000E+00
    0.38135E-02        -0.88193E-02         0.00000E+00
    0.38531E-02        -0.90657E-02         0.00000E+00
    0.38898E-02        -0.93162E-02         0.00000E+00
    0.39235E-02        -0.95711E-02         0.00000E+00
    0.39537E-02        -0.98301E-02         0.00000E+00
    0.39801E-02        -0.10093E-01         0.00000E+00
    0.40022E-02        -0.10361E-01         0.00000E+00
    0.40198E-02        -0.10632E-01         0.00000E+00
    0.40324E-02        -0.10908E-01         0.00000E+00
    0.40394E-02        -0.11187E-01         0.00000E+00
    0.40405E-02        -0.11471E-01         0.00000E+00
    0.40350E-02        -0.11758E-01         0.00000E+00
    0.40223E-02        -0.12050E-01         0.00000E+00
    0.40019E-02        -0.12345E-01         0.00000E+00
    0.39730E-02        -0.12644E-01         0.00000E+00
    0.39349E-02        -0.12947E-01         0.00000E+00
    0.38869E-02        -0.13253E-01         0.00000E+00
    0.38281E-02        -0.13563E-01         0.00000E+00
    0.37575E-02        -0.13877E-01         0.00000E+00
    0.36744E-02        -0.14194E-01         0.00000E+00
    0.35775E-02        -0.14514E-01         0.00000E+00
    0.34658E-02        -0.14836E-01         0.00000E+00
    0.33382E-02        -0.15161E-01         0.00000E+00
    0.31933E-02        -0.15487E-01         0.00000E+00
    0.30298E-02        -0.15812E-01         0.00000E+00
    0.28464E-02        -0.16136E-01         0.00000E+00
    0.26413E-02        -0.16455E-01         0.00000E+00
    0.24132E-02        -0.16765E-01         0.00000E+00
    0.21602E-02        -0.17063E-01         0.00000E+00
    0.18806E-02        -0.17343E-01         0.00000E+00
    0.15727E-02        -0.17596E-01         0.00000E+00
    0.12343E-02        -0.17812E-01         0.00000E+00
    0.86275E-03        -0.17980E-01         0.00000E+00
    0.45362E-03        -0.18088E-01         0.00000E+00
    0.00000E+00        -0.18125E-01         0.00000E+00
    0.00000E+00        -0.25261E-03         0.00000E+00
    0.12305E-03        -0.26121E-03         0.00000E+00
    0.23666E-03        -0.28609E-03         0.00000E+00
    0.34245E-03        -0.32492E-03         0.00000E+00
    0.44146E-03        -0.37495E-03         0.00000E+00
    0.53431E-03        -0.43364E-03         0.00000E+00
    0.62154E-03        -0.49891E-03         0.00000E+00
    0.70362E-03        -0.56915E-03         0.00000E+00
    0.78100E-03        -0.64314E-03         0.00000E+00
    0.85415E-03        -0.71997E-03         0.00000E+00
    0.92349E-03        -0.79902E-03         0.00000E+00
    0.98945E-03        -0.87983E-03         0.00000E+00
    0.10524E-02        -0.96214E-03         0.00000E+00
    0.11127E-02        -0.10458E-02         0.00000E+00
    0.11707E-02        -0.11306E-02         0.00000E+00
    0.12266E-02        -0.12167E-02         0.00000E+00
    0.12808E-02        -0.13041E-02         0.00000E+00
    0.13336E-02        -0.13927E-02         0.00000E+00
    0.13851E-02        -0.14828E-02         0.00000E+00
    0.14355E-02        -0.15743E-02         0.00000E+00
    0.14852E-02        -0.16673E-02         0.00000E+00
    0.15342E-02        -0.17621E-02         0.00000E+00
    0.15827E-02        -0.18586E-02         0.00000E+00
    0.16308E-02        -0.19569E-02         0.00000E+00
    0.16788E-02        -0.20572E-02         0.00000E+00
    0.17267E-02        -0.21596E-02         0.00000E+00
    0.17746E-02        -0.22641E-02         0.00000E+00
    0.18227E-02        -0.23708E-02         0.00000E+00
    0.18709E-02        -0.24798E-02         0.00000E+00
    0.19194E-02        -0.25913E-02         0.00000E+00
    0.19683E-02        -0.27052E-02         0.00000E+00
    0.20176E-02        -0.28217E-02         0.00000E+00
    0.20674E-02        -0.29409E-02         0.00000E+00
    0.21176E-02        -0.30629E-02         0.00000E+00
    0.21684E-02        -0.31876E-02         0.00000E+00
    0.22197E-02        -0.33153E-02         0.00000E+00
    0.22716E-02        -0.34460E-02         0.00000E+00
    0.23241E-02        -0.35797E-02         0.00000E+00
    0.23771E-02        -0.37166E-02         0.00000E+00
    0.24308E-02        -0.38568E-02         0.00000E+00
    0.24850E-02        -0.40002E-02         0.00000E+00
    0.25398E-02        -0.41470E-02         0.00000E+00
    0.25951E-02        -0.42973E-02         0.00000E+00
    0.26510E-02        -0.44511E-02         0.00000E+00
    0.27073E-02        -0.46085E-02         0.00000E+00
    0.27641E-02        -0.47695E-02         0.00000E+00
    0.28212E-02        -0.49344E-02         0.00000E+00
    0.28787E-02        -0.51030E-02         0.00000E+00
    0.29365E-02        -0.52755E-02         0.00000E+00
    0.29945E-02        -0.54519E-02         0.00000E+00
    0.30527E-02        -0.56323E-02         0.00000E+00
    0.31109E-02        -0.58168E-02         0.00000E+00
    0.31691E-02        -0.60054E-02         0.00000E+00
    0.32272E-02        -0.61981E-02         0.00000E+00
    0.32851E-02        -0.63950E-02         0.00000E+00
    0.33426E-02        -0.65962E-02         0.00000E+00
    0.33997E-02        -0.68017E-02         0.00000E+00
    0.34562E-02        -0.70114E-02         0.00000E+00
    0.35120E-02        -0.72256E-02         0.00000E+00
    0.35668E-02        -0.74441E-02         0.00000E+00
    0.36207E-02        -0.76670E-02         0.00000E+00
    0.36733E-02        -0.78943E-02         0.00000E+00
    0.37245E-02        -0.81260E-02         0.00000E+00
    0.37741E-02        -0.83622E-02         0.00000E+00
    0.38218E-02        -0.86028E-02         0.00000E+00
    0.38675E-02        -0.88478E-02         0.00000E+00
    0.39109E-02        -0.90973E-02         0.00000E+00
    0.39516E-02        -0.93511E-02         0.00000E+00
    0.39895E-02        -0.96094E-02         0.00000E+00
    0.40242E-02        -0.98719E-02         0.00000E+00
    0.40554E-02        -0.10139E-01         0.00000E+00
    0.40826E-02        -0.10410E-01         0.00000E+00
    0.41056E-02        -0.10685E-01         0.00000E+00
    0.41240E-02        -0.10965E-01         0.00000E+00
    0.41371E-02        -0.11249E-01         0.00000E+00
    0.41447E-02        -0.11537E-01         0.00000E+00
    0.41461E-02        -0.11829E-01         0.00000E+00
    0.41408E-02        -0.12125E-01         0.00000E+00
    0.41282E-02        -0.12425E-01         0.00000E+00
    0.41077E-02        -0.12729E-01         0.00000E+00
    0.40785E-02        -0.13036E-01         0.00000E+00
    0.40400E-02        -0.13348E-01         0.00000E+00
    0.39912E-02        -0.13663E-01         0.00000E+00
    0.39314E-02        -0.13982E-01         0.00000E+00
    0.38595E-02        -0.14305E-01         0.00000E+00
    0.37746E-02        -0.14631E-01         0.00000E+00
    0.36757E-02        -0.14960E-01         0.00000E+00
    0.35614E-02        -0.15291E-01         0.00000E+00
    0.34307E-02        -0.15625E-01         0.00000E+00
    0.32821E-02        -0.15960E-01         0.00000E+00
    0.31143E-02        -0.16294E-01         0.00000E+00
    0.29257E-02        -0.16626E-01         0.00000E+00
    0.27148E-02        -0.16954E-01         0.00000E+00
    0.24798E-02        -0.17273E-01         0.00000E+00
    0.22191E-02        -0.17579E-01         0.00000E+00
    0.19309E-02        -0.17866E-01         0.00000E+00
    0.16135E-02        -0.18127E-01         0.00000E+00
    0.12650E-02        -0.18350E-01         0.00000E+00
    0.88316E-03        -0.18524E-01         0.00000E+00
    0.46374E-03        -0.18636E-01         0.00000E+00
    0.00000E+00        -0.18674E-01         0.00000E+00
    0.00000E+00        -0.26544E-03         0.00000E+00
    0.12576E-03        -0.27439E-03         0.00000E+00
    0.24213E-03        -0.30021E-03         0.00000E+00
    0.35069E-03        -0.34038E-03         0.00000E+00
    0.45240E-03        -0.39199E-03         0.00000E+00
    0.54784E-03        -0.45240E-03         0.00000E+00
    0.63748E-03        -0.51950E-03         0.00000E+00
    0.72177E-03        -0.59166E-03         0.00000E+00
    0.80120E-03        -0.66766E-03         0.00000E+00
    0.87623E-03        -0.74657E-03         0.00000E+00
    0.94730E-03        -0.82777E-03         0.00000E+00
    0.10149E-02        -0.91081E-03         0.00000E+00
    0.10793E-02        -0.99540E-03         0.00000E+00
    0.11410E-02        -0.10814E-02         0.00000E+00
    0.12002E-02        -0.11686E-02         0.00000E+00
    0.12574E-02        -0.12572E-02         0.00000E+00
    0.13128E-02        -0.13471E-02         0.00000E+00
    0.13667E-02        -0.14383E-02         0.00000E+00
    0.14193E-02        -0.15310E-02         0.00000E+00
    0.14709E-02        -0.16252E-02         0.00000E+00
    0.15216E-02        -0.17210E-02         0.00000E+00
    0.15717E-02        -0.18185E-02         0.00000E+00
    0.16213E-02        -0.19179E-02         0.00000E+00
    0.16705E-02        -0.20192E-02         0.00000E+00
    0.17196E-02        -0.21225E-02         0.00000E+00
    0.17685E-02        -0.22280E-02         0.00000E+00
    0.18175E-02        -0.23356E-02         0.00000E+00
    0.18667E-02        -0.24456E-02         0.00000E+00
    0.19160E-02        -0.25579E-02         0.00000E+00
    0.19657E-02        -0.26728E-02         0.00000E+00
    0.20157E-02        -0.27902E-02         0.00000E+00
    0.20662E-02        -0.29103E-02         0.00000E+00
    0.21171E-02        -0.30331E-02         0.00000E+00
    0.21685E-02        -0.31588E-02         0.00000E+00
    0.22205E-02        -0.32873E-02         0.00000E+00
    0.22730E-02        -0.34189E-02         0.00000E+00
    0.23262E-02        -0.35536E-02         0.00000E+00
    0.23799E-02        -0.36914E-02         0.00000E+00
    0.24343E-02        -0.38325E-02         0.00000E+00
    0.24892E-02        -0.39769E-02         0.00000E+00
    0.25447E-02        -0.41247E-02         0.00000E+00
    0.26009E-02        -0.42760E-02         0.00000E+00
    0.26575E-02        -0.44308E-02         0.00000E+00
    0.27148E-02        -0.45893E-02         0.00000E+00
    0.27725E-02        -0.47515E-02         0.00000E+00
    0.28306E-02        -0.49175E-02         0.00000E+00
    0.28892E-02        -0.50873E-02         0.00000E+00
    0.29481E-02        -0.52611E-02         0.00000E+00
    0.30074E-02        -0.54388E-02         0.00000E+00
    0.30668E-02        -0.56206E-02         0.00000E+00
    0.31264E-02        -0.58065E-02         0.00000E+00
    0.31861E-02        -0.59966E-02         0.00000E+00
    0.32458E-02        -0.61908E-02         0.00000E+00
    0.33054E-02        -0.63894E-02         0.00000E+00
    0.33647E-02        -0.65923E-02         0.00000E+00
    0.34237E-02        -0.67995E-02         0.00000E+00
    0.34822E-02        -0.70111E-02         0.00000E+00
    0.35402E-02        -0.72272E-02         0.00000E+00
    0.35974E-02        -0.74478E-02         0.00000E+00
    0.36537E-02        -0.76728E-02         0.00000E+00
    0.37089E-02        -0.79024E-02         0.00000E+00
    0.37629E-02        -0.81365E-02         0.00000E+00
    0.38155E-02        -0.83752E-02         0.00000E+00
    0.38664E-02        -0.86184E-02         0.00000E+00
    0.39154E-02        -0.88662E-02         0.00000E+00
    0.39624E-02        -0.91185E-02         0.00000E+00
    0.40070E-02        -0.93753E-02         0.00000E+00
    0.40489E-02        -0.96367E-02         0.00000E+00
    0.40879E-02        -0.99026E-02         0.00000E+00
    0.41236E-02        -0.10173E-01         0.00000E+00
    0.41558E-02        -0.10448E-01         0.00000E+00
    0.41840E-02        -0.10727E-01         0.00000E+00
    0.42078E-02        -0.11010E-01         0.00000E+00
    0.42269E-02        -0.11298E-01         0.00000E+00
    0.42407E-02        -0.11590E-01         0.00000E+00
    0.42488E-02        -0.11886E-01         0.00000E+00
    0.42506E-02        -0.12187E-01         0.00000E+00
    0.42456E-02        -0.12491E-01         0.00000E+00
    0.42331E-02        -0.12800E-01         0.00000E+00
    0.42126E-02        -0.13112E-01         0.00000E+00
    0.41832E-02        -0.13429E-01         0.00000E+00
    0.41442E-02        -0.13749E-01         0.00000E+00
    0.40947E-02        -0.14073E-01         0.00000E+00
    0.40340E-02        -0.14401E-01         0.00000E+00
    0.39609E-02        -0.14733E-01         0.00000E+00
    0.38744E-02        -0.15067E-01         0.00000E+00
    0.37734E-02        -0.15405E-01         0.00000E+00
    0.36567E-02        -0.15746E-01         0.00000E+00
    0.35230E-02        -0.16088E-01         0.00000E+00
    0.33709E-02        -0.16432E-01         0.00000E+00
    0.31988E-02        -0.16775E-01         0.00000E+00
    0.30053E-02        -0.17116E-01         0.00000E+00
    0.27885E-02        -0.17452E-01         0.00000E+00
    0.25468E-02        -0.17780E-01         0.00000E+00
    0.22784E-02        -0.18094E-01         0.00000E+00
    0.19816E-02        -0.18389E-01         0.00000E+00
    0.16548E-02        -0.18657E-01         0.00000E+00
    0.12962E-02        -0.18887E-01         0.00000E+00
    0.90386E-03        -0.19067E-01         0.00000E+00
    0.47400E-03        -0.19183E-01         0.00000E+00
    0.00000E+00        -0.19223E-01         0.00000E+00
    0.00000E+00        -0.27845E-03         0.00000E+00
    0.12850E-03        -0.28777E-03         0.00000E+00
    0.24764E-03        -0.31457E-03         0.00000E+00
    0.35900E-03        -0.35611E-03         0.00000E+00
    0.46342E-03        -0.40930E-03         0.00000E+00
    0.56142E-03        -0.47143E-03         0.00000E+00
    0.65344E-03        -0.54036E-03         0.00000E+00
    0.73993E-03        -0.61443E-03         0.00000E+00
    0.82137E-03        -0.69242E-03         0.00000E+00
    0.89823E-03        -0.77341E-03         0.00000E+00
    0.97099E-03        -0.85674E-03         0.00000E+00
    0.10401E-02        -0.94198E-03         0.00000E+00
    0.11060E-02        -0.10288E-02         0.00000E+00
    0.11690E-02        -0.11171E-02         0.00000E+00
    0.12295E-02        -0.12068E-02         0.00000E+00
    0.12879E-02        -0.12978E-02         0.00000E+00
    0.13445E-02        -0.13902E-02         0.00000E+00
    0.13995E-02        -0.14840E-02         0.00000E+00
    0.14532E-02        -0.15793E-02         0.00000E+00
    0.15058E-02        -0.16762E-02         0.00000E+00
    0.15576E-02        -0.17747E-02         0.00000E+00
    0.16087E-02        -0.18751E-02         0.00000E+00
    0.16593E-02        -0.19774E-02         0.00000E+00
    0.17096E-02        -0.20816E-02         0.00000E+00
    0.17597E-02        -0.21880E-02         0.00000E+00
    0.18097E-02        -0.22965E-02         0.00000E+00
    0.18598E-02        -0.24073E-02         0.00000E+00
    0.19100E-02        -0.25205E-02         0.00000E+00
    0.19605E-02        -0.26362E-02         0.00000E+00
    0.20112E-02        -0.27544E-02         0.00000E+00
    0.20624E-02        -0.28753E-02         0.00000E+00
    0.21140E-02        -0.29989E-02         0.00000E+00
    0.21660E-02        -0.31254E-02         0.00000E+00
    0.22186E-02        -0.32548E-02         0.00000E+00
    0.22718E-02        -0.33872E-02         0.00000E+00
    0.23255E-02        -0.35226E-02         0.00000E+00
    0.23799E-02        -0.36613E-02         0.00000E+00
    0.24349E-02        -0.38032E-02         0.00000E+00
    0.24905E-02        -0.39485E-02         0.00000E+00
    0.25467E-02        -0.40972E-02         0.00000E+00
    0.26036E-02        -0.42493E-02         0.00000E+00
    0.26610E-02        -0.44051E-02         0.00000E+00
    0.27190E-02        -0.45646E-02         0.00000E+00
    0.27776E-02        -0.47277E-02         0.00000E+00
    0.28366E-02        -0.48947E-02         0.00000E+00
    0.28962E-02        -0.50656E-02         0.00000E+00
    0.29561E-02        -0.52405E-02         0.00000E+00
    0.30165E-02        -0.54193E-02         0.00000E+00
    0.30771E-02        -0.56023E-02         0.00000E+00
    0.31380E-02        -0.57894E-02         0.00000E+00
    0.31991E-02        -0.59808E-02         0.00000E+00
    0.32602E-02        -0.61765E-02         0.00000E+00
    0.33213E-02        -0.63764E-02         0.00000E+00
    0.33823E-02        -0.65808E-02         0.00000E+00
    0.34431E-02        -0.67896E-02         0.00000E+00
    0.35036E-02        -0.70029E-02         0.00000E+00
    0.35635E-02        -0.72208E-02         0.00000E+00
    0.36229E-02        -0.74432E-02         0.00000E+00
    0.36815E-02        -0.76702E-02         0.00000E+00
    0.37393E-02        -0.79018E-02         0.00000E+00
    0.37959E-02        -0.81380E-02         0.00000E+00
    0.38513E-02        -0.83789E-02         0.00000E+00
    0.39052E-02        -0.86245E-02         0.00000E+00
    0.39575E-02        -0.88748E-02         0.00000E+00
    0.40078E-02        -0.91297E-02         0.00000E+00
    0.40560E-02        -0.93893E-02         0.00000E+00
    0.41018E-02        -0.96535E-02         0.00000E+00
    0.41449E-02        -0.99224E-02         0.00000E+00
    0.41850E-02        -0.10196E-01         0.00000E+00
    0.42218E-02        -0.10474E-01         0.00000E+00
    0.42550E-02        -0.10757E-01         0.00000E+00
    0.42841E-02        -0.11044E-01         0.00000E+00
    0.43088E-02        -0.11335E-01         0.00000E+00
    0.43286E-02        -0.11631E-01         0.00000E+00
    0.43431E-02        -0.11931E-01         0.00000E+00
    0.43517E-02        -0.12236E-01         0.00000E+00
    0.43540E-02        -0.12545E-01         0.00000E+00
    0.43493E-02        -0.12858E-01         0.00000E+00
    0.43370E-02        -0.13175E-01         0.00000E+00
    0.43165E-02        -0.13496E-01         0.00000E+00
    0.42869E-02        -0.13821E-01         0.00000E+00
    0.42475E-02        -0.14150E-01         0.00000E+00
    0.41975E-02        -0.14483E-01         0.00000E+00
    0.41359E-02        -0.14820E-01         0.00000E+00
    0.40616E-02        -0.15160E-01         0.00000E+00
    0.39736E-02        -0.15504E-01         0.00000E+00
    0.38708E-02        -0.15851E-01         0.00000E+00
    0.37518E-02        -0.16200E-01         0.00000E+00
    0.36152E-02        -0.16551E-01         0.00000E+00
    0.34597E-02        -0.16904E-01         0.00000E+00
    0.32835E-02        -0.17255E-01         0.00000E+00
    0.30851E-02        -0.17605E-01         0.00000E+00
    0.28626E-02        -0.17949E-01         0.00000E+00
    0.26143E-02        -0.18285E-01         0.00000E+00
    0.23384E-02        -0.18608E-01         0.00000E+00
    0.20330E-02        -0.18911E-01         0.00000E+00
    0.16967E-02        -0.19186E-01         0.00000E+00
    0.13279E-02        -0.19423E-01         0.00000E+00
    0.92493E-03        -0.19609E-01         0.00000E+00
    0.48444E-03        -0.19730E-01         0.00000E+00
    0.00000E+00        -0.19771E-01         0.00000E+00
    0.00000E+00        -0.29164E-03         0.00000E+00
    0.13126E-03        -0.30134E-03         0.00000E+00
    0.25323E-03        -0.32916E-03         0.00000E+00
    0.36740E-03        -0.37210E-03         0.00000E+00
    0.47454E-03        -0.42689E-03         0.00000E+00
    0.57509E-03        -0.49074E-03         0.00000E+00
    0.66946E-03        -0.56148E-03         0.00000E+00
    0.75810E-03        -0.63746E-03         0.00000E+00
    0.84150E-03        -0.71742E-03         0.00000E+00
    0.92016E-03        -0.80046E-03         0.00000E+00
    0.99455E-03        -0.88592E-03         0.00000E+00
    0.10652E-02        -0.97335E-03         0.00000E+00
    0.11324E-02        -0.10625E-02         0.00000E+00
    0.11967E-02        -0.11531E-02         0.00000E+00
    0.12585E-02        -0.12451E-02         0.00000E+00
    0.13181E-02        -0.13386E-02         0.00000E+00
    0.13758E-02        -0.14334E-02         0.00000E+00
    0.14319E-02        -0.15298E-02         0.00000E+00
    0.14866E-02        -0.16277E-02         0.00000E+00
    0.15403E-02        -0.17273E-02         0.00000E+00
    0.15931E-02        -0.18286E-02         0.00000E+00
    0.16452E-02        -0.19318E-02         0.00000E+00
    0.16969E-02        -0.20370E-02         0.00000E+00
    0.17482E-02        -0.21442E-02         0.00000E+00
    0.17993E-02        -0.22535E-02         0.00000E+00
    0.18503E-02        -0.23651E-02         0.00000E+00
    0.19014E-02        -0.24791E-02         0.00000E+00
    0.19527E-02        -0.25956E-02         0.00000E+00
    0.20042E-02        -0.27145E-02         0.00000E+00
    0.20561E-02        -0.28362E-02         0.00000E+00
    0.21083E-02        -0.29605E-02         0.00000E+00
    0.21610E-02        -0.30877E-02         0.00000E+00
    0.22142E-02        -0.32178E-02         0.00000E+00
    0.22679E-02        -0.33509E-02         0.00000E+00
    0.23223E-02        -0.34871E-02         0.00000E+00
    0.23772E-02        -0.36265E-02         0.00000E+00
    0.24328E-02        -0.37692E-02         0.00000E+00
    0.24890E-02        -0.39152E-02         0.00000E+00
    0.25458E-02        -0.40646E-02         0.00000E+00
    0.26033E-02        -0.42176E-02         0.00000E+00
    0.26614E-02        -0.43741E-02         0.00000E+00
    0.27202E-02        -0.45344E-02         0.00000E+00
    0.27795E-02        -0.46984E-02         0.00000E+00
    0.28394E-02        -0.48663E-02         0.00000E+00
    0.28998E-02        -0.50381E-02         0.00000E+00
    0.29607E-02        -0.52139E-02         0.00000E+00
    0.30220E-02        -0.53937E-02         0.00000E+00
    0.30838E-02        -0.55777E-02         0.00000E+00
    0.31458E-02        -0.57659E-02         0.00000E+00
    0.32081E-02        -0.59584E-02         0.00000E+00
    0.32706E-02        -0.61553E-02         0.00000E+00
    0.33331E-02        -0.63565E-02         0.00000E+00
    0.33957E-02        -0.65622E-02         0.00000E+00
    0.34581E-02        -0.67724E-02         0.00000E+00
    0.35204E-02        -0.69872E-02         0.00000E+00
    0.35822E-02        -0.72065E-02         0.00000E+00
    0.36437E-02        -0.74306E-02         0.00000E+00
    0.37045E-02        -0.76593E-02         0.00000E+00
    0.37645E-02        -0.78927E-02         0.00000E+00
    0.38236E-02        -0.81308E-02         0.00000E+00
    0.38817E-02        -0.83738E-02         0.00000E+00
    0.39384E-02        -0.86215E-02         0.00000E+00
    0.39937E-02        -0.88740E-02         0.00000E+00
    0.40473E-02        -0.91312E-02         0.00000E+00
    0.40989E-02        -0.93933E-02         0.00000E+00
    0.41484E-02        -0.96602E-02         0.00000E+00
    0.41954E-02        -0.99318E-02         0.00000E+00
    0.42397E-02        -0.10208E-01         0.00000E+00
    0.42809E-02        -0.10489E-01         0.00000E+00
    0.43188E-02        -0.10775E-01         0.00000E+00
    0.43530E-02        -0.11066E-01         0.00000E+00
    0.43830E-02        -0.11361E-01         0.00000E+00
    0.44086E-02        -0.11660E-01         0.00000E+00
    0.44292E-02        -0.11964E-01         0.00000E+00
    0.44443E-02        -0.12273E-01         0.00000E+00
    0.44536E-02        -0.12586E-01         0.00000E+00
    0.44563E-02        -0.12903E-01         0.00000E+00
    0.44520E-02        -0.13224E-01         0.00000E+00
    0.44399E-02        -0.13550E-01         0.00000E+00
    0.44194E-02        -0.13880E-01         0.00000E+00
    0.43897E-02        -0.14213E-01         0.00000E+00
    0.43501E-02        -0.14551E-01         0.00000E+00
    0.42995E-02        -0.14893E-01         0.00000E+00
    0.42371E-02        -0.15238E-01         0.00000E+00
    0.41618E-02        -0.15587E-01         0.00000E+00
    0.40724E-02        -0.15940E-01         0.00000E+00
    0.39678E-02        -0.16296E-01         0.00000E+00
    0.38466E-02        -0.16654E-01         0.00000E+00
    0.37073E-02        -0.17014E-01         0.00000E+00
    0.35484E-02        -0.17375E-01         0.00000E+00
    0.33683E-02        -0.17735E-01         0.00000E+00
    0.31652E-02        -0.18093E-01         0.00000E+00
    0.29372E-02        -0.18446E-01         0.00000E+00
    0.26824E-02        -0.18790E-01         0.00000E+00
    0.23990E-02        -0.19121E-01         0.00000E+00
    0.20852E-02        -0.19432E-01         0.00000E+00
    0.17394E-02        -0.19714E-01         0.00000E+00
    0.13603E-02        -0.19958E-01         0.00000E+00
    0.94645E-03        -0.20151E-01         0.00000E+00
    0.49510E-03        -0.20276E-01         0.00000E+00
    0.00000E+00        -0.20319E-01         0.00000E+00
    0.00000E+00        -0.30498E-03         0.00000E+00
    0.13407E-03        -0.31510E-03         0.00000E+00
    0.25889E-03        -0.34399E-03         0.00000E+00
    0.37591E-03        -0.38836E-03         0.00000E+00
    0.48578E-03        -0.44476E-03         0.00000E+00
    0.58886E-03        -0.51032E-03         0.00000E+00
    0.68555E-03        -0.58287E-03         0.00000E+00
    0.77631E-03        -0.66072E-03         0.00000E+00
    0.86163E-03        -0.74265E-03         0.00000E+00
    0.94203E-03        -0.82773E-03         0.00000E+00
    0.10180E-02        -0.91529E-03         0.00000E+00
    0.10901E-02        -0.10049E-02         0.00000E+00
    0.11587E-02        -0.10963E-02         0.00000E+00
    0.12243E-02        -0.11892E-02         0.00000E+00
    0.12872E-02        -0.12836E-02         0.00000E+00
    0.13479E-02        -0.13795E-02         0.00000E+00
    0.14067E-02        -0.14768E-02         0.00000E+00
    0.14638E-02        -0.15758E-02         0.00000E+00
    0.15196E-02        -0.16763E-02         0.00000E+00
    0.15743E-02        -0.17786E-02         0.00000E+00
    0.16281E-02        -0.18826E-02         0.00000E+00
    0.16812E-02        -0.19886E-02         0.00000E+00
    0.17338E-02        -0.20967E-02         0.00000E+00
    0.17861E-02        -0.22068E-02         0.00000E+00
    0.18382E-02        -0.23192E-02         0.00000E+00
    0.18903E-02        -0.24339E-02         0.00000E+00
    0.19424E-02        -0.25511E-02         0.00000E+00
    0.19947E-02        -0.26707E-02         0.00000E+00
    0.20473E-02        -0.27930E-02         0.00000E+00
    0.21002E-02        -0.29181E-02         0.00000E+00
    0.21535E-02        -0.30459E-02         0.00000E+00
    0.22073E-02        -0.31766E-02         0.00000E+00
    0.22616E-02        -0.33104E-02         0.00000E+00
    0.23165E-02        -0.34472E-02         0.00000E+00
    0.23719E-02        -0.35872E-02         0.00000E+00
    0.24280E-02        -0.37305E-02         0.00000E+00
    0.24848E-02        -0.38772E-02         0.00000E+00
    0.25422E-02        -0.40273E-02         0.00000E+00
    0.26003E-02        -0.41809E-02         0.00000E+00
    0.26590E-02        -0.43381E-02         0.00000E+00
    0.27184E-02        -0.44991E-02         0.00000E+00
    0.27784E-02        -0.46638E-02         0.00000E+00
    0.28390E-02        -0.48324E-02         0.00000E+00
    0.29002E-02        -0.50050E-02         0.00000E+00
    0.29619E-02        -0.51816E-02         0.00000E+00
    0.30242E-02        -0.53623E-02         0.00000E+00
    0.30869E-02        -0.55472E-02         0.00000E+00
    0.31500E-02        -0.57363E-02         0.00000E+00
    0.32134E-02        -0.59297E-02         0.00000E+00
    0.32771E-02        -0.61276E-02         0.00000E+00
    0.33410E-02        -0.63299E-02         0.00000E+00
    0.34050E-02        -0.65367E-02         0.00000E+00
    0.34689E-02        -0.67481E-02         0.00000E+00
    0.35328E-02        -0.69641E-02         0.00000E+00
    0.35964E-02        -0.71848E-02         0.00000E+00
    0.36597E-02        -0.74103E-02         0.00000E+00
    0.37226E-02        -0.76405E-02         0.00000E+00
    0.37848E-02        -0.78755E-02         0.00000E+00
    0.38463E-02        -0.81153E-02         0.00000E+00
    0.39068E-02        -0.83600E-02         0.00000E+00
    0.39662E-02        -0.86096E-02         0.00000E+00
    0.40243E-02        -0.88641E-02         0.00000E+00
    0.40809E-02        -0.91235E-02         0.00000E+00
    0.41358E-02        -0.93879E-02         0.00000E+00
    0.41887E-02        -0.96571E-02         0.00000E+00
    0.42395E-02        -0.99312E-02         0.00000E+00
    0.42877E-02        -0.10210E-01         0.00000E+00
    0.43332E-02        -0.10494E-01         0.00000E+00
    0.43756E-02        -0.10783E-01         0.00000E+00
    0.44145E-02        -0.11076E-01         0.00000E+00
    0.44497E-02        -0.11375E-01         0.00000E+00
    0.44807E-02        -0.11678E-01         0.00000E+00
    0.45071E-02        -0.11985E-01         0.00000E+00
    0.45285E-02        -0.12297E-01         0.00000E+00
    0.45444E-02        -0.12614E-01         0.00000E+00
    0.45543E-02        -0.12935E-01         0.00000E+00
    0.45575E-02        -0.13261E-01         0.00000E+00
    0.45536E-02        -0.13591E-01         0.00000E+00
    0.45418E-02        -0.13925E-01         0.00000E+00
    0.45214E-02        -0.14263E-01         0.00000E+00
    0.44917E-02        -0.14606E-01         0.00000E+00
    0.44518E-02        -0.14952E-01         0.00000E+00
    0.44008E-02        -0.15303E-01         0.00000E+00
    0.43377E-02        -0.15657E-01         0.00000E+00
    0.42614E-02        -0.16015E-01         0.00000E+00
    0.41708E-02        -0.16376E-01         0.00000E+00
    0.40645E-02        -0.16740E-01         0.00000E+00
    0.39412E-02        -0.17107E-01         0.00000E+00
    0.37993E-02        -0.17476E-01         0.00000E+00
    0.36373E-02        -0.17846E-01         0.00000E+00
    0.34534E-02        -0.18215E-01         0.00000E+00
    0.32457E-02        -0.18581E-01         0.00000E+00
    0.30123E-02        -0.18942E-01         0.00000E+00
    0.27512E-02        -0.19295E-01         0.00000E+00
    0.24604E-02        -0.19633E-01         0.00000E+00
    0.21382E-02        -0.19951E-01         0.00000E+00
    0.17829E-02        -0.20241E-01         0.00000E+00
    0.13934E-02        -0.20493E-01         0.00000E+00
    0.96852E-03        -0.20691E-01         0.00000E+00
    0.50602E-03        -0.20821E-01         0.00000E+00
    0.00000E+00        -0.20867E-01         0.00000E+00
    0.00000E+00        -0.31849E-03         0.00000E+00
    0.13693E-03        -0.32904E-03         0.00000E+00
    0.26466E-03        -0.35905E-03         0.00000E+00
    0.38456E-03        -0.40489E-03         0.00000E+00
    0.49716E-03        -0.46290E-03         0.00000E+00
    0.60276E-03        -0.53017E-03         0.00000E+00
    0.70175E-03        -0.60451E-03         0.00000E+00
    0.79457E-03        -0.68423E-03         0.00000E+00
    0.88176E-03        -0.76810E-03         0.00000E+00
    0.96385E-03        -0.85520E-03         0.00000E+00
    0.10414E-02        -0.94486E-03         0.00000E+00
    0.11149E-02        -0.10366E-02         0.00000E+00
    0.11848E-02        -0.11302E-02         0.00000E+00
    0.12516E-02        -0.12254E-02         0.00000E+00
    0.13157E-02        -0.13222E-02         0.00000E+00
    0.13774E-02        -0.14205E-02         0.00000E+00
    0.14372E-02        -0.15204E-02         0.00000E+00
    0.14954E-02        -0.16218E-02         0.00000E+00
    0.15521E-02        -0.17250E-02         0.00000E+00
    0.16078E-02        -0.18299E-02         0.00000E+00
    0.16626E-02        -0.19368E-02         0.00000E+00
    0.17166E-02        -0.20456E-02         0.00000E+00
    0.17702E-02        -0.21565E-02         0.00000E+00
    0.18235E-02        -0.22696E-02         0.00000E+00
    0.18766E-02        -0.23850E-02         0.00000E+00
    0.19296E-02        -0.25028E-02         0.00000E+00
    0.19827E-02        -0.26231E-02         0.00000E+00
    0.20360E-02        -0.27460E-02         0.00000E+00
    0.20896E-02        -0.28716E-02         0.00000E+00
    0.21436E-02        -0.30001E-02         0.00000E+00
    0.21979E-02        -0.31314E-02         0.00000E+00
    0.22528E-02        -0.32657E-02         0.00000E+00
    0.23082E-02        -0.34031E-02         0.00000E+00
    0.23642E-02        -0.35436E-02         0.00000E+00
    0.24208E-02        -0.36875E-02         0.00000E+00
    0.24780E-02        -0.38347E-02         0.00000E+00
    0.25359E-02        -0.39853E-02         0.00000E+00
    0.25945E-02        -0.41395E-02         0.00000E+00
    0.26538E-02        -0.42973E-02         0.00000E+00
    0.27137E-02        -0.44588E-02         0.00000E+00
    0.27744E-02        -0.46242E-02         0.00000E+00
    0.28356E-02        -0.47934E-02         0.00000E+00
    0.28975E-02        -0.49666E-02         0.00000E+00
    0.29600E-02        -0.51438E-02         0.00000E+00
    0.30231E-02        -0.53252E-02         0.00000E+00
    0.30867E-02        -0.55108E-02         0.00000E+00
    0.31507E-02        -0.57007E-02         0.00000E+00
    0.32152E-02        -0.58950E-02         0.00000E+00
    0.32800E-02        -0.60937E-02         0.00000E+00
    0.33450E-02        -0.62969E-02         0.00000E+00
    0.34103E-02        -0.65047E-02         0.00000E+00
    0.34756E-02        -0.67171E-02         0.00000E+00
    0.35410E-02        -0.69342E-02         0.00000E+00
    0.36063E-02        -0.71560E-02         0.00000E+00
    0.36713E-02        -0.73827E-02         0.00000E+00
    0.37361E-02        -0.76142E-02         0.00000E+00
    0.38003E-02        -0.78506E-02         0.00000E+00
    0.38639E-02        -0.80919E-02         0.00000E+00
    0.39268E-02        -0.83381E-02         0.00000E+00
    0.39887E-02        -0.85894E-02         0.00000E+00
    0.40495E-02        -0.88457E-02         0.00000E+00
    0.41090E-02        -0.91070E-02         0.00000E+00
    0.41669E-02        -0.93733E-02         0.00000E+00
    0.42231E-02        -0.96446E-02         0.00000E+00
    0.42773E-02        -0.99210E-02         0.00000E+00
    0.43293E-02        -0.10202E-01         0.00000E+00
    0.43788E-02        -0.10489E-01         0.00000E+00
    0.44254E-02        -0.10780E-01         0.00000E+00
    0.44689E-02        -0.11076E-01         0.00000E+00
    0.45090E-02        -0.11378E-01         0.00000E+00
    0.45452E-02        -0.11684E-01         0.00000E+00
    0.45772E-02        -0.11995E-01         0.00000E+00
    0.46045E-02        -0.12310E-01         0.00000E+00
    0.46267E-02        -0.12631E-01         0.00000E+00
    0.46434E-02        -0.12955E-01         0.00000E+00
    0.46539E-02        -0.13285E-01         0.00000E+00
    0.46577E-02        -0.13619E-01         0.00000E+00
    0.46542E-02        -0.13957E-01         0.00000E+00
    0.46427E-02        -0.14300E-01         0.00000E+00
    0.46225E-02        -0.14647E-01         0.00000E+00
    0.45928E-02        -0.14998E-01         0.00000E+00
    0.45527E-02        -0.15353E-01         0.00000E+00
    0.45013E-02        -0.15712E-01         0.00000E+00
    0.44376E-02        -0.16075E-01         0.00000E+00
    0.43605E-02        -0.16442E-01         0.00000E+00
    0.42687E-02        -0.16812E-01         0.00000E+00
    0.41609E-02        -0.17185E-01         0.00000E+00
    0.40356E-02        -0.17560E-01         0.00000E+00
    0.38913E-02        -0.17938E-01         0.00000E+00
    0.37263E-02        -0.18316E-01         0.00000E+00
    0.35387E-02        -0.18693E-01         0.00000E+00
    0.33266E-02        -0.19068E-01         0.00000E+00
    0.30880E-02        -0.19438E-01         0.00000E+00
    0.28207E-02        -0.19798E-01         0.00000E+00
    0.25228E-02        -0.20144E-01         0.00000E+00
    0.21922E-02        -0.20470E-01         0.00000E+00
    0.18275E-02        -0.20768E-01         0.00000E+00
    0.14274E-02        -0.21026E-01         0.00000E+00
    0.99123E-03        -0.21231E-01         0.00000E+00
    0.51727E-03        -0.21366E-01         0.00000E+00
    0.00000E+00        -0.21413E-01         0.00000E+00
    0.00000E+00        -0.33216E-03         0.00000E+00
    0.13986E-03        -0.34318E-03         0.00000E+00
    0.27057E-03        -0.37436E-03         0.00000E+00
    0.39339E-03        -0.42169E-03         0.00000E+00
    0.50873E-03        -0.48131E-03         0.00000E+00
    0.61683E-03        -0.55028E-03         0.00000E+00
    0.71806E-03        -0.62639E-03         0.00000E+00
    0.81291E-03        -0.70797E-03         0.00000E+00
    0.90192E-03        -0.79377E-03         0.00000E+00
    0.98565E-03        -0.88287E-03         0.00000E+00
    0.10647E-02        -0.97461E-03         0.00000E+00
    0.11395E-02        -0.10685E-02         0.00000E+00
    0.12107E-02        -0.11643E-02         0.00000E+00
    0.12786E-02        -0.12618E-02         0.00000E+00
    0.13438E-02        -0.13610E-02         0.00000E+00
    0.14066E-02        -0.14617E-02         0.00000E+00
    0.14674E-02        -0.15640E-02         0.00000E+00
    0.15265E-02        -0.16680E-02         0.00000E+00
    0.15843E-02        -0.17738E-02         0.00000E+00
    0.16409E-02        -0.18814E-02         0.00000E+00
    0.16966E-02        -0.19910E-02         0.00000E+00
    0.17516E-02        -0.21026E-02         0.00000E+00
    0.18061E-02        -0.22164E-02         0.00000E+00
    0.18603E-02        -0.23325E-02         0.00000E+00
    0.19143E-02        -0.24509E-02         0.00000E+00
    0.19683E-02        -0.25718E-02         0.00000E+00
    0.20224E-02        -0.26953E-02         0.00000E+00
    0.20767E-02        -0.28214E-02         0.00000E+00
    0.21313E-02        -0.29504E-02         0.00000E+00
    0.21862E-02        -0.30822E-02         0.00000E+00
    0.22416E-02        -0.32170E-02         0.00000E+00
    0.22975E-02        -0.33548E-02         0.00000E+00
    0.23540E-02        -0.34959E-02         0.00000E+00
    0.24111E-02        -0.36402E-02         0.00000E+00
    0.24688E-02        -0.37878E-02         0.00000E+00
    0.25272E-02        -0.39389E-02         0.00000E+00
    0.25862E-02        -0.40936E-02         0.00000E+00
    0.26460E-02        -0.42518E-02         0.00000E+00
    0.27064E-02        -0.44138E-02         0.00000E+00
    0.27676E-02        -0.45797E-02         0.00000E+00
    0.28294E-02        -0.47494E-02         0.00000E+00
    0.28919E-02        -0.49231E-02         0.00000E+00
    0.29551E-02        -0.51009E-02         0.00000E+00
    0.30189E-02        -0.52828E-02         0.00000E+00
    0.30832E-02        -0.54690E-02         0.00000E+00
    0.31481E-02        -0.56595E-02         0.00000E+00
    0.32135E-02        -0.58544E-02         0.00000E+00
    0.32793E-02        -0.60538E-02         0.00000E+00
    0.33454E-02        -0.62578E-02         0.00000E+00
    0.34118E-02        -0.64663E-02         0.00000E+00
    0.34785E-02        -0.66796E-02         0.00000E+00
    0.35452E-02        -0.68976E-02         0.00000E+00
    0.36120E-02        -0.71204E-02         0.00000E+00
    0.36786E-02        -0.73481E-02         0.00000E+00
    0.37451E-02        -0.75807E-02         0.00000E+00
    0.38112E-02        -0.78182E-02         0.00000E+00
    0.38768E-02        -0.80608E-02         0.00000E+00
    0.39418E-02        -0.83084E-02         0.00000E+00
    0.40061E-02        -0.85611E-02         0.00000E+00
    0.40694E-02        -0.88189E-02         0.00000E+00
    0.41315E-02        -0.90818E-02         0.00000E+00
    0.41924E-02        -0.93499E-02         0.00000E+00
    0.42516E-02        -0.96231E-02         0.00000E+00
    0.43092E-02        -0.99015E-02         0.00000E+00
    0.43647E-02        -0.10185E-01         0.00000E+00
    0.44179E-02        -0.10474E-01         0.00000E+00
    0.44686E-02        -0.10767E-01         0.00000E+00
    0.45164E-02        -0.11066E-01         0.00000E+00
    0.45611E-02        -0.11370E-01         0.00000E+00
    0.46022E-02        -0.11679E-01         0.00000E+00
    0.46395E-02        -0.11993E-01         0.00000E+00
    0.46724E-02        -0.12312E-01         0.00000E+00
    0.47007E-02        -0.12635E-01         0.00000E+00
    0.47238E-02        -0.12964E-01         0.00000E+00
    0.47412E-02        -0.13297E-01         0.00000E+00
    0.47524E-02        -0.13635E-01         0.00000E+00
    0.47568E-02        -0.13977E-01         0.00000E+00
    0.47537E-02        -0.14324E-01         0.00000E+00
    0.47426E-02        -0.14675E-01         0.00000E+00
    0.47226E-02        -0.15030E-01         0.00000E+00
    0.46930E-02        -0.15390E-01         0.00000E+00
    0.46528E-02        -0.15754E-01         0.00000E+00
    0.46012E-02        -0.16121E-01         0.00000E+00
    0.45370E-02        -0.16493E-01         0.00000E+00
    0.44591E-02        -0.16868E-01         0.00000E+00
    0.43662E-02        -0.17247E-01         0.00000E+00
    0.42570E-02        -0.17629E-01         0.00000E+00
    0.41299E-02        -0.18013E-01         0.00000E+00
    0.39834E-02        -0.18399E-01         0.00000E+00
    0.38155E-02        -0.18786E-01         0.00000E+00
    0.36245E-02        -0.19171E-01         0.00000E+00
    0.34082E-02        -0.19555E-01         0.00000E+00
    0.31645E-02        -0.19932E-01         0.00000E+00
    0.28912E-02        -0.20300E-01         0.00000E+00
    0.25862E-02        -0.20654E-01         0.00000E+00
    0.22474E-02        -0.20988E-01         0.00000E+00
    0.18732E-02        -0.21293E-01         0.00000E+00
    0.14624E-02        -0.21558E-01         0.00000E+00
    0.10147E-02        -0.21770E-01         0.00000E+00
    0.52890E-03        -0.21910E-01         0.00000E+00
    0.00000E+00        -0.21960E-01         0.00000E+00
    0.00000E+00        -0.34598E-03         0.00000E+00
    0.14287E-03        -0.35751E-03         0.00000E+00
    0.27663E-03        -0.38992E-03         0.00000E+00
    0.40243E-03        -0.43875E-03         0.00000E+00
    0.52050E-03        -0.49999E-03         0.00000E+00
    0.63107E-03        -0.57065E-03         0.00000E+00
    0.73452E-03        -0.64852E-03         0.00000E+00
    0.83134E-03        -0.73193E-03         0.00000E+00
    0.92211E-03        -0.81964E-03         0.00000E+00
    0.10074E-02        -0.91073E-03         0.00000E+00
    0.10879E-02        -0.10045E-02         0.00000E+00
    0.11640E-02        -0.11006E-02         0.00000E+00
    0.12364E-02        -0.11986E-02         0.00000E+00
    0.13054E-02        -0.12984E-02         0.00000E+00
    0.13717E-02        -0.13998E-02         0.00000E+00
    0.14355E-02        -0.15030E-02         0.00000E+00
    0.14973E-02        -0.16078E-02         0.00000E+00
    0.15573E-02        -0.17144E-02         0.00000E+00
    0.16160E-02        -0.18227E-02         0.00000E+00
    0.16735E-02        -0.19330E-02         0.00000E+00
    0.17300E-02        -0.20454E-02         0.00000E+00
    0.17860E-02        -0.21598E-02         0.00000E+00
    0.18414E-02        -0.22765E-02         0.00000E+00
    0.18965E-02        -0.23955E-02         0.00000E+00
    0.19515E-02        -0.25169E-02         0.00000E+00
    0.20064E-02        -0.26409E-02         0.00000E+00
    0.20614E-02        -0.27675E-02         0.00000E+00
    0.21167E-02        -0.28969E-02         0.00000E+00
    0.21722E-02        -0.30292E-02         0.00000E+00
    0.22282E-02        -0.31644E-02         0.00000E+00
    0.22846E-02        -0.33027E-02         0.00000E+00
    0.23415E-02        -0.34441E-02         0.00000E+00
    0.23990E-02        -0.35888E-02         0.00000E+00
    0.24572E-02        -0.37368E-02         0.00000E+00
    0.25160E-02        -0.38883E-02         0.00000E+00
    0.25755E-02        -0.40433E-02         0.00000E+00
    0.26356E-02        -0.42019E-02         0.00000E+00
    0.26965E-02        -0.43643E-02         0.00000E+00
    0.27582E-02        -0.45305E-02         0.00000E+00
    0.28205E-02        -0.47006E-02         0.00000E+00
    0.28835E-02        -0.48747E-02         0.00000E+00
    0.29473E-02        -0.50529E-02         0.00000E+00
    0.30117E-02        -0.52353E-02         0.00000E+00
    0.30767E-02        -0.54219E-02         0.00000E+00
    0.31423E-02        -0.56129E-02         0.00000E+00
    0.32085E-02        -0.58084E-02         0.00000E+00
    0.32752E-02        -0.60083E-02         0.00000E+00
    0.33423E-02        -0.62128E-02         0.00000E+00
    0.34098E-02        -0.64220E-02         0.00000E+00
    0.34775E-02        -0.66359E-02         0.00000E+00
    0.35455E-02        -0.68546E-02         0.00000E+00
    0.36136E-02        -0.70782E-02         0.00000E+00
    0.36818E-02        -0.73067E-02         0.00000E+00
    0.37498E-02        -0.75402E-02         0.00000E+00
    0.38176E-02        -0.77788E-02         0.00000E+00
    0.38851E-02        -0.80224E-02         0.00000E+00
    0.39522E-02        -0.82711E-02         0.00000E+00
    0.40186E-02        -0.85251E-02         0.00000E+00
    0.40842E-02        -0.87842E-02         0.00000E+00
    0.41488E-02        -0.90485E-02         0.00000E+00
    0.42123E-02        -0.93181E-02         0.00000E+00
    0.42745E-02        -0.95930E-02         0.00000E+00
    0.43351E-02        -0.98731E-02         0.00000E+00
    0.43940E-02        -0.10159E-01         0.00000E+00
    0.44507E-02        -0.10449E-01         0.00000E+00
    0.45052E-02        -0.10745E-01         0.00000E+00
    0.45571E-02        -0.11046E-01         0.00000E+00
    0.46062E-02        -0.11353E-01         0.00000E+00
    0.46520E-02        -0.11664E-01         0.00000E+00
    0.46942E-02        -0.11981E-01         0.00000E+00
    0.47325E-02        -0.12302E-01         0.00000E+00
    0.47665E-02        -0.12629E-01         0.00000E+00
    0.47957E-02        -0.12961E-01         0.00000E+00
    0.48196E-02        -0.13297E-01         0.00000E+00
    0.48378E-02        -0.13638E-01         0.00000E+00
    0.48497E-02        -0.13984E-01         0.00000E+00
    0.48548E-02        -0.14335E-01         0.00000E+00
    0.48523E-02        -0.14690E-01         0.00000E+00
    0.48415E-02        -0.15050E-01         0.00000E+00
    0.48219E-02        -0.15414E-01         0.00000E+00
    0.47924E-02        -0.15782E-01         0.00000E+00
    0.47522E-02        -0.16154E-01         0.00000E+00
    0.47003E-02        -0.16531E-01         0.00000E+00
    0.46357E-02        -0.16911E-01         0.00000E+00
    0.45572E-02        -0.17295E-01         0.00000E+00
    0.44634E-02        -0.17682E-01         0.00000E+00
    0.43529E-02        -0.18073E-01         0.00000E+00
    0.42242E-02        -0.18465E-01         0.00000E+00
    0.40755E-02        -0.18860E-01         0.00000E+00
    0.39050E-02        -0.19255E-01         0.00000E+00
    0.37106E-02        -0.19649E-01         0.00000E+00
    0.34903E-02        -0.20040E-01         0.00000E+00
    0.32417E-02        -0.20426E-01         0.00000E+00
    0.29626E-02        -0.20802E-01         0.00000E+00
    0.26507E-02        -0.21164E-01         0.00000E+00
    0.23038E-02        -0.21505E-01         0.00000E+00
    0.19202E-02        -0.21817E-01         0.00000E+00
    0.14987E-02        -0.22090E-01         0.00000E+00
    0.10391E-02        -0.22308E-01         0.00000E+00
    0.54100E-03        -0.22454E-01         0.00000E+00
    0.00000E+00        -0.22505E-01         0.00000E+00
    0.00000E+00        -0.35996E-03         0.00000E+00
    0.14597E-03        -0.37204E-03         0.00000E+00
    0.28289E-03        -0.40573E-03         0.00000E+00
    0.41170E-03        -0.45609E-03         0.00000E+00
    0.53253E-03        -0.51894E-03         0.00000E+00
    0.64554E-03        -0.59127E-03         0.00000E+00
    0.75115E-03        -0.67087E-03         0.00000E+00
    0.84989E-03        -0.75610E-03         0.00000E+00
    0.94237E-03        -0.84571E-03         0.00000E+00
    0.10292E-02        -0.93877E-03         0.00000E+00
    0.11110E-02        -0.10346E-02         0.00000E+00
    0.11884E-02        -0.11328E-02         0.00000E+00
    0.12619E-02        -0.12330E-02         0.00000E+00
    0.13321E-02        -0.13350E-02         0.00000E+00
    0.13993E-02        -0.14389E-02         0.00000E+00
    0.14641E-02        -0.15444E-02         0.00000E+00
    0.15268E-02        -0.16517E-02         0.00000E+00
    0.15877E-02        -0.17608E-02         0.00000E+00
    0.16472E-02        -0.18718E-02         0.00000E+00
    0.17056E-02        -0.19848E-02         0.00000E+00
    0.17630E-02        -0.20998E-02         0.00000E+00
    0.18198E-02        -0.22171E-02         0.00000E+00
    0.18761E-02        -0.23366E-02         0.00000E+00
    0.19321E-02        -0.24585E-02         0.00000E+00
    0.19880E-02        -0.25830E-02         0.00000E+00
    0.20438E-02        -0.27101E-02         0.00000E+00
    0.20998E-02        -0.28399E-02         0.00000E+00
    0.21560E-02        -0.29726E-02         0.00000E+00
    0.22125E-02        -0.31081E-02         0.00000E+00
    0.22694E-02        -0.32467E-02         0.00000E+00
    0.23268E-02        -0.33885E-02         0.00000E+00
    0.23847E-02        -0.35335E-02         0.00000E+00
    0.24433E-02        -0.36818E-02         0.00000E+00
    0.25025E-02        -0.38336E-02         0.00000E+00
    0.25623E-02        -0.39889E-02         0.00000E+00
    0.26229E-02        -0.41478E-02         0.00000E+00
    0.26842E-02        -0.43104E-02         0.00000E+00
    0.27462E-02        -0.44769E-02         0.00000E+00
    0.28090E-02        -0.46473E-02         0.00000E+00
    0.28725E-02        -0.48217E-02         0.00000E+00
    0.29367E-02        -0.50002E-02         0.00000E+00
    0.30017E-02        -0.51829E-02         0.00000E+00
    0.30673E-02        -0.53698E-02         0.00000E+00
    0.31335E-02        -0.55612E-02         0.00000E+00
    0.32004E-02        -0.57570E-02         0.00000E+00
    0.32679E-02        -0.59573E-02         0.00000E+00
    0.33358E-02        -0.61623E-02         0.00000E+00
    0.34043E-02        -0.63719E-02         0.00000E+00
    0.34731E-02        -0.65864E-02         0.00000E+00
    0.35422E-02        -0.68056E-02         0.00000E+00
    0.36115E-02        -0.70298E-02         0.00000E+00
    0.36809E-02        -0.72590E-02         0.00000E+00
    0.37504E-02        -0.74932E-02         0.00000E+00
    0.38198E-02        -0.77325E-02         0.00000E+00
    0.38890E-02        -0.79770E-02         0.00000E+00
    0.39579E-02        -0.82267E-02         0.00000E+00
    0.40263E-02        -0.84816E-02         0.00000E+00
    0.40941E-02        -0.87419E-02         0.00000E+00
    0.41610E-02        -0.90074E-02         0.00000E+00
    0.42271E-02        -0.92783E-02         0.00000E+00
    0.42919E-02        -0.95546E-02         0.00000E+00
    0.43554E-02        -0.98362E-02         0.00000E+00
    0.44174E-02        -0.10123E-01         0.00000E+00
    0.44775E-02        -0.10416E-01         0.00000E+00
    0.45356E-02        -0.10713E-01         0.00000E+00
    0.45913E-02        -0.11017E-01         0.00000E+00
    0.46445E-02        -0.11325E-01         0.00000E+00
    0.46947E-02        -0.11639E-01         0.00000E+00
    0.47416E-02        -0.11958E-01         0.00000E+00
    0.47850E-02        -0.12282E-01         0.00000E+00
    0.48244E-02        -0.12612E-01         0.00000E+00
    0.48594E-02        -0.12946E-01         0.00000E+00
    0.48895E-02        -0.13286E-01         0.00000E+00
    0.49144E-02        -0.13630E-01         0.00000E+00
    0.49334E-02        -0.13980E-01         0.00000E+00
    0.49460E-02        -0.14334E-01         0.00000E+00
    0.49517E-02        -0.14693E-01         0.00000E+00
    0.49498E-02        -0.15057E-01         0.00000E+00
    0.49395E-02        -0.15425E-01         0.00000E+00
    0.49202E-02        -0.15797E-01         0.00000E+00
    0.48909E-02        -0.16174E-01         0.00000E+00
    0.48508E-02        -0.16555E-01         0.00000E+00
    0.47988E-02        -0.16940E-01         0.00000E+00
    0.47339E-02        -0.17329E-01         0.00000E+00
    0.46548E-02        -0.17721E-01         0.00000E+00
    0.45602E-02        -0.18117E-01         0.00000E+00
    0.44486E-02        -0.18516E-01         0.00000E+00
    0.43184E-02        -0.18918E-01         0.00000E+00
    0.41677E-02        -0.19320E-01         0.00000E+00
    0.39947E-02        -0.19724E-01         0.00000E+00
    0.37973E-02        -0.20126E-01         0.00000E+00
    0.35731E-02        -0.20526E-01         0.00000E+00
    0.33199E-02        -0.20919E-01         0.00000E+00
    0.30352E-02        -0.21303E-01         0.00000E+00
    0.27165E-02        -0.21673E-01         0.00000E+00
    0.23616E-02        -0.22021E-01         0.00000E+00
    0.19686E-02        -0.22340E-01         0.00000E+00
    0.15363E-02        -0.22620E-01         0.00000E+00
    0.10646E-02        -0.22845E-01         0.00000E+00
    0.55363E-03        -0.22996E-01         0.00000E+00
    0.00000E+00        -0.23051E-01         0.00000E+00
    0.00000E+00        -0.37409E-03         0.00000E+00
    0.14920E-03        -0.38678E-03         0.00000E+00
    0.28938E-03        -0.42181E-03         0.00000E+00
    0.42126E-03        -0.47371E-03         0.00000E+00
    0.54482E-03        -0.53814E-03         0.00000E+00
    0.66024E-03        -0.61212E-03         0.00000E+00
    0.76797E-03        -0.69346E-03         0.00000E+00
    0.86857E-03        -0.78048E-03         0.00000E+00
    0.96269E-03        -0.87196E-03         0.00000E+00
    0.10510E-02        -0.96697E-03         0.00000E+00
    0.11341E-02        -0.10649E-02         0.00000E+00
    0.12127E-02        -0.11651E-02         0.00000E+00
    0.12873E-02        -0.12675E-02         0.00000E+00
    0.13584E-02        -0.13718E-02         0.00000E+00
    0.14266E-02        -0.14780E-02         0.00000E+00
    0.14923E-02        -0.15859E-02         0.00000E+00
    0.15559E-02        -0.16957E-02         0.00000E+00
    0.16177E-02        -0.18073E-02         0.00000E+00
    0.16780E-02        -0.19209E-02         0.00000E+00
    0.17372E-02        -0.20366E-02         0.00000E+00
    0.17956E-02        -0.21544E-02         0.00000E+00
    0.18532E-02        -0.22744E-02         0.00000E+00
    0.19103E-02        -0.23968E-02         0.00000E+00
    0.19672E-02        -0.25217E-02         0.00000E+00
    0.20239E-02        -0.26492E-02         0.00000E+00
    0.20806E-02        -0.27794E-02         0.00000E+00
    0.21375E-02        -0.29124E-02         0.00000E+00
    0.21946E-02        -0.30483E-02         0.00000E+00
    0.22520E-02        -0.31872E-02         0.00000E+00
    0.23099E-02        -0.33292E-02         0.00000E+00
    0.23683E-02        -0.34744E-02         0.00000E+00
    0.24272E-02        -0.36230E-02         0.00000E+00
    0.24867E-02        -0.37749E-02         0.00000E+00
    0.25470E-02        -0.39304E-02         0.00000E+00
    0.26079E-02        -0.40896E-02         0.00000E+00
    0.26695E-02        -0.42524E-02         0.00000E+00
    0.27319E-02        -0.44190E-02         0.00000E+00
    0.27950E-02        -0.45896E-02         0.00000E+00
    0.28589E-02        -0.47642E-02         0.00000E+00
    0.29236E-02        -0.49429E-02         0.00000E+00
    0.29890E-02        -0.51258E-02         0.00000E+00
    0.30551E-02        -0.53129E-02         0.00000E+00
    0.31219E-02        -0.55045E-02         0.00000E+00
    0.31894E-02        -0.57006E-02         0.00000E+00
    0.32575E-02        -0.59012E-02         0.00000E+00
    0.33262E-02        -0.61064E-02         0.00000E+00
    0.33955E-02        -0.63164E-02         0.00000E+00
    0.34652E-02        -0.65312E-02         0.00000E+00
    0.35352E-02        -0.67508E-02         0.00000E+00
    0.36057E-02        -0.69755E-02         0.00000E+00
    0.36763E-02        -0.72051E-02         0.00000E+00
    0.37471E-02        -0.74399E-02         0.00000E+00
    0.38179E-02        -0.76798E-02         0.00000E+00
    0.38887E-02        -0.79250E-02         0.00000E+00
    0.39592E-02        -0.81754E-02         0.00000E+00
    0.40295E-02        -0.84312E-02         0.00000E+00
    0.40992E-02        -0.86923E-02         0.00000E+00
    0.41684E-02        -0.89588E-02         0.00000E+00
    0.42367E-02        -0.92308E-02         0.00000E+00
    0.43041E-02        -0.95082E-02         0.00000E+00
    0.43703E-02        -0.97911E-02         0.00000E+00
    0.44351E-02        -0.10080E-01         0.00000E+00
    0.44984E-02        -0.10373E-01         0.00000E+00
    0.45598E-02        -0.10673E-01         0.00000E+00
    0.46191E-02        -0.10978E-01         0.00000E+00
    0.46762E-02        -0.11288E-01         0.00000E+00
    0.47305E-02        -0.11604E-01         0.00000E+00
    0.47819E-02        -0.11925E-01         0.00000E+00
    0.48301E-02        -0.12252E-01         0.00000E+00
    0.48746E-02        -0.12584E-01         0.00000E+00
    0.49150E-02        -0.12921E-01         0.00000E+00
    0.49510E-02        -0.13264E-01         0.00000E+00
    0.49822E-02        -0.13611E-01         0.00000E+00
    0.50079E-02        -0.13964E-01         0.00000E+00
    0.50278E-02        -0.14322E-01         0.00000E+00
    0.50412E-02        -0.14684E-01         0.00000E+00
    0.50476E-02        -0.15051E-01         0.00000E+00
    0.50463E-02        -0.15423E-01         0.00000E+00
    0.50366E-02        -0.15800E-01         0.00000E+00
    0.50176E-02        -0.16181E-01         0.00000E+00
    0.49886E-02        -0.16566E-01         0.00000E+00
    0.49487E-02        -0.16956E-01         0.00000E+00
    0.48967E-02        -0.17349E-01         0.00000E+00
    0.48315E-02        -0.17747E-01         0.00000E+00
    0.47520E-02        -0.18148E-01         0.00000E+00
    0.46567E-02        -0.18552E-01         0.00000E+00
    0.45441E-02        -0.18960E-01         0.00000E+00
    0.44125E-02        -0.19369E-01         0.00000E+00
    0.42601E-02        -0.19781E-01         0.00000E+00
    0.40848E-02        -0.20193E-01         0.00000E+00
    0.38845E-02        -0.20603E-01         0.00000E+00
    0.36568E-02        -0.21011E-01         0.00000E+00
    0.33991E-02        -0.21412E-01         0.00000E+00
    0.31089E-02        -0.21803E-01         0.00000E+00
    0.27837E-02        -0.22180E-01         0.00000E+00
    0.24210E-02        -0.22536E-01         0.00000E+00
    0.20187E-02        -0.22863E-01         0.00000E+00
    0.15755E-02        -0.23149E-01         0.00000E+00
    0.10913E-02        -0.23381E-01         0.00000E+00
    0.56693E-03        -0.23538E-01         0.00000E+00
    0.00000E+00        -0.23596E-01         0.00000E+00
    0.00000E+00        -0.38837E-03         0.00000E+00
    0.15258E-03        -0.40173E-03         0.00000E+00
    0.29614E-03        -0.43817E-03         0.00000E+00
    0.43115E-03        -0.49160E-03         0.00000E+00
    0.55744E-03        -0.55761E-03         0.00000E+00
    0.67523E-03        -0.63322E-03         0.00000E+00
    0.78501E-03        -0.71625E-03         0.00000E+00
    0.88741E-03        -0.80505E-03         0.00000E+00
    0.98311E-03        -0.89839E-03         0.00000E+00
    0.10728E-02        -0.99534E-03         0.00000E+00
    0.11572E-02        -0.10952E-02         0.00000E+00
    0.12369E-02        -0.11976E-02         0.00000E+00
    0.13125E-02        -0.13022E-02         0.00000E+00
    0.13846E-02        -0.14088E-02         0.00000E+00
    0.14537E-02        -0.15172E-02         0.00000E+00
    0.15203E-02        -0.16275E-02         0.00000E+00
    0.15847E-02        -0.17398E-02         0.00000E+00
    0.16473E-02        -0.18539E-02         0.00000E+00
    0.17084E-02        -0.19701E-02         0.00000E+00
    0.17684E-02        -0.20885E-02         0.00000E+00
    0.18276E-02        -0.22090E-02         0.00000E+00
    0.18860E-02        -0.23319E-02         0.00000E+00
    0.19440E-02        -0.24572E-02         0.00000E+00
    0.20016E-02        -0.25850E-02         0.00000E+00
    0.20592E-02        -0.27155E-02         0.00000E+00
    0.21168E-02        -0.28488E-02         0.00000E+00
    0.21745E-02        -0.29849E-02         0.00000E+00
    0.22325E-02        -0.31241E-02         0.00000E+00
    0.22909E-02        -0.32663E-02         0.00000E+00
    0.23497E-02        -0.34117E-02         0.00000E+00
    0.24090E-02        -0.35604E-02         0.00000E+00
    0.24689E-02        -0.37126E-02         0.00000E+00
    0.25294E-02        -0.38682E-02         0.00000E+00
    0.25906E-02        -0.40274E-02         0.00000E+00
    0.26526E-02        -0.41903E-02         0.00000E+00
    0.27152E-02        -0.43571E-02         0.00000E+00
    0.27787E-02        -0.45278E-02         0.00000E+00
    0.28429E-02        -0.47024E-02         0.00000E+00
    0.29079E-02        -0.48812E-02         0.00000E+00
    0.29737E-02        -0.50642E-02         0.00000E+00
    0.30402E-02        -0.52515E-02         0.00000E+00
    0.31075E-02        -0.54431E-02         0.00000E+00
    0.31755E-02        -0.56393E-02         0.00000E+00
    0.32442E-02        -0.58400E-02         0.00000E+00
    0.33136E-02        -0.60455E-02         0.00000E+00
    0.33835E-02        -0.62556E-02         0.00000E+00
    0.34540E-02        -0.64706E-02         0.00000E+00
    0.35250E-02        -0.66905E-02         0.00000E+00
    0.35964E-02        -0.69155E-02         0.00000E+00
    0.36681E-02        -0.71455E-02         0.00000E+00
    0.37400E-02        -0.73806E-02         0.00000E+00
    0.38121E-02        -0.76210E-02         0.00000E+00
    0.38843E-02        -0.78666E-02         0.00000E+00
    0.39564E-02        -0.81176E-02         0.00000E+00
    0.40283E-02        -0.83739E-02         0.00000E+00
    0.40999E-02        -0.86357E-02         0.00000E+00
    0.41710E-02        -0.89030E-02         0.00000E+00
    0.42414E-02        -0.91759E-02         0.00000E+00
    0.43111E-02        -0.94543E-02         0.00000E+00
    0.43798E-02        -0.97382E-02         0.00000E+00
    0.44474E-02        -0.10028E-01         0.00000E+00
    0.45136E-02        -0.10323E-01         0.00000E+00
    0.45781E-02        -0.10624E-01         0.00000E+00
    0.46408E-02        -0.10930E-01         0.00000E+00
    0.47015E-02        -0.11242E-01         0.00000E+00
    0.47597E-02        -0.11560E-01         0.00000E+00
    0.48153E-02        -0.11883E-01         0.00000E+00
    0.48680E-02        -0.12212E-01         0.00000E+00
    0.49173E-02        -0.12546E-01         0.00000E+00
    0.49629E-02        -0.12886E-01         0.00000E+00
    0.50044E-02        -0.13231E-01         0.00000E+00
    0.50415E-02        -0.13581E-01         0.00000E+00
    0.50736E-02        -0.13937E-01         0.00000E+00
    0.51003E-02        -0.14297E-01         0.00000E+00
    0.51211E-02        -0.14663E-01         0.00000E+00
    0.51354E-02        -0.15034E-01         0.00000E+00
    0.51425E-02        -0.15409E-01         0.00000E+00
    0.51418E-02        -0.15790E-01         0.00000E+00
    0.51326E-02        -0.16175E-01         0.00000E+00
    0.51142E-02        -0.16564E-01         0.00000E+00
    0.50855E-02        -0.16958E-01         0.00000E+00
    0.50458E-02        -0.17356E-01         0.00000E+00
    0.49939E-02        -0.17758E-01         0.00000E+00
    0.49286E-02        -0.18164E-01         0.00000E+00
    0.48488E-02        -0.18574E-01         0.00000E+00
    0.47529E-02        -0.18987E-01         0.00000E+00
    0.46395E-02        -0.19403E-01         0.00000E+00
    0.45067E-02        -0.19821E-01         0.00000E+00
    0.43527E-02        -0.20241E-01         0.00000E+00
    0.41754E-02        -0.20661E-01         0.00000E+00
    0.39723E-02        -0.21079E-01         0.00000E+00
    0.37412E-02        -0.21495E-01         0.00000E+00
    0.34793E-02        -0.21904E-01         0.00000E+00
    0.31840E-02        -0.22303E-01         0.00000E+00
    0.28524E-02        -0.22687E-01         0.00000E+00
    0.24821E-02        -0.23050E-01         0.00000E+00
    0.20706E-02        -0.23384E-01         0.00000E+00
    0.16165E-02        -0.23677E-01         0.00000E+00
    0.11194E-02        -0.23916E-01         0.00000E+00
    0.58100E-03        -0.24080E-01         0.00000E+00
    0.00000E+00        -0.24140E-01         0.00000E+00
    0.00000E+00        -0.40280E-03         0.00000E+00
    0.15615E-03        -0.41693E-03         0.00000E+00
    0.30324E-03        -0.45483E-03         0.00000E+00
    0.44142E-03        -0.50977E-03         0.00000E+00
    0.57041E-03        -0.57732E-03         0.00000E+00
    0.69052E-03        -0.65454E-03         0.00000E+00
    0.80230E-03        -0.73925E-03         0.00000E+00
    0.90643E-03        -0.82981E-03         0.00000E+00
    0.10036E-02        -0.92499E-03         0.00000E+00
    0.10947E-02        -0.10239E-02         0.00000E+00
    0.11802E-02        -0.11258E-02         0.00000E+00
    0.12610E-02        -0.12302E-02         0.00000E+00
    0.13376E-02        -0.13370E-02         0.00000E+00
    0.14106E-02        -0.14458E-02         0.00000E+00
    0.14805E-02        -0.15566E-02         0.00000E+00
    0.15479E-02        -0.16693E-02         0.00000E+00
    0.16131E-02        -0.17840E-02         0.00000E+00
    0.16765E-02        -0.19007E-02         0.00000E+00
    0.17384E-02        -0.20195E-02         0.00000E+00
    0.17992E-02        -0.21404E-02         0.00000E+00
    0.18591E-02        -0.22637E-02         0.00000E+00
    0.19183E-02        -0.23894E-02         0.00000E+00
    0.19770E-02        -0.25176E-02         0.00000E+00
    0.20355E-02        -0.26484E-02         0.00000E+00
    0.20939E-02        -0.27819E-02         0.00000E+00
    0.21523E-02        -0.29183E-02         0.00000E+00
    0.22109E-02        -0.30576E-02         0.00000E+00
    0.22698E-02        -0.32000E-02         0.00000E+00
    0.23290E-02        -0.33455E-02         0.00000E+00
    0.23887E-02        -0.34944E-02         0.00000E+00
    0.24489E-02        -0.36466E-02         0.00000E+00
    0.25098E-02        -0.38022E-02         0.00000E+00
    0.25713E-02        -0.39615E-02         0.00000E+00
    0.26335E-02        -0.41245E-02         0.00000E+00
    0.26964E-02        -0.42913E-02         0.00000E+00
    0.27601E-02        -0.44619E-02         0.00000E+00
    0.28246E-02        -0.46366E-02         0.00000E+00
    0.28899E-02        -0.48154E-02         0.00000E+00
    0.29560E-02        -0.49983E-02         0.00000E+00
    0.30229E-02        -0.51856E-02         0.00000E+00
    0.30906E-02        -0.53773E-02         0.00000E+00
    0.31590E-02        -0.55735E-02         0.00000E+00
    0.32282E-02        -0.57742E-02         0.00000E+00
    0.32981E-02        -0.59797E-02         0.00000E+00
    0.33686E-02        -0.61899E-02         0.00000E+00
    0.34398E-02        -0.64050E-02         0.00000E+00
    0.35115E-02        -0.66250E-02         0.00000E+00
    0.35837E-02        -0.68500E-02         0.00000E+00
    0.36564E-02        -0.70802E-02         0.00000E+00
    0.37294E-02        -0.73156E-02         0.00000E+00
    0.38026E-02        -0.75562E-02         0.00000E+00
    0.38761E-02        -0.78021E-02         0.00000E+00
    0.39495E-02        -0.80535E-02         0.00000E+00
    0.40229E-02        -0.83103E-02         0.00000E+00
    0.40962E-02        -0.85726E-02         0.00000E+00
    0.41691E-02        -0.88405E-02         0.00000E+00
    0.42415E-02        -0.91139E-02         0.00000E+00
    0.43133E-02        -0.93931E-02         0.00000E+00
    0.43843E-02        -0.96779E-02         0.00000E+00
    0.44544E-02        -0.99684E-02         0.00000E+00
    0.45233E-02        -0.10265E-01         0.00000E+00
    0.45908E-02        -0.10567E-01         0.00000E+00
    0.46566E-02        -0.10874E-01         0.00000E+00
    0.47207E-02        -0.11188E-01         0.00000E+00
    0.47826E-02        -0.11507E-01         0.00000E+00
    0.48421E-02        -0.11832E-01         0.00000E+00
    0.48989E-02        -0.12162E-01         0.00000E+00
    0.49528E-02        -0.12499E-01         0.00000E+00
    0.50032E-02        -0.12840E-01         0.00000E+00
    0.50500E-02        -0.13188E-01         0.00000E+00
    0.50927E-02        -0.13541E-01         0.00000E+00
    0.51308E-02        -0.13899E-01         0.00000E+00
    0.51640E-02        -0.14262E-01         0.00000E+00
    0.51916E-02        -0.14631E-01         0.00000E+00
    0.52133E-02        -0.15005E-01         0.00000E+00
    0.52284E-02        -0.15384E-01         0.00000E+00
    0.52363E-02        -0.15768E-01         0.00000E+00
    0.52363E-02        -0.16156E-01         0.00000E+00
    0.52278E-02        -0.16550E-01         0.00000E+00
    0.52099E-02        -0.16948E-01         0.00000E+00
    0.51816E-02        -0.17350E-01         0.00000E+00
    0.51422E-02        -0.17757E-01         0.00000E+00
    0.50904E-02        -0.18167E-01         0.00000E+00
    0.50252E-02        -0.18582E-01         0.00000E+00
    0.49452E-02        -0.19000E-01         0.00000E+00
    0.48489E-02        -0.19422E-01         0.00000E+00
    0.47348E-02        -0.19846E-01         0.00000E+00
    0.46010E-02        -0.20273E-01         0.00000E+00
    0.44456E-02        -0.20701E-01         0.00000E+00
    0.42663E-02        -0.21129E-01         0.00000E+00
    0.40609E-02        -0.21555E-01         0.00000E+00
    0.38266E-02        -0.21979E-01         0.00000E+00
    0.35608E-02        -0.22396E-01         0.00000E+00
    0.32605E-02        -0.22802E-01         0.00000E+00
    0.29228E-02        -0.23194E-01         0.00000E+00
    0.25450E-02        -0.23564E-01         0.00000E+00
    0.21245E-02        -0.23904E-01         0.00000E+00
    0.16595E-02        -0.24204E-01         0.00000E+00
    0.11493E-02        -0.24450E-01         0.00000E+00
    0.59603E-03        -0.24620E-01         0.00000E+00
    0.00000E+00        -0.24684E-01         0.00000E+00
    0.00000E+00        -0.41739E-03         0.00000E+00
    0.15994E-03        -0.43239E-03         0.00000E+00
    0.31074E-03        -0.47179E-03         0.00000E+00
    0.45211E-03        -0.52822E-03         0.00000E+00
    0.58377E-03        -0.59728E-03         0.00000E+00
    0.70615E-03        -0.67608E-03         0.00000E+00
    0.81986E-03        -0.76244E-03         0.00000E+00
    0.92564E-03        -0.85474E-03         0.00000E+00
    0.10243E-02        -0.95174E-03         0.00000E+00
    0.11166E-02        -0.10525E-02         0.00000E+00
    0.12032E-02        -0.11564E-02         0.00000E+00
    0.12850E-02        -0.12630E-02         0.00000E+00
    0.13625E-02        -0.13719E-02         0.00000E+00
    0.14363E-02        -0.14829E-02         0.00000E+00
    0.15071E-02        -0.15960E-02         0.00000E+00
    0.15752E-02        -0.17111E-02         0.00000E+00
    0.16411E-02        -0.18282E-02         0.00000E+00
    0.17053E-02        -0.19475E-02         0.00000E+00
    0.17679E-02        -0.20689E-02         0.00000E+00
    0.18294E-02        -0.21925E-02         0.00000E+00
    0.18901E-02        -0.23185E-02         0.00000E+00
    0.19500E-02        -0.24470E-02         0.00000E+00
    0.20095E-02        -0.25781E-02         0.00000E+00
    0.20688E-02        -0.27118E-02         0.00000E+00
    0.21280E-02        -0.28484E-02         0.00000E+00
    0.21872E-02        -0.29879E-02         0.00000E+00
    0.22466E-02        -0.31303E-02         0.00000E+00
    0.23063E-02        -0.32760E-02         0.00000E+00
    0.23664E-02        -0.34248E-02         0.00000E+00
    0.24270E-02        -0.35771E-02         0.00000E+00
    0.24881E-02        -0.37328E-02         0.00000E+00
    0.25499E-02        -0.38920E-02         0.00000E+00
    0.26124E-02        -0.40549E-02         0.00000E+00
    0.26755E-02        -0.42217E-02         0.00000E+00
    0.27395E-02        -0.43923E-02         0.00000E+00
    0.28042E-02        -0.45668E-02         0.00000E+00
    0.28697E-02        -0.47455E-02         0.00000E+00
    0.29360E-02        -0.49284E-02         0.00000E+00
    0.30032E-02        -0.51156E-02         0.00000E+00
    0.30712E-02        -0.53071E-02         0.00000E+00
    0.31400E-02        -0.55032E-02         0.00000E+00
    0.32095E-02        -0.57039E-02         0.00000E+00
    0.32799E-02        -0.59092E-02         0.00000E+00
    0.33509E-02        -0.61194E-02         0.00000E+00
    0.34226E-02        -0.63344E-02         0.00000E+00
    0.34950E-02        -0.65544E-02         0.00000E+00
    0.35680E-02        -0.67795E-02         0.00000E+00
    0.36414E-02        -0.70097E-02         0.00000E+00
    0.37153E-02        -0.72451E-02         0.00000E+00
    0.37896E-02        -0.74858E-02         0.00000E+00
    0.38641E-02        -0.77319E-02         0.00000E+00
    0.39388E-02        -0.79834E-02         0.00000E+00
    0.40136E-02        -0.82405E-02         0.00000E+00
    0.40883E-02        -0.85031E-02         0.00000E+00
    0.41629E-02        -0.87714E-02         0.00000E+00
    0.42371E-02        -0.90453E-02         0.00000E+00
    0.43109E-02        -0.93250E-02         0.00000E+00
    0.43840E-02        -0.96104E-02         0.00000E+00
    0.44564E-02        -0.99016E-02         0.00000E+00
    0.45277E-02        -0.10199E-01         0.00000E+00
    0.45979E-02        -0.10502E-01         0.00000E+00
    0.46667E-02        -0.10810E-01         0.00000E+00
    0.47339E-02        -0.11125E-01         0.00000E+00
    0.47992E-02        -0.11445E-01         0.00000E+00
    0.48624E-02        -0.11772E-01         0.00000E+00
    0.49232E-02        -0.12104E-01         0.00000E+00
    0.49813E-02        -0.12442E-01         0.00000E+00
    0.50363E-02        -0.12785E-01         0.00000E+00
    0.50880E-02        -0.13135E-01         0.00000E+00
    0.51359E-02        -0.13490E-01         0.00000E+00
    0.51797E-02        -0.13850E-01         0.00000E+00
    0.52189E-02        -0.14216E-01         0.00000E+00
    0.52531E-02        -0.14588E-01         0.00000E+00
    0.52818E-02        -0.14965E-01         0.00000E+00
    0.53044E-02        -0.15347E-01         0.00000E+00
    0.53204E-02        -0.15734E-01         0.00000E+00
    0.53291E-02        -0.16126E-01         0.00000E+00
    0.53299E-02        -0.16523E-01         0.00000E+00
    0.53220E-02        -0.16925E-01         0.00000E+00
    0.53047E-02        -0.17331E-01         0.00000E+00
    0.52769E-02        -0.17742E-01         0.00000E+00
    0.52379E-02        -0.18157E-01         0.00000E+00
    0.51864E-02        -0.18576E-01         0.00000E+00
    0.51213E-02        -0.18999E-01         0.00000E+00
    0.50412E-02        -0.19426E-01         0.00000E+00
    0.49446E-02        -0.19856E-01         0.00000E+00
    0.48300E-02        -0.20289E-01         0.00000E+00
    0.46953E-02        -0.20724E-01         0.00000E+00
    0.45387E-02        -0.21160E-01         0.00000E+00
    0.43578E-02        -0.21596E-01         0.00000E+00
    0.41501E-02        -0.22031E-01         0.00000E+00
    0.39130E-02        -0.22462E-01         0.00000E+00
    0.36434E-02        -0.22887E-01         0.00000E+00
    0.33385E-02        -0.23301E-01         0.00000E+00
    0.29950E-02        -0.23699E-01         0.00000E+00
    0.26100E-02        -0.24076E-01         0.00000E+00
    0.21806E-02        -0.24423E-01         0.00000E+00
    0.17047E-02        -0.24730E-01         0.00000E+00
    0.11812E-02        -0.24982E-01         0.00000E+00
    0.61224E-03        -0.25159E-01         0.00000E+00
    0.00000E+00        -0.25227E-01         0.00000E+00
    0.00000E+00        -0.43214E-03         0.00000E+00
    0.16404E-03        -0.44815E-03         0.00000E+00
    0.31871E-03        -0.48907E-03         0.00000E+00
    0.46327E-03        -0.54693E-03         0.00000E+00
    0.59757E-03        -0.61748E-03         0.00000E+00
    0.72215E-03        -0.69783E-03         0.00000E+00
    0.83772E-03        -0.78582E-03         0.00000E+00
    0.94508E-03        -0.87983E-03         0.00000E+00
    0.10451E-02        -0.97863E-03         0.00000E+00
    0.11385E-02        -0.10813E-02         0.00000E+00
    0.12262E-02        -0.11872E-02         0.00000E+00
    0.13089E-02        -0.12958E-02         0.00000E+00
    0.13872E-02        -0.14068E-02         0.00000E+00
    0.14619E-02        -0.15201E-02         0.00000E+00
    0.15334E-02        -0.16355E-02         0.00000E+00
    0.16022E-02        -0.17530E-02         0.00000E+00
    0.16689E-02        -0.18726E-02         0.00000E+00
    0.17337E-02        -0.19943E-02         0.00000E+00
    0.17970E-02        -0.21183E-02         0.00000E+00
    0.18592E-02        -0.22447E-02         0.00000E+00
    0.19206E-02        -0.23734E-02         0.00000E+00
    0.19812E-02        -0.25047E-02         0.00000E+00
    0.20415E-02        -0.26386E-02         0.00000E+00
    0.21015E-02        -0.27754E-02         0.00000E+00
    0.21614E-02        -0.29149E-02         0.00000E+00
    0.22214E-02        -0.30575E-02         0.00000E+00
    0.22817E-02        -0.32032E-02         0.00000E+00
    0.23422E-02        -0.33520E-02         0.00000E+00
    0.24031E-02        -0.35042E-02         0.00000E+00
    0.24646E-02        -0.36599E-02         0.00000E+00
    0.25266E-02        -0.38191E-02         0.00000E+00
    0.25893E-02        -0.39819E-02         0.00000E+00
    0.26526E-02        -0.41485E-02         0.00000E+00
    0.27168E-02        -0.43189E-02         0.00000E+00
    0.27817E-02        -0.44934E-02         0.00000E+00
    0.28474E-02        -0.46719E-02         0.00000E+00
    0.29139E-02        -0.48545E-02         0.00000E+00
    0.29813E-02        -0.50415E-02         0.00000E+00
    0.30495E-02        -0.52329E-02         0.00000E+00
    0.31185E-02        -0.54288E-02         0.00000E+00
    0.31884E-02        -0.56292E-02         0.00000E+00
    0.32591E-02        -0.58344E-02         0.00000E+00
    0.33305E-02        -0.60444E-02         0.00000E+00
    0.34027E-02        -0.62592E-02         0.00000E+00
    0.34756E-02        -0.64791E-02         0.00000E+00
    0.35492E-02        -0.67040E-02         0.00000E+00
    0.36233E-02        -0.69341E-02         0.00000E+00
    0.36980E-02        -0.71694E-02         0.00000E+00
    0.37732E-02        -0.74101E-02         0.00000E+00
    0.38487E-02        -0.76561E-02         0.00000E+00
    0.39245E-02        -0.79077E-02         0.00000E+00
    0.40005E-02        -0.81649E-02         0.00000E+00
    0.40765E-02        -0.84276E-02         0.00000E+00
    0.41525E-02        -0.86961E-02         0.00000E+00
    0.42284E-02        -0.89703E-02         0.00000E+00
    0.43039E-02        -0.92503E-02         0.00000E+00
    0.43790E-02        -0.95361E-02         0.00000E+00
    0.44535E-02        -0.98278E-02         0.00000E+00
    0.45271E-02        -0.10125E-01         0.00000E+00
    0.45998E-02        -0.10429E-01         0.00000E+00
    0.46713E-02        -0.10739E-01         0.00000E+00
    0.47414E-02        -0.11054E-01         0.00000E+00
    0.48099E-02        -0.11376E-01         0.00000E+00
    0.48765E-02        -0.11703E-01         0.00000E+00
    0.49410E-02        -0.12037E-01         0.00000E+00
    0.50031E-02        -0.12376E-01         0.00000E+00
    0.50624E-02        -0.12721E-01         0.00000E+00
    0.51186E-02        -0.13072E-01         0.00000E+00
    0.51715E-02        -0.13429E-01         0.00000E+00
    0.52206E-02        -0.13792E-01         0.00000E+00
    0.52655E-02        -0.14160E-01         0.00000E+00
    0.53058E-02        -0.14534E-01         0.00000E+00
    0.53411E-02        -0.14914E-01         0.00000E+00
    0.53708E-02        -0.15298E-01         0.00000E+00
    0.53944E-02        -0.15689E-01         0.00000E+00
    0.54113E-02        -0.16084E-01         0.00000E+00
    0.54209E-02        -0.16484E-01         0.00000E+00
    0.54225E-02        -0.16890E-01         0.00000E+00
    0.54153E-02        -0.17300E-01         0.00000E+00
    0.53986E-02        -0.17715E-01         0.00000E+00
    0.53715E-02        -0.18134E-01         0.00000E+00
    0.53329E-02        -0.18558E-01         0.00000E+00
    0.52817E-02        -0.18985E-01         0.00000E+00
    0.52168E-02        -0.19417E-01         0.00000E+00
    0.51368E-02        -0.19852E-01         0.00000E+00
    0.50401E-02        -0.20291E-01         0.00000E+00
    0.49251E-02        -0.20732E-01         0.00000E+00
    0.47898E-02        -0.21175E-01         0.00000E+00
    0.46322E-02        -0.21619E-01         0.00000E+00
    0.44498E-02        -0.22064E-01         0.00000E+00
    0.42402E-02        -0.22506E-01         0.00000E+00
    0.40004E-02        -0.22945E-01         0.00000E+00
    0.37275E-02        -0.23377E-01         0.00000E+00
    0.34182E-02        -0.23799E-01         0.00000E+00
    0.30691E-02        -0.24204E-01         0.00000E+00
    0.26772E-02        -0.24588E-01         0.00000E+00
    0.22391E-02        -0.24942E-01         0.00000E+00
    0.17525E-02        -0.25255E-01         0.00000E+00
    0.12155E-02        -0.25513E-01         0.00000E+00
    0.62990E-03        -0.25697E-01         0.00000E+00
    0.00000E+00        -0.25770E-01         0.00000E+00
    0.00000E+00        -0.44705E-03         0.00000E+00
    0.16852E-03        -0.46426E-03         0.00000E+00
    0.32724E-03        -0.50667E-03         0.00000E+00
    0.47497E-03        -0.56591E-03         0.00000E+00
    0.61185E-03        -0.63791E-03         0.00000E+00
    0.73856E-03        -0.71977E-03         0.00000E+00
    0.85590E-03        -0.80936E-03         0.00000E+00
    0.96475E-03        -0.90507E-03         0.00000E+00
    0.10660E-02        -0.10057E-02         0.00000E+00
    0.11606E-02        -0.11102E-02         0.00000E+00
    0.12492E-02        -0.12180E-02         0.00000E+00
    0.13327E-02        -0.13287E-02         0.00000E+00
    0.14119E-02        -0.14419E-02         0.00000E+00
    0.14872E-02        -0.15574E-02         0.00000E+00
    0.15594E-02        -0.16751E-02         0.00000E+00
    0.16289E-02        -0.17949E-02         0.00000E+00
    0.16962E-02        -0.19170E-02         0.00000E+00
    0.17617E-02        -0.20413E-02         0.00000E+00
    0.18257E-02        -0.21679E-02         0.00000E+00
    0.18886E-02        -0.22969E-02         0.00000E+00
    0.19506E-02        -0.24284E-02         0.00000E+00
    0.20119E-02        -0.25625E-02         0.00000E+00
    0.20729E-02        -0.26993E-02         0.00000E+00
    0.21336E-02        -0.28390E-02         0.00000E+00
    0.21943E-02        -0.29816E-02         0.00000E+00
    0.22550E-02        -0.31272E-02         0.00000E+00
    0.23160E-02        -0.32761E-02         0.00000E+00
    0.23774E-02        -0.34282E-02         0.00000E+00
    0.24391E-02        -0.35837E-02         0.00000E+00
    0.25014E-02        -0.37428E-02         0.00000E+00
    0.25643E-02        -0.39054E-02         0.00000E+00
    0.26278E-02        -0.40718E-02         0.00000E+00
    0.26921E-02        -0.42421E-02         0.00000E+00
    0.27572E-02        -0.44163E-02         0.00000E+00
    0.28230E-02        -0.45945E-02         0.00000E+00
    0.28897E-02        -0.47770E-02         0.00000E+00
    0.29572E-02        -0.49637E-02         0.00000E+00
    0.30256E-02        -0.51548E-02         0.00000E+00
    0.30948E-02        -0.53503E-02         0.00000E+00
    0.31649E-02        -0.55505E-02         0.00000E+00
    0.32359E-02        -0.57554E-02         0.00000E+00
    0.33076E-02        -0.59650E-02         0.00000E+00
    0.33802E-02        -0.61796E-02         0.00000E+00
    0.34535E-02        -0.63992E-02         0.00000E+00
    0.35276E-02        -0.66238E-02         0.00000E+00
    0.36023E-02        -0.68537E-02         0.00000E+00
    0.36777E-02        -0.70888E-02         0.00000E+00
    0.37536E-02        -0.73292E-02         0.00000E+00
    0.38299E-02        -0.75752E-02         0.00000E+00
    0.39067E-02        -0.78266E-02         0.00000E+00
    0.39837E-02        -0.80837E-02         0.00000E+00
    0.40610E-02        -0.83464E-02         0.00000E+00
    0.41383E-02        -0.86149E-02         0.00000E+00
    0.42156E-02        -0.88891E-02         0.00000E+00
    0.42927E-02        -0.91693E-02         0.00000E+00
    0.43696E-02        -0.94553E-02         0.00000E+00
    0.44460E-02        -0.97474E-02         0.00000E+00
    0.45217E-02        -0.10045E-01         0.00000E+00
    0.45967E-02        -0.10349E-01         0.00000E+00
    0.46707E-02        -0.10660E-01         0.00000E+00
    0.47435E-02        -0.10976E-01         0.00000E+00
    0.48149E-02        -0.11298E-01         0.00000E+00
    0.48847E-02        -0.11626E-01         0.00000E+00
    0.49526E-02        -0.11961E-01         0.00000E+00
    0.50184E-02        -0.12302E-01         0.00000E+00
    0.50817E-02        -0.12648E-01         0.00000E+00
    0.51422E-02        -0.13001E-01         0.00000E+00
    0.51997E-02        -0.13359E-01         0.00000E+00
    0.52538E-02        -0.13724E-01         0.00000E+00
    0.53041E-02        -0.14094E-01         0.00000E+00
    0.53502E-02        -0.14470E-01         0.00000E+00
    0.53916E-02        -0.14852E-01         0.00000E+00
    0.54279E-02        -0.15239E-01         0.00000E+00
    0.54587E-02        -0.15632E-01         0.00000E+00
    0.54833E-02        -0.16031E-01         0.00000E+00
    0.55011E-02        -0.16434E-01         0.00000E+00
    0.55116E-02        -0.16843E-01         0.00000E+00
    0.55141E-02        -0.17256E-01         0.00000E+00
    0.55077E-02        -0.17675E-01         0.00000E+00
    0.54917E-02        -0.18098E-01         0.00000E+00
    0.54652E-02        -0.18526E-01         0.00000E+00
    0.54272E-02        -0.18958E-01         0.00000E+00
    0.53765E-02        -0.19394E-01         0.00000E+00
    0.53119E-02        -0.19834E-01         0.00000E+00
    0.52320E-02        -0.20278E-01         0.00000E+00
    0.51354E-02        -0.20725E-01         0.00000E+00
    0.50201E-02        -0.21175E-01         0.00000E+00
    0.48844E-02        -0.21626E-01         0.00000E+00
    0.47260E-02        -0.22079E-01         0.00000E+00
    0.45424E-02        -0.22531E-01         0.00000E+00
    0.43311E-02        -0.22982E-01         0.00000E+00
    0.40890E-02        -0.23428E-01         0.00000E+00
    0.38130E-02        -0.23867E-01         0.00000E+00
    0.34996E-02        -0.24296E-01         0.00000E+00
    0.31453E-02        -0.24709E-01         0.00000E+00
    0.27467E-02        -0.25099E-01         0.00000E+00
    0.23002E-02        -0.25459E-01         0.00000E+00
    0.18030E-02        -0.25779E-01         0.00000E+00
    0.12526E-02        -0.26043E-01         0.00000E+00
    0.64945E-03        -0.26234E-01         0.00000E+00
    0.00000E+00        -0.26312E-01         0.00000E+00
    0.00000E+00        -0.46213E-03         0.00000E+00
    0.17351E-03        -0.48079E-03         0.00000E+00
    0.33641E-03        -0.52459E-03         0.00000E+00
    0.48725E-03        -0.58514E-03         0.00000E+00
    0.62665E-03        -0.65855E-03         0.00000E+00
    0.75541E-03        -0.74190E-03         0.00000E+00
    0.87444E-03        -0.83306E-03         0.00000E+00
    0.98469E-03        -0.93044E-03         0.00000E+00
    0.10871E-02        -0.10328E-02         0.00000E+00
    0.11827E-02        -0.11392E-02         0.00000E+00
    0.12722E-02        -0.12490E-02         0.00000E+00
    0.13565E-02        -0.13617E-02         0.00000E+00
    0.14364E-02        -0.14770E-02         0.00000E+00
    0.15124E-02        -0.15947E-02         0.00000E+00
    0.15852E-02        -0.17147E-02         0.00000E+00
    0.16553E-02        -0.18370E-02         0.00000E+00
    0.17232E-02        -0.19615E-02         0.00000E+00
    0.17893E-02        -0.20883E-02         0.00000E+00
    0.18539E-02        -0.22175E-02         0.00000E+00
    0.19174E-02        -0.23491E-02         0.00000E+00
    0.19801E-02        -0.24834E-02         0.00000E+00
    0.20421E-02        -0.26203E-02         0.00000E+00
    0.21037E-02        -0.27600E-02         0.00000E+00
    0.21651E-02        -0.29026E-02         0.00000E+00
    0.22265E-02        -0.30483E-02         0.00000E+00
    0.22880E-02        -0.31970E-02         0.00000E+00
    0.23497E-02        -0.33490E-02         0.00000E+00
    0.24118E-02        -0.35044E-02         0.00000E+00
    0.24744E-02        -0.36633E-02         0.00000E+00
    0.25375E-02        -0.38257E-02         0.00000E+00
    0.26012E-02        -0.39919E-02         0.00000E+00
    0.26656E-02        -0.41619E-02         0.00000E+00
    0.27308E-02        -0.43358E-02         0.00000E+00
    0.27967E-02        -0.45137E-02         0.00000E+00
    0.28635E-02        -0.46958E-02         0.00000E+00
    0.29311E-02        -0.48822E-02         0.00000E+00
    0.29996E-02        -0.50729E-02         0.00000E+00
    0.30690E-02        -0.52681E-02         0.00000E+00
    0.31393E-02        -0.54679E-02         0.00000E+00
    0.32104E-02        -0.56723E-02         0.00000E+00
    0.32824E-02        -0.58816E-02         0.00000E+00
    0.33552E-02        -0.60958E-02         0.00000E+00
    0.34289E-02        -0.63150E-02         0.00000E+00
    0.35034E-02        -0.65392E-02         0.00000E+00
    0.35785E-02        -0.67687E-02         0.00000E+00
    0.36544E-02        -0.70034E-02         0.00000E+00
    0.37309E-02        -0.72436E-02         0.00000E+00
    0.38080E-02        -0.74892E-02         0.00000E+00
    0.38856E-02        -0.77404E-02         0.00000E+00
    0.39635E-02        -0.79972E-02         0.00000E+00
    0.40418E-02        -0.82597E-02         0.00000E+00
    0.41203E-02        -0.85280E-02         0.00000E+00
    0.41989E-02        -0.88022E-02         0.00000E+00
    0.42775E-02        -0.90823E-02         0.00000E+00
    0.43559E-02        -0.93684E-02         0.00000E+00
    0.44340E-02        -0.96605E-02         0.00000E+00
    0.45117E-02        -0.99588E-02         0.00000E+00
    0.45888E-02        -0.10263E-01         0.00000E+00
    0.46651E-02        -0.10574E-01         0.00000E+00
    0.47404E-02        -0.10890E-01         0.00000E+00
    0.48145E-02        -0.11213E-01         0.00000E+00
    0.48872E-02        -0.11542E-01         0.00000E+00
    0.49583E-02        -0.11877E-01         0.00000E+00
    0.50275E-02        -0.12219E-01         0.00000E+00
    0.50945E-02        -0.12567E-01         0.00000E+00
    0.51591E-02        -0.12920E-01         0.00000E+00
    0.52209E-02        -0.13280E-01         0.00000E+00
    0.52796E-02        -0.13646E-01         0.00000E+00
    0.53349E-02        -0.14018E-01         0.00000E+00
    0.53864E-02        -0.14396E-01         0.00000E+00
    0.54336E-02        -0.14780E-01         0.00000E+00
    0.54762E-02        -0.15170E-01         0.00000E+00
    0.55136E-02        -0.15565E-01         0.00000E+00
    0.55454E-02        -0.15966E-01         0.00000E+00
    0.55711E-02        -0.16373E-01         0.00000E+00
    0.55899E-02        -0.16784E-01         0.00000E+00
    0.56014E-02        -0.17201E-01         0.00000E+00
    0.56047E-02        -0.17623E-01         0.00000E+00
    0.55992E-02        -0.18050E-01         0.00000E+00
    0.55840E-02        -0.18482E-01         0.00000E+00
    0.55582E-02        -0.18918E-01         0.00000E+00
    0.55208E-02        -0.19359E-01         0.00000E+00
    0.54706E-02        -0.19803E-01         0.00000E+00
    0.54065E-02        -0.20252E-01         0.00000E+00
    0.53270E-02        -0.20704E-01         0.00000E+00
    0.52304E-02        -0.21159E-01         0.00000E+00
    0.51152E-02        -0.21617E-01         0.00000E+00
    0.49792E-02        -0.22077E-01         0.00000E+00
    0.48202E-02        -0.22538E-01         0.00000E+00
    0.46357E-02        -0.22998E-01         0.00000E+00
    0.44229E-02        -0.23456E-01         0.00000E+00
    0.41788E-02        -0.23910E-01         0.00000E+00
    0.39000E-02        -0.24357E-01         0.00000E+00
    0.35829E-02        -0.24793E-01         0.00000E+00
    0.32237E-02        -0.25212E-01         0.00000E+00
    0.28188E-02        -0.25609E-01         0.00000E+00
    0.23642E-02        -0.25976E-01         0.00000E+00
    0.18565E-02        -0.26301E-01         0.00000E+00
    0.12929E-02        -0.26572E-01         0.00000E+00
    0.67148E-03        -0.26769E-01         0.00000E+00
    0.00000E+00        -0.26853E-01         0.00000E+00
    0.00000E+00        -0.47742E-03         0.00000E+00
    0.17923E-03        -0.49784E-03         0.00000E+00
    0.34631E-03        -0.54279E-03         0.00000E+00
    0.50017E-03        -0.60463E-03         0.00000E+00
    0.64204E-03        -0.67940E-03         0.00000E+00
    0.77274E-03        -0.76419E-03         0.00000E+00
    0.89335E-03        -0.85691E-03         0.00000E+00
    0.10049E-02        -0.95593E-03         0.00000E+00
    0.11084E-02        -0.10600E-02         0.00000E+00
    0.12049E-02        -0.11683E-02         0.00000E+00
    0.12952E-02        -0.12800E-02         0.00000E+00
    0.13803E-02        -0.13948E-02         0.00000E+00
    0.14607E-02        -0.15122E-02         0.00000E+00
    0.15374E-02        -0.16322E-02         0.00000E+00
    0.16107E-02        -0.17545E-02         0.00000E+00
    0.16814E-02        -0.18791E-02         0.00000E+00
    0.17499E-02        -0.20060E-02         0.00000E+00
    0.18165E-02        -0.21354E-02         0.00000E+00
    0.18817E-02        -0.22671E-02         0.00000E+00
    0.19458E-02        -0.24015E-02         0.00000E+00
    0.20090E-02        -0.25385E-02         0.00000E+00
    0.20717E-02        -0.26782E-02         0.00000E+00
    0.21340E-02        -0.28208E-02         0.00000E+00
    0.21960E-02        -0.29664E-02         0.00000E+00
    0.22581E-02        -0.31150E-02         0.00000E+00
    0.23203E-02        -0.32669E-02         0.00000E+00
    0.23828E-02        -0.34221E-02         0.00000E+00
    0.24456E-02        -0.35807E-02         0.00000E+00
    0.25090E-02        -0.37429E-02         0.00000E+00
    0.25729E-02        -0.39088E-02         0.00000E+00
    0.26374E-02        -0.40784E-02         0.00000E+00
    0.27026E-02        -0.42520E-02         0.00000E+00
    0.27687E-02        -0.44296E-02         0.00000E+00
    0.28355E-02        -0.46112E-02         0.00000E+00
    0.29032E-02        -0.47972E-02         0.00000E+00
    0.29717E-02        -0.49875E-02         0.00000E+00
    0.30412E-02        -0.51822E-02         0.00000E+00
    0.31115E-02        -0.53815E-02         0.00000E+00
    0.31828E-02        -0.55855E-02         0.00000E+00
    0.32549E-02        -0.57943E-02         0.00000E+00
    0.33280E-02        -0.60079E-02         0.00000E+00
    0.34019E-02        -0.62266E-02         0.00000E+00
    0.34766E-02        -0.64504E-02         0.00000E+00
    0.35522E-02        -0.66794E-02         0.00000E+00
    0.36285E-02        -0.69137E-02         0.00000E+00
    0.37055E-02        -0.71533E-02         0.00000E+00
    0.37831E-02        -0.73985E-02         0.00000E+00
    0.38614E-02        -0.76493E-02         0.00000E+00
    0.39401E-02        -0.79057E-02         0.00000E+00
    0.40193E-02        -0.81679E-02         0.00000E+00
    0.40988E-02        -0.84359E-02         0.00000E+00
    0.41785E-02        -0.87098E-02         0.00000E+00
    0.42584E-02        -0.89897E-02         0.00000E+00
    0.43382E-02        -0.92756E-02         0.00000E+00
    0.44179E-02        -0.95677E-02         0.00000E+00
    0.44973E-02        -0.98659E-02         0.00000E+00
    0.45762E-02        -0.10170E-01         0.00000E+00
    0.46546E-02        -0.10481E-01         0.00000E+00
    0.47322E-02        -0.10798E-01         0.00000E+00
    0.48088E-02        -0.11121E-01         0.00000E+00
    0.48842E-02        -0.11450E-01         0.00000E+00
    0.49582E-02        -0.11786E-01         0.00000E+00
    0.50306E-02        -0.12129E-01         0.00000E+00
    0.51011E-02        -0.12477E-01         0.00000E+00
    0.51694E-02        -0.12832E-01         0.00000E+00
    0.52352E-02        -0.13193E-01         0.00000E+00
    0.52983E-02        -0.13560E-01         0.00000E+00
    0.53583E-02        -0.13934E-01         0.00000E+00
    0.54148E-02        -0.14313E-01         0.00000E+00
    0.54675E-02        -0.14699E-01         0.00000E+00
    0.55159E-02        -0.15090E-01         0.00000E+00
    0.55596E-02        -0.15488E-01         0.00000E+00
    0.55982E-02        -0.15891E-01         0.00000E+00
    0.56311E-02        -0.16300E-01         0.00000E+00
    0.56578E-02        -0.16715E-01         0.00000E+00
    0.56776E-02        -0.17135E-01         0.00000E+00
    0.56901E-02        -0.17560E-01         0.00000E+00
    0.56944E-02        -0.17990E-01         0.00000E+00
    0.56898E-02        -0.18426E-01         0.00000E+00
    0.56754E-02        -0.18866E-01         0.00000E+00
    0.56504E-02        -0.19310E-01         0.00000E+00
    0.56137E-02        -0.19759E-01         0.00000E+00
    0.55642E-02        -0.20213E-01         0.00000E+00
    0.55006E-02        -0.20670E-01         0.00000E+00
    0.54215E-02        -0.21130E-01         0.00000E+00
    0.53254E-02        -0.21594E-01         0.00000E+00
    0.52103E-02        -0.22060E-01         0.00000E+00
    0.50742E-02        -0.22528E-01         0.00000E+00
    0.49149E-02        -0.22997E-01         0.00000E+00
    0.47297E-02        -0.23465E-01         0.00000E+00
    0.45158E-02        -0.23931E-01         0.00000E+00
    0.42699E-02        -0.24393E-01         0.00000E+00
    0.39886E-02        -0.24847E-01         0.00000E+00
    0.36681E-02        -0.25289E-01         0.00000E+00
    0.33045E-02        -0.25716E-01         0.00000E+00
    0.28935E-02        -0.26119E-01         0.00000E+00
    0.24312E-02        -0.26492E-01         0.00000E+00
    0.19132E-02        -0.26823E-01         0.00000E+00
    0.13367E-02        -0.27099E-01         0.00000E+00
    0.69699E-03        -0.27301E-01         0.00000E+00
    0.00000E+00        -0.27394E-01         0.00000E+00
    0.00000E+00        -0.49297E-03         0.00000E+00
    0.18604E-03        -0.51551E-03         0.00000E+00
    0.35691E-03        -0.56118E-03         0.00000E+00
    0.51383E-03        -0.62440E-03         0.00000E+00
    0.65802E-03        -0.70042E-03         0.00000E+00
    0.79058E-03        -0.78665E-03         0.00000E+00
    0.91268E-03        -0.88087E-03         0.00000E+00
    0.10254E-02        -0.98152E-03         0.00000E+00
    0.11300E-02        -0.10874E-02         0.00000E+00
    0.12272E-02        -0.11975E-02         0.00000E+00
    0.13183E-02        -0.13111E-02         0.00000E+00
    0.14039E-02        -0.14279E-02         0.00000E+00
    0.14850E-02        -0.15475E-02         0.00000E+00
    0.15621E-02        -0.16696E-02         0.00000E+00
    0.16360E-02        -0.17942E-02         0.00000E+00
    0.17072E-02        -0.19212E-02         0.00000E+00
    0.17762E-02        -0.20506E-02         0.00000E+00
    0.18433E-02        -0.21825E-02         0.00000E+00
    0.19091E-02        -0.23169E-02         0.00000E+00
    0.19737E-02        -0.24539E-02         0.00000E+00
    0.20375E-02        -0.25936E-02         0.00000E+00
    0.21008E-02        -0.27361E-02         0.00000E+00
    0.21636E-02        -0.28816E-02         0.00000E+00
    0.22264E-02        -0.30301E-02         0.00000E+00
    0.22891E-02        -0.31818E-02         0.00000E+00
    0.23520E-02        -0.33368E-02         0.00000E+00
    0.24151E-02        -0.34952E-02         0.00000E+00
    0.24787E-02        -0.36571E-02         0.00000E+00
    0.25428E-02        -0.38226E-02         0.00000E+00
    0.26075E-02        -0.39919E-02         0.00000E+00
    0.26728E-02        -0.41651E-02         0.00000E+00
    0.27389E-02        -0.43422E-02         0.00000E+00
    0.28057E-02        -0.45234E-02         0.00000E+00
    0.28734E-02        -0.47089E-02         0.00000E+00
    0.29420E-02        -0.48986E-02         0.00000E+00
    0.30114E-02        -0.50928E-02         0.00000E+00
    0.30818E-02        -0.52916E-02         0.00000E+00
    0.31531E-02        -0.54950E-02         0.00000E+00
    0.32253E-02        -0.57032E-02         0.00000E+00
    0.32985E-02        -0.59163E-02         0.00000E+00
    0.33726E-02        -0.61344E-02         0.00000E+00
    0.34475E-02        -0.63575E-02         0.00000E+00
    0.35233E-02        -0.65859E-02         0.00000E+00
    0.35999E-02        -0.68196E-02         0.00000E+00
    0.36773E-02        -0.70587E-02         0.00000E+00
    0.37555E-02        -0.73033E-02         0.00000E+00
    0.38343E-02        -0.75535E-02         0.00000E+00
    0.39137E-02        -0.78094E-02         0.00000E+00
    0.39936E-02        -0.80711E-02         0.00000E+00
    0.40740E-02        -0.83387E-02         0.00000E+00
    0.41547E-02        -0.86122E-02         0.00000E+00
    0.42356E-02        -0.88917E-02         0.00000E+00
    0.43167E-02        -0.91773E-02         0.00000E+00
    0.43978E-02        -0.94691E-02         0.00000E+00
    0.44787E-02        -0.97670E-02         0.00000E+00
    0.45594E-02        -0.10071E-01         0.00000E+00
    0.46396E-02        -0.10382E-01         0.00000E+00
    0.47192E-02        -0.10699E-01         0.00000E+00
    0.47981E-02        -0.11022E-01         0.00000E+00
    0.48760E-02        -0.11352E-01         0.00000E+00
    0.49527E-02        -0.11688E-01         0.00000E+00
    0.50280E-02        -0.12031E-01         0.00000E+00
    0.51017E-02        -0.12380E-01         0.00000E+00
    0.51734E-02        -0.12735E-01         0.00000E+00
    0.52430E-02        -0.13097E-01         0.00000E+00
    0.53101E-02        -0.13465E-01         0.00000E+00
    0.53745E-02        -0.13840E-01         0.00000E+00
    0.54357E-02        -0.14221E-01         0.00000E+00
    0.54934E-02        -0.14608E-01         0.00000E+00
    0.55473E-02        -0.15001E-01         0.00000E+00
    0.55969E-02        -0.15401E-01         0.00000E+00
    0.56419E-02        -0.15806E-01         0.00000E+00
    0.56816E-02        -0.16217E-01         0.00000E+00
    0.57156E-02        -0.16634E-01         0.00000E+00
    0.57434E-02        -0.17057E-01         0.00000E+00
    0.57643E-02        -0.17485E-01         0.00000E+00
    0.57778E-02        -0.17919E-01         0.00000E+00
    0.57831E-02        -0.18357E-01         0.00000E+00
    0.57794E-02        -0.18801E-01         0.00000E+00
    0.57660E-02        -0.19249E-01         0.00000E+00
    0.57418E-02        -0.19702E-01         0.00000E+00
    0.57060E-02        -0.20160E-01         0.00000E+00
    0.56572E-02        -0.20622E-01         0.00000E+00
    0.55943E-02        -0.21087E-01         0.00000E+00
    0.55158E-02        -0.21556E-01         0.00000E+00
    0.54201E-02        -0.22028E-01         0.00000E+00
    0.53053E-02        -0.22503E-01         0.00000E+00
    0.51694E-02        -0.22979E-01         0.00000E+00
    0.50100E-02        -0.23456E-01         0.00000E+00
    0.48244E-02        -0.23932E-01         0.00000E+00
    0.46096E-02        -0.24406E-01         0.00000E+00
    0.43624E-02        -0.24875E-01         0.00000E+00
    0.40790E-02        -0.25336E-01         0.00000E+00
    0.37555E-02        -0.25786E-01         0.00000E+00
    0.33877E-02        -0.26218E-01         0.00000E+00
    0.29711E-02        -0.26628E-01         0.00000E+00
    0.25014E-02        -0.27007E-01         0.00000E+00
    0.19737E-02        -0.27343E-01         0.00000E+00
    0.13840E-02        -0.27626E-01         0.00000E+00
    0.72763E-03        -0.27831E-01         0.00000E+00
    0.00000E+00        -0.27933E-01         0.00000E+00
CELL_DATA       5000
VECTORS vDarcy double 
    0.57891E-08         0.27940E-20         0.00000E+00
    0.57955E-08         0.00000E+00         0.00000E+00
    0.58083E-08        -0.13970E-20         0.00000E+00
    0.58275E-08        -0.25611E-20         0.00000E+00
    0.58530E-08         0.48894E-20         0.00000E+00
    0.58849E-08         0.11642E-20         0.00000E+00
    0.59233E-08         0.11642E-20         0.00000E+00
    0.59680E-08         0.18626E-20         0.00000E+00
    0.60192E-08        -0.39581E-20         0.00000E+00
    0.60768E-08        -0.34925E-20         0.00000E+00
    0.61408E-08         0.23283E-21         0.00000E+00
    0.62112E-08         0.30268E-20         0.00000E+00
    0.62881E-08        -0.20955E-20         0.00000E+00
    0.63715E-08        -0.58208E-20         0.00000E+00
    0.64614E-08        -0.23283E-21         0.00000E+00
    0.65577E-08         0.39581E-20         0.00000E+00
    0.66605E-08        -0.23283E-21         0.00000E+00
    0.67699E-08         0.16298E-20         0.00000E+00
    0.68857E-08         0.53551E-20         0.00000E+00
    0.70081E-08         0.46566E-20         0.00000E+00
    0.71371E-08         0.23283E-21         0.00000E+00
    0.72725E-08        -0.48894E-20         0.00000E+00
    0.74146E-08        -0.39581E-20         0.00000E+00
    0.75631E-08         0.16298E-20         0.00000E+00
    0.77183E-08         0.16298E-20         0.00000E+00
    0.78799E-08        -0.13970E-20         0.00000E+00
    0.80482E-08         0.27940E-20         0.00000E+00
    0.82229E-08         0.60536E-20         0.00000E+00
    0.84042E-08         0.62864E-20         0.00000E+00
    0.85921E-08        -0.11642E-20         0.00000E+00
    0.87864E-08        -0.34925E-20         0.00000E+00
    0.89872E-08         0.00000E+00         0.00000E+00
    0.91944E-08        -0.11642E-20         0.00000E+00
    0.94081E-08        -0.27940E-20         0.00000E+00
    0.96282E-08        -0.65193E-20         0.00000E+00
    0.98546E-08        -0.34925E-20         0.00000E+00
    0.10087E-07        -0.30268E-20         0.00000E+00
    0.10326E-07         0.46566E-21         0.00000E+00
    0.10571E-07        -0.16298E-20         0.00000E+00
    0.10822E-07        -0.11642E-20         0.00000E+00
    0.11079E-07        -0.16298E-20         0.00000E+00
    0.11342E-07        -0.25611E-20         0.00000E+00
    0.11611E-07        -0.41910E-20         0.00000E+00
    0.11886E-07        -0.32596E-20         0.00000E+00
    0.12166E-07        -0.53551E-20         0.00000E+00
    0.12452E-07        -0.46566E-21         0.00000E+00
    0.12742E-07         0.32596E-20         0.00000E+00
    0.13038E-07         0.46566E-21         0.00000E+00
    0.13339E-07        -0.16298E-20         0.00000E+00
    0.13645E-07        -0.69849E-21         0.00000E+00
    0.13955E-07        -0.62864E-20         0.00000E+00
    0.14270E-07        -0.23283E-20         0.00000E+00
    0.14589E-07         0.27940E-20         0.00000E+00
    0.14912E-07         0.13970E-20         0.00000E+00
    0.15238E-07         0.13970E-20         0.00000E+00
    0.15568E-07         0.74506E-20         0.00000E+00
    0.15901E-07        -0.46566E-21         0.00000E+00
    0.16236E-07        -0.58208E-20         0.00000E+00
    0.16575E-07        -0.58208E-20         0.00000E+00
    0.16915E-07        -0.69849E-21         0.00000E+00
    0.17257E-07         0.20955E-20         0.00000E+00
    0.17600E-07        -0.18626E-20         0.00000E+00
    0.17945E-07        -0.93132E-21         0.00000E+00
    0.18290E-07         0.23283E-20         0.00000E+00
    0.18635E-07        -0.25611E-20         0.00000E+00
    0.18980E-07         0.23283E-20         0.00000E+00
    0.19325E-07         0.10245E-19         0.00000E+00
    0.19668E-07         0.46566E-20         0.00000E+00
    0.20010E-07         0.10012E-19         0.00000E+00
    0.20349E-07         0.72177E-20         0.00000E+00
    0.20686E-07         0.32596E-20         0.00000E+00
    0.21019E-07         0.16298E-20         0.00000E+00
    0.21349E-07         0.69849E-20         0.00000E+00
    0.21674E-07         0.27940E-20         0.00000E+00
    0.21994E-07        -0.16298E-20         0.00000E+00
    0.22309E-07        -0.16298E-20         0.00000E+00
    0.22618E-07         0.13970E-20         0.00000E+00
    0.22920E-07        -0.46566E-21         0.00000E+00
    0.23215E-07        -0.55879E-20         0.00000E+00
    0.23502E-07        -0.53551E-20         0.00000E+00
    0.23781E-07         0.16298E-20         0.00000E+00
    0.24050E-07         0.32596E-20         0.00000E+00
    0.24309E-07         0.41910E-20         0.00000E+00
    0.24559E-07         0.20955E-20         0.00000E+00
    0.24797E-07         0.33760E-20         0.00000E+00
    0.25024E-07         0.41910E-20         0.00000E+00
    0.25238E-07        -0.44238E-20         0.00000E+00
    0.25440E-07        -0.16298E-20         0.00000E+00
    0.25629E-07         0.29104E-20         0.00000E+00
    0.25804E-07        -0.55879E-20         0.00000E+00
    0.25965E-07        -0.36089E-20         0.00000E+00
    0.26111E-07        -0.11642E-20         0.00000E+00
    0.26242E-07        -0.53551E-20         0.00000E+00
    0.26358E-07        -0.13970E-20         0.00000E+00
    0.26457E-07        -0.34925E-20         0.00000E+00
    0.26541E-07        -0.41910E-20         0.00000E+00
    0.26608E-07         0.16298E-20         0.00000E+00
    0.26659E-07         0.15134E-20         0.00000E+00
    0.26693E-07        -0.22119E-20         0.00000E+00
    0.26710E-07         0.19791E-20         0.00000E+00
    0.57891E-08        -0.27940E-20         0.00000E+00
    0.57955E-08        -0.34925E-20         0.00000E+00
    0.58083E-08        -0.20955E-20         0.00000E+00
    0.58275E-08        -0.67521E-20         0.00000E+00
    0.58530E-08        -0.11642E-20         0.00000E+00
    0.58849E-08        -0.69849E-21         0.00000E+00
    0.59233E-08        -0.46566E-21         0.00000E+00
    0.59680E-08         0.16298E-20         0.00000E+00
    0.60192E-08         0.65193E-20         0.00000E+00
    0.60768E-08         0.46566E-21         0.00000E+00
    0.61408E-08        -0.53551E-20         0.00000E+00
    0.62112E-08        -0.58208E-20         0.00000E+00
    0.62881E-08        -0.30268E-20         0.00000E+00
    0.63715E-08         0.25611E-20         0.00000E+00
    0.64614E-08         0.13970E-19         0.00000E+00
    0.65577E-08        -0.51223E-20         0.00000E+00
    0.66605E-08        -0.13039E-19         0.00000E+00
    0.67699E-08         0.51223E-20         0.00000E+00
    0.68857E-08         0.62864E-20         0.00000E+00
    0.70081E-08         0.48894E-20         0.00000E+00
    0.71371E-08         0.48894E-20         0.00000E+00
    0.72725E-08        -0.37253E-20         0.00000E+00
    0.74146E-08        -0.34925E-20         0.00000E+00
    0.75631E-08         0.93132E-21         0.00000E+00
    0.77183E-08        -0.10943E-19         0.00000E+00
    0.78799E-08         0.11642E-20         0.00000E+00
    0.80482E-08         0.60536E-20         0.00000E+00
    0.82229E-08         0.37253E-20         0.00000E+00
    0.84042E-08         0.90804E-20         0.00000E+00
    0.85921E-08         0.14435E-19         0.00000E+00
    0.87864E-08         0.69849E-21         0.00000E+00
    0.89872E-08         0.65193E-20         0.00000E+00
    0.91944E-08        -0.11642E-20         0.00000E+00
    0.94081E-08        -0.72177E-20         0.00000E+00
    0.96282E-08         0.44238E-20         0.00000E+00
    0.98546E-08         0.44238E-20         0.00000E+00
    0.10087E-07         0.44238E-20         0.00000E+00
    0.10326E-07         0.13970E-20         0.00000E+00
    0.10571E-07        -0.23283E-21         0.00000E+00
    0.10822E-07         0.55879E-20         0.00000E+00
    0.11079E-07        -0.46566E-21         0.00000E+00
    0.11342E-07        -0.48894E-20         0.00000E+00
    0.11611E-07         0.48894E-20         0.00000E+00
    0.11886E-07        -0.18626E-20         0.00000E+00
    0.12166E-07        -0.32596E-20         0.00000E+00
    0.12452E-07         0.11176E-19         0.00000E+00
    0.12742E-07         0.10943E-19         0.00000E+00
    0.13038E-07         0.32596E-20         0.00000E+00
    0.13339E-07         0.53551E-20         0.00000E+00
    0.13645E-07         0.58208E-20         0.00000E+00
    0.13955E-07        -0.30268E-20         0.00000E+00
    0.14270E-07         0.46566E-21         0.00000E+00
    0.14589E-07        -0.46566E-21         0.00000E+00
    0.14912E-07        -0.27940E-20         0.00000E+00
    0.15238E-07        -0.55879E-20         0.00000E+00
    0.15568E-07        -0.53551E-20         0.00000E+00
    0.15901E-07        -0.97789E-20         0.00000E+00
    0.16236E-07        -0.53551E-20         0.00000E+00
    0.16575E-07         0.86147E-20         0.00000E+00
    0.16915E-07         0.34925E-20         0.00000E+00
    0.17257E-07        -0.72177E-20         0.00000E+00
    0.17600E-07        -0.76834E-20         0.00000E+00
    0.17945E-07        -0.55879E-20         0.00000E+00
    0.18290E-07        -0.41910E-20         0.00000E+00
    0.18635E-07        -0.46566E-20         0.00000E+00
    0.18980E-07         0.00000E+00         0.00000E+00
    0.19325E-07        -0.83819E-20         0.00000E+00
    0.19668E-07         0.23283E-21         0.00000E+00
    0.20010E-07         0.48894E-20         0.00000E+00
    0.20349E-07         0.48894E-20         0.00000E+00
    0.20686E-07         0.37253E-20         0.00000E+00
    0.21019E-07        -0.11642E-20         0.00000E+00
    0.21349E-07         0.16298E-20         0.00000E+00
    0.21674E-07         0.00000E+00         0.00000E+00
    0.21994E-07         0.18626E-20         0.00000E+00
    0.22309E-07         0.00000E+00         0.00000E+00
    0.22618E-07         0.27940E-20         0.00000E+00
    0.22920E-07         0.79162E-20         0.00000E+00
    0.23215E-07        -0.16298E-20         0.00000E+00
    0.23502E-07        -0.32596E-20         0.00000E+00
    0.23781E-07        -0.13970E-20         0.00000E+00
    0.24050E-07         0.11642E-20         0.00000E+00
    0.24309E-07         0.23283E-20         0.00000E+00
    0.24559E-07         0.29104E-20         0.00000E+00
    0.24797E-07        -0.46566E-21         0.00000E+00
    0.25024E-07        -0.40745E-20         0.00000E+00
    0.25238E-07         0.41910E-20         0.00000E+00
    0.25440E-07        -0.18626E-20         0.00000E+00
    0.25629E-07        -0.89640E-20         0.00000E+00
    0.25804E-07         0.93132E-21         0.00000E+00
    0.25965E-07         0.15134E-20         0.00000E+00
    0.26111E-07         0.10477E-20         0.00000E+00
    0.26242E-07         0.34925E-21         0.00000E+00
    0.26358E-07         0.17462E-20         0.00000E+00
    0.26457E-07         0.40745E-20         0.00000E+00
    0.26541E-07         0.27940E-20         0.00000E+00
    0.26608E-07         0.25611E-20         0.00000E+00
    0.26659E-07        -0.11642E-20         0.00000E+00
    0.26693E-07         0.76834E-20         0.00000E+00
    0.26710E-07         0.23283E-20         0.00000E+00
    0.57891E-08        -0.46566E-21         0.00000E+00
    0.57955E-08        -0.53551E-20         0.00000E+00
    0.58083E-08        -0.88476E-20         0.00000E+00
    0.58275E-08        -0.11642E-20         0.00000E+00
    0.58530E-08        -0.32596E-20         0.00000E+00
    0.58849E-08        -0.69849E-21         0.00000E+00
    0.59233E-08        -0.23283E-21         0.00000E+00
    0.59680E-08        -0.16298E-20         0.00000E+00
    0.60192E-08         0.18626E-20         0.00000E+00
    0.60768E-08         0.62864E-20         0.00000E+00
    0.61408E-08        -0.39581E-20         0.00000E+00
    0.62112E-08        -0.13271E-19         0.00000E+00
    0.62881E-08        -0.72177E-20         0.00000E+00
    0.63715E-08         0.93132E-20         0.00000E+00
    0.64614E-08         0.86147E-20         0.00000E+00
    0.65577E-08         0.30268E-20         0.00000E+00
    0.66605E-08        -0.65193E-20         0.00000E+00
    0.67699E-08        -0.53551E-20         0.00000E+00
    0.68857E-08        -0.53551E-20         0.00000E+00
    0.70081E-08        -0.13970E-20         0.00000E+00
    0.71371E-08         0.69849E-21         0.00000E+00
    0.72725E-08         0.13970E-20         0.00000E+00
    0.74146E-08         0.10477E-19         0.00000E+00
    0.75631E-08         0.69849E-21         0.00000E+00
    0.77183E-08         0.20955E-20         0.00000E+00
    0.78799E-08         0.97789E-20         0.00000E+00
    0.80482E-08         0.39581E-20         0.00000E+00
    0.82229E-08         0.41910E-20         0.00000E+00
    0.84042E-08        -0.51223E-20         0.00000E+00
    0.85921E-08        -0.12806E-19         0.00000E+00
    0.87864E-08         0.00000E+00         0.00000E+00
    0.89872E-08         0.27940E-20         0.00000E+00
    0.91944E-08        -0.11642E-19         0.00000E+00
    0.94081E-08        -0.16997E-19         0.00000E+00
    0.96282E-08        -0.10710E-19         0.00000E+00
    0.98546E-08        -0.44238E-20         0.00000E+00
    0.10087E-07        -0.62864E-20         0.00000E+00
    0.10326E-07        -0.12107E-19         0.00000E+00
    0.10571E-07        -0.83819E-20         0.00000E+00
    0.10822E-07         0.37253E-20         0.00000E+00
    0.11079E-07        -0.69849E-21         0.00000E+00
    0.11342E-07        -0.13737E-19         0.00000E+00
    0.11611E-07        -0.11642E-19         0.00000E+00
    0.11886E-07        -0.11874E-19         0.00000E+00
    0.12166E-07        -0.14435E-19         0.00000E+00
    0.12452E-07        -0.62864E-20         0.00000E+00
    0.12742E-07        -0.93132E-20         0.00000E+00
    0.13038E-07        -0.11874E-19         0.00000E+00
    0.13339E-07        -0.13970E-20         0.00000E+00
    0.13645E-07         0.46566E-21         0.00000E+00
    0.13955E-07        -0.93132E-20         0.00000E+00
    0.14270E-07        -0.97789E-20         0.00000E+00
    0.14589E-07        -0.46566E-21         0.00000E+00
    0.14912E-07        -0.79162E-20         0.00000E+00
    0.15238E-07        -0.53551E-20         0.00000E+00
    0.15568E-07         0.23283E-21         0.00000E+00
    0.15901E-07        -0.95461E-20         0.00000E+00
    0.16236E-07        -0.51223E-20         0.00000E+00
    0.16575E-07         0.17695E-19         0.00000E+00
    0.16915E-07         0.67521E-20         0.00000E+00
    0.17257E-07         0.20955E-20         0.00000E+00
    0.17600E-07         0.11409E-19         0.00000E+00
    0.17945E-07         0.55879E-20         0.00000E+00
    0.18290E-07         0.34925E-20         0.00000E+00
    0.18635E-07        -0.46566E-20         0.00000E+00
    0.18980E-07        -0.90804E-20         0.00000E+00
    0.19325E-07        -0.37253E-20         0.00000E+00
    0.19668E-07         0.23283E-20         0.00000E+00
    0.20010E-07         0.93132E-21         0.00000E+00
    0.20349E-07         0.18626E-20         0.00000E+00
    0.20686E-07         0.48894E-20         0.00000E+00
    0.21019E-07         0.79162E-20         0.00000E+00
    0.21349E-07         0.30268E-20         0.00000E+00
    0.21674E-07         0.79162E-20         0.00000E+00
    0.21994E-07         0.23283E-20         0.00000E+00
    0.22309E-07        -0.23283E-20         0.00000E+00
    0.22618E-07        -0.69849E-21         0.00000E+00
    0.22920E-07         0.79162E-20         0.00000E+00
    0.23215E-07         0.60536E-20         0.00000E+00
    0.23502E-07         0.32596E-20         0.00000E+00
    0.23781E-07         0.34925E-20         0.00000E+00
    0.24050E-07         0.20955E-20         0.00000E+00
    0.24309E-07         0.93132E-21         0.00000E+00
    0.24559E-07         0.52387E-20         0.00000E+00
    0.24797E-07         0.11642E-21         0.00000E+00
    0.25024E-07        -0.25611E-20         0.00000E+00
    0.25238E-07         0.34925E-20         0.00000E+00
    0.25440E-07        -0.23283E-20         0.00000E+00
    0.25629E-07        -0.31432E-20         0.00000E+00
    0.25804E-07         0.41910E-20         0.00000E+00
    0.25965E-07        -0.38417E-20         0.00000E+00
    0.26111E-07        -0.51223E-20         0.00000E+00
    0.26242E-07        -0.54715E-20         0.00000E+00
    0.26358E-07         0.31432E-20         0.00000E+00
    0.26457E-07         0.97789E-20         0.00000E+00
    0.26541E-07         0.60536E-20         0.00000E+00
    0.26608E-07         0.53551E-20         0.00000E+00
    0.26659E-07         0.37253E-20         0.00000E+00
    0.26693E-07         0.37253E-20         0.00000E+00
    0.26710E-07         0.40745E-20         0.00000E+00
    0.57891E-08        -0.34925E-20         0.00000E+00
    0.57955E-08        -0.72177E-20         0.00000E+00
    0.58083E-08        -0.90804E-20         0.00000E+00
    0.58275E-08         0.25611E-20         0.00000E+00
    0.58530E-08        -0.37616E-36         0.00000E+00
    0.58849E-08         0.25611E-20         0.00000E+00
    0.59233E-08         0.14435E-19         0.00000E+00
    0.59680E-08        -0.39581E-20         0.00000E+00
    0.60192E-08        -0.30268E-20         0.00000E+00
    0.60768E-08         0.95461E-20         0.00000E+00
    0.61408E-08         0.93132E-20         0.00000E+00
    0.62112E-08        -0.23283E-21         0.00000E+00
    0.62881E-08        -0.11642E-20         0.00000E+00
    0.63715E-08         0.48894E-20         0.00000E+00
    0.64614E-08         0.44238E-20         0.00000E+00
    0.65577E-08        -0.27940E-20         0.00000E+00
    0.66605E-08        -0.16298E-20         0.00000E+00
    0.67699E-08         0.23283E-21         0.00000E+00
    0.68857E-08         0.67521E-20         0.00000E+00
    0.70081E-08         0.25611E-20         0.00000E+00
    0.71371E-08        -0.13970E-20         0.00000E+00
    0.72725E-08         0.95461E-20         0.00000E+00
    0.74146E-08         0.13737E-19         0.00000E+00
    0.75631E-08         0.12107E-19         0.00000E+00
    0.77183E-08         0.58208E-20         0.00000E+00
    0.78799E-08        -0.25611E-20         0.00000E+00
    0.80482E-08         0.34925E-20         0.00000E+00
    0.82229E-08         0.46566E-21         0.00000E+00
    0.84042E-08         0.00000E+00         0.00000E+00
    0.85921E-08         0.55879E-20         0.00000E+00
    0.87864E-08         0.10012E-19         0.00000E+00
    0.89872E-08         0.25611E-20         0.00000E+00
    0.91944E-08         0.18626E-20         0.00000E+00
    0.94081E-08        -0.41910E-20         0.00000E+00
    0.96282E-08        -0.74506E-20         0.00000E+00
    0.98546E-08        -0.16298E-20         0.00000E+00
    0.10087E-07        -0.79162E-20         0.00000E+00
    0.10326E-07        -0.93132E-20         0.00000E+00
    0.10571E-07        -0.13970E-20         0.00000E+00
    0.10822E-07         0.32596E-20         0.00000E+00
    0.11079E-07         0.97789E-20         0.00000E+00
    0.11342E-07        -0.69849E-21         0.00000E+00
    0.11611E-07        -0.34925E-20         0.00000E+00
    0.11886E-07        -0.46566E-21         0.00000E+00
    0.12166E-07        -0.13970E-20         0.00000E+00
    0.12452E-07         0.69849E-21         0.00000E+00
    0.12742E-07        -0.18626E-20         0.00000E+00
    0.13038E-07        -0.65193E-20         0.00000E+00
    0.13339E-07        -0.23283E-20         0.00000E+00
    0.13645E-07        -0.23283E-21         0.00000E+00
    0.13955E-07         0.53551E-20         0.00000E+00
    0.14270E-07         0.86147E-20         0.00000E+00
    0.14589E-07         0.13039E-19         0.00000E+00
    0.14912E-07         0.10943E-19         0.00000E+00
    0.15238E-07        -0.46566E-20         0.00000E+00
    0.15568E-07        -0.97789E-20         0.00000E+00
    0.15901E-07        -0.13271E-19         0.00000E+00
    0.16236E-07        -0.46566E-21         0.00000E+00
    0.16575E-07         0.12806E-19         0.00000E+00
    0.16915E-07         0.10012E-19         0.00000E+00
    0.17257E-07         0.44238E-20         0.00000E+00
    0.17600E-07         0.13737E-19         0.00000E+00
    0.17945E-07         0.10012E-19         0.00000E+00
    0.18290E-07         0.46566E-21         0.00000E+00
    0.18635E-07         0.93132E-21         0.00000E+00
    0.18980E-07         0.69849E-21         0.00000E+00
    0.19325E-07        -0.69849E-21         0.00000E+00
    0.19668E-07         0.51223E-20         0.00000E+00
    0.20010E-07         0.88476E-20         0.00000E+00
    0.20349E-07         0.60536E-20         0.00000E+00
    0.20686E-07         0.16298E-20         0.00000E+00
    0.21019E-07         0.76834E-20         0.00000E+00
    0.21349E-07         0.12806E-19         0.00000E+00
    0.21674E-07         0.34925E-20         0.00000E+00
    0.21994E-07         0.69849E-21         0.00000E+00
    0.22309E-07         0.58208E-20         0.00000E+00
    0.22618E-07         0.11176E-19         0.00000E+00
    0.22920E-07         0.15367E-19         0.00000E+00
    0.23215E-07         0.12806E-19         0.00000E+00
    0.23502E-07         0.79162E-20         0.00000E+00
    0.23781E-07         0.97789E-20         0.00000E+00
    0.24050E-07         0.11176E-19         0.00000E+00
    0.24309E-07         0.11059E-19         0.00000E+00
    0.24559E-07        -0.69849E-21         0.00000E+00
    0.24797E-07        -0.19791E-20         0.00000E+00
    0.25024E-07         0.82655E-20         0.00000E+00
    0.25238E-07         0.34925E-20         0.00000E+00
    0.25440E-07        -0.52387E-20         0.00000E+00
    0.25629E-07         0.61700E-20         0.00000E+00
    0.25804E-07         0.13039E-19         0.00000E+00
    0.25965E-07         0.46566E-20         0.00000E+00
    0.26111E-07         0.53551E-20         0.00000E+00
    0.26242E-07         0.66357E-20         0.00000E+00
    0.26358E-07         0.96625E-20         0.00000E+00
    0.26457E-07         0.12340E-19         0.00000E+00
    0.26541E-07         0.16997E-19         0.00000E+00
    0.26608E-07         0.10012E-19         0.00000E+00
    0.26659E-07         0.96625E-20         0.00000E+00
    0.26693E-07         0.93132E-20         0.00000E+00
    0.26710E-07         0.34925E-21         0.00000E+00
    0.57891E-08         0.20955E-20         0.00000E+00
    0.57955E-08        -0.48894E-20         0.00000E+00
    0.58083E-08         0.13970E-20         0.00000E+00
    0.58275E-08         0.11874E-19         0.00000E+00
    0.58530E-08         0.90804E-20         0.00000E+00
    0.58849E-08         0.30268E-20         0.00000E+00
    0.59233E-08         0.72177E-20         0.00000E+00
    0.59680E-08         0.12573E-19         0.00000E+00
    0.60192E-08         0.17462E-19         0.00000E+00
    0.60768E-08         0.72177E-20         0.00000E+00
    0.61408E-08        -0.90804E-20         0.00000E+00
    0.62112E-08         0.69849E-21         0.00000E+00
    0.62881E-08         0.69849E-21         0.00000E+00
    0.63715E-08         0.10012E-19         0.00000E+00
    0.64614E-08         0.65193E-20         0.00000E+00
    0.65577E-08        -0.23283E-21         0.00000E+00
    0.66605E-08         0.86147E-20         0.00000E+00
    0.67699E-08         0.41910E-20         0.00000E+00
    0.68857E-08        -0.62864E-20         0.00000E+00
    0.70081E-08        -0.27940E-20         0.00000E+00
    0.71371E-08         0.21188E-19         0.00000E+00
    0.72725E-08         0.17695E-19         0.00000E+00
    0.74146E-08         0.10943E-19         0.00000E+00
    0.75631E-08         0.13271E-19         0.00000E+00
    0.77183E-08         0.10477E-19         0.00000E+00
    0.78799E-08         0.69849E-20         0.00000E+00
    0.80482E-08         0.16065E-19         0.00000E+00
    0.82229E-08         0.17928E-19         0.00000E+00
    0.84042E-08         0.13970E-19         0.00000E+00
    0.85921E-08         0.15832E-19         0.00000E+00
    0.87864E-08         0.48894E-20         0.00000E+00
    0.89872E-08         0.95461E-20         0.00000E+00
    0.91944E-08         0.62864E-20         0.00000E+00
    0.94081E-08        -0.46566E-20         0.00000E+00
    0.96282E-08         0.46566E-20         0.00000E+00
    0.98546E-08         0.41910E-20         0.00000E+00
    0.10087E-07         0.16298E-20         0.00000E+00
    0.10326E-07        -0.46566E-21         0.00000E+00
    0.10571E-07        -0.37253E-20         0.00000E+00
    0.10822E-07         0.62864E-20         0.00000E+00
    0.11079E-07        -0.53551E-20         0.00000E+00
    0.11342E-07        -0.20955E-20         0.00000E+00
    0.11611E-07         0.10710E-19         0.00000E+00
    0.11886E-07        -0.44238E-20         0.00000E+00
    0.12166E-07         0.00000E+00         0.00000E+00
    0.12452E-07         0.93132E-20         0.00000E+00
    0.12742E-07         0.30268E-20         0.00000E+00
    0.13038E-07         0.18626E-20         0.00000E+00
    0.13339E-07        -0.93132E-20         0.00000E+00
    0.13645E-07        -0.11642E-19         0.00000E+00
    0.13955E-07        -0.93132E-21         0.00000E+00
    0.14270E-07         0.00000E+00         0.00000E+00
    0.14589E-07        -0.13970E-20         0.00000E+00
    0.14912E-07         0.25611E-20         0.00000E+00
    0.15238E-07        -0.15832E-19         0.00000E+00
    0.15568E-07        -0.10012E-19         0.00000E+00
    0.15901E-07         0.19092E-19         0.00000E+00
    0.16236E-07         0.17462E-19         0.00000E+00
    0.16575E-07         0.18626E-20         0.00000E+00
    0.16915E-07         0.58208E-20         0.00000E+00
    0.17257E-07         0.69849E-21         0.00000E+00
    0.17600E-07         0.14203E-19         0.00000E+00
    0.17945E-07         0.16298E-19         0.00000E+00
    0.18290E-07         0.67521E-20         0.00000E+00
    0.18635E-07         0.72177E-20         0.00000E+00
    0.18980E-07         0.72177E-20         0.00000E+00
    0.19325E-07         0.15367E-19         0.00000E+00
    0.19668E-07         0.11874E-19         0.00000E+00
    0.20010E-07         0.15367E-19         0.00000E+00
    0.20349E-07         0.13504E-19         0.00000E+00
    0.20686E-07         0.46566E-20         0.00000E+00
    0.21019E-07         0.11874E-19         0.00000E+00
    0.21349E-07         0.14203E-19         0.00000E+00
    0.21674E-07         0.10245E-19         0.00000E+00
    0.21994E-07         0.15134E-19         0.00000E+00
    0.22309E-07         0.10012E-19         0.00000E+00
    0.22618E-07         0.10012E-19         0.00000E+00
    0.22920E-07         0.15367E-19         0.00000E+00
    0.23215E-07         0.13970E-19         0.00000E+00
    0.23502E-07         0.67521E-20         0.00000E+00
    0.23781E-07         0.44238E-20         0.00000E+00
    0.24050E-07         0.14435E-19         0.00000E+00
    0.24309E-07         0.18510E-19         0.00000E+00
    0.24559E-07         0.16415E-19         0.00000E+00
    0.24797E-07         0.64028E-20         0.00000E+00
    0.25024E-07         0.15134E-19         0.00000E+00
    0.25238E-07         0.10012E-19         0.00000E+00
    0.25440E-07         0.27940E-20         0.00000E+00
    0.25629E-07         0.58208E-20         0.00000E+00
    0.25804E-07         0.31432E-20         0.00000E+00
    0.25965E-07         0.36089E-20         0.00000E+00
    0.26111E-07         0.58208E-21         0.00000E+00
    0.26242E-07         0.48894E-20         0.00000E+00
    0.26358E-07         0.11991E-19         0.00000E+00
    0.26457E-07         0.57044E-20         0.00000E+00
    0.26541E-07         0.89640E-20         0.00000E+00
    0.26608E-07         0.15367E-19         0.00000E+00
    0.26659E-07         0.10710E-19         0.00000E+00
    0.26693E-07         0.74506E-20         0.00000E+00
    0.26710E-07         0.25611E-20         0.00000E+00
    0.57891E-08        -0.76834E-20         0.00000E+00
    0.57955E-08         0.69849E-21         0.00000E+00
    0.58083E-08         0.69849E-20         0.00000E+00
    0.58275E-08         0.13504E-19         0.00000E+00
    0.58530E-08         0.14435E-19         0.00000E+00
    0.58849E-08         0.23283E-21         0.00000E+00
    0.59233E-08         0.34925E-20         0.00000E+00
    0.59680E-08         0.90804E-20         0.00000E+00
    0.60192E-08         0.19092E-19         0.00000E+00
    0.60768E-08         0.10710E-19         0.00000E+00
    0.61408E-08        -0.16298E-20         0.00000E+00
    0.62112E-08         0.83819E-20         0.00000E+00
    0.62881E-08         0.53551E-20         0.00000E+00
    0.63715E-08         0.76834E-20         0.00000E+00
    0.64614E-08         0.10012E-19         0.00000E+00
    0.65577E-08         0.88476E-20         0.00000E+00
    0.66605E-08         0.69849E-20         0.00000E+00
    0.67699E-08         0.11642E-20         0.00000E+00
    0.68857E-08         0.20955E-20         0.00000E+00
    0.70081E-08         0.90804E-20         0.00000E+00
    0.71371E-08         0.12340E-19         0.00000E+00
    0.72725E-08         0.20023E-19         0.00000E+00
    0.74146E-08         0.16531E-19         0.00000E+00
    0.75631E-08         0.16298E-20         0.00000E+00
    0.77183E-08        -0.53551E-20         0.00000E+00
    0.78799E-08         0.88476E-20         0.00000E+00
    0.80482E-08         0.11642E-19         0.00000E+00
    0.82229E-08         0.15367E-19         0.00000E+00
    0.84042E-08         0.13737E-19         0.00000E+00
    0.85921E-08        -0.93132E-21         0.00000E+00
    0.87864E-08         0.00000E+00         0.00000E+00
    0.89872E-08         0.95461E-20         0.00000E+00
    0.91944E-08         0.79162E-20         0.00000E+00
    0.94081E-08         0.46566E-20         0.00000E+00
    0.96282E-08         0.12107E-19         0.00000E+00
    0.98546E-08         0.12340E-19         0.00000E+00
    0.10087E-07         0.55879E-20         0.00000E+00
    0.10326E-07         0.18626E-20         0.00000E+00
    0.10571E-07         0.34925E-20         0.00000E+00
    0.10822E-07         0.25611E-20         0.00000E+00
    0.11079E-07         0.79162E-20         0.00000E+00
    0.11342E-07         0.65193E-20         0.00000E+00
    0.11611E-07         0.23283E-20         0.00000E+00
    0.11886E-07         0.93132E-20         0.00000E+00
    0.12166E-07         0.13970E-19         0.00000E+00
    0.12452E-07         0.34925E-20         0.00000E+00
    0.12742E-07        -0.34925E-20         0.00000E+00
    0.13038E-07         0.51223E-20         0.00000E+00
    0.13339E-07         0.23283E-20         0.00000E+00
    0.13645E-07         0.32596E-20         0.00000E+00
    0.13955E-07         0.72177E-20         0.00000E+00
    0.14270E-07         0.18161E-19         0.00000E+00
    0.14589E-07         0.11176E-19         0.00000E+00
    0.14912E-07         0.53551E-20         0.00000E+00
    0.15238E-07         0.53551E-20         0.00000E+00
    0.15568E-07         0.44238E-20         0.00000E+00
    0.15901E-07         0.46566E-20         0.00000E+00
    0.16236E-07         0.58208E-20         0.00000E+00
    0.16575E-07         0.10012E-19         0.00000E+00
    0.16915E-07         0.11874E-19         0.00000E+00
    0.17257E-07         0.18161E-19         0.00000E+00
    0.17600E-07         0.14203E-19         0.00000E+00
    0.17945E-07         0.88476E-20         0.00000E+00
    0.18290E-07         0.93132E-20         0.00000E+00
    0.18635E-07         0.11642E-20         0.00000E+00
    0.18980E-07         0.10477E-19         0.00000E+00
    0.19325E-07         0.86147E-20         0.00000E+00
    0.19668E-07         0.93132E-21         0.00000E+00
    0.20010E-07         0.19092E-19         0.00000E+00
    0.20349E-07         0.41910E-20         0.00000E+00
    0.20686E-07         0.83819E-20         0.00000E+00
    0.21019E-07         0.23982E-19         0.00000E+00
    0.21349E-07         0.15832E-19         0.00000E+00
    0.21674E-07         0.19558E-19         0.00000E+00
    0.21994E-07         0.22817E-19         0.00000E+00
    0.22309E-07         0.53551E-20         0.00000E+00
    0.22618E-07         0.11176E-19         0.00000E+00
    0.22920E-07         0.13737E-19         0.00000E+00
    0.23215E-07         0.79162E-20         0.00000E+00
    0.23502E-07         0.79162E-20         0.00000E+00
    0.23781E-07         0.10245E-19         0.00000E+00
    0.24050E-07         0.10012E-19         0.00000E+00
    0.24309E-07         0.12806E-19         0.00000E+00
    0.24559E-07         0.94296E-20         0.00000E+00
    0.24797E-07         0.50059E-20         0.00000E+00
    0.25024E-07         0.14086E-19         0.00000E+00
    0.25238E-07         0.11409E-19         0.00000E+00
    0.25440E-07         0.62864E-20         0.00000E+00
    0.25629E-07         0.84983E-20         0.00000E+00
    0.25804E-07         0.16531E-19         0.00000E+00
    0.25965E-07         0.12806E-19         0.00000E+00
    0.26111E-07         0.23283E-21         0.00000E+00
    0.26242E-07         0.72177E-20         0.00000E+00
    0.26358E-07         0.81491E-20         0.00000E+00
    0.26457E-07         0.69849E-20         0.00000E+00
    0.26541E-07         0.67521E-20         0.00000E+00
    0.26608E-07         0.15483E-19         0.00000E+00
    0.26659E-07         0.22468E-19         0.00000E+00
    0.26693E-07         0.53551E-20         0.00000E+00
    0.26710E-07        -0.53551E-20         0.00000E+00
    0.57891E-08         0.79162E-20         0.00000E+00
    0.57955E-08         0.18394E-19         0.00000E+00
    0.58083E-08         0.11874E-19         0.00000E+00
    0.58275E-08         0.10710E-19         0.00000E+00
    0.58530E-08         0.13271E-19         0.00000E+00
    0.58849E-08         0.20722E-19         0.00000E+00
    0.59233E-08         0.10710E-19         0.00000E+00
    0.59680E-08         0.81491E-20         0.00000E+00
    0.60192E-08         0.23516E-19         0.00000E+00
    0.60768E-08         0.10477E-19         0.00000E+00
    0.61408E-08         0.19791E-19         0.00000E+00
    0.62112E-08         0.13271E-19         0.00000E+00
    0.62881E-08         0.19791E-19         0.00000E+00
    0.63715E-08         0.17928E-19         0.00000E+00
    0.64614E-08         0.10245E-19         0.00000E+00
    0.65577E-08         0.16531E-19         0.00000E+00
    0.66605E-08         0.10012E-19         0.00000E+00
    0.67699E-08         0.11874E-19         0.00000E+00
    0.68857E-08         0.67521E-20         0.00000E+00
    0.70081E-08         0.58208E-20         0.00000E+00
    0.71371E-08         0.17928E-19         0.00000E+00
    0.72725E-08         0.23283E-19         0.00000E+00
    0.74146E-08         0.79162E-20         0.00000E+00
    0.75631E-08         0.41910E-20         0.00000E+00
    0.77183E-08         0.12340E-19         0.00000E+00
    0.78799E-08        -0.27940E-20         0.00000E+00
    0.80482E-08         0.69849E-21         0.00000E+00
    0.82229E-08         0.11176E-19         0.00000E+00
    0.84042E-08         0.12573E-19         0.00000E+00
    0.85921E-08         0.10012E-19         0.00000E+00
    0.87864E-08         0.12573E-19         0.00000E+00
    0.89872E-08         0.10710E-19         0.00000E+00
    0.91944E-08         0.16764E-19         0.00000E+00
    0.94081E-08         0.23283E-19         0.00000E+00
    0.96282E-08         0.13970E-19         0.00000E+00
    0.98546E-08         0.20023E-19         0.00000E+00
    0.10087E-07         0.55879E-20         0.00000E+00
    0.10326E-07        -0.13970E-20         0.00000E+00
    0.10571E-07         0.55879E-20         0.00000E+00
    0.10822E-07         0.60536E-20         0.00000E+00
    0.11079E-07         0.10710E-19         0.00000E+00
    0.11342E-07         0.23749E-19         0.00000E+00
    0.11611E-07         0.20023E-19         0.00000E+00
    0.11886E-07         0.14203E-19         0.00000E+00
    0.12166E-07         0.15134E-19         0.00000E+00
    0.12452E-07         0.95461E-20         0.00000E+00
    0.12742E-07         0.81491E-20         0.00000E+00
    0.13038E-07         0.32596E-20         0.00000E+00
    0.13339E-07         0.55879E-20         0.00000E+00
    0.13645E-07         0.51223E-20         0.00000E+00
    0.13955E-07         0.69849E-20         0.00000E+00
    0.14270E-07         0.16764E-19         0.00000E+00
    0.14589E-07         0.15367E-19         0.00000E+00
    0.14912E-07         0.76834E-20         0.00000E+00
    0.15238E-07         0.41910E-20         0.00000E+00
    0.15568E-07        -0.69849E-21         0.00000E+00
    0.15901E-07         0.46566E-21         0.00000E+00
    0.16236E-07         0.22352E-19         0.00000E+00
    0.16575E-07         0.23050E-19         0.00000E+00
    0.16915E-07         0.14203E-19         0.00000E+00
    0.17257E-07         0.27707E-19         0.00000E+00
    0.17600E-07         0.30035E-19         0.00000E+00
    0.17945E-07         0.74506E-20         0.00000E+00
    0.18290E-07         0.13271E-19         0.00000E+00
    0.18635E-07         0.12107E-19         0.00000E+00
    0.18980E-07         0.55879E-20         0.00000E+00
    0.19325E-07         0.14901E-19         0.00000E+00
    0.19668E-07         0.14435E-19         0.00000E+00
    0.20010E-07         0.25611E-20         0.00000E+00
    0.20349E-07         0.14435E-19         0.00000E+00
    0.20686E-07         0.18161E-19         0.00000E+00
    0.21019E-07         0.13504E-19         0.00000E+00
    0.21349E-07         0.12806E-19         0.00000E+00
    0.21674E-07         0.18161E-19         0.00000E+00
    0.21994E-07         0.23982E-19         0.00000E+00
    0.22309E-07         0.21653E-19         0.00000E+00
    0.22618E-07         0.13504E-19         0.00000E+00
    0.22920E-07         0.16764E-19         0.00000E+00
    0.23215E-07         0.21188E-19         0.00000E+00
    0.23502E-07         0.20023E-19         0.00000E+00
    0.23781E-07         0.14203E-19         0.00000E+00
    0.24050E-07         0.15134E-19         0.00000E+00
    0.24309E-07         0.24447E-19         0.00000E+00
    0.24559E-07         0.23632E-19         0.00000E+00
    0.24797E-07         0.26659E-19         0.00000E+00
    0.25024E-07         0.22119E-19         0.00000E+00
    0.25238E-07         0.17928E-19         0.00000E+00
    0.25440E-07         0.13155E-19         0.00000E+00
    0.25629E-07         0.37253E-20         0.00000E+00
    0.25804E-07         0.82655E-20         0.00000E+00
    0.25965E-07         0.37253E-20         0.00000E+00
    0.26111E-07        -0.48894E-20         0.00000E+00
    0.26242E-07         0.23283E-21         0.00000E+00
    0.26358E-07        -0.32596E-20         0.00000E+00
    0.26457E-07        -0.34925E-20         0.00000E+00
    0.26541E-07         0.80327E-20         0.00000E+00
    0.26608E-07         0.10128E-19         0.00000E+00
    0.26659E-07         0.13970E-19         0.00000E+00
    0.26693E-07         0.72177E-20         0.00000E+00
    0.26710E-07         0.25611E-20         0.00000E+00
    0.57891E-08         0.93132E-21         0.00000E+00
    0.57955E-08         0.74506E-20         0.00000E+00
    0.58083E-08         0.14435E-19         0.00000E+00
    0.58275E-08         0.14668E-19         0.00000E+00
    0.58530E-08         0.22352E-19         0.00000E+00
    0.58849E-08         0.20256E-19         0.00000E+00
    0.59233E-08         0.13271E-19         0.00000E+00
    0.59680E-08         0.39581E-20         0.00000E+00
    0.60192E-08         0.48894E-20         0.00000E+00
    0.60768E-08         0.30268E-20         0.00000E+00
    0.61408E-08         0.41910E-20         0.00000E+00
    0.62112E-08         0.90804E-20         0.00000E+00
    0.62881E-08         0.10477E-19         0.00000E+00
    0.63715E-08         0.86147E-20         0.00000E+00
    0.64614E-08         0.60536E-20         0.00000E+00
    0.65577E-08         0.12107E-19         0.00000E+00
    0.66605E-08         0.53551E-20         0.00000E+00
    0.67699E-08         0.23283E-20         0.00000E+00
    0.68857E-08        -0.76834E-20         0.00000E+00
    0.70081E-08        -0.69849E-21         0.00000E+00
    0.71371E-08         0.13970E-19         0.00000E+00
    0.72725E-08         0.20023E-19         0.00000E+00
    0.74146E-08         0.15134E-19         0.00000E+00
    0.75631E-08         0.11176E-19         0.00000E+00
    0.77183E-08         0.14203E-19         0.00000E+00
    0.78799E-08         0.55879E-20         0.00000E+00
    0.80482E-08         0.46566E-20         0.00000E+00
    0.82229E-08         0.12806E-19         0.00000E+00
    0.84042E-08         0.23749E-19         0.00000E+00
    0.85921E-08         0.20489E-19         0.00000E+00
    0.87864E-08         0.74506E-20         0.00000E+00
    0.89872E-08         0.93132E-20         0.00000E+00
    0.91944E-08         0.21653E-19         0.00000E+00
    0.94081E-08         0.16298E-19         0.00000E+00
    0.96282E-08         0.11642E-19         0.00000E+00
    0.98546E-08         0.30268E-20         0.00000E+00
    0.10087E-07        -0.41910E-20         0.00000E+00
    0.10326E-07         0.74506E-20         0.00000E+00
    0.10571E-07         0.23283E-21         0.00000E+00
    0.10822E-07        -0.41910E-20         0.00000E+00
    0.11079E-07         0.23283E-21         0.00000E+00
    0.11342E-07         0.37253E-20         0.00000E+00
    0.11611E-07         0.13504E-19         0.00000E+00
    0.11886E-07         0.90804E-20         0.00000E+00
    0.12166E-07        -0.55879E-20         0.00000E+00
    0.12452E-07        -0.93132E-21         0.00000E+00
    0.12742E-07         0.23283E-20         0.00000E+00
    0.13038E-07         0.27940E-20         0.00000E+00
    0.13339E-07         0.79162E-20         0.00000E+00
    0.13645E-07         0.58208E-20         0.00000E+00
    0.13955E-07         0.27940E-20         0.00000E+00
    0.14270E-07         0.86147E-20         0.00000E+00
    0.14589E-07         0.14901E-19         0.00000E+00
    0.14912E-07         0.55879E-20         0.00000E+00
    0.15238E-07        -0.46566E-21         0.00000E+00
    0.15568E-07        -0.11409E-19         0.00000E+00
    0.15901E-07        -0.11642E-19         0.00000E+00
    0.16236E-07         0.11176E-19         0.00000E+00
    0.16575E-07         0.11176E-19         0.00000E+00
    0.16915E-07         0.62864E-20         0.00000E+00
    0.17257E-07         0.20489E-19         0.00000E+00
    0.17600E-07         0.12573E-19         0.00000E+00
    0.17945E-07         0.83819E-20         0.00000E+00
    0.18290E-07         0.10245E-19         0.00000E+00
    0.18635E-07         0.39581E-20         0.00000E+00
    0.18980E-07         0.97789E-20         0.00000E+00
    0.19325E-07         0.14668E-19         0.00000E+00
    0.19668E-07         0.14435E-19         0.00000E+00
    0.20010E-07         0.13039E-19         0.00000E+00
    0.20349E-07         0.16764E-19         0.00000E+00
    0.20686E-07         0.16298E-19         0.00000E+00
    0.21019E-07         0.14901E-19         0.00000E+00
    0.21349E-07         0.97789E-20         0.00000E+00
    0.21674E-07         0.97789E-20         0.00000E+00
    0.21994E-07         0.30035E-19         0.00000E+00
    0.22309E-07         0.16997E-19         0.00000E+00
    0.22618E-07         0.44238E-20         0.00000E+00
    0.22920E-07         0.11409E-19         0.00000E+00
    0.23215E-07         0.97789E-20         0.00000E+00
    0.23502E-07         0.13504E-19         0.00000E+00
    0.23781E-07         0.15367E-19         0.00000E+00
    0.24050E-07         0.16997E-19         0.00000E+00
    0.24309E-07         0.16764E-19         0.00000E+00
    0.24559E-07         0.12107E-19         0.00000E+00
    0.24797E-07         0.24564E-19         0.00000E+00
    0.25024E-07         0.27241E-19         0.00000E+00
    0.25238E-07         0.20256E-19         0.00000E+00
    0.25440E-07         0.20373E-19         0.00000E+00
    0.25629E-07         0.24447E-19         0.00000E+00
    0.25804E-07         0.17695E-19         0.00000E+00
    0.25965E-07         0.69849E-20         0.00000E+00
    0.26111E-07         0.10128E-19         0.00000E+00
    0.26242E-07         0.10594E-19         0.00000E+00
    0.26358E-07         0.80327E-20         0.00000E+00
    0.26457E-07         0.69849E-20         0.00000E+00
    0.26541E-07        -0.66357E-20         0.00000E+00
    0.26608E-07         0.64028E-20         0.00000E+00
    0.26659E-07         0.12224E-19         0.00000E+00
    0.26693E-07         0.69849E-20         0.00000E+00
    0.26710E-07         0.54715E-20         0.00000E+00
    0.57891E-08         0.93132E-21         0.00000E+00
    0.57955E-08         0.37253E-20         0.00000E+00
    0.58083E-08         0.20722E-19         0.00000E+00
    0.58275E-08         0.18626E-19         0.00000E+00
    0.58530E-08         0.12806E-19         0.00000E+00
    0.58849E-08         0.44238E-20         0.00000E+00
    0.59233E-08        -0.60536E-20         0.00000E+00
    0.59680E-08         0.93132E-21         0.00000E+00
    0.60192E-08         0.10943E-19         0.00000E+00
    0.60768E-08         0.90804E-20         0.00000E+00
    0.61408E-08         0.18859E-19         0.00000E+00
    0.62112E-08         0.22352E-19         0.00000E+00
    0.62881E-08         0.86147E-20         0.00000E+00
    0.63715E-08         0.34925E-20         0.00000E+00
    0.64614E-08        -0.30268E-20         0.00000E+00
    0.65577E-08         0.16298E-20         0.00000E+00
    0.66605E-08         0.72177E-20         0.00000E+00
    0.67699E-08         0.44238E-20         0.00000E+00
    0.68857E-08        -0.16298E-20         0.00000E+00
    0.70081E-08        -0.72177E-20         0.00000E+00
    0.71371E-08         0.34925E-20         0.00000E+00
    0.72725E-08         0.13737E-19         0.00000E+00
    0.74146E-08         0.20256E-19         0.00000E+00
    0.75631E-08         0.95461E-20         0.00000E+00
    0.77183E-08         0.11874E-19         0.00000E+00
    0.78799E-08         0.17229E-19         0.00000E+00
    0.80482E-08         0.48894E-20         0.00000E+00
    0.82229E-08         0.39581E-20         0.00000E+00
    0.84042E-08         0.15832E-19         0.00000E+00
    0.85921E-08         0.55879E-20         0.00000E+00
    0.87864E-08         0.15367E-19         0.00000E+00
    0.89872E-08         0.29802E-19         0.00000E+00
    0.91944E-08        -0.13970E-20         0.00000E+00
    0.94081E-08        -0.62864E-20         0.00000E+00
    0.96282E-08         0.23283E-21         0.00000E+00
    0.98546E-08        -0.79162E-20         0.00000E+00
    0.10087E-07         0.44238E-20         0.00000E+00
    0.10326E-07        -0.18626E-20         0.00000E+00
    0.10571E-07        -0.11874E-19         0.00000E+00
    0.10822E-07        -0.23283E-20         0.00000E+00
    0.11079E-07         0.79162E-20         0.00000E+00
    0.11342E-07         0.67521E-20         0.00000E+00
    0.11611E-07        -0.16065E-19         0.00000E+00
    0.11886E-07        -0.46566E-21         0.00000E+00
    0.12166E-07         0.25146E-19         0.00000E+00
    0.12452E-07        -0.44238E-20         0.00000E+00
    0.12742E-07        -0.72177E-20         0.00000E+00
    0.13038E-07        -0.27940E-20         0.00000E+00
    0.13339E-07        -0.51223E-20         0.00000E+00
    0.13645E-07         0.20955E-20         0.00000E+00
    0.13955E-07        -0.20955E-20         0.00000E+00
    0.14270E-07         0.74506E-20         0.00000E+00
    0.14589E-07         0.13504E-19         0.00000E+00
    0.14912E-07         0.34925E-20         0.00000E+00
    0.15238E-07         0.27940E-20         0.00000E+00
    0.15568E-07        -0.93132E-21         0.00000E+00
    0.15901E-07        -0.97789E-20         0.00000E+00
    0.16236E-07        -0.23283E-20         0.00000E+00
    0.16575E-07         0.32596E-20         0.00000E+00
    0.16915E-07         0.76834E-20         0.00000E+00
    0.17257E-07         0.10012E-19         0.00000E+00
    0.17600E-07         0.16298E-19         0.00000E+00
    0.17945E-07         0.62864E-20         0.00000E+00
    0.18290E-07        -0.44238E-20         0.00000E+00
    0.18635E-07         0.76834E-20         0.00000E+00
    0.18980E-07         0.93132E-21         0.00000E+00
    0.19325E-07        -0.65193E-20         0.00000E+00
    0.19668E-07         0.25611E-20         0.00000E+00
    0.20010E-07         0.17229E-19         0.00000E+00
    0.20349E-07         0.22352E-19         0.00000E+00
    0.20686E-07         0.26077E-19         0.00000E+00
    0.21019E-07         0.19558E-19         0.00000E+00
    0.21349E-07         0.97789E-20         0.00000E+00
    0.21674E-07         0.51223E-20         0.00000E+00
    0.21994E-07         0.11874E-19         0.00000E+00
    0.22309E-07         0.13970E-19         0.00000E+00
    0.22618E-07         0.26776E-19         0.00000E+00
    0.22920E-07         0.27940E-19         0.00000E+00
    0.23215E-07         0.17229E-19         0.00000E+00
    0.23502E-07         0.15832E-19         0.00000E+00
    0.23781E-07         0.11874E-19         0.00000E+00
    0.24050E-07         0.27241E-19         0.00000E+00
    0.24309E-07         0.32713E-19         0.00000E+00
    0.24559E-07         0.21537E-19         0.00000E+00
    0.24797E-07         0.21770E-19         0.00000E+00
    0.25024E-07         0.23632E-19         0.00000E+00
    0.25238E-07         0.12573E-19         0.00000E+00
    0.25440E-07         0.45402E-20         0.00000E+00
    0.25629E-07        -0.11642E-20         0.00000E+00
    0.25804E-07        -0.66357E-20         0.00000E+00
    0.25965E-07        -0.36089E-20         0.00000E+00
    0.26111E-07         0.12224E-19         0.00000E+00
    0.26242E-07         0.19674E-19         0.00000E+00
    0.26358E-07         0.66357E-20         0.00000E+00
    0.26457E-07         0.67521E-20         0.00000E+00
    0.26541E-07         0.14552E-19         0.00000E+00
    0.26608E-07         0.12107E-19         0.00000E+00
    0.26659E-07         0.90804E-20         0.00000E+00
    0.26693E-07         0.16298E-20         0.00000E+00
    0.26710E-07         0.58208E-21         0.00000E+00
    0.57891E-08        -0.17229E-19         0.00000E+00
    0.57955E-08        -0.17695E-19         0.00000E+00
    0.58083E-08         0.16997E-19         0.00000E+00
    0.58275E-08         0.20722E-19         0.00000E+00
    0.58530E-08         0.15134E-19         0.00000E+00
    0.58849E-08         0.13271E-19         0.00000E+00
    0.59233E-08         0.15134E-19         0.00000E+00
    0.59680E-08         0.67521E-20         0.00000E+00
    0.60192E-08         0.46566E-20         0.00000E+00
    0.60768E-08         0.13039E-19         0.00000E+00
    0.61408E-08         0.30268E-20         0.00000E+00
    0.62112E-08         0.65193E-20         0.00000E+00
    0.62881E-08         0.34925E-20         0.00000E+00
    0.63715E-08        -0.25611E-20         0.00000E+00
    0.64614E-08         0.16298E-20         0.00000E+00
    0.65577E-08        -0.81491E-20         0.00000E+00
    0.66605E-08        -0.23283E-20         0.00000E+00
    0.67699E-08        -0.46566E-20         0.00000E+00
    0.68857E-08         0.16298E-20         0.00000E+00
    0.70081E-08         0.86147E-20         0.00000E+00
    0.71371E-08         0.39581E-20         0.00000E+00
    0.72725E-08        -0.11642E-20         0.00000E+00
    0.74146E-08         0.67521E-20         0.00000E+00
    0.75631E-08         0.90804E-20         0.00000E+00
    0.77183E-08         0.11642E-19         0.00000E+00
    0.78799E-08         0.39581E-20         0.00000E+00
    0.80482E-08         0.67521E-20         0.00000E+00
    0.82229E-08         0.20256E-19         0.00000E+00
    0.84042E-08         0.12573E-19         0.00000E+00
    0.85921E-08        -0.18626E-20         0.00000E+00
    0.87864E-08        -0.13039E-19         0.00000E+00
    0.89872E-08         0.18626E-20         0.00000E+00
    0.91944E-08         0.30966E-19         0.00000E+00
    0.94081E-08         0.17928E-19         0.00000E+00
    0.96282E-08        -0.23283E-20         0.00000E+00
    0.98546E-08         0.25611E-20         0.00000E+00
    0.10087E-07         0.51223E-20         0.00000E+00
    0.10326E-07        -0.20955E-19         0.00000E+00
    0.10571E-07        -0.29802E-19         0.00000E+00
    0.10822E-07        -0.18161E-19         0.00000E+00
    0.11079E-07        -0.67521E-20         0.00000E+00
    0.11342E-07        -0.48894E-20         0.00000E+00
    0.11611E-07        -0.93132E-20         0.00000E+00
    0.11886E-07        -0.18626E-20         0.00000E+00
    0.12166E-07         0.37253E-20         0.00000E+00
    0.12452E-07         0.20955E-20         0.00000E+00
    0.12742E-07        -0.21886E-19         0.00000E+00
    0.13038E-07        -0.15832E-19         0.00000E+00
    0.13339E-07        -0.16298E-20         0.00000E+00
    0.13645E-07        -0.10710E-19         0.00000E+00
    0.13955E-07        -0.34925E-20         0.00000E+00
    0.14270E-07        -0.72177E-20         0.00000E+00
    0.14589E-07        -0.18626E-20         0.00000E+00
    0.14912E-07         0.27940E-20         0.00000E+00
    0.15238E-07        -0.10245E-19         0.00000E+00
    0.15568E-07        -0.74506E-20         0.00000E+00
    0.15901E-07        -0.83819E-20         0.00000E+00
    0.16236E-07        -0.74506E-20         0.00000E+00
    0.16575E-07        -0.69849E-21         0.00000E+00
    0.16915E-07        -0.69849E-20         0.00000E+00
    0.17257E-07         0.23283E-20         0.00000E+00
    0.17600E-07         0.83819E-20         0.00000E+00
    0.17945E-07         0.60536E-20         0.00000E+00
    0.18290E-07         0.32596E-20         0.00000E+00
    0.18635E-07         0.83819E-20         0.00000E+00
    0.18980E-07         0.16997E-19         0.00000E+00
    0.19325E-07         0.10245E-19         0.00000E+00
    0.19668E-07         0.53551E-20         0.00000E+00
    0.20010E-07         0.95461E-20         0.00000E+00
    0.20349E-07         0.15134E-19         0.00000E+00
    0.20686E-07         0.14901E-19         0.00000E+00
    0.21019E-07         0.58208E-20         0.00000E+00
    0.21349E-07         0.34925E-20         0.00000E+00
    0.21674E-07         0.10710E-19         0.00000E+00
    0.21994E-07         0.11409E-19         0.00000E+00
    0.22309E-07         0.72177E-20         0.00000E+00
    0.22618E-07         0.58208E-20         0.00000E+00
    0.22920E-07         0.15600E-19         0.00000E+00
    0.23215E-07         0.17695E-19         0.00000E+00
    0.23502E-07         0.12107E-19         0.00000E+00
    0.23781E-07         0.17462E-19         0.00000E+00
    0.24050E-07         0.11409E-19         0.00000E+00
    0.24309E-07         0.87311E-20         0.00000E+00
    0.24559E-07         0.14901E-19         0.00000E+00
    0.24797E-07        -0.34925E-21         0.00000E+00
    0.25024E-07         0.69849E-21         0.00000E+00
    0.25238E-07         0.11176E-19         0.00000E+00
    0.25440E-07         0.97789E-20         0.00000E+00
    0.25629E-07         0.10477E-20         0.00000E+00
    0.25804E-07        -0.22119E-20         0.00000E+00
    0.25965E-07        -0.20955E-20         0.00000E+00
    0.26111E-07         0.33760E-20         0.00000E+00
    0.26242E-07         0.13155E-19         0.00000E+00
    0.26358E-07         0.13039E-19         0.00000E+00
    0.26457E-07         0.87311E-20         0.00000E+00
    0.26541E-07         0.65193E-20         0.00000E+00
    0.26608E-07         0.11642E-20         0.00000E+00
    0.26659E-07         0.19791E-20         0.00000E+00
    0.26693E-07         0.34925E-20         0.00000E+00
    0.26710E-07        -0.19791E-20         0.00000E+00
    0.57891E-08        -0.18626E-20         0.00000E+00
    0.57955E-08        -0.41910E-20         0.00000E+00
    0.58083E-08         0.39581E-20         0.00000E+00
    0.58275E-08         0.14203E-19         0.00000E+00
    0.58530E-08         0.12573E-19         0.00000E+00
    0.58849E-08         0.76834E-20         0.00000E+00
    0.59233E-08         0.20489E-19         0.00000E+00
    0.59680E-08         0.18394E-19         0.00000E+00
    0.60192E-08         0.25611E-20         0.00000E+00
    0.60768E-08         0.18626E-20         0.00000E+00
    0.61408E-08         0.30268E-20         0.00000E+00
    0.62112E-08        -0.34925E-20         0.00000E+00
    0.62881E-08        -0.23283E-21         0.00000E+00
    0.63715E-08         0.20955E-20         0.00000E+00
    0.64614E-08        -0.23283E-20         0.00000E+00
    0.65577E-08        -0.90804E-20         0.00000E+00
    0.66605E-08        -0.14203E-19         0.00000E+00
    0.67699E-08        -0.27940E-20         0.00000E+00
    0.68857E-08         0.18626E-20         0.00000E+00
    0.70081E-08        -0.39581E-20         0.00000E+00
    0.71371E-08        -0.62864E-20         0.00000E+00
    0.72725E-08        -0.97789E-20         0.00000E+00
    0.74146E-08         0.62864E-20         0.00000E+00
    0.75631E-08         0.83819E-20         0.00000E+00
    0.77183E-08        -0.72177E-20         0.00000E+00
    0.78799E-08         0.00000E+00         0.00000E+00
    0.80482E-08         0.10012E-19         0.00000E+00
    0.82229E-08         0.19325E-19         0.00000E+00
    0.84042E-08         0.23982E-19         0.00000E+00
    0.85921E-08         0.93132E-20         0.00000E+00
    0.87864E-08         0.14435E-19         0.00000E+00
    0.89872E-08         0.14901E-19         0.00000E+00
    0.91944E-08         0.69849E-21         0.00000E+00
    0.94081E-08         0.00000E+00         0.00000E+00
    0.96282E-08        -0.46566E-21         0.00000E+00
    0.98546E-08         0.79162E-20         0.00000E+00
    0.10087E-07         0.23283E-21         0.00000E+00
    0.10326E-07        -0.41910E-20         0.00000E+00
    0.10571E-07        -0.41910E-20         0.00000E+00
    0.10822E-07        -0.12107E-19         0.00000E+00
    0.11079E-07        -0.10477E-19         0.00000E+00
    0.11342E-07         0.72177E-20         0.00000E+00
    0.11611E-07        -0.39581E-20         0.00000E+00
    0.11886E-07        -0.10477E-19         0.00000E+00
    0.12166E-07        -0.55879E-20         0.00000E+00
    0.12452E-07         0.13970E-20         0.00000E+00
    0.12742E-07         0.34925E-20         0.00000E+00
    0.13038E-07        -0.46566E-21         0.00000E+00
    0.13339E-07        -0.93132E-21         0.00000E+00
    0.13645E-07         0.37253E-20         0.00000E+00
    0.13955E-07         0.17229E-19         0.00000E+00
    0.14270E-07         0.37253E-20         0.00000E+00
    0.14589E-07        -0.32596E-20         0.00000E+00
    0.14912E-07         0.11176E-19         0.00000E+00
    0.15238E-07        -0.69849E-20         0.00000E+00
    0.15568E-07        -0.20722E-19         0.00000E+00
    0.15901E-07        -0.51223E-20         0.00000E+00
    0.16236E-07         0.18626E-20         0.00000E+00
    0.16575E-07         0.37253E-20         0.00000E+00
    0.16915E-07         0.13039E-19         0.00000E+00
    0.17257E-07         0.10012E-19         0.00000E+00
    0.17600E-07         0.10245E-19         0.00000E+00
    0.17945E-07         0.14901E-19         0.00000E+00
    0.18290E-07         0.79162E-20         0.00000E+00
    0.18635E-07         0.55879E-20         0.00000E+00
    0.18980E-07         0.13504E-19         0.00000E+00
    0.19325E-07         0.24680E-19         0.00000E+00
    0.19668E-07         0.12806E-19         0.00000E+00
    0.20010E-07         0.18626E-19         0.00000E+00
    0.20349E-07         0.23982E-19         0.00000E+00
    0.20686E-07         0.20955E-19         0.00000E+00
    0.21019E-07         0.23982E-19         0.00000E+00
    0.21349E-07         0.23749E-19         0.00000E+00
    0.21674E-07         0.12573E-19         0.00000E+00
    0.21994E-07         0.67521E-20         0.00000E+00
    0.22309E-07         0.13737E-19         0.00000E+00
    0.22618E-07         0.13039E-19         0.00000E+00
    0.22920E-07         0.17462E-19         0.00000E+00
    0.23215E-07         0.20023E-19         0.00000E+00
    0.23502E-07         0.15832E-19         0.00000E+00
    0.23781E-07         0.16065E-19         0.00000E+00
    0.24050E-07         0.11176E-19         0.00000E+00
    0.24309E-07         0.77998E-20         0.00000E+00
    0.24559E-07         0.13853E-19         0.00000E+00
    0.24797E-07         0.15134E-19         0.00000E+00
    0.25024E-07         0.16415E-19         0.00000E+00
    0.25238E-07         0.72177E-20         0.00000E+00
    0.25440E-07         0.13155E-19         0.00000E+00
    0.25629E-07         0.86147E-20         0.00000E+00
    0.25804E-07        -0.33760E-20         0.00000E+00
    0.25965E-07         0.24447E-20         0.00000E+00
    0.26111E-07        -0.93132E-21         0.00000E+00
    0.26242E-07         0.46566E-20         0.00000E+00
    0.26358E-07         0.22119E-20         0.00000E+00
    0.26457E-07         0.10477E-19         0.00000E+00
    0.26541E-07         0.14668E-19         0.00000E+00
    0.26608E-07         0.90804E-20         0.00000E+00
    0.26659E-07        -0.27940E-20         0.00000E+00
    0.26693E-07        -0.23283E-20         0.00000E+00
    0.26710E-07        -0.58208E-21         0.00000E+00
    0.57891E-08        -0.12806E-19         0.00000E+00
    0.57955E-08        -0.41910E-20         0.00000E+00
    0.58083E-08         0.19791E-19         0.00000E+00
    0.58275E-08         0.23749E-19         0.00000E+00
    0.58530E-08         0.19558E-19         0.00000E+00
    0.58849E-08         0.14203E-19         0.00000E+00
    0.59233E-08         0.17229E-19         0.00000E+00
    0.59680E-08         0.20722E-19         0.00000E+00
    0.60192E-08         0.26310E-19         0.00000E+00
    0.60768E-08         0.15832E-19         0.00000E+00
    0.61408E-08         0.72177E-20         0.00000E+00
    0.62112E-08         0.11176E-19         0.00000E+00
    0.62881E-08         0.13737E-19         0.00000E+00
    0.63715E-08         0.13271E-19         0.00000E+00
    0.64614E-08         0.13737E-19         0.00000E+00
    0.65577E-08         0.76834E-20         0.00000E+00
    0.66605E-08         0.14668E-19         0.00000E+00
    0.67699E-08         0.83819E-20         0.00000E+00
    0.68857E-08         0.13970E-19         0.00000E+00
    0.70081E-08         0.20023E-19         0.00000E+00
    0.71371E-08         0.90804E-20         0.00000E+00
    0.72725E-08         0.65193E-20         0.00000E+00
    0.74146E-08         0.14203E-19         0.00000E+00
    0.75631E-08         0.22817E-19         0.00000E+00
    0.77183E-08         0.10710E-19         0.00000E+00
    0.78799E-08         0.15367E-19         0.00000E+00
    0.80482E-08         0.14901E-19         0.00000E+00
    0.82229E-08         0.13737E-19         0.00000E+00
    0.84042E-08         0.15600E-19         0.00000E+00
    0.85921E-08         0.95461E-20         0.00000E+00
    0.87864E-08         0.79162E-20         0.00000E+00
    0.89872E-08         0.12806E-19         0.00000E+00
    0.91944E-08         0.18626E-19         0.00000E+00
    0.94081E-08         0.20955E-19         0.00000E+00
    0.96282E-08         0.10710E-19         0.00000E+00
    0.98546E-08        -0.16298E-20         0.00000E+00
    0.10087E-07         0.62864E-20         0.00000E+00
    0.10326E-07         0.60536E-20         0.00000E+00
    0.10571E-07         0.27940E-20         0.00000E+00
    0.10822E-07        -0.41910E-20         0.00000E+00
    0.11079E-07        -0.88476E-20         0.00000E+00
    0.11342E-07        -0.11409E-19         0.00000E+00
    0.11611E-07        -0.58208E-20         0.00000E+00
    0.11886E-07         0.93132E-21         0.00000E+00
    0.12166E-07        -0.25611E-20         0.00000E+00
    0.12452E-07        -0.60536E-20         0.00000E+00
    0.12742E-07        -0.65193E-20         0.00000E+00
    0.13038E-07         0.12107E-19         0.00000E+00
    0.13339E-07         0.10245E-19         0.00000E+00
    0.13645E-07         0.69849E-21         0.00000E+00
    0.13955E-07         0.12107E-19         0.00000E+00
    0.14270E-07         0.21420E-19         0.00000E+00
    0.14589E-07         0.51223E-20         0.00000E+00
    0.14912E-07        -0.18626E-20         0.00000E+00
    0.15238E-07        -0.46566E-21         0.00000E+00
    0.15568E-07        -0.39581E-20         0.00000E+00
    0.15901E-07         0.46566E-21         0.00000E+00
    0.16236E-07         0.44238E-20         0.00000E+00
    0.16575E-07         0.11642E-20         0.00000E+00
    0.16915E-07        -0.39581E-20         0.00000E+00
    0.17257E-07         0.72177E-20         0.00000E+00
    0.17600E-07         0.32596E-20         0.00000E+00
    0.17945E-07         0.10710E-19         0.00000E+00
    0.18290E-07         0.13970E-19         0.00000E+00
    0.18635E-07         0.93132E-21         0.00000E+00
    0.18980E-07        -0.18626E-20         0.00000E+00
    0.19325E-07        -0.30268E-20         0.00000E+00
    0.19668E-07         0.44238E-20         0.00000E+00
    0.20010E-07         0.13039E-19         0.00000E+00
    0.20349E-07         0.11642E-19         0.00000E+00
    0.20686E-07         0.16065E-19         0.00000E+00
    0.21019E-07         0.13039E-19         0.00000E+00
    0.21349E-07         0.17695E-19         0.00000E+00
    0.21674E-07         0.25611E-19         0.00000E+00
    0.21994E-07         0.27707E-19         0.00000E+00
    0.22309E-07         0.24913E-19         0.00000E+00
    0.22618E-07         0.13039E-19         0.00000E+00
    0.22920E-07         0.13504E-19         0.00000E+00
    0.23215E-07         0.11176E-19         0.00000E+00
    0.23502E-07         0.18626E-19         0.00000E+00
    0.23781E-07         0.15600E-19         0.00000E+00
    0.24050E-07         0.10943E-19         0.00000E+00
    0.24309E-07         0.12456E-19         0.00000E+00
    0.24559E-07         0.23399E-19         0.00000E+00
    0.24797E-07         0.10827E-19         0.00000E+00
    0.25024E-07         0.72177E-20         0.00000E+00
    0.25238E-07         0.68685E-20         0.00000E+00
    0.25440E-07         0.12107E-19         0.00000E+00
    0.25629E-07         0.19558E-19         0.00000E+00
    0.25804E-07         0.21886E-19         0.00000E+00
    0.25965E-07         0.14435E-19         0.00000E+00
    0.26111E-07         0.12806E-19         0.00000E+00
    0.26242E-07        -0.19791E-20         0.00000E+00
    0.26358E-07        -0.27940E-20         0.00000E+00
    0.26457E-07         0.13504E-19         0.00000E+00
    0.26541E-07         0.13504E-19         0.00000E+00
    0.26608E-07         0.87311E-20         0.00000E+00
    0.26659E-07        -0.26776E-20         0.00000E+00
    0.26693E-07        -0.83819E-20         0.00000E+00
    0.26710E-07        -0.75670E-20         0.00000E+00
    0.57891E-08         0.10012E-19         0.00000E+00
    0.57955E-08         0.60536E-20         0.00000E+00
    0.58083E-08         0.10245E-19         0.00000E+00
    0.58275E-08         0.31432E-19         0.00000E+00
    0.58530E-08         0.17229E-19         0.00000E+00
    0.58849E-08         0.19325E-19         0.00000E+00
    0.59233E-08         0.29569E-19         0.00000E+00
    0.59680E-08         0.29802E-19         0.00000E+00
    0.60192E-08         0.29104E-19         0.00000E+00
    0.60768E-08         0.14901E-19         0.00000E+00
    0.61408E-08         0.14203E-19         0.00000E+00
    0.62112E-08         0.12107E-19         0.00000E+00
    0.62881E-08         0.46566E-20         0.00000E+00
    0.63715E-08         0.25611E-20         0.00000E+00
    0.64614E-08         0.44238E-20         0.00000E+00
    0.65577E-08         0.53551E-20         0.00000E+00
    0.66605E-08         0.72177E-20         0.00000E+00
    0.67699E-08         0.15134E-19         0.00000E+00
    0.68857E-08         0.11409E-19         0.00000E+00
    0.70081E-08         0.11874E-19         0.00000E+00
    0.71371E-08         0.16531E-19         0.00000E+00
    0.72725E-08         0.34226E-19         0.00000E+00
    0.74146E-08         0.13737E-19         0.00000E+00
    0.75631E-08        -0.13970E-19         0.00000E+00
    0.77183E-08        -0.46566E-21         0.00000E+00
    0.78799E-08         0.55879E-20         0.00000E+00
    0.80482E-08        -0.62864E-20         0.00000E+00
    0.82229E-08         0.53551E-20         0.00000E+00
    0.84042E-08         0.95461E-20         0.00000E+00
    0.85921E-08        -0.46566E-20         0.00000E+00
    0.87864E-08         0.21188E-19         0.00000E+00
    0.89872E-08         0.24447E-19         0.00000E+00
    0.91944E-08         0.13737E-19         0.00000E+00
    0.94081E-08         0.10943E-19         0.00000E+00
    0.96282E-08         0.21420E-19         0.00000E+00
    0.98546E-08         0.24214E-19         0.00000E+00
    0.10087E-07        -0.34925E-20         0.00000E+00
    0.10326E-07        -0.79162E-20         0.00000E+00
    0.10571E-07         0.44238E-20         0.00000E+00
    0.10822E-07        -0.93132E-21         0.00000E+00
    0.11079E-07         0.69849E-21         0.00000E+00
    0.11342E-07        -0.11642E-20         0.00000E+00
    0.11611E-07        -0.44238E-20         0.00000E+00
    0.11886E-07        -0.48894E-20         0.00000E+00
    0.12166E-07        -0.14435E-19         0.00000E+00
    0.12452E-07        -0.27940E-20         0.00000E+00
    0.12742E-07         0.60536E-20         0.00000E+00
    0.13038E-07         0.46566E-20         0.00000E+00
    0.13339E-07         0.46566E-21         0.00000E+00
    0.13645E-07         0.69849E-21         0.00000E+00
    0.13955E-07         0.83819E-20         0.00000E+00
    0.14270E-07         0.11176E-19         0.00000E+00
    0.14589E-07         0.10710E-19         0.00000E+00
    0.14912E-07         0.90804E-20         0.00000E+00
    0.15238E-07        -0.32596E-20         0.00000E+00
    0.15568E-07        -0.15134E-19         0.00000E+00
    0.15901E-07        -0.79162E-20         0.00000E+00
    0.16236E-07        -0.46566E-21         0.00000E+00
    0.16575E-07         0.76834E-20         0.00000E+00
    0.16915E-07         0.11409E-19         0.00000E+00
    0.17257E-07         0.10012E-19         0.00000E+00
    0.17600E-07         0.29337E-19         0.00000E+00
    0.17945E-07         0.18161E-19         0.00000E+00
    0.18290E-07         0.20955E-20         0.00000E+00
    0.18635E-07         0.69849E-20         0.00000E+00
    0.18980E-07         0.37253E-20         0.00000E+00
    0.19325E-07        -0.10710E-19         0.00000E+00
    0.19668E-07         0.62864E-20         0.00000E+00
    0.20010E-07         0.88476E-20         0.00000E+00
    0.20349E-07        -0.11642E-20         0.00000E+00
    0.20686E-07         0.18808E-36         0.00000E+00
    0.21019E-07         0.15367E-19         0.00000E+00
    0.21349E-07         0.23283E-19         0.00000E+00
    0.21674E-07         0.97789E-20         0.00000E+00
    0.21994E-07        -0.46566E-21         0.00000E+00
    0.22309E-07         0.10477E-19         0.00000E+00
    0.22618E-07         0.11176E-19         0.00000E+00
    0.22920E-07         0.13504E-19         0.00000E+00
    0.23215E-07         0.23749E-19         0.00000E+00
    0.23502E-07         0.11176E-19         0.00000E+00
    0.23781E-07        -0.27940E-20         0.00000E+00
    0.24050E-07        -0.90804E-20         0.00000E+00
    0.24309E-07        -0.41910E-20         0.00000E+00
    0.24559E-07         0.69849E-20         0.00000E+00
    0.24797E-07         0.61700E-20         0.00000E+00
    0.25024E-07         0.12806E-20         0.00000E+00
    0.25238E-07         0.10710E-19         0.00000E+00
    0.25440E-07         0.22468E-19         0.00000E+00
    0.25629E-07         0.14785E-19         0.00000E+00
    0.25804E-07         0.15367E-19         0.00000E+00
    0.25965E-07         0.20489E-19         0.00000E+00
    0.26111E-07         0.16182E-19         0.00000E+00
    0.26242E-07         0.98953E-20         0.00000E+00
    0.26358E-07         0.13271E-19         0.00000E+00
    0.26457E-07         0.14203E-19         0.00000E+00
    0.26541E-07         0.13970E-19         0.00000E+00
    0.26608E-07         0.36089E-20         0.00000E+00
    0.26659E-07        -0.46566E-20         0.00000E+00
    0.26693E-07        -0.46566E-21         0.00000E+00
    0.26710E-07         0.33760E-20         0.00000E+00
    0.57891E-08         0.30268E-20         0.00000E+00
    0.57955E-08         0.25611E-20         0.00000E+00
    0.58083E-08         0.51223E-20         0.00000E+00
    0.58275E-08         0.51223E-20         0.00000E+00
    0.58530E-08         0.18626E-19         0.00000E+00
    0.58849E-08         0.21886E-19         0.00000E+00
    0.59233E-08         0.18626E-19         0.00000E+00
    0.59680E-08         0.27707E-19         0.00000E+00
    0.60192E-08         0.37020E-19         0.00000E+00
    0.60768E-08         0.15134E-19         0.00000E+00
    0.61408E-08         0.17928E-19         0.00000E+00
    0.62112E-08         0.15832E-19         0.00000E+00
    0.62881E-08         0.34925E-20         0.00000E+00
    0.63715E-08         0.16531E-19         0.00000E+00
    0.64614E-08         0.21420E-19         0.00000E+00
    0.65577E-08         0.22119E-19         0.00000E+00
    0.66605E-08         0.21188E-19         0.00000E+00
    0.67699E-08         0.19558E-19         0.00000E+00
    0.68857E-08         0.13504E-19         0.00000E+00
    0.70081E-08         0.32596E-20         0.00000E+00
    0.71371E-08         0.72177E-20         0.00000E+00
    0.72725E-08         0.20489E-19         0.00000E+00
    0.74146E-08         0.33760E-19         0.00000E+00
    0.75631E-08         0.25844E-19         0.00000E+00
    0.77183E-08         0.10012E-19         0.00000E+00
    0.78799E-08         0.13039E-19         0.00000E+00
    0.80482E-08         0.26310E-19         0.00000E+00
    0.82229E-08         0.15134E-19         0.00000E+00
    0.84042E-08         0.88476E-20         0.00000E+00
    0.85921E-08         0.22817E-19         0.00000E+00
    0.87864E-08         0.14435E-19         0.00000E+00
    0.89872E-08         0.13737E-19         0.00000E+00
    0.91944E-08         0.23749E-19         0.00000E+00
    0.94081E-08         0.14203E-19         0.00000E+00
    0.96282E-08         0.20023E-19         0.00000E+00
    0.98546E-08         0.23516E-19         0.00000E+00
    0.10087E-07         0.93132E-20         0.00000E+00
    0.10326E-07        -0.55879E-20         0.00000E+00
    0.10571E-07        -0.32596E-20         0.00000E+00
    0.10822E-07         0.83819E-20         0.00000E+00
    0.11079E-07         0.14901E-19         0.00000E+00
    0.11342E-07         0.86147E-20         0.00000E+00
    0.11611E-07         0.44238E-20         0.00000E+00
    0.11886E-07         0.58208E-20         0.00000E+00
    0.12166E-07         0.74506E-20         0.00000E+00
    0.12452E-07         0.14435E-19         0.00000E+00
    0.12742E-07         0.23283E-20         0.00000E+00
    0.13038E-07        -0.53551E-20         0.00000E+00
    0.13339E-07         0.97789E-20         0.00000E+00
    0.13645E-07         0.12107E-19         0.00000E+00
    0.13955E-07        -0.72177E-20         0.00000E+00
    0.14270E-07         0.11642E-19         0.00000E+00
    0.14589E-07         0.26776E-19         0.00000E+00
    0.14912E-07         0.13737E-19         0.00000E+00
    0.15238E-07         0.12573E-19         0.00000E+00
    0.15568E-07         0.62864E-20         0.00000E+00
    0.15901E-07        -0.69849E-21         0.00000E+00
    0.16236E-07         0.32596E-20         0.00000E+00
    0.16575E-07         0.18626E-20         0.00000E+00
    0.16915E-07         0.00000E+00         0.00000E+00
    0.17257E-07         0.12806E-19         0.00000E+00
    0.17600E-07         0.20023E-19         0.00000E+00
    0.17945E-07         0.11176E-19         0.00000E+00
    0.18290E-07        -0.25611E-20         0.00000E+00
    0.18635E-07        -0.25611E-20         0.00000E+00
    0.18980E-07         0.11176E-19         0.00000E+00
    0.19325E-07         0.24447E-19         0.00000E+00
    0.19668E-07         0.11874E-19         0.00000E+00
    0.20010E-07         0.30268E-20         0.00000E+00
    0.20349E-07         0.13271E-19         0.00000E+00
    0.20686E-07         0.20489E-19         0.00000E+00
    0.21019E-07         0.19092E-19         0.00000E+00
    0.21349E-07         0.16298E-19         0.00000E+00
    0.21674E-07         0.22352E-19         0.00000E+00
    0.21994E-07         0.20955E-19         0.00000E+00
    0.22309E-07         0.16997E-19         0.00000E+00
    0.22618E-07         0.25379E-19         0.00000E+00
    0.22920E-07         0.20023E-19         0.00000E+00
    0.23215E-07         0.37253E-20         0.00000E+00
    0.23502E-07         0.83819E-20         0.00000E+00
    0.23781E-07         0.76834E-20         0.00000E+00
    0.24050E-07         0.86147E-20         0.00000E+00
    0.24309E-07         0.14203E-19         0.00000E+00
    0.24559E-07         0.23283E-20         0.00000E+00
    0.24797E-07         0.11642E-20         0.00000E+00
    0.25024E-07         0.43074E-20         0.00000E+00
    0.25238E-07         0.10477E-20         0.00000E+00
    0.25440E-07         0.51223E-20         0.00000E+00
    0.25629E-07         0.10710E-19         0.00000E+00
    0.25804E-07         0.15134E-19         0.00000E+00
    0.25965E-07         0.21653E-19         0.00000E+00
    0.26111E-07         0.14319E-19         0.00000E+00
    0.26242E-07         0.10012E-19         0.00000E+00
    0.26358E-07         0.19092E-19         0.00000E+00
    0.26457E-07         0.20023E-19         0.00000E+00
    0.26541E-07         0.10012E-19         0.00000E+00
    0.26608E-07        -0.11642E-20         0.00000E+00
    0.26659E-07         0.37253E-20         0.00000E+00
    0.26693E-07         0.86147E-20         0.00000E+00
    0.26710E-07         0.41910E-20         0.00000E+00
    0.57891E-08        -0.30268E-20         0.00000E+00
    0.57955E-08        -0.88476E-20         0.00000E+00
    0.58083E-08        -0.46566E-20         0.00000E+00
    0.58275E-08         0.18161E-19         0.00000E+00
    0.58530E-08         0.15134E-19         0.00000E+00
    0.58849E-08         0.22119E-19         0.00000E+00
    0.59233E-08         0.31665E-19         0.00000E+00
    0.59680E-08         0.17229E-19         0.00000E+00
    0.60192E-08         0.11642E-19         0.00000E+00
    0.60768E-08         0.12806E-19         0.00000E+00
    0.61408E-08         0.25844E-19         0.00000E+00
    0.62112E-08         0.20256E-19         0.00000E+00
    0.62881E-08         0.18394E-19         0.00000E+00
    0.63715E-08         0.17928E-19         0.00000E+00
    0.64614E-08         0.86147E-20         0.00000E+00
    0.65577E-08         0.22585E-19         0.00000E+00
    0.66605E-08         0.22817E-19         0.00000E+00
    0.67699E-08         0.14435E-19         0.00000E+00
    0.68857E-08         0.33062E-19         0.00000E+00
    0.70081E-08         0.30035E-19         0.00000E+00
    0.71371E-08         0.26543E-19         0.00000E+00
    0.72725E-08         0.24214E-19         0.00000E+00
    0.74146E-08         0.20955E-19         0.00000E+00
    0.75631E-08         0.24214E-19         0.00000E+00
    0.77183E-08         0.10943E-19         0.00000E+00
    0.78799E-08         0.88476E-20         0.00000E+00
    0.80482E-08         0.23050E-19         0.00000E+00
    0.82229E-08         0.16298E-20         0.00000E+00
    0.84042E-08         0.93132E-21         0.00000E+00
    0.85921E-08         0.23516E-19         0.00000E+00
    0.87864E-08         0.51223E-20         0.00000E+00
    0.89872E-08         0.69849E-21         0.00000E+00
    0.91944E-08         0.16065E-19         0.00000E+00
    0.94081E-08         0.31665E-19         0.00000E+00
    0.96282E-08         0.33062E-19         0.00000E+00
    0.98546E-08         0.27474E-19         0.00000E+00
    0.10087E-07         0.16065E-19         0.00000E+00
    0.10326E-07         0.15367E-19         0.00000E+00
    0.10571E-07         0.23283E-20         0.00000E+00
    0.10822E-07        -0.48894E-20         0.00000E+00
    0.11079E-07         0.12107E-19         0.00000E+00
    0.11342E-07         0.14668E-19         0.00000E+00
    0.11611E-07         0.00000E+00         0.00000E+00
    0.11886E-07        -0.93132E-21         0.00000E+00
    0.12166E-07         0.18161E-19         0.00000E+00
    0.12452E-07        -0.55879E-20         0.00000E+00
    0.12742E-07        -0.72177E-20         0.00000E+00
    0.13038E-07         0.51223E-20         0.00000E+00
    0.13339E-07         0.88476E-20         0.00000E+00
    0.13645E-07         0.32596E-20         0.00000E+00
    0.13955E-07        -0.88476E-20         0.00000E+00
    0.14270E-07        -0.16298E-20         0.00000E+00
    0.14589E-07         0.10245E-19         0.00000E+00
    0.14912E-07         0.55879E-20         0.00000E+00
    0.15238E-07         0.46566E-20         0.00000E+00
    0.15568E-07         0.44238E-20         0.00000E+00
    0.15901E-07        -0.79162E-20         0.00000E+00
    0.16236E-07        -0.62864E-20         0.00000E+00
    0.16575E-07        -0.39581E-20         0.00000E+00
    0.16915E-07        -0.16298E-20         0.00000E+00
    0.17257E-07         0.44238E-20         0.00000E+00
    0.17600E-07         0.69849E-20         0.00000E+00
    0.17945E-07         0.79162E-20         0.00000E+00
    0.18290E-07         0.58208E-20         0.00000E+00
    0.18635E-07         0.39581E-20         0.00000E+00
    0.18980E-07         0.37253E-20         0.00000E+00
    0.19325E-07        -0.62864E-20         0.00000E+00
    0.19668E-07        -0.51223E-20         0.00000E+00
    0.20010E-07         0.16997E-19         0.00000E+00
    0.20349E-07         0.25611E-19         0.00000E+00
    0.20686E-07         0.97789E-20         0.00000E+00
    0.21019E-07        -0.69849E-20         0.00000E+00
    0.21349E-07        -0.11642E-20         0.00000E+00
    0.21674E-07         0.13970E-20         0.00000E+00
    0.21994E-07         0.13970E-19         0.00000E+00
    0.22309E-07         0.17928E-19         0.00000E+00
    0.22618E-07         0.25379E-19         0.00000E+00
    0.22920E-07         0.19092E-19         0.00000E+00
    0.23215E-07         0.25611E-20         0.00000E+00
    0.23502E-07         0.37253E-20         0.00000E+00
    0.23781E-07         0.97789E-20         0.00000E+00
    0.24050E-07        -0.69849E-21         0.00000E+00
    0.24309E-07        -0.20955E-19         0.00000E+00
    0.24559E-07         0.29104E-20         0.00000E+00
    0.24797E-07         0.21071E-19         0.00000E+00
    0.25024E-07         0.25495E-19         0.00000E+00
    0.25238E-07         0.20256E-19         0.00000E+00
    0.25440E-07         0.72177E-20         0.00000E+00
    0.25629E-07         0.93132E-20         0.00000E+00
    0.25804E-07         0.10012E-19         0.00000E+00
    0.25965E-07         0.11642E-19         0.00000E+00
    0.26111E-07         0.18277E-19         0.00000E+00
    0.26242E-07         0.14668E-19         0.00000E+00
    0.26358E-07         0.20023E-19         0.00000E+00
    0.26457E-07         0.15600E-19         0.00000E+00
    0.26541E-07         0.10477E-19         0.00000E+00
    0.26608E-07         0.15832E-19         0.00000E+00
    0.26659E-07         0.83819E-20         0.00000E+00
    0.26693E-07         0.14203E-19         0.00000E+00
    0.26710E-07         0.12456E-19         0.00000E+00
    0.57891E-08         0.74506E-20         0.00000E+00
    0.57955E-08         0.20489E-19         0.00000E+00
    0.58083E-08         0.15832E-19         0.00000E+00
    0.58275E-08         0.46566E-21         0.00000E+00
    0.58530E-08         0.10943E-19         0.00000E+00
    0.58849E-08         0.24680E-19         0.00000E+00
    0.59233E-08         0.17695E-19         0.00000E+00
    0.59680E-08         0.15600E-19         0.00000E+00
    0.60192E-08         0.23516E-19         0.00000E+00
    0.60768E-08         0.28638E-19         0.00000E+00
    0.61408E-08         0.26310E-19         0.00000E+00
    0.62112E-08         0.17695E-19         0.00000E+00
    0.62881E-08         0.22119E-19         0.00000E+00
    0.63715E-08         0.21653E-19         0.00000E+00
    0.64614E-08         0.18161E-19         0.00000E+00
    0.65577E-08         0.10477E-19         0.00000E+00
    0.66605E-08         0.15134E-19         0.00000E+00
    0.67699E-08         0.19092E-19         0.00000E+00
    0.68857E-08         0.23516E-19         0.00000E+00
    0.70081E-08         0.22817E-19         0.00000E+00
    0.71371E-08         0.14203E-19         0.00000E+00
    0.72725E-08         0.32363E-19         0.00000E+00
    0.74146E-08         0.27474E-19         0.00000E+00
    0.75631E-08         0.15832E-19         0.00000E+00
    0.77183E-08         0.30035E-19         0.00000E+00
    0.78799E-08         0.97789E-20         0.00000E+00
    0.80482E-08         0.21653E-19         0.00000E+00
    0.82229E-08         0.28638E-19         0.00000E+00
    0.84042E-08         0.20722E-19         0.00000E+00
    0.85921E-08         0.20955E-19         0.00000E+00
    0.87864E-08         0.11874E-19         0.00000E+00
    0.89872E-08         0.22817E-19         0.00000E+00
    0.91944E-08         0.34226E-19         0.00000E+00
    0.94081E-08         0.25844E-19         0.00000E+00
    0.96282E-08         0.18859E-19         0.00000E+00
    0.98546E-08         0.10943E-19         0.00000E+00
    0.10087E-07         0.20955E-20         0.00000E+00
    0.10326E-07         0.23283E-20         0.00000E+00
    0.10571E-07        -0.41910E-20         0.00000E+00
    0.10822E-07        -0.79162E-20         0.00000E+00
    0.11079E-07        -0.20955E-20         0.00000E+00
    0.11342E-07         0.00000E+00         0.00000E+00
    0.11611E-07         0.16298E-19         0.00000E+00
    0.11886E-07         0.13970E-20         0.00000E+00
    0.12166E-07        -0.14901E-19         0.00000E+00
    0.12452E-07        -0.14435E-19         0.00000E+00
    0.12742E-07        -0.44238E-20         0.00000E+00
    0.13038E-07         0.46566E-21         0.00000E+00
    0.13339E-07        -0.11642E-19         0.00000E+00
    0.13645E-07        -0.72177E-20         0.00000E+00
    0.13955E-07        -0.60536E-20         0.00000E+00
    0.14270E-07        -0.74506E-20         0.00000E+00
    0.14589E-07        -0.23283E-20         0.00000E+00
    0.14912E-07         0.55879E-20         0.00000E+00
    0.15238E-07         0.83819E-20         0.00000E+00
    0.15568E-07        -0.12806E-19         0.00000E+00
    0.15901E-07        -0.13737E-19         0.00000E+00
    0.16236E-07        -0.13504E-19         0.00000E+00
    0.16575E-07        -0.83819E-20         0.00000E+00
    0.16915E-07         0.41910E-20         0.00000E+00
    0.17257E-07        -0.32596E-20         0.00000E+00
    0.17600E-07        -0.23283E-20         0.00000E+00
    0.17945E-07        -0.15367E-19         0.00000E+00
    0.18290E-07        -0.10477E-19         0.00000E+00
    0.18635E-07        -0.39581E-20         0.00000E+00
    0.18980E-07        -0.17695E-19         0.00000E+00
    0.19325E-07        -0.83819E-20         0.00000E+00
    0.19668E-07        -0.37253E-20         0.00000E+00
    0.20010E-07         0.93132E-21         0.00000E+00
    0.20349E-07         0.93132E-21         0.00000E+00
    0.20686E-07         0.53551E-20         0.00000E+00
    0.21019E-07         0.14668E-19         0.00000E+00
    0.21349E-07         0.44238E-20         0.00000E+00
    0.21674E-07         0.12107E-19         0.00000E+00
    0.21994E-07         0.46566E-21         0.00000E+00
    0.22309E-07        -0.16298E-19         0.00000E+00
    0.22618E-07        -0.65193E-20         0.00000E+00
    0.22920E-07        -0.10477E-19         0.00000E+00
    0.23215E-07        -0.34925E-20         0.00000E+00
    0.23502E-07         0.13970E-19         0.00000E+00
    0.23781E-07         0.13504E-19         0.00000E+00
    0.24050E-07         0.13970E-20         0.00000E+00
    0.24309E-07         0.46566E-21         0.00000E+00
    0.24559E-07         0.13271E-19         0.00000E+00
    0.24797E-07         0.98953E-20         0.00000E+00
    0.25024E-07         0.46566E-20         0.00000E+00
    0.25238E-07         0.20838E-19         0.00000E+00
    0.25440E-07         0.25844E-19         0.00000E+00
    0.25629E-07         0.11292E-19         0.00000E+00
    0.25804E-07         0.15949E-19         0.00000E+00
    0.25965E-07         0.20722E-19         0.00000E+00
    0.26111E-07         0.21420E-19         0.00000E+00
    0.26242E-07         0.18743E-19         0.00000E+00
    0.26358E-07         0.15832E-19         0.00000E+00
    0.26457E-07         0.15018E-19         0.00000E+00
    0.26541E-07         0.22002E-19         0.00000E+00
    0.26608E-07         0.37253E-20         0.00000E+00
    0.26659E-07         0.96625E-20         0.00000E+00
    0.26693E-07         0.21420E-19         0.00000E+00
    0.26710E-07         0.71013E-20         0.00000E+00
    0.57891E-08         0.14435E-19         0.00000E+00
    0.57955E-08         0.21420E-19         0.00000E+00
    0.58083E-08         0.11409E-19         0.00000E+00
    0.58275E-08         0.17229E-19         0.00000E+00
    0.58530E-08         0.27241E-19         0.00000E+00
    0.58849E-08         0.33062E-19         0.00000E+00
    0.59233E-08         0.37020E-19         0.00000E+00
    0.59680E-08         0.17462E-19         0.00000E+00
    0.60192E-08         0.86147E-20         0.00000E+00
    0.60768E-08         0.38417E-19         0.00000E+00
    0.61408E-08         0.34692E-19         0.00000E+00
    0.62112E-08         0.31898E-19         0.00000E+00
    0.62881E-08         0.24913E-19         0.00000E+00
    0.63715E-08         0.17462E-19         0.00000E+00
    0.64614E-08         0.16298E-19         0.00000E+00
    0.65577E-08         0.18859E-19         0.00000E+00
    0.66605E-08         0.22585E-19         0.00000E+00
    0.67699E-08         0.76834E-20         0.00000E+00
    0.68857E-08         0.11176E-19         0.00000E+00
    0.70081E-08         0.17928E-19         0.00000E+00
    0.71371E-08         0.11874E-19         0.00000E+00
    0.72725E-08         0.24447E-19         0.00000E+00
    0.74146E-08         0.27940E-19         0.00000E+00
    0.75631E-08         0.25146E-19         0.00000E+00
    0.77183E-08         0.25844E-19         0.00000E+00
    0.78799E-08         0.10477E-19         0.00000E+00
    0.80482E-08         0.23283E-21         0.00000E+00
    0.82229E-08         0.90804E-20         0.00000E+00
    0.84042E-08         0.27241E-19         0.00000E+00
    0.85921E-08         0.51223E-20         0.00000E+00
    0.87864E-08         0.51223E-20         0.00000E+00
    0.89872E-08         0.13039E-19         0.00000E+00
    0.91944E-08         0.72177E-20         0.00000E+00
    0.94081E-08         0.88476E-20         0.00000E+00
    0.96282E-08         0.14901E-19         0.00000E+00
    0.98546E-08         0.93132E-20         0.00000E+00
    0.10087E-07         0.10012E-19         0.00000E+00
    0.10326E-07         0.34925E-20         0.00000E+00
    0.10571E-07        -0.74506E-20         0.00000E+00
    0.10822E-07        -0.60536E-20         0.00000E+00
    0.11079E-07        -0.79162E-20         0.00000E+00
    0.11342E-07        -0.23283E-20         0.00000E+00
    0.11611E-07        -0.79162E-20         0.00000E+00
    0.11886E-07        -0.10245E-19         0.00000E+00
    0.12166E-07        -0.14668E-19         0.00000E+00
    0.12452E-07        -0.95461E-20         0.00000E+00
    0.12742E-07        -0.88476E-20         0.00000E+00
    0.13038E-07        -0.13970E-19         0.00000E+00
    0.13339E-07        -0.67521E-20         0.00000E+00
    0.13645E-07        -0.95461E-20         0.00000E+00
    0.13955E-07        -0.13039E-19         0.00000E+00
    0.14270E-07        -0.19092E-19         0.00000E+00
    0.14589E-07        -0.16764E-19         0.00000E+00
    0.14912E-07        -0.17462E-19         0.00000E+00
    0.15238E-07        -0.79162E-20         0.00000E+00
    0.15568E-07        -0.69849E-21         0.00000E+00
    0.15901E-07        -0.29569E-19         0.00000E+00
    0.16236E-07        -0.32363E-19         0.00000E+00
    0.16575E-07        -0.16298E-20         0.00000E+00
    0.16915E-07         0.53551E-20         0.00000E+00
    0.17257E-07        -0.76834E-20         0.00000E+00
    0.17600E-07        -0.16298E-19         0.00000E+00
    0.17945E-07        -0.53551E-20         0.00000E+00
    0.18290E-07         0.27940E-20         0.00000E+00
    0.18635E-07        -0.13737E-19         0.00000E+00
    0.18980E-07        -0.13504E-19         0.00000E+00
    0.19325E-07         0.27940E-20         0.00000E+00
    0.19668E-07         0.37253E-20         0.00000E+00
    0.20010E-07        -0.37253E-20         0.00000E+00
    0.20349E-07         0.74506E-20         0.00000E+00
    0.20686E-07         0.10710E-19         0.00000E+00
    0.21019E-07        -0.76834E-20         0.00000E+00
    0.21349E-07        -0.27940E-20         0.00000E+00
    0.21674E-07         0.10710E-19         0.00000E+00
    0.21994E-07         0.12573E-19         0.00000E+00
    0.22309E-07         0.79162E-20         0.00000E+00
    0.22618E-07         0.15367E-19         0.00000E+00
    0.22920E-07         0.11176E-19         0.00000E+00
    0.23215E-07         0.23283E-20         0.00000E+00
    0.23502E-07        -0.69849E-21         0.00000E+00
    0.23781E-07         0.11409E-19         0.00000E+00
    0.24050E-07         0.72177E-20         0.00000E+00
    0.24309E-07         0.71013E-20         0.00000E+00
    0.24559E-07         0.11991E-19         0.00000E+00
    0.24797E-07         0.14552E-19         0.00000E+00
    0.25024E-07         0.19209E-19         0.00000E+00
    0.25238E-07         0.21071E-19         0.00000E+00
    0.25440E-07         0.14203E-19         0.00000E+00
    0.25629E-07         0.11409E-19         0.00000E+00
    0.25804E-07         0.22119E-19         0.00000E+00
    0.25965E-07         0.20023E-19         0.00000E+00
    0.26111E-07         0.82655E-20         0.00000E+00
    0.26242E-07         0.22119E-20         0.00000E+00
    0.26358E-07         0.11758E-19         0.00000E+00
    0.26457E-07         0.51223E-20         0.00000E+00
    0.26541E-07         0.51223E-20         0.00000E+00
    0.26608E-07         0.14203E-19         0.00000E+00
    0.26659E-07        -0.32596E-20         0.00000E+00
    0.26693E-07         0.90804E-20         0.00000E+00
    0.26710E-07         0.16647E-19         0.00000E+00
    0.57891E-08         0.55879E-20         0.00000E+00
    0.57955E-08        -0.60536E-20         0.00000E+00
    0.58083E-08        -0.37253E-20         0.00000E+00
    0.58275E-08         0.17229E-19         0.00000E+00
    0.58530E-08         0.23050E-19         0.00000E+00
    0.58849E-08         0.28173E-19         0.00000E+00
    0.59233E-08         0.21886E-19         0.00000E+00
    0.59680E-08         0.23516E-19         0.00000E+00
    0.60192E-08         0.28638E-19         0.00000E+00
    0.60768E-08         0.25611E-19         0.00000E+00
    0.61408E-08         0.30501E-19         0.00000E+00
    0.62112E-08         0.31432E-19         0.00000E+00
    0.62881E-08         0.31665E-19         0.00000E+00
    0.63715E-08         0.28173E-19         0.00000E+00
    0.64614E-08         0.22585E-19         0.00000E+00
    0.65577E-08         0.33760E-19         0.00000E+00
    0.66605E-08         0.20256E-19         0.00000E+00
    0.67699E-08         0.10477E-19         0.00000E+00
    0.68857E-08         0.37951E-19         0.00000E+00
    0.70081E-08         0.50524E-19         0.00000E+00
    0.71371E-08         0.31898E-19         0.00000E+00
    0.72725E-08         0.35856E-19         0.00000E+00
    0.74146E-08         0.22119E-19         0.00000E+00
    0.75631E-08         0.81491E-20         0.00000E+00
    0.77183E-08         0.12806E-19         0.00000E+00
    0.78799E-08         0.15367E-19         0.00000E+00
    0.80482E-08         0.22119E-19         0.00000E+00
    0.82229E-08         0.16531E-19         0.00000E+00
    0.84042E-08         0.19092E-19         0.00000E+00
    0.85921E-08         0.24214E-19         0.00000E+00
    0.87864E-08         0.13737E-19         0.00000E+00
    0.89872E-08         0.46566E-21         0.00000E+00
    0.91944E-08         0.13737E-19         0.00000E+00
    0.94081E-08         0.27707E-19         0.00000E+00
    0.96282E-08         0.13970E-20         0.00000E+00
    0.98546E-08        -0.60536E-20         0.00000E+00
    0.10087E-07         0.37253E-20         0.00000E+00
    0.10326E-07        -0.65193E-20         0.00000E+00
    0.10571E-07         0.10012E-19         0.00000E+00
    0.10822E-07         0.58208E-20         0.00000E+00
    0.11079E-07        -0.32596E-20         0.00000E+00
    0.11342E-07        -0.53551E-20         0.00000E+00
    0.11611E-07        -0.15600E-19         0.00000E+00
    0.11886E-07        -0.93132E-20         0.00000E+00
    0.12166E-07        -0.95461E-20         0.00000E+00
    0.12452E-07        -0.30035E-19         0.00000E+00
    0.12742E-07        -0.23982E-19         0.00000E+00
    0.13038E-07        -0.10710E-19         0.00000E+00
    0.13339E-07        -0.37253E-20         0.00000E+00
    0.13645E-07        -0.34925E-20         0.00000E+00
    0.13955E-07        -0.10710E-19         0.00000E+00
    0.14270E-07        -0.19558E-19         0.00000E+00
    0.14589E-07        -0.32131E-19         0.00000E+00
    0.14912E-07        -0.76834E-20         0.00000E+00
    0.15238E-07        -0.17229E-19         0.00000E+00
    0.15568E-07        -0.25146E-19         0.00000E+00
    0.15901E-07        -0.97789E-20         0.00000E+00
    0.16236E-07        -0.18859E-19         0.00000E+00
    0.16575E-07        -0.11409E-19         0.00000E+00
    0.16915E-07        -0.67521E-20         0.00000E+00
    0.17257E-07        -0.81491E-20         0.00000E+00
    0.17600E-07        -0.46566E-21         0.00000E+00
    0.17945E-07        -0.79162E-20         0.00000E+00
    0.18290E-07        -0.10012E-19         0.00000E+00
    0.18635E-07        -0.26776E-19         0.00000E+00
    0.18980E-07        -0.22817E-19         0.00000E+00
    0.19325E-07        -0.83819E-20         0.00000E+00
    0.19668E-07         0.23283E-20         0.00000E+00
    0.20010E-07         0.65193E-20         0.00000E+00
    0.20349E-07         0.93132E-21         0.00000E+00
    0.20686E-07         0.13970E-20         0.00000E+00
    0.21019E-07         0.13970E-20         0.00000E+00
    0.21349E-07         0.18626E-20         0.00000E+00
    0.21674E-07         0.97789E-20         0.00000E+00
    0.21994E-07         0.22817E-19         0.00000E+00
    0.22309E-07         0.11642E-19         0.00000E+00
    0.22618E-07         0.15832E-19         0.00000E+00
    0.22920E-07         0.10710E-19         0.00000E+00
    0.23215E-07        -0.10245E-19         0.00000E+00
    0.23502E-07        -0.72177E-20         0.00000E+00
    0.23781E-07        -0.16298E-20         0.00000E+00
    0.24050E-07         0.81491E-20         0.00000E+00
    0.24309E-07         0.34925E-20         0.00000E+00
    0.24559E-07        -0.53551E-20         0.00000E+00
    0.24797E-07         0.75670E-20         0.00000E+00
    0.25024E-07         0.12689E-19         0.00000E+00
    0.25238E-07         0.40745E-20         0.00000E+00
    0.25440E-07         0.50059E-20         0.00000E+00
    0.25629E-07         0.10943E-19         0.00000E+00
    0.25804E-07         0.23632E-19         0.00000E+00
    0.25965E-07         0.23167E-19         0.00000E+00
    0.26111E-07         0.11176E-19         0.00000E+00
    0.26242E-07         0.13039E-19         0.00000E+00
    0.26358E-07         0.16182E-19         0.00000E+00
    0.26457E-07         0.11874E-19         0.00000E+00
    0.26541E-07         0.97789E-20         0.00000E+00
    0.26608E-07         0.88476E-20         0.00000E+00
    0.26659E-07        -0.58208E-21         0.00000E+00
    0.26693E-07        -0.95461E-20         0.00000E+00
    0.26710E-07        -0.66357E-20         0.00000E+00
    0.57891E-08         0.11176E-19         0.00000E+00
    0.57955E-08         0.10245E-19         0.00000E+00
    0.58083E-08        -0.13970E-20         0.00000E+00
    0.58275E-08         0.58208E-20         0.00000E+00
    0.58530E-08         0.10943E-19         0.00000E+00
    0.58849E-08         0.34925E-20         0.00000E+00
    0.59233E-08         0.88476E-20         0.00000E+00
    0.59680E-08         0.18859E-19         0.00000E+00
    0.60192E-08         0.23050E-19         0.00000E+00
    0.60768E-08         0.24680E-19         0.00000E+00
    0.61408E-08         0.23050E-19         0.00000E+00
    0.62112E-08         0.31665E-19         0.00000E+00
    0.62881E-08         0.33993E-19         0.00000E+00
    0.63715E-08         0.14901E-19         0.00000E+00
    0.64614E-08         0.30268E-20         0.00000E+00
    0.65577E-08         0.11642E-20         0.00000E+00
    0.66605E-08         0.13271E-19         0.00000E+00
    0.67699E-08         0.23516E-19         0.00000E+00
    0.68857E-08         0.28638E-19         0.00000E+00
    0.70081E-08         0.32363E-19         0.00000E+00
    0.71371E-08         0.36554E-19         0.00000E+00
    0.72725E-08         0.11409E-19         0.00000E+00
    0.74146E-08         0.97789E-20         0.00000E+00
    0.75631E-08         0.23050E-19         0.00000E+00
    0.77183E-08         0.76834E-20         0.00000E+00
    0.78799E-08        -0.62864E-20         0.00000E+00
    0.80482E-08         0.20023E-19         0.00000E+00
    0.82229E-08         0.33295E-19         0.00000E+00
    0.84042E-08         0.10012E-19         0.00000E+00
    0.85921E-08         0.11409E-19         0.00000E+00
    0.87864E-08         0.30268E-19         0.00000E+00
    0.89872E-08         0.27241E-19         0.00000E+00
    0.91944E-08         0.14901E-19         0.00000E+00
    0.94081E-08         0.10710E-19         0.00000E+00
    0.96282E-08         0.55879E-20         0.00000E+00
    0.98546E-08        -0.13970E-20         0.00000E+00
    0.10087E-07         0.55879E-20         0.00000E+00
    0.10326E-07         0.10710E-19         0.00000E+00
    0.10571E-07         0.88476E-20         0.00000E+00
    0.10822E-07        -0.39581E-20         0.00000E+00
    0.11079E-07         0.34925E-20         0.00000E+00
    0.11342E-07         0.37253E-20         0.00000E+00
    0.11611E-07        -0.62864E-20         0.00000E+00
    0.11886E-07         0.13970E-20         0.00000E+00
    0.12166E-07        -0.72177E-20         0.00000E+00
    0.12452E-07        -0.41910E-20         0.00000E+00
    0.12742E-07         0.27940E-20         0.00000E+00
    0.13038E-07        -0.51223E-20         0.00000E+00
    0.13339E-07        -0.16298E-19         0.00000E+00
    0.13645E-07        -0.23982E-19         0.00000E+00
    0.13955E-07        -0.23283E-19         0.00000E+00
    0.14270E-07        -0.12573E-19         0.00000E+00
    0.14589E-07        -0.72177E-20         0.00000E+00
    0.14912E-07        -0.21886E-19         0.00000E+00
    0.15238E-07        -0.29104E-19         0.00000E+00
    0.15568E-07        -0.25611E-19         0.00000E+00
    0.15901E-07        -0.21886E-19         0.00000E+00
    0.16236E-07        -0.55879E-20         0.00000E+00
    0.16575E-07        -0.74506E-20         0.00000E+00
    0.16915E-07        -0.23283E-21         0.00000E+00
    0.17257E-07         0.46566E-21         0.00000E+00
    0.17600E-07        -0.90804E-20         0.00000E+00
    0.17945E-07        -0.41910E-20         0.00000E+00
    0.18290E-07        -0.46566E-21         0.00000E+00
    0.18635E-07         0.67521E-20         0.00000E+00
    0.18980E-07         0.55879E-20         0.00000E+00
    0.19325E-07        -0.13970E-19         0.00000E+00
    0.19668E-07        -0.23283E-20         0.00000E+00
    0.20010E-07         0.23283E-20         0.00000E+00
    0.20349E-07        -0.20489E-19         0.00000E+00
    0.20686E-07        -0.18626E-19         0.00000E+00
    0.21019E-07        -0.90804E-20         0.00000E+00
    0.21349E-07        -0.86147E-20         0.00000E+00
    0.21674E-07        -0.16764E-19         0.00000E+00
    0.21994E-07        -0.15134E-19         0.00000E+00
    0.22309E-07         0.81491E-20         0.00000E+00
    0.22618E-07         0.13039E-19         0.00000E+00
    0.22920E-07         0.69849E-20         0.00000E+00
    0.23215E-07         0.93132E-20         0.00000E+00
    0.23502E-07         0.27940E-20         0.00000E+00
    0.23781E-07        -0.67521E-20         0.00000E+00
    0.24050E-07        -0.95461E-20         0.00000E+00
    0.24309E-07        -0.46566E-20         0.00000E+00
    0.24559E-07        -0.13970E-19         0.00000E+00
    0.24797E-07        -0.46566E-21         0.00000E+00
    0.25024E-07         0.90804E-20         0.00000E+00
    0.25238E-07         0.32596E-20         0.00000E+00
    0.25440E-07         0.13271E-19         0.00000E+00
    0.25629E-07         0.79162E-20         0.00000E+00
    0.25804E-07         0.14435E-19         0.00000E+00
    0.25965E-07         0.29569E-19         0.00000E+00
    0.26111E-07         0.24796E-19         0.00000E+00
    0.26242E-07         0.64028E-20         0.00000E+00
    0.26358E-07         0.60536E-20         0.00000E+00
    0.26457E-07         0.22119E-19         0.00000E+00
    0.26541E-07         0.19325E-19         0.00000E+00
    0.26608E-07         0.29104E-20         0.00000E+00
    0.26659E-07        -0.81491E-21         0.00000E+00
    0.26693E-07        -0.58208E-21         0.00000E+00
    0.26710E-07         0.19791E-20         0.00000E+00
    0.57891E-08         0.18626E-20         0.00000E+00
    0.57955E-08         0.17229E-19         0.00000E+00
    0.58083E-08         0.17229E-19         0.00000E+00
    0.58275E-08         0.51223E-20         0.00000E+00
    0.58530E-08         0.22585E-19         0.00000E+00
    0.58849E-08         0.10012E-19         0.00000E+00
    0.59233E-08         0.12340E-19         0.00000E+00
    0.59680E-08         0.26776E-19         0.00000E+00
    0.60192E-08         0.13737E-19         0.00000E+00
    0.60768E-08         0.29104E-19         0.00000E+00
    0.61408E-08         0.37486E-19         0.00000E+00
    0.62112E-08         0.28638E-19         0.00000E+00
    0.62881E-08         0.23982E-19         0.00000E+00
    0.63715E-08         0.29569E-19         0.00000E+00
    0.64614E-08         0.33295E-19         0.00000E+00
    0.65577E-08         0.17928E-19         0.00000E+00
    0.66605E-08         0.22352E-19         0.00000E+00
    0.67699E-08         0.34925E-19         0.00000E+00
    0.68857E-08         0.31898E-19         0.00000E+00
    0.70081E-08         0.42608E-19         0.00000E+00
    0.71371E-08         0.38650E-19         0.00000E+00
    0.72725E-08         0.32131E-19         0.00000E+00
    0.74146E-08         0.30966E-19         0.00000E+00
    0.75631E-08         0.17695E-19         0.00000E+00
    0.77183E-08         0.10012E-19         0.00000E+00
    0.78799E-08        -0.32596E-20         0.00000E+00
    0.80482E-08        -0.39581E-20         0.00000E+00
    0.82229E-08         0.83819E-20         0.00000E+00
    0.84042E-08         0.16298E-19         0.00000E+00
    0.85921E-08         0.16764E-19         0.00000E+00
    0.87864E-08         0.37253E-20         0.00000E+00
    0.89872E-08         0.19092E-19         0.00000E+00
    0.91944E-08         0.14203E-19         0.00000E+00
    0.94081E-08         0.18626E-20         0.00000E+00
    0.96282E-08         0.46566E-20         0.00000E+00
    0.98546E-08         0.46566E-20         0.00000E+00
    0.10087E-07         0.11642E-20         0.00000E+00
    0.10326E-07         0.11642E-19         0.00000E+00
    0.10571E-07         0.13970E-19         0.00000E+00
    0.10822E-07        -0.27940E-20         0.00000E+00
    0.11079E-07         0.69849E-21         0.00000E+00
    0.11342E-07        -0.62864E-20         0.00000E+00
    0.11611E-07        -0.60536E-20         0.00000E+00
    0.11886E-07        -0.81491E-20         0.00000E+00
    0.12166E-07        -0.93132E-21         0.00000E+00
    0.12452E-07         0.48894E-20         0.00000E+00
    0.12742E-07        -0.93132E-21         0.00000E+00
    0.13038E-07         0.93132E-21         0.00000E+00
    0.13339E-07        -0.15367E-19         0.00000E+00
    0.13645E-07        -0.21420E-19         0.00000E+00
    0.13955E-07        -0.22585E-19         0.00000E+00
    0.14270E-07        -0.18626E-19         0.00000E+00
    0.14589E-07        -0.79162E-20         0.00000E+00
    0.14912E-07        -0.88476E-20         0.00000E+00
    0.15238E-07        -0.93132E-20         0.00000E+00
    0.15568E-07        -0.12806E-19         0.00000E+00
    0.15901E-07        -0.11642E-19         0.00000E+00
    0.16236E-07        -0.15367E-19         0.00000E+00
    0.16575E-07        -0.19092E-19         0.00000E+00
    0.16915E-07        -0.10012E-19         0.00000E+00
    0.17257E-07        -0.30268E-20         0.00000E+00
    0.17600E-07        -0.46566E-20         0.00000E+00
    0.17945E-07        -0.16764E-19         0.00000E+00
    0.18290E-07        -0.12340E-19         0.00000E+00
    0.18635E-07        -0.10710E-19         0.00000E+00
    0.18980E-07         0.30268E-20         0.00000E+00
    0.19325E-07         0.88476E-20         0.00000E+00
    0.19668E-07        -0.11642E-20         0.00000E+00
    0.20010E-07        -0.74506E-20         0.00000E+00
    0.20349E-07        -0.41910E-20         0.00000E+00
    0.20686E-07         0.51223E-20         0.00000E+00
    0.21019E-07         0.72177E-20         0.00000E+00
    0.21349E-07         0.34925E-20         0.00000E+00
    0.21674E-07         0.18626E-20         0.00000E+00
    0.21994E-07         0.12573E-19         0.00000E+00
    0.22309E-07         0.13737E-19         0.00000E+00
    0.22618E-07        -0.65193E-20         0.00000E+00
    0.22920E-07        -0.41910E-20         0.00000E+00
    0.23215E-07         0.13970E-20         0.00000E+00
    0.23502E-07        -0.16764E-19         0.00000E+00
    0.23781E-07        -0.13039E-19         0.00000E+00
    0.24050E-07        -0.44238E-20         0.00000E+00
    0.24309E-07        -0.13039E-19         0.00000E+00
    0.24559E-07         0.33760E-20         0.00000E+00
    0.24797E-07         0.20256E-19         0.00000E+00
    0.25024E-07         0.23399E-19         0.00000E+00
    0.25238E-07         0.17812E-19         0.00000E+00
    0.25440E-07         0.66357E-20         0.00000E+00
    0.25629E-07         0.19907E-19         0.00000E+00
    0.25804E-07         0.25029E-19         0.00000E+00
    0.25965E-07         0.77998E-20         0.00000E+00
    0.26111E-07         0.51223E-20         0.00000E+00
    0.26242E-07         0.51223E-20         0.00000E+00
    0.26358E-07         0.20722E-19         0.00000E+00
    0.26457E-07         0.25379E-19         0.00000E+00
    0.26541E-07         0.10477E-19         0.00000E+00
    0.26608E-07         0.79162E-20         0.00000E+00
    0.26659E-07         0.12689E-19         0.00000E+00
    0.26693E-07         0.13970E-19         0.00000E+00
    0.26710E-07         0.45402E-20         0.00000E+00
    0.57891E-08         0.27940E-20         0.00000E+00
    0.57955E-08         0.18161E-19         0.00000E+00
    0.58083E-08         0.16997E-19         0.00000E+00
    0.58275E-08         0.16531E-19         0.00000E+00
    0.58530E-08         0.38417E-19         0.00000E+00
    0.58849E-08         0.22585E-19         0.00000E+00
    0.59233E-08         0.22352E-19         0.00000E+00
    0.59680E-08         0.26776E-19         0.00000E+00
    0.60192E-08         0.16997E-19         0.00000E+00
    0.60768E-08         0.26776E-19         0.00000E+00
    0.61408E-08         0.26310E-19         0.00000E+00
    0.62112E-08         0.24447E-19         0.00000E+00
    0.62881E-08         0.24447E-19         0.00000E+00
    0.63715E-08         0.76834E-20         0.00000E+00
    0.64614E-08         0.22817E-19         0.00000E+00
    0.65577E-08         0.36554E-19         0.00000E+00
    0.66605E-08         0.26310E-19         0.00000E+00
    0.67699E-08         0.30501E-19         0.00000E+00
    0.68857E-08         0.34226E-19         0.00000E+00
    0.70081E-08         0.24447E-19         0.00000E+00
    0.71371E-08         0.31898E-19         0.00000E+00
    0.72725E-08         0.26077E-19         0.00000E+00
    0.74146E-08         0.25379E-19         0.00000E+00
    0.75631E-08         0.41211E-19         0.00000E+00
    0.77183E-08         0.30966E-19         0.00000E+00
    0.78799E-08         0.93132E-20         0.00000E+00
    0.80482E-08        -0.11642E-20         0.00000E+00
    0.82229E-08         0.60536E-20         0.00000E+00
    0.84042E-08         0.10477E-19         0.00000E+00
    0.85921E-08         0.81491E-20         0.00000E+00
    0.87864E-08         0.10245E-19         0.00000E+00
    0.89872E-08         0.16764E-19         0.00000E+00
    0.91944E-08         0.20722E-19         0.00000E+00
    0.94081E-08         0.67521E-20         0.00000E+00
    0.96282E-08        -0.74506E-20         0.00000E+00
    0.98546E-08        -0.79162E-20         0.00000E+00
    0.10087E-07        -0.13970E-19         0.00000E+00
    0.10326E-07        -0.13039E-19         0.00000E+00
    0.10571E-07        -0.27940E-20         0.00000E+00
    0.10822E-07         0.16298E-20         0.00000E+00
    0.11079E-07        -0.44238E-20         0.00000E+00
    0.11342E-07        -0.12107E-19         0.00000E+00
    0.11611E-07        -0.46566E-21         0.00000E+00
    0.11886E-07        -0.37253E-20         0.00000E+00
    0.12166E-07         0.27940E-20         0.00000E+00
    0.12452E-07         0.12573E-19         0.00000E+00
    0.12742E-07        -0.16065E-19         0.00000E+00
    0.13038E-07        -0.22119E-19         0.00000E+00
    0.13339E-07        -0.23283E-19         0.00000E+00
    0.13645E-07        -0.28405E-19         0.00000E+00
    0.13955E-07        -0.10710E-19         0.00000E+00
    0.14270E-07        -0.14203E-19         0.00000E+00
    0.14589E-07        -0.27008E-19         0.00000E+00
    0.14912E-07        -0.23283E-19         0.00000E+00
    0.15238E-07        -0.30268E-19         0.00000E+00
    0.15568E-07        -0.40513E-19         0.00000E+00
    0.15901E-07        -0.32596E-19         0.00000E+00
    0.16236E-07        -0.28638E-19         0.00000E+00
    0.16575E-07        -0.17462E-19         0.00000E+00
    0.16915E-07        -0.97789E-20         0.00000E+00
    0.17257E-07        -0.11409E-19         0.00000E+00
    0.17600E-07        -0.12107E-19         0.00000E+00
    0.17945E-07        -0.13504E-19         0.00000E+00
    0.18290E-07        -0.13737E-19         0.00000E+00
    0.18635E-07        -0.46566E-21         0.00000E+00
    0.18980E-07        -0.17695E-19         0.00000E+00
    0.19325E-07        -0.20489E-19         0.00000E+00
    0.19668E-07         0.72177E-20         0.00000E+00
    0.20010E-07         0.93132E-21         0.00000E+00
    0.20349E-07        -0.51223E-20         0.00000E+00
    0.20686E-07        -0.93132E-20         0.00000E+00
    0.21019E-07        -0.39581E-20         0.00000E+00
    0.21349E-07         0.25611E-20         0.00000E+00
    0.21674E-07         0.55879E-20         0.00000E+00
    0.21994E-07        -0.34925E-20         0.00000E+00
    0.22309E-07        -0.13737E-19         0.00000E+00
    0.22618E-07         0.93132E-21         0.00000E+00
    0.22920E-07        -0.46566E-21         0.00000E+00
    0.23215E-07        -0.46566E-20         0.00000E+00
    0.23502E-07        -0.65193E-20         0.00000E+00
    0.23781E-07         0.20955E-20         0.00000E+00
    0.24050E-07         0.10477E-19         0.00000E+00
    0.24309E-07        -0.34925E-20         0.00000E+00
    0.24559E-07         0.46566E-21         0.00000E+00
    0.24797E-07         0.13155E-19         0.00000E+00
    0.25024E-07         0.27590E-19         0.00000E+00
    0.25238E-07         0.39581E-20         0.00000E+00
    0.25440E-07         0.79162E-20         0.00000E+00
    0.25629E-07         0.24796E-19         0.00000E+00
    0.25804E-07         0.77998E-20         0.00000E+00
    0.25965E-07        -0.23283E-21         0.00000E+00
    0.26111E-07         0.36089E-20         0.00000E+00
    0.26242E-07         0.73342E-20         0.00000E+00
    0.26358E-07         0.11409E-19         0.00000E+00
    0.26457E-07         0.22119E-19         0.00000E+00
    0.26541E-07         0.29919E-19         0.00000E+00
    0.26608E-07         0.21420E-19         0.00000E+00
    0.26659E-07         0.12689E-19         0.00000E+00
    0.26693E-07         0.14203E-19         0.00000E+00
    0.26710E-07         0.24447E-20         0.00000E+00
    0.57891E-08        -0.55879E-20         0.00000E+00
    0.57955E-08         0.10245E-19         0.00000E+00
    0.58083E-08         0.17462E-19         0.00000E+00
    0.58275E-08         0.26776E-19         0.00000E+00
    0.58530E-08         0.39814E-19         0.00000E+00
    0.58849E-08         0.28871E-19         0.00000E+00
    0.59233E-08         0.26310E-19         0.00000E+00
    0.59680E-08         0.28173E-19         0.00000E+00
    0.60192E-08         0.37020E-19         0.00000E+00
    0.60768E-08         0.38184E-19         0.00000E+00
    0.61408E-08         0.35157E-19         0.00000E+00
    0.62112E-08         0.23050E-19         0.00000E+00
    0.62881E-08         0.42142E-19         0.00000E+00
    0.63715E-08         0.49593E-19         0.00000E+00
    0.64614E-08         0.32131E-19         0.00000E+00
    0.65577E-08         0.25844E-19         0.00000E+00
    0.66605E-08         0.29802E-19         0.00000E+00
    0.67699E-08         0.25146E-19         0.00000E+00
    0.68857E-08         0.23050E-19         0.00000E+00
    0.70081E-08         0.24913E-19         0.00000E+00
    0.71371E-08         0.30734E-19         0.00000E+00
    0.72725E-08         0.37719E-19         0.00000E+00
    0.74146E-08         0.33295E-19         0.00000E+00
    0.75631E-08         0.25611E-19         0.00000E+00
    0.77183E-08         0.26776E-19         0.00000E+00
    0.78799E-08         0.36089E-19         0.00000E+00
    0.80482E-08         0.38883E-19         0.00000E+00
    0.82229E-08         0.30966E-19         0.00000E+00
    0.84042E-08         0.21420E-19         0.00000E+00
    0.85921E-08         0.22119E-19         0.00000E+00
    0.87864E-08         0.30734E-19         0.00000E+00
    0.89872E-08         0.79162E-20         0.00000E+00
    0.91944E-08         0.81491E-20         0.00000E+00
    0.94081E-08         0.21420E-19         0.00000E+00
    0.96282E-08         0.37253E-20         0.00000E+00
    0.98546E-08        -0.97789E-20         0.00000E+00
    0.10087E-07         0.39581E-20         0.00000E+00
    0.10326E-07         0.69849E-20         0.00000E+00
    0.10571E-07        -0.13737E-19         0.00000E+00
    0.10822E-07        -0.32596E-20         0.00000E+00
    0.11079E-07         0.32596E-20         0.00000E+00
    0.11342E-07        -0.46566E-20         0.00000E+00
    0.11611E-07        -0.11642E-19         0.00000E+00
    0.11886E-07        -0.18626E-19         0.00000E+00
    0.12166E-07        -0.51223E-20         0.00000E+00
    0.12452E-07        -0.16298E-20         0.00000E+00
    0.12742E-07         0.13271E-19         0.00000E+00
    0.13038E-07         0.32596E-20         0.00000E+00
    0.13339E-07        -0.16764E-19         0.00000E+00
    0.13645E-07        -0.27707E-19         0.00000E+00
    0.13955E-07        -0.23283E-19         0.00000E+00
    0.14270E-07        -0.10477E-19         0.00000E+00
    0.14589E-07        -0.10245E-19         0.00000E+00
    0.14912E-07        -0.22817E-19         0.00000E+00
    0.15238E-07        -0.27474E-19         0.00000E+00
    0.15568E-07        -0.12573E-19         0.00000E+00
    0.15901E-07        -0.13737E-19         0.00000E+00
    0.16236E-07        -0.90804E-20         0.00000E+00
    0.16575E-07         0.30268E-20         0.00000E+00
    0.16915E-07        -0.13970E-20         0.00000E+00
    0.17257E-07        -0.23283E-20         0.00000E+00
    0.17600E-07        -0.86147E-20         0.00000E+00
    0.17945E-07        -0.13970E-19         0.00000E+00
    0.18290E-07        -0.17229E-19         0.00000E+00
    0.18635E-07        -0.16298E-19         0.00000E+00
    0.18980E-07        -0.23283E-20         0.00000E+00
    0.19325E-07         0.86147E-20         0.00000E+00
    0.19668E-07         0.44238E-20         0.00000E+00
    0.20010E-07        -0.18626E-20         0.00000E+00
    0.20349E-07        -0.14901E-19         0.00000E+00
    0.20686E-07        -0.65193E-20         0.00000E+00
    0.21019E-07        -0.81491E-20         0.00000E+00
    0.21349E-07        -0.12806E-19         0.00000E+00
    0.21674E-07        -0.55879E-20         0.00000E+00
    0.21994E-07         0.74506E-20         0.00000E+00
    0.22309E-07        -0.20955E-20         0.00000E+00
    0.22618E-07        -0.23283E-20         0.00000E+00
    0.22920E-07        -0.13970E-20         0.00000E+00
    0.23215E-07        -0.65193E-20         0.00000E+00
    0.23502E-07         0.18626E-20         0.00000E+00
    0.23781E-07        -0.58208E-20         0.00000E+00
    0.24050E-07        -0.16997E-19         0.00000E+00
    0.24309E-07        -0.94296E-20         0.00000E+00
    0.24559E-07        -0.58208E-20         0.00000E+00
    0.24797E-07         0.17462E-20         0.00000E+00
    0.25024E-07         0.61700E-20         0.00000E+00
    0.25238E-07         0.34925E-20         0.00000E+00
    0.25440E-07         0.10245E-19         0.00000E+00
    0.25629E-07         0.24796E-19         0.00000E+00
    0.25804E-07         0.27241E-19         0.00000E+00
    0.25965E-07         0.14901E-19         0.00000E+00
    0.26111E-07         0.17579E-19         0.00000E+00
    0.26242E-07         0.26310E-19         0.00000E+00
    0.26358E-07         0.26892E-19         0.00000E+00
    0.26457E-07         0.16764E-19         0.00000E+00
    0.26541E-07         0.19092E-19         0.00000E+00
    0.26608E-07         0.12107E-19         0.00000E+00
    0.26659E-07         0.24447E-20         0.00000E+00
    0.26693E-07         0.69849E-21         0.00000E+00
    0.26710E-07        -0.19791E-20         0.00000E+00
    0.57891E-08         0.13970E-20         0.00000E+00
    0.57955E-08         0.15832E-19         0.00000E+00
    0.58083E-08         0.32131E-19         0.00000E+00
    0.58275E-08         0.14668E-19         0.00000E+00
    0.58530E-08         0.15134E-19         0.00000E+00
    0.58849E-08         0.15134E-19         0.00000E+00
    0.59233E-08         0.16531E-19         0.00000E+00
    0.59680E-08         0.31898E-19         0.00000E+00
    0.60192E-08         0.31898E-19         0.00000E+00
    0.60768E-08         0.26310E-19         0.00000E+00
    0.61408E-08         0.40280E-19         0.00000E+00
    0.62112E-08         0.28638E-19         0.00000E+00
    0.62881E-08         0.12107E-19         0.00000E+00
    0.63715E-08         0.42608E-19         0.00000E+00
    0.64614E-08         0.48429E-19         0.00000E+00
    0.65577E-08         0.32363E-19         0.00000E+00
    0.66605E-08         0.36089E-19         0.00000E+00
    0.67699E-08         0.36554E-19         0.00000E+00
    0.68857E-08         0.16531E-19         0.00000E+00
    0.70081E-08         0.24447E-19         0.00000E+00
    0.71371E-08         0.47730E-19         0.00000E+00
    0.72725E-08         0.56578E-19         0.00000E+00
    0.74146E-08         0.52853E-19         0.00000E+00
    0.75631E-08         0.35390E-19         0.00000E+00
    0.77183E-08         0.28405E-19         0.00000E+00
    0.78799E-08         0.29569E-19         0.00000E+00
    0.80482E-08         0.30035E-19         0.00000E+00
    0.82229E-08         0.36554E-19         0.00000E+00
    0.84042E-08         0.52853E-19         0.00000E+00
    0.85921E-08         0.39348E-19         0.00000E+00
    0.87864E-08         0.27474E-19         0.00000E+00
    0.89872E-08         0.31432E-19         0.00000E+00
    0.91944E-08         0.25844E-19         0.00000E+00
    0.94081E-08         0.48894E-20         0.00000E+00
    0.96282E-08         0.27940E-20         0.00000E+00
    0.98546E-08         0.20489E-19         0.00000E+00
    0.10087E-07         0.14203E-19         0.00000E+00
    0.10326E-07        -0.27940E-20         0.00000E+00
    0.10571E-07         0.19558E-19         0.00000E+00
    0.10822E-07         0.86147E-20         0.00000E+00
    0.11079E-07        -0.27474E-19         0.00000E+00
    0.11342E-07        -0.20722E-19         0.00000E+00
    0.11611E-07        -0.12340E-19         0.00000E+00
    0.11886E-07        -0.15134E-19         0.00000E+00
    0.12166E-07        -0.25146E-19         0.00000E+00
    0.12452E-07        -0.10710E-19         0.00000E+00
    0.12742E-07        -0.69849E-20         0.00000E+00
    0.13038E-07         0.23283E-20         0.00000E+00
    0.13339E-07         0.97789E-20         0.00000E+00
    0.13645E-07         0.93132E-20         0.00000E+00
    0.13955E-07        -0.51223E-20         0.00000E+00
    0.14270E-07        -0.23283E-19         0.00000E+00
    0.14589E-07        -0.14435E-19         0.00000E+00
    0.14912E-07        -0.97789E-20         0.00000E+00
    0.15238E-07        -0.88476E-20         0.00000E+00
    0.15568E-07         0.62864E-20         0.00000E+00
    0.15901E-07         0.32596E-20         0.00000E+00
    0.16236E-07        -0.14435E-19         0.00000E+00
    0.16575E-07        -0.34925E-20         0.00000E+00
    0.16915E-07         0.12573E-19         0.00000E+00
    0.17257E-07         0.27940E-20         0.00000E+00
    0.17600E-07        -0.53551E-20         0.00000E+00
    0.17945E-07        -0.79162E-20         0.00000E+00
    0.18290E-07        -0.93132E-20         0.00000E+00
    0.18635E-07         0.25611E-20         0.00000E+00
    0.18980E-07         0.13271E-19         0.00000E+00
    0.19325E-07         0.60536E-20         0.00000E+00
    0.19668E-07        -0.39581E-20         0.00000E+00
    0.20010E-07        -0.93132E-21         0.00000E+00
    0.20349E-07         0.13504E-19         0.00000E+00
    0.20686E-07         0.21886E-19         0.00000E+00
    0.21019E-07         0.23516E-19         0.00000E+00
    0.21349E-07         0.20955E-19         0.00000E+00
    0.21674E-07         0.65193E-20         0.00000E+00
    0.21994E-07         0.10245E-19         0.00000E+00
    0.22309E-07         0.15600E-19         0.00000E+00
    0.22618E-07         0.88476E-20         0.00000E+00
    0.22920E-07         0.21886E-19         0.00000E+00
    0.23215E-07         0.20955E-19         0.00000E+00
    0.23502E-07         0.13970E-20         0.00000E+00
    0.23781E-07         0.90804E-20         0.00000E+00
    0.24050E-07         0.23283E-21         0.00000E+00
    0.24309E-07        -0.10012E-19         0.00000E+00
    0.24559E-07         0.93132E-21         0.00000E+00
    0.24797E-07         0.36089E-20         0.00000E+00
    0.25024E-07         0.11642E-20         0.00000E+00
    0.25238E-07        -0.16298E-20         0.00000E+00
    0.25440E-07         0.46566E-20         0.00000E+00
    0.25629E-07         0.11642E-19         0.00000E+00
    0.25804E-07         0.12107E-19         0.00000E+00
    0.25965E-07         0.24796E-19         0.00000E+00
    0.26111E-07         0.22468E-19         0.00000E+00
    0.26242E-07         0.10245E-19         0.00000E+00
    0.26358E-07         0.15600E-19         0.00000E+00
    0.26457E-07         0.28289E-19         0.00000E+00
    0.26541E-07         0.14319E-19         0.00000E+00
    0.26608E-07         0.12922E-19         0.00000E+00
    0.26659E-07         0.21304E-19         0.00000E+00
    0.26693E-07         0.16298E-20         0.00000E+00
    0.26710E-07        -0.45402E-20         0.00000E+00
    0.57891E-08         0.41910E-20         0.00000E+00
    0.57955E-08         0.16531E-19         0.00000E+00
    0.58083E-08         0.20722E-19         0.00000E+00
    0.58275E-08         0.20023E-19         0.00000E+00
    0.58530E-08         0.28638E-19         0.00000E+00
    0.58849E-08         0.30734E-19         0.00000E+00
    0.59233E-08         0.11409E-19         0.00000E+00
    0.59680E-08         0.88476E-20         0.00000E+00
    0.60192E-08         0.15600E-19         0.00000E+00
    0.60768E-08         0.11874E-19         0.00000E+00
    0.61408E-08         0.43074E-19         0.00000E+00
    0.62112E-08         0.44471E-19         0.00000E+00
    0.62881E-08         0.24913E-19         0.00000E+00
    0.63715E-08         0.23982E-19         0.00000E+00
    0.64614E-08         0.36787E-19         0.00000E+00
    0.65577E-08         0.46799E-19         0.00000E+00
    0.66605E-08         0.47730E-19         0.00000E+00
    0.67699E-08         0.27707E-19         0.00000E+00
    0.68857E-08         0.15600E-19         0.00000E+00
    0.70081E-08         0.38883E-19         0.00000E+00
    0.71371E-08         0.37020E-19         0.00000E+00
    0.72725E-08         0.42375E-19         0.00000E+00
    0.74146E-08         0.47730E-19         0.00000E+00
    0.75631E-08         0.29104E-19         0.00000E+00
    0.77183E-08         0.23982E-19         0.00000E+00
    0.78799E-08         0.32363E-19         0.00000E+00
    0.80482E-08         0.34226E-19         0.00000E+00
    0.82229E-08         0.26310E-19         0.00000E+00
    0.84042E-08         0.26776E-19         0.00000E+00
    0.85921E-08         0.23982E-19         0.00000E+00
    0.87864E-08         0.19558E-19         0.00000E+00
    0.89872E-08         0.26776E-19         0.00000E+00
    0.91944E-08         0.11409E-19         0.00000E+00
    0.94081E-08         0.81491E-20         0.00000E+00
    0.96282E-08         0.19325E-19         0.00000E+00
    0.98546E-08         0.10943E-19         0.00000E+00
    0.10087E-07         0.17462E-19         0.00000E+00
    0.10326E-07         0.10943E-19         0.00000E+00
    0.10571E-07        -0.16298E-20         0.00000E+00
    0.10822E-07        -0.11409E-19         0.00000E+00
    0.11079E-07        -0.39581E-20         0.00000E+00
    0.11342E-07         0.67521E-20         0.00000E+00
    0.11611E-07        -0.86147E-20         0.00000E+00
    0.11886E-07        -0.74506E-20         0.00000E+00
    0.12166E-07         0.18626E-20         0.00000E+00
    0.12452E-07         0.46566E-20         0.00000E+00
    0.12742E-07         0.15367E-19         0.00000E+00
    0.13038E-07         0.11409E-19         0.00000E+00
    0.13339E-07        -0.69849E-20         0.00000E+00
    0.13645E-07        -0.20955E-20         0.00000E+00
    0.13955E-07         0.90804E-20         0.00000E+00
    0.14270E-07        -0.41910E-20         0.00000E+00
    0.14589E-07        -0.14435E-19         0.00000E+00
    0.14912E-07         0.34925E-20         0.00000E+00
    0.15238E-07        -0.65193E-20         0.00000E+00
    0.15568E-07        -0.18859E-19         0.00000E+00
    0.15901E-07        -0.11642E-19         0.00000E+00
    0.16236E-07         0.79162E-20         0.00000E+00
    0.16575E-07        -0.34925E-20         0.00000E+00
    0.16915E-07        -0.12107E-19         0.00000E+00
    0.17257E-07         0.10012E-19         0.00000E+00
    0.17600E-07         0.58208E-20         0.00000E+00
    0.17945E-07        -0.30268E-20         0.00000E+00
    0.18290E-07        -0.81491E-20         0.00000E+00
    0.18635E-07        -0.15134E-19         0.00000E+00
    0.18980E-07         0.32596E-20         0.00000E+00
    0.19325E-07         0.11176E-19         0.00000E+00
    0.19668E-07         0.10943E-19         0.00000E+00
    0.20010E-07         0.12107E-19         0.00000E+00
    0.20349E-07         0.12573E-19         0.00000E+00
    0.20686E-07         0.79162E-20         0.00000E+00
    0.21019E-07         0.44238E-20         0.00000E+00
    0.21349E-07         0.13970E-20         0.00000E+00
    0.21674E-07         0.12573E-19         0.00000E+00
    0.21994E-07         0.88476E-20         0.00000E+00
    0.22309E-07        -0.25611E-20         0.00000E+00
    0.22618E-07        -0.32596E-20         0.00000E+00
    0.22920E-07         0.46566E-20         0.00000E+00
    0.23215E-07         0.12573E-19         0.00000E+00
    0.23502E-07        -0.74506E-20         0.00000E+00
    0.23781E-07        -0.14668E-19         0.00000E+00
    0.24050E-07        -0.10012E-19         0.00000E+00
    0.24309E-07        -0.13853E-19         0.00000E+00
    0.24559E-07        -0.19791E-20         0.00000E+00
    0.24797E-07        -0.32596E-20         0.00000E+00
    0.25024E-07         0.38417E-20         0.00000E+00
    0.25238E-07         0.97789E-20         0.00000E+00
    0.25440E-07         0.86147E-20         0.00000E+00
    0.25629E-07         0.12573E-19         0.00000E+00
    0.25804E-07         0.14319E-19         0.00000E+00
    0.25965E-07         0.20606E-19         0.00000E+00
    0.26111E-07         0.28522E-19         0.00000E+00
    0.26242E-07         0.37835E-19         0.00000E+00
    0.26358E-07         0.23399E-19         0.00000E+00
    0.26457E-07         0.23050E-19         0.00000E+00
    0.26541E-07         0.19325E-19         0.00000E+00
    0.26608E-07         0.23516E-19         0.00000E+00
    0.26659E-07         0.22235E-19         0.00000E+00
    0.26693E-07         0.11642E-20         0.00000E+00
    0.26710E-07        -0.46566E-20         0.00000E+00
    0.57891E-08         0.65193E-20         0.00000E+00
    0.57955E-08         0.15134E-19         0.00000E+00
    0.58083E-08         0.25146E-19         0.00000E+00
    0.58275E-08         0.23050E-19         0.00000E+00
    0.58530E-08         0.34925E-19         0.00000E+00
    0.58849E-08         0.31898E-19         0.00000E+00
    0.59233E-08         0.23283E-19         0.00000E+00
    0.59680E-08         0.12573E-19         0.00000E+00
    0.60192E-08         0.19325E-19         0.00000E+00
    0.60768E-08         0.28173E-19         0.00000E+00
    0.61408E-08         0.25844E-19         0.00000E+00
    0.62112E-08         0.36322E-19         0.00000E+00
    0.62881E-08         0.46100E-19         0.00000E+00
    0.63715E-08         0.44471E-19         0.00000E+00
    0.64614E-08         0.47497E-19         0.00000E+00
    0.65577E-08         0.50291E-19         0.00000E+00
    0.66605E-08         0.35390E-19         0.00000E+00
    0.67699E-08         0.36554E-19         0.00000E+00
    0.68857E-08         0.35157E-19         0.00000E+00
    0.70081E-08         0.36089E-19         0.00000E+00
    0.71371E-08         0.36089E-19         0.00000E+00
    0.72725E-08         0.21188E-19         0.00000E+00
    0.74146E-08         0.21420E-19         0.00000E+00
    0.75631E-08         0.33760E-19         0.00000E+00
    0.77183E-08         0.25146E-19         0.00000E+00
    0.78799E-08         0.20023E-19         0.00000E+00
    0.80482E-08         0.28638E-19         0.00000E+00
    0.82229E-08         0.27940E-19         0.00000E+00
    0.84042E-08         0.30734E-19         0.00000E+00
    0.85921E-08         0.33993E-19         0.00000E+00
    0.87864E-08         0.19092E-19         0.00000E+00
    0.89872E-08         0.86147E-20         0.00000E+00
    0.91944E-08        -0.27940E-20         0.00000E+00
    0.94081E-08        -0.10710E-19         0.00000E+00
    0.96282E-08         0.34925E-20         0.00000E+00
    0.98546E-08        -0.60536E-20         0.00000E+00
    0.10087E-07         0.18626E-20         0.00000E+00
    0.10326E-07         0.18626E-19         0.00000E+00
    0.10571E-07         0.32596E-20         0.00000E+00
    0.10822E-07         0.23283E-20         0.00000E+00
    0.11079E-07         0.14435E-19         0.00000E+00
    0.11342E-07         0.46566E-21         0.00000E+00
    0.11611E-07        -0.86147E-20         0.00000E+00
    0.11886E-07        -0.37253E-20         0.00000E+00
    0.12166E-07        -0.17462E-19         0.00000E+00
    0.12452E-07        -0.18626E-19         0.00000E+00
    0.12742E-07        -0.19791E-19         0.00000E+00
    0.13038E-07        -0.17928E-19         0.00000E+00
    0.13339E-07        -0.13271E-19         0.00000E+00
    0.13645E-07        -0.88476E-20         0.00000E+00
    0.13955E-07         0.58208E-20         0.00000E+00
    0.14270E-07         0.23283E-20         0.00000E+00
    0.14589E-07        -0.27940E-20         0.00000E+00
    0.14912E-07        -0.18394E-19         0.00000E+00
    0.15238E-07        -0.10245E-19         0.00000E+00
    0.15568E-07         0.23283E-21         0.00000E+00
    0.15901E-07        -0.81491E-20         0.00000E+00
    0.16236E-07        -0.97789E-20         0.00000E+00
    0.16575E-07        -0.12340E-19         0.00000E+00
    0.16915E-07        -0.14668E-19         0.00000E+00
    0.17257E-07         0.11176E-19         0.00000E+00
    0.17600E-07        -0.39581E-20         0.00000E+00
    0.17945E-07        -0.20722E-19         0.00000E+00
    0.18290E-07        -0.53551E-20         0.00000E+00
    0.18635E-07        -0.23283E-21         0.00000E+00
    0.18980E-07        -0.53551E-20         0.00000E+00
    0.19325E-07         0.46566E-21         0.00000E+00
    0.19668E-07        -0.62864E-20         0.00000E+00
    0.20010E-07         0.23283E-21         0.00000E+00
    0.20349E-07         0.16065E-19         0.00000E+00
    0.20686E-07        -0.11642E-19         0.00000E+00
    0.21019E-07        -0.18394E-19         0.00000E+00
    0.21349E-07         0.69849E-21         0.00000E+00
    0.21674E-07         0.27940E-20         0.00000E+00
    0.21994E-07         0.18626E-20         0.00000E+00
    0.22309E-07        -0.69849E-21         0.00000E+00
    0.22618E-07         0.23283E-20         0.00000E+00
    0.22920E-07         0.74506E-20         0.00000E+00
    0.23215E-07         0.13970E-20         0.00000E+00
    0.23502E-07         0.00000E+00         0.00000E+00
    0.23781E-07        -0.18859E-19         0.00000E+00
    0.24050E-07        -0.19325E-19         0.00000E+00
    0.24309E-07        -0.27940E-20         0.00000E+00
    0.24559E-07         0.12806E-19         0.00000E+00
    0.24797E-07         0.15134E-20         0.00000E+00
    0.25024E-07        -0.84983E-20         0.00000E+00
    0.25238E-07         0.22817E-19         0.00000E+00
    0.25440E-07         0.16298E-19         0.00000E+00
    0.25629E-07         0.48894E-20         0.00000E+00
    0.25804E-07         0.12922E-19         0.00000E+00
    0.25965E-07         0.16298E-19         0.00000E+00
    0.26111E-07         0.32713E-19         0.00000E+00
    0.26242E-07         0.36089E-19         0.00000E+00
    0.26358E-07         0.20256E-19         0.00000E+00
    0.26457E-07         0.15483E-19         0.00000E+00
    0.26541E-07         0.17928E-19         0.00000E+00
    0.26608E-07         0.58208E-20         0.00000E+00
    0.26659E-07        -0.22119E-20         0.00000E+00
    0.26693E-07        -0.65193E-20         0.00000E+00
    0.26710E-07        -0.57044E-20         0.00000E+00
    0.57891E-08         0.86147E-20         0.00000E+00
    0.57955E-08         0.11176E-19         0.00000E+00
    0.58083E-08         0.12806E-19         0.00000E+00
    0.58275E-08         0.23516E-19         0.00000E+00
    0.58530E-08         0.17928E-19         0.00000E+00
    0.58849E-08         0.16997E-19         0.00000E+00
    0.59233E-08         0.20256E-19         0.00000E+00
    0.59680E-08         0.30734E-19         0.00000E+00
    0.60192E-08         0.30035E-19         0.00000E+00
    0.60768E-08         0.18394E-19         0.00000E+00
    0.61408E-08         0.20955E-19         0.00000E+00
    0.62112E-08         0.32829E-19         0.00000E+00
    0.62881E-08         0.26776E-19         0.00000E+00
    0.63715E-08         0.42608E-19         0.00000E+00
    0.64614E-08         0.52154E-19         0.00000E+00
    0.65577E-08         0.38417E-19         0.00000E+00
    0.66605E-08         0.37486E-19         0.00000E+00
    0.67699E-08         0.36089E-19         0.00000E+00
    0.68857E-08         0.23982E-19         0.00000E+00
    0.70081E-08         0.28638E-19         0.00000E+00
    0.71371E-08         0.33528E-19         0.00000E+00
    0.72725E-08         0.97789E-20         0.00000E+00
    0.74146E-08         0.39581E-20         0.00000E+00
    0.75631E-08         0.19791E-19         0.00000E+00
    0.77183E-08         0.17928E-19         0.00000E+00
    0.78799E-08         0.18626E-20         0.00000E+00
    0.80482E-08         0.81491E-20         0.00000E+00
    0.82229E-08         0.30501E-19         0.00000E+00
    0.84042E-08         0.22119E-19         0.00000E+00
    0.85921E-08         0.29802E-19         0.00000E+00
    0.87864E-08         0.45169E-19         0.00000E+00
    0.89872E-08         0.18161E-19         0.00000E+00
    0.91944E-08        -0.25611E-20         0.00000E+00
    0.94081E-08        -0.81491E-20         0.00000E+00
    0.96282E-08        -0.72177E-20         0.00000E+00
    0.98546E-08        -0.58208E-20         0.00000E+00
    0.10087E-07        -0.15600E-19         0.00000E+00
    0.10326E-07        -0.65193E-20         0.00000E+00
    0.10571E-07        -0.41910E-20         0.00000E+00
    0.10822E-07        -0.86147E-20         0.00000E+00
    0.11079E-07        -0.17462E-19         0.00000E+00
    0.11342E-07        -0.65193E-20         0.00000E+00
    0.11611E-07        -0.72177E-20         0.00000E+00
    0.11886E-07        -0.20256E-19         0.00000E+00
    0.12166E-07        -0.22817E-19         0.00000E+00
    0.12452E-07        -0.20023E-19         0.00000E+00
    0.12742E-07        -0.23050E-19         0.00000E+00
    0.13038E-07        -0.15367E-19         0.00000E+00
    0.13339E-07        -0.41910E-20         0.00000E+00
    0.13645E-07        -0.15134E-19         0.00000E+00
    0.13955E-07        -0.83819E-20         0.00000E+00
    0.14270E-07        -0.90804E-20         0.00000E+00
    0.14589E-07        -0.20489E-19         0.00000E+00
    0.14912E-07        -0.16764E-19         0.00000E+00
    0.15238E-07        -0.60536E-20         0.00000E+00
    0.15568E-07        -0.11874E-19         0.00000E+00
    0.15901E-07        -0.19558E-19         0.00000E+00
    0.16236E-07        -0.16997E-19         0.00000E+00
    0.16575E-07        -0.46566E-20         0.00000E+00
    0.16915E-07         0.18161E-19         0.00000E+00
    0.17257E-07        -0.67521E-20         0.00000E+00
    0.17600E-07        -0.29104E-19         0.00000E+00
    0.17945E-07        -0.22352E-19         0.00000E+00
    0.18290E-07        -0.18626E-19         0.00000E+00
    0.18635E-07        -0.13737E-19         0.00000E+00
    0.18980E-07         0.39581E-20         0.00000E+00
    0.19325E-07         0.11176E-19         0.00000E+00
    0.19668E-07        -0.51223E-20         0.00000E+00
    0.20010E-07         0.60536E-20         0.00000E+00
    0.20349E-07         0.65193E-20         0.00000E+00
    0.20686E-07        -0.93132E-21         0.00000E+00
    0.21019E-07        -0.76834E-20         0.00000E+00
    0.21349E-07        -0.58208E-20         0.00000E+00
    0.21674E-07        -0.41910E-20         0.00000E+00
    0.21994E-07        -0.79162E-20         0.00000E+00
    0.22309E-07        -0.11642E-20         0.00000E+00
    0.22618E-07        -0.88476E-20         0.00000E+00
    0.22920E-07        -0.51223E-20         0.00000E+00
    0.23215E-07         0.18626E-20         0.00000E+00
    0.23502E-07        -0.65193E-20         0.00000E+00
    0.23781E-07        -0.19325E-19         0.00000E+00
    0.24050E-07        -0.14203E-19         0.00000E+00
    0.24309E-07        -0.23283E-21         0.00000E+00
    0.24559E-07         0.66357E-20         0.00000E+00
    0.24797E-07         0.26776E-20         0.00000E+00
    0.25024E-07         0.65193E-20         0.00000E+00
    0.25238E-07         0.31665E-19         0.00000E+00
    0.25440E-07         0.33411E-19         0.00000E+00
    0.25629E-07        -0.19791E-20         0.00000E+00
    0.25804E-07        -0.62864E-20         0.00000E+00
    0.25965E-07         0.22817E-19         0.00000E+00
    0.26111E-07         0.33295E-19         0.00000E+00
    0.26242E-07         0.27008E-19         0.00000E+00
    0.26358E-07         0.37602E-19         0.00000E+00
    0.26457E-07         0.22235E-19         0.00000E+00
    0.26541E-07         0.90804E-20         0.00000E+00
    0.26608E-07         0.20489E-19         0.00000E+00
    0.26659E-07         0.48894E-20         0.00000E+00
    0.26693E-07         0.34925E-20         0.00000E+00
    0.26710E-07         0.68685E-20         0.00000E+00
    0.57891E-08         0.10477E-19         0.00000E+00
    0.57955E-08         0.13970E-20         0.00000E+00
    0.58083E-08         0.18394E-19         0.00000E+00
    0.58275E-08         0.45635E-19         0.00000E+00
    0.58530E-08         0.35157E-19         0.00000E+00
    0.58849E-08         0.24447E-19         0.00000E+00
    0.59233E-08         0.32131E-19         0.00000E+00
    0.59680E-08         0.30734E-19         0.00000E+00
    0.60192E-08         0.31199E-19         0.00000E+00
    0.60768E-08         0.30734E-19         0.00000E+00
    0.61408E-08         0.27707E-19         0.00000E+00
    0.62112E-08         0.33295E-19         0.00000E+00
    0.62881E-08         0.31432E-19         0.00000E+00
    0.63715E-08         0.29104E-19         0.00000E+00
    0.64614E-08         0.28871E-19         0.00000E+00
    0.65577E-08         0.38184E-19         0.00000E+00
    0.66605E-08         0.37020E-19         0.00000E+00
    0.67699E-08         0.41677E-19         0.00000E+00
    0.68857E-08         0.37951E-19         0.00000E+00
    0.70081E-08         0.29104E-19         0.00000E+00
    0.71371E-08         0.35157E-19         0.00000E+00
    0.72725E-08         0.15832E-19         0.00000E+00
    0.74146E-08         0.15134E-19         0.00000E+00
    0.75631E-08         0.23283E-19         0.00000E+00
    0.77183E-08         0.31665E-19         0.00000E+00
    0.78799E-08         0.17462E-19         0.00000E+00
    0.80482E-08         0.10943E-19         0.00000E+00
    0.82229E-08         0.11409E-19         0.00000E+00
    0.84042E-08         0.32596E-20         0.00000E+00
    0.85921E-08         0.22119E-19         0.00000E+00
    0.87864E-08         0.27008E-19         0.00000E+00
    0.89872E-08         0.95461E-20         0.00000E+00
    0.91944E-08         0.14901E-19         0.00000E+00
    0.94081E-08         0.13737E-19         0.00000E+00
    0.96282E-08        -0.13970E-20         0.00000E+00
    0.98546E-08         0.15832E-19         0.00000E+00
    0.10087E-07         0.14901E-19         0.00000E+00
    0.10326E-07         0.13039E-19         0.00000E+00
    0.10571E-07        -0.23283E-20         0.00000E+00
    0.10822E-07        -0.69849E-20         0.00000E+00
    0.11079E-07         0.46566E-21         0.00000E+00
    0.11342E-07         0.34925E-20         0.00000E+00
    0.11611E-07        -0.11642E-20         0.00000E+00
    0.11886E-07        -0.12806E-19         0.00000E+00
    0.12166E-07        -0.10710E-19         0.00000E+00
    0.12452E-07        -0.79162E-20         0.00000E+00
    0.12742E-07        -0.18626E-20         0.00000E+00
    0.13038E-07        -0.62864E-20         0.00000E+00
    0.13339E-07        -0.60536E-20         0.00000E+00
    0.13645E-07         0.30268E-20         0.00000E+00
    0.13955E-07        -0.17695E-19         0.00000E+00
    0.14270E-07        -0.32131E-19         0.00000E+00
    0.14589E-07        -0.88476E-20         0.00000E+00
    0.14912E-07         0.60536E-20         0.00000E+00
    0.15238E-07        -0.18626E-19         0.00000E+00
    0.15568E-07        -0.22585E-19         0.00000E+00
    0.15901E-07         0.30268E-20         0.00000E+00
    0.16236E-07         0.65193E-20         0.00000E+00
    0.16575E-07        -0.23283E-21         0.00000E+00
    0.16915E-07         0.13970E-20         0.00000E+00
    0.17257E-07        -0.10477E-19         0.00000E+00
    0.17600E-07        -0.27474E-19         0.00000E+00
    0.17945E-07        -0.20256E-19         0.00000E+00
    0.18290E-07        -0.16997E-19         0.00000E+00
    0.18635E-07        -0.18626E-20         0.00000E+00
    0.18980E-07         0.15134E-19         0.00000E+00
    0.19325E-07         0.26077E-19         0.00000E+00
    0.19668E-07         0.36322E-19         0.00000E+00
    0.20010E-07         0.19558E-19         0.00000E+00
    0.20349E-07         0.16298E-19         0.00000E+00
    0.20686E-07         0.15367E-19         0.00000E+00
    0.21019E-07         0.10245E-19         0.00000E+00
    0.21349E-07         0.11874E-19         0.00000E+00
    0.21674E-07         0.93132E-21         0.00000E+00
    0.21994E-07         0.83819E-20         0.00000E+00
    0.22309E-07         0.25611E-20         0.00000E+00
    0.22618E-07         0.51223E-20         0.00000E+00
    0.22920E-07         0.10245E-19         0.00000E+00
    0.23215E-07        -0.11176E-19         0.00000E+00
    0.23502E-07        -0.69849E-20         0.00000E+00
    0.23781E-07        -0.30268E-20         0.00000E+00
    0.24050E-07        -0.10477E-19         0.00000E+00
    0.24309E-07        -0.15134E-19         0.00000E+00
    0.24559E-07        -0.10245E-19         0.00000E+00
    0.24797E-07        -0.84983E-20         0.00000E+00
    0.25024E-07        -0.61700E-20         0.00000E+00
    0.25238E-07         0.74506E-20         0.00000E+00
    0.25440E-07         0.15832E-19         0.00000E+00
    0.25629E-07         0.19674E-19         0.00000E+00
    0.25804E-07         0.17928E-19         0.00000E+00
    0.25965E-07         0.21188E-19         0.00000E+00
    0.26111E-07         0.31083E-19         0.00000E+00
    0.26242E-07         0.33993E-19         0.00000E+00
    0.26358E-07         0.34110E-19         0.00000E+00
    0.26457E-07         0.24447E-19         0.00000E+00
    0.26541E-07         0.16065E-19         0.00000E+00
    0.26608E-07         0.12573E-19         0.00000E+00
    0.26659E-07        -0.19791E-20         0.00000E+00
    0.26693E-07        -0.55879E-20         0.00000E+00
    0.26710E-07        -0.57044E-20         0.00000E+00
    0.57891E-08         0.97789E-20         0.00000E+00
    0.57955E-08         0.17928E-19         0.00000E+00
    0.58083E-08         0.28173E-19         0.00000E+00
    0.58275E-08         0.32363E-19         0.00000E+00
    0.58530E-08         0.28173E-19         0.00000E+00
    0.58849E-08         0.31199E-19         0.00000E+00
    0.59233E-08         0.36554E-19         0.00000E+00
    0.59680E-08         0.20256E-19         0.00000E+00
    0.60192E-08         0.14901E-19         0.00000E+00
    0.60768E-08         0.22585E-19         0.00000E+00
    0.61408E-08         0.22119E-19         0.00000E+00
    0.62112E-08         0.38883E-19         0.00000E+00
    0.62881E-08         0.44471E-19         0.00000E+00
    0.63715E-08         0.31432E-19         0.00000E+00
    0.64614E-08         0.40280E-19         0.00000E+00
    0.65577E-08         0.51921E-19         0.00000E+00
    0.66605E-08         0.28638E-19         0.00000E+00
    0.67699E-08         0.12806E-19         0.00000E+00
    0.68857E-08         0.30501E-19         0.00000E+00
    0.70081E-08         0.31432E-19         0.00000E+00
    0.71371E-08         0.21653E-19         0.00000E+00
    0.72725E-08         0.14435E-19         0.00000E+00
    0.74146E-08         0.20955E-19         0.00000E+00
    0.75631E-08         0.29337E-19         0.00000E+00
    0.77183E-08         0.17462E-19         0.00000E+00
    0.78799E-08         0.16065E-19         0.00000E+00
    0.80482E-08        -0.23283E-21         0.00000E+00
    0.82229E-08        -0.10477E-19         0.00000E+00
    0.84042E-08         0.58208E-20         0.00000E+00
    0.85921E-08         0.93132E-20         0.00000E+00
    0.87864E-08         0.20023E-19         0.00000E+00
    0.89872E-08         0.21420E-19         0.00000E+00
    0.91944E-08         0.21420E-19         0.00000E+00
    0.94081E-08         0.19791E-19         0.00000E+00
    0.96282E-08         0.93132E-21         0.00000E+00
    0.98546E-08         0.20955E-20         0.00000E+00
    0.10087E-07         0.16997E-19         0.00000E+00
    0.10326E-07         0.69849E-20         0.00000E+00
    0.10571E-07         0.88476E-20         0.00000E+00
    0.10822E-07         0.18626E-19         0.00000E+00
    0.11079E-07         0.13271E-19         0.00000E+00
    0.11342E-07         0.69849E-20         0.00000E+00
    0.11611E-07         0.20489E-19         0.00000E+00
    0.11886E-07         0.17229E-19         0.00000E+00
    0.12166E-07        -0.13039E-19         0.00000E+00
    0.12452E-07        -0.26310E-19         0.00000E+00
    0.12742E-07        -0.12107E-19         0.00000E+00
    0.13038E-07        -0.12107E-19         0.00000E+00
    0.13339E-07        -0.13970E-19         0.00000E+00
    0.13645E-07        -0.16298E-19         0.00000E+00
    0.13955E-07        -0.25146E-19         0.00000E+00
    0.14270E-07        -0.24913E-19         0.00000E+00
    0.14589E-07        -0.25146E-19         0.00000E+00
    0.14912E-07        -0.18626E-19         0.00000E+00
    0.15238E-07        -0.19558E-19         0.00000E+00
    0.15568E-07        -0.16764E-19         0.00000E+00
    0.15901E-07         0.10477E-19         0.00000E+00
    0.16236E-07         0.12806E-19         0.00000E+00
    0.16575E-07         0.16298E-20         0.00000E+00
    0.16915E-07        -0.10477E-19         0.00000E+00
    0.17257E-07        -0.27940E-20         0.00000E+00
    0.17600E-07         0.60536E-20         0.00000E+00
    0.17945E-07        -0.11176E-19         0.00000E+00
    0.18290E-07        -0.12107E-19         0.00000E+00
    0.18635E-07        -0.74506E-20         0.00000E+00
    0.18980E-07         0.39581E-20         0.00000E+00
    0.19325E-07         0.10710E-19         0.00000E+00
    0.19668E-07         0.32596E-20         0.00000E+00
    0.20010E-07        -0.10245E-19         0.00000E+00
    0.20349E-07        -0.32596E-20         0.00000E+00
    0.20686E-07         0.17695E-19         0.00000E+00
    0.21019E-07         0.90804E-20         0.00000E+00
    0.21349E-07        -0.20955E-20         0.00000E+00
    0.21674E-07        -0.37253E-20         0.00000E+00
    0.21994E-07        -0.46566E-21         0.00000E+00
    0.22309E-07         0.69849E-20         0.00000E+00
    0.22618E-07         0.97789E-20         0.00000E+00
    0.22920E-07         0.11642E-19         0.00000E+00
    0.23215E-07         0.19558E-19         0.00000E+00
    0.23502E-07         0.13970E-20         0.00000E+00
    0.23781E-07        -0.28405E-19         0.00000E+00
    0.24050E-07        -0.16997E-19         0.00000E+00
    0.24309E-07        -0.88476E-20         0.00000E+00
    0.24559E-07         0.53551E-20         0.00000E+00
    0.24797E-07         0.10477E-20         0.00000E+00
    0.25024E-07        -0.14203E-19         0.00000E+00
    0.25238E-07         0.69849E-20         0.00000E+00
    0.25440E-07         0.19674E-19         0.00000E+00
    0.25629E-07         0.45402E-20         0.00000E+00
    0.25804E-07         0.64028E-20         0.00000E+00
    0.25965E-07         0.18743E-19         0.00000E+00
    0.26111E-07         0.27241E-19         0.00000E+00
    0.26242E-07         0.31316E-19         0.00000E+00
    0.26358E-07         0.22468E-19         0.00000E+00
    0.26457E-07         0.84983E-20         0.00000E+00
    0.26541E-07         0.10361E-19         0.00000E+00
    0.26608E-07         0.16531E-19         0.00000E+00
    0.26659E-07         0.17113E-19         0.00000E+00
    0.26693E-07         0.88476E-20         0.00000E+00
    0.26710E-07         0.17462E-20         0.00000E+00
    0.57891E-08         0.37253E-20         0.00000E+00
    0.57955E-08         0.11642E-19         0.00000E+00
    0.58083E-08         0.29337E-19         0.00000E+00
    0.58275E-08         0.36089E-19         0.00000E+00
    0.58530E-08         0.90804E-20         0.00000E+00
    0.58849E-08         0.12107E-19         0.00000E+00
    0.59233E-08         0.41677E-19         0.00000E+00
    0.59680E-08         0.30734E-19         0.00000E+00
    0.60192E-08         0.25379E-19         0.00000E+00
    0.60768E-08         0.36089E-19         0.00000E+00
    0.61408E-08         0.42142E-19         0.00000E+00
    0.62112E-08         0.34226E-19         0.00000E+00
    0.62881E-08         0.22119E-19         0.00000E+00
    0.63715E-08         0.14203E-19         0.00000E+00
    0.64614E-08         0.21886E-19         0.00000E+00
    0.65577E-08         0.38883E-19         0.00000E+00
    0.66605E-08         0.35623E-19         0.00000E+00
    0.67699E-08         0.16065E-19         0.00000E+00
    0.68857E-08         0.29104E-19         0.00000E+00
    0.70081E-08         0.40745E-19         0.00000E+00
    0.71371E-08         0.43074E-19         0.00000E+00
    0.72725E-08         0.23749E-19         0.00000E+00
    0.74146E-08         0.97789E-20         0.00000E+00
    0.75631E-08         0.74506E-20         0.00000E+00
    0.77183E-08         0.88476E-20         0.00000E+00
    0.78799E-08         0.12107E-19         0.00000E+00
    0.80482E-08         0.81491E-20         0.00000E+00
    0.82229E-08         0.10943E-19         0.00000E+00
    0.84042E-08         0.22119E-19         0.00000E+00
    0.85921E-08         0.20023E-19         0.00000E+00
    0.87864E-08         0.12573E-19         0.00000E+00
    0.89872E-08         0.20955E-19         0.00000E+00
    0.91944E-08         0.25844E-19         0.00000E+00
    0.94081E-08         0.19558E-19         0.00000E+00
    0.96282E-08         0.21420E-19         0.00000E+00
    0.98546E-08         0.15600E-19         0.00000E+00
    0.10087E-07         0.15600E-19         0.00000E+00
    0.10326E-07         0.24214E-19         0.00000E+00
    0.10571E-07         0.69849E-20         0.00000E+00
    0.10822E-07        -0.44238E-20         0.00000E+00
    0.11079E-07         0.28173E-19         0.00000E+00
    0.11342E-07         0.22352E-19         0.00000E+00
    0.11611E-07         0.60536E-20         0.00000E+00
    0.11886E-07        -0.67521E-20         0.00000E+00
    0.12166E-07        -0.72177E-20         0.00000E+00
    0.12452E-07         0.13970E-20         0.00000E+00
    0.12742E-07        -0.20955E-20         0.00000E+00
    0.13038E-07        -0.11176E-19         0.00000E+00
    0.13339E-07        -0.19325E-19         0.00000E+00
    0.13645E-07        -0.23283E-19         0.00000E+00
    0.13955E-07        -0.27008E-19         0.00000E+00
    0.14270E-07        -0.26077E-19         0.00000E+00
    0.14589E-07        -0.31199E-19         0.00000E+00
    0.14912E-07        -0.26310E-19         0.00000E+00
    0.15238E-07        -0.15832E-19         0.00000E+00
    0.15568E-07        -0.37253E-20         0.00000E+00
    0.15901E-07         0.10710E-19         0.00000E+00
    0.16236E-07         0.13970E-19         0.00000E+00
    0.16575E-07         0.25611E-20         0.00000E+00
    0.16915E-07         0.23283E-20         0.00000E+00
    0.17257E-07        -0.55879E-20         0.00000E+00
    0.17600E-07        -0.60536E-20         0.00000E+00
    0.17945E-07        -0.13039E-19         0.00000E+00
    0.18290E-07        -0.16298E-19         0.00000E+00
    0.18635E-07        -0.14901E-19         0.00000E+00
    0.18980E-07        -0.93132E-21         0.00000E+00
    0.19325E-07         0.10710E-19         0.00000E+00
    0.19668E-07         0.55879E-20         0.00000E+00
    0.20010E-07        -0.60536E-20         0.00000E+00
    0.20349E-07        -0.83819E-20         0.00000E+00
    0.20686E-07        -0.97789E-20         0.00000E+00
    0.21019E-07        -0.20722E-19         0.00000E+00
    0.21349E-07        -0.10477E-19         0.00000E+00
    0.21674E-07        -0.46566E-20         0.00000E+00
    0.21994E-07        -0.14435E-19         0.00000E+00
    0.22309E-07        -0.10943E-19         0.00000E+00
    0.22618E-07         0.13039E-19         0.00000E+00
    0.22920E-07         0.18859E-19         0.00000E+00
    0.23215E-07         0.93132E-20         0.00000E+00
    0.23502E-07         0.33062E-19         0.00000E+00
    0.23781E-07         0.15134E-19         0.00000E+00
    0.24050E-07        -0.30268E-20         0.00000E+00
    0.24309E-07         0.97789E-20         0.00000E+00
    0.24559E-07        -0.83819E-20         0.00000E+00
    0.24797E-07         0.75670E-20         0.00000E+00
    0.25024E-07         0.18859E-19         0.00000E+00
    0.25238E-07         0.13737E-19         0.00000E+00
    0.25440E-07         0.28987E-19         0.00000E+00
    0.25629E-07         0.20489E-19         0.00000E+00
    0.25804E-07         0.20140E-19         0.00000E+00
    0.25965E-07         0.40862E-19         0.00000E+00
    0.26111E-07         0.40163E-19         0.00000E+00
    0.26242E-07         0.19092E-19         0.00000E+00
    0.26358E-07         0.95461E-20         0.00000E+00
    0.26457E-07         0.69849E-20         0.00000E+00
    0.26541E-07         0.25379E-19         0.00000E+00
    0.26608E-07         0.24564E-19         0.00000E+00
    0.26659E-07         0.15716E-19         0.00000E+00
    0.26693E-07         0.11176E-19         0.00000E+00
    0.26710E-07         0.50059E-20         0.00000E+00
    0.57891E-08         0.93132E-21         0.00000E+00
    0.57955E-08         0.15134E-19         0.00000E+00
    0.58083E-08         0.19325E-19         0.00000E+00
    0.58275E-08         0.67521E-20         0.00000E+00
    0.58530E-08         0.10943E-19         0.00000E+00
    0.58849E-08         0.15367E-19         0.00000E+00
    0.59233E-08         0.22119E-19         0.00000E+00
    0.59680E-08         0.29104E-19         0.00000E+00
    0.60192E-08         0.33295E-19         0.00000E+00
    0.60768E-08         0.19325E-19         0.00000E+00
    0.61408E-08         0.30035E-19         0.00000E+00
    0.62112E-08         0.44703E-19         0.00000E+00
    0.62881E-08         0.28173E-19         0.00000E+00
    0.63715E-08         0.23516E-19         0.00000E+00
    0.64614E-08         0.33760E-19         0.00000E+00
    0.65577E-08         0.21653E-19         0.00000E+00
    0.66605E-08         0.19092E-19         0.00000E+00
    0.67699E-08         0.51223E-20         0.00000E+00
    0.68857E-08         0.14668E-19         0.00000E+00
    0.70081E-08         0.26310E-19         0.00000E+00
    0.71371E-08         0.79162E-20         0.00000E+00
    0.72725E-08         0.16298E-19         0.00000E+00
    0.74146E-08         0.21653E-19         0.00000E+00
    0.75631E-08         0.76834E-20         0.00000E+00
    0.77183E-08         0.39581E-20         0.00000E+00
    0.78799E-08         0.83819E-20         0.00000E+00
    0.80482E-08         0.34925E-20         0.00000E+00
    0.82229E-08         0.16298E-20         0.00000E+00
    0.84042E-08         0.13970E-19         0.00000E+00
    0.85921E-08         0.21886E-19         0.00000E+00
    0.87864E-08         0.18859E-19         0.00000E+00
    0.89872E-08         0.13039E-19         0.00000E+00
    0.91944E-08        -0.62864E-20         0.00000E+00
    0.94081E-08         0.48894E-20         0.00000E+00
    0.96282E-08         0.41910E-20         0.00000E+00
    0.98546E-08         0.81491E-20         0.00000E+00
    0.10087E-07         0.16298E-19         0.00000E+00
    0.10326E-07         0.46566E-21         0.00000E+00
    0.10571E-07        -0.14203E-19         0.00000E+00
    0.10822E-07         0.93132E-21         0.00000E+00
    0.11079E-07         0.27940E-20         0.00000E+00
    0.11342E-07        -0.23283E-20         0.00000E+00
    0.11611E-07         0.10477E-19         0.00000E+00
    0.11886E-07         0.76834E-20         0.00000E+00
    0.12166E-07        -0.11176E-19         0.00000E+00
    0.12452E-07        -0.93132E-20         0.00000E+00
    0.12742E-07        -0.83819E-20         0.00000E+00
    0.13038E-07        -0.11642E-19         0.00000E+00
    0.13339E-07        -0.20489E-19         0.00000E+00
    0.13645E-07        -0.11642E-19         0.00000E+00
    0.13955E-07        -0.15832E-19         0.00000E+00
    0.14270E-07        -0.16298E-19         0.00000E+00
    0.14589E-07        -0.15367E-19         0.00000E+00
    0.14912E-07        -0.28405E-19         0.00000E+00
    0.15238E-07        -0.21886E-19         0.00000E+00
    0.15568E-07        -0.11176E-19         0.00000E+00
    0.15901E-07        -0.93132E-20         0.00000E+00
    0.16236E-07        -0.10477E-19         0.00000E+00
    0.16575E-07        -0.11874E-19         0.00000E+00
    0.16915E-07        -0.25611E-20         0.00000E+00
    0.17257E-07        -0.16298E-20         0.00000E+00
    0.17600E-07        -0.31665E-19         0.00000E+00
    0.17945E-07        -0.18626E-19         0.00000E+00
    0.18290E-07        -0.65193E-20         0.00000E+00
    0.18635E-07        -0.13737E-19         0.00000E+00
    0.18980E-07        -0.97789E-20         0.00000E+00
    0.19325E-07        -0.23283E-20         0.00000E+00
    0.19668E-07         0.34925E-20         0.00000E+00
    0.20010E-07         0.74506E-20         0.00000E+00
    0.20349E-07        -0.58208E-20         0.00000E+00
    0.20686E-07        -0.79162E-20         0.00000E+00
    0.21019E-07        -0.58208E-20         0.00000E+00
    0.21349E-07        -0.27707E-19         0.00000E+00
    0.21674E-07        -0.93132E-20         0.00000E+00
    0.21994E-07        -0.16298E-19         0.00000E+00
    0.22309E-07        -0.20256E-19         0.00000E+00
    0.22618E-07         0.95461E-20         0.00000E+00
    0.22920E-07         0.13970E-20         0.00000E+00
    0.23215E-07        -0.79162E-20         0.00000E+00
    0.23502E-07        -0.41910E-20         0.00000E+00
    0.23781E-07        -0.34925E-20         0.00000E+00
    0.24050E-07        -0.11409E-19         0.00000E+00
    0.24309E-07        -0.58208E-20         0.00000E+00
    0.24559E-07         0.23283E-20         0.00000E+00
    0.24797E-07        -0.38417E-20         0.00000E+00
    0.25024E-07         0.52387E-20         0.00000E+00
    0.25238E-07        -0.11642E-20         0.00000E+00
    0.25440E-07        -0.29104E-20         0.00000E+00
    0.25629E-07         0.17695E-19         0.00000E+00
    0.25804E-07         0.22585E-19         0.00000E+00
    0.25965E-07         0.32946E-19         0.00000E+00
    0.26111E-07         0.41327E-19         0.00000E+00
    0.26242E-07         0.20606E-19         0.00000E+00
    0.26358E-07         0.20489E-19         0.00000E+00
    0.26457E-07         0.22701E-19         0.00000E+00
    0.26541E-07         0.10943E-19         0.00000E+00
    0.26608E-07         0.12806E-19         0.00000E+00
    0.26659E-07         0.12922E-19         0.00000E+00
    0.26693E-07         0.69849E-20         0.00000E+00
    0.26710E-07        -0.58208E-21         0.00000E+00
    0.57891E-08        -0.18626E-20         0.00000E+00
    0.57955E-08         0.13039E-19         0.00000E+00
    0.58083E-08         0.27474E-19         0.00000E+00
    0.58275E-08         0.20023E-19         0.00000E+00
    0.58530E-08         0.16531E-19         0.00000E+00
    0.58849E-08         0.24214E-19         0.00000E+00
    0.59233E-08         0.22817E-19         0.00000E+00
    0.59680E-08         0.23050E-19         0.00000E+00
    0.60192E-08         0.24447E-19         0.00000E+00
    0.60768E-08         0.22119E-19         0.00000E+00
    0.61408E-08         0.37486E-19         0.00000E+00
    0.62112E-08         0.44005E-19         0.00000E+00
    0.62881E-08         0.40745E-19         0.00000E+00
    0.63715E-08         0.29569E-19         0.00000E+00
    0.64614E-08         0.21420E-19         0.00000E+00
    0.65577E-08         0.16065E-19         0.00000E+00
    0.66605E-08         0.13737E-19         0.00000E+00
    0.67699E-08         0.34925E-20         0.00000E+00
    0.68857E-08         0.19325E-19         0.00000E+00
    0.70081E-08         0.30966E-19         0.00000E+00
    0.71371E-08         0.16531E-19         0.00000E+00
    0.72725E-08         0.26776E-19         0.00000E+00
    0.74146E-08         0.23050E-19         0.00000E+00
    0.75631E-08         0.16298E-19         0.00000E+00
    0.77183E-08        -0.11642E-20         0.00000E+00
    0.78799E-08        -0.11642E-19         0.00000E+00
    0.80482E-08        -0.67521E-20         0.00000E+00
    0.82229E-08         0.16065E-19         0.00000E+00
    0.84042E-08         0.28173E-19         0.00000E+00
    0.85921E-08         0.21420E-19         0.00000E+00
    0.87864E-08         0.21188E-19         0.00000E+00
    0.89872E-08        -0.10710E-19         0.00000E+00
    0.91944E-08        -0.20955E-20         0.00000E+00
    0.94081E-08         0.79162E-20         0.00000E+00
    0.96282E-08        -0.76834E-20         0.00000E+00
    0.98546E-08        -0.46566E-21         0.00000E+00
    0.10087E-07        -0.67521E-20         0.00000E+00
    0.10326E-07        -0.18626E-20         0.00000E+00
    0.10571E-07         0.65193E-20         0.00000E+00
    0.10822E-07         0.41910E-20         0.00000E+00
    0.11079E-07        -0.12340E-19         0.00000E+00
    0.11342E-07        -0.30035E-19         0.00000E+00
    0.11611E-07        -0.15832E-19         0.00000E+00
    0.11886E-07         0.27940E-20         0.00000E+00
    0.12166E-07         0.95461E-20         0.00000E+00
    0.12452E-07         0.41910E-20         0.00000E+00
    0.12742E-07        -0.16298E-20         0.00000E+00
    0.13038E-07        -0.19092E-19         0.00000E+00
    0.13339E-07        -0.20489E-19         0.00000E+00
    0.13645E-07        -0.23050E-19         0.00000E+00
    0.13955E-07        -0.20722E-19         0.00000E+00
    0.14270E-07        -0.14901E-19         0.00000E+00
    0.14589E-07        -0.74506E-20         0.00000E+00
    0.14912E-07        -0.23283E-20         0.00000E+00
    0.15238E-07        -0.12107E-19         0.00000E+00
    0.15568E-07        -0.16298E-19         0.00000E+00
    0.15901E-07        -0.14435E-19         0.00000E+00
    0.16236E-07        -0.16298E-19         0.00000E+00
    0.16575E-07        -0.22817E-19         0.00000E+00
    0.16915E-07        -0.20955E-19         0.00000E+00
    0.17257E-07        -0.12806E-19         0.00000E+00
    0.17600E-07        -0.22352E-19         0.00000E+00
    0.17945E-07        -0.24214E-19         0.00000E+00
    0.18290E-07        -0.15600E-19         0.00000E+00
    0.18635E-07        -0.74506E-20         0.00000E+00
    0.18980E-07        -0.51223E-20         0.00000E+00
    0.19325E-07         0.23283E-20         0.00000E+00
    0.19668E-07         0.86147E-20         0.00000E+00
    0.20010E-07        -0.69849E-20         0.00000E+00
    0.20349E-07        -0.83819E-20         0.00000E+00
    0.20686E-07        -0.41910E-20         0.00000E+00
    0.21019E-07        -0.15134E-19         0.00000E+00
    0.21349E-07        -0.14668E-19         0.00000E+00
    0.21674E-07         0.46566E-21         0.00000E+00
    0.21994E-07         0.46566E-20         0.00000E+00
    0.22309E-07        -0.39581E-20         0.00000E+00
    0.22618E-07        -0.74506E-20         0.00000E+00
    0.22920E-07        -0.93132E-21         0.00000E+00
    0.23215E-07         0.69849E-20         0.00000E+00
    0.23502E-07         0.20489E-19         0.00000E+00
    0.23781E-07         0.10477E-19         0.00000E+00
    0.24050E-07         0.12107E-19         0.00000E+00
    0.24309E-07         0.21886E-19         0.00000E+00
    0.24559E-07         0.15134E-20         0.00000E+00
    0.24797E-07        -0.87311E-20         0.00000E+00
    0.25024E-07        -0.12806E-19         0.00000E+00
    0.25238E-07         0.75670E-20         0.00000E+00
    0.25440E-07         0.19791E-19         0.00000E+00
    0.25629E-07         0.16298E-19         0.00000E+00
    0.25804E-07         0.23399E-19         0.00000E+00
    0.25965E-07         0.16298E-19         0.00000E+00
    0.26111E-07         0.50059E-20         0.00000E+00
    0.26242E-07         0.24564E-19         0.00000E+00
    0.26358E-07         0.21770E-19         0.00000E+00
    0.26457E-07         0.13155E-19         0.00000E+00
    0.26541E-07         0.28638E-19         0.00000E+00
    0.26608E-07         0.23283E-20         0.00000E+00
    0.26659E-07         0.18626E-20         0.00000E+00
    0.26693E-07         0.37253E-20         0.00000E+00
    0.26710E-07        -0.12456E-19         0.00000E+00
    0.57891E-08        -0.32596E-20         0.00000E+00
    0.57955E-08         0.17229E-19         0.00000E+00
    0.58083E-08         0.26776E-19         0.00000E+00
    0.58275E-08         0.11874E-19         0.00000E+00
    0.58530E-08         0.16997E-19         0.00000E+00
    0.58849E-08         0.20256E-19         0.00000E+00
    0.59233E-08         0.25379E-19         0.00000E+00
    0.59680E-08         0.41677E-19         0.00000E+00
    0.60192E-08         0.38417E-19         0.00000E+00
    0.60768E-08         0.12806E-19         0.00000E+00
    0.61408E-08         0.10477E-19         0.00000E+00
    0.62112E-08         0.20722E-19         0.00000E+00
    0.62881E-08         0.29569E-19         0.00000E+00
    0.63715E-08         0.24447E-19         0.00000E+00
    0.64614E-08         0.74506E-20         0.00000E+00
    0.65577E-08         0.11642E-20         0.00000E+00
    0.66605E-08         0.17695E-19         0.00000E+00
    0.67699E-08         0.34692E-19         0.00000E+00
    0.68857E-08         0.32363E-19         0.00000E+00
    0.70081E-08         0.35623E-19         0.00000E+00
    0.71371E-08         0.20256E-19         0.00000E+00
    0.72725E-08         0.19558E-19         0.00000E+00
    0.74146E-08         0.20256E-19         0.00000E+00
    0.75631E-08         0.95461E-20         0.00000E+00
    0.77183E-08        -0.69849E-21         0.00000E+00
    0.78799E-08         0.93132E-21         0.00000E+00
    0.80482E-08        -0.76834E-20         0.00000E+00
    0.82229E-08        -0.15600E-19         0.00000E+00
    0.84042E-08         0.93132E-20         0.00000E+00
    0.85921E-08        -0.16298E-20         0.00000E+00
    0.87864E-08        -0.53551E-20         0.00000E+00
    0.89872E-08        -0.79162E-20         0.00000E+00
    0.91944E-08        -0.22119E-19         0.00000E+00
    0.94081E-08        -0.90804E-20         0.00000E+00
    0.96282E-08         0.93132E-21         0.00000E+00
    0.98546E-08        -0.48894E-20         0.00000E+00
    0.10087E-07        -0.18626E-20         0.00000E+00
    0.10326E-07        -0.83819E-20         0.00000E+00
    0.10571E-07         0.11642E-20         0.00000E+00
    0.10822E-07         0.65193E-20         0.00000E+00
    0.11079E-07         0.60536E-20         0.00000E+00
    0.11342E-07         0.83819E-20         0.00000E+00
    0.11611E-07         0.25611E-20         0.00000E+00
    0.11886E-07        -0.74506E-20         0.00000E+00
    0.12166E-07        -0.39581E-20         0.00000E+00
    0.12452E-07        -0.51223E-20         0.00000E+00
    0.12742E-07        -0.10012E-19         0.00000E+00
    0.13038E-07        -0.69849E-21         0.00000E+00
    0.13339E-07        -0.16298E-20         0.00000E+00
    0.13645E-07        -0.16531E-19         0.00000E+00
    0.13955E-07        -0.13504E-19         0.00000E+00
    0.14270E-07        -0.14901E-19         0.00000E+00
    0.14589E-07        -0.28871E-19         0.00000E+00
    0.14912E-07        -0.25146E-19         0.00000E+00
    0.15238E-07        -0.25611E-19         0.00000E+00
    0.15568E-07        -0.10012E-19         0.00000E+00
    0.15901E-07         0.46566E-20         0.00000E+00
    0.16236E-07        -0.18394E-19         0.00000E+00
    0.16575E-07        -0.17928E-19         0.00000E+00
    0.16915E-07        -0.69849E-20         0.00000E+00
    0.17257E-07        -0.25611E-19         0.00000E+00
    0.17600E-07        -0.11409E-19         0.00000E+00
    0.17945E-07         0.41910E-20         0.00000E+00
    0.18290E-07        -0.60536E-20         0.00000E+00
    0.18635E-07        -0.10477E-19         0.00000E+00
    0.18980E-07        -0.69849E-20         0.00000E+00
    0.19325E-07        -0.23283E-20         0.00000E+00
    0.19668E-07         0.90804E-20         0.00000E+00
    0.20010E-07         0.39581E-20         0.00000E+00
    0.20349E-07         0.23283E-20         0.00000E+00
    0.20686E-07         0.16298E-20         0.00000E+00
    0.21019E-07        -0.17695E-19         0.00000E+00
    0.21349E-07         0.23283E-20         0.00000E+00
    0.21674E-07         0.14901E-19         0.00000E+00
    0.21994E-07         0.97789E-20         0.00000E+00
    0.22309E-07         0.17462E-19         0.00000E+00
    0.22618E-07         0.00000E+00         0.00000E+00
    0.22920E-07         0.46566E-21         0.00000E+00
    0.23215E-07         0.10245E-19         0.00000E+00
    0.23502E-07         0.11642E-19         0.00000E+00
    0.23781E-07         0.51223E-20         0.00000E+00
    0.24050E-07         0.48894E-20         0.00000E+00
    0.24309E-07        -0.12806E-20         0.00000E+00
    0.24559E-07        -0.60536E-20         0.00000E+00
    0.24797E-07        -0.31432E-20         0.00000E+00
    0.25024E-07        -0.33760E-20         0.00000E+00
    0.25238E-07         0.34925E-21         0.00000E+00
    0.25440E-07         0.10128E-19         0.00000E+00
    0.25629E-07         0.13737E-19         0.00000E+00
    0.25804E-07         0.20838E-19         0.00000E+00
    0.25965E-07         0.27125E-19         0.00000E+00
    0.26111E-07         0.33644E-19         0.00000E+00
    0.26242E-07         0.35740E-19         0.00000E+00
    0.26358E-07         0.29220E-19         0.00000E+00
    0.26457E-07         0.14552E-19         0.00000E+00
    0.26541E-07        -0.12107E-19         0.00000E+00
    0.26608E-07         0.86147E-20         0.00000E+00
    0.26659E-07         0.12573E-19         0.00000E+00
    0.26693E-07        -0.39581E-20         0.00000E+00
    0.26710E-07         0.16298E-20         0.00000E+00
    0.57891E-08         0.51223E-20         0.00000E+00
    0.57955E-08         0.46566E-20         0.00000E+00
    0.58083E-08         0.16531E-19         0.00000E+00
    0.58275E-08         0.27940E-19         0.00000E+00
    0.58530E-08         0.21188E-19         0.00000E+00
    0.58849E-08         0.88476E-20         0.00000E+00
    0.59233E-08         0.15832E-19         0.00000E+00
    0.59680E-08         0.27241E-19         0.00000E+00
    0.60192E-08         0.28405E-19         0.00000E+00
    0.60768E-08         0.33062E-19         0.00000E+00
    0.61408E-08         0.18394E-19         0.00000E+00
    0.62112E-08         0.12806E-19         0.00000E+00
    0.62881E-08         0.31432E-19         0.00000E+00
    0.63715E-08         0.23516E-19         0.00000E+00
    0.64614E-08         0.30035E-19         0.00000E+00
    0.65577E-08         0.88476E-20         0.00000E+00
    0.66605E-08         0.48894E-20         0.00000E+00
    0.67699E-08         0.26310E-19         0.00000E+00
    0.68857E-08         0.30501E-19         0.00000E+00
    0.70081E-08         0.11874E-19         0.00000E+00
    0.71371E-08         0.10477E-19         0.00000E+00
    0.72725E-08         0.17229E-19         0.00000E+00
    0.74146E-08         0.18394E-19         0.00000E+00
    0.75631E-08         0.13737E-19         0.00000E+00
    0.77183E-08         0.13039E-19         0.00000E+00
    0.78799E-08         0.16065E-19         0.00000E+00
    0.80482E-08        -0.53551E-20         0.00000E+00
    0.82229E-08        -0.15832E-19         0.00000E+00
    0.84042E-08        -0.23283E-20         0.00000E+00
    0.85921E-08         0.23283E-20         0.00000E+00
    0.87864E-08         0.14435E-19         0.00000E+00
    0.89872E-08        -0.51223E-20         0.00000E+00
    0.91944E-08        -0.22585E-19         0.00000E+00
    0.94081E-08        -0.69849E-20         0.00000E+00
    0.96282E-08        -0.65193E-20         0.00000E+00
    0.98546E-08        -0.39581E-20         0.00000E+00
    0.10087E-07         0.44238E-20         0.00000E+00
    0.10326E-07        -0.12573E-19         0.00000E+00
    0.10571E-07        -0.21188E-19         0.00000E+00
    0.10822E-07         0.32596E-20         0.00000E+00
    0.11079E-07         0.10245E-19         0.00000E+00
    0.11342E-07        -0.11642E-20         0.00000E+00
    0.11611E-07        -0.25146E-19         0.00000E+00
    0.11886E-07        -0.19092E-19         0.00000E+00
    0.12166E-07        -0.88476E-20         0.00000E+00
    0.12452E-07        -0.95461E-20         0.00000E+00
    0.12742E-07         0.86147E-20         0.00000E+00
    0.13038E-07        -0.37253E-20         0.00000E+00
    0.13339E-07        -0.29337E-19         0.00000E+00
    0.13645E-07        -0.22817E-19         0.00000E+00
    0.13955E-07        -0.11176E-19         0.00000E+00
    0.14270E-07        -0.16298E-19         0.00000E+00
    0.14589E-07        -0.30268E-20         0.00000E+00
    0.14912E-07        -0.18626E-19         0.00000E+00
    0.15238E-07        -0.15367E-19         0.00000E+00
    0.15568E-07        -0.93132E-20         0.00000E+00
    0.15901E-07        -0.16764E-19         0.00000E+00
    0.16236E-07        -0.10245E-19         0.00000E+00
    0.16575E-07        -0.10012E-19         0.00000E+00
    0.16915E-07        -0.23283E-21         0.00000E+00
    0.17257E-07        -0.34925E-20         0.00000E+00
    0.17600E-07        -0.69849E-20         0.00000E+00
    0.17945E-07        -0.69849E-20         0.00000E+00
    0.18290E-07        -0.86147E-20         0.00000E+00
    0.18635E-07        -0.11642E-19         0.00000E+00
    0.18980E-07        -0.11176E-19         0.00000E+00
    0.19325E-07         0.34925E-20         0.00000E+00
    0.19668E-07         0.93132E-20         0.00000E+00
    0.20010E-07         0.25611E-20         0.00000E+00
    0.20349E-07         0.37253E-20         0.00000E+00
    0.20686E-07        -0.23283E-21         0.00000E+00
    0.21019E-07        -0.60536E-20         0.00000E+00
    0.21349E-07        -0.10943E-19         0.00000E+00
    0.21674E-07        -0.19092E-19         0.00000E+00
    0.21994E-07        -0.41910E-20         0.00000E+00
    0.22309E-07         0.62864E-20         0.00000E+00
    0.22618E-07         0.13504E-19         0.00000E+00
    0.22920E-07         0.10710E-19         0.00000E+00
    0.23215E-07         0.19092E-19         0.00000E+00
    0.23502E-07         0.20955E-19         0.00000E+00
    0.23781E-07         0.10012E-19         0.00000E+00
    0.24050E-07         0.44238E-20         0.00000E+00
    0.24309E-07        -0.32596E-20         0.00000E+00
    0.24559E-07        -0.57044E-20         0.00000E+00
    0.24797E-07         0.22119E-20         0.00000E+00
    0.25024E-07         0.55879E-20         0.00000E+00
    0.25238E-07         0.93132E-21         0.00000E+00
    0.25440E-07         0.12224E-19         0.00000E+00
    0.25629E-07         0.18044E-19         0.00000E+00
    0.25804E-07         0.82655E-20         0.00000E+00
    0.25965E-07         0.13970E-20         0.00000E+00
    0.26111E-07         0.50059E-20         0.00000E+00
    0.26242E-07         0.31781E-19         0.00000E+00
    0.26358E-07         0.33877E-19         0.00000E+00
    0.26457E-07         0.10710E-19         0.00000E+00
    0.26541E-07         0.67521E-20         0.00000E+00
    0.26608E-07        -0.81491E-21         0.00000E+00
    0.26659E-07        -0.69849E-21         0.00000E+00
    0.26693E-07         0.46566E-20         0.00000E+00
    0.26710E-07         0.22119E-20         0.00000E+00
    0.57891E-08        -0.10245E-19         0.00000E+00
    0.57955E-08        -0.51223E-20         0.00000E+00
    0.58083E-08         0.22352E-19         0.00000E+00
    0.58275E-08         0.20256E-19         0.00000E+00
    0.58530E-08         0.18394E-19         0.00000E+00
    0.58849E-08         0.24913E-19         0.00000E+00
    0.59233E-08         0.25844E-19         0.00000E+00
    0.59680E-08         0.23050E-19         0.00000E+00
    0.60192E-08         0.24447E-19         0.00000E+00
    0.60768E-08         0.21420E-19         0.00000E+00
    0.61408E-08         0.13504E-19         0.00000E+00
    0.62112E-08         0.14203E-19         0.00000E+00
    0.62881E-08         0.72177E-20         0.00000E+00
    0.63715E-08         0.22119E-19         0.00000E+00
    0.64614E-08         0.30966E-19         0.00000E+00
    0.65577E-08         0.11874E-19         0.00000E+00
    0.66605E-08         0.76834E-20         0.00000E+00
    0.67699E-08         0.19558E-19         0.00000E+00
    0.68857E-08         0.31432E-19         0.00000E+00
    0.70081E-08         0.30966E-19         0.00000E+00
    0.71371E-08         0.10012E-19         0.00000E+00
    0.72725E-08         0.18161E-19         0.00000E+00
    0.74146E-08         0.14203E-19         0.00000E+00
    0.75631E-08        -0.65193E-20         0.00000E+00
    0.77183E-08         0.18859E-19         0.00000E+00
    0.78799E-08         0.17462E-19         0.00000E+00
    0.80482E-08        -0.16298E-20         0.00000E+00
    0.82229E-08        -0.18626E-20         0.00000E+00
    0.84042E-08        -0.12107E-19         0.00000E+00
    0.85921E-08         0.13970E-20         0.00000E+00
    0.87864E-08         0.32596E-20         0.00000E+00
    0.89872E-08        -0.14435E-19         0.00000E+00
    0.91944E-08        -0.33295E-19         0.00000E+00
    0.94081E-08        -0.32829E-19         0.00000E+00
    0.96282E-08        -0.10245E-19         0.00000E+00
    0.98546E-08        -0.81491E-20         0.00000E+00
    0.10087E-07        -0.26077E-19         0.00000E+00
    0.10326E-07        -0.29802E-19         0.00000E+00
    0.10571E-07        -0.32596E-20         0.00000E+00
    0.10822E-07         0.41910E-20         0.00000E+00
    0.11079E-07         0.32596E-20         0.00000E+00
    0.11342E-07         0.10012E-19         0.00000E+00
    0.11611E-07         0.34925E-20         0.00000E+00
    0.11886E-07        -0.46566E-20         0.00000E+00
    0.12166E-07        -0.10943E-19         0.00000E+00
    0.12452E-07        -0.72177E-20         0.00000E+00
    0.12742E-07        -0.14203E-19         0.00000E+00
    0.13038E-07        -0.16298E-19         0.00000E+00
    0.13339E-07        -0.16997E-19         0.00000E+00
    0.13645E-07        -0.20722E-19         0.00000E+00
    0.13955E-07        -0.29337E-19         0.00000E+00
    0.14270E-07        -0.88476E-20         0.00000E+00
    0.14589E-07         0.46566E-20         0.00000E+00
    0.14912E-07        -0.17695E-19         0.00000E+00
    0.15238E-07        -0.83819E-20         0.00000E+00
    0.15568E-07        -0.79162E-20         0.00000E+00
    0.15901E-07        -0.29104E-19         0.00000E+00
    0.16236E-07        -0.26077E-19         0.00000E+00
    0.16575E-07        -0.22585E-19         0.00000E+00
    0.16915E-07        -0.11176E-19         0.00000E+00
    0.17257E-07         0.97789E-20         0.00000E+00
    0.17600E-07         0.48894E-20         0.00000E+00
    0.17945E-07        -0.13504E-19         0.00000E+00
    0.18290E-07        -0.76834E-20         0.00000E+00
    0.18635E-07        -0.67521E-20         0.00000E+00
    0.18980E-07         0.60536E-20         0.00000E+00
    0.19325E-07         0.81491E-20         0.00000E+00
    0.19668E-07        -0.41910E-20         0.00000E+00
    0.20010E-07         0.74506E-20         0.00000E+00
    0.20349E-07        -0.13970E-19         0.00000E+00
    0.20686E-07        -0.20489E-19         0.00000E+00
    0.21019E-07        -0.58208E-20         0.00000E+00
    0.21349E-07        -0.81491E-20         0.00000E+00
    0.21674E-07        -0.60536E-20         0.00000E+00
    0.21994E-07        -0.12107E-19         0.00000E+00
    0.22309E-07        -0.14668E-19         0.00000E+00
    0.22618E-07        -0.18808E-36         0.00000E+00
    0.22920E-07         0.19092E-19         0.00000E+00
    0.23215E-07         0.21420E-19         0.00000E+00
    0.23502E-07         0.22352E-19         0.00000E+00
    0.23781E-07         0.32363E-19         0.00000E+00
    0.24050E-07         0.16298E-20         0.00000E+00
    0.24309E-07        -0.13039E-19         0.00000E+00
    0.24559E-07        -0.69849E-20         0.00000E+00
    0.24797E-07         0.77998E-20         0.00000E+00
    0.25024E-07         0.80327E-20         0.00000E+00
    0.25238E-07         0.13970E-20         0.00000E+00
    0.25440E-07         0.45402E-20         0.00000E+00
    0.25629E-07         0.15716E-19         0.00000E+00
    0.25804E-07         0.21537E-19         0.00000E+00
    0.25965E-07         0.19325E-19         0.00000E+00
    0.26111E-07         0.26310E-19         0.00000E+00
    0.26242E-07         0.25029E-19         0.00000E+00
    0.26358E-07         0.19441E-19         0.00000E+00
    0.26457E-07         0.84983E-20         0.00000E+00
    0.26541E-07         0.55879E-20         0.00000E+00
    0.26608E-07         0.60536E-20         0.00000E+00
    0.26659E-07         0.54715E-20         0.00000E+00
    0.26693E-07         0.11176E-19         0.00000E+00
    0.26710E-07         0.26776E-20         0.00000E+00
    0.57891E-08         0.22352E-19         0.00000E+00
    0.57955E-08         0.26077E-19         0.00000E+00
    0.58083E-08         0.15600E-19         0.00000E+00
    0.58275E-08         0.11874E-19         0.00000E+00
    0.58530E-08         0.81491E-20         0.00000E+00
    0.58849E-08         0.23283E-21         0.00000E+00
    0.59233E-08         0.81491E-20         0.00000E+00
    0.59680E-08         0.24913E-19         0.00000E+00
    0.60192E-08         0.29802E-19         0.00000E+00
    0.60768E-08         0.19791E-19         0.00000E+00
    0.61408E-08         0.20722E-19         0.00000E+00
    0.62112E-08         0.20256E-19         0.00000E+00
    0.62881E-08         0.25844E-19         0.00000E+00
    0.63715E-08         0.44005E-19         0.00000E+00
    0.64614E-08         0.18161E-19         0.00000E+00
    0.65577E-08         0.16531E-19         0.00000E+00
    0.66605E-08         0.19092E-19         0.00000E+00
    0.67699E-08         0.13039E-19         0.00000E+00
    0.68857E-08         0.10943E-19         0.00000E+00
    0.70081E-08         0.11642E-20         0.00000E+00
    0.71371E-08         0.17229E-19         0.00000E+00
    0.72725E-08         0.14435E-19         0.00000E+00
    0.74146E-08         0.13271E-19         0.00000E+00
    0.75631E-08         0.12806E-19         0.00000E+00
    0.77183E-08         0.51223E-20         0.00000E+00
    0.78799E-08         0.55879E-20         0.00000E+00
    0.80482E-08        -0.13970E-19         0.00000E+00
    0.82229E-08        -0.23982E-19         0.00000E+00
    0.84042E-08        -0.90804E-20         0.00000E+00
    0.85921E-08         0.46566E-21         0.00000E+00
    0.87864E-08        -0.30268E-20         0.00000E+00
    0.89872E-08        -0.27940E-20         0.00000E+00
    0.91944E-08        -0.11176E-19         0.00000E+00
    0.94081E-08        -0.10477E-19         0.00000E+00
    0.96282E-08         0.93132E-21         0.00000E+00
    0.98546E-08        -0.93132E-20         0.00000E+00
    0.10087E-07        -0.23749E-19         0.00000E+00
    0.10326E-07        -0.97789E-20         0.00000E+00
    0.10571E-07         0.13970E-20         0.00000E+00
    0.10822E-07         0.25611E-20         0.00000E+00
    0.11079E-07         0.93132E-20         0.00000E+00
    0.11342E-07         0.51223E-20         0.00000E+00
    0.11611E-07         0.93132E-21         0.00000E+00
    0.11886E-07        -0.25611E-20         0.00000E+00
    0.12166E-07        -0.15367E-19         0.00000E+00
    0.12452E-07        -0.34925E-20         0.00000E+00
    0.12742E-07        -0.86147E-20         0.00000E+00
    0.13038E-07        -0.39116E-19         0.00000E+00
    0.13339E-07        -0.34925E-19         0.00000E+00
    0.13645E-07        -0.13271E-19         0.00000E+00
    0.13955E-07        -0.10710E-19         0.00000E+00
    0.14270E-07        -0.15367E-19         0.00000E+00
    0.14589E-07        -0.13039E-19         0.00000E+00
    0.14912E-07        -0.10245E-19         0.00000E+00
    0.15238E-07        -0.20023E-19         0.00000E+00
    0.15568E-07        -0.16298E-19         0.00000E+00
    0.15901E-07        -0.18394E-19         0.00000E+00
    0.16236E-07        -0.40745E-19         0.00000E+00
    0.16575E-07        -0.20256E-19         0.00000E+00
    0.16915E-07        -0.12806E-19         0.00000E+00
    0.17257E-07        -0.23516E-19         0.00000E+00
    0.17600E-07        -0.46566E-20         0.00000E+00
    0.17945E-07         0.93132E-20         0.00000E+00
    0.18290E-07         0.76834E-20         0.00000E+00
    0.18635E-07        -0.11642E-20         0.00000E+00
    0.18980E-07        -0.23283E-20         0.00000E+00
    0.19325E-07        -0.37253E-20         0.00000E+00
    0.19668E-07        -0.34925E-20         0.00000E+00
    0.20010E-07         0.32596E-20         0.00000E+00
    0.20349E-07        -0.88476E-20         0.00000E+00
    0.20686E-07        -0.30734E-19         0.00000E+00
    0.21019E-07        -0.10477E-19         0.00000E+00
    0.21349E-07        -0.76834E-20         0.00000E+00
    0.21674E-07        -0.10245E-19         0.00000E+00
    0.21994E-07         0.14435E-19         0.00000E+00
    0.22309E-07         0.34925E-20         0.00000E+00
    0.22618E-07        -0.10245E-19         0.00000E+00
    0.22920E-07        -0.60536E-20         0.00000E+00
    0.23215E-07         0.15367E-19         0.00000E+00
    0.23502E-07         0.20955E-19         0.00000E+00
    0.23781E-07         0.25611E-19         0.00000E+00
    0.24050E-07         0.19325E-19         0.00000E+00
    0.24309E-07         0.32596E-20         0.00000E+00
    0.24559E-07        -0.46566E-20         0.00000E+00
    0.24797E-07        -0.13970E-20         0.00000E+00
    0.25024E-07         0.53551E-20         0.00000E+00
    0.25238E-07        -0.61700E-20         0.00000E+00
    0.25440E-07        -0.46566E-20         0.00000E+00
    0.25629E-07        -0.81491E-21         0.00000E+00
    0.25804E-07         0.24564E-19         0.00000E+00
    0.25965E-07         0.25844E-19         0.00000E+00
    0.26111E-07         0.12806E-19         0.00000E+00
    0.26242E-07         0.12806E-19         0.00000E+00
    0.26358E-07         0.10128E-19         0.00000E+00
    0.26457E-07         0.26077E-19         0.00000E+00
    0.26541E-07         0.27707E-19         0.00000E+00
    0.26608E-07         0.19674E-19         0.00000E+00
    0.26659E-07         0.88476E-20         0.00000E+00
    0.26693E-07         0.13970E-20         0.00000E+00
    0.26710E-07         0.22119E-20         0.00000E+00
    0.57891E-08         0.23283E-20         0.00000E+00
    0.57955E-08        -0.93132E-21         0.00000E+00
    0.58083E-08         0.13271E-19         0.00000E+00
    0.58275E-08         0.31665E-19         0.00000E+00
    0.58530E-08         0.25379E-19         0.00000E+00
    0.58849E-08         0.34692E-19         0.00000E+00
    0.59233E-08         0.45635E-19         0.00000E+00
    0.59680E-08         0.35623E-19         0.00000E+00
    0.60192E-08         0.44238E-19         0.00000E+00
    0.60768E-08         0.33760E-19         0.00000E+00
    0.61408E-08         0.28173E-19         0.00000E+00
    0.62112E-08         0.19092E-19         0.00000E+00
    0.62881E-08         0.26543E-19         0.00000E+00
    0.63715E-08         0.21188E-19         0.00000E+00
    0.64614E-08         0.30268E-20         0.00000E+00
    0.65577E-08         0.16065E-19         0.00000E+00
    0.66605E-08         0.20722E-19         0.00000E+00
    0.67699E-08         0.16997E-19         0.00000E+00
    0.68857E-08         0.26776E-19         0.00000E+00
    0.70081E-08         0.24447E-19         0.00000E+00
    0.71371E-08         0.23982E-19         0.00000E+00
    0.72725E-08         0.21886E-19         0.00000E+00
    0.74146E-08         0.16764E-19         0.00000E+00
    0.75631E-08         0.16531E-19         0.00000E+00
    0.77183E-08         0.10477E-19         0.00000E+00
    0.78799E-08         0.13970E-20         0.00000E+00
    0.80482E-08         0.90804E-20         0.00000E+00
    0.82229E-08         0.58208E-20         0.00000E+00
    0.84042E-08        -0.13737E-19         0.00000E+00
    0.85921E-08        -0.13504E-19         0.00000E+00
    0.87864E-08        -0.15367E-19         0.00000E+00
    0.89872E-08        -0.28405E-19         0.00000E+00
    0.91944E-08        -0.14435E-19         0.00000E+00
    0.94081E-08        -0.60536E-20         0.00000E+00
    0.96282E-08        -0.95461E-20         0.00000E+00
    0.98546E-08        -0.79162E-20         0.00000E+00
    0.10087E-07        -0.21653E-19         0.00000E+00
    0.10326E-07        -0.25379E-19         0.00000E+00
    0.10571E-07        -0.83819E-20         0.00000E+00
    0.10822E-07         0.69849E-21         0.00000E+00
    0.11079E-07         0.93132E-21         0.00000E+00
    0.11342E-07         0.95461E-20         0.00000E+00
    0.11611E-07        -0.27940E-20         0.00000E+00
    0.11886E-07        -0.16298E-20         0.00000E+00
    0.12166E-07        -0.69849E-21         0.00000E+00
    0.12452E-07        -0.13039E-19         0.00000E+00
    0.12742E-07        -0.22585E-19         0.00000E+00
    0.13038E-07        -0.29802E-19         0.00000E+00
    0.13339E-07        -0.27008E-19         0.00000E+00
    0.13645E-07        -0.14668E-19         0.00000E+00
    0.13955E-07        -0.23283E-20         0.00000E+00
    0.14270E-07         0.60536E-20         0.00000E+00
    0.14589E-07        -0.15832E-19         0.00000E+00
    0.14912E-07        -0.11176E-19         0.00000E+00
    0.15238E-07         0.11176E-19         0.00000E+00
    0.15568E-07        -0.76834E-20         0.00000E+00
    0.15901E-07        -0.83819E-20         0.00000E+00
    0.16236E-07        -0.10710E-19         0.00000E+00
    0.16575E-07        -0.37253E-20         0.00000E+00
    0.16915E-07         0.69849E-21         0.00000E+00
    0.17257E-07        -0.14435E-19         0.00000E+00
    0.17600E-07        -0.19558E-19         0.00000E+00
    0.17945E-07        -0.25611E-19         0.00000E+00
    0.18290E-07        -0.13504E-19         0.00000E+00
    0.18635E-07         0.13039E-19         0.00000E+00
    0.18980E-07        -0.67521E-20         0.00000E+00
    0.19325E-07        -0.27940E-19         0.00000E+00
    0.19668E-07        -0.20722E-19         0.00000E+00
    0.20010E-07        -0.97789E-20         0.00000E+00
    0.20349E-07        -0.51223E-20         0.00000E+00
    0.20686E-07         0.46566E-21         0.00000E+00
    0.21019E-07        -0.81491E-20         0.00000E+00
    0.21349E-07        -0.16764E-19         0.00000E+00
    0.21674E-07        -0.11176E-19         0.00000E+00
    0.21994E-07        -0.14435E-19         0.00000E+00
    0.22309E-07         0.62864E-20         0.00000E+00
    0.22618E-07         0.93132E-20         0.00000E+00
    0.22920E-07        -0.18626E-20         0.00000E+00
    0.23215E-07         0.86147E-20         0.00000E+00
    0.23502E-07        -0.69849E-21         0.00000E+00
    0.23781E-07         0.34925E-20         0.00000E+00
    0.24050E-07         0.23283E-21         0.00000E+00
    0.24309E-07        -0.19441E-19         0.00000E+00
    0.24559E-07        -0.12107E-19         0.00000E+00
    0.24797E-07        -0.39581E-20         0.00000E+00
    0.25024E-07         0.69849E-20         0.00000E+00
    0.25238E-07        -0.79162E-20         0.00000E+00
    0.25440E-07        -0.15832E-19         0.00000E+00
    0.25629E-07         0.23283E-21         0.00000E+00
    0.25804E-07         0.15250E-19         0.00000E+00
    0.25965E-07         0.38301E-19         0.00000E+00
    0.26111E-07         0.29453E-19         0.00000E+00
    0.26242E-07         0.90804E-20         0.00000E+00
    0.26358E-07         0.13271E-19         0.00000E+00
    0.26457E-07         0.17812E-19         0.00000E+00
    0.26541E-07         0.17229E-19         0.00000E+00
    0.26608E-07         0.16298E-19         0.00000E+00
    0.26659E-07         0.13621E-19         0.00000E+00
    0.26693E-07         0.11642E-20         0.00000E+00
    0.26710E-07        -0.75670E-20         0.00000E+00
    0.57891E-08         0.74506E-20         0.00000E+00
    0.57955E-08         0.18626E-20         0.00000E+00
    0.58083E-08        -0.16298E-20         0.00000E+00
    0.58275E-08         0.72177E-20         0.00000E+00
    0.58530E-08         0.16764E-19         0.00000E+00
    0.58849E-08         0.31898E-19         0.00000E+00
    0.59233E-08         0.27241E-19         0.00000E+00
    0.59680E-08         0.14668E-19         0.00000E+00
    0.60192E-08         0.22119E-19         0.00000E+00
    0.60768E-08         0.35623E-19         0.00000E+00
    0.61408E-08         0.20256E-19         0.00000E+00
    0.62112E-08         0.19325E-19         0.00000E+00
    0.62881E-08         0.28173E-19         0.00000E+00
    0.63715E-08         0.19325E-19         0.00000E+00
    0.64614E-08        -0.34925E-20         0.00000E+00
    0.65577E-08         0.81491E-20         0.00000E+00
    0.66605E-08         0.23982E-19         0.00000E+00
    0.67699E-08         0.26776E-19         0.00000E+00
    0.68857E-08         0.32131E-19         0.00000E+00
    0.70081E-08         0.19092E-19         0.00000E+00
    0.71371E-08         0.58208E-20         0.00000E+00
    0.72725E-08         0.93132E-21         0.00000E+00
    0.74146E-08         0.13271E-19         0.00000E+00
    0.75631E-08         0.25844E-19         0.00000E+00
    0.77183E-08         0.24913E-19         0.00000E+00
    0.78799E-08         0.26543E-19         0.00000E+00
    0.80482E-08         0.17928E-19         0.00000E+00
    0.82229E-08        -0.12806E-19         0.00000E+00
    0.84042E-08        -0.48894E-20         0.00000E+00
    0.85921E-08         0.30268E-20         0.00000E+00
    0.87864E-08        -0.17462E-19         0.00000E+00
    0.89872E-08        -0.13039E-19         0.00000E+00
    0.91944E-08        -0.65193E-20         0.00000E+00
    0.94081E-08        -0.46566E-21         0.00000E+00
    0.96282E-08        -0.51223E-20         0.00000E+00
    0.98546E-08        -0.41910E-20         0.00000E+00
    0.10087E-07        -0.93132E-21         0.00000E+00
    0.10326E-07        -0.13504E-19         0.00000E+00
    0.10571E-07        -0.20955E-19         0.00000E+00
    0.10822E-07        -0.90804E-20         0.00000E+00
    0.11079E-07        -0.53551E-20         0.00000E+00
    0.11342E-07         0.13504E-19         0.00000E+00
    0.11611E-07         0.16764E-19         0.00000E+00
    0.11886E-07        -0.10012E-19         0.00000E+00
    0.12166E-07        -0.93132E-20         0.00000E+00
    0.12452E-07        -0.48894E-20         0.00000E+00
    0.12742E-07         0.34925E-20         0.00000E+00
    0.13038E-07        -0.83819E-20         0.00000E+00
    0.13339E-07        -0.23283E-20         0.00000E+00
    0.13645E-07         0.14668E-19         0.00000E+00
    0.13955E-07        -0.10245E-19         0.00000E+00
    0.14270E-07        -0.18626E-19         0.00000E+00
    0.14589E-07        -0.51223E-20         0.00000E+00
    0.14912E-07         0.37253E-20         0.00000E+00
    0.15238E-07         0.65193E-20         0.00000E+00
    0.15568E-07        -0.67521E-20         0.00000E+00
    0.15901E-07        -0.11874E-19         0.00000E+00
    0.16236E-07         0.44238E-20         0.00000E+00
    0.16575E-07        -0.14203E-19         0.00000E+00
    0.16915E-07        -0.26776E-19         0.00000E+00
    0.17257E-07        -0.25611E-20         0.00000E+00
    0.17600E-07         0.93132E-20         0.00000E+00
    0.17945E-07        -0.27940E-20         0.00000E+00
    0.18290E-07         0.44238E-20         0.00000E+00
    0.18635E-07         0.72177E-20         0.00000E+00
    0.18980E-07        -0.16764E-19         0.00000E+00
    0.19325E-07        -0.15832E-19         0.00000E+00
    0.19668E-07        -0.13271E-19         0.00000E+00
    0.20010E-07        -0.46566E-20         0.00000E+00
    0.20349E-07        -0.69849E-20         0.00000E+00
    0.20686E-07        -0.55879E-20         0.00000E+00
    0.21019E-07        -0.14203E-19         0.00000E+00
    0.21349E-07        -0.26310E-19         0.00000E+00
    0.21674E-07        -0.23283E-19         0.00000E+00
    0.21994E-07        -0.22119E-19         0.00000E+00
    0.22309E-07        -0.46566E-20         0.00000E+00
    0.22618E-07         0.60536E-20         0.00000E+00
    0.22920E-07         0.51223E-20         0.00000E+00
    0.23215E-07         0.88476E-20         0.00000E+00
    0.23502E-07         0.93132E-20         0.00000E+00
    0.23781E-07         0.13970E-20         0.00000E+00
    0.24050E-07        -0.53551E-20         0.00000E+00
    0.24309E-07        -0.52387E-20         0.00000E+00
    0.24559E-07        -0.38417E-20         0.00000E+00
    0.24797E-07         0.47730E-20         0.00000E+00
    0.25024E-07        -0.74506E-20         0.00000E+00
    0.25238E-07        -0.16531E-19         0.00000E+00
    0.25440E-07        -0.44238E-20         0.00000E+00
    0.25629E-07         0.61700E-20         0.00000E+00
    0.25804E-07         0.25728E-19         0.00000E+00
    0.25965E-07         0.22002E-19         0.00000E+00
    0.26111E-07         0.28638E-19         0.00000E+00
    0.26242E-07         0.20489E-19         0.00000E+00
    0.26358E-07         0.55879E-20         0.00000E+00
    0.26457E-07         0.14086E-19         0.00000E+00
    0.26541E-07         0.10477E-19         0.00000E+00
    0.26608E-07         0.57044E-20         0.00000E+00
    0.26659E-07        -0.50059E-20         0.00000E+00
    0.26693E-07        -0.39581E-20         0.00000E+00
    0.26710E-07         0.27940E-20         0.00000E+00
    0.57891E-08        -0.13970E-20         0.00000E+00
    0.57955E-08         0.41910E-20         0.00000E+00
    0.58083E-08         0.13737E-19         0.00000E+00
    0.58275E-08         0.12340E-19         0.00000E+00
    0.58530E-08         0.12806E-19         0.00000E+00
    0.58849E-08         0.21653E-19         0.00000E+00
    0.59233E-08         0.17229E-19         0.00000E+00
    0.59680E-08         0.24680E-19         0.00000E+00
    0.60192E-08         0.26776E-19         0.00000E+00
    0.60768E-08         0.24447E-19         0.00000E+00
    0.61408E-08         0.22585E-19         0.00000E+00
    0.62112E-08         0.19791E-19         0.00000E+00
    0.62881E-08         0.30966E-19         0.00000E+00
    0.63715E-08         0.30035E-19         0.00000E+00
    0.64614E-08         0.13970E-19         0.00000E+00
    0.65577E-08         0.65193E-20         0.00000E+00
    0.66605E-08         0.39581E-20         0.00000E+00
    0.67699E-08         0.25611E-20         0.00000E+00
    0.68857E-08         0.23516E-19         0.00000E+00
    0.70081E-08         0.90804E-20         0.00000E+00
    0.71371E-08         0.86147E-20         0.00000E+00
    0.72725E-08         0.18626E-19         0.00000E+00
    0.74146E-08         0.24214E-19         0.00000E+00
    0.75631E-08         0.25611E-19         0.00000E+00
    0.77183E-08         0.14203E-19         0.00000E+00
    0.78799E-08         0.26543E-19         0.00000E+00
    0.80482E-08         0.23283E-19         0.00000E+00
    0.82229E-08        -0.58208E-20         0.00000E+00
    0.84042E-08         0.53551E-20         0.00000E+00
    0.85921E-08        -0.46566E-21         0.00000E+00
    0.87864E-08        -0.30966E-19         0.00000E+00
    0.89872E-08        -0.22352E-19         0.00000E+00
    0.91944E-08        -0.67521E-20         0.00000E+00
    0.94081E-08        -0.10710E-19         0.00000E+00
    0.96282E-08        -0.51223E-20         0.00000E+00
    0.98546E-08         0.23283E-20         0.00000E+00
    0.10087E-07        -0.13504E-19         0.00000E+00
    0.10326E-07        -0.13504E-19         0.00000E+00
    0.10571E-07        -0.86147E-20         0.00000E+00
    0.10822E-07        -0.18626E-20         0.00000E+00
    0.11079E-07        -0.34925E-20         0.00000E+00
    0.11342E-07         0.58208E-20         0.00000E+00
    0.11611E-07         0.15600E-19         0.00000E+00
    0.11886E-07        -0.13970E-20         0.00000E+00
    0.12166E-07         0.13970E-20         0.00000E+00
    0.12452E-07         0.81491E-20         0.00000E+00
    0.12742E-07        -0.17229E-19         0.00000E+00
    0.13038E-07        -0.20023E-19         0.00000E+00
    0.13339E-07        -0.11642E-20         0.00000E+00
    0.13645E-07         0.16298E-20         0.00000E+00
    0.13955E-07        -0.83819E-20         0.00000E+00
    0.14270E-07        -0.14203E-19         0.00000E+00
    0.14589E-07        -0.93132E-20         0.00000E+00
    0.14912E-07         0.10245E-19         0.00000E+00
    0.15238E-07         0.32596E-20         0.00000E+00
    0.15568E-07        -0.46566E-20         0.00000E+00
    0.15901E-07         0.60536E-20         0.00000E+00
    0.16236E-07        -0.30268E-20         0.00000E+00
    0.16575E-07        -0.16065E-19         0.00000E+00
    0.16915E-07        -0.25611E-20         0.00000E+00
    0.17257E-07        -0.44238E-20         0.00000E+00
    0.17600E-07         0.46566E-21         0.00000E+00
    0.17945E-07         0.13970E-19         0.00000E+00
    0.18290E-07         0.12107E-19         0.00000E+00
    0.18635E-07        -0.12573E-19         0.00000E+00
    0.18980E-07        -0.24680E-19         0.00000E+00
    0.19325E-07        -0.37253E-20         0.00000E+00
    0.19668E-07        -0.58208E-20         0.00000E+00
    0.20010E-07        -0.55879E-20         0.00000E+00
    0.20349E-07         0.13970E-20         0.00000E+00
    0.20686E-07         0.41910E-20         0.00000E+00
    0.21019E-07         0.58208E-20         0.00000E+00
    0.21349E-07        -0.11409E-19         0.00000E+00
    0.21674E-07        -0.26077E-19         0.00000E+00
    0.21994E-07         0.74506E-20         0.00000E+00
    0.22309E-07         0.27241E-19         0.00000E+00
    0.22618E-07         0.88476E-20         0.00000E+00
    0.22920E-07         0.14435E-19         0.00000E+00
    0.23215E-07         0.13970E-19         0.00000E+00
    0.23502E-07        -0.34925E-20         0.00000E+00
    0.23781E-07         0.23283E-21         0.00000E+00
    0.24050E-07         0.16065E-19         0.00000E+00
    0.24309E-07         0.10477E-19         0.00000E+00
    0.24559E-07         0.46566E-21         0.00000E+00
    0.24797E-07        -0.17346E-19         0.00000E+00
    0.25024E-07        -0.23167E-19         0.00000E+00
    0.25238E-07        -0.10943E-19         0.00000E+00
    0.25440E-07        -0.11642E-19         0.00000E+00
    0.25629E-07        -0.24447E-20         0.00000E+00
    0.25804E-07         0.66357E-20         0.00000E+00
    0.25965E-07         0.46566E-20         0.00000E+00
    0.26111E-07        -0.88476E-20         0.00000E+00
    0.26242E-07         0.69849E-21         0.00000E+00
    0.26358E-07         0.29104E-20         0.00000E+00
    0.26457E-07         0.11642E-19         0.00000E+00
    0.26541E-07         0.15134E-19         0.00000E+00
    0.26608E-07         0.16415E-19         0.00000E+00
    0.26659E-07         0.34343E-19         0.00000E+00
    0.26693E-07         0.17812E-19         0.00000E+00
    0.26710E-07        -0.19791E-20         0.00000E+00
    0.57891E-08        -0.11176E-19         0.00000E+00
    0.57955E-08        -0.37253E-20         0.00000E+00
    0.58083E-08         0.81491E-20         0.00000E+00
    0.58275E-08         0.15134E-19         0.00000E+00
    0.58530E-08         0.18626E-19         0.00000E+00
    0.58849E-08         0.90804E-20         0.00000E+00
    0.59233E-08         0.26776E-19         0.00000E+00
    0.59680E-08         0.37951E-19         0.00000E+00
    0.60192E-08         0.28638E-19         0.00000E+00
    0.60768E-08         0.26310E-19         0.00000E+00
    0.61408E-08         0.21188E-19         0.00000E+00
    0.62112E-08         0.22119E-19         0.00000E+00
    0.62881E-08         0.27241E-19         0.00000E+00
    0.63715E-08         0.16531E-19         0.00000E+00
    0.64614E-08         0.22817E-19         0.00000E+00
    0.65577E-08         0.18394E-19         0.00000E+00
    0.66605E-08         0.15134E-19         0.00000E+00
    0.67699E-08         0.29337E-19         0.00000E+00
    0.68857E-08         0.11409E-19         0.00000E+00
    0.70081E-08         0.81491E-20         0.00000E+00
    0.71371E-08         0.26310E-19         0.00000E+00
    0.72725E-08         0.19325E-19         0.00000E+00
    0.74146E-08         0.46566E-20         0.00000E+00
    0.75631E-08         0.29569E-19         0.00000E+00
    0.77183E-08         0.31898E-19         0.00000E+00
    0.78799E-08         0.19092E-19         0.00000E+00
    0.80482E-08         0.10012E-19         0.00000E+00
    0.82229E-08        -0.11642E-20         0.00000E+00
    0.84042E-08        -0.11642E-19         0.00000E+00
    0.85921E-08        -0.25146E-19         0.00000E+00
    0.87864E-08        -0.32596E-19         0.00000E+00
    0.89872E-08        -0.16764E-19         0.00000E+00
    0.91944E-08        -0.18161E-19         0.00000E+00
    0.94081E-08        -0.41910E-20         0.00000E+00
    0.96282E-08        -0.10710E-19         0.00000E+00
    0.98546E-08        -0.24680E-19         0.00000E+00
    0.10087E-07        -0.69849E-21         0.00000E+00
    0.10326E-07        -0.13970E-20         0.00000E+00
    0.10571E-07         0.46566E-20         0.00000E+00
    0.10822E-07         0.12806E-19         0.00000E+00
    0.11079E-07         0.14901E-19         0.00000E+00
    0.11342E-07         0.19558E-19         0.00000E+00
    0.11611E-07         0.16065E-19         0.00000E+00
    0.11886E-07         0.12107E-19         0.00000E+00
    0.12166E-07        -0.34925E-20         0.00000E+00
    0.12452E-07        -0.62864E-20         0.00000E+00
    0.12742E-07        -0.30501E-19         0.00000E+00
    0.13038E-07        -0.30268E-19         0.00000E+00
    0.13339E-07        -0.67521E-20         0.00000E+00
    0.13645E-07        -0.10012E-19         0.00000E+00
    0.13955E-07         0.53551E-20         0.00000E+00
    0.14270E-07         0.21420E-19         0.00000E+00
    0.14589E-07         0.30268E-19         0.00000E+00
    0.14912E-07         0.17695E-19         0.00000E+00
    0.15238E-07         0.46566E-21         0.00000E+00
    0.15568E-07         0.22817E-19         0.00000E+00
    0.15901E-07         0.16298E-19         0.00000E+00
    0.16236E-07         0.10245E-19         0.00000E+00
    0.16575E-07        -0.46566E-20         0.00000E+00
    0.16915E-07        -0.33295E-19         0.00000E+00
    0.17257E-07        -0.16065E-19         0.00000E+00
    0.17600E-07        -0.65193E-20         0.00000E+00
    0.17945E-07        -0.93132E-21         0.00000E+00
    0.18290E-07        -0.53551E-20         0.00000E+00
    0.18635E-07        -0.26543E-19         0.00000E+00
    0.18980E-07        -0.33062E-19         0.00000E+00
    0.19325E-07        -0.65193E-20         0.00000E+00
    0.19668E-07         0.34925E-20         0.00000E+00
    0.20010E-07        -0.11176E-19         0.00000E+00
    0.20349E-07        -0.46566E-20         0.00000E+00
    0.20686E-07         0.32596E-20         0.00000E+00
    0.21019E-07         0.76834E-20         0.00000E+00
    0.21349E-07         0.23283E-21         0.00000E+00
    0.21674E-07        -0.88476E-20         0.00000E+00
    0.21994E-07         0.93132E-20         0.00000E+00
    0.22309E-07         0.17928E-19         0.00000E+00
    0.22618E-07         0.27940E-20         0.00000E+00
    0.22920E-07         0.74506E-20         0.00000E+00
    0.23215E-07         0.14668E-19         0.00000E+00
    0.23502E-07        -0.13970E-20         0.00000E+00
    0.23781E-07        -0.86147E-20         0.00000E+00
    0.24050E-07         0.86147E-20         0.00000E+00
    0.24309E-07         0.23283E-21         0.00000E+00
    0.24559E-07        -0.51223E-20         0.00000E+00
    0.24797E-07        -0.29104E-20         0.00000E+00
    0.25024E-07        -0.33760E-20         0.00000E+00
    0.25238E-07        -0.11642E-20         0.00000E+00
    0.25440E-07        -0.65193E-20         0.00000E+00
    0.25629E-07        -0.13388E-19         0.00000E+00
    0.25804E-07        -0.75670E-20         0.00000E+00
    0.25965E-07         0.47730E-20         0.00000E+00
    0.26111E-07         0.19907E-19         0.00000E+00
    0.26242E-07         0.24913E-19         0.00000E+00
    0.26358E-07         0.21420E-19         0.00000E+00
    0.26457E-07         0.12340E-19         0.00000E+00
    0.26541E-07         0.66357E-20         0.00000E+00
    0.26608E-07         0.19791E-19         0.00000E+00
    0.26659E-07         0.15600E-19         0.00000E+00
    0.26693E-07         0.51223E-20         0.00000E+00
    0.26710E-07         0.10594E-19         0.00000E+00
    0.57891E-08         0.46566E-21         0.00000E+00
    0.57955E-08         0.55879E-20         0.00000E+00
    0.58083E-08         0.11409E-19         0.00000E+00
    0.58275E-08         0.13737E-19         0.00000E+00
    0.58530E-08         0.24913E-19         0.00000E+00
    0.58849E-08         0.20256E-19         0.00000E+00
    0.59233E-08         0.25611E-19         0.00000E+00
    0.59680E-08         0.22119E-19         0.00000E+00
    0.60192E-08         0.20489E-19         0.00000E+00
    0.60768E-08         0.27707E-19         0.00000E+00
    0.61408E-08         0.26776E-19         0.00000E+00
    0.62112E-08         0.23050E-19         0.00000E+00
    0.62881E-08         0.32829E-19         0.00000E+00
    0.63715E-08         0.37951E-19         0.00000E+00
    0.64614E-08         0.17229E-19         0.00000E+00
    0.65577E-08         0.30268E-20         0.00000E+00
    0.66605E-08         0.23050E-19         0.00000E+00
    0.67699E-08         0.30966E-19         0.00000E+00
    0.68857E-08         0.20722E-19         0.00000E+00
    0.70081E-08         0.13737E-19         0.00000E+00
    0.71371E-08         0.44238E-20         0.00000E+00
    0.72725E-08        -0.32596E-20         0.00000E+00
    0.74146E-08        -0.60536E-20         0.00000E+00
    0.75631E-08         0.18161E-19         0.00000E+00
    0.77183E-08         0.21653E-19         0.00000E+00
    0.78799E-08         0.19325E-19         0.00000E+00
    0.80482E-08         0.24680E-19         0.00000E+00
    0.82229E-08         0.62864E-20         0.00000E+00
    0.84042E-08        -0.93132E-21         0.00000E+00
    0.85921E-08        -0.11642E-19         0.00000E+00
    0.87864E-08        -0.97789E-20         0.00000E+00
    0.89872E-08         0.55879E-20         0.00000E+00
    0.91944E-08        -0.16764E-19         0.00000E+00
    0.94081E-08        -0.18161E-19         0.00000E+00
    0.96282E-08        -0.11176E-19         0.00000E+00
    0.98546E-08        -0.21188E-19         0.00000E+00
    0.10087E-07        -0.19558E-19         0.00000E+00
    0.10326E-07        -0.20955E-19         0.00000E+00
    0.10571E-07        -0.13039E-19         0.00000E+00
    0.10822E-07        -0.93132E-20         0.00000E+00
    0.11079E-07        -0.37253E-20         0.00000E+00
    0.11342E-07         0.65193E-20         0.00000E+00
    0.11611E-07         0.17229E-19         0.00000E+00
    0.11886E-07         0.13271E-19         0.00000E+00
    0.12166E-07         0.34925E-20         0.00000E+00
    0.12452E-07         0.55879E-20         0.00000E+00
    0.12742E-07        -0.46566E-20         0.00000E+00
    0.13038E-07        -0.55879E-20         0.00000E+00
    0.13339E-07         0.32596E-20         0.00000E+00
    0.13645E-07        -0.23283E-20         0.00000E+00
    0.13955E-07         0.46566E-21         0.00000E+00
    0.14270E-07         0.55879E-20         0.00000E+00
    0.14589E-07        -0.93132E-21         0.00000E+00
    0.14912E-07         0.14668E-19         0.00000E+00
    0.15238E-07         0.60536E-20         0.00000E+00
    0.15568E-07        -0.10477E-19         0.00000E+00
    0.15901E-07         0.25611E-20         0.00000E+00
    0.16236E-07        -0.88476E-20         0.00000E+00
    0.16575E-07         0.46566E-20         0.00000E+00
    0.16915E-07        -0.18859E-19         0.00000E+00
    0.17257E-07        -0.38417E-19         0.00000E+00
    0.17600E-07        -0.11176E-19         0.00000E+00
    0.17945E-07        -0.37253E-20         0.00000E+00
    0.18290E-07        -0.11874E-19         0.00000E+00
    0.18635E-07        -0.10245E-19         0.00000E+00
    0.18980E-07        -0.58208E-20         0.00000E+00
    0.19325E-07        -0.21420E-19         0.00000E+00
    0.19668E-07        -0.10710E-19         0.00000E+00
    0.20010E-07        -0.10245E-19         0.00000E+00
    0.20349E-07         0.32596E-20         0.00000E+00
    0.20686E-07         0.11874E-19         0.00000E+00
    0.21019E-07         0.37253E-20         0.00000E+00
    0.21349E-07         0.81491E-20         0.00000E+00
    0.21674E-07        -0.23283E-20         0.00000E+00
    0.21994E-07         0.88476E-20         0.00000E+00
    0.22309E-07         0.16764E-19         0.00000E+00
    0.22618E-07         0.14901E-19         0.00000E+00
    0.22920E-07         0.32596E-20         0.00000E+00
    0.23215E-07         0.48894E-20         0.00000E+00
    0.23502E-07         0.33062E-19         0.00000E+00
    0.23781E-07         0.72177E-20         0.00000E+00
    0.24050E-07        -0.11874E-19         0.00000E+00
    0.24309E-07         0.13271E-19         0.00000E+00
    0.24559E-07         0.10477E-19         0.00000E+00
    0.24797E-07        -0.57044E-20         0.00000E+00
    0.25024E-07         0.31432E-20         0.00000E+00
    0.25238E-07         0.95461E-20         0.00000E+00
    0.25440E-07         0.13155E-19         0.00000E+00
    0.25629E-07         0.64028E-20         0.00000E+00
    0.25804E-07         0.11874E-19         0.00000E+00
    0.25965E-07         0.11409E-19         0.00000E+00
    0.26111E-07        -0.14319E-19         0.00000E+00
    0.26242E-07        -0.12573E-19         0.00000E+00
    0.26358E-07         0.10245E-19         0.00000E+00
    0.26457E-07        -0.39581E-20         0.00000E+00
    0.26541E-07        -0.17462E-20         0.00000E+00
    0.26608E-07         0.58208E-20         0.00000E+00
    0.26659E-07         0.96625E-20         0.00000E+00
    0.26693E-07         0.11642E-20         0.00000E+00
    0.26710E-07        -0.13621E-19         0.00000E+00
    0.57891E-08        -0.25611E-20         0.00000E+00
    0.57955E-08        -0.27940E-20         0.00000E+00
    0.58083E-08        -0.32596E-20         0.00000E+00
    0.58275E-08         0.79162E-20         0.00000E+00
    0.58530E-08         0.88476E-20         0.00000E+00
    0.58849E-08         0.81491E-20         0.00000E+00
    0.59233E-08         0.32829E-19         0.00000E+00
    0.59680E-08         0.32363E-19         0.00000E+00
    0.60192E-08         0.38417E-19         0.00000E+00
    0.60768E-08         0.39581E-19         0.00000E+00
    0.61408E-08         0.27008E-19         0.00000E+00
    0.62112E-08         0.25379E-19         0.00000E+00
    0.62881E-08         0.18394E-19         0.00000E+00
    0.63715E-08         0.15600E-19         0.00000E+00
    0.64614E-08         0.23982E-19         0.00000E+00
    0.65577E-08         0.13737E-19         0.00000E+00
    0.66605E-08         0.21188E-19         0.00000E+00
    0.67699E-08         0.46100E-19         0.00000E+00
    0.68857E-08         0.24214E-19         0.00000E+00
    0.70081E-08         0.16764E-19         0.00000E+00
    0.71371E-08         0.23283E-19         0.00000E+00
    0.72725E-08         0.31199E-19         0.00000E+00
    0.74146E-08         0.16298E-20         0.00000E+00
    0.75631E-08        -0.30268E-20         0.00000E+00
    0.77183E-08         0.32363E-19         0.00000E+00
    0.78799E-08         0.42375E-19         0.00000E+00
    0.80482E-08         0.29337E-19         0.00000E+00
    0.82229E-08        -0.23283E-21         0.00000E+00
    0.84042E-08         0.00000E+00         0.00000E+00
    0.85921E-08        -0.93132E-20         0.00000E+00
    0.87864E-08        -0.23283E-19         0.00000E+00
    0.89872E-08        -0.74506E-20         0.00000E+00
    0.91944E-08        -0.19558E-19         0.00000E+00
    0.94081E-08        -0.18394E-19         0.00000E+00
    0.96282E-08        -0.12340E-19         0.00000E+00
    0.98546E-08        -0.10012E-19         0.00000E+00
    0.10087E-07        -0.20256E-19         0.00000E+00
    0.10326E-07        -0.11176E-19         0.00000E+00
    0.10571E-07        -0.14901E-19         0.00000E+00
    0.10822E-07        -0.16065E-19         0.00000E+00
    0.11079E-07        -0.97789E-20         0.00000E+00
    0.11342E-07        -0.12573E-19         0.00000E+00
    0.11611E-07         0.19558E-19         0.00000E+00
    0.11886E-07         0.15600E-19         0.00000E+00
    0.12166E-07         0.11642E-20         0.00000E+00
    0.12452E-07        -0.69849E-21         0.00000E+00
    0.12742E-07        -0.44238E-20         0.00000E+00
    0.13038E-07        -0.12107E-19         0.00000E+00
    0.13339E-07        -0.81491E-20         0.00000E+00
    0.13645E-07        -0.11409E-19         0.00000E+00
    0.13955E-07        -0.55879E-20         0.00000E+00
    0.14270E-07         0.27940E-20         0.00000E+00
    0.14589E-07         0.83819E-20         0.00000E+00
    0.14912E-07         0.48894E-20         0.00000E+00
    0.15238E-07         0.41910E-20         0.00000E+00
    0.15568E-07         0.15600E-19         0.00000E+00
    0.15901E-07         0.15134E-19         0.00000E+00
    0.16236E-07         0.74506E-20         0.00000E+00
    0.16575E-07        -0.10477E-19         0.00000E+00
    0.16915E-07        -0.18161E-19         0.00000E+00
    0.17257E-07        -0.55879E-20         0.00000E+00
    0.17600E-07        -0.10477E-19         0.00000E+00
    0.17945E-07        -0.25611E-19         0.00000E+00
    0.18290E-07        -0.11176E-19         0.00000E+00
    0.18635E-07        -0.51223E-20         0.00000E+00
    0.18980E-07        -0.17695E-19         0.00000E+00
    0.19325E-07        -0.28405E-19         0.00000E+00
    0.19668E-07        -0.41677E-19         0.00000E+00
    0.20010E-07        -0.23283E-19         0.00000E+00
    0.20349E-07         0.69849E-20         0.00000E+00
    0.20686E-07         0.10245E-19         0.00000E+00
    0.21019E-07         0.10012E-19         0.00000E+00
    0.21349E-07         0.10710E-19         0.00000E+00
    0.21674E-07         0.23283E-20         0.00000E+00
    0.21994E-07         0.30966E-19         0.00000E+00
    0.22309E-07         0.26310E-19         0.00000E+00
    0.22618E-07         0.23283E-21         0.00000E+00
    0.22920E-07         0.37253E-20         0.00000E+00
    0.23215E-07        -0.48894E-20         0.00000E+00
    0.23502E-07        -0.32596E-20         0.00000E+00
    0.23781E-07         0.18394E-19         0.00000E+00
    0.24050E-07         0.16065E-19         0.00000E+00
    0.24309E-07        -0.90804E-20         0.00000E+00
    0.24559E-07        -0.10943E-19         0.00000E+00
    0.24797E-07        -0.97789E-20         0.00000E+00
    0.25024E-07         0.30268E-20         0.00000E+00
    0.25238E-07         0.12573E-19         0.00000E+00
    0.25440E-07         0.23283E-20         0.00000E+00
    0.25629E-07         0.24447E-20         0.00000E+00
    0.25804E-07         0.79162E-20         0.00000E+00
    0.25965E-07         0.72177E-20         0.00000E+00
    0.26111E-07         0.21537E-19         0.00000E+00
    0.26242E-07         0.57044E-20         0.00000E+00
    0.26358E-07        -0.55879E-20         0.00000E+00
    0.26457E-07         0.10245E-19         0.00000E+00
    0.26541E-07         0.10012E-19         0.00000E+00
    0.26608E-07         0.39581E-20         0.00000E+00
    0.26659E-07        -0.69849E-21         0.00000E+00
    0.26693E-07         0.86147E-20         0.00000E+00
    0.26710E-07         0.12224E-19         0.00000E+00
    0.57891E-08         0.48894E-20         0.00000E+00
    0.57955E-08         0.67521E-20         0.00000E+00
    0.58083E-08        -0.27940E-20         0.00000E+00
    0.58275E-08         0.34925E-20         0.00000E+00
    0.58530E-08         0.33295E-19         0.00000E+00
    0.58849E-08         0.13737E-19         0.00000E+00
    0.59233E-08         0.65193E-20         0.00000E+00
    0.59680E-08         0.19791E-19         0.00000E+00
    0.60192E-08         0.26310E-19         0.00000E+00
    0.60768E-08         0.27707E-19         0.00000E+00
    0.61408E-08         0.32829E-19         0.00000E+00
    0.62112E-08         0.48196E-19         0.00000E+00
    0.62881E-08         0.32829E-19         0.00000E+00
    0.63715E-08         0.30268E-20         0.00000E+00
    0.64614E-08        -0.23283E-21         0.00000E+00
    0.65577E-08         0.22119E-19         0.00000E+00
    0.66605E-08         0.30734E-19         0.00000E+00
    0.67699E-08         0.21653E-19         0.00000E+00
    0.68857E-08         0.18394E-19         0.00000E+00
    0.70081E-08         0.26310E-19         0.00000E+00
    0.71371E-08         0.23283E-21         0.00000E+00
    0.72725E-08        -0.58208E-20         0.00000E+00
    0.74146E-08         0.11874E-19         0.00000E+00
    0.75631E-08         0.23283E-20         0.00000E+00
    0.77183E-08         0.19325E-19         0.00000E+00
    0.78799E-08         0.28405E-19         0.00000E+00
    0.80482E-08         0.28173E-19         0.00000E+00
    0.82229E-08         0.17928E-19         0.00000E+00
    0.84042E-08        -0.16298E-19         0.00000E+00
    0.85921E-08        -0.24680E-19         0.00000E+00
    0.87864E-08        -0.15367E-19         0.00000E+00
    0.89872E-08        -0.25611E-20         0.00000E+00
    0.91944E-08        -0.86147E-20         0.00000E+00
    0.94081E-08        -0.25611E-19         0.00000E+00
    0.96282E-08        -0.60536E-20         0.00000E+00
    0.98546E-08         0.20955E-20         0.00000E+00
    0.10087E-07        -0.12573E-19         0.00000E+00
    0.10326E-07        -0.18626E-19         0.00000E+00
    0.10571E-07         0.11642E-20         0.00000E+00
    0.10822E-07         0.20955E-20         0.00000E+00
    0.11079E-07        -0.11874E-19         0.00000E+00
    0.11342E-07         0.95461E-20         0.00000E+00
    0.11611E-07         0.22585E-19         0.00000E+00
    0.11886E-07        -0.32596E-20         0.00000E+00
    0.12166E-07         0.93132E-21         0.00000E+00
    0.12452E-07         0.55879E-20         0.00000E+00
    0.12742E-07         0.88476E-20         0.00000E+00
    0.13038E-07         0.26543E-19         0.00000E+00
    0.13339E-07         0.48894E-20         0.00000E+00
    0.13645E-07         0.17928E-19         0.00000E+00
    0.13955E-07         0.20489E-19         0.00000E+00
    0.14270E-07        -0.25611E-20         0.00000E+00
    0.14589E-07         0.23283E-20         0.00000E+00
    0.14912E-07         0.13737E-19         0.00000E+00
    0.15238E-07         0.69849E-21         0.00000E+00
    0.15568E-07        -0.16298E-20         0.00000E+00
    0.15901E-07         0.34925E-20         0.00000E+00
    0.16236E-07         0.39581E-20         0.00000E+00
    0.16575E-07        -0.16298E-20         0.00000E+00
    0.16915E-07        -0.20722E-19         0.00000E+00
    0.17257E-07        -0.27008E-19         0.00000E+00
    0.17600E-07        -0.12107E-19         0.00000E+00
    0.17945E-07        -0.15832E-19         0.00000E+00
    0.18290E-07        -0.23982E-19         0.00000E+00
    0.18635E-07        -0.29569E-19         0.00000E+00
    0.18980E-07        -0.23283E-19         0.00000E+00
    0.19325E-07        -0.35856E-19         0.00000E+00
    0.19668E-07        -0.30268E-19         0.00000E+00
    0.20010E-07        -0.12573E-19         0.00000E+00
    0.20349E-07        -0.18161E-19         0.00000E+00
    0.20686E-07         0.34925E-20         0.00000E+00
    0.21019E-07         0.13970E-19         0.00000E+00
    0.21349E-07         0.11176E-19         0.00000E+00
    0.21674E-07         0.14435E-19         0.00000E+00
    0.21994E-07         0.18626E-20         0.00000E+00
    0.22309E-07         0.20955E-20         0.00000E+00
    0.22618E-07         0.19558E-19         0.00000E+00
    0.22920E-07         0.65193E-20         0.00000E+00
    0.23215E-07         0.55879E-20         0.00000E+00
    0.23502E-07         0.74506E-20         0.00000E+00
    0.23781E-07         0.46566E-20         0.00000E+00
    0.24050E-07         0.76834E-20         0.00000E+00
    0.24309E-07        -0.34925E-20         0.00000E+00
    0.24559E-07        -0.77998E-20         0.00000E+00
    0.24797E-07         0.10012E-19         0.00000E+00
    0.25024E-07         0.18859E-19         0.00000E+00
    0.25238E-07        -0.25611E-20         0.00000E+00
    0.25440E-07         0.58208E-20         0.00000E+00
    0.25629E-07         0.16415E-19         0.00000E+00
    0.25804E-07         0.20955E-19         0.00000E+00
    0.25965E-07         0.28987E-19         0.00000E+00
    0.26111E-07         0.11642E-19         0.00000E+00
    0.26242E-07         0.95461E-20         0.00000E+00
    0.26358E-07         0.18626E-20         0.00000E+00
    0.26457E-07         0.71013E-20         0.00000E+00
    0.26541E-07         0.22002E-19         0.00000E+00
    0.26608E-07         0.10012E-19         0.00000E+00
    0.26659E-07         0.17462E-19         0.00000E+00
    0.26693E-07         0.25611E-19         0.00000E+00
    0.26710E-07         0.12107E-19         0.00000E+00
    0.57891E-08         0.93132E-21         0.00000E+00
    0.57955E-08        -0.93132E-21         0.00000E+00
    0.58083E-08         0.67521E-20         0.00000E+00
    0.58275E-08         0.16065E-19         0.00000E+00
    0.58530E-08         0.16531E-19         0.00000E+00
    0.58849E-08         0.21188E-19         0.00000E+00
    0.59233E-08         0.97789E-20         0.00000E+00
    0.59680E-08         0.15600E-19         0.00000E+00
    0.60192E-08         0.35623E-19         0.00000E+00
    0.60768E-08         0.48894E-19         0.00000E+00
    0.61408E-08         0.50524E-19         0.00000E+00
    0.62112E-08         0.35623E-19         0.00000E+00
    0.62881E-08         0.28871E-19         0.00000E+00
    0.63715E-08         0.23982E-19         0.00000E+00
    0.64614E-08         0.11642E-19         0.00000E+00
    0.65577E-08         0.14203E-19         0.00000E+00
    0.66605E-08         0.74506E-20         0.00000E+00
    0.67699E-08         0.30268E-20         0.00000E+00
    0.68857E-08         0.18859E-19         0.00000E+00
    0.70081E-08         0.15367E-19         0.00000E+00
    0.71371E-08         0.16065E-19         0.00000E+00
    0.72725E-08         0.74506E-20         0.00000E+00
    0.74146E-08        -0.83819E-20         0.00000E+00
    0.75631E-08        -0.13737E-19         0.00000E+00
    0.77183E-08        -0.58208E-20         0.00000E+00
    0.78799E-08         0.51223E-20         0.00000E+00
    0.80482E-08         0.16298E-20         0.00000E+00
    0.82229E-08         0.17695E-19         0.00000E+00
    0.84042E-08        -0.62864E-20         0.00000E+00
    0.85921E-08        -0.33993E-19         0.00000E+00
    0.87864E-08         0.00000E+00         0.00000E+00
    0.89872E-08        -0.69849E-20         0.00000E+00
    0.91944E-08        -0.18394E-19         0.00000E+00
    0.94081E-08         0.18626E-20         0.00000E+00
    0.96282E-08        -0.74506E-20         0.00000E+00
    0.98546E-08        -0.20256E-19         0.00000E+00
    0.10087E-07        -0.10943E-19         0.00000E+00
    0.10326E-07        -0.83819E-20         0.00000E+00
    0.10571E-07        -0.11874E-19         0.00000E+00
    0.10822E-07        -0.48894E-20         0.00000E+00
    0.11079E-07         0.48894E-20         0.00000E+00
    0.11342E-07        -0.69849E-21         0.00000E+00
    0.11611E-07        -0.21886E-19         0.00000E+00
    0.11886E-07        -0.41910E-20         0.00000E+00
    0.12166E-07         0.18394E-19         0.00000E+00
    0.12452E-07        -0.46566E-21         0.00000E+00
    0.12742E-07        -0.79162E-20         0.00000E+00
    0.13038E-07        -0.62864E-20         0.00000E+00
    0.13339E-07        -0.24214E-19         0.00000E+00
    0.13645E-07        -0.72177E-20         0.00000E+00
    0.13955E-07         0.18394E-19         0.00000E+00
    0.14270E-07         0.19092E-19         0.00000E+00
    0.14589E-07         0.55879E-20         0.00000E+00
    0.14912E-07         0.97789E-20         0.00000E+00
    0.15238E-07         0.18161E-19         0.00000E+00
    0.15568E-07         0.13970E-19         0.00000E+00
    0.15901E-07         0.10943E-19         0.00000E+00
    0.16236E-07         0.46566E-21         0.00000E+00
    0.16575E-07        -0.23050E-19         0.00000E+00
    0.16915E-07        -0.36554E-19         0.00000E+00
    0.17257E-07        -0.28871E-19         0.00000E+00
    0.17600E-07        -0.19791E-19         0.00000E+00
    0.17945E-07        -0.18626E-20         0.00000E+00
    0.18290E-07        -0.19325E-19         0.00000E+00
    0.18635E-07        -0.24680E-19         0.00000E+00
    0.18980E-07        -0.27940E-19         0.00000E+00
    0.19325E-07        -0.28405E-19         0.00000E+00
    0.19668E-07        -0.24680E-19         0.00000E+00
    0.20010E-07        -0.10477E-19         0.00000E+00
    0.20349E-07         0.32596E-20         0.00000E+00
    0.20686E-07         0.13970E-19         0.00000E+00
    0.21019E-07         0.11642E-19         0.00000E+00
    0.21349E-07         0.67521E-20         0.00000E+00
    0.21674E-07         0.28871E-19         0.00000E+00
    0.21994E-07         0.17695E-19         0.00000E+00
    0.22309E-07        -0.13970E-20         0.00000E+00
    0.22618E-07         0.67521E-20         0.00000E+00
    0.22920E-07        -0.46566E-21         0.00000E+00
    0.23215E-07        -0.60536E-20         0.00000E+00
    0.23502E-07        -0.23283E-20         0.00000E+00
    0.23781E-07        -0.11409E-19         0.00000E+00
    0.24050E-07        -0.27707E-19         0.00000E+00
    0.24309E-07        -0.23982E-19         0.00000E+00
    0.24559E-07         0.15134E-20         0.00000E+00
    0.24797E-07         0.91968E-20         0.00000E+00
    0.25024E-07         0.89640E-20         0.00000E+00
    0.25238E-07        -0.33760E-20         0.00000E+00
    0.25440E-07         0.00000E+00         0.00000E+00
    0.25629E-07         0.11758E-19         0.00000E+00
    0.25804E-07         0.10477E-20         0.00000E+00
    0.25965E-07         0.41910E-20         0.00000E+00
    0.26111E-07         0.14785E-19         0.00000E+00
    0.26242E-07         0.13271E-19         0.00000E+00
    0.26358E-07         0.61700E-20         0.00000E+00
    0.26457E-07         0.59372E-20         0.00000E+00
    0.26541E-07         0.32596E-20         0.00000E+00
    0.26608E-07        -0.17462E-20         0.00000E+00
    0.26659E-07         0.10361E-19         0.00000E+00
    0.26693E-07         0.10477E-19         0.00000E+00
    0.26710E-07        -0.81491E-21         0.00000E+00
    0.57891E-08        -0.93132E-21         0.00000E+00
    0.57955E-08        -0.48894E-20         0.00000E+00
    0.58083E-08         0.93132E-21         0.00000E+00
    0.58275E-08         0.55879E-20         0.00000E+00
    0.58530E-08        -0.69849E-20         0.00000E+00
    0.58849E-08         0.10477E-19         0.00000E+00
    0.59233E-08         0.19558E-19         0.00000E+00
    0.59680E-08         0.10477E-19         0.00000E+00
    0.60192E-08         0.20256E-19         0.00000E+00
    0.60768E-08         0.33295E-19         0.00000E+00
    0.61408E-08         0.30501E-19         0.00000E+00
    0.62112E-08         0.30966E-19         0.00000E+00
    0.62881E-08         0.23050E-19         0.00000E+00
    0.63715E-08         0.67521E-20         0.00000E+00
    0.64614E-08         0.18626E-20         0.00000E+00
    0.65577E-08         0.12806E-19         0.00000E+00
    0.66605E-08         0.27940E-19         0.00000E+00
    0.67699E-08         0.13737E-19         0.00000E+00
    0.68857E-08         0.11642E-19         0.00000E+00
    0.70081E-08         0.86147E-20         0.00000E+00
    0.71371E-08        -0.53551E-20         0.00000E+00
    0.72725E-08        -0.23283E-20         0.00000E+00
    0.74146E-08        -0.15600E-19         0.00000E+00
    0.75631E-08        -0.14203E-19         0.00000E+00
    0.77183E-08         0.65193E-20         0.00000E+00
    0.78799E-08         0.79162E-20         0.00000E+00
    0.80482E-08         0.67521E-20         0.00000E+00
    0.82229E-08         0.16997E-19         0.00000E+00
    0.84042E-08         0.17695E-19         0.00000E+00
    0.85921E-08         0.51223E-20         0.00000E+00
    0.87864E-08        -0.15832E-19         0.00000E+00
    0.89872E-08        -0.37020E-19         0.00000E+00
    0.91944E-08        -0.51223E-20         0.00000E+00
    0.94081E-08         0.23283E-20         0.00000E+00
    0.96282E-08        -0.69849E-20         0.00000E+00
    0.98546E-08         0.44238E-20         0.00000E+00
    0.10087E-07         0.39581E-20         0.00000E+00
    0.10326E-07        -0.32596E-20         0.00000E+00
    0.10571E-07        -0.23283E-20         0.00000E+00
    0.10822E-07        -0.69849E-20         0.00000E+00
    0.11079E-07        -0.93132E-20         0.00000E+00
    0.11342E-07         0.25611E-20         0.00000E+00
    0.11611E-07         0.51223E-20         0.00000E+00
    0.11886E-07         0.83819E-20         0.00000E+00
    0.12166E-07        -0.65193E-20         0.00000E+00
    0.12452E-07        -0.51223E-20         0.00000E+00
    0.12742E-07         0.14435E-19         0.00000E+00
    0.13038E-07        -0.65193E-20         0.00000E+00
    0.13339E-07        -0.16764E-19         0.00000E+00
    0.13645E-07        -0.10245E-19         0.00000E+00
    0.13955E-07        -0.53551E-20         0.00000E+00
    0.14270E-07         0.53551E-20         0.00000E+00
    0.14589E-07        -0.46566E-20         0.00000E+00
    0.14912E-07         0.23283E-21         0.00000E+00
    0.15238E-07         0.11176E-19         0.00000E+00
    0.15568E-07        -0.20955E-20         0.00000E+00
    0.15901E-07        -0.41910E-20         0.00000E+00
    0.16236E-07        -0.55879E-20         0.00000E+00
    0.16575E-07        -0.33760E-19         0.00000E+00
    0.16915E-07        -0.38650E-19         0.00000E+00
    0.17257E-07        -0.17928E-19         0.00000E+00
    0.17600E-07        -0.24447E-19         0.00000E+00
    0.17945E-07        -0.37486E-19         0.00000E+00
    0.18290E-07        -0.23982E-19         0.00000E+00
    0.18635E-07        -0.25379E-19         0.00000E+00
    0.18980E-07        -0.15367E-19         0.00000E+00
    0.19325E-07        -0.13039E-19         0.00000E+00
    0.19668E-07        -0.13970E-19         0.00000E+00
    0.20010E-07        -0.86147E-20         0.00000E+00
    0.20349E-07         0.11642E-20         0.00000E+00
    0.20686E-07         0.10710E-19         0.00000E+00
    0.21019E-07         0.15367E-19         0.00000E+00
    0.21349E-07         0.36787E-19         0.00000E+00
    0.21674E-07         0.15134E-19         0.00000E+00
    0.21994E-07        -0.58208E-20         0.00000E+00
    0.22309E-07         0.65193E-20         0.00000E+00
    0.22618E-07         0.51223E-20         0.00000E+00
    0.22920E-07         0.46566E-20         0.00000E+00
    0.23215E-07        -0.14435E-19         0.00000E+00
    0.23502E-07        -0.20023E-19         0.00000E+00
    0.23781E-07        -0.25611E-20         0.00000E+00
    0.24050E-07        -0.10943E-19         0.00000E+00
    0.24309E-07        -0.57044E-20         0.00000E+00
    0.24559E-07        -0.58208E-21         0.00000E+00
    0.24797E-07         0.38417E-20         0.00000E+00
    0.25024E-07        -0.12573E-19         0.00000E+00
    0.25238E-07        -0.13388E-19         0.00000E+00
    0.25440E-07        -0.58208E-20         0.00000E+00
    0.25629E-07         0.73342E-20         0.00000E+00
    0.25804E-07         0.14668E-19         0.00000E+00
    0.25965E-07        -0.32596E-20         0.00000E+00
    0.26111E-07         0.46566E-21         0.00000E+00
    0.26242E-07         0.47730E-20         0.00000E+00
    0.26358E-07        -0.11642E-20         0.00000E+00
    0.26457E-07         0.89640E-20         0.00000E+00
    0.26541E-07         0.10943E-19         0.00000E+00
    0.26608E-07         0.93132E-20         0.00000E+00
    0.26659E-07         0.24447E-20         0.00000E+00
    0.26693E-07         0.34925E-20         0.00000E+00
    0.26710E-07        -0.46566E-21         0.00000E+00
    0.57891E-08         0.72177E-20         0.00000E+00
    0.57955E-08         0.10012E-19         0.00000E+00
    0.58083E-08         0.90804E-20         0.00000E+00
    0.58275E-08        -0.69849E-20         0.00000E+00
    0.58530E-08         0.16298E-20         0.00000E+00
    0.58849E-08         0.22119E-19         0.00000E+00
    0.59233E-08         0.27940E-20         0.00000E+00
    0.59680E-08         0.44238E-20         0.00000E+00
    0.60192E-08         0.11409E-19         0.00000E+00
    0.60768E-08         0.15832E-19         0.00000E+00
    0.61408E-08         0.27474E-19         0.00000E+00
    0.62112E-08         0.28173E-19         0.00000E+00
    0.62881E-08         0.17462E-19         0.00000E+00
    0.63715E-08         0.18859E-19         0.00000E+00
    0.64614E-08         0.83819E-20         0.00000E+00
    0.65577E-08         0.12806E-19         0.00000E+00
    0.66605E-08         0.48894E-20         0.00000E+00
    0.67699E-08        -0.44238E-20         0.00000E+00
    0.68857E-08         0.39581E-20         0.00000E+00
    0.70081E-08        -0.13970E-20         0.00000E+00
    0.71371E-08        -0.32596E-20         0.00000E+00
    0.72725E-08        -0.13970E-20         0.00000E+00
    0.74146E-08        -0.62864E-20         0.00000E+00
    0.75631E-08        -0.12107E-19         0.00000E+00
    0.77183E-08        -0.90804E-20         0.00000E+00
    0.78799E-08         0.18626E-20         0.00000E+00
    0.80482E-08         0.20256E-19         0.00000E+00
    0.82229E-08         0.18394E-19         0.00000E+00
    0.84042E-08         0.13504E-19         0.00000E+00
    0.85921E-08         0.53551E-20         0.00000E+00
    0.87864E-08        -0.11176E-19         0.00000E+00
    0.89872E-08        -0.20256E-19         0.00000E+00
    0.91944E-08        -0.60536E-20         0.00000E+00
    0.94081E-08         0.46566E-21         0.00000E+00
    0.96282E-08        -0.13039E-19         0.00000E+00
    0.98546E-08         0.79162E-20         0.00000E+00
    0.10087E-07         0.14435E-19         0.00000E+00
    0.10326E-07        -0.41910E-20         0.00000E+00
    0.10571E-07        -0.86147E-20         0.00000E+00
    0.10822E-07        -0.44238E-20         0.00000E+00
    0.11079E-07         0.25611E-20         0.00000E+00
    0.11342E-07        -0.69849E-20         0.00000E+00
    0.11611E-07        -0.10477E-19         0.00000E+00
    0.11886E-07        -0.46566E-21         0.00000E+00
    0.12166E-07         0.51223E-20         0.00000E+00
    0.12452E-07         0.34925E-20         0.00000E+00
    0.12742E-07        -0.13970E-20         0.00000E+00
    0.13038E-07        -0.55879E-20         0.00000E+00
    0.13339E-07         0.37253E-20         0.00000E+00
    0.13645E-07         0.74506E-20         0.00000E+00
    0.13955E-07         0.32596E-20         0.00000E+00
    0.14270E-07         0.62864E-20         0.00000E+00
    0.14589E-07        -0.46566E-21         0.00000E+00
    0.14912E-07         0.13271E-19         0.00000E+00
    0.15238E-07         0.23516E-19         0.00000E+00
    0.15568E-07         0.23749E-19         0.00000E+00
    0.15901E-07         0.37486E-19         0.00000E+00
    0.16236E-07         0.39581E-20         0.00000E+00
    0.16575E-07        -0.31432E-19         0.00000E+00
    0.16915E-07        -0.58208E-20         0.00000E+00
    0.17257E-07        -0.76834E-20         0.00000E+00
    0.17600E-07        -0.29104E-19         0.00000E+00
    0.17945E-07        -0.30268E-19         0.00000E+00
    0.18290E-07        -0.18394E-19         0.00000E+00
    0.18635E-07        -0.11176E-19         0.00000E+00
    0.18980E-07        -0.97789E-20         0.00000E+00
    0.19325E-07        -0.88476E-20         0.00000E+00
    0.19668E-07         0.20955E-20         0.00000E+00
    0.20010E-07        -0.72177E-20         0.00000E+00
    0.20349E-07        -0.14435E-19         0.00000E+00
    0.20686E-07        -0.11642E-20         0.00000E+00
    0.21019E-07        -0.93132E-20         0.00000E+00
    0.21349E-07        -0.23283E-20         0.00000E+00
    0.21674E-07         0.21420E-19         0.00000E+00
    0.21994E-07         0.62864E-20         0.00000E+00
    0.22309E-07         0.48894E-20         0.00000E+00
    0.22618E-07         0.22817E-19         0.00000E+00
    0.22920E-07         0.93132E-20         0.00000E+00
    0.23215E-07         0.67521E-20         0.00000E+00
    0.23502E-07         0.10012E-19         0.00000E+00
    0.23781E-07         0.72177E-20         0.00000E+00
    0.24050E-07        -0.62864E-20         0.00000E+00
    0.24309E-07        -0.72177E-20         0.00000E+00
    0.24559E-07        -0.20955E-19         0.00000E+00
    0.24797E-07        -0.20373E-19         0.00000E+00
    0.25024E-07        -0.20606E-19         0.00000E+00
    0.25238E-07        -0.16298E-20         0.00000E+00
    0.25440E-07         0.69849E-21         0.00000E+00
    0.25629E-07         0.50059E-20         0.00000E+00
    0.25804E-07         0.12922E-19         0.00000E+00
    0.25965E-07        -0.34925E-21         0.00000E+00
    0.26111E-07        -0.31432E-20         0.00000E+00
    0.26242E-07        -0.11642E-20         0.00000E+00
    0.26358E-07         0.52387E-20         0.00000E+00
    0.26457E-07         0.93132E-21         0.00000E+00
    0.26541E-07         0.53551E-20         0.00000E+00
    0.26608E-07         0.97789E-20         0.00000E+00
    0.26659E-07         0.43074E-20         0.00000E+00
    0.26693E-07         0.97789E-20         0.00000E+00
    0.26710E-07         0.96625E-20         0.00000E+00
    0.57891E-08         0.79162E-20         0.00000E+00
    0.57955E-08         0.10012E-19         0.00000E+00
    0.58083E-08        -0.11642E-20         0.00000E+00
    0.58275E-08         0.30268E-20         0.00000E+00
    0.58530E-08        -0.95461E-20         0.00000E+00
    0.58849E-08         0.30268E-20         0.00000E+00
    0.59233E-08         0.17928E-19         0.00000E+00
    0.59680E-08         0.16997E-19         0.00000E+00
    0.60192E-08         0.13271E-19         0.00000E+00
    0.60768E-08        -0.37253E-20         0.00000E+00
    0.61408E-08         0.16298E-19         0.00000E+00
    0.62112E-08         0.31898E-19         0.00000E+00
    0.62881E-08         0.32829E-19         0.00000E+00
    0.63715E-08         0.14203E-19         0.00000E+00
    0.64614E-08         0.29104E-19         0.00000E+00
    0.65577E-08         0.30035E-19         0.00000E+00
    0.66605E-08         0.21188E-19         0.00000E+00
    0.67699E-08         0.32596E-19         0.00000E+00
    0.68857E-08        -0.39581E-20         0.00000E+00
    0.70081E-08        -0.81491E-20         0.00000E+00
    0.71371E-08        -0.30268E-20         0.00000E+00
    0.72725E-08        -0.27241E-19         0.00000E+00
    0.74146E-08        -0.31432E-19         0.00000E+00
    0.75631E-08        -0.26543E-19         0.00000E+00
    0.77183E-08        -0.13970E-20         0.00000E+00
    0.78799E-08         0.16997E-19         0.00000E+00
    0.80482E-08         0.23050E-19         0.00000E+00
    0.82229E-08         0.16065E-19         0.00000E+00
    0.84042E-08         0.16298E-19         0.00000E+00
    0.85921E-08         0.18394E-19         0.00000E+00
    0.87864E-08         0.90804E-20         0.00000E+00
    0.89872E-08        -0.13970E-19         0.00000E+00
    0.91944E-08        -0.23283E-19         0.00000E+00
    0.94081E-08        -0.13970E-20         0.00000E+00
    0.96282E-08         0.11176E-19         0.00000E+00
    0.98546E-08         0.27474E-19         0.00000E+00
    0.10087E-07         0.15134E-19         0.00000E+00
    0.10326E-07        -0.79162E-20         0.00000E+00
    0.10571E-07        -0.14435E-19         0.00000E+00
    0.10822E-07         0.11642E-19         0.00000E+00
    0.11079E-07         0.65193E-20         0.00000E+00
    0.11342E-07        -0.15832E-19         0.00000E+00
    0.11611E-07        -0.60536E-20         0.00000E+00
    0.11886E-07         0.58208E-20         0.00000E+00
    0.12166E-07        -0.20955E-20         0.00000E+00
    0.12452E-07        -0.79162E-20         0.00000E+00
    0.12742E-07         0.11642E-20         0.00000E+00
    0.13038E-07         0.13039E-19         0.00000E+00
    0.13339E-07         0.14203E-19         0.00000E+00
    0.13645E-07         0.17928E-19         0.00000E+00
    0.13955E-07         0.16997E-19         0.00000E+00
    0.14270E-07         0.62864E-20         0.00000E+00
    0.14589E-07         0.65193E-20         0.00000E+00
    0.14912E-07         0.23749E-19         0.00000E+00
    0.15238E-07         0.33993E-19         0.00000E+00
    0.15568E-07         0.32131E-19         0.00000E+00
    0.15901E-07         0.17695E-19         0.00000E+00
    0.16236E-07        -0.55879E-20         0.00000E+00
    0.16575E-07        -0.17462E-19         0.00000E+00
    0.16915E-07        -0.27707E-19         0.00000E+00
    0.17257E-07        -0.10477E-19         0.00000E+00
    0.17600E-07        -0.60536E-20         0.00000E+00
    0.17945E-07        -0.24680E-19         0.00000E+00
    0.18290E-07        -0.19791E-19         0.00000E+00
    0.18635E-07        -0.46566E-20         0.00000E+00
    0.18980E-07        -0.34925E-20         0.00000E+00
    0.19325E-07        -0.97789E-20         0.00000E+00
    0.19668E-07        -0.11409E-19         0.00000E+00
    0.20010E-07        -0.41910E-20         0.00000E+00
    0.20349E-07         0.13504E-19         0.00000E+00
    0.20686E-07         0.13039E-19         0.00000E+00
    0.21019E-07         0.58208E-20         0.00000E+00
    0.21349E-07        -0.69849E-21         0.00000E+00
    0.21674E-07         0.13970E-19         0.00000E+00
    0.21994E-07         0.26310E-19         0.00000E+00
    0.22309E-07         0.11874E-19         0.00000E+00
    0.22618E-07         0.16065E-19         0.00000E+00
    0.22920E-07         0.13039E-19         0.00000E+00
    0.23215E-07         0.48894E-20         0.00000E+00
    0.23502E-07         0.18626E-20         0.00000E+00
    0.23781E-07        -0.60536E-20         0.00000E+00
    0.24050E-07         0.39581E-20         0.00000E+00
    0.24309E-07         0.87311E-20         0.00000E+00
    0.24559E-07        -0.64028E-20         0.00000E+00
    0.24797E-07        -0.10361E-19         0.00000E+00
    0.25024E-07         0.52387E-20         0.00000E+00
    0.25238E-07        -0.39581E-20         0.00000E+00
    0.25440E-07         0.46566E-21         0.00000E+00
    0.25629E-07         0.40745E-20         0.00000E+00
    0.25804E-07        -0.46566E-21         0.00000E+00
    0.25965E-07         0.11642E-19         0.00000E+00
    0.26111E-07         0.23982E-19         0.00000E+00
    0.26242E-07         0.13970E-19         0.00000E+00
    0.26358E-07        -0.43074E-20         0.00000E+00
    0.26457E-07        -0.10128E-19         0.00000E+00
    0.26541E-07        -0.53551E-20         0.00000E+00
    0.26608E-07         0.11758E-19         0.00000E+00
    0.26659E-07         0.15949E-19         0.00000E+00
    0.26693E-07         0.11059E-19         0.00000E+00
    0.26710E-07         0.57044E-20         0.00000E+00
    0.57891E-08        -0.76834E-20         0.00000E+00
    0.57955E-08        -0.72177E-20         0.00000E+00
    0.58083E-08         0.34925E-20         0.00000E+00
    0.58275E-08         0.65193E-20         0.00000E+00
    0.58530E-08        -0.11642E-20         0.00000E+00
    0.58849E-08         0.30268E-20         0.00000E+00
    0.59233E-08         0.11409E-19         0.00000E+00
    0.59680E-08         0.13039E-19         0.00000E+00
    0.60192E-08         0.13970E-19         0.00000E+00
    0.60768E-08         0.24680E-19         0.00000E+00
    0.61408E-08         0.36554E-19         0.00000E+00
    0.62112E-08         0.27241E-19         0.00000E+00
    0.62881E-08         0.23982E-19         0.00000E+00
    0.63715E-08         0.39581E-20         0.00000E+00
    0.64614E-08         0.13970E-19         0.00000E+00
    0.65577E-08         0.18859E-19         0.00000E+00
    0.66605E-08         0.11874E-19         0.00000E+00
    0.67699E-08         0.97789E-20         0.00000E+00
    0.68857E-08         0.41910E-20         0.00000E+00
    0.70081E-08         0.19325E-19         0.00000E+00
    0.71371E-08        -0.48894E-20         0.00000E+00
    0.72725E-08        -0.31665E-19         0.00000E+00
    0.74146E-08        -0.21188E-19         0.00000E+00
    0.75631E-08        -0.27940E-20         0.00000E+00
    0.77183E-08         0.11409E-19         0.00000E+00
    0.78799E-08         0.10245E-19         0.00000E+00
    0.80482E-08         0.13737E-19         0.00000E+00
    0.82229E-08         0.22585E-19         0.00000E+00
    0.84042E-08         0.46566E-20         0.00000E+00
    0.85921E-08        -0.26077E-19         0.00000E+00
    0.87864E-08        -0.23050E-19         0.00000E+00
    0.89872E-08        -0.21886E-19         0.00000E+00
    0.91944E-08        -0.10012E-19         0.00000E+00
    0.94081E-08         0.27940E-20         0.00000E+00
    0.96282E-08        -0.69849E-20         0.00000E+00
    0.98546E-08        -0.12107E-19         0.00000E+00
    0.10087E-07         0.37253E-20         0.00000E+00
    0.10326E-07         0.11642E-19         0.00000E+00
    0.10571E-07        -0.27940E-20         0.00000E+00
    0.10822E-07        -0.83819E-20         0.00000E+00
    0.11079E-07         0.27940E-20         0.00000E+00
    0.11342E-07        -0.20955E-20         0.00000E+00
    0.11611E-07        -0.51223E-20         0.00000E+00
    0.11886E-07         0.15832E-19         0.00000E+00
    0.12166E-07         0.25611E-20         0.00000E+00
    0.12452E-07        -0.46566E-20         0.00000E+00
    0.12742E-07        -0.16298E-20         0.00000E+00
    0.13038E-07         0.12573E-19         0.00000E+00
    0.13339E-07         0.72177E-20         0.00000E+00
    0.13645E-07         0.23283E-20         0.00000E+00
    0.13955E-07         0.46566E-21         0.00000E+00
    0.14270E-07        -0.46566E-20         0.00000E+00
    0.14589E-07        -0.41910E-20         0.00000E+00
    0.14912E-07        -0.41910E-20         0.00000E+00
    0.15238E-07         0.25379E-19         0.00000E+00
    0.15568E-07         0.20722E-19         0.00000E+00
    0.15901E-07         0.69849E-20         0.00000E+00
    0.16236E-07         0.55879E-20         0.00000E+00
    0.16575E-07         0.16298E-20         0.00000E+00
    0.16915E-07         0.25611E-20         0.00000E+00
    0.17257E-07        -0.17928E-19         0.00000E+00
    0.17600E-07        -0.10245E-19         0.00000E+00
    0.17945E-07        -0.95461E-20         0.00000E+00
    0.18290E-07        -0.13970E-19         0.00000E+00
    0.18635E-07         0.74506E-20         0.00000E+00
    0.18980E-07        -0.25611E-20         0.00000E+00
    0.19325E-07        -0.79162E-20         0.00000E+00
    0.19668E-07         0.18626E-20         0.00000E+00
    0.20010E-07         0.62864E-20         0.00000E+00
    0.20349E-07        -0.46566E-21         0.00000E+00
    0.20686E-07        -0.30268E-20         0.00000E+00
    0.21019E-07        -0.44238E-20         0.00000E+00
    0.21349E-07         0.11642E-20         0.00000E+00
    0.21674E-07         0.13039E-19         0.00000E+00
    0.21994E-07         0.12340E-19         0.00000E+00
    0.22309E-07         0.60536E-20         0.00000E+00
    0.22618E-07         0.19325E-19         0.00000E+00
    0.22920E-07         0.27940E-20         0.00000E+00
    0.23215E-07        -0.93132E-20         0.00000E+00
    0.23502E-07         0.11409E-19         0.00000E+00
    0.23781E-07         0.11874E-19         0.00000E+00
    0.24050E-07         0.11642E-20         0.00000E+00
    0.24309E-07        -0.58208E-20         0.00000E+00
    0.24559E-07         0.93132E-21         0.00000E+00
    0.24797E-07         0.14086E-19         0.00000E+00
    0.25024E-07         0.34925E-21         0.00000E+00
    0.25238E-07        -0.23283E-20         0.00000E+00
    0.25440E-07         0.11642E-20         0.00000E+00
    0.25629E-07        -0.80327E-20         0.00000E+00
    0.25804E-07        -0.15600E-19         0.00000E+00
    0.25965E-07        -0.30268E-20         0.00000E+00
    0.26111E-07         0.14319E-19         0.00000E+00
    0.26242E-07         0.22119E-20         0.00000E+00
    0.26358E-07         0.11642E-21         0.00000E+00
    0.26457E-07         0.61700E-20         0.00000E+00
    0.26541E-07         0.14668E-19         0.00000E+00
    0.26608E-07         0.25728E-19         0.00000E+00
    0.26659E-07         0.18161E-19         0.00000E+00
    0.26693E-07         0.15832E-19         0.00000E+00
    0.26710E-07         0.81491E-20         0.00000E+00
    0.57891E-08        -0.83819E-20         0.00000E+00
    0.57955E-08        -0.16531E-19         0.00000E+00
    0.58083E-08        -0.60536E-20         0.00000E+00
    0.58275E-08        -0.34925E-20         0.00000E+00
    0.58530E-08         0.48894E-20         0.00000E+00
    0.58849E-08         0.15832E-19         0.00000E+00
    0.59233E-08         0.21420E-19         0.00000E+00
    0.59680E-08         0.62864E-20         0.00000E+00
    0.60192E-08        -0.11874E-19         0.00000E+00
    0.60768E-08         0.18626E-20         0.00000E+00
    0.61408E-08         0.19791E-19         0.00000E+00
    0.62112E-08         0.48894E-20         0.00000E+00
    0.62881E-08         0.34925E-20         0.00000E+00
    0.63715E-08         0.23050E-19         0.00000E+00
    0.64614E-08         0.79162E-20         0.00000E+00
    0.65577E-08         0.25611E-20         0.00000E+00
    0.66605E-08         0.15600E-19         0.00000E+00
    0.67699E-08         0.19325E-19         0.00000E+00
    0.68857E-08         0.18859E-19         0.00000E+00
    0.70081E-08         0.20955E-20         0.00000E+00
    0.71371E-08         0.11642E-20         0.00000E+00
    0.72725E-08        -0.39581E-20         0.00000E+00
    0.74146E-08         0.34925E-20         0.00000E+00
    0.75631E-08         0.13039E-19         0.00000E+00
    0.77183E-08         0.65193E-20         0.00000E+00
    0.78799E-08         0.12573E-19         0.00000E+00
    0.80482E-08         0.93132E-21         0.00000E+00
    0.82229E-08        -0.16298E-20         0.00000E+00
    0.84042E-08         0.11409E-19         0.00000E+00
    0.85921E-08         0.97789E-20         0.00000E+00
    0.87864E-08        -0.93132E-21         0.00000E+00
    0.89872E-08        -0.93132E-21         0.00000E+00
    0.91944E-08         0.69849E-21         0.00000E+00
    0.94081E-08        -0.81491E-20         0.00000E+00
    0.96282E-08        -0.19791E-19         0.00000E+00
    0.98546E-08        -0.12340E-19         0.00000E+00
    0.10087E-07         0.76834E-20         0.00000E+00
    0.10326E-07         0.10245E-19         0.00000E+00
    0.10571E-07         0.25611E-20         0.00000E+00
    0.10822E-07        -0.12573E-19         0.00000E+00
    0.11079E-07        -0.12806E-19         0.00000E+00
    0.11342E-07        -0.18808E-36         0.00000E+00
    0.11611E-07        -0.74506E-20         0.00000E+00
    0.11886E-07        -0.18626E-20         0.00000E+00
    0.12166E-07        -0.37253E-20         0.00000E+00
    0.12452E-07        -0.65193E-20         0.00000E+00
    0.12742E-07        -0.86147E-20         0.00000E+00
    0.13038E-07        -0.13970E-20         0.00000E+00
    0.13339E-07         0.11176E-19         0.00000E+00
    0.13645E-07         0.11176E-19         0.00000E+00
    0.13955E-07         0.76834E-20         0.00000E+00
    0.14270E-07         0.13970E-20         0.00000E+00
    0.14589E-07         0.32596E-20         0.00000E+00
    0.14912E-07        -0.93132E-20         0.00000E+00
    0.15238E-07         0.10943E-19         0.00000E+00
    0.15568E-07         0.28638E-19         0.00000E+00
    0.15901E-07         0.46566E-20         0.00000E+00
    0.16236E-07        -0.55879E-20         0.00000E+00
    0.16575E-07         0.11642E-20         0.00000E+00
    0.16915E-07         0.20955E-20         0.00000E+00
    0.17257E-07        -0.12573E-19         0.00000E+00
    0.17600E-07        -0.27707E-19         0.00000E+00
    0.17945E-07        -0.13039E-19         0.00000E+00
    0.18290E-07        -0.27940E-20         0.00000E+00
    0.18635E-07        -0.46566E-20         0.00000E+00
    0.18980E-07        -0.20023E-19         0.00000E+00
    0.19325E-07        -0.20489E-19         0.00000E+00
    0.19668E-07        -0.55879E-20         0.00000E+00
    0.20010E-07        -0.18626E-20         0.00000E+00
    0.20349E-07         0.23283E-21         0.00000E+00
    0.20686E-07        -0.72177E-20         0.00000E+00
    0.21019E-07        -0.58208E-20         0.00000E+00
    0.21349E-07         0.12340E-19         0.00000E+00
    0.21674E-07         0.18626E-19         0.00000E+00
    0.21994E-07         0.15134E-19         0.00000E+00
    0.22309E-07         0.46566E-20         0.00000E+00
    0.22618E-07         0.12573E-19         0.00000E+00
    0.22920E-07         0.25146E-19         0.00000E+00
    0.23215E-07         0.13970E-19         0.00000E+00
    0.23502E-07         0.12340E-19         0.00000E+00
    0.23781E-07         0.11642E-19         0.00000E+00
    0.24050E-07         0.10943E-19         0.00000E+00
    0.24309E-07         0.58208E-21         0.00000E+00
    0.24559E-07         0.27940E-20         0.00000E+00
    0.24797E-07         0.59372E-20         0.00000E+00
    0.25024E-07        -0.46566E-20         0.00000E+00
    0.25238E-07        -0.11642E-19         0.00000E+00
    0.25440E-07         0.31432E-20         0.00000E+00
    0.25629E-07         0.10710E-19         0.00000E+00
    0.25804E-07        -0.33760E-20         0.00000E+00
    0.25965E-07        -0.11642E-19         0.00000E+00
    0.26111E-07        -0.46566E-20         0.00000E+00
    0.26242E-07         0.26776E-20         0.00000E+00
    0.26358E-07         0.11758E-19         0.00000E+00
    0.26457E-07         0.24680E-19         0.00000E+00
    0.26541E-07         0.25146E-19         0.00000E+00
    0.26608E-07         0.62864E-20         0.00000E+00
    0.26659E-07         0.38417E-20         0.00000E+00
    0.26693E-07         0.21188E-19         0.00000E+00
    0.26710E-07         0.14086E-19         0.00000E+00
    0.57891E-08         0.14901E-19         0.00000E+00
    0.57955E-08         0.46566E-21         0.00000E+00
    0.58083E-08        -0.32596E-20         0.00000E+00
    0.58275E-08         0.23283E-20         0.00000E+00
    0.58530E-08        -0.81491E-20         0.00000E+00
    0.58849E-08        -0.11642E-20         0.00000E+00
    0.59233E-08         0.12107E-19         0.00000E+00
    0.59680E-08         0.11409E-19         0.00000E+00
    0.60192E-08        -0.79162E-20         0.00000E+00
    0.60768E-08        -0.67521E-20         0.00000E+00
    0.61408E-08        -0.23283E-21         0.00000E+00
    0.62112E-08         0.62864E-20         0.00000E+00
    0.62881E-08         0.62864E-20         0.00000E+00
    0.63715E-08         0.39581E-20         0.00000E+00
    0.64614E-08         0.69849E-21         0.00000E+00
    0.65577E-08         0.76834E-20         0.00000E+00
    0.66605E-08         0.12107E-19         0.00000E+00
    0.67699E-08         0.11176E-19         0.00000E+00
    0.68857E-08        -0.58208E-20         0.00000E+00
    0.70081E-08         0.30268E-20         0.00000E+00
    0.71371E-08         0.23283E-21         0.00000E+00
    0.72725E-08         0.23283E-21         0.00000E+00
    0.74146E-08         0.16997E-19         0.00000E+00
    0.75631E-08         0.11176E-19         0.00000E+00
    0.77183E-08         0.60536E-20         0.00000E+00
    0.78799E-08        -0.13970E-20         0.00000E+00
    0.80482E-08         0.11642E-20         0.00000E+00
    0.82229E-08         0.23283E-20         0.00000E+00
    0.84042E-08         0.23283E-20         0.00000E+00
    0.85921E-08         0.10710E-19         0.00000E+00
    0.87864E-08        -0.65193E-20         0.00000E+00
    0.89872E-08        -0.14901E-19         0.00000E+00
    0.91944E-08        -0.10710E-19         0.00000E+00
    0.94081E-08        -0.13271E-19         0.00000E+00
    0.96282E-08        -0.65193E-20         0.00000E+00
    0.98546E-08        -0.48894E-20         0.00000E+00
    0.10087E-07        -0.51223E-20         0.00000E+00
    0.10326E-07        -0.93132E-21         0.00000E+00
    0.10571E-07        -0.74506E-20         0.00000E+00
    0.10822E-07        -0.62864E-20         0.00000E+00
    0.11079E-07        -0.46566E-21         0.00000E+00
    0.11342E-07         0.20955E-20         0.00000E+00
    0.11611E-07         0.10943E-19         0.00000E+00
    0.11886E-07         0.27940E-20         0.00000E+00
    0.12166E-07         0.18626E-20         0.00000E+00
    0.12452E-07        -0.90804E-20         0.00000E+00
    0.12742E-07        -0.21653E-19         0.00000E+00
    0.13038E-07         0.51223E-20         0.00000E+00
    0.13339E-07         0.13737E-19         0.00000E+00
    0.13645E-07        -0.10943E-19         0.00000E+00
    0.13955E-07        -0.62864E-20         0.00000E+00
    0.14270E-07        -0.74506E-20         0.00000E+00
    0.14589E-07        -0.22352E-19         0.00000E+00
    0.14912E-07         0.41910E-20         0.00000E+00
    0.15238E-07         0.18394E-19         0.00000E+00
    0.15568E-07        -0.86147E-20         0.00000E+00
    0.15901E-07        -0.48894E-20         0.00000E+00
    0.16236E-07         0.11176E-19         0.00000E+00
    0.16575E-07         0.53551E-20         0.00000E+00
    0.16915E-07         0.25611E-20         0.00000E+00
    0.17257E-07         0.44238E-20         0.00000E+00
    0.17600E-07        -0.88476E-20         0.00000E+00
    0.17945E-07        -0.14435E-19         0.00000E+00
    0.18290E-07        -0.69849E-20         0.00000E+00
    0.18635E-07         0.18626E-20         0.00000E+00
    0.18980E-07         0.32596E-20         0.00000E+00
    0.19325E-07         0.60536E-20         0.00000E+00
    0.19668E-07         0.10477E-19         0.00000E+00
    0.20010E-07         0.23283E-21         0.00000E+00
    0.20349E-07         0.46566E-20         0.00000E+00
    0.20686E-07         0.46566E-20         0.00000E+00
    0.21019E-07        -0.16298E-19         0.00000E+00
    0.21349E-07        -0.62864E-20         0.00000E+00
    0.21674E-07         0.44238E-20         0.00000E+00
    0.21994E-07        -0.34925E-20         0.00000E+00
    0.22309E-07        -0.65193E-20         0.00000E+00
    0.22618E-07         0.51223E-20         0.00000E+00
    0.22920E-07         0.12340E-19         0.00000E+00
    0.23215E-07         0.20256E-19         0.00000E+00
    0.23502E-07         0.31199E-19         0.00000E+00
    0.23781E-07         0.81491E-20         0.00000E+00
    0.24050E-07        -0.90804E-20         0.00000E+00
    0.24309E-07         0.76834E-20         0.00000E+00
    0.24559E-07         0.68685E-20         0.00000E+00
    0.24797E-07        -0.81491E-21         0.00000E+00
    0.25024E-07        -0.25611E-20         0.00000E+00
    0.25238E-07         0.74506E-20         0.00000E+00
    0.25440E-07         0.72177E-20         0.00000E+00
    0.25629E-07        -0.61700E-20         0.00000E+00
    0.25804E-07         0.23283E-20         0.00000E+00
    0.25965E-07        -0.79162E-20         0.00000E+00
    0.26111E-07        -0.11292E-19         0.00000E+00
    0.26242E-07        -0.68685E-20         0.00000E+00
    0.26358E-07         0.13621E-19         0.00000E+00
    0.26457E-07         0.91968E-20         0.00000E+00
    0.26541E-07         0.27940E-20         0.00000E+00
    0.26608E-07         0.11525E-19         0.00000E+00
    0.26659E-07         0.10361E-19         0.00000E+00
    0.26693E-07        -0.36089E-20         0.00000E+00
    0.26710E-07        -0.68685E-20         0.00000E+00
    0.57891E-08        -0.11642E-20         0.00000E+00
    0.57955E-08         0.37253E-20         0.00000E+00
    0.58083E-08        -0.83819E-20         0.00000E+00
    0.58275E-08        -0.37616E-36         0.00000E+00
    0.58530E-08        -0.48894E-20         0.00000E+00
    0.58849E-08        -0.16997E-19         0.00000E+00
    0.59233E-08         0.25611E-20         0.00000E+00
    0.59680E-08         0.76834E-20         0.00000E+00
    0.60192E-08        -0.69849E-21         0.00000E+00
    0.60768E-08         0.10012E-19         0.00000E+00
    0.61408E-08         0.11176E-19         0.00000E+00
    0.62112E-08        -0.74506E-20         0.00000E+00
    0.62881E-08        -0.17928E-19         0.00000E+00
    0.63715E-08         0.44238E-20         0.00000E+00
    0.64614E-08         0.48894E-20         0.00000E+00
    0.65577E-08        -0.16298E-20         0.00000E+00
    0.66605E-08         0.18859E-19         0.00000E+00
    0.67699E-08         0.17229E-19         0.00000E+00
    0.68857E-08         0.86147E-20         0.00000E+00
    0.70081E-08         0.95461E-20         0.00000E+00
    0.71371E-08        -0.44238E-20         0.00000E+00
    0.72725E-08        -0.14435E-19         0.00000E+00
    0.74146E-08         0.37253E-20         0.00000E+00
    0.75631E-08         0.22585E-19         0.00000E+00
    0.77183E-08         0.41910E-20         0.00000E+00
    0.78799E-08        -0.20722E-19         0.00000E+00
    0.80482E-08        -0.15600E-19         0.00000E+00
    0.82229E-08        -0.95461E-20         0.00000E+00
    0.84042E-08        -0.88476E-20         0.00000E+00
    0.85921E-08        -0.23283E-20         0.00000E+00
    0.87864E-08         0.20955E-20         0.00000E+00
    0.89872E-08         0.34925E-20         0.00000E+00
    0.91944E-08         0.46566E-21         0.00000E+00
    0.94081E-08        -0.12573E-19         0.00000E+00
    0.96282E-08        -0.10710E-19         0.00000E+00
    0.98546E-08        -0.20955E-20         0.00000E+00
    0.10087E-07         0.58208E-20         0.00000E+00
    0.10326E-07         0.81491E-20         0.00000E+00
    0.10571E-07         0.58208E-20         0.00000E+00
    0.10822E-07        -0.11642E-20         0.00000E+00
    0.11079E-07        -0.46566E-20         0.00000E+00
    0.11342E-07        -0.32596E-20         0.00000E+00
    0.11611E-07         0.39581E-20         0.00000E+00
    0.11886E-07         0.17928E-19         0.00000E+00
    0.12166E-07         0.86147E-20         0.00000E+00
    0.12452E-07        -0.41910E-20         0.00000E+00
    0.12742E-07         0.11642E-19         0.00000E+00
    0.13038E-07         0.19092E-19         0.00000E+00
    0.13339E-07         0.10012E-19         0.00000E+00
    0.13645E-07         0.18394E-19         0.00000E+00
    0.13955E-07         0.15600E-19         0.00000E+00
    0.14270E-07         0.55879E-20         0.00000E+00
    0.14589E-07         0.17695E-19         0.00000E+00
    0.14912E-07        -0.46566E-21         0.00000E+00
    0.15238E-07        -0.11409E-19         0.00000E+00
    0.15568E-07         0.32596E-20         0.00000E+00
    0.15901E-07        -0.12806E-19         0.00000E+00
    0.16236E-07        -0.14203E-19         0.00000E+00
    0.16575E-07         0.13970E-20         0.00000E+00
    0.16915E-07         0.25611E-20         0.00000E+00
    0.17257E-07         0.72177E-20         0.00000E+00
    0.17600E-07         0.51223E-20         0.00000E+00
    0.17945E-07        -0.18626E-20         0.00000E+00
    0.18290E-07        -0.10943E-19         0.00000E+00
    0.18635E-07        -0.60536E-20         0.00000E+00
    0.18980E-07         0.58208E-20         0.00000E+00
    0.19325E-07         0.95461E-20         0.00000E+00
    0.19668E-07         0.62864E-20         0.00000E+00
    0.20010E-07         0.13039E-19         0.00000E+00
    0.20349E-07         0.13271E-19         0.00000E+00
    0.20686E-07        -0.76834E-20         0.00000E+00
    0.21019E-07        -0.69849E-20         0.00000E+00
    0.21349E-07        -0.37253E-20         0.00000E+00
    0.21674E-07        -0.93132E-20         0.00000E+00
    0.21994E-07         0.69849E-20         0.00000E+00
    0.22309E-07         0.46566E-21         0.00000E+00
    0.22618E-07        -0.19092E-19         0.00000E+00
    0.22920E-07         0.00000E+00         0.00000E+00
    0.23215E-07         0.13970E-19         0.00000E+00
    0.23502E-07         0.74506E-20         0.00000E+00
    0.23781E-07         0.15600E-19         0.00000E+00
    0.24050E-07         0.10943E-19         0.00000E+00
    0.24309E-07         0.19791E-20         0.00000E+00
    0.24559E-07         0.46566E-20         0.00000E+00
    0.24797E-07         0.51223E-20         0.00000E+00
    0.25024E-07         0.43074E-20         0.00000E+00
    0.25238E-07        -0.46566E-21         0.00000E+00
    0.25440E-07         0.53551E-20         0.00000E+00
    0.25629E-07         0.94296E-20         0.00000E+00
    0.25804E-07         0.44238E-20         0.00000E+00
    0.25965E-07         0.30268E-20         0.00000E+00
    0.26111E-07        -0.67521E-20         0.00000E+00
    0.26242E-07        -0.10245E-19         0.00000E+00
    0.26358E-07        -0.25611E-20         0.00000E+00
    0.26457E-07         0.36089E-20         0.00000E+00
    0.26541E-07         0.16298E-20         0.00000E+00
    0.26608E-07        -0.41910E-20         0.00000E+00
    0.26659E-07        -0.59372E-20         0.00000E+00
    0.26693E-07         0.30268E-20         0.00000E+00
    0.26710E-07         0.33760E-20         0.00000E+00
TENSORS stressef double 
    0.12676E+08         0.16685E+05         0.00000E+00
    0.16685E+05         0.29554E+08         0.00000E+00
    0.00000E+00         0.00000E+00         0.12669E+08
 
    0.12663E+08         0.43707E+05         0.00000E+00
    0.43707E+05         0.29533E+08         0.00000E+00
    0.00000E+00         0.00000E+00         0.12659E+08
 
    0.12650E+08         0.62254E+05         0.00000E+00
    0.62254E+05         0.29506E+08         0.00000E+00
    0.00000E+00         0.00000E+00         0.12647E+08
 
    0.12637E+08         0.77392E+05         0.00000E+00
    0.77392E+05         0.29477E+08         0.00000E+00
    0.00000E+00         0.00000E+00         0.12634E+08
 
    0.12622E+08         0.90477E+05         0.00000E+00
    0.90477E+05         0.29444E+08         0.00000E+00
    0.00000E+00         0.00000E+00         0.12620E+08
 
    0.12607E+08         0.10232E+06         0.00000E+00
    0.10232E+06         0.29409E+08         0.00000E+00
    0.00000E+00         0.00000E+00         0.12605E+08
 
    0.12591E+08         0.11339E+06         0.00000E+00
    0.11339E+06         0.29372E+08         0.00000E+00
    0.00000E+00         0.00000E+00         0.12589E+08
 
    0.12575E+08         0.12397E+06         0.00000E+00
    0.12397E+06         0.29334E+08         0.00000E+00
    0.00000E+00         0.00000E+00         0.12573E+08
 
    0.12558E+08         0.13421E+06         0.00000E+00
    0.13421E+06         0.29295E+08         0.00000E+00
    0.00000E+00         0.00000E+00         0.12556E+08
 
    0.12540E+08         0.14420E+06         0.00000E+00
    0.14420E+06         0.29254E+08         0.00000E+00
    0.00000E+00         0.00000E+00         0.12538E+08
 
    0.12523E+08         0.15399E+06         0.00000E+00
    0.15399E+06         0.29213E+08         0.00000E+00
    0.00000E+00         0.00000E+00         0.12521E+08
 
    0.12505E+08         0.16358E+06         0.00000E+00
    0.16358E+06         0.29172E+08         0.00000E+00
    0.00000E+00         0.00000E+00         0.12503E+08
 
    0.12487E+08         0.17299E+06         0.00000E+00
    0.17299E+06         0.29130E+08         0.00000E+00
    0.00000E+00         0.00000E+00         0.12485E+08
 
    0.12469E+08         0.18222E+06         0.00000E+00
    0.18222E+06         0.29087E+08         0.00000E+00
    0.00000E+00         0.00000E+00         0.12467E+08
 
    0.12450E+08         0.19127E+06         0.00000E+00
    0.19127E+06         0.29044E+08         0.00000E+00
    0.00000E+00         0.00000E+00         0.12448E+08
 
    0.12432E+08         0.20014E+06         0.00000E+00
    0.20014E+06         0.29001E+08         0.00000E+00
    0.00000E+00         0.00000E+00         0.12430E+08
 
    0.12413E+08         0.20885E+06         0.00000E+00
    0.20885E+06         0.28958E+08         0.00000E+00
    0.00000E+00         0.00000E+00         0.12411E+08
 
    0.12394E+08         0.21740E+06         0.00000E+00
    0.21740E+06         0.28913E+08         0.00000E+00
    0.00000E+00         0.00000E+00         0.12392E+08
 
    0.12375E+08         0.22581E+06         0.00000E+00
    0.22581E+06         0.28869E+08         0.00000E+00
    0.00000E+00         0.00000E+00         0.12373E+08
 
    0.12355E+08         0.23409E+06         0.00000E+00
    0.23409E+06         0.28824E+08         0.00000E+00
    0.00000E+00         0.00000E+00         0.12354E+08
 
    0.12336E+08         0.24227E+06         0.00000E+00
    0.24227E+06         0.28778E+08         0.00000E+00
    0.00000E+00         0.00000E+00         0.12334E+08
 
    0.12316E+08         0.25035E+06         0.00000E+00
    0.25035E+06         0.28732E+08         0.00000E+00
    0.00000E+00         0.00000E+00         0.12314E+08
 
    0.12296E+08         0.25836E+06         0.00000E+00
    0.25836E+06         0.28685E+08         0.00000E+00
    0.00000E+00         0.00000E+00         0.12294E+08
 
    0.12275E+08         0.26631E+06         0.00000E+00
    0.26631E+06         0.28637E+08         0.00000E+00
    0.00000E+00         0.00000E+00         0.12274E+08
 
    0.12254E+08         0.27424E+06         0.00000E+00
    0.27424E+06         0.28588E+08         0.00000E+00
    0.00000E+00         0.00000E+00         0.12253E+08
 
    0.12233E+08         0.28214E+06         0.00000E+00
    0.28214E+06         0.28539E+08         0.00000E+00
    0.00000E+00         0.00000E+00         0.12232E+08
 
    0.12212E+08         0.29003E+06         0.00000E+00
    0.29003E+06         0.28488E+08         0.00000E+00
    0.00000E+00         0.00000E+00         0.12210E+08
 
    0.12189E+08         0.29794E+06         0.00000E+00
    0.29794E+06         0.28437E+08         0.00000E+00
    0.00000E+00         0.00000E+00         0.12188E+08
 
    0.12167E+08         0.30588E+06         0.00000E+00
    0.30588E+06         0.28384E+08         0.00000E+00
    0.00000E+00         0.00000E+00         0.12165E+08
 
    0.12144E+08         0.31385E+06         0.00000E+00
    0.31385E+06         0.28331E+08         0.00000E+00
    0.00000E+00         0.00000E+00         0.12142E+08
 
    0.12121E+08         0.32187E+06         0.00000E+00
    0.32187E+06         0.28276E+08         0.00000E+00
    0.00000E+00         0.00000E+00         0.12119E+08
 
    0.12097E+08         0.32995E+06         0.00000E+00
    0.32995E+06         0.28220E+08         0.00000E+00
    0.00000E+00         0.00000E+00         0.12095E+08
 
    0.12072E+08         0.33809E+06         0.00000E+00
    0.33809E+06         0.28163E+08         0.00000E+00
    0.00000E+00         0.00000E+00         0.12071E+08
 
    0.12047E+08         0.34631E+06         0.00000E+00
    0.34631E+06         0.28105E+08         0.00000E+00
    0.00000E+00         0.00000E+00         0.12046E+08
 
    0.12022E+08         0.35460E+06         0.00000E+00
    0.35460E+06         0.28045E+08         0.00000E+00
    0.00000E+00         0.00000E+00         0.12020E+08
 
    0.11996E+08         0.36297E+06         0.00000E+00
    0.36297E+06         0.27984E+08         0.00000E+00
    0.00000E+00         0.00000E+00         0.11994E+08
 
    0.11969E+08         0.37143E+06         0.00000E+00
    0.37143E+06         0.27922E+08         0.00000E+00
    0.00000E+00         0.00000E+00         0.11967E+08
 
    0.11941E+08         0.37997E+06         0.00000E+00
    0.37997E+06         0.27858E+08         0.00000E+00
    0.00000E+00         0.00000E+00         0.11940E+08
 
    0.11913E+08         0.38861E+06         0.00000E+00
    0.38861E+06         0.27792E+08         0.00000E+00
    0.00000E+00         0.00000E+00         0.11912E+08
 
    0.11885E+08         0.39732E+06         0.00000E+00
    0.39732E+06         0.27725E+08         0.00000E+00
    0.00000E+00         0.00000E+00         0.11883E+08
 
    0.11855E+08         0.40613E+06         0.00000E+00
    0.40613E+06         0.27656E+08         0.00000E+00
    0.00000E+00         0.00000E+00         0.11853E+08
 
    0.11825E+08         0.41501E+06         0.00000E+00
    0.41501E+06         0.27586E+08         0.00000E+00
    0.00000E+00         0.00000E+00         0.11823E+08
 
    0.11794E+08         0.42397E+06         0.00000E+00
    0.42397E+06         0.27514E+08         0.00000E+00
    0.00000E+00         0.00000E+00         0.11792E+08
 
    0.11763E+08         0.43301E+06         0.00000E+00
    0.43301E+06         0.27440E+08         0.00000E+00
    0.00000E+00         0.00000E+00         0.11761E+08
 
    0.11730E+08         0.44211E+06         0.00000E+00
    0.44211E+06         0.27364E+08         0.00000E+00
    0.00000E+00         0.00000E+00         0.11728E+08
 
    0.11697E+08         0.45128E+06         0.00000E+00
    0.45128E+06         0.27287E+08         0.00000E+00
    0.00000E+00         0.00000E+00         0.11695E+08
 
    0.11663E+08         0.46050E+06         0.00000E+00
    0.46050E+06         0.27208E+08         0.00000E+00
    0.00000E+00         0.00000E+00         0.11661E+08
 
    0.11628E+08         0.46976E+06         0.00000E+00
    0.46976E+06         0.27126E+08         0.00000E+00
    0.00000E+00         0.00000E+00         0.11626E+08
 
    0.11593E+08         0.47905E+06         0.00000E+00
    0.47905E+06         0.27043E+08         0.00000E+00
    0.00000E+00         0.00000E+00         0.11591E+08
 
    0.11556E+08         0.48837E+06         0.00000E+00
    0.48837E+06         0.26958E+08         0.00000E+00
    0.00000E+00         0.00000E+00         0.11554E+08
 
    0.11519E+08         0.49769E+06         0.00000E+00
    0.49769E+06         0.26871E+08         0.00000E+00
    0.00000E+00         0.00000E+00         0.11517E+08
 
    0.11481E+08         0.50701E+06         0.00000E+00
    0.50701E+06         0.26782E+08         0.00000E+00
    0.00000E+00         0.00000E+00         0.11479E+08
 
    0.11442E+08         0.51631E+06         0.00000E+00
    0.51631E+06         0.26691E+08         0.00000E+00
    0.00000E+00         0.00000E+00         0.11440E+08
 
    0.11402E+08         0.52558E+06         0.00000E+00
    0.52558E+06         0.26597E+08         0.00000E+00
    0.00000E+00         0.00000E+00         0.11400E+08
 
    0.11361E+08         0.53479E+06         0.00000E+00
    0.53479E+06         0.26502E+08         0.00000E+00
    0.00000E+00         0.00000E+00         0.11359E+08
 
    0.11319E+08         0.54392E+06         0.00000E+00
    0.54392E+06         0.26404E+08         0.00000E+00
    0.00000E+00         0.00000E+00         0.11317E+08
 
    0.11276E+08         0.55296E+06         0.00000E+00
    0.55296E+06         0.26304E+08         0.00000E+00
    0.00000E+00         0.00000E+00         0.11274E+08
 
    0.11232E+08         0.56188E+06         0.00000E+00
    0.56188E+06         0.26202E+08         0.00000E+00
    0.00000E+00         0.00000E+00         0.11230E+08
 
    0.11187E+08         0.57066E+06         0.00000E+00
    0.57066E+06         0.26098E+08         0.00000E+00
    0.00000E+00         0.00000E+00         0.11186E+08
 
    0.11142E+08         0.57927E+06         0.00000E+00
    0.57927E+06         0.25991E+08         0.00000E+00
    0.00000E+00         0.00000E+00         0.11140E+08
 
    0.11095E+08         0.58768E+06         0.00000E+00
    0.58768E+06         0.25882E+08         0.00000E+00
    0.00000E+00         0.00000E+00         0.11093E+08
 
    0.11047E+08         0.59585E+06         0.00000E+00
    0.59585E+06         0.25771E+08         0.00000E+00
    0.00000E+00         0.00000E+00         0.11045E+08
 
    0.10998E+08         0.60377E+06         0.00000E+00
    0.60377E+06         0.25657E+08         0.00000E+00
    0.00000E+00         0.00000E+00         0.10997E+08
 
    0.10948E+08         0.61139E+06         0.00000E+00
    0.61139E+06         0.25541E+08         0.00000E+00
    0.00000E+00         0.00000E+00         0.10947E+08
 
    0.10898E+08         0.61866E+06         0.00000E+00
    0.61866E+06         0.25423E+08         0.00000E+00
    0.00000E+00         0.00000E+00         0.10896E+08
 
    0.10846E+08         0.62556E+06         0.00000E+00
    0.62556E+06         0.25302E+08         0.00000E+00
    0.00000E+00         0.00000E+00         0.10844E+08
 
    0.10793E+08         0.63203E+06         0.00000E+00
    0.63203E+06         0.25179E+08         0.00000E+00
    0.00000E+00         0.00000E+00         0.10791E+08
 
    0.10739E+08         0.63803E+06         0.00000E+00
    0.63803E+06         0.25053E+08         0.00000E+00
    0.00000E+00         0.00000E+00         0.10737E+08
 
    0.10683E+08         0.64351E+06         0.00000E+00
    0.64351E+06         0.24925E+08         0.00000E+00
    0.00000E+00         0.00000E+00         0.10682E+08
 
    0.10627E+08         0.64840E+06         0.00000E+00
    0.64840E+06         0.24794E+08         0.00000E+00
    0.00000E+00         0.00000E+00         0.10626E+08
 
    0.10570E+08         0.65265E+06         0.00000E+00
    0.65265E+06         0.24661E+08         0.00000E+00
    0.00000E+00         0.00000E+00         0.10569E+08
 
    0.10512E+08         0.65620E+06         0.00000E+00
    0.65620E+06         0.24525E+08         0.00000E+00
    0.00000E+00         0.00000E+00         0.10511E+08
 
    0.10452E+08         0.65897E+06         0.00000E+00
    0.65897E+06         0.24387E+08         0.00000E+00
    0.00000E+00         0.00000E+00         0.10452E+08
 
    0.10392E+08         0.66090E+06         0.00000E+00
    0.66090E+06         0.24246E+08         0.00000E+00
    0.00000E+00         0.00000E+00         0.10391E+08
 
    0.10330E+08         0.66191E+06         0.00000E+00
    0.66191E+06         0.24103E+08         0.00000E+00
    0.00000E+00         0.00000E+00         0.10330E+08
 
    0.10267E+08         0.66191E+06         0.00000E+00
    0.66191E+06         0.23957E+08         0.00000E+00
    0.00000E+00         0.00000E+00         0.10267E+08
 
    0.10203E+08         0.66083E+06         0.00000E+00
    0.66083E+06         0.23809E+08         0.00000E+00
    0.00000E+00         0.00000E+00         0.10204E+08
 
    0.10138E+08         0.65857E+06         0.00000E+00
    0.65857E+06         0.23658E+08         0.00000E+00
    0.00000E+00         0.00000E+00         0.10139E+08
 
    0.10072E+08         0.65506E+06         0.00000E+00
    0.65506E+06         0.23504E+08         0.00000E+00
    0.00000E+00         0.00000E+00         0.10073E+08
 
    0.10005E+08         0.65019E+06         0.00000E+00
    0.65019E+06         0.23348E+08         0.00000E+00
    0.00000E+00         0.00000E+00         0.10006E+08
 
    0.99361E+07         0.64390E+06         0.00000E+00
    0.64390E+06         0.23189E+08         0.00000E+00
    0.00000E+00         0.00000E+00         0.99375E+07
 
    0.98664E+07         0.63609E+06         0.00000E+00
    0.63609E+06         0.23027E+08         0.00000E+00
    0.00000E+00         0.00000E+00         0.98681E+07
 
    0.97957E+07         0.62670E+06         0.00000E+00
    0.62670E+06         0.22863E+08         0.00000E+00
    0.00000E+00         0.00000E+00         0.97977E+07
 
    0.97238E+07         0.61566E+06         0.00000E+00
    0.61566E+06         0.22697E+08         0.00000E+00
    0.00000E+00         0.00000E+00         0.97261E+07
 
    0.96508E+07         0.60291E+06         0.00000E+00
    0.60291E+06         0.22528E+08         0.00000E+00
    0.00000E+00         0.00000E+00         0.96535E+07
 
    0.95768E+07         0.58843E+06         0.00000E+00
    0.58843E+06         0.22356E+08         0.00000E+00
    0.00000E+00         0.00000E+00         0.95799E+07
 
    0.95020E+07         0.57220E+06         0.00000E+00
    0.57220E+06         0.22183E+08         0.00000E+00
    0.00000E+00         0.00000E+00         0.95054E+07
 
    0.94263E+07         0.55422E+06         0.00000E+00
    0.55422E+06         0.22007E+08         0.00000E+00
    0.00000E+00         0.00000E+00         0.94301E+07
 
    0.93500E+07         0.53450E+06         0.00000E+00
    0.53450E+06         0.21830E+08         0.00000E+00
    0.00000E+00         0.00000E+00         0.93542E+07
 
    0.92734E+07         0.51307E+06         0.00000E+00
    0.51307E+06         0.21653E+08         0.00000E+00
    0.00000E+00         0.00000E+00         0.92779E+07
 
    0.91967E+07         0.48991E+06         0.00000E+00
    0.48991E+06         0.21475E+08         0.00000E+00
    0.00000E+00         0.00000E+00         0.92016E+07
 
    0.91204E+07         0.46499E+06         0.00000E+00
    0.46499E+06         0.21298E+08         0.00000E+00
    0.00000E+00         0.00000E+00         0.91256E+07
 
    0.90449E+07         0.43814E+06         0.00000E+00
    0.43814E+06         0.21123E+08         0.00000E+00
    0.00000E+00         0.00000E+00         0.90505E+07
 
    0.89708E+07         0.40902E+06         0.00000E+00
    0.40902E+06         0.20952E+08         0.00000E+00
    0.00000E+00         0.00000E+00         0.89769E+07
 
    0.88988E+07         0.37693E+06         0.00000E+00
    0.37693E+06         0.20787E+08         0.00000E+00
    0.00000E+00         0.00000E+00         0.89056E+07
 
    0.88296E+07         0.34066E+06         0.00000E+00
    0.34066E+06         0.20628E+08         0.00000E+00
    0.00000E+00         0.00000E+00         0.88374E+07
 
    0.87636E+07         0.29808E+06         0.00000E+00
    0.29808E+06         0.20480E+08         0.00000E+00
    0.00000E+00         0.00000E+00         0.87730E+07
 
    0.87018E+07         0.24553E+06         0.00000E+00
    0.24553E+06         0.20344E+08         0.00000E+00
    0.00000E+00         0.00000E+00         0.87136E+07
 
    0.86433E+07         0.17684E+06         0.00000E+00
    0.17684E+06         0.20220E+08         0.00000E+00
    0.00000E+00         0.00000E+00         0.86589E+07
 
    0.85834E+07         0.68749E+05         0.00000E+00
    0.68749E+05         0.20122E+08         0.00000E+00
    0.00000E+00         0.00000E+00         0.86116E+07
 
    0.12692E+08         0.14092E+05         0.00000E+00
    0.14092E+05         0.29549E+08         0.00000E+00
    0.00000E+00         0.00000E+00         0.12672E+08
 
    0.12673E+08         0.38903E+05         0.00000E+00
    0.38903E+05         0.29529E+08         0.00000E+00
    0.00000E+00         0.00000E+00         0.12660E+08
 
    0.12658E+08         0.57759E+05         0.00000E+00
    0.57759E+05         0.29503E+08         0.00000E+00
    0.00000E+00         0.00000E+00         0.12648E+08
 
    0.12644E+08         0.72912E+05         0.00000E+00
    0.72912E+05         0.29474E+08         0.00000E+00
    0.00000E+00         0.00000E+00         0.12635E+08
 
    0.12628E+08         0.86126E+05         0.00000E+00
    0.86126E+05         0.29442E+08         0.00000E+00
    0.00000E+00         0.00000E+00         0.12621E+08
 
    0.12613E+08         0.98054E+05         0.00000E+00
    0.98054E+05         0.29407E+08         0.00000E+00
    0.00000E+00         0.00000E+00         0.12606E+08
 
    0.12597E+08         0.10920E+06         0.00000E+00
    0.10920E+06         0.29370E+08         0.00000E+00
    0.00000E+00         0.00000E+00         0.12590E+08
 
    0.12580E+08         0.11982E+06         0.00000E+00
    0.11982E+06         0.29332E+08         0.00000E+00
    0.00000E+00         0.00000E+00         0.12574E+08
 
    0.12563E+08         0.13008E+06         0.00000E+00
    0.13008E+06         0.29293E+08         0.00000E+00
    0.00000E+00         0.00000E+00         0.12557E+08
 
    0.12545E+08         0.14006E+06         0.00000E+00
    0.14006E+06         0.29253E+08         0.00000E+00
    0.00000E+00         0.00000E+00         0.12539E+08
 
    0.12528E+08         0.14981E+06         0.00000E+00
    0.14981E+06         0.29212E+08         0.00000E+00
    0.00000E+00         0.00000E+00         0.12522E+08
 
    0.12510E+08         0.15936E+06         0.00000E+00
    0.15936E+06         0.29170E+08         0.00000E+00
    0.00000E+00         0.00000E+00         0.12504E+08
 
    0.12491E+08         0.16871E+06         0.00000E+00
    0.16871E+06         0.29128E+08         0.00000E+00
    0.00000E+00         0.00000E+00         0.12486E+08
 
    0.12473E+08         0.17787E+06         0.00000E+00
    0.17787E+06         0.29085E+08         0.00000E+00
    0.00000E+00         0.00000E+00         0.12468E+08
 
    0.12455E+08         0.18683E+06         0.00000E+00
    0.18683E+06         0.29043E+08         0.00000E+00
    0.00000E+00         0.00000E+00         0.12449E+08
 
    0.12436E+08         0.19562E+06         0.00000E+00
    0.19562E+06         0.28999E+08         0.00000E+00
    0.00000E+00         0.00000E+00         0.12431E+08
 
    0.12417E+08         0.20423E+06         0.00000E+00
    0.20423E+06         0.28956E+08         0.00000E+00
    0.00000E+00         0.00000E+00         0.12412E+08
 
    0.12398E+08         0.21269E+06         0.00000E+00
    0.21269E+06         0.28912E+08         0.00000E+00
    0.00000E+00         0.00000E+00         0.12393E+08
 
    0.12379E+08         0.22099E+06         0.00000E+00
    0.22099E+06         0.28867E+08         0.00000E+00
    0.00000E+00         0.00000E+00         0.12374E+08
 
    0.12359E+08         0.22917E+06         0.00000E+00
    0.22917E+06         0.28822E+08         0.00000E+00
    0.00000E+00         0.00000E+00         0.12354E+08
 
    0.12340E+08         0.23723E+06         0.00000E+00
    0.23723E+06         0.28776E+08         0.00000E+00
    0.00000E+00         0.00000E+00         0.12335E+08
 
    0.12320E+08         0.24519E+06         0.00000E+00
    0.24519E+06         0.28730E+08         0.00000E+00
    0.00000E+00         0.00000E+00         0.12315E+08
 
    0.12300E+08         0.25309E+06         0.00000E+00
    0.25309E+06         0.28683E+08         0.00000E+00
    0.00000E+00         0.00000E+00         0.12295E+08
 
    0.12279E+08         0.26092E+06         0.00000E+00
    0.26092E+06         0.28635E+08         0.00000E+00
    0.00000E+00         0.00000E+00         0.12274E+08
 
    0.12258E+08         0.26872E+06         0.00000E+00
    0.26872E+06         0.28587E+08         0.00000E+00
    0.00000E+00         0.00000E+00         0.12253E+08
 
    0.12237E+08         0.27649E+06         0.00000E+00
    0.27649E+06         0.28537E+08         0.00000E+00
    0.00000E+00         0.00000E+00         0.12232E+08
 
    0.12215E+08         0.28425E+06         0.00000E+00
    0.28425E+06         0.28487E+08         0.00000E+00
    0.00000E+00         0.00000E+00         0.12211E+08
 
    0.12193E+08         0.29203E+06         0.00000E+00
    0.29203E+06         0.28435E+08         0.00000E+00
    0.00000E+00         0.00000E+00         0.12189E+08
 
    0.12171E+08         0.29983E+06         0.00000E+00
    0.29983E+06         0.28383E+08         0.00000E+00
    0.00000E+00         0.00000E+00         0.12166E+08
 
    0.12148E+08         0.30765E+06         0.00000E+00
    0.30765E+06         0.28329E+08         0.00000E+00
    0.00000E+00         0.00000E+00         0.12143E+08
 
    0.12125E+08         0.31553E+06         0.00000E+00
    0.31553E+06         0.28275E+08         0.00000E+00
    0.00000E+00         0.00000E+00         0.12120E+08
 
    0.12101E+08         0.32346E+06         0.00000E+00
    0.32346E+06         0.28219E+08         0.00000E+00
    0.00000E+00         0.00000E+00         0.12096E+08
 
    0.12076E+08         0.33145E+06         0.00000E+00
    0.33145E+06         0.28162E+08         0.00000E+00
    0.00000E+00         0.00000E+00         0.12071E+08
 
    0.12051E+08         0.33950E+06         0.00000E+00
    0.33950E+06         0.28103E+08         0.00000E+00
    0.00000E+00         0.00000E+00         0.12046E+08
 
    0.12026E+08         0.34763E+06         0.00000E+00
    0.34763E+06         0.28043E+08         0.00000E+00
    0.00000E+00         0.00000E+00         0.12021E+08
 
    0.12000E+08         0.35584E+06         0.00000E+00
    0.35584E+06         0.27982E+08         0.00000E+00
    0.00000E+00         0.00000E+00         0.11995E+08
 
    0.11973E+08         0.36413E+06         0.00000E+00
    0.36413E+06         0.27920E+08         0.00000E+00
    0.00000E+00         0.00000E+00         0.11968E+08
 
    0.11946E+08         0.37251E+06         0.00000E+00
    0.37251E+06         0.27856E+08         0.00000E+00
    0.00000E+00         0.00000E+00         0.11940E+08
 
    0.11918E+08         0.38096E+06         0.00000E+00
    0.38096E+06         0.27790E+08         0.00000E+00
    0.00000E+00         0.00000E+00         0.11912E+08
 
    0.11889E+08         0.38950E+06         0.00000E+00
    0.38950E+06         0.27723E+08         0.00000E+00
    0.00000E+00         0.00000E+00         0.11884E+08
 
    0.11859E+08         0.39812E+06         0.00000E+00
    0.39812E+06         0.27654E+08         0.00000E+00
    0.00000E+00         0.00000E+00         0.11854E+08
 
    0.11829E+08         0.40681E+06         0.00000E+00
    0.40681E+06         0.27584E+08         0.00000E+00
    0.00000E+00         0.00000E+00         0.11824E+08
 
    0.11799E+08         0.41559E+06         0.00000E+00
    0.41559E+06         0.27512E+08         0.00000E+00
    0.00000E+00         0.00000E+00         0.11793E+08
 
    0.11767E+08         0.42443E+06         0.00000E+00
    0.42443E+06         0.27438E+08         0.00000E+00
    0.00000E+00         0.00000E+00         0.11762E+08
 
    0.11735E+08         0.43333E+06         0.00000E+00
    0.43333E+06         0.27363E+08         0.00000E+00
    0.00000E+00         0.00000E+00         0.11729E+08
 
    0.11702E+08         0.44230E+06         0.00000E+00
    0.44230E+06         0.27285E+08         0.00000E+00
    0.00000E+00         0.00000E+00         0.11696E+08
 
    0.11668E+08         0.45131E+06         0.00000E+00
    0.45131E+06         0.27206E+08         0.00000E+00
    0.00000E+00         0.00000E+00         0.11662E+08
 
    0.11633E+08         0.46037E+06         0.00000E+00
    0.46037E+06         0.27125E+08         0.00000E+00
    0.00000E+00         0.00000E+00         0.11627E+08
 
    0.11597E+08         0.46945E+06         0.00000E+00
    0.46945E+06         0.27042E+08         0.00000E+00
    0.00000E+00         0.00000E+00         0.11592E+08
 
    0.11561E+08         0.47855E+06         0.00000E+00
    0.47855E+06         0.26956E+08         0.00000E+00
    0.00000E+00         0.00000E+00         0.11555E+08
 
    0.11523E+08         0.48766E+06         0.00000E+00
    0.48766E+06         0.26869E+08         0.00000E+00
    0.00000E+00         0.00000E+00         0.11518E+08
 
    0.11485E+08         0.49677E+06         0.00000E+00
    0.49677E+06         0.26780E+08         0.00000E+00
    0.00000E+00         0.00000E+00         0.11480E+08
 
    0.11446E+08         0.50585E+06         0.00000E+00
    0.50585E+06         0.26689E+08         0.00000E+00
    0.00000E+00         0.00000E+00         0.11441E+08
 
    0.11406E+08         0.51489E+06         0.00000E+00
    0.51489E+06         0.26596E+08         0.00000E+00
    0.00000E+00         0.00000E+00         0.11401E+08
 
    0.11365E+08         0.52387E+06         0.00000E+00
    0.52387E+06         0.26500E+08         0.00000E+00
    0.00000E+00         0.00000E+00         0.11360E+08
 
    0.11323E+08         0.53278E+06         0.00000E+00
    0.53278E+06         0.26402E+08         0.00000E+00
    0.00000E+00         0.00000E+00         0.11318E+08
 
    0.11280E+08         0.54160E+06         0.00000E+00
    0.54160E+06         0.26303E+08         0.00000E+00
    0.00000E+00         0.00000E+00         0.11275E+08
 
    0.11236E+08         0.55029E+06         0.00000E+00
    0.55029E+06         0.26201E+08         0.00000E+00
    0.00000E+00         0.00000E+00         0.11231E+08
 
    0.11192E+08         0.55884E+06         0.00000E+00
    0.55884E+06         0.26096E+08         0.00000E+00
    0.00000E+00         0.00000E+00         0.11186E+08
 
    0.11146E+08         0.56722E+06         0.00000E+00
    0.56722E+06         0.25990E+08         0.00000E+00
    0.00000E+00         0.00000E+00         0.11141E+08
 
    0.11099E+08         0.57540E+06         0.00000E+00
    0.57540E+06         0.25881E+08         0.00000E+00
    0.00000E+00         0.00000E+00         0.11094E+08
 
    0.11051E+08         0.58335E+06         0.00000E+00
    0.58335E+06         0.25769E+08         0.00000E+00
    0.00000E+00         0.00000E+00         0.11046E+08
 
    0.11002E+08         0.59104E+06         0.00000E+00
    0.59104E+06         0.25656E+08         0.00000E+00
    0.00000E+00         0.00000E+00         0.10997E+08
 
    0.10952E+08         0.59843E+06         0.00000E+00
    0.59843E+06         0.25540E+08         0.00000E+00
    0.00000E+00         0.00000E+00         0.10948E+08
 
    0.10901E+08         0.60548E+06         0.00000E+00
    0.60548E+06         0.25421E+08         0.00000E+00
    0.00000E+00         0.00000E+00         0.10897E+08
 
    0.10849E+08         0.61215E+06         0.00000E+00
    0.61215E+06         0.25301E+08         0.00000E+00
    0.00000E+00         0.00000E+00         0.10845E+08
 
    0.10796E+08         0.61841E+06         0.00000E+00
    0.61841E+06         0.25177E+08         0.00000E+00
    0.00000E+00         0.00000E+00         0.10792E+08
 
    0.10741E+08         0.62419E+06         0.00000E+00
    0.62419E+06         0.25052E+08         0.00000E+00
    0.00000E+00         0.00000E+00         0.10738E+08
 
    0.10686E+08         0.62945E+06         0.00000E+00
    0.62945E+06         0.24924E+08         0.00000E+00
    0.00000E+00         0.00000E+00         0.10683E+08
 
    0.10630E+08         0.63414E+06         0.00000E+00
    0.63414E+06         0.24793E+08         0.00000E+00
    0.00000E+00         0.00000E+00         0.10627E+08
 
    0.10572E+08         0.63818E+06         0.00000E+00
    0.63818E+06         0.24660E+08         0.00000E+00
    0.00000E+00         0.00000E+00         0.10570E+08
 
    0.10513E+08         0.64153E+06         0.00000E+00
    0.64153E+06         0.24525E+08         0.00000E+00
    0.00000E+00         0.00000E+00         0.10511E+08
 
    0.10453E+08         0.64412E+06         0.00000E+00
    0.64412E+06         0.24386E+08         0.00000E+00
    0.00000E+00         0.00000E+00         0.10452E+08
 
    0.10392E+08         0.64586E+06         0.00000E+00
    0.64586E+06         0.24246E+08         0.00000E+00
    0.00000E+00         0.00000E+00         0.10392E+08
 
    0.10330E+08         0.64669E+06         0.00000E+00
    0.64669E+06         0.24103E+08         0.00000E+00
    0.00000E+00         0.00000E+00         0.10330E+08
 
    0.10267E+08         0.64653E+06         0.00000E+00
    0.64653E+06         0.23957E+08         0.00000E+00
    0.00000E+00         0.00000E+00         0.10267E+08
 
    0.10202E+08         0.64529E+06         0.00000E+00
    0.64529E+06         0.23809E+08         0.00000E+00
    0.00000E+00         0.00000E+00         0.10203E+08
 
    0.10137E+08         0.64288E+06         0.00000E+00
    0.64288E+06         0.23658E+08         0.00000E+00
    0.00000E+00         0.00000E+00         0.10139E+08
 
    0.10070E+08         0.63923E+06         0.00000E+00
    0.63923E+06         0.23505E+08         0.00000E+00
    0.00000E+00         0.00000E+00         0.10072E+08
 
    0.10002E+08         0.63424E+06         0.00000E+00
    0.63424E+06         0.23349E+08         0.00000E+00
    0.00000E+00         0.00000E+00         0.10005E+08
 
    0.99327E+07         0.62783E+06         0.00000E+00
    0.62783E+06         0.23190E+08         0.00000E+00
    0.00000E+00         0.00000E+00         0.99369E+07
 
    0.98623E+07         0.61991E+06         0.00000E+00
    0.61991E+06         0.23029E+08         0.00000E+00
    0.00000E+00         0.00000E+00         0.98674E+07
 
    0.97908E+07         0.61042E+06         0.00000E+00
    0.61042E+06         0.22865E+08         0.00000E+00
    0.00000E+00         0.00000E+00         0.97968E+07
 
    0.97180E+07         0.59929E+06         0.00000E+00
    0.59929E+06         0.22699E+08         0.00000E+00
    0.00000E+00         0.00000E+00         0.97251E+07
 
    0.96442E+07         0.58645E+06         0.00000E+00
    0.58645E+06         0.22530E+08         0.00000E+00
    0.00000E+00         0.00000E+00         0.96524E+07
 
    0.95694E+07         0.57188E+06         0.00000E+00
    0.57188E+06         0.22359E+08         0.00000E+00
    0.00000E+00         0.00000E+00         0.95786E+07
 
    0.94937E+07         0.55555E+06         0.00000E+00
    0.55555E+06         0.22186E+08         0.00000E+00
    0.00000E+00         0.00000E+00         0.95039E+07
 
    0.94172E+07         0.53745E+06         0.00000E+00
    0.53745E+06         0.22011E+08         0.00000E+00
    0.00000E+00         0.00000E+00         0.94285E+07
 
    0.93400E+07         0.51759E+06         0.00000E+00
    0.51759E+06         0.21835E+08         0.00000E+00
    0.00000E+00         0.00000E+00         0.93524E+07
 
    0.92625E+07         0.49598E+06         0.00000E+00
    0.49598E+06         0.21657E+08         0.00000E+00
    0.00000E+00         0.00000E+00         0.92760E+07
 
    0.91850E+07         0.47260E+06         0.00000E+00
    0.47260E+06         0.21480E+08         0.00000E+00
    0.00000E+00         0.00000E+00         0.91995E+07
 
    0.91077E+07         0.44738E+06         0.00000E+00
    0.44738E+06         0.21303E+08         0.00000E+00
    0.00000E+00         0.00000E+00         0.91233E+07
 
    0.90312E+07         0.42016E+06         0.00000E+00
    0.42016E+06         0.21129E+08         0.00000E+00
    0.00000E+00         0.00000E+00         0.90481E+07
 
    0.89558E+07         0.39058E+06         0.00000E+00
    0.39058E+06         0.20958E+08         0.00000E+00
    0.00000E+00         0.00000E+00         0.89743E+07
 
    0.88820E+07         0.35793E+06         0.00000E+00
    0.35793E+06         0.20793E+08         0.00000E+00
    0.00000E+00         0.00000E+00         0.89026E+07
 
    0.88102E+07         0.32106E+06         0.00000E+00
    0.32106E+06         0.20636E+08         0.00000E+00
    0.00000E+00         0.00000E+00         0.88339E+07
 
    0.87406E+07         0.27773E+06         0.00000E+00
    0.27773E+06         0.20489E+08         0.00000E+00
    0.00000E+00         0.00000E+00         0.87690E+07
 
    0.86725E+07         0.22498E+06         0.00000E+00
    0.22498E+06         0.20355E+08         0.00000E+00
    0.00000E+00         0.00000E+00         0.87082E+07
 
    0.86047E+07         0.15476E+06         0.00000E+00
    0.15476E+06         0.20237E+08         0.00000E+00
    0.00000E+00         0.00000E+00         0.86527E+07
 
    0.85182E+07         0.56807E+05         0.00000E+00
    0.56807E+05         0.20145E+08         0.00000E+00
    0.00000E+00         0.00000E+00         0.85991E+07
 
    0.12706E+08         0.12239E+05         0.00000E+00
    0.12239E+05         0.29543E+08         0.00000E+00
    0.00000E+00         0.00000E+00         0.12675E+08
 
    0.12683E+08         0.34907E+05         0.00000E+00
    0.34907E+05         0.29524E+08         0.00000E+00
    0.00000E+00         0.00000E+00         0.12662E+08
 
    0.12667E+08         0.53496E+05         0.00000E+00
    0.53496E+05         0.29500E+08         0.00000E+00
    0.00000E+00         0.00000E+00         0.12650E+08
 
    0.12651E+08         0.68653E+05         0.00000E+00
    0.68653E+05         0.29471E+08         0.00000E+00
    0.00000E+00         0.00000E+00         0.12636E+08
 
    0.12635E+08         0.81885E+05         0.00000E+00
    0.81885E+05         0.29439E+08         0.00000E+00
    0.00000E+00         0.00000E+00         0.12622E+08
 
    0.12619E+08         0.93871E+05         0.00000E+00
    0.93871E+05         0.29405E+08         0.00000E+00
    0.00000E+00         0.00000E+00         0.12607E+08
 
    0.12602E+08         0.10505E+06         0.00000E+00
    0.10505E+06         0.29368E+08         0.00000E+00
    0.00000E+00         0.00000E+00         0.12591E+08
 
    0.12585E+08         0.11570E+06         0.00000E+00
    0.11570E+06         0.29330E+08         0.00000E+00
    0.00000E+00         0.00000E+00         0.12575E+08
 
    0.12568E+08         0.12596E+06         0.00000E+00
    0.12596E+06         0.29291E+08         0.00000E+00
    0.00000E+00         0.00000E+00         0.12558E+08
 
    0.12550E+08         0.13594E+06         0.00000E+00
    0.13594E+06         0.29251E+08         0.00000E+00
    0.00000E+00         0.00000E+00         0.12540E+08
 
    0.12532E+08         0.14566E+06         0.00000E+00
    0.14566E+06         0.29210E+08         0.00000E+00
    0.00000E+00         0.00000E+00         0.12523E+08
 
    0.12514E+08         0.15516E+06         0.00000E+00
    0.15516E+06         0.29168E+08         0.00000E+00
    0.00000E+00         0.00000E+00         0.12505E+08
 
    0.12496E+08         0.16445E+06         0.00000E+00
    0.16445E+06         0.29126E+08         0.00000E+00
    0.00000E+00         0.00000E+00         0.12487E+08
 
    0.12477E+08         0.17353E+06         0.00000E+00
    0.17353E+06         0.29084E+08         0.00000E+00
    0.00000E+00         0.00000E+00         0.12468E+08
 
    0.12459E+08         0.18242E+06         0.00000E+00
    0.18242E+06         0.29041E+08         0.00000E+00
    0.00000E+00         0.00000E+00         0.12450E+08
 
    0.12440E+08         0.19112E+06         0.00000E+00
    0.19112E+06         0.28998E+08         0.00000E+00
    0.00000E+00         0.00000E+00         0.12431E+08
 
    0.12421E+08         0.19963E+06         0.00000E+00
    0.19963E+06         0.28954E+08         0.00000E+00
    0.00000E+00         0.00000E+00         0.12413E+08
 
    0.12402E+08         0.20799E+06         0.00000E+00
    0.20799E+06         0.28910E+08         0.00000E+00
    0.00000E+00         0.00000E+00         0.12394E+08
 
    0.12383E+08         0.21618E+06         0.00000E+00
    0.21618E+06         0.28866E+08         0.00000E+00
    0.00000E+00         0.00000E+00         0.12374E+08
 
    0.12363E+08         0.22425E+06         0.00000E+00
    0.22425E+06         0.28820E+08         0.00000E+00
    0.00000E+00         0.00000E+00         0.12355E+08
 
    0.12344E+08         0.23220E+06         0.00000E+00
    0.23220E+06         0.28775E+08         0.00000E+00
    0.00000E+00         0.00000E+00         0.12336E+08
 
    0.12324E+08         0.24005E+06         0.00000E+00
    0.24005E+06         0.28728E+08         0.00000E+00
    0.00000E+00         0.00000E+00         0.12316E+08
 
    0.12303E+08         0.24782E+06         0.00000E+00
    0.24782E+06         0.28681E+08         0.00000E+00
    0.00000E+00         0.00000E+00         0.12295E+08
 
    0.12283E+08         0.25553E+06         0.00000E+00
    0.25553E+06         0.28634E+08         0.00000E+00
    0.00000E+00         0.00000E+00         0.12275E+08
 
    0.12262E+08         0.26320E+06         0.00000E+00
    0.26320E+06         0.28585E+08         0.00000E+00
    0.00000E+00         0.00000E+00         0.12254E+08
 
    0.12241E+08         0.27084E+06         0.00000E+00
    0.27084E+06         0.28536E+08         0.00000E+00
    0.00000E+00         0.00000E+00         0.12233E+08
 
    0.12219E+08         0.27847E+06         0.00000E+00
    0.27847E+06         0.28485E+08         0.00000E+00
    0.00000E+00         0.00000E+00         0.12211E+08
 
    0.12197E+08         0.28611E+06         0.00000E+00
    0.28611E+06         0.28434E+08         0.00000E+00
    0.00000E+00         0.00000E+00         0.12189E+08
 
    0.12175E+08         0.29377E+06         0.00000E+00
    0.29377E+06         0.28381E+08         0.00000E+00
    0.00000E+00         0.00000E+00         0.12167E+08
 
    0.12152E+08         0.30145E+06         0.00000E+00
    0.30145E+06         0.28328E+08         0.00000E+00
    0.00000E+00         0.00000E+00         0.12144E+08
 
    0.12128E+08         0.30918E+06         0.00000E+00
    0.30918E+06         0.28273E+08         0.00000E+00
    0.00000E+00         0.00000E+00         0.12120E+08
 
    0.12105E+08         0.31696E+06         0.00000E+00
    0.31696E+06         0.28217E+08         0.00000E+00
    0.00000E+00         0.00000E+00         0.12097E+08
 
    0.12080E+08         0.32479E+06         0.00000E+00
    0.32479E+06         0.28160E+08         0.00000E+00
    0.00000E+00         0.00000E+00         0.12072E+08
 
    0.12055E+08         0.33269E+06         0.00000E+00
    0.33269E+06         0.28102E+08         0.00000E+00
    0.00000E+00         0.00000E+00         0.12047E+08
 
    0.12030E+08         0.34066E+06         0.00000E+00
    0.34066E+06         0.28042E+08         0.00000E+00
    0.00000E+00         0.00000E+00         0.12022E+08
 
    0.12004E+08         0.34871E+06         0.00000E+00
    0.34871E+06         0.27981E+08         0.00000E+00
    0.00000E+00         0.00000E+00         0.11995E+08
 
    0.11977E+08         0.35683E+06         0.00000E+00
    0.35683E+06         0.27918E+08         0.00000E+00
    0.00000E+00         0.00000E+00         0.11969E+08
 
    0.11950E+08         0.36503E+06         0.00000E+00
    0.36503E+06         0.27854E+08         0.00000E+00
    0.00000E+00         0.00000E+00         0.11941E+08
 
    0.11922E+08         0.37331E+06         0.00000E+00
    0.37331E+06         0.27789E+08         0.00000E+00
    0.00000E+00         0.00000E+00         0.11913E+08
 
    0.11893E+08         0.38166E+06         0.00000E+00
    0.38166E+06         0.27721E+08         0.00000E+00
    0.00000E+00         0.00000E+00         0.11884E+08
 
    0.11864E+08         0.39010E+06         0.00000E+00
    0.39010E+06         0.27653E+08         0.00000E+00
    0.00000E+00         0.00000E+00         0.11855E+08
 
    0.11834E+08         0.39861E+06         0.00000E+00
    0.39861E+06         0.27582E+08         0.00000E+00
    0.00000E+00         0.00000E+00         0.11825E+08
 
    0.11803E+08         0.40719E+06         0.00000E+00
    0.40719E+06         0.27510E+08         0.00000E+00
    0.00000E+00         0.00000E+00         0.11794E+08
 
    0.11771E+08         0.41584E+06         0.00000E+00
    0.41584E+06         0.27436E+08         0.00000E+00
    0.00000E+00         0.00000E+00         0.11762E+08
 
    0.11739E+08         0.42455E+06         0.00000E+00
    0.42455E+06         0.27361E+08         0.00000E+00
    0.00000E+00         0.00000E+00         0.11730E+08
 
    0.11706E+08         0.43331E+06         0.00000E+00
    0.43331E+06         0.27283E+08         0.00000E+00
    0.00000E+00         0.00000E+00         0.11697E+08
 
    0.11672E+08         0.44212E+06         0.00000E+00
    0.44212E+06         0.27204E+08         0.00000E+00
    0.00000E+00         0.00000E+00         0.11663E+08
 
    0.11637E+08         0.45097E+06         0.00000E+00
    0.45097E+06         0.27123E+08         0.00000E+00
    0.00000E+00         0.00000E+00         0.11628E+08
 
    0.11602E+08         0.45985E+06         0.00000E+00
    0.45985E+06         0.27040E+08         0.00000E+00
    0.00000E+00         0.00000E+00         0.11592E+08
 
    0.11565E+08         0.46874E+06         0.00000E+00
    0.46874E+06         0.26955E+08         0.00000E+00
    0.00000E+00         0.00000E+00         0.11556E+08
 
    0.11528E+08         0.47763E+06         0.00000E+00
    0.47763E+06         0.26868E+08         0.00000E+00
    0.00000E+00         0.00000E+00         0.11519E+08
 
    0.11490E+08         0.48652E+06         0.00000E+00
    0.48652E+06         0.26778E+08         0.00000E+00
    0.00000E+00         0.00000E+00         0.11480E+08
 
    0.11451E+08         0.49538E+06         0.00000E+00
    0.49538E+06         0.26687E+08         0.00000E+00
    0.00000E+00         0.00000E+00         0.11441E+08
 
    0.11411E+08         0.50420E+06         0.00000E+00
    0.50420E+06         0.26594E+08         0.00000E+00
    0.00000E+00         0.00000E+00         0.11401E+08
 
    0.11370E+08         0.51297E+06         0.00000E+00
    0.51297E+06         0.26498E+08         0.00000E+00
    0.00000E+00         0.00000E+00         0.11360E+08
 
    0.11328E+08         0.52165E+06         0.00000E+00
    0.52165E+06         0.26401E+08         0.00000E+00
    0.00000E+00         0.00000E+00         0.11318E+08
 
    0.11285E+08         0.53024E+06         0.00000E+00
    0.53024E+06         0.26301E+08         0.00000E+00
    0.00000E+00         0.00000E+00         0.11276E+08
 
    0.11241E+08         0.53871E+06         0.00000E+00
    0.53871E+06         0.26199E+08         0.00000E+00
    0.00000E+00         0.00000E+00         0.11232E+08
 
    0.11196E+08         0.54703E+06         0.00000E+00
    0.54703E+06         0.26095E+08         0.00000E+00
    0.00000E+00         0.00000E+00         0.11187E+08
 
    0.11150E+08         0.55519E+06         0.00000E+00
    0.55519E+06         0.25988E+08         0.00000E+00
    0.00000E+00         0.00000E+00         0.11141E+08
 
    0.11103E+08         0.56314E+06         0.00000E+00
    0.56314E+06         0.25879E+08         0.00000E+00
    0.00000E+00         0.00000E+00         0.11095E+08
 
    0.11055E+08         0.57087E+06         0.00000E+00
    0.57087E+06         0.25768E+08         0.00000E+00
    0.00000E+00         0.00000E+00         0.11047E+08
 
    0.11006E+08         0.57833E+06         0.00000E+00
    0.57833E+06         0.25654E+08         0.00000E+00
    0.00000E+00         0.00000E+00         0.10998E+08
 
    0.10956E+08         0.58550E+06         0.00000E+00
    0.58550E+06         0.25538E+08         0.00000E+00
    0.00000E+00         0.00000E+00         0.10948E+08
 
    0.10904E+08         0.59233E+06         0.00000E+00
    0.59233E+06         0.25420E+08         0.00000E+00
    0.00000E+00         0.00000E+00         0.10897E+08
 
    0.10852E+08         0.59879E+06         0.00000E+00
    0.59879E+06         0.25299E+08         0.00000E+00
    0.00000E+00         0.00000E+00         0.10845E+08
 
    0.10799E+08         0.60483E+06         0.00000E+00
    0.60483E+06         0.25176E+08         0.00000E+00
    0.00000E+00         0.00000E+00         0.10792E+08
 
    0.10744E+08         0.61040E+06         0.00000E+00
    0.61040E+06         0.25051E+08         0.00000E+00
    0.00000E+00         0.00000E+00         0.10738E+08
 
    0.10689E+08         0.61545E+06         0.00000E+00
    0.61545E+06         0.24923E+08         0.00000E+00
    0.00000E+00         0.00000E+00         0.10683E+08
 
    0.10632E+08         0.61993E+06         0.00000E+00
    0.61993E+06         0.24792E+08         0.00000E+00
    0.00000E+00         0.00000E+00         0.10627E+08
 
    0.10574E+08         0.62379E+06         0.00000E+00
    0.62379E+06         0.24659E+08         0.00000E+00
    0.00000E+00         0.00000E+00         0.10570E+08
 
    0.10515E+08         0.62694E+06         0.00000E+00
    0.62694E+06         0.24524E+08         0.00000E+00
    0.00000E+00         0.00000E+00         0.10512E+08
 
    0.10455E+08         0.62934E+06         0.00000E+00
    0.62934E+06         0.24386E+08         0.00000E+00
    0.00000E+00         0.00000E+00         0.10452E+08
 
    0.10393E+08         0.63091E+06         0.00000E+00
    0.63091E+06         0.24246E+08         0.00000E+00
    0.00000E+00         0.00000E+00         0.10392E+08
 
    0.10331E+08         0.63157E+06         0.00000E+00
    0.63157E+06         0.24103E+08         0.00000E+00
    0.00000E+00         0.00000E+00         0.10330E+08
 
    0.10267E+08         0.63125E+06         0.00000E+00
    0.63125E+06         0.23957E+08         0.00000E+00
    0.00000E+00         0.00000E+00         0.10267E+08
 
    0.10202E+08         0.62986E+06         0.00000E+00
    0.62986E+06         0.23809E+08         0.00000E+00
    0.00000E+00         0.00000E+00         0.10203E+08
 
    0.10136E+08         0.62732E+06         0.00000E+00
    0.62732E+06         0.23659E+08         0.00000E+00
    0.00000E+00         0.00000E+00         0.10138E+08
 
    0.10068E+08         0.62353E+06         0.00000E+00
    0.62353E+06         0.23506E+08         0.00000E+00
    0.00000E+00         0.00000E+00         0.10072E+08
 
    0.99993E+07         0.61842E+06         0.00000E+00
    0.61842E+06         0.23350E+08         0.00000E+00
    0.00000E+00         0.00000E+00         0.10005E+08
 
    0.99294E+07         0.61190E+06         0.00000E+00
    0.61190E+06         0.23192E+08         0.00000E+00
    0.00000E+00         0.00000E+00         0.99363E+07
 
    0.98583E+07         0.60389E+06         0.00000E+00
    0.60389E+06         0.23031E+08         0.00000E+00
    0.00000E+00         0.00000E+00         0.98667E+07
 
    0.97859E+07         0.59430E+06         0.00000E+00
    0.59430E+06         0.22867E+08         0.00000E+00
    0.00000E+00         0.00000E+00         0.97960E+07
 
    0.97124E+07         0.58308E+06         0.00000E+00
    0.58308E+06         0.22701E+08         0.00000E+00
    0.00000E+00         0.00000E+00         0.97241E+07
 
    0.96377E+07         0.57016E+06         0.00000E+00
    0.57016E+06         0.22533E+08         0.00000E+00
    0.00000E+00         0.00000E+00         0.96512E+07
 
    0.95620E+07         0.55550E+06         0.00000E+00
    0.55550E+06         0.22362E+08         0.00000E+00
    0.00000E+00         0.00000E+00         0.95773E+07
 
    0.94854E+07         0.53907E+06         0.00000E+00
    0.53907E+06         0.22189E+08         0.00000E+00
    0.00000E+00         0.00000E+00         0.95025E+07
 
    0.94080E+07         0.52086E+06         0.00000E+00
    0.52086E+06         0.22015E+08         0.00000E+00
    0.00000E+00         0.00000E+00         0.94269E+07
 
    0.93300E+07         0.50086E+06         0.00000E+00
    0.50086E+06         0.21839E+08         0.00000E+00
    0.00000E+00         0.00000E+00         0.93506E+07
 
    0.92516E+07         0.47907E+06         0.00000E+00
    0.47907E+06         0.21662E+08         0.00000E+00
    0.00000E+00         0.00000E+00         0.92740E+07
 
    0.91731E+07         0.45547E+06         0.00000E+00
    0.45547E+06         0.21485E+08         0.00000E+00
    0.00000E+00         0.00000E+00         0.91974E+07
 
    0.90948E+07         0.42998E+06         0.00000E+00
    0.42998E+06         0.21309E+08         0.00000E+00
    0.00000E+00         0.00000E+00         0.91211E+07
 
    0.90171E+07         0.40243E+06         0.00000E+00
    0.40243E+06         0.21135E+08         0.00000E+00
    0.00000E+00         0.00000E+00         0.90456E+07
 
    0.89403E+07         0.37245E+06         0.00000E+00
    0.37245E+06         0.20965E+08         0.00000E+00
    0.00000E+00         0.00000E+00         0.89715E+07
 
    0.88647E+07         0.33937E+06         0.00000E+00
    0.33937E+06         0.20800E+08         0.00000E+00
    0.00000E+00         0.00000E+00         0.88995E+07
 
    0.87903E+07         0.30203E+06         0.00000E+00
    0.30203E+06         0.20644E+08         0.00000E+00
    0.00000E+00         0.00000E+00         0.88303E+07
 
    0.87168E+07         0.25844E+06         0.00000E+00
    0.25844E+06         0.20499E+08         0.00000E+00
    0.00000E+00         0.00000E+00         0.87646E+07
 
    0.86429E+07         0.20553E+06         0.00000E+00
    0.20553E+06         0.20367E+08         0.00000E+00
    0.00000E+00         0.00000E+00         0.87029E+07
 
    0.85646E+07         0.13643E+06         0.00000E+00
    0.13643E+06         0.20254E+08         0.00000E+00
    0.00000E+00         0.00000E+00         0.86456E+07
 
    0.84605E+07         0.48289E+05         0.00000E+00
    0.48289E+05         0.20166E+08         0.00000E+00
    0.00000E+00         0.00000E+00         0.85879E+07
 
    0.12719E+08         0.10832E+05         0.00000E+00
    0.10832E+05         0.29539E+08         0.00000E+00
    0.00000E+00         0.00000E+00         0.12677E+08
 
    0.12694E+08         0.31545E+05         0.00000E+00
    0.31545E+05         0.29520E+08         0.00000E+00
    0.00000E+00         0.00000E+00         0.12664E+08
 
    0.12675E+08         0.49531E+05         0.00000E+00
    0.49531E+05         0.29496E+08         0.00000E+00
    0.00000E+00         0.00000E+00         0.12651E+08
 
    0.12658E+08         0.64584E+05         0.00000E+00
    0.64584E+05         0.29468E+08         0.00000E+00
    0.00000E+00         0.00000E+00         0.12638E+08
 
    0.12641E+08         0.77772E+05         0.00000E+00
    0.77772E+05         0.29437E+08         0.00000E+00
    0.00000E+00         0.00000E+00         0.12623E+08
 
    0.12624E+08         0.89768E+05         0.00000E+00
    0.89768E+05         0.29402E+08         0.00000E+00
    0.00000E+00         0.00000E+00         0.12608E+08
 
    0.12607E+08         0.10097E+06         0.00000E+00
    0.10097E+06         0.29366E+08         0.00000E+00
    0.00000E+00         0.00000E+00         0.12592E+08
 
    0.12590E+08         0.11162E+06         0.00000E+00
    0.11162E+06         0.29328E+08         0.00000E+00
    0.00000E+00         0.00000E+00         0.12575E+08
 
    0.12573E+08         0.12189E+06         0.00000E+00
    0.12189E+06         0.29289E+08         0.00000E+00
    0.00000E+00         0.00000E+00         0.12558E+08
 
    0.12555E+08         0.13184E+06         0.00000E+00
    0.13184E+06         0.29249E+08         0.00000E+00
    0.00000E+00         0.00000E+00         0.12541E+08
 
    0.12537E+08         0.14153E+06         0.00000E+00
    0.14153E+06         0.29208E+08         0.00000E+00
    0.00000E+00         0.00000E+00         0.12523E+08
 
    0.12519E+08         0.15098E+06         0.00000E+00
    0.15098E+06         0.29166E+08         0.00000E+00
    0.00000E+00         0.00000E+00         0.12505E+08
 
    0.12500E+08         0.16021E+06         0.00000E+00
    0.16021E+06         0.29124E+08         0.00000E+00
    0.00000E+00         0.00000E+00         0.12487E+08
 
    0.12482E+08         0.16922E+06         0.00000E+00
    0.16922E+06         0.29082E+08         0.00000E+00
    0.00000E+00         0.00000E+00         0.12469E+08
 
    0.12463E+08         0.17802E+06         0.00000E+00
    0.17802E+06         0.29039E+08         0.00000E+00
    0.00000E+00         0.00000E+00         0.12451E+08
 
    0.12444E+08         0.18663E+06         0.00000E+00
    0.18663E+06         0.28996E+08         0.00000E+00
    0.00000E+00         0.00000E+00         0.12432E+08
 
    0.12425E+08         0.19505E+06         0.00000E+00
    0.19505E+06         0.28952E+08         0.00000E+00
    0.00000E+00         0.00000E+00         0.12413E+08
 
    0.12406E+08         0.20330E+06         0.00000E+00
    0.20330E+06         0.28908E+08         0.00000E+00
    0.00000E+00         0.00000E+00         0.12394E+08
 
    0.12387E+08         0.21139E+06         0.00000E+00
    0.21139E+06         0.28864E+08         0.00000E+00
    0.00000E+00         0.00000E+00         0.12375E+08
 
    0.12367E+08         0.21934E+06         0.00000E+00
    0.21934E+06         0.28819E+08         0.00000E+00
    0.00000E+00         0.00000E+00         0.12356E+08
 
    0.12347E+08         0.22718E+06         0.00000E+00
    0.22718E+06         0.28773E+08         0.00000E+00
    0.00000E+00         0.00000E+00         0.12336E+08
 
    0.12327E+08         0.23491E+06         0.00000E+00
    0.23491E+06         0.28727E+08         0.00000E+00
    0.00000E+00         0.00000E+00         0.12316E+08
 
    0.12307E+08         0.24256E+06         0.00000E+00
    0.24256E+06         0.28680E+08         0.00000E+00
    0.00000E+00         0.00000E+00         0.12296E+08
 
    0.12287E+08         0.25014E+06         0.00000E+00
    0.25014E+06         0.28632E+08         0.00000E+00
    0.00000E+00         0.00000E+00         0.12276E+08
 
    0.12266E+08         0.25768E+06         0.00000E+00
    0.25768E+06         0.28584E+08         0.00000E+00
    0.00000E+00         0.00000E+00         0.12255E+08
 
    0.12245E+08         0.26519E+06         0.00000E+00
    0.26519E+06         0.28534E+08         0.00000E+00
    0.00000E+00         0.00000E+00         0.12234E+08
 
    0.12223E+08         0.27269E+06         0.00000E+00
    0.27269E+06         0.28484E+08         0.00000E+00
    0.00000E+00         0.00000E+00         0.12212E+08
 
    0.12201E+08         0.28019E+06         0.00000E+00
    0.28019E+06         0.28432E+08         0.00000E+00
    0.00000E+00         0.00000E+00         0.12190E+08
 
    0.12179E+08         0.28771E+06         0.00000E+00
    0.28771E+06         0.28380E+08         0.00000E+00
    0.00000E+00         0.00000E+00         0.12167E+08
 
    0.12156E+08         0.29525E+06         0.00000E+00
    0.29525E+06         0.28326E+08         0.00000E+00
    0.00000E+00         0.00000E+00         0.12145E+08
 
    0.12132E+08         0.30283E+06         0.00000E+00
    0.30283E+06         0.28271E+08         0.00000E+00
    0.00000E+00         0.00000E+00         0.12121E+08
 
    0.12108E+08         0.31045E+06         0.00000E+00
    0.31045E+06         0.28216E+08         0.00000E+00
    0.00000E+00         0.00000E+00         0.12097E+08
 
    0.12084E+08         0.31814E+06         0.00000E+00
    0.31814E+06         0.28158E+08         0.00000E+00
    0.00000E+00         0.00000E+00         0.12073E+08
 
    0.12059E+08         0.32588E+06         0.00000E+00
    0.32588E+06         0.28100E+08         0.00000E+00
    0.00000E+00         0.00000E+00         0.12048E+08
 
    0.12034E+08         0.33368E+06         0.00000E+00
    0.33368E+06         0.28040E+08         0.00000E+00
    0.00000E+00         0.00000E+00         0.12022E+08
 
    0.12008E+08         0.34156E+06         0.00000E+00
    0.34156E+06         0.27979E+08         0.00000E+00
    0.00000E+00         0.00000E+00         0.11996E+08
 
    0.11981E+08         0.34951E+06         0.00000E+00
    0.34951E+06         0.27917E+08         0.00000E+00
    0.00000E+00         0.00000E+00         0.11969E+08
 
    0.11954E+08         0.35754E+06         0.00000E+00
    0.35754E+06         0.27853E+08         0.00000E+00
    0.00000E+00         0.00000E+00         0.11942E+08
 
    0.11926E+08         0.36564E+06         0.00000E+00
    0.36564E+06         0.27787E+08         0.00000E+00
    0.00000E+00         0.00000E+00         0.11914E+08
 
    0.11897E+08         0.37382E+06         0.00000E+00
    0.37382E+06         0.27720E+08         0.00000E+00
    0.00000E+00         0.00000E+00         0.11885E+08
 
    0.11868E+08         0.38207E+06         0.00000E+00
    0.38207E+06         0.27651E+08         0.00000E+00
    0.00000E+00         0.00000E+00         0.11856E+08
 
    0.11838E+08         0.39040E+06         0.00000E+00
    0.39040E+06         0.27581E+08         0.00000E+00
    0.00000E+00         0.00000E+00         0.11826E+08
 
    0.11807E+08         0.39879E+06         0.00000E+00
    0.39879E+06         0.27508E+08         0.00000E+00
    0.00000E+00         0.00000E+00         0.11795E+08
 
    0.11776E+08         0.40725E+06         0.00000E+00
    0.40725E+06         0.27435E+08         0.00000E+00
    0.00000E+00         0.00000E+00         0.11763E+08
 
    0.11743E+08         0.41576E+06         0.00000E+00
    0.41576E+06         0.27359E+08         0.00000E+00
    0.00000E+00         0.00000E+00         0.11731E+08
 
    0.11710E+08         0.42432E+06         0.00000E+00
    0.42432E+06         0.27282E+08         0.00000E+00
    0.00000E+00         0.00000E+00         0.11698E+08
 
    0.11676E+08         0.43293E+06         0.00000E+00
    0.43293E+06         0.27202E+08         0.00000E+00
    0.00000E+00         0.00000E+00         0.11664E+08
 
    0.11642E+08         0.44157E+06         0.00000E+00
    0.44157E+06         0.27121E+08         0.00000E+00
    0.00000E+00         0.00000E+00         0.11629E+08
 
    0.11606E+08         0.45024E+06         0.00000E+00
    0.45024E+06         0.27038E+08         0.00000E+00
    0.00000E+00         0.00000E+00         0.11593E+08
 
    0.11570E+08         0.45892E+06         0.00000E+00
    0.45892E+06         0.26953E+08         0.00000E+00
    0.00000E+00         0.00000E+00         0.11557E+08
 
    0.11532E+08         0.46760E+06         0.00000E+00
    0.46760E+06         0.26866E+08         0.00000E+00
    0.00000E+00         0.00000E+00         0.11519E+08
 
    0.11494E+08         0.47628E+06         0.00000E+00
    0.47628E+06         0.26777E+08         0.00000E+00
    0.00000E+00         0.00000E+00         0.11481E+08
 
    0.11455E+08         0.48492E+06         0.00000E+00
    0.48492E+06         0.26685E+08         0.00000E+00
    0.00000E+00         0.00000E+00         0.11442E+08
 
    0.11415E+08         0.49352E+06         0.00000E+00
    0.49352E+06         0.26592E+08         0.00000E+00
    0.00000E+00         0.00000E+00         0.11402E+08
 
    0.11374E+08         0.50207E+06         0.00000E+00
    0.50207E+06         0.26497E+08         0.00000E+00
    0.00000E+00         0.00000E+00         0.11361E+08
 
    0.11332E+08         0.51053E+06         0.00000E+00
    0.51053E+06         0.26399E+08         0.00000E+00
    0.00000E+00         0.00000E+00         0.11319E+08
 
    0.11289E+08         0.51890E+06         0.00000E+00
    0.51890E+06         0.26299E+08         0.00000E+00
    0.00000E+00         0.00000E+00         0.11276E+08
 
    0.11245E+08         0.52715E+06         0.00000E+00
    0.52715E+06         0.26197E+08         0.00000E+00
    0.00000E+00         0.00000E+00         0.11233E+08
 
    0.11200E+08         0.53525E+06         0.00000E+00
    0.53525E+06         0.26093E+08         0.00000E+00
    0.00000E+00         0.00000E+00         0.11188E+08
 
    0.11154E+08         0.54318E+06         0.00000E+00
    0.54318E+06         0.25986E+08         0.00000E+00
    0.00000E+00         0.00000E+00         0.11142E+08
 
    0.11107E+08         0.55091E+06         0.00000E+00
    0.55091E+06         0.25877E+08         0.00000E+00
    0.00000E+00         0.00000E+00         0.11095E+08
 
    0.11059E+08         0.55841E+06         0.00000E+00
    0.55841E+06         0.25766E+08         0.00000E+00
    0.00000E+00         0.00000E+00         0.11048E+08
 
    0.11010E+08         0.56566E+06         0.00000E+00
    0.56566E+06         0.25653E+08         0.00000E+00
    0.00000E+00         0.00000E+00         0.10999E+08
 
    0.10959E+08         0.57260E+06         0.00000E+00
    0.57260E+06         0.25537E+08         0.00000E+00
    0.00000E+00         0.00000E+00         0.10949E+08
 
    0.10908E+08         0.57922E+06         0.00000E+00
    0.57922E+06         0.25419E+08         0.00000E+00
    0.00000E+00         0.00000E+00         0.10898E+08
 
    0.10855E+08         0.58546E+06         0.00000E+00
    0.58546E+06         0.25298E+08         0.00000E+00
    0.00000E+00         0.00000E+00         0.10846E+08
 
    0.10802E+08         0.59129E+06         0.00000E+00
    0.59129E+06         0.25175E+08         0.00000E+00
    0.00000E+00         0.00000E+00         0.10793E+08
 
    0.10747E+08         0.59666E+06         0.00000E+00
    0.59666E+06         0.25050E+08         0.00000E+00
    0.00000E+00         0.00000E+00         0.10739E+08
 
    0.10691E+08         0.60151E+06         0.00000E+00
    0.60151E+06         0.24922E+08         0.00000E+00
    0.00000E+00         0.00000E+00         0.10684E+08
 
    0.10634E+08         0.60579E+06         0.00000E+00
    0.60579E+06         0.24791E+08         0.00000E+00
    0.00000E+00         0.00000E+00         0.10628E+08
 
    0.10576E+08         0.60945E+06         0.00000E+00
    0.60945E+06         0.24659E+08         0.00000E+00
    0.00000E+00         0.00000E+00         0.10570E+08
 
    0.10516E+08         0.61243E+06         0.00000E+00
    0.61243E+06         0.24523E+08         0.00000E+00
    0.00000E+00         0.00000E+00         0.10512E+08
 
    0.10456E+08         0.61465E+06         0.00000E+00
    0.61465E+06         0.24386E+08         0.00000E+00
    0.00000E+00         0.00000E+00         0.10452E+08
 
    0.10394E+08         0.61605E+06         0.00000E+00
    0.61605E+06         0.24245E+08         0.00000E+00
    0.00000E+00         0.00000E+00         0.10392E+08
 
    0.10331E+08         0.61655E+06         0.00000E+00
    0.61655E+06         0.24103E+08         0.00000E+00
    0.00000E+00         0.00000E+00         0.10330E+08
 
    0.10267E+08         0.61607E+06         0.00000E+00
    0.61607E+06         0.23958E+08         0.00000E+00
    0.00000E+00         0.00000E+00         0.10267E+08
 
    0.10201E+08         0.61454E+06         0.00000E+00
    0.61454E+06         0.23810E+08         0.00000E+00
    0.00000E+00         0.00000E+00         0.10203E+08
 
    0.10134E+08         0.61187E+06         0.00000E+00
    0.61187E+06         0.23659E+08         0.00000E+00
    0.00000E+00         0.00000E+00         0.10138E+08
 
    0.10066E+08         0.60797E+06         0.00000E+00
    0.60797E+06         0.23507E+08         0.00000E+00
    0.00000E+00         0.00000E+00         0.10072E+08
 
    0.99968E+07         0.60275E+06         0.00000E+00
    0.60275E+06         0.23351E+08         0.00000E+00
    0.00000E+00         0.00000E+00         0.10004E+08
 
    0.99261E+07         0.59612E+06         0.00000E+00
    0.59612E+06         0.23193E+08         0.00000E+00
    0.00000E+00         0.00000E+00         0.99358E+07
 
    0.98542E+07         0.58802E+06         0.00000E+00
    0.58802E+06         0.23033E+08         0.00000E+00
    0.00000E+00         0.00000E+00         0.98660E+07
 
    0.97811E+07         0.57835E+06         0.00000E+00
    0.57835E+06         0.22869E+08         0.00000E+00
    0.00000E+00         0.00000E+00         0.97952E+07
 
    0.97067E+07         0.56704E+06         0.00000E+00
    0.56704E+06         0.22704E+08         0.00000E+00
    0.00000E+00         0.00000E+00         0.97232E+07
 
    0.96312E+07         0.55404E+06         0.00000E+00
    0.55404E+06         0.22536E+08         0.00000E+00
    0.00000E+00         0.00000E+00         0.96501E+07
 
    0.95547E+07         0.53929E+06         0.00000E+00
    0.53929E+06         0.22365E+08         0.00000E+00
    0.00000E+00         0.00000E+00         0.95760E+07
 
    0.94772E+07         0.52277E+06         0.00000E+00
    0.52277E+06         0.22193E+08         0.00000E+00
    0.00000E+00         0.00000E+00         0.95010E+07
 
    0.93988E+07         0.50445E+06         0.00000E+00
    0.50445E+06         0.22019E+08         0.00000E+00
    0.00000E+00         0.00000E+00         0.94253E+07
 
    0.93199E+07         0.48431E+06         0.00000E+00
    0.48431E+06         0.21843E+08         0.00000E+00
    0.00000E+00         0.00000E+00         0.93489E+07
 
    0.92405E+07         0.46235E+06         0.00000E+00
    0.46235E+06         0.21666E+08         0.00000E+00
    0.00000E+00         0.00000E+00         0.92721E+07
 
    0.91610E+07         0.43854E+06         0.00000E+00
    0.43854E+06         0.21490E+08         0.00000E+00
    0.00000E+00         0.00000E+00         0.91952E+07
 
    0.90817E+07         0.41280E+06         0.00000E+00
    0.41280E+06         0.21314E+08         0.00000E+00
    0.00000E+00         0.00000E+00         0.91187E+07
 
    0.90027E+07         0.38495E+06         0.00000E+00
    0.38495E+06         0.21141E+08         0.00000E+00
    0.00000E+00         0.00000E+00         0.90430E+07
 
    0.89244E+07         0.35465E+06         0.00000E+00
    0.35465E+06         0.20971E+08         0.00000E+00
    0.00000E+00         0.00000E+00         0.89686E+07
 
    0.88468E+07         0.32125E+06         0.00000E+00
    0.32125E+06         0.20807E+08         0.00000E+00
    0.00000E+00         0.00000E+00         0.88963E+07
 
    0.87698E+07         0.28365E+06         0.00000E+00
    0.28365E+06         0.20652E+08         0.00000E+00
    0.00000E+00         0.00000E+00         0.88266E+07
 
    0.86924E+07         0.24007E+06         0.00000E+00
    0.24007E+06         0.20508E+08         0.00000E+00
    0.00000E+00         0.00000E+00         0.87602E+07
 
    0.86128E+07         0.18749E+06         0.00000E+00
    0.18749E+06         0.20379E+08         0.00000E+00
    0.00000E+00         0.00000E+00         0.86974E+07
 
    0.85245E+07         0.12106E+06         0.00000E+00
    0.12106E+06         0.20270E+08         0.00000E+00
    0.00000E+00         0.00000E+00         0.86382E+07
 
    0.84084E+07         0.41837E+05         0.00000E+00
    0.41837E+05         0.20183E+08         0.00000E+00
    0.00000E+00         0.00000E+00         0.85775E+07
 
    0.12731E+08         0.97113E+04         0.00000E+00
    0.97113E+04         0.29535E+08         0.00000E+00
    0.00000E+00         0.00000E+00         0.12680E+08
 
    0.12704E+08         0.28677E+05         0.00000E+00
    0.28677E+05         0.29516E+08         0.00000E+00
    0.00000E+00         0.00000E+00         0.12666E+08
 
    0.12683E+08         0.45875E+05         0.00000E+00
    0.45875E+05         0.29493E+08         0.00000E+00
    0.00000E+00         0.00000E+00         0.12653E+08
 
    0.12665E+08         0.60698E+05         0.00000E+00
    0.60698E+05         0.29465E+08         0.00000E+00
    0.00000E+00         0.00000E+00         0.12639E+08
 
    0.12647E+08         0.73788E+05         0.00000E+00
    0.73788E+05         0.29434E+08         0.00000E+00
    0.00000E+00         0.00000E+00         0.12624E+08
 
    0.12630E+08         0.85751E+05         0.00000E+00
    0.85751E+05         0.29400E+08         0.00000E+00
    0.00000E+00         0.00000E+00         0.12609E+08
 
    0.12613E+08         0.96942E+05         0.00000E+00
    0.96942E+05         0.29364E+08         0.00000E+00
    0.00000E+00         0.00000E+00         0.12593E+08
 
    0.12595E+08         0.10759E+06         0.00000E+00
    0.10759E+06         0.29326E+08         0.00000E+00
    0.00000E+00         0.00000E+00         0.12576E+08
 
    0.12578E+08         0.11784E+06         0.00000E+00
    0.11784E+06         0.29287E+08         0.00000E+00
    0.00000E+00         0.00000E+00         0.12559E+08
 
    0.12560E+08         0.12777E+06         0.00000E+00
    0.12777E+06         0.29247E+08         0.00000E+00
    0.00000E+00         0.00000E+00         0.12542E+08
 
    0.12542E+08         0.13743E+06         0.00000E+00
    0.13743E+06         0.29206E+08         0.00000E+00
    0.00000E+00         0.00000E+00         0.12524E+08
 
    0.12523E+08         0.14683E+06         0.00000E+00
    0.14683E+06         0.29164E+08         0.00000E+00
    0.00000E+00         0.00000E+00         0.12506E+08
 
    0.12505E+08         0.15599E+06         0.00000E+00
    0.15599E+06         0.29122E+08         0.00000E+00
    0.00000E+00         0.00000E+00         0.12488E+08
 
    0.12486E+08         0.16493E+06         0.00000E+00
    0.16493E+06         0.29080E+08         0.00000E+00
    0.00000E+00         0.00000E+00         0.12470E+08
 
    0.12467E+08         0.17365E+06         0.00000E+00
    0.17365E+06         0.29037E+08         0.00000E+00
    0.00000E+00         0.00000E+00         0.12451E+08
 
    0.12448E+08         0.18216E+06         0.00000E+00
    0.18216E+06         0.28994E+08         0.00000E+00
    0.00000E+00         0.00000E+00         0.12433E+08
 
    0.12429E+08         0.19048E+06         0.00000E+00
    0.19048E+06         0.28951E+08         0.00000E+00
    0.00000E+00         0.00000E+00         0.12414E+08
 
    0.12410E+08         0.19863E+06         0.00000E+00
    0.19863E+06         0.28907E+08         0.00000E+00
    0.00000E+00         0.00000E+00         0.12395E+08
 
    0.12391E+08         0.20661E+06         0.00000E+00
    0.20661E+06         0.28862E+08         0.00000E+00
    0.00000E+00         0.00000E+00         0.12376E+08
 
    0.12371E+08         0.21445E+06         0.00000E+00
    0.21445E+06         0.28817E+08         0.00000E+00
    0.00000E+00         0.00000E+00         0.12357E+08
 
    0.12351E+08         0.22216E+06         0.00000E+00
    0.22216E+06         0.28772E+08         0.00000E+00
    0.00000E+00         0.00000E+00         0.12337E+08
 
    0.12331E+08         0.22977E+06         0.00000E+00
    0.22977E+06         0.28725E+08         0.00000E+00
    0.00000E+00         0.00000E+00         0.12317E+08
 
    0.12311E+08         0.23730E+06         0.00000E+00
    0.23730E+06         0.28678E+08         0.00000E+00
    0.00000E+00         0.00000E+00         0.12297E+08
 
    0.12290E+08         0.24476E+06         0.00000E+00
    0.24476E+06         0.28631E+08         0.00000E+00
    0.00000E+00         0.00000E+00         0.12276E+08
 
    0.12269E+08         0.25217E+06         0.00000E+00
    0.25217E+06         0.28582E+08         0.00000E+00
    0.00000E+00         0.00000E+00         0.12255E+08
 
    0.12248E+08         0.25955E+06         0.00000E+00
    0.25955E+06         0.28533E+08         0.00000E+00
    0.00000E+00         0.00000E+00         0.12234E+08
 
    0.12227E+08         0.26691E+06         0.00000E+00
    0.26691E+06         0.28482E+08         0.00000E+00
    0.00000E+00         0.00000E+00         0.12213E+08
 
    0.12205E+08         0.27427E+06         0.00000E+00
    0.27427E+06         0.28431E+08         0.00000E+00
    0.00000E+00         0.00000E+00         0.12191E+08
 
    0.12182E+08         0.28164E+06         0.00000E+00
    0.28164E+06         0.28378E+08         0.00000E+00
    0.00000E+00         0.00000E+00         0.12168E+08
 
    0.12159E+08         0.28904E+06         0.00000E+00
    0.28904E+06         0.28325E+08         0.00000E+00
    0.00000E+00         0.00000E+00         0.12145E+08
 
    0.12136E+08         0.29647E+06         0.00000E+00
    0.29647E+06         0.28270E+08         0.00000E+00
    0.00000E+00         0.00000E+00         0.12122E+08
 
    0.12112E+08         0.30394E+06         0.00000E+00
    0.30394E+06         0.28214E+08         0.00000E+00
    0.00000E+00         0.00000E+00         0.12098E+08
 
    0.12088E+08         0.31147E+06         0.00000E+00
    0.31147E+06         0.28157E+08         0.00000E+00
    0.00000E+00         0.00000E+00         0.12073E+08
 
    0.12063E+08         0.31905E+06         0.00000E+00
    0.31905E+06         0.28099E+08         0.00000E+00
    0.00000E+00         0.00000E+00         0.12049E+08
 
    0.12038E+08         0.32670E+06         0.00000E+00
    0.32670E+06         0.28039E+08         0.00000E+00
    0.00000E+00         0.00000E+00         0.12023E+08
 
    0.12012E+08         0.33441E+06         0.00000E+00
    0.33441E+06         0.27978E+08         0.00000E+00
    0.00000E+00         0.00000E+00         0.11997E+08
 
    0.11985E+08         0.34219E+06         0.00000E+00
    0.34219E+06         0.27915E+08         0.00000E+00
    0.00000E+00         0.00000E+00         0.11970E+08
 
    0.11958E+08         0.35005E+06         0.00000E+00
    0.35005E+06         0.27851E+08         0.00000E+00
    0.00000E+00         0.00000E+00         0.11943E+08
 
    0.11930E+08         0.35797E+06         0.00000E+00
    0.35797E+06         0.27785E+08         0.00000E+00
    0.00000E+00         0.00000E+00         0.11915E+08
 
    0.11901E+08         0.36597E+06         0.00000E+00
    0.36597E+06         0.27718E+08         0.00000E+00
    0.00000E+00         0.00000E+00         0.11886E+08
 
    0.11872E+08         0.37404E+06         0.00000E+00
    0.37404E+06         0.27649E+08         0.00000E+00
    0.00000E+00         0.00000E+00         0.11856E+08
 
    0.11842E+08         0.38218E+06         0.00000E+00
    0.38218E+06         0.27579E+08         0.00000E+00
    0.00000E+00         0.00000E+00         0.11826E+08
 
    0.11811E+08         0.39038E+06         0.00000E+00
    0.39038E+06         0.27507E+08         0.00000E+00
    0.00000E+00         0.00000E+00         0.11795E+08
 
    0.11780E+08         0.39864E+06         0.00000E+00
    0.39864E+06         0.27433E+08         0.00000E+00
    0.00000E+00         0.00000E+00         0.11764E+08
 
    0.11748E+08         0.40696E+06         0.00000E+00
    0.40696E+06         0.27357E+08         0.00000E+00
    0.00000E+00         0.00000E+00         0.11732E+08
 
    0.11715E+08         0.41533E+06         0.00000E+00
    0.41533E+06         0.27280E+08         0.00000E+00
    0.00000E+00         0.00000E+00         0.11698E+08
 
    0.11681E+08         0.42373E+06         0.00000E+00
    0.42373E+06         0.27201E+08         0.00000E+00
    0.00000E+00         0.00000E+00         0.11664E+08
 
    0.11646E+08         0.43217E+06         0.00000E+00
    0.43217E+06         0.27119E+08         0.00000E+00
    0.00000E+00         0.00000E+00         0.11630E+08
 
    0.11611E+08         0.44063E+06         0.00000E+00
    0.44063E+06         0.27036E+08         0.00000E+00
    0.00000E+00         0.00000E+00         0.11594E+08
 
    0.11574E+08         0.44910E+06         0.00000E+00
    0.44910E+06         0.26951E+08         0.00000E+00
    0.00000E+00         0.00000E+00         0.11558E+08
 
    0.11537E+08         0.45757E+06         0.00000E+00
    0.45757E+06         0.26864E+08         0.00000E+00
    0.00000E+00         0.00000E+00         0.11520E+08
 
    0.11499E+08         0.46603E+06         0.00000E+00
    0.46603E+06         0.26775E+08         0.00000E+00
    0.00000E+00         0.00000E+00         0.11482E+08
 
    0.11459E+08         0.47446E+06         0.00000E+00
    0.47446E+06         0.26684E+08         0.00000E+00
    0.00000E+00         0.00000E+00         0.11443E+08
 
    0.11419E+08         0.48285E+06         0.00000E+00
    0.48285E+06         0.26590E+08         0.00000E+00
    0.00000E+00         0.00000E+00         0.11403E+08
 
    0.11378E+08         0.49118E+06         0.00000E+00
    0.49118E+06         0.26495E+08         0.00000E+00
    0.00000E+00         0.00000E+00         0.11362E+08
 
    0.11336E+08         0.49942E+06         0.00000E+00
    0.49942E+06         0.26397E+08         0.00000E+00
    0.00000E+00         0.00000E+00         0.11320E+08
 
    0.11293E+08         0.50757E+06         0.00000E+00
    0.50757E+06         0.26298E+08         0.00000E+00
    0.00000E+00         0.00000E+00         0.11277E+08
 
    0.11249E+08         0.51559E+06         0.00000E+00
    0.51559E+06         0.26196E+08         0.00000E+00
    0.00000E+00         0.00000E+00         0.11233E+08
 
    0.11204E+08         0.52347E+06         0.00000E+00
    0.52347E+06         0.26091E+08         0.00000E+00
    0.00000E+00         0.00000E+00         0.11189E+08
 
    0.11158E+08         0.53118E+06         0.00000E+00
    0.53118E+06         0.25985E+08         0.00000E+00
    0.00000E+00         0.00000E+00         0.11143E+08
 
    0.11111E+08         0.53870E+06         0.00000E+00
    0.53870E+06         0.25876E+08         0.00000E+00
    0.00000E+00         0.00000E+00         0.11096E+08
 
    0.11063E+08         0.54598E+06         0.00000E+00
    0.54598E+06         0.25765E+08         0.00000E+00
    0.00000E+00         0.00000E+00         0.11048E+08
 
    0.11013E+08         0.55301E+06         0.00000E+00
    0.55301E+06         0.25651E+08         0.00000E+00
    0.00000E+00         0.00000E+00         0.10999E+08
 
    0.10963E+08         0.55974E+06         0.00000E+00
    0.55974E+06         0.25536E+08         0.00000E+00
    0.00000E+00         0.00000E+00         0.10950E+08
 
    0.10911E+08         0.56615E+06         0.00000E+00
    0.56615E+06         0.25417E+08         0.00000E+00
    0.00000E+00         0.00000E+00         0.10899E+08
 
    0.10859E+08         0.57218E+06         0.00000E+00
    0.57218E+06         0.25297E+08         0.00000E+00
    0.00000E+00         0.00000E+00         0.10847E+08
 
    0.10805E+08         0.57780E+06         0.00000E+00
    0.57780E+06         0.25174E+08         0.00000E+00
    0.00000E+00         0.00000E+00         0.10794E+08
 
    0.10750E+08         0.58296E+06         0.00000E+00
    0.58296E+06         0.25049E+08         0.00000E+00
    0.00000E+00         0.00000E+00         0.10740E+08
 
    0.10694E+08         0.58762E+06         0.00000E+00
    0.58762E+06         0.24921E+08         0.00000E+00
    0.00000E+00         0.00000E+00         0.10684E+08
 
    0.10636E+08         0.59171E+06         0.00000E+00
    0.59171E+06         0.24791E+08         0.00000E+00
    0.00000E+00         0.00000E+00         0.10628E+08
 
    0.10578E+08         0.59519E+06         0.00000E+00
    0.59519E+06         0.24658E+08         0.00000E+00
    0.00000E+00         0.00000E+00         0.10571E+08
 
    0.10518E+08         0.59798E+06         0.00000E+00
    0.59798E+06         0.24523E+08         0.00000E+00
    0.00000E+00         0.00000E+00         0.10512E+08
 
    0.10457E+08         0.60004E+06         0.00000E+00
    0.60004E+06         0.24385E+08         0.00000E+00
    0.00000E+00         0.00000E+00         0.10453E+08
 
    0.10395E+08         0.60127E+06         0.00000E+00
    0.60127E+06         0.24245E+08         0.00000E+00
    0.00000E+00         0.00000E+00         0.10392E+08
 
    0.10331E+08         0.60162E+06         0.00000E+00
    0.60162E+06         0.24103E+08         0.00000E+00
    0.00000E+00         0.00000E+00         0.10330E+08
 
    0.10266E+08         0.60100E+06         0.00000E+00
    0.60100E+06         0.23958E+08         0.00000E+00
    0.00000E+00         0.00000E+00         0.10267E+08
 
    0.10200E+08         0.59934E+06         0.00000E+00
    0.59934E+06         0.23810E+08         0.00000E+00
    0.00000E+00         0.00000E+00         0.10203E+08
 
    0.10133E+08         0.59654E+06         0.00000E+00
    0.59654E+06         0.23660E+08         0.00000E+00
    0.00000E+00         0.00000E+00         0.10138E+08
 
    0.10064E+08         0.59252E+06         0.00000E+00
    0.59252E+06         0.23508E+08         0.00000E+00
    0.00000E+00         0.00000E+00         0.10072E+08
 
    0.99942E+07         0.58720E+06         0.00000E+00
    0.58720E+06         0.23352E+08         0.00000E+00
    0.00000E+00         0.00000E+00         0.10004E+08
 
    0.99229E+07         0.58049E+06         0.00000E+00
    0.58049E+06         0.23195E+08         0.00000E+00
    0.00000E+00         0.00000E+00         0.99353E+07
 
    0.98502E+07         0.57230E+06         0.00000E+00
    0.57230E+06         0.23034E+08         0.00000E+00
    0.00000E+00         0.00000E+00         0.98654E+07
 
    0.97763E+07         0.56255E+06         0.00000E+00
    0.56255E+06         0.22872E+08         0.00000E+00
    0.00000E+00         0.00000E+00         0.97944E+07
 
    0.97011E+07         0.55117E+06         0.00000E+00
    0.55117E+06         0.22706E+08         0.00000E+00
    0.00000E+00         0.00000E+00         0.97222E+07
 
    0.96248E+07         0.53809E+06         0.00000E+00
    0.53809E+06         0.22539E+08         0.00000E+00
    0.00000E+00         0.00000E+00         0.96490E+07
 
    0.95473E+07         0.52326E+06         0.00000E+00
    0.52326E+06         0.22369E+08         0.00000E+00
    0.00000E+00         0.00000E+00         0.95748E+07
 
    0.94689E+07         0.50665E+06         0.00000E+00
    0.50665E+06         0.22196E+08         0.00000E+00
    0.00000E+00         0.00000E+00         0.94996E+07
 
    0.93897E+07         0.48822E+06         0.00000E+00
    0.48822E+06         0.22023E+08         0.00000E+00
    0.00000E+00         0.00000E+00         0.94237E+07
 
    0.93098E+07         0.46795E+06         0.00000E+00
    0.46795E+06         0.21847E+08         0.00000E+00
    0.00000E+00         0.00000E+00         0.93471E+07
 
    0.92294E+07         0.44583E+06         0.00000E+00
    0.44583E+06         0.21671E+08         0.00000E+00
    0.00000E+00         0.00000E+00         0.92701E+07
 
    0.91489E+07         0.42183E+06         0.00000E+00
    0.42183E+06         0.21495E+08         0.00000E+00
    0.00000E+00         0.00000E+00         0.91931E+07
 
    0.90683E+07         0.39585E+06         0.00000E+00
    0.39585E+06         0.21319E+08         0.00000E+00
    0.00000E+00         0.00000E+00         0.91163E+07
 
    0.89881E+07         0.36775E+06         0.00000E+00
    0.36775E+06         0.21146E+08         0.00000E+00
    0.00000E+00         0.00000E+00         0.90403E+07
 
    0.89082E+07         0.33719E+06         0.00000E+00
    0.33719E+06         0.20977E+08         0.00000E+00
    0.00000E+00         0.00000E+00         0.89657E+07
 
    0.88286E+07         0.30358E+06         0.00000E+00
    0.30358E+06         0.20814E+08         0.00000E+00
    0.00000E+00         0.00000E+00         0.88929E+07
 
    0.87488E+07         0.26591E+06         0.00000E+00
    0.26591E+06         0.20660E+08         0.00000E+00
    0.00000E+00         0.00000E+00         0.88227E+07
 
    0.86676E+07         0.22260E+06         0.00000E+00
    0.22260E+06         0.20518E+08         0.00000E+00
    0.00000E+00         0.00000E+00         0.87555E+07
 
    0.85823E+07         0.17091E+06         0.00000E+00
    0.17091E+06         0.20390E+08         0.00000E+00
    0.00000E+00         0.00000E+00         0.86918E+07
 
    0.84853E+07         0.10798E+06         0.00000E+00
    0.10798E+06         0.20284E+08         0.00000E+00
    0.00000E+00         0.00000E+00         0.86308E+07
 
    0.83605E+07         0.36717E+05         0.00000E+00
    0.36717E+05         0.20199E+08         0.00000E+00
    0.00000E+00         0.00000E+00         0.85678E+07
 
    0.12742E+08         0.87859E+04         0.00000E+00
    0.87859E+04         0.29531E+08         0.00000E+00
    0.00000E+00         0.00000E+00         0.12682E+08
 
    0.12714E+08         0.26191E+05         0.00000E+00
    0.26191E+05         0.29513E+08         0.00000E+00
    0.00000E+00         0.00000E+00         0.12668E+08
 
    0.12692E+08         0.42514E+05         0.00000E+00
    0.42514E+05         0.29490E+08         0.00000E+00
    0.00000E+00         0.00000E+00         0.12655E+08
 
    0.12672E+08         0.56995E+05         0.00000E+00
    0.56995E+05         0.29463E+08         0.00000E+00
    0.00000E+00         0.00000E+00         0.12640E+08
 
    0.12654E+08         0.69933E+05         0.00000E+00
    0.69933E+05         0.29432E+08         0.00000E+00
    0.00000E+00         0.00000E+00         0.12626E+08
 
    0.12636E+08         0.81823E+05         0.00000E+00
    0.81823E+05         0.29398E+08         0.00000E+00
    0.00000E+00         0.00000E+00         0.12610E+08
 
    0.12618E+08         0.92980E+05         0.00000E+00
    0.92980E+05         0.29362E+08         0.00000E+00
    0.00000E+00         0.00000E+00         0.12594E+08
 
    0.12601E+08         0.10361E+06         0.00000E+00
    0.10361E+06         0.29324E+08         0.00000E+00
    0.00000E+00         0.00000E+00         0.12577E+08
 
    0.12583E+08         0.11384E+06         0.00000E+00
    0.11384E+06         0.29285E+08         0.00000E+00
    0.00000E+00         0.00000E+00         0.12560E+08
 
    0.12565E+08         0.12374E+06         0.00000E+00
    0.12374E+06         0.29245E+08         0.00000E+00
    0.00000E+00         0.00000E+00         0.12543E+08
 
    0.12546E+08         0.13335E+06         0.00000E+00
    0.13335E+06         0.29204E+08         0.00000E+00
    0.00000E+00         0.00000E+00         0.12525E+08
 
    0.12528E+08         0.14270E+06         0.00000E+00
    0.14270E+06         0.29162E+08         0.00000E+00
    0.00000E+00         0.00000E+00         0.12507E+08
 
    0.12509E+08         0.15179E+06         0.00000E+00
    0.15179E+06         0.29121E+08         0.00000E+00
    0.00000E+00         0.00000E+00         0.12489E+08
 
    0.12491E+08         0.16066E+06         0.00000E+00
    0.16066E+06         0.29078E+08         0.00000E+00
    0.00000E+00         0.00000E+00         0.12471E+08
 
    0.12472E+08         0.16929E+06         0.00000E+00
    0.16929E+06         0.29036E+08         0.00000E+00
    0.00000E+00         0.00000E+00         0.12452E+08
 
    0.12453E+08         0.17771E+06         0.00000E+00
    0.17771E+06         0.28993E+08         0.00000E+00
    0.00000E+00         0.00000E+00         0.12434E+08
 
    0.12433E+08         0.18593E+06         0.00000E+00
    0.18593E+06         0.28949E+08         0.00000E+00
    0.00000E+00         0.00000E+00         0.12415E+08
 
    0.12414E+08         0.19397E+06         0.00000E+00
    0.19397E+06         0.28905E+08         0.00000E+00
    0.00000E+00         0.00000E+00         0.12396E+08
 
    0.12395E+08         0.20184E+06         0.00000E+00
    0.20184E+06         0.28861E+08         0.00000E+00
    0.00000E+00         0.00000E+00         0.12377E+08
 
    0.12375E+08         0.20956E+06         0.00000E+00
    0.20956E+06         0.28816E+08         0.00000E+00
    0.00000E+00         0.00000E+00         0.12357E+08
 
    0.12355E+08         0.21716E+06         0.00000E+00
    0.21716E+06         0.28770E+08         0.00000E+00
    0.00000E+00         0.00000E+00         0.12338E+08
 
    0.12335E+08         0.22465E+06         0.00000E+00
    0.22465E+06         0.28724E+08         0.00000E+00
    0.00000E+00         0.00000E+00         0.12318E+08
 
    0.12315E+08         0.23205E+06         0.00000E+00
    0.23205E+06         0.28677E+08         0.00000E+00
    0.00000E+00         0.00000E+00         0.12297E+08
 
    0.12294E+08         0.23938E+06         0.00000E+00
    0.23938E+06         0.28629E+08         0.00000E+00
    0.00000E+00         0.00000E+00         0.12277E+08
 
    0.12273E+08         0.24666E+06         0.00000E+00
    0.24666E+06         0.28581E+08         0.00000E+00
    0.00000E+00         0.00000E+00         0.12256E+08
 
    0.12252E+08         0.25390E+06         0.00000E+00
    0.25390E+06         0.28531E+08         0.00000E+00
    0.00000E+00         0.00000E+00         0.12235E+08
 
    0.12230E+08         0.26112E+06         0.00000E+00
    0.26112E+06         0.28481E+08         0.00000E+00
    0.00000E+00         0.00000E+00         0.12213E+08
 
    0.12208E+08         0.26834E+06         0.00000E+00
    0.26834E+06         0.28429E+08         0.00000E+00
    0.00000E+00         0.00000E+00         0.12191E+08
 
    0.12186E+08         0.27557E+06         0.00000E+00
    0.27557E+06         0.28377E+08         0.00000E+00
    0.00000E+00         0.00000E+00         0.12169E+08
 
    0.12163E+08         0.28282E+06         0.00000E+00
    0.28282E+06         0.28323E+08         0.00000E+00
    0.00000E+00         0.00000E+00         0.12146E+08
 
    0.12140E+08         0.29011E+06         0.00000E+00
    0.29011E+06         0.28269E+08         0.00000E+00
    0.00000E+00         0.00000E+00         0.12123E+08
 
    0.12116E+08         0.29743E+06         0.00000E+00
    0.29743E+06         0.28213E+08         0.00000E+00
    0.00000E+00         0.00000E+00         0.12099E+08
 
    0.12092E+08         0.30480E+06         0.00000E+00
    0.30480E+06         0.28155E+08         0.00000E+00
    0.00000E+00         0.00000E+00         0.12074E+08
 
    0.12067E+08         0.31222E+06         0.00000E+00
    0.31222E+06         0.28097E+08         0.00000E+00
    0.00000E+00         0.00000E+00         0.12049E+08
 
    0.12042E+08         0.31970E+06         0.00000E+00
    0.31970E+06         0.28037E+08         0.00000E+00
    0.00000E+00         0.00000E+00         0.12024E+08
 
    0.12016E+08         0.32725E+06         0.00000E+00
    0.32725E+06         0.27976E+08         0.00000E+00
    0.00000E+00         0.00000E+00         0.11998E+08
 
    0.11989E+08         0.33486E+06         0.00000E+00
    0.33486E+06         0.27913E+08         0.00000E+00
    0.00000E+00         0.00000E+00         0.11971E+08
 
    0.11962E+08         0.34254E+06         0.00000E+00
    0.34254E+06         0.27849E+08         0.00000E+00
    0.00000E+00         0.00000E+00         0.11943E+08
 
    0.11934E+08         0.35030E+06         0.00000E+00
    0.35030E+06         0.27784E+08         0.00000E+00
    0.00000E+00         0.00000E+00         0.11915E+08
 
    0.11906E+08         0.35811E+06         0.00000E+00
    0.35811E+06         0.27717E+08         0.00000E+00
    0.00000E+00         0.00000E+00         0.11887E+08
 
    0.11876E+08         0.36600E+06         0.00000E+00
    0.36600E+06         0.27648E+08         0.00000E+00
    0.00000E+00         0.00000E+00         0.11857E+08
 
    0.11846E+08         0.37395E+06         0.00000E+00
    0.37395E+06         0.27577E+08         0.00000E+00
    0.00000E+00         0.00000E+00         0.11827E+08
 
    0.11816E+08         0.38197E+06         0.00000E+00
    0.38197E+06         0.27505E+08         0.00000E+00
    0.00000E+00         0.00000E+00         0.11796E+08
 
    0.11784E+08         0.39004E+06         0.00000E+00
    0.39004E+06         0.27431E+08         0.00000E+00
    0.00000E+00         0.00000E+00         0.11765E+08
 
    0.11752E+08         0.39816E+06         0.00000E+00
    0.39816E+06         0.27356E+08         0.00000E+00
    0.00000E+00         0.00000E+00         0.11732E+08
 
    0.11719E+08         0.40633E+06         0.00000E+00
    0.40633E+06         0.27278E+08         0.00000E+00
    0.00000E+00         0.00000E+00         0.11699E+08
 
    0.11685E+08         0.41453E+06         0.00000E+00
    0.41453E+06         0.27199E+08         0.00000E+00
    0.00000E+00         0.00000E+00         0.11665E+08
 
    0.11651E+08         0.42277E+06         0.00000E+00
    0.42277E+06         0.27118E+08         0.00000E+00
    0.00000E+00         0.00000E+00         0.11630E+08
 
    0.11615E+08         0.43102E+06         0.00000E+00
    0.43102E+06         0.27035E+08         0.00000E+00
    0.00000E+00         0.00000E+00         0.11595E+08
 
    0.11579E+08         0.43928E+06         0.00000E+00
    0.43928E+06         0.26949E+08         0.00000E+00
    0.00000E+00         0.00000E+00         0.11558E+08
 
    0.11541E+08         0.44755E+06         0.00000E+00
    0.44755E+06         0.26862E+08         0.00000E+00
    0.00000E+00         0.00000E+00         0.11521E+08
 
    0.11503E+08         0.45579E+06         0.00000E+00
    0.45579E+06         0.26773E+08         0.00000E+00
    0.00000E+00         0.00000E+00         0.11483E+08
 
    0.11464E+08         0.46401E+06         0.00000E+00
    0.46401E+06         0.26682E+08         0.00000E+00
    0.00000E+00         0.00000E+00         0.11444E+08
 
    0.11424E+08         0.47218E+06         0.00000E+00
    0.47218E+06         0.26589E+08         0.00000E+00
    0.00000E+00         0.00000E+00         0.11404E+08
 
    0.11383E+08         0.48029E+06         0.00000E+00
    0.48029E+06         0.26493E+08         0.00000E+00
    0.00000E+00         0.00000E+00         0.11363E+08
 
    0.11341E+08         0.48832E+06         0.00000E+00
    0.48832E+06         0.26396E+08         0.00000E+00
    0.00000E+00         0.00000E+00         0.11321E+08
 
    0.11297E+08         0.49625E+06         0.00000E+00
    0.49625E+06         0.26296E+08         0.00000E+00
    0.00000E+00         0.00000E+00         0.11278E+08
 
    0.11253E+08         0.50405E+06         0.00000E+00
    0.50405E+06         0.26194E+08         0.00000E+00
    0.00000E+00         0.00000E+00         0.11234E+08
 
    0.11208E+08         0.51172E+06         0.00000E+00
    0.51172E+06         0.26090E+08         0.00000E+00
    0.00000E+00         0.00000E+00         0.11189E+08
 
    0.11162E+08         0.51921E+06         0.00000E+00
    0.51921E+06         0.25983E+08         0.00000E+00
    0.00000E+00         0.00000E+00         0.11144E+08
 
    0.11115E+08         0.52651E+06         0.00000E+00
    0.52651E+06         0.25875E+08         0.00000E+00
    0.00000E+00         0.00000E+00         0.11097E+08
 
    0.11066E+08         0.53358E+06         0.00000E+00
    0.53358E+06         0.25763E+08         0.00000E+00
    0.00000E+00         0.00000E+00         0.11049E+08
 
    0.11017E+08         0.54039E+06         0.00000E+00
    0.54039E+06         0.25650E+08         0.00000E+00
    0.00000E+00         0.00000E+00         0.11000E+08
 
    0.10966E+08         0.54691E+06         0.00000E+00
    0.54691E+06         0.25534E+08         0.00000E+00
    0.00000E+00         0.00000E+00         0.10950E+08
 
    0.10915E+08         0.55311E+06         0.00000E+00
    0.55311E+06         0.25416E+08         0.00000E+00
    0.00000E+00         0.00000E+00         0.10899E+08
 
    0.10862E+08         0.55894E+06         0.00000E+00
    0.55894E+06         0.25296E+08         0.00000E+00
    0.00000E+00         0.00000E+00         0.10847E+08
 
    0.10808E+08         0.56436E+06         0.00000E+00
    0.56436E+06         0.25173E+08         0.00000E+00
    0.00000E+00         0.00000E+00         0.10794E+08
 
    0.10752E+08         0.56932E+06         0.00000E+00
    0.56932E+06         0.25048E+08         0.00000E+00
    0.00000E+00         0.00000E+00         0.10740E+08
 
    0.10696E+08         0.57378E+06         0.00000E+00
    0.57378E+06         0.24920E+08         0.00000E+00
    0.00000E+00         0.00000E+00         0.10685E+08
 
    0.10638E+08         0.57769E+06         0.00000E+00
    0.57769E+06         0.24790E+08         0.00000E+00
    0.00000E+00         0.00000E+00         0.10628E+08
 
    0.10580E+08         0.58099E+06         0.00000E+00
    0.58099E+06         0.24657E+08         0.00000E+00
    0.00000E+00         0.00000E+00         0.10571E+08
 
    0.10519E+08         0.58361E+06         0.00000E+00
    0.58361E+06         0.24522E+08         0.00000E+00
    0.00000E+00         0.00000E+00         0.10513E+08
 
    0.10458E+08         0.58550E+06         0.00000E+00
    0.58550E+06         0.24385E+08         0.00000E+00
    0.00000E+00         0.00000E+00         0.10453E+08
 
    0.10395E+08         0.58658E+06         0.00000E+00
    0.58658E+06         0.24245E+08         0.00000E+00
    0.00000E+00         0.00000E+00         0.10392E+08
 
    0.10332E+08         0.58678E+06         0.00000E+00
    0.58678E+06         0.24103E+08         0.00000E+00
    0.00000E+00         0.00000E+00         0.10330E+08
 
    0.10266E+08         0.58603E+06         0.00000E+00
    0.58603E+06         0.23958E+08         0.00000E+00
    0.00000E+00         0.00000E+00         0.10267E+08
 
    0.10200E+08         0.58424E+06         0.00000E+00
    0.58424E+06         0.23811E+08         0.00000E+00
    0.00000E+00         0.00000E+00         0.10203E+08
 
    0.10132E+08         0.58133E+06         0.00000E+00
    0.58133E+06         0.23661E+08         0.00000E+00
    0.00000E+00         0.00000E+00         0.10138E+08
 
    0.10062E+08         0.57721E+06         0.00000E+00
    0.57721E+06         0.23508E+08         0.00000E+00
    0.00000E+00         0.00000E+00         0.10071E+08
 
    0.99917E+07         0.57180E+06         0.00000E+00
    0.57180E+06         0.23354E+08         0.00000E+00
    0.00000E+00         0.00000E+00         0.10004E+08
 
    0.99196E+07         0.56500E+06         0.00000E+00
    0.56500E+06         0.23196E+08         0.00000E+00
    0.00000E+00         0.00000E+00         0.99347E+07
 
    0.98463E+07         0.55673E+06         0.00000E+00
    0.55673E+06         0.23036E+08         0.00000E+00
    0.00000E+00         0.00000E+00         0.98647E+07
 
    0.97716E+07         0.54691E+06         0.00000E+00
    0.54691E+06         0.22874E+08         0.00000E+00
    0.00000E+00         0.00000E+00         0.97936E+07
 
    0.96956E+07         0.53546E+06         0.00000E+00
    0.53546E+06         0.22709E+08         0.00000E+00
    0.00000E+00         0.00000E+00         0.97213E+07
 
    0.96184E+07         0.52232E+06         0.00000E+00
    0.52232E+06         0.22541E+08         0.00000E+00
    0.00000E+00         0.00000E+00         0.96479E+07
 
    0.95400E+07         0.50742E+06         0.00000E+00
    0.50742E+06         0.22372E+08         0.00000E+00
    0.00000E+00         0.00000E+00         0.95735E+07
 
    0.94607E+07         0.49072E+06         0.00000E+00
    0.49072E+06         0.22200E+08         0.00000E+00
    0.00000E+00         0.00000E+00         0.94982E+07
 
    0.93805E+07         0.47219E+06         0.00000E+00
    0.47219E+06         0.22026E+08         0.00000E+00
    0.00000E+00         0.00000E+00         0.94221E+07
 
    0.92996E+07         0.45180E+06         0.00000E+00
    0.45180E+06         0.21851E+08         0.00000E+00
    0.00000E+00         0.00000E+00         0.93453E+07
 
    0.92182E+07         0.42952E+06         0.00000E+00
    0.42952E+06         0.21676E+08         0.00000E+00
    0.00000E+00         0.00000E+00         0.92681E+07
 
    0.91365E+07         0.40534E+06         0.00000E+00
    0.40534E+06         0.21500E+08         0.00000E+00
    0.00000E+00         0.00000E+00         0.91909E+07
 
    0.90548E+07         0.37916E+06         0.00000E+00
    0.37916E+06         0.21325E+08         0.00000E+00
    0.00000E+00         0.00000E+00         0.91139E+07
 
    0.89732E+07         0.35084E+06         0.00000E+00
    0.35084E+06         0.21152E+08         0.00000E+00
    0.00000E+00         0.00000E+00         0.90376E+07
 
    0.88916E+07         0.32009E+06         0.00000E+00
    0.32009E+06         0.20984E+08         0.00000E+00
    0.00000E+00         0.00000E+00         0.89626E+07
 
    0.88100E+07         0.28638E+06         0.00000E+00
    0.28638E+06         0.20822E+08         0.00000E+00
    0.00000E+00         0.00000E+00         0.88894E+07
 
    0.87274E+07         0.24882E+06         0.00000E+00
    0.24882E+06         0.20668E+08         0.00000E+00
    0.00000E+00         0.00000E+00         0.88187E+07
 
    0.86424E+07         0.20600E+06         0.00000E+00
    0.20600E+06         0.20527E+08         0.00000E+00
    0.00000E+00         0.00000E+00         0.87508E+07
 
    0.85516E+07         0.15573E+06         0.00000E+00
    0.15573E+06         0.20402E+08         0.00000E+00
    0.00000E+00         0.00000E+00         0.86860E+07
 
    0.84472E+07         0.96695E+05         0.00000E+00
    0.96695E+05         0.20297E+08         0.00000E+00
    0.00000E+00         0.00000E+00         0.86233E+07
 
    0.83161E+07         0.32506E+05         0.00000E+00
    0.32506E+05         0.20213E+08         0.00000E+00
    0.00000E+00         0.00000E+00         0.85586E+07
 
    0.12753E+08         0.79989E+04         0.00000E+00
    0.79989E+04         0.29528E+08         0.00000E+00
    0.00000E+00         0.00000E+00         0.12684E+08
 
    0.12724E+08         0.24006E+05         0.00000E+00
    0.24006E+05         0.29509E+08         0.00000E+00
    0.00000E+00         0.00000E+00         0.12670E+08
 
    0.12700E+08         0.39420E+05         0.00000E+00
    0.39420E+05         0.29487E+08         0.00000E+00
    0.00000E+00         0.00000E+00         0.12656E+08
 
    0.12679E+08         0.53472E+05         0.00000E+00
    0.53472E+05         0.29460E+08         0.00000E+00
    0.00000E+00         0.00000E+00         0.12642E+08
 
    0.12660E+08         0.66205E+05         0.00000E+00
    0.66205E+05         0.29429E+08         0.00000E+00
    0.00000E+00         0.00000E+00         0.12627E+08
 
    0.12642E+08         0.77986E+05         0.00000E+00
    0.77986E+05         0.29395E+08         0.00000E+00
    0.00000E+00         0.00000E+00         0.12611E+08
 
    0.12624E+08         0.89086E+05         0.00000E+00
    0.89086E+05         0.29359E+08         0.00000E+00
    0.00000E+00         0.00000E+00         0.12595E+08
 
    0.12606E+08         0.99679E+05         0.00000E+00
    0.99679E+05         0.29322E+08         0.00000E+00
    0.00000E+00         0.00000E+00         0.12578E+08
 
    0.12588E+08         0.10987E+06         0.00000E+00
    0.10987E+06         0.29283E+08         0.00000E+00
    0.00000E+00         0.00000E+00         0.12561E+08
 
    0.12570E+08         0.11974E+06         0.00000E+00
    0.11974E+06         0.29243E+08         0.00000E+00
    0.00000E+00         0.00000E+00         0.12544E+08
 
    0.12551E+08         0.12930E+06         0.00000E+00
    0.12930E+06         0.29202E+08         0.00000E+00
    0.00000E+00         0.00000E+00         0.12526E+08
 
    0.12532E+08         0.13859E+06         0.00000E+00
    0.13859E+06         0.29161E+08         0.00000E+00
    0.00000E+00         0.00000E+00         0.12508E+08
 
    0.12514E+08         0.14762E+06         0.00000E+00
    0.14762E+06         0.29119E+08         0.00000E+00
    0.00000E+00         0.00000E+00         0.12490E+08
 
    0.12495E+08         0.15641E+06         0.00000E+00
    0.15641E+06         0.29077E+08         0.00000E+00
    0.00000E+00         0.00000E+00         0.12471E+08
 
    0.12476E+08         0.16495E+06         0.00000E+00
    0.16495E+06         0.29034E+08         0.00000E+00
    0.00000E+00         0.00000E+00         0.12453E+08
 
    0.12457E+08         0.17328E+06         0.00000E+00
    0.17328E+06         0.28991E+08         0.00000E+00
    0.00000E+00         0.00000E+00         0.12434E+08
 
    0.12437E+08         0.18140E+06         0.00000E+00
    0.18140E+06         0.28948E+08         0.00000E+00
    0.00000E+00         0.00000E+00         0.12415E+08
 
    0.12418E+08         0.18932E+06         0.00000E+00
    0.18932E+06         0.28904E+08         0.00000E+00
    0.00000E+00         0.00000E+00         0.12396E+08
 
    0.12398E+08         0.19708E+06         0.00000E+00
    0.19708E+06         0.28859E+08         0.00000E+00
    0.00000E+00         0.00000E+00         0.12377E+08
 
    0.12379E+08         0.20469E+06         0.00000E+00
    0.20469E+06         0.28814E+08         0.00000E+00
    0.00000E+00         0.00000E+00         0.12358E+08
 
    0.12359E+08         0.21216E+06         0.00000E+00
    0.21216E+06         0.28769E+08         0.00000E+00
    0.00000E+00         0.00000E+00         0.12338E+08
 
    0.12339E+08         0.21953E+06         0.00000E+00
    0.21953E+06         0.28722E+08         0.00000E+00
    0.00000E+00         0.00000E+00         0.12318E+08
 
    0.12318E+08         0.22680E+06         0.00000E+00
    0.22680E+06         0.28675E+08         0.00000E+00
    0.00000E+00         0.00000E+00         0.12298E+08
 
    0.12298E+08         0.23400E+06         0.00000E+00
    0.23400E+06         0.28628E+08         0.00000E+00
    0.00000E+00         0.00000E+00         0.12278E+08
 
    0.12277E+08         0.24114E+06         0.00000E+00
    0.24114E+06         0.28579E+08         0.00000E+00
    0.00000E+00         0.00000E+00         0.12257E+08
 
    0.12256E+08         0.24825E+06         0.00000E+00
    0.24825E+06         0.28530E+08         0.00000E+00
    0.00000E+00         0.00000E+00         0.12236E+08
 
    0.12234E+08         0.25534E+06         0.00000E+00
    0.25534E+06         0.28479E+08         0.00000E+00
    0.00000E+00         0.00000E+00         0.12214E+08
 
    0.12212E+08         0.26242E+06         0.00000E+00
    0.26242E+06         0.28428E+08         0.00000E+00
    0.00000E+00         0.00000E+00         0.12192E+08
 
    0.12190E+08         0.26950E+06         0.00000E+00
    0.26950E+06         0.28375E+08         0.00000E+00
    0.00000E+00         0.00000E+00         0.12170E+08
 
    0.12167E+08         0.27660E+06         0.00000E+00
    0.27660E+06         0.28322E+08         0.00000E+00
    0.00000E+00         0.00000E+00         0.12147E+08
 
    0.12144E+08         0.28374E+06         0.00000E+00
    0.28374E+06         0.28267E+08         0.00000E+00
    0.00000E+00         0.00000E+00         0.12123E+08
 
    0.12120E+08         0.29090E+06         0.00000E+00
    0.29090E+06         0.28211E+08         0.00000E+00
    0.00000E+00         0.00000E+00         0.12099E+08
 
    0.12096E+08         0.29812E+06         0.00000E+00
    0.29812E+06         0.28154E+08         0.00000E+00
    0.00000E+00         0.00000E+00         0.12075E+08
 
    0.12071E+08         0.30538E+06         0.00000E+00
    0.30538E+06         0.28096E+08         0.00000E+00
    0.00000E+00         0.00000E+00         0.12050E+08
 
    0.12046E+08         0.31270E+06         0.00000E+00
    0.31270E+06         0.28036E+08         0.00000E+00
    0.00000E+00         0.00000E+00         0.12024E+08
 
    0.12020E+08         0.32008E+06         0.00000E+00
    0.32008E+06         0.27975E+08         0.00000E+00
    0.00000E+00         0.00000E+00         0.11998E+08
 
    0.11993E+08         0.32752E+06         0.00000E+00
    0.32752E+06         0.27912E+08         0.00000E+00
    0.00000E+00         0.00000E+00         0.11972E+08
 
    0.11966E+08         0.33503E+06         0.00000E+00
    0.33503E+06         0.27848E+08         0.00000E+00
    0.00000E+00         0.00000E+00         0.11944E+08
 
    0.11938E+08         0.34261E+06         0.00000E+00
    0.34261E+06         0.27782E+08         0.00000E+00
    0.00000E+00         0.00000E+00         0.11916E+08
 
    0.11910E+08         0.35025E+06         0.00000E+00
    0.35025E+06         0.27715E+08         0.00000E+00
    0.00000E+00         0.00000E+00         0.11887E+08
 
    0.11880E+08         0.35795E+06         0.00000E+00
    0.35795E+06         0.27646E+08         0.00000E+00
    0.00000E+00         0.00000E+00         0.11858E+08
 
    0.11851E+08         0.36572E+06         0.00000E+00
    0.36572E+06         0.27576E+08         0.00000E+00
    0.00000E+00         0.00000E+00         0.11828E+08
 
    0.11820E+08         0.37354E+06         0.00000E+00
    0.37354E+06         0.27504E+08         0.00000E+00
    0.00000E+00         0.00000E+00         0.11797E+08
 
    0.11789E+08         0.38142E+06         0.00000E+00
    0.38142E+06         0.27430E+08         0.00000E+00
    0.00000E+00         0.00000E+00         0.11765E+08
 
    0.11756E+08         0.38935E+06         0.00000E+00
    0.38935E+06         0.27354E+08         0.00000E+00
    0.00000E+00         0.00000E+00         0.11733E+08
 
    0.11723E+08         0.39732E+06         0.00000E+00
    0.39732E+06         0.27277E+08         0.00000E+00
    0.00000E+00         0.00000E+00         0.11700E+08
 
    0.11690E+08         0.40532E+06         0.00000E+00
    0.40532E+06         0.27197E+08         0.00000E+00
    0.00000E+00         0.00000E+00         0.11666E+08
 
    0.11655E+08         0.41336E+06         0.00000E+00
    0.41336E+06         0.27116E+08         0.00000E+00
    0.00000E+00         0.00000E+00         0.11631E+08
 
    0.11619E+08         0.42141E+06         0.00000E+00
    0.42141E+06         0.27033E+08         0.00000E+00
    0.00000E+00         0.00000E+00         0.11596E+08
 
    0.11583E+08         0.42946E+06         0.00000E+00
    0.42946E+06         0.26948E+08         0.00000E+00
    0.00000E+00         0.00000E+00         0.11559E+08
 
    0.11546E+08         0.43752E+06         0.00000E+00
    0.43752E+06         0.26861E+08         0.00000E+00
    0.00000E+00         0.00000E+00         0.11522E+08
 
    0.11507E+08         0.44555E+06         0.00000E+00
    0.44555E+06         0.26772E+08         0.00000E+00
    0.00000E+00         0.00000E+00         0.11484E+08
 
    0.11468E+08         0.45356E+06         0.00000E+00
    0.45356E+06         0.26680E+08         0.00000E+00
    0.00000E+00         0.00000E+00         0.11445E+08
 
    0.11428E+08         0.46152E+06         0.00000E+00
    0.46152E+06         0.26587E+08         0.00000E+00
    0.00000E+00         0.00000E+00         0.11405E+08
 
    0.11387E+08         0.46941E+06         0.00000E+00
    0.46941E+06         0.26492E+08         0.00000E+00
    0.00000E+00         0.00000E+00         0.11364E+08
 
    0.11345E+08         0.47722E+06         0.00000E+00
    0.47722E+06         0.26394E+08         0.00000E+00
    0.00000E+00         0.00000E+00         0.11322E+08
 
    0.11302E+08         0.48494E+06         0.00000E+00
    0.48494E+06         0.26294E+08         0.00000E+00
    0.00000E+00         0.00000E+00         0.11279E+08
 
    0.11257E+08         0.49253E+06         0.00000E+00
    0.49253E+06         0.26192E+08         0.00000E+00
    0.00000E+00         0.00000E+00         0.11235E+08
 
    0.11212E+08         0.49998E+06         0.00000E+00
    0.49998E+06         0.26088E+08         0.00000E+00
    0.00000E+00         0.00000E+00         0.11190E+08
 
    0.11166E+08         0.50725E+06         0.00000E+00
    0.50725E+06         0.25982E+08         0.00000E+00
    0.00000E+00         0.00000E+00         0.11144E+08
 
    0.11119E+08         0.51434E+06         0.00000E+00
    0.51434E+06         0.25873E+08         0.00000E+00
    0.00000E+00         0.00000E+00         0.11098E+08
 
    0.11070E+08         0.52119E+06         0.00000E+00
    0.52119E+06         0.25762E+08         0.00000E+00
    0.00000E+00         0.00000E+00         0.11050E+08
 
    0.11021E+08         0.52780E+06         0.00000E+00
    0.52780E+06         0.25649E+08         0.00000E+00
    0.00000E+00         0.00000E+00         0.11001E+08
 
    0.10970E+08         0.53411E+06         0.00000E+00
    0.53411E+06         0.25533E+08         0.00000E+00
    0.00000E+00         0.00000E+00         0.10951E+08
 
    0.10918E+08         0.54010E+06         0.00000E+00
    0.54010E+06         0.25415E+08         0.00000E+00
    0.00000E+00         0.00000E+00         0.10900E+08
 
    0.10865E+08         0.54573E+06         0.00000E+00
    0.54573E+06         0.25295E+08         0.00000E+00
    0.00000E+00         0.00000E+00         0.10848E+08
 
    0.10811E+08         0.55095E+06         0.00000E+00
    0.55095E+06         0.25172E+08         0.00000E+00
    0.00000E+00         0.00000E+00         0.10795E+08
 
    0.10755E+08         0.55573E+06         0.00000E+00
    0.55573E+06         0.25047E+08         0.00000E+00
    0.00000E+00         0.00000E+00         0.10741E+08
 
    0.10699E+08         0.56000E+06         0.00000E+00
    0.56000E+06         0.24919E+08         0.00000E+00
    0.00000E+00         0.00000E+00         0.10685E+08
 
    0.10641E+08         0.56373E+06         0.00000E+00
    0.56373E+06         0.24789E+08         0.00000E+00
    0.00000E+00         0.00000E+00         0.10629E+08
 
    0.10581E+08         0.56685E+06         0.00000E+00
    0.56685E+06         0.24657E+08         0.00000E+00
    0.00000E+00         0.00000E+00         0.10571E+08
 
    0.10521E+08         0.56931E+06         0.00000E+00
    0.56931E+06         0.24522E+08         0.00000E+00
    0.00000E+00         0.00000E+00         0.10513E+08
 
    0.10459E+08         0.57104E+06         0.00000E+00
    0.57104E+06         0.24385E+08         0.00000E+00
    0.00000E+00         0.00000E+00         0.10453E+08
 
    0.10396E+08         0.57198E+06         0.00000E+00
    0.57198E+06         0.24245E+08         0.00000E+00
    0.00000E+00         0.00000E+00         0.10392E+08
 
    0.10332E+08         0.57204E+06         0.00000E+00
    0.57204E+06         0.24103E+08         0.00000E+00
    0.00000E+00         0.00000E+00         0.10330E+08
 
    0.10266E+08         0.57116E+06         0.00000E+00
    0.57116E+06         0.23958E+08         0.00000E+00
    0.00000E+00         0.00000E+00         0.10267E+08
 
    0.10199E+08         0.56925E+06         0.00000E+00
    0.56925E+06         0.23811E+08         0.00000E+00
    0.00000E+00         0.00000E+00         0.10203E+08
 
    0.10130E+08         0.56624E+06         0.00000E+00
    0.56624E+06         0.23662E+08         0.00000E+00
    0.00000E+00         0.00000E+00         0.10138E+08
 
    0.10061E+08         0.56202E+06         0.00000E+00
    0.56202E+06         0.23509E+08         0.00000E+00
    0.00000E+00         0.00000E+00         0.10071E+08
 
    0.99892E+07         0.55652E+06         0.00000E+00
    0.55652E+06         0.23355E+08         0.00000E+00
    0.00000E+00         0.00000E+00         0.10003E+08
 
    0.99165E+07         0.54965E+06         0.00000E+00
    0.54965E+06         0.23198E+08         0.00000E+00
    0.00000E+00         0.00000E+00         0.99342E+07
 
    0.98424E+07         0.54131E+06         0.00000E+00
    0.54131E+06         0.23038E+08         0.00000E+00
    0.00000E+00         0.00000E+00         0.98641E+07
 
    0.97669E+07         0.53143E+06         0.00000E+00
    0.53143E+06         0.22876E+08         0.00000E+00
    0.00000E+00         0.00000E+00         0.97928E+07
 
    0.96901E+07         0.51992E+06         0.00000E+00
    0.51992E+06         0.22711E+08         0.00000E+00
    0.00000E+00         0.00000E+00         0.97204E+07
 
    0.96120E+07         0.50672E+06         0.00000E+00
    0.50672E+06         0.22544E+08         0.00000E+00
    0.00000E+00         0.00000E+00         0.96469E+07
 
    0.95328E+07         0.49175E+06         0.00000E+00
    0.49175E+06         0.22375E+08         0.00000E+00
    0.00000E+00         0.00000E+00         0.95723E+07
 
    0.94525E+07         0.47498E+06         0.00000E+00
    0.47498E+06         0.22204E+08         0.00000E+00
    0.00000E+00         0.00000E+00         0.94968E+07
 
    0.93713E+07         0.45635E+06         0.00000E+00
    0.45635E+06         0.22030E+08         0.00000E+00
    0.00000E+00         0.00000E+00         0.94205E+07
 
    0.92894E+07         0.43584E+06         0.00000E+00
    0.43584E+06         0.21856E+08         0.00000E+00
    0.00000E+00         0.00000E+00         0.93435E+07
 
    0.92069E+07         0.41343E+06         0.00000E+00
    0.41343E+06         0.21680E+08         0.00000E+00
    0.00000E+00         0.00000E+00         0.92662E+07
 
    0.91241E+07         0.38908E+06         0.00000E+00
    0.38908E+06         0.21505E+08         0.00000E+00
    0.00000E+00         0.00000E+00         0.91887E+07
 
    0.90411E+07         0.36272E+06         0.00000E+00
    0.36272E+06         0.21330E+08         0.00000E+00
    0.00000E+00         0.00000E+00         0.91114E+07
 
    0.89580E+07         0.33423E+06         0.00000E+00
    0.33423E+06         0.21158E+08         0.00000E+00
    0.00000E+00         0.00000E+00         0.90349E+07
 
    0.88748E+07         0.30336E+06         0.00000E+00
    0.30336E+06         0.20990E+08         0.00000E+00
    0.00000E+00         0.00000E+00         0.89595E+07
 
    0.87910E+07         0.26966E+06         0.00000E+00
    0.26966E+06         0.20829E+08         0.00000E+00
    0.00000E+00         0.00000E+00         0.88859E+07
 
    0.87056E+07         0.23236E+06         0.00000E+00
    0.23236E+06         0.20676E+08         0.00000E+00
    0.00000E+00         0.00000E+00         0.88145E+07
 
    0.86169E+07         0.19028E+06         0.00000E+00
    0.19028E+06         0.20536E+08         0.00000E+00
    0.00000E+00         0.00000E+00         0.87459E+07
 
    0.85211E+07         0.14181E+06         0.00000E+00
    0.14181E+06         0.20412E+08         0.00000E+00
    0.00000E+00         0.00000E+00         0.86800E+07
 
    0.84104E+07         0.86817E+05         0.00000E+00
    0.86817E+05         0.20309E+08         0.00000E+00
    0.00000E+00         0.00000E+00         0.86158E+07
 
    0.82744E+07         0.28941E+05         0.00000E+00
    0.28941E+05         0.20225E+08         0.00000E+00
    0.00000E+00         0.00000E+00         0.85498E+07
 
    0.12763E+08         0.73137E+04         0.00000E+00
    0.73137E+04         0.29525E+08         0.00000E+00
    0.00000E+00         0.00000E+00         0.12686E+08
 
    0.12733E+08         0.22059E+05         0.00000E+00
    0.22059E+05         0.29506E+08         0.00000E+00
    0.00000E+00         0.00000E+00         0.12672E+08
 
    0.12708E+08         0.36565E+05         0.00000E+00
    0.36565E+05         0.29484E+08         0.00000E+00
    0.00000E+00         0.00000E+00         0.12658E+08
 
    0.12687E+08         0.50122E+05         0.00000E+00
    0.50122E+05         0.29457E+08         0.00000E+00
    0.00000E+00         0.00000E+00         0.12643E+08
 
    0.12667E+08         0.62601E+05         0.00000E+00
    0.62601E+05         0.29427E+08         0.00000E+00
    0.00000E+00         0.00000E+00         0.12628E+08
 
    0.12648E+08         0.74242E+05         0.00000E+00
    0.74242E+05         0.29393E+08         0.00000E+00
    0.00000E+00         0.00000E+00         0.12612E+08
 
    0.12630E+08         0.85261E+05         0.00000E+00
    0.85261E+05         0.29357E+08         0.00000E+00
    0.00000E+00         0.00000E+00         0.12596E+08
 
    0.12611E+08         0.95802E+05         0.00000E+00
    0.95802E+05         0.29320E+08         0.00000E+00
    0.00000E+00         0.00000E+00         0.12579E+08
 
    0.12593E+08         0.10596E+06         0.00000E+00
    0.10596E+06         0.29281E+08         0.00000E+00
    0.00000E+00         0.00000E+00         0.12562E+08
 
    0.12574E+08         0.11577E+06         0.00000E+00
    0.11577E+06         0.29241E+08         0.00000E+00
    0.00000E+00         0.00000E+00         0.12545E+08
 
    0.12556E+08         0.12529E+06         0.00000E+00
    0.12529E+06         0.29200E+08         0.00000E+00
    0.00000E+00         0.00000E+00         0.12527E+08
 
    0.12537E+08         0.13452E+06         0.00000E+00
    0.13452E+06         0.29159E+08         0.00000E+00
    0.00000E+00         0.00000E+00         0.12509E+08
 
    0.12518E+08         0.14348E+06         0.00000E+00
    0.14348E+06         0.29117E+08         0.00000E+00
    0.00000E+00         0.00000E+00         0.12491E+08
 
    0.12499E+08         0.15218E+06         0.00000E+00
    0.15218E+06         0.29075E+08         0.00000E+00
    0.00000E+00         0.00000E+00         0.12472E+08
 
    0.12480E+08         0.16064E+06         0.00000E+00
    0.16064E+06         0.29032E+08         0.00000E+00
    0.00000E+00         0.00000E+00         0.12454E+08
 
    0.12461E+08         0.16886E+06         0.00000E+00
    0.16886E+06         0.28989E+08         0.00000E+00
    0.00000E+00         0.00000E+00         0.12435E+08
 
    0.12441E+08         0.17688E+06         0.00000E+00
    0.17688E+06         0.28946E+08         0.00000E+00
    0.00000E+00         0.00000E+00         0.12416E+08
 
    0.12422E+08         0.18469E+06         0.00000E+00
    0.18469E+06         0.28902E+08         0.00000E+00
    0.00000E+00         0.00000E+00         0.12397E+08
 
    0.12402E+08         0.19234E+06         0.00000E+00
    0.19234E+06         0.28858E+08         0.00000E+00
    0.00000E+00         0.00000E+00         0.12378E+08
 
    0.12383E+08         0.19982E+06         0.00000E+00
    0.19982E+06         0.28813E+08         0.00000E+00
    0.00000E+00         0.00000E+00         0.12359E+08
 
    0.12363E+08         0.20718E+06         0.00000E+00
    0.20718E+06         0.28767E+08         0.00000E+00
    0.00000E+00         0.00000E+00         0.12339E+08
 
    0.12342E+08         0.21441E+06         0.00000E+00
    0.21441E+06         0.28721E+08         0.00000E+00
    0.00000E+00         0.00000E+00         0.12319E+08
 
    0.12322E+08         0.22156E+06         0.00000E+00
    0.22156E+06         0.28674E+08         0.00000E+00
    0.00000E+00         0.00000E+00         0.12299E+08
 
    0.12301E+08         0.22862E+06         0.00000E+00
    0.22862E+06         0.28626E+08         0.00000E+00
    0.00000E+00         0.00000E+00         0.12278E+08
 
    0.12280E+08         0.23563E+06         0.00000E+00
    0.23563E+06         0.28578E+08         0.00000E+00
    0.00000E+00         0.00000E+00         0.12257E+08
 
    0.12259E+08         0.24260E+06         0.00000E+00
    0.24260E+06         0.28528E+08         0.00000E+00
    0.00000E+00         0.00000E+00         0.12236E+08
 
    0.12238E+08         0.24955E+06         0.00000E+00
    0.24955E+06         0.28478E+08         0.00000E+00
    0.00000E+00         0.00000E+00         0.12215E+08
 
    0.12216E+08         0.25649E+06         0.00000E+00
    0.25649E+06         0.28426E+08         0.00000E+00
    0.00000E+00         0.00000E+00         0.12193E+08
 
    0.12193E+08         0.26343E+06         0.00000E+00
    0.26343E+06         0.28374E+08         0.00000E+00
    0.00000E+00         0.00000E+00         0.12170E+08
 
    0.12171E+08         0.27038E+06         0.00000E+00
    0.27038E+06         0.28320E+08         0.00000E+00
    0.00000E+00         0.00000E+00         0.12147E+08
 
    0.12147E+08         0.27736E+06         0.00000E+00
    0.27736E+06         0.28266E+08         0.00000E+00
    0.00000E+00         0.00000E+00         0.12124E+08
 
    0.12124E+08         0.28437E+06         0.00000E+00
    0.28437E+06         0.28210E+08         0.00000E+00
    0.00000E+00         0.00000E+00         0.12100E+08
 
    0.12099E+08         0.29143E+06         0.00000E+00
    0.29143E+06         0.28153E+08         0.00000E+00
    0.00000E+00         0.00000E+00         0.12076E+08
 
    0.12075E+08         0.29853E+06         0.00000E+00
    0.29853E+06         0.28094E+08         0.00000E+00
    0.00000E+00         0.00000E+00         0.12051E+08
 
    0.12049E+08         0.30569E+06         0.00000E+00
    0.30569E+06         0.28034E+08         0.00000E+00
    0.00000E+00         0.00000E+00         0.12025E+08
 
    0.12024E+08         0.31290E+06         0.00000E+00
    0.31290E+06         0.27973E+08         0.00000E+00
    0.00000E+00         0.00000E+00         0.11999E+08
 
    0.11997E+08         0.32018E+06         0.00000E+00
    0.32018E+06         0.27910E+08         0.00000E+00
    0.00000E+00         0.00000E+00         0.11972E+08
 
    0.11970E+08         0.32751E+06         0.00000E+00
    0.32751E+06         0.27846E+08         0.00000E+00
    0.00000E+00         0.00000E+00         0.11945E+08
 
    0.11942E+08         0.33491E+06         0.00000E+00
    0.33491E+06         0.27781E+08         0.00000E+00
    0.00000E+00         0.00000E+00         0.11917E+08
 
    0.11914E+08         0.34237E+06         0.00000E+00
    0.34237E+06         0.27713E+08         0.00000E+00
    0.00000E+00         0.00000E+00         0.11888E+08
 
    0.11885E+08         0.34990E+06         0.00000E+00
    0.34990E+06         0.27645E+08         0.00000E+00
    0.00000E+00         0.00000E+00         0.11859E+08
 
    0.11855E+08         0.35748E+06         0.00000E+00
    0.35748E+06         0.27574E+08         0.00000E+00
    0.00000E+00         0.00000E+00         0.11829E+08
 
    0.11824E+08         0.36511E+06         0.00000E+00
    0.36511E+06         0.27502E+08         0.00000E+00
    0.00000E+00         0.00000E+00         0.11798E+08
 
    0.11793E+08         0.37280E+06         0.00000E+00
    0.37280E+06         0.27428E+08         0.00000E+00
    0.00000E+00         0.00000E+00         0.11766E+08
 
    0.11761E+08         0.38053E+06         0.00000E+00
    0.38053E+06         0.27353E+08         0.00000E+00
    0.00000E+00         0.00000E+00         0.11734E+08
 
    0.11728E+08         0.38831E+06         0.00000E+00
    0.38831E+06         0.27275E+08         0.00000E+00
    0.00000E+00         0.00000E+00         0.11701E+08
 
    0.11694E+08         0.39611E+06         0.00000E+00
    0.39611E+06         0.27196E+08         0.00000E+00
    0.00000E+00         0.00000E+00         0.11667E+08
 
    0.11659E+08         0.40395E+06         0.00000E+00
    0.40395E+06         0.27115E+08         0.00000E+00
    0.00000E+00         0.00000E+00         0.11632E+08
 
    0.11624E+08         0.41179E+06         0.00000E+00
    0.41179E+06         0.27031E+08         0.00000E+00
    0.00000E+00         0.00000E+00         0.11597E+08
 
    0.11587E+08         0.41964E+06         0.00000E+00
    0.41964E+06         0.26946E+08         0.00000E+00
    0.00000E+00         0.00000E+00         0.11560E+08
 
    0.11550E+08         0.42749E+06         0.00000E+00
    0.42749E+06         0.26859E+08         0.00000E+00
    0.00000E+00         0.00000E+00         0.11523E+08
 
    0.11512E+08         0.43532E+06         0.00000E+00
    0.43532E+06         0.26770E+08         0.00000E+00
    0.00000E+00         0.00000E+00         0.11485E+08
 
    0.11472E+08         0.44311E+06         0.00000E+00
    0.44311E+06         0.26679E+08         0.00000E+00
    0.00000E+00         0.00000E+00         0.11445E+08
 
    0.11432E+08         0.45086E+06         0.00000E+00
    0.45086E+06         0.26586E+08         0.00000E+00
    0.00000E+00         0.00000E+00         0.11405E+08
 
    0.11391E+08         0.45854E+06         0.00000E+00
    0.45854E+06         0.26490E+08         0.00000E+00
    0.00000E+00         0.00000E+00         0.11364E+08
 
    0.11349E+08         0.46614E+06         0.00000E+00
    0.46614E+06         0.26393E+08         0.00000E+00
    0.00000E+00         0.00000E+00         0.11322E+08
 
    0.11306E+08         0.47364E+06         0.00000E+00
    0.47364E+06         0.26293E+08         0.00000E+00
    0.00000E+00         0.00000E+00         0.11280E+08
 
    0.11262E+08         0.48102E+06         0.00000E+00
    0.48102E+06         0.26191E+08         0.00000E+00
    0.00000E+00         0.00000E+00         0.11236E+08
 
    0.11216E+08         0.48825E+06         0.00000E+00
    0.48825E+06         0.26087E+08         0.00000E+00
    0.00000E+00         0.00000E+00         0.11191E+08
 
    0.11170E+08         0.49532E+06         0.00000E+00
    0.49532E+06         0.25980E+08         0.00000E+00
    0.00000E+00         0.00000E+00         0.11145E+08
 
    0.11122E+08         0.50219E+06         0.00000E+00
    0.50219E+06         0.25872E+08         0.00000E+00
    0.00000E+00         0.00000E+00         0.11098E+08
 
    0.11074E+08         0.50884E+06         0.00000E+00
    0.50884E+06         0.25761E+08         0.00000E+00
    0.00000E+00         0.00000E+00         0.11050E+08
 
    0.11024E+08         0.51523E+06         0.00000E+00
    0.51523E+06         0.25647E+08         0.00000E+00
    0.00000E+00         0.00000E+00         0.11001E+08
 
    0.10973E+08         0.52134E+06         0.00000E+00
    0.52134E+06         0.25532E+08         0.00000E+00
    0.00000E+00         0.00000E+00         0.10952E+08
 
    0.10921E+08         0.52713E+06         0.00000E+00
    0.52713E+06         0.25414E+08         0.00000E+00
    0.00000E+00         0.00000E+00         0.10901E+08
 
    0.10868E+08         0.53256E+06         0.00000E+00
    0.53256E+06         0.25294E+08         0.00000E+00
    0.00000E+00         0.00000E+00         0.10848E+08
 
    0.10814E+08         0.53759E+06         0.00000E+00
    0.53759E+06         0.25171E+08         0.00000E+00
    0.00000E+00         0.00000E+00         0.10795E+08
 
    0.10758E+08         0.54218E+06         0.00000E+00
    0.54218E+06         0.25046E+08         0.00000E+00
    0.00000E+00         0.00000E+00         0.10741E+08
 
    0.10701E+08         0.54628E+06         0.00000E+00
    0.54628E+06         0.24918E+08         0.00000E+00
    0.00000E+00         0.00000E+00         0.10686E+08
 
    0.10643E+08         0.54983E+06         0.00000E+00
    0.54983E+06         0.24789E+08         0.00000E+00
    0.00000E+00         0.00000E+00         0.10629E+08
 
    0.10583E+08         0.55278E+06         0.00000E+00
    0.55278E+06         0.24656E+08         0.00000E+00
    0.00000E+00         0.00000E+00         0.10572E+08
 
    0.10523E+08         0.55508E+06         0.00000E+00
    0.55508E+06         0.24522E+08         0.00000E+00
    0.00000E+00         0.00000E+00         0.10513E+08
 
    0.10460E+08         0.55666E+06         0.00000E+00
    0.55666E+06         0.24384E+08         0.00000E+00
    0.00000E+00         0.00000E+00         0.10453E+08
 
    0.10397E+08         0.55746E+06         0.00000E+00
    0.55746E+06         0.24245E+08         0.00000E+00
    0.00000E+00         0.00000E+00         0.10393E+08
 
    0.10332E+08         0.55739E+06         0.00000E+00
    0.55739E+06         0.24103E+08         0.00000E+00
    0.00000E+00         0.00000E+00         0.10331E+08
 
    0.10266E+08         0.55639E+06         0.00000E+00
    0.55639E+06         0.23959E+08         0.00000E+00
    0.00000E+00         0.00000E+00         0.10267E+08
 
    0.10198E+08         0.55437E+06         0.00000E+00
    0.55437E+06         0.23812E+08         0.00000E+00
    0.00000E+00         0.00000E+00         0.10203E+08
 
    0.10129E+08         0.55126E+06         0.00000E+00
    0.55126E+06         0.23662E+08         0.00000E+00
    0.00000E+00         0.00000E+00         0.10137E+08
 
    0.10059E+08         0.54696E+06         0.00000E+00
    0.54696E+06         0.23510E+08         0.00000E+00
    0.00000E+00         0.00000E+00         0.10071E+08
 
    0.99868E+07         0.54138E+06         0.00000E+00
    0.54138E+06         0.23356E+08         0.00000E+00
    0.00000E+00         0.00000E+00         0.10003E+08
 
    0.99133E+07         0.53444E+06         0.00000E+00
    0.53444E+06         0.23199E+08         0.00000E+00
    0.00000E+00         0.00000E+00         0.99338E+07
 
    0.98385E+07         0.52605E+06         0.00000E+00
    0.52605E+06         0.23040E+08         0.00000E+00
    0.00000E+00         0.00000E+00         0.98635E+07
 
    0.97622E+07         0.51611E+06         0.00000E+00
    0.51611E+06         0.22878E+08         0.00000E+00
    0.00000E+00         0.00000E+00         0.97921E+07
 
    0.96846E+07         0.50456E+06         0.00000E+00
    0.50456E+06         0.22714E+08         0.00000E+00
    0.00000E+00         0.00000E+00         0.97195E+07
 
    0.96057E+07         0.49130E+06         0.00000E+00
    0.49130E+06         0.22547E+08         0.00000E+00
    0.00000E+00         0.00000E+00         0.96458E+07
 
    0.95255E+07         0.47627E+06         0.00000E+00
    0.47627E+06         0.22378E+08         0.00000E+00
    0.00000E+00         0.00000E+00         0.95711E+07
 
    0.94443E+07         0.45943E+06         0.00000E+00
    0.45943E+06         0.22207E+08         0.00000E+00
    0.00000E+00         0.00000E+00         0.94954E+07
 
    0.93621E+07         0.44072E+06         0.00000E+00
    0.44072E+06         0.22034E+08         0.00000E+00
    0.00000E+00         0.00000E+00         0.94189E+07
 
    0.92791E+07         0.42010E+06         0.00000E+00
    0.42010E+06         0.21860E+08         0.00000E+00
    0.00000E+00         0.00000E+00         0.93417E+07
 
    0.91955E+07         0.39757E+06         0.00000E+00
    0.39757E+06         0.21685E+08         0.00000E+00
    0.00000E+00         0.00000E+00         0.92641E+07
 
    0.91115E+07         0.37307E+06         0.00000E+00
    0.37307E+06         0.21510E+08         0.00000E+00
    0.00000E+00         0.00000E+00         0.91864E+07
 
    0.90272E+07         0.34656E+06         0.00000E+00
    0.34656E+06         0.21336E+08         0.00000E+00
    0.00000E+00         0.00000E+00         0.91089E+07
 
    0.89426E+07         0.31795E+06         0.00000E+00
    0.31795E+06         0.21164E+08         0.00000E+00
    0.00000E+00         0.00000E+00         0.90320E+07
 
    0.88576E+07         0.28702E+06         0.00000E+00
    0.28702E+06         0.20997E+08         0.00000E+00
    0.00000E+00         0.00000E+00         0.89563E+07
 
    0.87716E+07         0.25341E+06         0.00000E+00
    0.25341E+06         0.20836E+08         0.00000E+00
    0.00000E+00         0.00000E+00         0.88822E+07
 
    0.86836E+07         0.21652E+06         0.00000E+00
    0.21652E+06         0.20684E+08         0.00000E+00
    0.00000E+00         0.00000E+00         0.88103E+07
 
    0.85913E+07         0.17541E+06         0.00000E+00
    0.17541E+06         0.20545E+08         0.00000E+00
    0.00000E+00         0.00000E+00         0.87409E+07
 
    0.84908E+07         0.12903E+06         0.00000E+00
    0.12903E+06         0.20422E+08         0.00000E+00
    0.00000E+00         0.00000E+00         0.86740E+07
 
    0.83748E+07         0.78057E+05         0.00000E+00
    0.78057E+05         0.20320E+08         0.00000E+00
    0.00000E+00         0.00000E+00         0.86084E+07
 
    0.82351E+07         0.25852E+05         0.00000E+00
    0.25852E+05         0.20236E+08         0.00000E+00
    0.00000E+00         0.00000E+00         0.85412E+07
 
    0.12773E+08         0.67053E+04         0.00000E+00
    0.67053E+04         0.29522E+08         0.00000E+00
    0.00000E+00         0.00000E+00         0.12689E+08
 
    0.12742E+08         0.20302E+05         0.00000E+00
    0.20302E+05         0.29504E+08         0.00000E+00
    0.00000E+00         0.00000E+00         0.12674E+08
 
    0.12717E+08         0.33919E+05         0.00000E+00
    0.33919E+05         0.29481E+08         0.00000E+00
    0.00000E+00         0.00000E+00         0.12659E+08
 
    0.12694E+08         0.46936E+05         0.00000E+00
    0.46936E+05         0.29455E+08         0.00000E+00
    0.00000E+00         0.00000E+00         0.12645E+08
 
    0.12674E+08         0.59119E+05         0.00000E+00
    0.59119E+05         0.29424E+08         0.00000E+00
    0.00000E+00         0.00000E+00         0.12629E+08
 
    0.12654E+08         0.70590E+05         0.00000E+00
    0.70590E+05         0.29391E+08         0.00000E+00
    0.00000E+00         0.00000E+00         0.12614E+08
 
    0.12635E+08         0.81508E+05         0.00000E+00
    0.81508E+05         0.29355E+08         0.00000E+00
    0.00000E+00         0.00000E+00         0.12597E+08
 
    0.12617E+08         0.91982E+05         0.00000E+00
    0.91982E+05         0.29318E+08         0.00000E+00
    0.00000E+00         0.00000E+00         0.12580E+08
 
    0.12598E+08         0.10208E+06         0.00000E+00
    0.10208E+06         0.29279E+08         0.00000E+00
    0.00000E+00         0.00000E+00         0.12563E+08
 
    0.12579E+08         0.11185E+06         0.00000E+00
    0.11185E+06         0.29239E+08         0.00000E+00
    0.00000E+00         0.00000E+00         0.12545E+08
 
    0.12560E+08         0.12131E+06         0.00000E+00
    0.12131E+06         0.29198E+08         0.00000E+00
    0.00000E+00         0.00000E+00         0.12528E+08
 
    0.12542E+08         0.13047E+06         0.00000E+00
    0.13047E+06         0.29157E+08         0.00000E+00
    0.00000E+00         0.00000E+00         0.12510E+08
 
    0.12522E+08         0.13936E+06         0.00000E+00
    0.13936E+06         0.29115E+08         0.00000E+00
    0.00000E+00         0.00000E+00         0.12491E+08
 
    0.12503E+08         0.14798E+06         0.00000E+00
    0.14798E+06         0.29073E+08         0.00000E+00
    0.00000E+00         0.00000E+00         0.12473E+08
 
    0.12484E+08         0.15634E+06         0.00000E+00
    0.15634E+06         0.29031E+08         0.00000E+00
    0.00000E+00         0.00000E+00         0.12454E+08
 
    0.12465E+08         0.16447E+06         0.00000E+00
    0.16447E+06         0.28988E+08         0.00000E+00
    0.00000E+00         0.00000E+00         0.12436E+08
 
    0.12445E+08         0.17237E+06         0.00000E+00
    0.17237E+06         0.28944E+08         0.00000E+00
    0.00000E+00         0.00000E+00         0.12417E+08
 
    0.12426E+08         0.18008E+06         0.00000E+00
    0.18008E+06         0.28901E+08         0.00000E+00
    0.00000E+00         0.00000E+00         0.12398E+08
 
    0.12406E+08         0.18760E+06         0.00000E+00
    0.18760E+06         0.28856E+08         0.00000E+00
    0.00000E+00         0.00000E+00         0.12379E+08
 
    0.12386E+08         0.19497E+06         0.00000E+00
    0.19497E+06         0.28811E+08         0.00000E+00
    0.00000E+00         0.00000E+00         0.12359E+08
 
    0.12366E+08         0.20220E+06         0.00000E+00
    0.20220E+06         0.28766E+08         0.00000E+00
    0.00000E+00         0.00000E+00         0.12340E+08
 
    0.12346E+08         0.20930E+06         0.00000E+00
    0.20930E+06         0.28720E+08         0.00000E+00
    0.00000E+00         0.00000E+00         0.12320E+08
 
    0.12326E+08         0.21632E+06         0.00000E+00
    0.21632E+06         0.28673E+08         0.00000E+00
    0.00000E+00         0.00000E+00         0.12299E+08
 
    0.12305E+08         0.22325E+06         0.00000E+00
    0.22325E+06         0.28625E+08         0.00000E+00
    0.00000E+00         0.00000E+00         0.12279E+08
 
    0.12284E+08         0.23012E+06         0.00000E+00
    0.23012E+06         0.28576E+08         0.00000E+00
    0.00000E+00         0.00000E+00         0.12258E+08
 
    0.12263E+08         0.23696E+06         0.00000E+00
    0.23696E+06         0.28527E+08         0.00000E+00
    0.00000E+00         0.00000E+00         0.12237E+08
 
    0.12241E+08         0.24376E+06         0.00000E+00
    0.24376E+06         0.28476E+08         0.00000E+00
    0.00000E+00         0.00000E+00         0.12215E+08
 
    0.12219E+08         0.25055E+06         0.00000E+00
    0.25055E+06         0.28425E+08         0.00000E+00
    0.00000E+00         0.00000E+00         0.12193E+08
 
    0.12197E+08         0.25735E+06         0.00000E+00
    0.25735E+06         0.28373E+08         0.00000E+00
    0.00000E+00         0.00000E+00         0.12171E+08
 
    0.12174E+08         0.26415E+06         0.00000E+00
    0.26415E+06         0.28319E+08         0.00000E+00
    0.00000E+00         0.00000E+00         0.12148E+08
 
    0.12151E+08         0.27098E+06         0.00000E+00
    0.27098E+06         0.28264E+08         0.00000E+00
    0.00000E+00         0.00000E+00         0.12125E+08
 
    0.12127E+08         0.27784E+06         0.00000E+00
    0.27784E+06         0.28208E+08         0.00000E+00
    0.00000E+00         0.00000E+00         0.12101E+08
 
    0.12103E+08         0.28474E+06         0.00000E+00
    0.28474E+06         0.28151E+08         0.00000E+00
    0.00000E+00         0.00000E+00         0.12076E+08
 
    0.12078E+08         0.29168E+06         0.00000E+00
    0.29168E+06         0.28093E+08         0.00000E+00
    0.00000E+00         0.00000E+00         0.12051E+08
 
    0.12053E+08         0.29867E+06         0.00000E+00
    0.29867E+06         0.28033E+08         0.00000E+00
    0.00000E+00         0.00000E+00         0.12026E+08
 
    0.12027E+08         0.30572E+06         0.00000E+00
    0.30572E+06         0.27972E+08         0.00000E+00
    0.00000E+00         0.00000E+00         0.12000E+08
 
    0.12001E+08         0.31282E+06         0.00000E+00
    0.31282E+06         0.27909E+08         0.00000E+00
    0.00000E+00         0.00000E+00         0.11973E+08
 
    0.11974E+08         0.31999E+06         0.00000E+00
    0.31999E+06         0.27845E+08         0.00000E+00
    0.00000E+00         0.00000E+00         0.11946E+08
 
    0.11946E+08         0.32721E+06         0.00000E+00
    0.32721E+06         0.27779E+08         0.00000E+00
    0.00000E+00         0.00000E+00         0.11918E+08
 
    0.11918E+08         0.33449E+06         0.00000E+00
    0.33449E+06         0.27712E+08         0.00000E+00
    0.00000E+00         0.00000E+00         0.11889E+08
 
    0.11889E+08         0.34183E+06         0.00000E+00
    0.34183E+06         0.27643E+08         0.00000E+00
    0.00000E+00         0.00000E+00         0.11860E+08
 
    0.11859E+08         0.34923E+06         0.00000E+00
    0.34923E+06         0.27573E+08         0.00000E+00
    0.00000E+00         0.00000E+00         0.11829E+08
 
    0.11828E+08         0.35668E+06         0.00000E+00
    0.35668E+06         0.27501E+08         0.00000E+00
    0.00000E+00         0.00000E+00         0.11799E+08
 
    0.11797E+08         0.36417E+06         0.00000E+00
    0.36417E+06         0.27427E+08         0.00000E+00
    0.00000E+00         0.00000E+00         0.11767E+08
 
    0.11765E+08         0.37171E+06         0.00000E+00
    0.37171E+06         0.27351E+08         0.00000E+00
    0.00000E+00         0.00000E+00         0.11735E+08
 
    0.11732E+08         0.37929E+06         0.00000E+00
    0.37929E+06         0.27274E+08         0.00000E+00
    0.00000E+00         0.00000E+00         0.11702E+08
 
    0.11698E+08         0.38690E+06         0.00000E+00
    0.38690E+06         0.27194E+08         0.00000E+00
    0.00000E+00         0.00000E+00         0.11668E+08
 
    0.11663E+08         0.39453E+06         0.00000E+00
    0.39453E+06         0.27113E+08         0.00000E+00
    0.00000E+00         0.00000E+00         0.11633E+08
 
    0.11628E+08         0.40218E+06         0.00000E+00
    0.40218E+06         0.27030E+08         0.00000E+00
    0.00000E+00         0.00000E+00         0.11597E+08
 
    0.11592E+08         0.40982E+06         0.00000E+00
    0.40982E+06         0.26945E+08         0.00000E+00
    0.00000E+00         0.00000E+00         0.11561E+08
 
    0.11554E+08         0.41746E+06         0.00000E+00
    0.41746E+06         0.26858E+08         0.00000E+00
    0.00000E+00         0.00000E+00         0.11524E+08
 
    0.11516E+08         0.42508E+06         0.00000E+00
    0.42508E+06         0.26769E+08         0.00000E+00
    0.00000E+00         0.00000E+00         0.11485E+08
 
    0.11477E+08         0.43266E+06         0.00000E+00
    0.43266E+06         0.26677E+08         0.00000E+00
    0.00000E+00         0.00000E+00         0.11446E+08
 
    0.11437E+08         0.44020E+06         0.00000E+00
    0.44020E+06         0.26584E+08         0.00000E+00
    0.00000E+00         0.00000E+00         0.11406E+08
 
    0.11395E+08         0.44767E+06         0.00000E+00
    0.44767E+06         0.26489E+08         0.00000E+00
    0.00000E+00         0.00000E+00         0.11365E+08
 
    0.11353E+08         0.45506E+06         0.00000E+00
    0.45506E+06         0.26391E+08         0.00000E+00
    0.00000E+00         0.00000E+00         0.11323E+08
 
    0.11310E+08         0.46235E+06         0.00000E+00
    0.46235E+06         0.26291E+08         0.00000E+00
    0.00000E+00         0.00000E+00         0.11280E+08
 
    0.11266E+08         0.46952E+06         0.00000E+00
    0.46952E+06         0.26190E+08         0.00000E+00
    0.00000E+00         0.00000E+00         0.11237E+08
 
    0.11220E+08         0.47654E+06         0.00000E+00
    0.47654E+06         0.26085E+08         0.00000E+00
    0.00000E+00         0.00000E+00         0.11192E+08
 
    0.11174E+08         0.48340E+06         0.00000E+00
    0.48340E+06         0.25979E+08         0.00000E+00
    0.00000E+00         0.00000E+00         0.11146E+08
 
    0.11126E+08         0.49006E+06         0.00000E+00
    0.49006E+06         0.25870E+08         0.00000E+00
    0.00000E+00         0.00000E+00         0.11099E+08
 
    0.11078E+08         0.49650E+06         0.00000E+00
    0.49650E+06         0.25759E+08         0.00000E+00
    0.00000E+00         0.00000E+00         0.11051E+08
 
    0.11028E+08         0.50269E+06         0.00000E+00
    0.50269E+06         0.25646E+08         0.00000E+00
    0.00000E+00         0.00000E+00         0.11002E+08
 
    0.10977E+08         0.50860E+06         0.00000E+00
    0.50860E+06         0.25531E+08         0.00000E+00
    0.00000E+00         0.00000E+00         0.10952E+08
 
    0.10925E+08         0.51420E+06         0.00000E+00
    0.51420E+06         0.25413E+08         0.00000E+00
    0.00000E+00         0.00000E+00         0.10901E+08
 
    0.10871E+08         0.51943E+06         0.00000E+00
    0.51943E+06         0.25293E+08         0.00000E+00
    0.00000E+00         0.00000E+00         0.10849E+08
 
    0.10816E+08         0.52428E+06         0.00000E+00
    0.52428E+06         0.25170E+08         0.00000E+00
    0.00000E+00         0.00000E+00         0.10796E+08
 
    0.10761E+08         0.52868E+06         0.00000E+00
    0.52868E+06         0.25045E+08         0.00000E+00
    0.00000E+00         0.00000E+00         0.10742E+08
 
    0.10703E+08         0.53260E+06         0.00000E+00
    0.53260E+06         0.24918E+08         0.00000E+00
    0.00000E+00         0.00000E+00         0.10686E+08
 
    0.10645E+08         0.53598E+06         0.00000E+00
    0.53598E+06         0.24788E+08         0.00000E+00
    0.00000E+00         0.00000E+00         0.10630E+08
 
    0.10585E+08         0.53878E+06         0.00000E+00
    0.53878E+06         0.24656E+08         0.00000E+00
    0.00000E+00         0.00000E+00         0.10572E+08
 
    0.10524E+08         0.54092E+06         0.00000E+00
    0.54092E+06         0.24521E+08         0.00000E+00
    0.00000E+00         0.00000E+00         0.10514E+08
 
    0.10462E+08         0.54236E+06         0.00000E+00
    0.54236E+06         0.24384E+08         0.00000E+00
    0.00000E+00         0.00000E+00         0.10454E+08
 
    0.10398E+08         0.54302E+06         0.00000E+00
    0.54302E+06         0.24245E+08         0.00000E+00
    0.00000E+00         0.00000E+00         0.10393E+08
 
    0.10333E+08         0.54283E+06         0.00000E+00
    0.54283E+06         0.24103E+08         0.00000E+00
    0.00000E+00         0.00000E+00         0.10331E+08
 
    0.10266E+08         0.54172E+06         0.00000E+00
    0.54172E+06         0.23959E+08         0.00000E+00
    0.00000E+00         0.00000E+00         0.10267E+08
 
    0.10198E+08         0.53960E+06         0.00000E+00
    0.53960E+06         0.23812E+08         0.00000E+00
    0.00000E+00         0.00000E+00         0.10203E+08
 
    0.10128E+08         0.53640E+06         0.00000E+00
    0.53640E+06         0.23663E+08         0.00000E+00
    0.00000E+00         0.00000E+00         0.10137E+08
 
    0.10057E+08         0.53202E+06         0.00000E+00
    0.53202E+06         0.23511E+08         0.00000E+00
    0.00000E+00         0.00000E+00         0.10071E+08
 
    0.99844E+07         0.52638E+06         0.00000E+00
    0.52638E+06         0.23357E+08         0.00000E+00
    0.00000E+00         0.00000E+00         0.10002E+08
 
    0.99103E+07         0.51938E+06         0.00000E+00
    0.51938E+06         0.23201E+08         0.00000E+00
    0.00000E+00         0.00000E+00         0.99333E+07
 
    0.98347E+07         0.51094E+06         0.00000E+00
    0.51094E+06         0.23042E+08         0.00000E+00
    0.00000E+00         0.00000E+00         0.98629E+07
 
    0.97576E+07         0.50096E+06         0.00000E+00
    0.50096E+06         0.22880E+08         0.00000E+00
    0.00000E+00         0.00000E+00         0.97913E+07
 
    0.96792E+07         0.48936E+06         0.00000E+00
    0.48936E+06         0.22716E+08         0.00000E+00
    0.00000E+00         0.00000E+00         0.97186E+07
 
    0.95994E+07         0.47606E+06         0.00000E+00
    0.47606E+06         0.22550E+08         0.00000E+00
    0.00000E+00         0.00000E+00         0.96448E+07
 
    0.95183E+07         0.46098E+06         0.00000E+00
    0.46098E+06         0.22381E+08         0.00000E+00
    0.00000E+00         0.00000E+00         0.95699E+07
 
    0.94361E+07         0.44408E+06         0.00000E+00
    0.44408E+06         0.22211E+08         0.00000E+00
    0.00000E+00         0.00000E+00         0.94940E+07
 
    0.93529E+07         0.42529E+06         0.00000E+00
    0.42529E+06         0.22038E+08         0.00000E+00
    0.00000E+00         0.00000E+00         0.94173E+07
 
    0.92688E+07         0.40459E+06         0.00000E+00
    0.40459E+06         0.21864E+08         0.00000E+00
    0.00000E+00         0.00000E+00         0.93400E+07
 
    0.91841E+07         0.38193E+06         0.00000E+00
    0.38193E+06         0.21690E+08         0.00000E+00
    0.00000E+00         0.00000E+00         0.92621E+07
 
    0.90988E+07         0.35731E+06         0.00000E+00
    0.35731E+06         0.21515E+08         0.00000E+00
    0.00000E+00         0.00000E+00         0.91841E+07
 
    0.90132E+07         0.33069E+06         0.00000E+00
    0.33069E+06         0.21341E+08         0.00000E+00
    0.00000E+00         0.00000E+00         0.91063E+07
 
    0.89270E+07         0.30198E+06         0.00000E+00
    0.30198E+06         0.21170E+08         0.00000E+00
    0.00000E+00         0.00000E+00         0.90291E+07
 
    0.88402E+07         0.27106E+06         0.00000E+00
    0.27106E+06         0.21003E+08         0.00000E+00
    0.00000E+00         0.00000E+00         0.89530E+07
 
    0.87521E+07         0.23765E+06         0.00000E+00
    0.23765E+06         0.20843E+08         0.00000E+00
    0.00000E+00         0.00000E+00         0.88784E+07
 
    0.86613E+07         0.20130E+06         0.00000E+00
    0.20130E+06         0.20692E+08         0.00000E+00
    0.00000E+00         0.00000E+00         0.88059E+07
 
    0.85656E+07         0.16133E+06         0.00000E+00
    0.16133E+06         0.20553E+08         0.00000E+00
    0.00000E+00         0.00000E+00         0.87357E+07
 
    0.84608E+07         0.11724E+06         0.00000E+00
    0.11724E+06         0.20432E+08         0.00000E+00
    0.00000E+00         0.00000E+00         0.86678E+07
 
    0.83403E+07         0.70194E+05         0.00000E+00
    0.70194E+05         0.20330E+08         0.00000E+00
    0.00000E+00         0.00000E+00         0.86011E+07
 
    0.81977E+07         0.23125E+05         0.00000E+00
    0.23125E+05         0.20245E+08         0.00000E+00
    0.00000E+00         0.00000E+00         0.85329E+07
 
    0.12783E+08         0.61565E+04         0.00000E+00
    0.61565E+04         0.29519E+08         0.00000E+00
    0.00000E+00         0.00000E+00         0.12691E+08
 
    0.12751E+08         0.18700E+05         0.00000E+00
    0.18700E+05         0.29501E+08         0.00000E+00
    0.00000E+00         0.00000E+00         0.12676E+08
 
    0.12725E+08         0.31454E+05         0.00000E+00
    0.31454E+05         0.29479E+08         0.00000E+00
    0.00000E+00         0.00000E+00         0.12661E+08
 
    0.12701E+08         0.43906E+05         0.00000E+00
    0.43906E+05         0.29452E+08         0.00000E+00
    0.00000E+00         0.00000E+00         0.12646E+08
 
    0.12680E+08         0.55757E+05         0.00000E+00
    0.55757E+05         0.29422E+08         0.00000E+00
    0.00000E+00         0.00000E+00         0.12631E+08
 
    0.12660E+08         0.67031E+05         0.00000E+00
    0.67031E+05         0.29389E+08         0.00000E+00
    0.00000E+00         0.00000E+00         0.12615E+08
 
    0.12641E+08         0.77828E+05         0.00000E+00
    0.77828E+05         0.29353E+08         0.00000E+00
    0.00000E+00         0.00000E+00         0.12598E+08
 
    0.12622E+08         0.88221E+05         0.00000E+00
    0.88221E+05         0.29316E+08         0.00000E+00
    0.00000E+00         0.00000E+00         0.12581E+08
 
    0.12603E+08         0.98259E+05         0.00000E+00
    0.98259E+05         0.29277E+08         0.00000E+00
    0.00000E+00         0.00000E+00         0.12564E+08
 
    0.12584E+08         0.10797E+06         0.00000E+00
    0.10797E+06         0.29237E+08         0.00000E+00
    0.00000E+00         0.00000E+00         0.12546E+08
 
    0.12565E+08         0.11736E+06         0.00000E+00
    0.11736E+06         0.29196E+08         0.00000E+00
    0.00000E+00         0.00000E+00         0.12528E+08
 
    0.12546E+08         0.12646E+06         0.00000E+00
    0.12646E+06         0.29155E+08         0.00000E+00
    0.00000E+00         0.00000E+00         0.12510E+08
 
    0.12527E+08         0.13527E+06         0.00000E+00
    0.13527E+06         0.29114E+08         0.00000E+00
    0.00000E+00         0.00000E+00         0.12492E+08
 
    0.12508E+08         0.14380E+06         0.00000E+00
    0.14380E+06         0.29072E+08         0.00000E+00
    0.00000E+00         0.00000E+00         0.12474E+08
 
    0.12488E+08         0.15207E+06         0.00000E+00
    0.15207E+06         0.29029E+08         0.00000E+00
    0.00000E+00         0.00000E+00         0.12455E+08
 
    0.12469E+08         0.16009E+06         0.00000E+00
    0.16009E+06         0.28986E+08         0.00000E+00
    0.00000E+00         0.00000E+00         0.12436E+08
 
    0.12449E+08         0.16789E+06         0.00000E+00
    0.16789E+06         0.28943E+08         0.00000E+00
    0.00000E+00         0.00000E+00         0.12418E+08
 
    0.12430E+08         0.17548E+06         0.00000E+00
    0.17548E+06         0.28899E+08         0.00000E+00
    0.00000E+00         0.00000E+00         0.12399E+08
 
    0.12410E+08         0.18288E+06         0.00000E+00
    0.18288E+06         0.28855E+08         0.00000E+00
    0.00000E+00         0.00000E+00         0.12379E+08
 
    0.12390E+08         0.19013E+06         0.00000E+00
    0.19013E+06         0.28810E+08         0.00000E+00
    0.00000E+00         0.00000E+00         0.12360E+08
 
    0.12370E+08         0.19723E+06         0.00000E+00
    0.19723E+06         0.28764E+08         0.00000E+00
    0.00000E+00         0.00000E+00         0.12340E+08
 
    0.12350E+08         0.20420E+06         0.00000E+00
    0.20420E+06         0.28718E+08         0.00000E+00
    0.00000E+00         0.00000E+00         0.12320E+08
 
    0.12329E+08         0.21108E+06         0.00000E+00
    0.21108E+06         0.28671E+08         0.00000E+00
    0.00000E+00         0.00000E+00         0.12300E+08
 
    0.12309E+08         0.21788E+06         0.00000E+00
    0.21788E+06         0.28624E+08         0.00000E+00
    0.00000E+00         0.00000E+00         0.12280E+08
 
    0.12288E+08         0.22462E+06         0.00000E+00
    0.22462E+06         0.28575E+08         0.00000E+00
    0.00000E+00         0.00000E+00         0.12259E+08
 
    0.12266E+08         0.23131E+06         0.00000E+00
    0.23131E+06         0.28526E+08         0.00000E+00
    0.00000E+00         0.00000E+00         0.12238E+08
 
    0.12245E+08         0.23797E+06         0.00000E+00
    0.23797E+06         0.28475E+08         0.00000E+00
    0.00000E+00         0.00000E+00         0.12216E+08
 
    0.12223E+08         0.24462E+06         0.00000E+00
    0.24462E+06         0.28424E+08         0.00000E+00
    0.00000E+00         0.00000E+00         0.12194E+08
 
    0.12201E+08         0.25126E+06         0.00000E+00
    0.25126E+06         0.28371E+08         0.00000E+00
    0.00000E+00         0.00000E+00         0.12172E+08
 
    0.12178E+08         0.25792E+06         0.00000E+00
    0.25792E+06         0.28318E+08         0.00000E+00
    0.00000E+00         0.00000E+00         0.12149E+08
 
    0.12155E+08         0.26459E+06         0.00000E+00
    0.26459E+06         0.28263E+08         0.00000E+00
    0.00000E+00         0.00000E+00         0.12125E+08
 
    0.12131E+08         0.27130E+06         0.00000E+00
    0.27130E+06         0.28207E+08         0.00000E+00
    0.00000E+00         0.00000E+00         0.12101E+08
 
    0.12107E+08         0.27803E+06         0.00000E+00
    0.27803E+06         0.28150E+08         0.00000E+00
    0.00000E+00         0.00000E+00         0.12077E+08
 
    0.12082E+08         0.28482E+06         0.00000E+00
    0.28482E+06         0.28091E+08         0.00000E+00
    0.00000E+00         0.00000E+00         0.12052E+08
 
    0.12057E+08         0.29165E+06         0.00000E+00
    0.29165E+06         0.28031E+08         0.00000E+00
    0.00000E+00         0.00000E+00         0.12027E+08
 
    0.12031E+08         0.29853E+06         0.00000E+00
    0.29853E+06         0.27970E+08         0.00000E+00
    0.00000E+00         0.00000E+00         0.12000E+08
 
    0.12005E+08         0.30546E+06         0.00000E+00
    0.30546E+06         0.27908E+08         0.00000E+00
    0.00000E+00         0.00000E+00         0.11974E+08
 
    0.11978E+08         0.31245E+06         0.00000E+00
    0.31245E+06         0.27843E+08         0.00000E+00
    0.00000E+00         0.00000E+00         0.11946E+08
 
    0.11950E+08         0.31950E+06         0.00000E+00
    0.31950E+06         0.27778E+08         0.00000E+00
    0.00000E+00         0.00000E+00         0.11918E+08
 
    0.11922E+08         0.32660E+06         0.00000E+00
    0.32660E+06         0.27711E+08         0.00000E+00
    0.00000E+00         0.00000E+00         0.11890E+08
 
    0.11893E+08         0.33376E+06         0.00000E+00
    0.33376E+06         0.27642E+08         0.00000E+00
    0.00000E+00         0.00000E+00         0.11860E+08
 
    0.11863E+08         0.34097E+06         0.00000E+00
    0.34097E+06         0.27571E+08         0.00000E+00
    0.00000E+00         0.00000E+00         0.11830E+08
 
    0.11832E+08         0.34823E+06         0.00000E+00
    0.34823E+06         0.27499E+08         0.00000E+00
    0.00000E+00         0.00000E+00         0.11799E+08
 
    0.11801E+08         0.35554E+06         0.00000E+00
    0.35554E+06         0.27425E+08         0.00000E+00
    0.00000E+00         0.00000E+00         0.11768E+08
 
    0.11769E+08         0.36289E+06         0.00000E+00
    0.36289E+06         0.27349E+08         0.00000E+00
    0.00000E+00         0.00000E+00         0.11736E+08
 
    0.11736E+08         0.37027E+06         0.00000E+00
    0.37027E+06         0.27272E+08         0.00000E+00
    0.00000E+00         0.00000E+00         0.11702E+08
 
    0.11702E+08         0.37768E+06         0.00000E+00
    0.37768E+06         0.27193E+08         0.00000E+00
    0.00000E+00         0.00000E+00         0.11668E+08
 
    0.11668E+08         0.38511E+06         0.00000E+00
    0.38511E+06         0.27111E+08         0.00000E+00
    0.00000E+00         0.00000E+00         0.11634E+08
 
    0.11632E+08         0.39256E+06         0.00000E+00
    0.39256E+06         0.27028E+08         0.00000E+00
    0.00000E+00         0.00000E+00         0.11598E+08
 
    0.11596E+08         0.40000E+06         0.00000E+00
    0.40000E+06         0.26943E+08         0.00000E+00
    0.00000E+00         0.00000E+00         0.11562E+08
 
    0.11558E+08         0.40743E+06         0.00000E+00
    0.40743E+06         0.26856E+08         0.00000E+00
    0.00000E+00         0.00000E+00         0.11524E+08
 
    0.11520E+08         0.41485E+06         0.00000E+00
    0.41485E+06         0.26767E+08         0.00000E+00
    0.00000E+00         0.00000E+00         0.11486E+08
 
    0.11481E+08         0.42222E+06         0.00000E+00
    0.42222E+06         0.26676E+08         0.00000E+00
    0.00000E+00         0.00000E+00         0.11447E+08
 
    0.11441E+08         0.42955E+06         0.00000E+00
    0.42955E+06         0.26583E+08         0.00000E+00
    0.00000E+00         0.00000E+00         0.11407E+08
 
    0.11400E+08         0.43681E+06         0.00000E+00
    0.43681E+06         0.26487E+08         0.00000E+00
    0.00000E+00         0.00000E+00         0.11366E+08
 
    0.11357E+08         0.44399E+06         0.00000E+00
    0.44399E+06         0.26390E+08         0.00000E+00
    0.00000E+00         0.00000E+00         0.11324E+08
 
    0.11314E+08         0.45107E+06         0.00000E+00
    0.45107E+06         0.26290E+08         0.00000E+00
    0.00000E+00         0.00000E+00         0.11281E+08
 
    0.11270E+08         0.45803E+06         0.00000E+00
    0.45803E+06         0.26188E+08         0.00000E+00
    0.00000E+00         0.00000E+00         0.11237E+08
 
    0.11224E+08         0.46484E+06         0.00000E+00
    0.46484E+06         0.26084E+08         0.00000E+00
    0.00000E+00         0.00000E+00         0.11193E+08
 
    0.11178E+08         0.47149E+06         0.00000E+00
    0.47149E+06         0.25978E+08         0.00000E+00
    0.00000E+00         0.00000E+00         0.11147E+08
 
    0.11130E+08         0.47795E+06         0.00000E+00
    0.47795E+06         0.25869E+08         0.00000E+00
    0.00000E+00         0.00000E+00         0.11100E+08
 
    0.11081E+08         0.48419E+06         0.00000E+00
    0.48419E+06         0.25758E+08         0.00000E+00
    0.00000E+00         0.00000E+00         0.11052E+08
 
    0.11031E+08         0.49018E+06         0.00000E+00
    0.49018E+06         0.25645E+08         0.00000E+00
    0.00000E+00         0.00000E+00         0.11003E+08
 
    0.10980E+08         0.49590E+06         0.00000E+00
    0.49590E+06         0.25530E+08         0.00000E+00
    0.00000E+00         0.00000E+00         0.10953E+08
 
    0.10928E+08         0.50129E+06         0.00000E+00
    0.50129E+06         0.25412E+08         0.00000E+00
    0.00000E+00         0.00000E+00         0.10902E+08
 
    0.10874E+08         0.50634E+06         0.00000E+00
    0.50634E+06         0.25292E+08         0.00000E+00
    0.00000E+00         0.00000E+00         0.10850E+08
 
    0.10819E+08         0.51100E+06         0.00000E+00
    0.51100E+06         0.25169E+08         0.00000E+00
    0.00000E+00         0.00000E+00         0.10797E+08
 
    0.10763E+08         0.51523E+06         0.00000E+00
    0.51523E+06         0.25044E+08         0.00000E+00
    0.00000E+00         0.00000E+00         0.10742E+08
 
    0.10706E+08         0.51897E+06         0.00000E+00
    0.51897E+06         0.24917E+08         0.00000E+00
    0.00000E+00         0.00000E+00         0.10687E+08
 
    0.10647E+08         0.52219E+06         0.00000E+00
    0.52219E+06         0.24787E+08         0.00000E+00
    0.00000E+00         0.00000E+00         0.10630E+08
 
    0.10587E+08         0.52483E+06         0.00000E+00
    0.52483E+06         0.24655E+08         0.00000E+00
    0.00000E+00         0.00000E+00         0.10573E+08
 
    0.10526E+08         0.52683E+06         0.00000E+00
    0.52683E+06         0.24521E+08         0.00000E+00
    0.00000E+00         0.00000E+00         0.10514E+08
 
    0.10463E+08         0.52813E+06         0.00000E+00
    0.52813E+06         0.24384E+08         0.00000E+00
    0.00000E+00         0.00000E+00         0.10454E+08
 
    0.10399E+08         0.52866E+06         0.00000E+00
    0.52866E+06         0.24245E+08         0.00000E+00
    0.00000E+00         0.00000E+00         0.10393E+08
 
    0.10333E+08         0.52836E+06         0.00000E+00
    0.52836E+06         0.24103E+08         0.00000E+00
    0.00000E+00         0.00000E+00         0.10331E+08
 
    0.10266E+08         0.52714E+06         0.00000E+00
    0.52714E+06         0.23959E+08         0.00000E+00
    0.00000E+00         0.00000E+00         0.10267E+08
 
    0.10197E+08         0.52493E+06         0.00000E+00
    0.52493E+06         0.23813E+08         0.00000E+00
    0.00000E+00         0.00000E+00         0.10203E+08
 
    0.10127E+08         0.52165E+06         0.00000E+00
    0.52165E+06         0.23664E+08         0.00000E+00
    0.00000E+00         0.00000E+00         0.10137E+08
 
    0.10055E+08         0.51720E+06         0.00000E+00
    0.51720E+06         0.23512E+08         0.00000E+00
    0.00000E+00         0.00000E+00         0.10070E+08
 
    0.99820E+07         0.51150E+06         0.00000E+00
    0.51150E+06         0.23359E+08         0.00000E+00
    0.00000E+00         0.00000E+00         0.10002E+08
 
    0.99072E+07         0.50446E+06         0.00000E+00
    0.50446E+06         0.23202E+08         0.00000E+00
    0.00000E+00         0.00000E+00         0.99328E+07
 
    0.98309E+07         0.49597E+06         0.00000E+00
    0.49597E+06         0.23043E+08         0.00000E+00
    0.00000E+00         0.00000E+00         0.98623E+07
 
    0.97531E+07         0.48596E+06         0.00000E+00
    0.48596E+06         0.22882E+08         0.00000E+00
    0.00000E+00         0.00000E+00         0.97906E+07
 
    0.96738E+07         0.47433E+06         0.00000E+00
    0.47433E+06         0.22719E+08         0.00000E+00
    0.00000E+00         0.00000E+00         0.97177E+07
 
    0.95932E+07         0.46099E+06         0.00000E+00
    0.46099E+06         0.22553E+08         0.00000E+00
    0.00000E+00         0.00000E+00         0.96438E+07
 
    0.95112E+07         0.44588E+06         0.00000E+00
    0.44588E+06         0.22384E+08         0.00000E+00
    0.00000E+00         0.00000E+00         0.95687E+07
 
    0.94280E+07         0.42893E+06         0.00000E+00
    0.42893E+06         0.22214E+08         0.00000E+00
    0.00000E+00         0.00000E+00         0.94926E+07
 
    0.93437E+07         0.41008E+06         0.00000E+00
    0.41008E+06         0.22042E+08         0.00000E+00
    0.00000E+00         0.00000E+00         0.94158E+07
 
    0.92585E+07         0.38929E+06         0.00000E+00
    0.38929E+06         0.21869E+08         0.00000E+00
    0.00000E+00         0.00000E+00         0.93382E+07
 
    0.91726E+07         0.36655E+06         0.00000E+00
    0.36655E+06         0.21694E+08         0.00000E+00
    0.00000E+00         0.00000E+00         0.92601E+07
 
    0.90861E+07         0.34182E+06         0.00000E+00
    0.34182E+06         0.21520E+08         0.00000E+00
    0.00000E+00         0.00000E+00         0.91819E+07
 
    0.89990E+07         0.31511E+06         0.00000E+00
    0.31511E+06         0.21347E+08         0.00000E+00
    0.00000E+00         0.00000E+00         0.91037E+07
 
    0.89112E+07         0.28636E+06         0.00000E+00
    0.28636E+06         0.21176E+08         0.00000E+00
    0.00000E+00         0.00000E+00         0.90262E+07
 
    0.88226E+07         0.25550E+06         0.00000E+00
    0.25550E+06         0.21009E+08         0.00000E+00
    0.00000E+00         0.00000E+00         0.89496E+07
 
    0.87323E+07         0.22237E+06         0.00000E+00
    0.22237E+06         0.20850E+08         0.00000E+00
    0.00000E+00         0.00000E+00         0.88745E+07
 
    0.86388E+07         0.18667E+06         0.00000E+00
    0.18667E+06         0.20699E+08         0.00000E+00
    0.00000E+00         0.00000E+00         0.88014E+07
 
    0.85399E+07         0.14800E+06         0.00000E+00
    0.14800E+06         0.20562E+08         0.00000E+00
    0.00000E+00         0.00000E+00         0.87305E+07
 
    0.84312E+07         0.10632E+06         0.00000E+00
    0.10632E+06         0.20441E+08         0.00000E+00
    0.00000E+00         0.00000E+00         0.86616E+07
 
    0.83069E+07         0.63062E+05         0.00000E+00
    0.63062E+05         0.20339E+08         0.00000E+00
    0.00000E+00         0.00000E+00         0.85938E+07
 
    0.81619E+07         0.20678E+05         0.00000E+00
    0.20678E+05         0.20254E+08         0.00000E+00
    0.00000E+00         0.00000E+00         0.85248E+07
 
    0.12792E+08         0.56547E+04         0.00000E+00
    0.56547E+04         0.29517E+08         0.00000E+00
    0.00000E+00         0.00000E+00         0.12693E+08
 
    0.12760E+08         0.17223E+05         0.00000E+00
    0.17223E+05         0.29498E+08         0.00000E+00
    0.00000E+00         0.00000E+00         0.12678E+08
 
    0.12733E+08         0.29148E+05         0.00000E+00
    0.29148E+05         0.29476E+08         0.00000E+00
    0.00000E+00         0.00000E+00         0.12663E+08
 
    0.12709E+08         0.41018E+05         0.00000E+00
    0.41018E+05         0.29450E+08         0.00000E+00
    0.00000E+00         0.00000E+00         0.12648E+08
 
    0.12687E+08         0.52509E+05         0.00000E+00
    0.52509E+05         0.29420E+08         0.00000E+00
    0.00000E+00         0.00000E+00         0.12632E+08
 
    0.12667E+08         0.63564E+05         0.00000E+00
    0.63564E+05         0.29386E+08         0.00000E+00
    0.00000E+00         0.00000E+00         0.12616E+08
 
    0.12647E+08         0.74221E+05         0.00000E+00
    0.74221E+05         0.29351E+08         0.00000E+00
    0.00000E+00         0.00000E+00         0.12599E+08
 
    0.12627E+08         0.84521E+05         0.00000E+00
    0.84521E+05         0.29313E+08         0.00000E+00
    0.00000E+00         0.00000E+00         0.12582E+08
 
    0.12608E+08         0.94486E+05         0.00000E+00
    0.94486E+05         0.29275E+08         0.00000E+00
    0.00000E+00         0.00000E+00         0.12565E+08
 
    0.12589E+08         0.10413E+06         0.00000E+00
    0.10413E+06         0.29235E+08         0.00000E+00
    0.00000E+00         0.00000E+00         0.12547E+08
 
    0.12570E+08         0.11346E+06         0.00000E+00
    0.11346E+06         0.29195E+08         0.00000E+00
    0.00000E+00         0.00000E+00         0.12529E+08
 
    0.12551E+08         0.12248E+06         0.00000E+00
    0.12248E+06         0.29153E+08         0.00000E+00
    0.00000E+00         0.00000E+00         0.12511E+08
 
    0.12531E+08         0.13121E+06         0.00000E+00
    0.13121E+06         0.29112E+08         0.00000E+00
    0.00000E+00         0.00000E+00         0.12493E+08
 
    0.12512E+08         0.13965E+06         0.00000E+00
    0.13965E+06         0.29070E+08         0.00000E+00
    0.00000E+00         0.00000E+00         0.12474E+08
 
    0.12492E+08         0.14782E+06         0.00000E+00
    0.14782E+06         0.29027E+08         0.00000E+00
    0.00000E+00         0.00000E+00         0.12456E+08
 
    0.12473E+08         0.15574E+06         0.00000E+00
    0.15574E+06         0.28985E+08         0.00000E+00
    0.00000E+00         0.00000E+00         0.12437E+08
 
    0.12453E+08         0.16342E+06         0.00000E+00
    0.16342E+06         0.28941E+08         0.00000E+00
    0.00000E+00         0.00000E+00         0.12418E+08
 
    0.12433E+08         0.17090E+06         0.00000E+00
    0.17090E+06         0.28898E+08         0.00000E+00
    0.00000E+00         0.00000E+00         0.12399E+08
 
    0.12414E+08         0.17818E+06         0.00000E+00
    0.17818E+06         0.28853E+08         0.00000E+00
    0.00000E+00         0.00000E+00         0.12380E+08
 
    0.12394E+08         0.18529E+06         0.00000E+00
    0.18529E+06         0.28808E+08         0.00000E+00
    0.00000E+00         0.00000E+00         0.12361E+08
 
    0.12374E+08         0.19226E+06         0.00000E+00
    0.19226E+06         0.28763E+08         0.00000E+00
    0.00000E+00         0.00000E+00         0.12341E+08
 
    0.12353E+08         0.19911E+06         0.00000E+00
    0.19911E+06         0.28717E+08         0.00000E+00
    0.00000E+00         0.00000E+00         0.12321E+08
 
    0.12333E+08         0.20585E+06         0.00000E+00
    0.20585E+06         0.28670E+08         0.00000E+00
    0.00000E+00         0.00000E+00         0.12301E+08
 
    0.12312E+08         0.21251E+06         0.00000E+00
    0.21251E+06         0.28622E+08         0.00000E+00
    0.00000E+00         0.00000E+00         0.12280E+08
 
    0.12291E+08         0.21911E+06         0.00000E+00
    0.21911E+06         0.28574E+08         0.00000E+00
    0.00000E+00         0.00000E+00         0.12259E+08
 
    0.12270E+08         0.22566E+06         0.00000E+00
    0.22566E+06         0.28524E+08         0.00000E+00
    0.00000E+00         0.00000E+00         0.12238E+08
 
    0.12248E+08         0.23218E+06         0.00000E+00
    0.23218E+06         0.28474E+08         0.00000E+00
    0.00000E+00         0.00000E+00         0.12217E+08
 
    0.12226E+08         0.23868E+06         0.00000E+00
    0.23868E+06         0.28422E+08         0.00000E+00
    0.00000E+00         0.00000E+00         0.12195E+08
 
    0.12204E+08         0.24517E+06         0.00000E+00
    0.24517E+06         0.28370E+08         0.00000E+00
    0.00000E+00         0.00000E+00         0.12172E+08
 
    0.12181E+08         0.25168E+06         0.00000E+00
    0.25168E+06         0.28316E+08         0.00000E+00
    0.00000E+00         0.00000E+00         0.12149E+08
 
    0.12158E+08         0.25820E+06         0.00000E+00
    0.25820E+06         0.28262E+08         0.00000E+00
    0.00000E+00         0.00000E+00         0.12126E+08
 
    0.12135E+08         0.26475E+06         0.00000E+00
    0.26475E+06         0.28206E+08         0.00000E+00
    0.00000E+00         0.00000E+00         0.12102E+08
 
    0.12111E+08         0.27133E+06         0.00000E+00
    0.27133E+06         0.28148E+08         0.00000E+00
    0.00000E+00         0.00000E+00         0.12078E+08
 
    0.12086E+08         0.27795E+06         0.00000E+00
    0.27795E+06         0.28090E+08         0.00000E+00
    0.00000E+00         0.00000E+00         0.12053E+08
 
    0.12061E+08         0.28461E+06         0.00000E+00
    0.28461E+06         0.28030E+08         0.00000E+00
    0.00000E+00         0.00000E+00         0.12027E+08
 
    0.12035E+08         0.29133E+06         0.00000E+00
    0.29133E+06         0.27969E+08         0.00000E+00
    0.00000E+00         0.00000E+00         0.12001E+08
 
    0.12009E+08         0.29809E+06         0.00000E+00
    0.29809E+06         0.27906E+08         0.00000E+00
    0.00000E+00         0.00000E+00         0.11974E+08
 
    0.11982E+08         0.30491E+06         0.00000E+00
    0.30491E+06         0.27842E+08         0.00000E+00
    0.00000E+00         0.00000E+00         0.11947E+08
 
    0.11954E+08         0.31178E+06         0.00000E+00
    0.31178E+06         0.27776E+08         0.00000E+00
    0.00000E+00         0.00000E+00         0.11919E+08
 
    0.11926E+08         0.31870E+06         0.00000E+00
    0.31870E+06         0.27709E+08         0.00000E+00
    0.00000E+00         0.00000E+00         0.11890E+08
 
    0.11897E+08         0.32568E+06         0.00000E+00
    0.32568E+06         0.27640E+08         0.00000E+00
    0.00000E+00         0.00000E+00         0.11861E+08
 
    0.11867E+08         0.33271E+06         0.00000E+00
    0.33271E+06         0.27570E+08         0.00000E+00
    0.00000E+00         0.00000E+00         0.11831E+08
 
    0.11836E+08         0.33978E+06         0.00000E+00
    0.33978E+06         0.27498E+08         0.00000E+00
    0.00000E+00         0.00000E+00         0.11800E+08
 
    0.11805E+08         0.34690E+06         0.00000E+00
    0.34690E+06         0.27424E+08         0.00000E+00
    0.00000E+00         0.00000E+00         0.11769E+08
 
    0.11773E+08         0.35406E+06         0.00000E+00
    0.35406E+06         0.27348E+08         0.00000E+00
    0.00000E+00         0.00000E+00         0.11736E+08
 
    0.11740E+08         0.36124E+06         0.00000E+00
    0.36124E+06         0.27271E+08         0.00000E+00
    0.00000E+00         0.00000E+00         0.11703E+08
 
    0.11706E+08         0.36846E+06         0.00000E+00
    0.36846E+06         0.27191E+08         0.00000E+00
    0.00000E+00         0.00000E+00         0.11669E+08
 
    0.11672E+08         0.37569E+06         0.00000E+00
    0.37569E+06         0.27110E+08         0.00000E+00
    0.00000E+00         0.00000E+00         0.11635E+08
 
    0.11636E+08         0.38293E+06         0.00000E+00
    0.38293E+06         0.27027E+08         0.00000E+00
    0.00000E+00         0.00000E+00         0.11599E+08
 
    0.11600E+08         0.39018E+06         0.00000E+00
    0.39018E+06         0.26942E+08         0.00000E+00
    0.00000E+00         0.00000E+00         0.11563E+08
 
    0.11563E+08         0.39741E+06         0.00000E+00
    0.39741E+06         0.26855E+08         0.00000E+00
    0.00000E+00         0.00000E+00         0.11525E+08
 
    0.11524E+08         0.40461E+06         0.00000E+00
    0.40461E+06         0.26766E+08         0.00000E+00
    0.00000E+00         0.00000E+00         0.11487E+08
 
    0.11485E+08         0.41178E+06         0.00000E+00
    0.41178E+06         0.26674E+08         0.00000E+00
    0.00000E+00         0.00000E+00         0.11448E+08
 
    0.11445E+08         0.41890E+06         0.00000E+00
    0.41890E+06         0.26581E+08         0.00000E+00
    0.00000E+00         0.00000E+00         0.11408E+08
 
    0.11404E+08         0.42596E+06         0.00000E+00
    0.42596E+06         0.26486E+08         0.00000E+00
    0.00000E+00         0.00000E+00         0.11367E+08
 
    0.11361E+08         0.43293E+06         0.00000E+00
    0.43293E+06         0.26388E+08         0.00000E+00
    0.00000E+00         0.00000E+00         0.11325E+08
 
    0.11318E+08         0.43980E+06         0.00000E+00
    0.43980E+06         0.26289E+08         0.00000E+00
    0.00000E+00         0.00000E+00         0.11282E+08
 
    0.11274E+08         0.44655E+06         0.00000E+00
    0.44655E+06         0.26187E+08         0.00000E+00
    0.00000E+00         0.00000E+00         0.11238E+08
 
    0.11228E+08         0.45316E+06         0.00000E+00
    0.45316E+06         0.26083E+08         0.00000E+00
    0.00000E+00         0.00000E+00         0.11193E+08
 
    0.11182E+08         0.45961E+06         0.00000E+00
    0.45961E+06         0.25976E+08         0.00000E+00
    0.00000E+00         0.00000E+00         0.11147E+08
 
    0.11134E+08         0.46586E+06         0.00000E+00
    0.46586E+06         0.25868E+08         0.00000E+00
    0.00000E+00         0.00000E+00         0.11101E+08
 
    0.11085E+08         0.47190E+06         0.00000E+00
    0.47190E+06         0.25757E+08         0.00000E+00
    0.00000E+00         0.00000E+00         0.11053E+08
 
    0.11035E+08         0.47770E+06         0.00000E+00
    0.47770E+06         0.25644E+08         0.00000E+00
    0.00000E+00         0.00000E+00         0.11004E+08
 
    0.10984E+08         0.48322E+06         0.00000E+00
    0.48322E+06         0.25528E+08         0.00000E+00
    0.00000E+00         0.00000E+00         0.10954E+08
 
    0.10931E+08         0.48843E+06         0.00000E+00
    0.48843E+06         0.25411E+08         0.00000E+00
    0.00000E+00         0.00000E+00         0.10903E+08
 
    0.10877E+08         0.49329E+06         0.00000E+00
    0.49329E+06         0.25291E+08         0.00000E+00
    0.00000E+00         0.00000E+00         0.10850E+08
 
    0.10822E+08         0.49777E+06         0.00000E+00
    0.49777E+06         0.25168E+08         0.00000E+00
    0.00000E+00         0.00000E+00         0.10797E+08
 
    0.10766E+08         0.50182E+06         0.00000E+00
    0.50182E+06         0.25043E+08         0.00000E+00
    0.00000E+00         0.00000E+00         0.10743E+08
 
    0.10708E+08         0.50540E+06         0.00000E+00
    0.50540E+06         0.24916E+08         0.00000E+00
    0.00000E+00         0.00000E+00         0.10687E+08
 
    0.10649E+08         0.50846E+06         0.00000E+00
    0.50846E+06         0.24787E+08         0.00000E+00
    0.00000E+00         0.00000E+00         0.10631E+08
 
    0.10589E+08         0.51095E+06         0.00000E+00
    0.51095E+06         0.24655E+08         0.00000E+00
    0.00000E+00         0.00000E+00         0.10573E+08
 
    0.10527E+08         0.51281E+06         0.00000E+00
    0.51281E+06         0.24521E+08         0.00000E+00
    0.00000E+00         0.00000E+00         0.10514E+08
 
    0.10464E+08         0.51397E+06         0.00000E+00
    0.51397E+06         0.24384E+08         0.00000E+00
    0.00000E+00         0.00000E+00         0.10454E+08
 
    0.10399E+08         0.51439E+06         0.00000E+00
    0.51439E+06         0.24245E+08         0.00000E+00
    0.00000E+00         0.00000E+00         0.10393E+08
 
    0.10333E+08         0.51397E+06         0.00000E+00
    0.51397E+06         0.24103E+08         0.00000E+00
    0.00000E+00         0.00000E+00         0.10331E+08
 
    0.10266E+08         0.51266E+06         0.00000E+00
    0.51266E+06         0.23960E+08         0.00000E+00
    0.00000E+00         0.00000E+00         0.10268E+08
 
    0.10197E+08         0.51036E+06         0.00000E+00
    0.51036E+06         0.23813E+08         0.00000E+00
    0.00000E+00         0.00000E+00         0.10203E+08
 
    0.10126E+08         0.50701E+06         0.00000E+00
    0.50701E+06         0.23665E+08         0.00000E+00
    0.00000E+00         0.00000E+00         0.10137E+08
 
    0.10054E+08         0.50250E+06         0.00000E+00
    0.50250E+06         0.23513E+08         0.00000E+00
    0.00000E+00         0.00000E+00         0.10070E+08
 
    0.99797E+07         0.49675E+06         0.00000E+00
    0.49675E+06         0.23360E+08         0.00000E+00
    0.00000E+00         0.00000E+00         0.10002E+08
 
    0.99042E+07         0.48967E+06         0.00000E+00
    0.48967E+06         0.23204E+08         0.00000E+00
    0.00000E+00         0.00000E+00         0.99324E+07
 
    0.98272E+07         0.48116E+06         0.00000E+00
    0.48116E+06         0.23045E+08         0.00000E+00
    0.00000E+00         0.00000E+00         0.98618E+07
 
    0.97486E+07         0.47112E+06         0.00000E+00
    0.47112E+06         0.22884E+08         0.00000E+00
    0.00000E+00         0.00000E+00         0.97899E+07
 
    0.96685E+07         0.45947E+06         0.00000E+00
    0.45947E+06         0.22721E+08         0.00000E+00
    0.00000E+00         0.00000E+00         0.97169E+07
 
    0.95870E+07         0.44611E+06         0.00000E+00
    0.44611E+06         0.22556E+08         0.00000E+00
    0.00000E+00         0.00000E+00         0.96428E+07
 
    0.95041E+07         0.43097E+06         0.00000E+00
    0.43097E+06         0.22388E+08         0.00000E+00
    0.00000E+00         0.00000E+00         0.95675E+07
 
    0.94199E+07         0.41398E+06         0.00000E+00
    0.41398E+06         0.22218E+08         0.00000E+00
    0.00000E+00         0.00000E+00         0.94913E+07
 
    0.93345E+07         0.39508E+06         0.00000E+00
    0.39508E+06         0.22046E+08         0.00000E+00
    0.00000E+00         0.00000E+00         0.94142E+07
 
    0.92482E+07         0.37423E+06         0.00000E+00
    0.37423E+06         0.21873E+08         0.00000E+00
    0.00000E+00         0.00000E+00         0.93364E+07
 
    0.91611E+07         0.35141E+06         0.00000E+00
    0.35141E+06         0.21699E+08         0.00000E+00
    0.00000E+00         0.00000E+00         0.92581E+07
 
    0.90732E+07         0.32661E+06         0.00000E+00
    0.32661E+06         0.21525E+08         0.00000E+00
    0.00000E+00         0.00000E+00         0.91795E+07
 
    0.89846E+07         0.29983E+06         0.00000E+00
    0.29983E+06         0.21352E+08         0.00000E+00
    0.00000E+00         0.00000E+00         0.91011E+07
 
    0.88953E+07         0.27108E+06         0.00000E+00
    0.27108E+06         0.21182E+08         0.00000E+00
    0.00000E+00         0.00000E+00         0.90232E+07
 
    0.88048E+07         0.24034E+06         0.00000E+00
    0.24034E+06         0.21016E+08         0.00000E+00
    0.00000E+00         0.00000E+00         0.89462E+07
 
    0.87123E+07         0.20756E+06         0.00000E+00
    0.20756E+06         0.20856E+08         0.00000E+00
    0.00000E+00         0.00000E+00         0.88706E+07
 
    0.86162E+07         0.17261E+06         0.00000E+00
    0.17261E+06         0.20706E+08         0.00000E+00
    0.00000E+00         0.00000E+00         0.87968E+07
 
    0.85142E+07         0.13537E+06         0.00000E+00
    0.13537E+06         0.20570E+08         0.00000E+00
    0.00000E+00         0.00000E+00         0.87251E+07
 
    0.84020E+07         0.96153E+05         0.00000E+00
    0.96153E+05         0.20449E+08         0.00000E+00
    0.00000E+00         0.00000E+00         0.86554E+07
 
    0.82746E+07         0.56528E+05         0.00000E+00
    0.56528E+05         0.20347E+08         0.00000E+00
    0.00000E+00         0.00000E+00         0.85865E+07
 
    0.81276E+07         0.18454E+05         0.00000E+00
    0.18454E+05         0.20262E+08         0.00000E+00
    0.00000E+00         0.00000E+00         0.85169E+07
 
    0.12800E+08         0.51905E+04         0.00000E+00
    0.51905E+04         0.29515E+08         0.00000E+00
    0.00000E+00         0.00000E+00         0.12695E+08
 
    0.12768E+08         0.15851E+05         0.00000E+00
    0.15851E+05         0.29496E+08         0.00000E+00
    0.00000E+00         0.00000E+00         0.12679E+08
 
    0.12741E+08         0.26979E+05         0.00000E+00
    0.26979E+05         0.29474E+08         0.00000E+00
    0.00000E+00         0.00000E+00         0.12664E+08
 
    0.12716E+08         0.38263E+05         0.00000E+00
    0.38263E+05         0.29448E+08         0.00000E+00
    0.00000E+00         0.00000E+00         0.12649E+08
 
    0.12694E+08         0.49373E+05         0.00000E+00
    0.49373E+05         0.29417E+08         0.00000E+00
    0.00000E+00         0.00000E+00         0.12633E+08
 
    0.12673E+08         0.60187E+05         0.00000E+00
    0.60187E+05         0.29384E+08         0.00000E+00
    0.00000E+00         0.00000E+00         0.12617E+08
 
    0.12653E+08         0.70690E+05         0.00000E+00
    0.70690E+05         0.29349E+08         0.00000E+00
    0.00000E+00         0.00000E+00         0.12600E+08
 
    0.12633E+08         0.80883E+05         0.00000E+00
    0.80883E+05         0.29311E+08         0.00000E+00
    0.00000E+00         0.00000E+00         0.12583E+08
 
    0.12613E+08         0.90766E+05         0.00000E+00
    0.90766E+05         0.29273E+08         0.00000E+00
    0.00000E+00         0.00000E+00         0.12566E+08
 
    0.12594E+08         0.10034E+06         0.00000E+00
    0.10034E+06         0.29233E+08         0.00000E+00
    0.00000E+00         0.00000E+00         0.12548E+08
 
    0.12574E+08         0.10959E+06         0.00000E+00
    0.10959E+06         0.29193E+08         0.00000E+00
    0.00000E+00         0.00000E+00         0.12530E+08
 
    0.12555E+08         0.11854E+06         0.00000E+00
    0.11854E+06         0.29152E+08         0.00000E+00
    0.00000E+00         0.00000E+00         0.12512E+08
 
    0.12535E+08         0.12718E+06         0.00000E+00
    0.12718E+06         0.29110E+08         0.00000E+00
    0.00000E+00         0.00000E+00         0.12494E+08
 
    0.12516E+08         0.13552E+06         0.00000E+00
    0.13552E+06         0.29068E+08         0.00000E+00
    0.00000E+00         0.00000E+00         0.12475E+08
 
    0.12496E+08         0.14359E+06         0.00000E+00
    0.14359E+06         0.29026E+08         0.00000E+00
    0.00000E+00         0.00000E+00         0.12457E+08
 
    0.12477E+08         0.15140E+06         0.00000E+00
    0.15140E+06         0.28983E+08         0.00000E+00
    0.00000E+00         0.00000E+00         0.12438E+08
 
    0.12457E+08         0.15897E+06         0.00000E+00
    0.15897E+06         0.28940E+08         0.00000E+00
    0.00000E+00         0.00000E+00         0.12419E+08
 
    0.12437E+08         0.16633E+06         0.00000E+00
    0.16633E+06         0.28896E+08         0.00000E+00
    0.00000E+00         0.00000E+00         0.12400E+08
 
    0.12417E+08         0.17348E+06         0.00000E+00
    0.17348E+06         0.28852E+08         0.00000E+00
    0.00000E+00         0.00000E+00         0.12381E+08
 
    0.12397E+08         0.18047E+06         0.00000E+00
    0.18047E+06         0.28807E+08         0.00000E+00
    0.00000E+00         0.00000E+00         0.12361E+08
 
    0.12377E+08         0.18731E+06         0.00000E+00
    0.18731E+06         0.28762E+08         0.00000E+00
    0.00000E+00         0.00000E+00         0.12342E+08
 
    0.12357E+08         0.19402E+06         0.00000E+00
    0.19402E+06         0.28715E+08         0.00000E+00
    0.00000E+00         0.00000E+00         0.12322E+08
 
    0.12336E+08         0.20063E+06         0.00000E+00
    0.20063E+06         0.28669E+08         0.00000E+00
    0.00000E+00         0.00000E+00         0.12301E+08
 
    0.12316E+08         0.20715E+06         0.00000E+00
    0.20715E+06         0.28621E+08         0.00000E+00
    0.00000E+00         0.00000E+00         0.12281E+08
 
    0.12295E+08         0.21360E+06         0.00000E+00
    0.21360E+06         0.28572E+08         0.00000E+00
    0.00000E+00         0.00000E+00         0.12260E+08
 
    0.12273E+08         0.22001E+06         0.00000E+00
    0.22001E+06         0.28523E+08         0.00000E+00
    0.00000E+00         0.00000E+00         0.12239E+08
 
    0.12252E+08         0.22638E+06         0.00000E+00
    0.22638E+06         0.28473E+08         0.00000E+00
    0.00000E+00         0.00000E+00         0.12217E+08
 
    0.12230E+08         0.23273E+06         0.00000E+00
    0.23273E+06         0.28421E+08         0.00000E+00
    0.00000E+00         0.00000E+00         0.12195E+08
 
    0.12208E+08         0.23908E+06         0.00000E+00
    0.23908E+06         0.28369E+08         0.00000E+00
    0.00000E+00         0.00000E+00         0.12173E+08
 
    0.12185E+08         0.24543E+06         0.00000E+00
    0.24543E+06         0.28315E+08         0.00000E+00
    0.00000E+00         0.00000E+00         0.12150E+08
 
    0.12162E+08         0.25180E+06         0.00000E+00
    0.25180E+06         0.28260E+08         0.00000E+00
    0.00000E+00         0.00000E+00         0.12127E+08
 
    0.12138E+08         0.25819E+06         0.00000E+00
    0.25819E+06         0.28204E+08         0.00000E+00
    0.00000E+00         0.00000E+00         0.12103E+08
 
    0.12114E+08         0.26461E+06         0.00000E+00
    0.26461E+06         0.28147E+08         0.00000E+00
    0.00000E+00         0.00000E+00         0.12078E+08
 
    0.12090E+08         0.27107E+06         0.00000E+00
    0.27107E+06         0.28089E+08         0.00000E+00
    0.00000E+00         0.00000E+00         0.12053E+08
 
    0.12064E+08         0.27757E+06         0.00000E+00
    0.27757E+06         0.28029E+08         0.00000E+00
    0.00000E+00         0.00000E+00         0.12028E+08
 
    0.12039E+08         0.28412E+06         0.00000E+00
    0.28412E+06         0.27968E+08         0.00000E+00
    0.00000E+00         0.00000E+00         0.12002E+08
 
    0.12012E+08         0.29071E+06         0.00000E+00
    0.29071E+06         0.27905E+08         0.00000E+00
    0.00000E+00         0.00000E+00         0.11975E+08
 
    0.11985E+08         0.29735E+06         0.00000E+00
    0.29735E+06         0.27841E+08         0.00000E+00
    0.00000E+00         0.00000E+00         0.11948E+08
 
    0.11958E+08         0.30405E+06         0.00000E+00
    0.30405E+06         0.27775E+08         0.00000E+00
    0.00000E+00         0.00000E+00         0.11920E+08
 
    0.11930E+08         0.31080E+06         0.00000E+00
    0.31080E+06         0.27708E+08         0.00000E+00
    0.00000E+00         0.00000E+00         0.11891E+08
 
    0.11901E+08         0.31759E+06         0.00000E+00
    0.31759E+06         0.27639E+08         0.00000E+00
    0.00000E+00         0.00000E+00         0.11862E+08
 
    0.11871E+08         0.32444E+06         0.00000E+00
    0.32444E+06         0.27568E+08         0.00000E+00
    0.00000E+00         0.00000E+00         0.11832E+08
 
    0.11840E+08         0.33132E+06         0.00000E+00
    0.33132E+06         0.27496E+08         0.00000E+00
    0.00000E+00         0.00000E+00         0.11801E+08
 
    0.11809E+08         0.33825E+06         0.00000E+00
    0.33825E+06         0.27422E+08         0.00000E+00
    0.00000E+00         0.00000E+00         0.11769E+08
 
    0.11777E+08         0.34522E+06         0.00000E+00
    0.34522E+06         0.27347E+08         0.00000E+00
    0.00000E+00         0.00000E+00         0.11737E+08
 
    0.11744E+08         0.35221E+06         0.00000E+00
    0.35221E+06         0.27269E+08         0.00000E+00
    0.00000E+00         0.00000E+00         0.11704E+08
 
    0.11711E+08         0.35923E+06         0.00000E+00
    0.35923E+06         0.27190E+08         0.00000E+00
    0.00000E+00         0.00000E+00         0.11670E+08
 
    0.11676E+08         0.36627E+06         0.00000E+00
    0.36627E+06         0.27109E+08         0.00000E+00
    0.00000E+00         0.00000E+00         0.11635E+08
 
    0.11641E+08         0.37331E+06         0.00000E+00
    0.37331E+06         0.27025E+08         0.00000E+00
    0.00000E+00         0.00000E+00         0.11600E+08
 
    0.11604E+08         0.38035E+06         0.00000E+00
    0.38035E+06         0.26940E+08         0.00000E+00
    0.00000E+00         0.00000E+00         0.11563E+08
 
    0.11567E+08         0.38738E+06         0.00000E+00
    0.38738E+06         0.26853E+08         0.00000E+00
    0.00000E+00         0.00000E+00         0.11526E+08
 
    0.11529E+08         0.39438E+06         0.00000E+00
    0.39438E+06         0.26764E+08         0.00000E+00
    0.00000E+00         0.00000E+00         0.11488E+08
 
    0.11489E+08         0.40135E+06         0.00000E+00
    0.40135E+06         0.26673E+08         0.00000E+00
    0.00000E+00         0.00000E+00         0.11449E+08
 
    0.11449E+08         0.40826E+06         0.00000E+00
    0.40826E+06         0.26580E+08         0.00000E+00
    0.00000E+00         0.00000E+00         0.11409E+08
 
    0.11408E+08         0.41511E+06         0.00000E+00
    0.41511E+06         0.26484E+08         0.00000E+00
    0.00000E+00         0.00000E+00         0.11368E+08
 
    0.11366E+08         0.42188E+06         0.00000E+00
    0.42188E+06         0.26387E+08         0.00000E+00
    0.00000E+00         0.00000E+00         0.11326E+08
 
    0.11322E+08         0.42855E+06         0.00000E+00
    0.42855E+06         0.26287E+08         0.00000E+00
    0.00000E+00         0.00000E+00         0.11283E+08
 
    0.11278E+08         0.43509E+06         0.00000E+00
    0.43509E+06         0.26185E+08         0.00000E+00
    0.00000E+00         0.00000E+00         0.11239E+08
 
    0.11232E+08         0.44150E+06         0.00000E+00
    0.44150E+06         0.26081E+08         0.00000E+00
    0.00000E+00         0.00000E+00         0.11194E+08
 
    0.11185E+08         0.44774E+06         0.00000E+00
    0.44774E+06         0.25975E+08         0.00000E+00
    0.00000E+00         0.00000E+00         0.11148E+08
 
    0.11138E+08         0.45380E+06         0.00000E+00
    0.45380E+06         0.25867E+08         0.00000E+00
    0.00000E+00         0.00000E+00         0.11101E+08
 
    0.11089E+08         0.45964E+06         0.00000E+00
    0.45964E+06         0.25756E+08         0.00000E+00
    0.00000E+00         0.00000E+00         0.11053E+08
 
    0.11038E+08         0.46524E+06         0.00000E+00
    0.46524E+06         0.25643E+08         0.00000E+00
    0.00000E+00         0.00000E+00         0.11004E+08
 
    0.10987E+08         0.47057E+06         0.00000E+00
    0.47057E+06         0.25527E+08         0.00000E+00
    0.00000E+00         0.00000E+00         0.10954E+08
 
    0.10934E+08         0.47559E+06         0.00000E+00
    0.47559E+06         0.25410E+08         0.00000E+00
    0.00000E+00         0.00000E+00         0.10903E+08
 
    0.10880E+08         0.48027E+06         0.00000E+00
    0.48027E+06         0.25290E+08         0.00000E+00
    0.00000E+00         0.00000E+00         0.10851E+08
 
    0.10825E+08         0.48457E+06         0.00000E+00
    0.48457E+06         0.25167E+08         0.00000E+00
    0.00000E+00         0.00000E+00         0.10798E+08
 
    0.10769E+08         0.48846E+06         0.00000E+00
    0.48846E+06         0.25043E+08         0.00000E+00
    0.00000E+00         0.00000E+00         0.10743E+08
 
    0.10711E+08         0.49188E+06         0.00000E+00
    0.49188E+06         0.24916E+08         0.00000E+00
    0.00000E+00         0.00000E+00         0.10688E+08
 
    0.10651E+08         0.49478E+06         0.00000E+00
    0.49478E+06         0.24786E+08         0.00000E+00
    0.00000E+00         0.00000E+00         0.10631E+08
 
    0.10591E+08         0.49713E+06         0.00000E+00
    0.49713E+06         0.24654E+08         0.00000E+00
    0.00000E+00         0.00000E+00         0.10574E+08
 
    0.10529E+08         0.49885E+06         0.00000E+00
    0.49885E+06         0.24520E+08         0.00000E+00
    0.00000E+00         0.00000E+00         0.10515E+08
 
    0.10465E+08         0.49989E+06         0.00000E+00
    0.49989E+06         0.24384E+08         0.00000E+00
    0.00000E+00         0.00000E+00         0.10455E+08
 
    0.10400E+08         0.50019E+06         0.00000E+00
    0.50019E+06         0.24245E+08         0.00000E+00
    0.00000E+00         0.00000E+00         0.10394E+08
 
    0.10334E+08         0.49967E+06         0.00000E+00
    0.49967E+06         0.24104E+08         0.00000E+00
    0.00000E+00         0.00000E+00         0.10331E+08
 
    0.10266E+08         0.49827E+06         0.00000E+00
    0.49827E+06         0.23960E+08         0.00000E+00
    0.00000E+00         0.00000E+00         0.10268E+08
 
    0.10196E+08         0.49590E+06         0.00000E+00
    0.49590E+06         0.23814E+08         0.00000E+00
    0.00000E+00         0.00000E+00         0.10203E+08
 
    0.10125E+08         0.49248E+06         0.00000E+00
    0.49248E+06         0.23665E+08         0.00000E+00
    0.00000E+00         0.00000E+00         0.10137E+08
 
    0.10052E+08         0.48792E+06         0.00000E+00
    0.48792E+06         0.23514E+08         0.00000E+00
    0.00000E+00         0.00000E+00         0.10070E+08
 
    0.99774E+07         0.48214E+06         0.00000E+00
    0.48214E+06         0.23361E+08         0.00000E+00
    0.00000E+00         0.00000E+00         0.10002E+08
 
    0.99013E+07         0.47503E+06         0.00000E+00
    0.47503E+06         0.23205E+08         0.00000E+00
    0.00000E+00         0.00000E+00         0.99320E+07
 
    0.98236E+07         0.46649E+06         0.00000E+00
    0.46649E+06         0.23047E+08         0.00000E+00
    0.00000E+00         0.00000E+00         0.98612E+07
 
    0.97442E+07         0.45644E+06         0.00000E+00
    0.45644E+06         0.22887E+08         0.00000E+00
    0.00000E+00         0.00000E+00         0.97893E+07
 
    0.96633E+07         0.44478E+06         0.00000E+00
    0.44478E+06         0.22724E+08         0.00000E+00
    0.00000E+00         0.00000E+00         0.97161E+07
 
    0.95809E+07         0.43141E+06         0.00000E+00
    0.43141E+06         0.22558E+08         0.00000E+00
    0.00000E+00         0.00000E+00         0.96418E+07
 
    0.94970E+07         0.41626E+06         0.00000E+00
    0.41626E+06         0.22391E+08         0.00000E+00
    0.00000E+00         0.00000E+00         0.95664E+07
 
    0.94118E+07         0.39924E+06         0.00000E+00
    0.39924E+06         0.22221E+08         0.00000E+00
    0.00000E+00         0.00000E+00         0.94899E+07
 
    0.93254E+07         0.38031E+06         0.00000E+00
    0.38031E+06         0.22050E+08         0.00000E+00
    0.00000E+00         0.00000E+00         0.94126E+07
 
    0.92379E+07         0.35941E+06         0.00000E+00
    0.35941E+06         0.21877E+08         0.00000E+00
    0.00000E+00         0.00000E+00         0.93346E+07
 
    0.91495E+07         0.33653E+06         0.00000E+00
    0.33653E+06         0.21704E+08         0.00000E+00
    0.00000E+00         0.00000E+00         0.92560E+07
 
    0.90602E+07         0.31167E+06         0.00000E+00
    0.31167E+06         0.21530E+08         0.00000E+00
    0.00000E+00         0.00000E+00         0.91772E+07
 
    0.89702E+07         0.28486E+06         0.00000E+00
    0.28486E+06         0.21358E+08         0.00000E+00
    0.00000E+00         0.00000E+00         0.90984E+07
 
    0.88792E+07         0.25615E+06         0.00000E+00
    0.25615E+06         0.21188E+08         0.00000E+00
    0.00000E+00         0.00000E+00         0.90201E+07
 
    0.87868E+07         0.22558E+06         0.00000E+00
    0.22558E+06         0.21022E+08         0.00000E+00
    0.00000E+00         0.00000E+00         0.89427E+07
 
    0.86921E+07         0.19323E+06         0.00000E+00
    0.19323E+06         0.20863E+08         0.00000E+00
    0.00000E+00         0.00000E+00         0.88665E+07
 
    0.85935E+07         0.15912E+06         0.00000E+00
    0.15912E+06         0.20714E+08         0.00000E+00
    0.00000E+00         0.00000E+00         0.87921E+07
 
    0.84886E+07         0.12338E+06         0.00000E+00
    0.12338E+06         0.20577E+08         0.00000E+00
    0.00000E+00         0.00000E+00         0.87197E+07
 
    0.83733E+07         0.86650E+05         0.00000E+00
    0.86650E+05         0.20457E+08         0.00000E+00
    0.00000E+00         0.00000E+00         0.86490E+07
 
    0.82431E+07         0.50491E+05         0.00000E+00
    0.50491E+05         0.20355E+08         0.00000E+00
    0.00000E+00         0.00000E+00         0.85793E+07
 
    0.80945E+07         0.16410E+05         0.00000E+00
    0.16410E+05         0.20269E+08         0.00000E+00
    0.00000E+00         0.00000E+00         0.85091E+07
 
    0.12809E+08         0.47569E+04         0.00000E+00
    0.47569E+04         0.29513E+08         0.00000E+00
    0.00000E+00         0.00000E+00         0.12697E+08
 
    0.12777E+08         0.14565E+05         0.00000E+00
    0.14565E+05         0.29494E+08         0.00000E+00
    0.00000E+00         0.00000E+00         0.12681E+08
 
    0.12748E+08         0.24930E+05         0.00000E+00
    0.24930E+05         0.29472E+08         0.00000E+00
    0.00000E+00         0.00000E+00         0.12666E+08
 
    0.12723E+08         0.35628E+05         0.00000E+00
    0.35628E+05         0.29445E+08         0.00000E+00
    0.00000E+00         0.00000E+00         0.12651E+08
 
    0.12700E+08         0.46342E+05         0.00000E+00
    0.46342E+05         0.29415E+08         0.00000E+00
    0.00000E+00         0.00000E+00         0.12635E+08
 
    0.12679E+08         0.56900E+05         0.00000E+00
    0.56900E+05         0.29382E+08         0.00000E+00
    0.00000E+00         0.00000E+00         0.12618E+08
 
    0.12658E+08         0.67234E+05         0.00000E+00
    0.67234E+05         0.29347E+08         0.00000E+00
    0.00000E+00         0.00000E+00         0.12602E+08
 
    0.12638E+08         0.77310E+05         0.00000E+00
    0.77310E+05         0.29309E+08         0.00000E+00
    0.00000E+00         0.00000E+00         0.12584E+08
 
    0.12619E+08         0.87101E+05         0.00000E+00
    0.87101E+05         0.29271E+08         0.00000E+00
    0.00000E+00         0.00000E+00         0.12567E+08
 
    0.12599E+08         0.96590E+05         0.00000E+00
    0.96590E+05         0.29231E+08         0.00000E+00
    0.00000E+00         0.00000E+00         0.12549E+08
 
    0.12579E+08         0.10577E+06         0.00000E+00
    0.10577E+06         0.29191E+08         0.00000E+00
    0.00000E+00         0.00000E+00         0.12531E+08
 
    0.12559E+08         0.11463E+06         0.00000E+00
    0.11463E+06         0.29150E+08         0.00000E+00
    0.00000E+00         0.00000E+00         0.12513E+08
 
    0.12540E+08         0.12318E+06         0.00000E+00
    0.12318E+06         0.29108E+08         0.00000E+00
    0.00000E+00         0.00000E+00         0.12494E+08
 
    0.12520E+08         0.13143E+06         0.00000E+00
    0.13143E+06         0.29067E+08         0.00000E+00
    0.00000E+00         0.00000E+00         0.12476E+08
 
    0.12500E+08         0.13939E+06         0.00000E+00
    0.13939E+06         0.29024E+08         0.00000E+00
    0.00000E+00         0.00000E+00         0.12457E+08
 
    0.12481E+08         0.14709E+06         0.00000E+00
    0.14709E+06         0.28981E+08         0.00000E+00
    0.00000E+00         0.00000E+00         0.12439E+08
 
    0.12461E+08         0.15454E+06         0.00000E+00
    0.15454E+06         0.28938E+08         0.00000E+00
    0.00000E+00         0.00000E+00         0.12420E+08
 
    0.12441E+08         0.16177E+06         0.00000E+00
    0.16177E+06         0.28895E+08         0.00000E+00
    0.00000E+00         0.00000E+00         0.12401E+08
 
    0.12421E+08         0.16880E+06         0.00000E+00
    0.16880E+06         0.28850E+08         0.00000E+00
    0.00000E+00         0.00000E+00         0.12381E+08
 
    0.12401E+08         0.17566E+06         0.00000E+00
    0.17566E+06         0.28806E+08         0.00000E+00
    0.00000E+00         0.00000E+00         0.12362E+08
 
    0.12381E+08         0.18236E+06         0.00000E+00
    0.18236E+06         0.28760E+08         0.00000E+00
    0.00000E+00         0.00000E+00         0.12342E+08
 
    0.12360E+08         0.18894E+06         0.00000E+00
    0.18894E+06         0.28714E+08         0.00000E+00
    0.00000E+00         0.00000E+00         0.12322E+08
 
    0.12340E+08         0.19540E+06         0.00000E+00
    0.19540E+06         0.28667E+08         0.00000E+00
    0.00000E+00         0.00000E+00         0.12302E+08
 
    0.12319E+08         0.20178E+06         0.00000E+00
    0.20178E+06         0.28620E+08         0.00000E+00
    0.00000E+00         0.00000E+00         0.12282E+08
 
    0.12298E+08         0.20810E+06         0.00000E+00
    0.20810E+06         0.28571E+08         0.00000E+00
    0.00000E+00         0.00000E+00         0.12261E+08
 
    0.12277E+08         0.21436E+06         0.00000E+00
    0.21436E+06         0.28522E+08         0.00000E+00
    0.00000E+00         0.00000E+00         0.12240E+08
 
    0.12255E+08         0.22058E+06         0.00000E+00
    0.22058E+06         0.28471E+08         0.00000E+00
    0.00000E+00         0.00000E+00         0.12218E+08
 
    0.12233E+08         0.22679E+06         0.00000E+00
    0.22679E+06         0.28420E+08         0.00000E+00
    0.00000E+00         0.00000E+00         0.12196E+08
 
    0.12211E+08         0.23299E+06         0.00000E+00
    0.23299E+06         0.28367E+08         0.00000E+00
    0.00000E+00         0.00000E+00         0.12174E+08
 
    0.12188E+08         0.23918E+06         0.00000E+00
    0.23918E+06         0.28314E+08         0.00000E+00
    0.00000E+00         0.00000E+00         0.12151E+08
 
    0.12165E+08         0.24540E+06         0.00000E+00
    0.24540E+06         0.28259E+08         0.00000E+00
    0.00000E+00         0.00000E+00         0.12127E+08
 
    0.12142E+08         0.25163E+06         0.00000E+00
    0.25163E+06         0.28203E+08         0.00000E+00
    0.00000E+00         0.00000E+00         0.12103E+08
 
    0.12118E+08         0.25789E+06         0.00000E+00
    0.25789E+06         0.28146E+08         0.00000E+00
    0.00000E+00         0.00000E+00         0.12079E+08
 
    0.12093E+08         0.26419E+06         0.00000E+00
    0.26419E+06         0.28087E+08         0.00000E+00
    0.00000E+00         0.00000E+00         0.12054E+08
 
    0.12068E+08         0.27052E+06         0.00000E+00
    0.27052E+06         0.28028E+08         0.00000E+00
    0.00000E+00         0.00000E+00         0.12029E+08
 
    0.12042E+08         0.27690E+06         0.00000E+00
    0.27690E+06         0.27966E+08         0.00000E+00
    0.00000E+00         0.00000E+00         0.12003E+08
 
    0.12016E+08         0.28332E+06         0.00000E+00
    0.28332E+06         0.27904E+08         0.00000E+00
    0.00000E+00         0.00000E+00         0.11976E+08
 
    0.11989E+08         0.28979E+06         0.00000E+00
    0.28979E+06         0.27839E+08         0.00000E+00
    0.00000E+00         0.00000E+00         0.11949E+08
 
    0.11962E+08         0.29631E+06         0.00000E+00
    0.29631E+06         0.27774E+08         0.00000E+00
    0.00000E+00         0.00000E+00         0.11921E+08
 
    0.11933E+08         0.30288E+06         0.00000E+00
    0.30288E+06         0.27706E+08         0.00000E+00
    0.00000E+00         0.00000E+00         0.11892E+08
 
    0.11904E+08         0.30950E+06         0.00000E+00
    0.30950E+06         0.27638E+08         0.00000E+00
    0.00000E+00         0.00000E+00         0.11863E+08
 
    0.11875E+08         0.31616E+06         0.00000E+00
    0.31616E+06         0.27567E+08         0.00000E+00
    0.00000E+00         0.00000E+00         0.11833E+08
 
    0.11844E+08         0.32286E+06         0.00000E+00
    0.32286E+06         0.27495E+08         0.00000E+00
    0.00000E+00         0.00000E+00         0.11802E+08
 
    0.11813E+08         0.32960E+06         0.00000E+00
    0.32960E+06         0.27421E+08         0.00000E+00
    0.00000E+00         0.00000E+00         0.11770E+08
 
    0.11781E+08         0.33637E+06         0.00000E+00
    0.33637E+06         0.27345E+08         0.00000E+00
    0.00000E+00         0.00000E+00         0.11738E+08
 
    0.11748E+08         0.34318E+06         0.00000E+00
    0.34318E+06         0.27268E+08         0.00000E+00
    0.00000E+00         0.00000E+00         0.11705E+08
 
    0.11715E+08         0.35000E+06         0.00000E+00
    0.35000E+06         0.27188E+08         0.00000E+00
    0.00000E+00         0.00000E+00         0.11671E+08
 
    0.11680E+08         0.35684E+06         0.00000E+00
    0.35684E+06         0.27107E+08         0.00000E+00
    0.00000E+00         0.00000E+00         0.11636E+08
 
    0.11645E+08         0.36368E+06         0.00000E+00
    0.36368E+06         0.27024E+08         0.00000E+00
    0.00000E+00         0.00000E+00         0.11601E+08
 
    0.11608E+08         0.37052E+06         0.00000E+00
    0.37052E+06         0.26939E+08         0.00000E+00
    0.00000E+00         0.00000E+00         0.11564E+08
 
    0.11571E+08         0.37735E+06         0.00000E+00
    0.37735E+06         0.26852E+08         0.00000E+00
    0.00000E+00         0.00000E+00         0.11527E+08
 
    0.11533E+08         0.38415E+06         0.00000E+00
    0.38415E+06         0.26763E+08         0.00000E+00
    0.00000E+00         0.00000E+00         0.11489E+08
 
    0.11493E+08         0.39091E+06         0.00000E+00
    0.39091E+06         0.26672E+08         0.00000E+00
    0.00000E+00         0.00000E+00         0.11450E+08
 
    0.11453E+08         0.39763E+06         0.00000E+00
    0.39763E+06         0.26578E+08         0.00000E+00
    0.00000E+00         0.00000E+00         0.11409E+08
 
    0.11412E+08         0.40427E+06         0.00000E+00
    0.40427E+06         0.26483E+08         0.00000E+00
    0.00000E+00         0.00000E+00         0.11369E+08
 
    0.11370E+08         0.41083E+06         0.00000E+00
    0.41083E+06         0.26386E+08         0.00000E+00
    0.00000E+00         0.00000E+00         0.11327E+08
 
    0.11326E+08         0.41730E+06         0.00000E+00
    0.41730E+06         0.26286E+08         0.00000E+00
    0.00000E+00         0.00000E+00         0.11284E+08
 
    0.11282E+08         0.42364E+06         0.00000E+00
    0.42364E+06         0.26184E+08         0.00000E+00
    0.00000E+00         0.00000E+00         0.11240E+08
 
    0.11236E+08         0.42985E+06         0.00000E+00
    0.42985E+06         0.26080E+08         0.00000E+00
    0.00000E+00         0.00000E+00         0.11195E+08
 
    0.11189E+08         0.43589E+06         0.00000E+00
    0.43589E+06         0.25974E+08         0.00000E+00
    0.00000E+00         0.00000E+00         0.11149E+08
 
    0.11141E+08         0.44175E+06         0.00000E+00
    0.44175E+06         0.25865E+08         0.00000E+00
    0.00000E+00         0.00000E+00         0.11102E+08
 
    0.11092E+08         0.44740E+06         0.00000E+00
    0.44740E+06         0.25755E+08         0.00000E+00
    0.00000E+00         0.00000E+00         0.11054E+08
 
    0.11042E+08         0.45281E+06         0.00000E+00
    0.45281E+06         0.25642E+08         0.00000E+00
    0.00000E+00         0.00000E+00         0.11005E+08
 
    0.10990E+08         0.45795E+06         0.00000E+00
    0.45795E+06         0.25526E+08         0.00000E+00
    0.00000E+00         0.00000E+00         0.10955E+08
 
    0.10938E+08         0.46279E+06         0.00000E+00
    0.46279E+06         0.25409E+08         0.00000E+00
    0.00000E+00         0.00000E+00         0.10904E+08
 
    0.10883E+08         0.46729E+06         0.00000E+00
    0.46729E+06         0.25289E+08         0.00000E+00
    0.00000E+00         0.00000E+00         0.10852E+08
 
    0.10828E+08         0.47142E+06         0.00000E+00
    0.47142E+06         0.25167E+08         0.00000E+00
    0.00000E+00         0.00000E+00         0.10798E+08
 
    0.10771E+08         0.47514E+06         0.00000E+00
    0.47514E+06         0.25042E+08         0.00000E+00
    0.00000E+00         0.00000E+00         0.10744E+08
 
    0.10713E+08         0.47840E+06         0.00000E+00
    0.47840E+06         0.24915E+08         0.00000E+00
    0.00000E+00         0.00000E+00         0.10688E+08
 
    0.10654E+08         0.48116E+06         0.00000E+00
    0.48116E+06         0.24786E+08         0.00000E+00
    0.00000E+00         0.00000E+00         0.10632E+08
 
    0.10593E+08         0.48336E+06         0.00000E+00
    0.48336E+06         0.24654E+08         0.00000E+00
    0.00000E+00         0.00000E+00         0.10574E+08
 
    0.10530E+08         0.48496E+06         0.00000E+00
    0.48496E+06         0.24520E+08         0.00000E+00
    0.00000E+00         0.00000E+00         0.10515E+08
 
    0.10466E+08         0.48588E+06         0.00000E+00
    0.48588E+06         0.24384E+08         0.00000E+00
    0.00000E+00         0.00000E+00         0.10455E+08
 
    0.10401E+08         0.48607E+06         0.00000E+00
    0.48607E+06         0.24245E+08         0.00000E+00
    0.00000E+00         0.00000E+00         0.10394E+08
 
    0.10334E+08         0.48546E+06         0.00000E+00
    0.48546E+06         0.24104E+08         0.00000E+00
    0.00000E+00         0.00000E+00         0.10331E+08
 
    0.10266E+08         0.48398E+06         0.00000E+00
    0.48398E+06         0.23960E+08         0.00000E+00
    0.00000E+00         0.00000E+00         0.10268E+08
 
    0.10195E+08         0.48154E+06         0.00000E+00
    0.48154E+06         0.23814E+08         0.00000E+00
    0.00000E+00         0.00000E+00         0.10203E+08
 
    0.10124E+08         0.47807E+06         0.00000E+00
    0.47807E+06         0.23666E+08         0.00000E+00
    0.00000E+00         0.00000E+00         0.10137E+08
 
    0.10050E+08         0.47347E+06         0.00000E+00
    0.47347E+06         0.23515E+08         0.00000E+00
    0.00000E+00         0.00000E+00         0.10070E+08
 
    0.99752E+07         0.46765E+06         0.00000E+00
    0.46765E+06         0.23362E+08         0.00000E+00
    0.00000E+00         0.00000E+00         0.10001E+08
 
    0.98985E+07         0.46052E+06         0.00000E+00
    0.46052E+06         0.23207E+08         0.00000E+00
    0.00000E+00         0.00000E+00         0.99316E+07
 
    0.98200E+07         0.45198E+06         0.00000E+00
    0.45198E+06         0.23049E+08         0.00000E+00
    0.00000E+00         0.00000E+00         0.98607E+07
 
    0.97399E+07         0.44193E+06         0.00000E+00
    0.44193E+06         0.22889E+08         0.00000E+00
    0.00000E+00         0.00000E+00         0.97886E+07
 
    0.96581E+07         0.43026E+06         0.00000E+00
    0.43026E+06         0.22726E+08         0.00000E+00
    0.00000E+00         0.00000E+00         0.97153E+07
 
    0.95748E+07         0.41690E+06         0.00000E+00
    0.41690E+06         0.22561E+08         0.00000E+00
    0.00000E+00         0.00000E+00         0.96408E+07
 
    0.94900E+07         0.40174E+06         0.00000E+00
    0.40174E+06         0.22394E+08         0.00000E+00
    0.00000E+00         0.00000E+00         0.95652E+07
 
    0.94037E+07         0.38472E+06         0.00000E+00
    0.38472E+06         0.22225E+08         0.00000E+00
    0.00000E+00         0.00000E+00         0.94886E+07
 
    0.93162E+07         0.36576E+06         0.00000E+00
    0.36576E+06         0.22054E+08         0.00000E+00
    0.00000E+00         0.00000E+00         0.94111E+07
 
    0.92276E+07         0.34483E+06         0.00000E+00
    0.34483E+06         0.21882E+08         0.00000E+00
    0.00000E+00         0.00000E+00         0.93328E+07
 
    0.91379E+07         0.32192E+06         0.00000E+00
    0.32192E+06         0.21709E+08         0.00000E+00
    0.00000E+00         0.00000E+00         0.92540E+07
 
    0.90472E+07         0.29703E+06         0.00000E+00
    0.29703E+06         0.21536E+08         0.00000E+00
    0.00000E+00         0.00000E+00         0.91749E+07
 
    0.89556E+07         0.27022E+06         0.00000E+00
    0.27022E+06         0.21363E+08         0.00000E+00
    0.00000E+00         0.00000E+00         0.90957E+07
 
    0.88629E+07         0.24157E+06         0.00000E+00
    0.24157E+06         0.21194E+08         0.00000E+00
    0.00000E+00         0.00000E+00         0.90170E+07
 
    0.87686E+07         0.21123E+06         0.00000E+00
    0.21123E+06         0.21028E+08         0.00000E+00
    0.00000E+00         0.00000E+00         0.89391E+07
 
    0.86717E+07         0.17935E+06         0.00000E+00
    0.17935E+06         0.20870E+08         0.00000E+00
    0.00000E+00         0.00000E+00         0.88624E+07
 
    0.85708E+07         0.14615E+06         0.00000E+00
    0.14615E+06         0.20720E+08         0.00000E+00
    0.00000E+00         0.00000E+00         0.87874E+07
 
    0.84631E+07         0.11199E+06         0.00000E+00
    0.11199E+06         0.20584E+08         0.00000E+00
    0.00000E+00         0.00000E+00         0.87142E+07
 
    0.83450E+07         0.77725E+05         0.00000E+00
    0.77725E+05         0.20464E+08         0.00000E+00
    0.00000E+00         0.00000E+00         0.86427E+07
 
    0.82124E+07         0.44869E+05         0.00000E+00
    0.44869E+05         0.20361E+08         0.00000E+00
    0.00000E+00         0.00000E+00         0.85721E+07
 
    0.80625E+07         0.14512E+05         0.00000E+00
    0.14512E+05         0.20275E+08         0.00000E+00
    0.00000E+00         0.00000E+00         0.85013E+07
 
    0.12817E+08         0.43485E+04         0.00000E+00
    0.43485E+04         0.29511E+08         0.00000E+00
    0.00000E+00         0.00000E+00         0.12699E+08
 
    0.12785E+08         0.13352E+05         0.00000E+00
    0.13352E+05         0.29492E+08         0.00000E+00
    0.00000E+00         0.00000E+00         0.12683E+08
 
    0.12756E+08         0.22985E+05         0.00000E+00
    0.22985E+05         0.29470E+08         0.00000E+00
    0.00000E+00         0.00000E+00         0.12668E+08
 
    0.12730E+08         0.33105E+05         0.00000E+00
    0.33105E+05         0.29443E+08         0.00000E+00
    0.00000E+00         0.00000E+00         0.12652E+08
 
    0.12707E+08         0.43413E+05         0.00000E+00
    0.43413E+05         0.29413E+08         0.00000E+00
    0.00000E+00         0.00000E+00         0.12636E+08
 
    0.12685E+08         0.53701E+05         0.00000E+00
    0.53701E+05         0.29380E+08         0.00000E+00
    0.00000E+00         0.00000E+00         0.12620E+08
 
    0.12664E+08         0.63854E+05         0.00000E+00
    0.63854E+05         0.29345E+08         0.00000E+00
    0.00000E+00         0.00000E+00         0.12603E+08
 
    0.12644E+08         0.73801E+05         0.00000E+00
    0.73801E+05         0.29307E+08         0.00000E+00
    0.00000E+00         0.00000E+00         0.12585E+08
 
    0.12624E+08         0.83492E+05         0.00000E+00
    0.83492E+05         0.29269E+08         0.00000E+00
    0.00000E+00         0.00000E+00         0.12568E+08
 
    0.12604E+08         0.92893E+05         0.00000E+00
    0.92893E+05         0.29229E+08         0.00000E+00
    0.00000E+00         0.00000E+00         0.12550E+08
 
    0.12584E+08         0.10198E+06         0.00000E+00
    0.10198E+06         0.29189E+08         0.00000E+00
    0.00000E+00         0.00000E+00         0.12532E+08
 
    0.12564E+08         0.11076E+06         0.00000E+00
    0.11076E+06         0.29148E+08         0.00000E+00
    0.00000E+00         0.00000E+00         0.12514E+08
 
    0.12544E+08         0.11921E+06         0.00000E+00
    0.11921E+06         0.29107E+08         0.00000E+00
    0.00000E+00         0.00000E+00         0.12495E+08
 
    0.12524E+08         0.12736E+06         0.00000E+00
    0.12736E+06         0.29065E+08         0.00000E+00
    0.00000E+00         0.00000E+00         0.12477E+08
 
    0.12504E+08         0.13521E+06         0.00000E+00
    0.13521E+06         0.29023E+08         0.00000E+00
    0.00000E+00         0.00000E+00         0.12458E+08
 
    0.12484E+08         0.14280E+06         0.00000E+00
    0.14280E+06         0.28980E+08         0.00000E+00
    0.00000E+00         0.00000E+00         0.12439E+08
 
    0.12464E+08         0.15013E+06         0.00000E+00
    0.15013E+06         0.28937E+08         0.00000E+00
    0.00000E+00         0.00000E+00         0.12420E+08
 
    0.12444E+08         0.15723E+06         0.00000E+00
    0.15723E+06         0.28893E+08         0.00000E+00
    0.00000E+00         0.00000E+00         0.12401E+08
 
    0.12424E+08         0.16413E+06         0.00000E+00
    0.16413E+06         0.28849E+08         0.00000E+00
    0.00000E+00         0.00000E+00         0.12382E+08
 
    0.12404E+08         0.17085E+06         0.00000E+00
    0.17085E+06         0.28804E+08         0.00000E+00
    0.00000E+00         0.00000E+00         0.12363E+08
 
    0.12384E+08         0.17742E+06         0.00000E+00
    0.17742E+06         0.28759E+08         0.00000E+00
    0.00000E+00         0.00000E+00         0.12343E+08
 
    0.12364E+08         0.18386E+06         0.00000E+00
    0.18386E+06         0.28713E+08         0.00000E+00
    0.00000E+00         0.00000E+00         0.12323E+08
 
    0.12343E+08         0.19019E+06         0.00000E+00
    0.19019E+06         0.28666E+08         0.00000E+00
    0.00000E+00         0.00000E+00         0.12303E+08
 
    0.12322E+08         0.19642E+06         0.00000E+00
    0.19642E+06         0.28618E+08         0.00000E+00
    0.00000E+00         0.00000E+00         0.12282E+08
 
    0.12301E+08         0.20259E+06         0.00000E+00
    0.20259E+06         0.28570E+08         0.00000E+00
    0.00000E+00         0.00000E+00         0.12261E+08
 
    0.12280E+08         0.20871E+06         0.00000E+00
    0.20871E+06         0.28520E+08         0.00000E+00
    0.00000E+00         0.00000E+00         0.12240E+08
 
    0.12259E+08         0.21479E+06         0.00000E+00
    0.21479E+06         0.28470E+08         0.00000E+00
    0.00000E+00         0.00000E+00         0.12219E+08
 
    0.12237E+08         0.22084E+06         0.00000E+00
    0.22084E+06         0.28419E+08         0.00000E+00
    0.00000E+00         0.00000E+00         0.12197E+08
 
    0.12215E+08         0.22688E+06         0.00000E+00
    0.22688E+06         0.28366E+08         0.00000E+00
    0.00000E+00         0.00000E+00         0.12174E+08
 
    0.12192E+08         0.23293E+06         0.00000E+00
    0.23293E+06         0.28313E+08         0.00000E+00
    0.00000E+00         0.00000E+00         0.12151E+08
 
    0.12169E+08         0.23899E+06         0.00000E+00
    0.23899E+06         0.28258E+08         0.00000E+00
    0.00000E+00         0.00000E+00         0.12128E+08
 
    0.12145E+08         0.24506E+06         0.00000E+00
    0.24506E+06         0.28202E+08         0.00000E+00
    0.00000E+00         0.00000E+00         0.12104E+08
 
    0.12121E+08         0.25116E+06         0.00000E+00
    0.25116E+06         0.28145E+08         0.00000E+00
    0.00000E+00         0.00000E+00         0.12080E+08
 
    0.12097E+08         0.25729E+06         0.00000E+00
    0.25729E+06         0.28086E+08         0.00000E+00
    0.00000E+00         0.00000E+00         0.12055E+08
 
    0.12072E+08         0.26346E+06         0.00000E+00
    0.26346E+06         0.28026E+08         0.00000E+00
    0.00000E+00         0.00000E+00         0.12029E+08
 
    0.12046E+08         0.26967E+06         0.00000E+00
    0.26967E+06         0.27965E+08         0.00000E+00
    0.00000E+00         0.00000E+00         0.12003E+08
 
    0.12020E+08         0.27593E+06         0.00000E+00
    0.27593E+06         0.27902E+08         0.00000E+00
    0.00000E+00         0.00000E+00         0.11977E+08
 
    0.11993E+08         0.28223E+06         0.00000E+00
    0.28223E+06         0.27838E+08         0.00000E+00
    0.00000E+00         0.00000E+00         0.11949E+08
 
    0.11965E+08         0.28857E+06         0.00000E+00
    0.28857E+06         0.27772E+08         0.00000E+00
    0.00000E+00         0.00000E+00         0.11921E+08
 
    0.11937E+08         0.29496E+06         0.00000E+00
    0.29496E+06         0.27705E+08         0.00000E+00
    0.00000E+00         0.00000E+00         0.11893E+08
 
    0.11908E+08         0.30139E+06         0.00000E+00
    0.30139E+06         0.27636E+08         0.00000E+00
    0.00000E+00         0.00000E+00         0.11863E+08
 
    0.11879E+08         0.30787E+06         0.00000E+00
    0.30787E+06         0.27566E+08         0.00000E+00
    0.00000E+00         0.00000E+00         0.11833E+08
 
    0.11848E+08         0.31439E+06         0.00000E+00
    0.31439E+06         0.27494E+08         0.00000E+00
    0.00000E+00         0.00000E+00         0.11803E+08
 
    0.11817E+08         0.32094E+06         0.00000E+00
    0.32094E+06         0.27420E+08         0.00000E+00
    0.00000E+00         0.00000E+00         0.11771E+08
 
    0.11785E+08         0.32753E+06         0.00000E+00
    0.32753E+06         0.27344E+08         0.00000E+00
    0.00000E+00         0.00000E+00         0.11739E+08
 
    0.11752E+08         0.33414E+06         0.00000E+00
    0.33414E+06         0.27266E+08         0.00000E+00
    0.00000E+00         0.00000E+00         0.11706E+08
 
    0.11719E+08         0.34077E+06         0.00000E+00
    0.34077E+06         0.27187E+08         0.00000E+00
    0.00000E+00         0.00000E+00         0.11672E+08
 
    0.11684E+08         0.34741E+06         0.00000E+00
    0.34741E+06         0.27106E+08         0.00000E+00
    0.00000E+00         0.00000E+00         0.11637E+08
 
    0.11649E+08         0.35405E+06         0.00000E+00
    0.35405E+06         0.27023E+08         0.00000E+00
    0.00000E+00         0.00000E+00         0.11601E+08
 
    0.11612E+08         0.36070E+06         0.00000E+00
    0.36070E+06         0.26938E+08         0.00000E+00
    0.00000E+00         0.00000E+00         0.11565E+08
 
    0.11575E+08         0.36732E+06         0.00000E+00
    0.36732E+06         0.26851E+08         0.00000E+00
    0.00000E+00         0.00000E+00         0.11528E+08
 
    0.11537E+08         0.37392E+06         0.00000E+00
    0.37392E+06         0.26761E+08         0.00000E+00
    0.00000E+00         0.00000E+00         0.11489E+08
 
    0.11498E+08         0.38048E+06         0.00000E+00
    0.38048E+06         0.26670E+08         0.00000E+00
    0.00000E+00         0.00000E+00         0.11450E+08
 
    0.11457E+08         0.38699E+06         0.00000E+00
    0.38699E+06         0.26577E+08         0.00000E+00
    0.00000E+00         0.00000E+00         0.11410E+08
 
    0.11416E+08         0.39344E+06         0.00000E+00
    0.39344E+06         0.26482E+08         0.00000E+00
    0.00000E+00         0.00000E+00         0.11369E+08
 
    0.11374E+08         0.39980E+06         0.00000E+00
    0.39980E+06         0.26384E+08         0.00000E+00
    0.00000E+00         0.00000E+00         0.11327E+08
 
    0.11330E+08         0.40606E+06         0.00000E+00
    0.40606E+06         0.26285E+08         0.00000E+00
    0.00000E+00         0.00000E+00         0.11284E+08
 
    0.11286E+08         0.41220E+06         0.00000E+00
    0.41220E+06         0.26183E+08         0.00000E+00
    0.00000E+00         0.00000E+00         0.11241E+08
 
    0.11240E+08         0.41821E+06         0.00000E+00
    0.41821E+06         0.26079E+08         0.00000E+00
    0.00000E+00         0.00000E+00         0.11196E+08
 
    0.11193E+08         0.42406E+06         0.00000E+00
    0.42406E+06         0.25973E+08         0.00000E+00
    0.00000E+00         0.00000E+00         0.11150E+08
 
    0.11145E+08         0.42972E+06         0.00000E+00
    0.42972E+06         0.25864E+08         0.00000E+00
    0.00000E+00         0.00000E+00         0.11103E+08
 
    0.11096E+08         0.43518E+06         0.00000E+00
    0.43518E+06         0.25754E+08         0.00000E+00
    0.00000E+00         0.00000E+00         0.11055E+08
 
    0.11045E+08         0.44040E+06         0.00000E+00
    0.44040E+06         0.25641E+08         0.00000E+00
    0.00000E+00         0.00000E+00         0.11006E+08
 
    0.10994E+08         0.44535E+06         0.00000E+00
    0.44535E+06         0.25525E+08         0.00000E+00
    0.00000E+00         0.00000E+00         0.10956E+08
 
    0.10941E+08         0.45001E+06         0.00000E+00
    0.45001E+06         0.25408E+08         0.00000E+00
    0.00000E+00         0.00000E+00         0.10905E+08
 
    0.10886E+08         0.45435E+06         0.00000E+00
    0.45435E+06         0.25288E+08         0.00000E+00
    0.00000E+00         0.00000E+00         0.10852E+08
 
    0.10831E+08         0.45831E+06         0.00000E+00
    0.45831E+06         0.25166E+08         0.00000E+00
    0.00000E+00         0.00000E+00         0.10799E+08
 
    0.10774E+08         0.46187E+06         0.00000E+00
    0.46187E+06         0.25041E+08         0.00000E+00
    0.00000E+00         0.00000E+00         0.10745E+08
 
    0.10716E+08         0.46498E+06         0.00000E+00
    0.46498E+06         0.24914E+08         0.00000E+00
    0.00000E+00         0.00000E+00         0.10689E+08
 
    0.10656E+08         0.46759E+06         0.00000E+00
    0.46759E+06         0.24785E+08         0.00000E+00
    0.00000E+00         0.00000E+00         0.10632E+08
 
    0.10595E+08         0.46966E+06         0.00000E+00
    0.46966E+06         0.24654E+08         0.00000E+00
    0.00000E+00         0.00000E+00         0.10574E+08
 
    0.10532E+08         0.47113E+06         0.00000E+00
    0.47113E+06         0.24520E+08         0.00000E+00
    0.00000E+00         0.00000E+00         0.10515E+08
 
    0.10468E+08         0.47194E+06         0.00000E+00
    0.47194E+06         0.24383E+08         0.00000E+00
    0.00000E+00         0.00000E+00         0.10455E+08
 
    0.10402E+08         0.47203E+06         0.00000E+00
    0.47203E+06         0.24245E+08         0.00000E+00
    0.00000E+00         0.00000E+00         0.10394E+08
 
    0.10335E+08         0.47134E+06         0.00000E+00
    0.47134E+06         0.24104E+08         0.00000E+00
    0.00000E+00         0.00000E+00         0.10332E+08
 
    0.10266E+08         0.46978E+06         0.00000E+00
    0.46978E+06         0.23961E+08         0.00000E+00
    0.00000E+00         0.00000E+00         0.10268E+08
 
    0.10195E+08         0.46728E+06         0.00000E+00
    0.46728E+06         0.23815E+08         0.00000E+00
    0.00000E+00         0.00000E+00         0.10203E+08
 
    0.10123E+08         0.46376E+06         0.00000E+00
    0.46376E+06         0.23667E+08         0.00000E+00
    0.00000E+00         0.00000E+00         0.10137E+08
 
    0.10049E+08         0.45912E+06         0.00000E+00
    0.45912E+06         0.23517E+08         0.00000E+00
    0.00000E+00         0.00000E+00         0.10070E+08
 
    0.99731E+07         0.45329E+06         0.00000E+00
    0.45329E+06         0.23364E+08         0.00000E+00
    0.00000E+00         0.00000E+00         0.10001E+08
 
    0.98957E+07         0.44615E+06         0.00000E+00
    0.44615E+06         0.23208E+08         0.00000E+00
    0.00000E+00         0.00000E+00         0.99313E+07
 
    0.98165E+07         0.43761E+06         0.00000E+00
    0.43761E+06         0.23051E+08         0.00000E+00
    0.00000E+00         0.00000E+00         0.98602E+07
 
    0.97356E+07         0.42757E+06         0.00000E+00
    0.42757E+06         0.22891E+08         0.00000E+00
    0.00000E+00         0.00000E+00         0.97880E+07
 
    0.96530E+07         0.41592E+06         0.00000E+00
    0.41592E+06         0.22729E+08         0.00000E+00
    0.00000E+00         0.00000E+00         0.97145E+07
 
    0.95688E+07         0.40257E+06         0.00000E+00
    0.40257E+06         0.22564E+08         0.00000E+00
    0.00000E+00         0.00000E+00         0.96399E+07
 
    0.94830E+07         0.38742E+06         0.00000E+00
    0.38742E+06         0.22397E+08         0.00000E+00
    0.00000E+00         0.00000E+00         0.95641E+07
 
    0.93957E+07         0.37040E+06         0.00000E+00
    0.37040E+06         0.22229E+08         0.00000E+00
    0.00000E+00         0.00000E+00         0.94873E+07
 
    0.93071E+07         0.35144E+06         0.00000E+00
    0.35144E+06         0.22058E+08         0.00000E+00
    0.00000E+00         0.00000E+00         0.94096E+07
 
    0.92172E+07         0.33050E+06         0.00000E+00
    0.33050E+06         0.21886E+08         0.00000E+00
    0.00000E+00         0.00000E+00         0.93310E+07
 
    0.91262E+07         0.30757E+06         0.00000E+00
    0.30757E+06         0.21714E+08         0.00000E+00
    0.00000E+00         0.00000E+00         0.92519E+07
 
    0.90342E+07         0.28268E+06         0.00000E+00
    0.28268E+06         0.21541E+08         0.00000E+00
    0.00000E+00         0.00000E+00         0.91725E+07
 
    0.89410E+07         0.25590E+06         0.00000E+00
    0.25590E+06         0.21369E+08         0.00000E+00
    0.00000E+00         0.00000E+00         0.90930E+07
 
    0.88465E+07         0.22736E+06         0.00000E+00
    0.22736E+06         0.21200E+08         0.00000E+00
    0.00000E+00         0.00000E+00         0.90139E+07
 
    0.87503E+07         0.19728E+06         0.00000E+00
    0.19728E+06         0.21035E+08         0.00000E+00
    0.00000E+00         0.00000E+00         0.89355E+07
 
    0.86513E+07         0.16594E+06         0.00000E+00
    0.16594E+06         0.20876E+08         0.00000E+00
    0.00000E+00         0.00000E+00         0.88582E+07
 
    0.85480E+07         0.13370E+06         0.00000E+00
    0.13370E+06         0.20727E+08         0.00000E+00
    0.00000E+00         0.00000E+00         0.87825E+07
 
    0.84377E+07         0.10115E+06         0.00000E+00
    0.10115E+06         0.20591E+08         0.00000E+00
    0.00000E+00         0.00000E+00         0.87086E+07
 
    0.83171E+07         0.69305E+05         0.00000E+00
    0.69305E+05         0.20470E+08         0.00000E+00
    0.00000E+00         0.00000E+00         0.86362E+07
 
    0.81825E+07         0.39599E+05         0.00000E+00
    0.39599E+05         0.20367E+08         0.00000E+00
    0.00000E+00         0.00000E+00         0.85649E+07
 
    0.80315E+07         0.12736E+05         0.00000E+00
    0.12736E+05         0.20281E+08         0.00000E+00
    0.00000E+00         0.00000E+00         0.84936E+07
 
    0.12825E+08         0.39610E+04         0.00000E+00
    0.39610E+04         0.29509E+08         0.00000E+00
    0.00000E+00         0.00000E+00         0.12700E+08
 
    0.12793E+08         0.12200E+05         0.00000E+00
    0.12200E+05         0.29490E+08         0.00000E+00
    0.00000E+00         0.00000E+00         0.12685E+08
 
    0.12764E+08         0.21131E+05         0.00000E+00
    0.21131E+05         0.29468E+08         0.00000E+00
    0.00000E+00         0.00000E+00         0.12669E+08
 
    0.12737E+08         0.30682E+05         0.00000E+00
    0.30682E+05         0.29441E+08         0.00000E+00
    0.00000E+00         0.00000E+00         0.12654E+08
 
    0.12714E+08         0.40580E+05         0.00000E+00
    0.40580E+05         0.29411E+08         0.00000E+00
    0.00000E+00         0.00000E+00         0.12637E+08
 
    0.12691E+08         0.50589E+05         0.00000E+00
    0.50589E+05         0.29378E+08         0.00000E+00
    0.00000E+00         0.00000E+00         0.12621E+08
 
    0.12670E+08         0.60550E+05         0.00000E+00
    0.60550E+05         0.29343E+08         0.00000E+00
    0.00000E+00         0.00000E+00         0.12604E+08
 
    0.12649E+08         0.70359E+05         0.00000E+00
    0.70359E+05         0.29306E+08         0.00000E+00
    0.00000E+00         0.00000E+00         0.12586E+08
 
    0.12629E+08         0.79942E+05         0.00000E+00
    0.79942E+05         0.29267E+08         0.00000E+00
    0.00000E+00         0.00000E+00         0.12569E+08
 
    0.12608E+08         0.89247E+05         0.00000E+00
    0.89247E+05         0.29228E+08         0.00000E+00
    0.00000E+00         0.00000E+00         0.12551E+08
 
    0.12588E+08         0.98246E+05         0.00000E+00
    0.98246E+05         0.29187E+08         0.00000E+00
    0.00000E+00         0.00000E+00         0.12533E+08
 
    0.12568E+08         0.10692E+06         0.00000E+00
    0.10692E+06         0.29146E+08         0.00000E+00
    0.00000E+00         0.00000E+00         0.12514E+08
 
    0.12548E+08         0.11528E+06         0.00000E+00
    0.11528E+06         0.29105E+08         0.00000E+00
    0.00000E+00         0.00000E+00         0.12496E+08
 
    0.12528E+08         0.12332E+06         0.00000E+00
    0.12332E+06         0.29063E+08         0.00000E+00
    0.00000E+00         0.00000E+00         0.12477E+08
 
    0.12508E+08         0.13106E+06         0.00000E+00
    0.13106E+06         0.29021E+08         0.00000E+00
    0.00000E+00         0.00000E+00         0.12459E+08
 
    0.12488E+08         0.13853E+06         0.00000E+00
    0.13853E+06         0.28979E+08         0.00000E+00
    0.00000E+00         0.00000E+00         0.12440E+08
 
    0.12468E+08         0.14573E+06         0.00000E+00
    0.14573E+06         0.28935E+08         0.00000E+00
    0.00000E+00         0.00000E+00         0.12421E+08
 
    0.12448E+08         0.15271E+06         0.00000E+00
    0.15271E+06         0.28892E+08         0.00000E+00
    0.00000E+00         0.00000E+00         0.12402E+08
 
    0.12428E+08         0.15948E+06         0.00000E+00
    0.15948E+06         0.28848E+08         0.00000E+00
    0.00000E+00         0.00000E+00         0.12383E+08
 
    0.12408E+08         0.16606E+06         0.00000E+00
    0.16606E+06         0.28803E+08         0.00000E+00
    0.00000E+00         0.00000E+00         0.12363E+08
 
    0.12388E+08         0.17249E+06         0.00000E+00
    0.17249E+06         0.28758E+08         0.00000E+00
    0.00000E+00         0.00000E+00         0.12344E+08
 
    0.12367E+08         0.17879E+06         0.00000E+00
    0.17879E+06         0.28712E+08         0.00000E+00
    0.00000E+00         0.00000E+00         0.12324E+08
 
    0.12347E+08         0.18497E+06         0.00000E+00
    0.18497E+06         0.28665E+08         0.00000E+00
    0.00000E+00         0.00000E+00         0.12303E+08
 
    0.12326E+08         0.19107E+06         0.00000E+00
    0.19107E+06         0.28617E+08         0.00000E+00
    0.00000E+00         0.00000E+00         0.12283E+08
 
    0.12305E+08         0.19709E+06         0.00000E+00
    0.19709E+06         0.28569E+08         0.00000E+00
    0.00000E+00         0.00000E+00         0.12262E+08
 
    0.12284E+08         0.20306E+06         0.00000E+00
    0.20306E+06         0.28519E+08         0.00000E+00
    0.00000E+00         0.00000E+00         0.12241E+08
 
    0.12262E+08         0.20898E+06         0.00000E+00
    0.20898E+06         0.28469E+08         0.00000E+00
    0.00000E+00         0.00000E+00         0.12219E+08
 
    0.12240E+08         0.21489E+06         0.00000E+00
    0.21489E+06         0.28417E+08         0.00000E+00
    0.00000E+00         0.00000E+00         0.12197E+08
 
    0.12218E+08         0.22078E+06         0.00000E+00
    0.22078E+06         0.28365E+08         0.00000E+00
    0.00000E+00         0.00000E+00         0.12175E+08
 
    0.12195E+08         0.22667E+06         0.00000E+00
    0.22667E+06         0.28311E+08         0.00000E+00
    0.00000E+00         0.00000E+00         0.12152E+08
 
    0.12172E+08         0.23257E+06         0.00000E+00
    0.23257E+06         0.28257E+08         0.00000E+00
    0.00000E+00         0.00000E+00         0.12129E+08
 
    0.12149E+08         0.23849E+06         0.00000E+00
    0.23849E+06         0.28201E+08         0.00000E+00
    0.00000E+00         0.00000E+00         0.12105E+08
 
    0.12125E+08         0.24443E+06         0.00000E+00
    0.24443E+06         0.28143E+08         0.00000E+00
    0.00000E+00         0.00000E+00         0.12080E+08
 
    0.12100E+08         0.25040E+06         0.00000E+00
    0.25040E+06         0.28085E+08         0.00000E+00
    0.00000E+00         0.00000E+00         0.12056E+08
 
    0.12075E+08         0.25640E+06         0.00000E+00
    0.25640E+06         0.28025E+08         0.00000E+00
    0.00000E+00         0.00000E+00         0.12030E+08
 
    0.12050E+08         0.26244E+06         0.00000E+00
    0.26244E+06         0.27964E+08         0.00000E+00
    0.00000E+00         0.00000E+00         0.12004E+08
 
    0.12024E+08         0.26852E+06         0.00000E+00
    0.26852E+06         0.27901E+08         0.00000E+00
    0.00000E+00         0.00000E+00         0.11977E+08
 
    0.11997E+08         0.27465E+06         0.00000E+00
    0.27465E+06         0.27837E+08         0.00000E+00
    0.00000E+00         0.00000E+00         0.11950E+08
 
    0.11969E+08         0.28082E+06         0.00000E+00
    0.28082E+06         0.27771E+08         0.00000E+00
    0.00000E+00         0.00000E+00         0.11922E+08
 
    0.11941E+08         0.28703E+06         0.00000E+00
    0.28703E+06         0.27704E+08         0.00000E+00
    0.00000E+00         0.00000E+00         0.11893E+08
 
    0.11912E+08         0.29328E+06         0.00000E+00
    0.29328E+06         0.27635E+08         0.00000E+00
    0.00000E+00         0.00000E+00         0.11864E+08
 
    0.11883E+08         0.29958E+06         0.00000E+00
    0.29958E+06         0.27564E+08         0.00000E+00
    0.00000E+00         0.00000E+00         0.11834E+08
 
    0.11852E+08         0.30591E+06         0.00000E+00
    0.30591E+06         0.27492E+08         0.00000E+00
    0.00000E+00         0.00000E+00         0.11803E+08
 
    0.11821E+08         0.31228E+06         0.00000E+00
    0.31228E+06         0.27418E+08         0.00000E+00
    0.00000E+00         0.00000E+00         0.11772E+08
 
    0.11789E+08         0.31867E+06         0.00000E+00
    0.31867E+06         0.27343E+08         0.00000E+00
    0.00000E+00         0.00000E+00         0.11740E+08
 
    0.11756E+08         0.32509E+06         0.00000E+00
    0.32509E+06         0.27265E+08         0.00000E+00
    0.00000E+00         0.00000E+00         0.11706E+08
 
    0.11723E+08         0.33153E+06         0.00000E+00
    0.33153E+06         0.27186E+08         0.00000E+00
    0.00000E+00         0.00000E+00         0.11673E+08
 
    0.11688E+08         0.33797E+06         0.00000E+00
    0.33797E+06         0.27105E+08         0.00000E+00
    0.00000E+00         0.00000E+00         0.11638E+08
 
    0.11653E+08         0.34442E+06         0.00000E+00
    0.34442E+06         0.27021E+08         0.00000E+00
    0.00000E+00         0.00000E+00         0.11602E+08
 
    0.11616E+08         0.35087E+06         0.00000E+00
    0.35087E+06         0.26936E+08         0.00000E+00
    0.00000E+00         0.00000E+00         0.11566E+08
 
    0.11579E+08         0.35729E+06         0.00000E+00
    0.35729E+06         0.26849E+08         0.00000E+00
    0.00000E+00         0.00000E+00         0.11529E+08
 
    0.11541E+08         0.36369E+06         0.00000E+00
    0.36369E+06         0.26760E+08         0.00000E+00
    0.00000E+00         0.00000E+00         0.11490E+08
 
    0.11502E+08         0.37006E+06         0.00000E+00
    0.37006E+06         0.26669E+08         0.00000E+00
    0.00000E+00         0.00000E+00         0.11451E+08
 
    0.11461E+08         0.37637E+06         0.00000E+00
    0.37637E+06         0.26576E+08         0.00000E+00
    0.00000E+00         0.00000E+00         0.11411E+08
 
    0.11420E+08         0.38261E+06         0.00000E+00
    0.38261E+06         0.26481E+08         0.00000E+00
    0.00000E+00         0.00000E+00         0.11370E+08
 
    0.11378E+08         0.38877E+06         0.00000E+00
    0.38877E+06         0.26383E+08         0.00000E+00
    0.00000E+00         0.00000E+00         0.11328E+08
 
    0.11334E+08         0.39483E+06         0.00000E+00
    0.39483E+06         0.26284E+08         0.00000E+00
    0.00000E+00         0.00000E+00         0.11285E+08
 
    0.11290E+08         0.40078E+06         0.00000E+00
    0.40078E+06         0.26182E+08         0.00000E+00
    0.00000E+00         0.00000E+00         0.11241E+08
 
    0.11244E+08         0.40659E+06         0.00000E+00
    0.40659E+06         0.26078E+08         0.00000E+00
    0.00000E+00         0.00000E+00         0.11196E+08
 
    0.11197E+08         0.41224E+06         0.00000E+00
    0.41224E+06         0.25972E+08         0.00000E+00
    0.00000E+00         0.00000E+00         0.11151E+08
 
    0.11149E+08         0.41771E+06         0.00000E+00
    0.41771E+06         0.25863E+08         0.00000E+00
    0.00000E+00         0.00000E+00         0.11104E+08
 
    0.11099E+08         0.42298E+06         0.00000E+00
    0.42298E+06         0.25753E+08         0.00000E+00
    0.00000E+00         0.00000E+00         0.11056E+08
 
    0.11049E+08         0.42801E+06         0.00000E+00
    0.42801E+06         0.25640E+08         0.00000E+00
    0.00000E+00         0.00000E+00         0.11007E+08
 
    0.10997E+08         0.43279E+06         0.00000E+00
    0.43279E+06         0.25524E+08         0.00000E+00
    0.00000E+00         0.00000E+00         0.10956E+08
 
    0.10944E+08         0.43727E+06         0.00000E+00
    0.43727E+06         0.25407E+08         0.00000E+00
    0.00000E+00         0.00000E+00         0.10905E+08
 
    0.10889E+08         0.44144E+06         0.00000E+00
    0.44144E+06         0.25287E+08         0.00000E+00
    0.00000E+00         0.00000E+00         0.10853E+08
 
    0.10834E+08         0.44524E+06         0.00000E+00
    0.44524E+06         0.25165E+08         0.00000E+00
    0.00000E+00         0.00000E+00         0.10800E+08
 
    0.10777E+08         0.44864E+06         0.00000E+00
    0.44864E+06         0.25041E+08         0.00000E+00
    0.00000E+00         0.00000E+00         0.10745E+08
 
    0.10718E+08         0.45160E+06         0.00000E+00
    0.45160E+06         0.24914E+08         0.00000E+00
    0.00000E+00         0.00000E+00         0.10690E+08
 
    0.10658E+08         0.45408E+06         0.00000E+00
    0.45408E+06         0.24785E+08         0.00000E+00
    0.00000E+00         0.00000E+00         0.10633E+08
 
    0.10596E+08         0.45602E+06         0.00000E+00
    0.45602E+06         0.24653E+08         0.00000E+00
    0.00000E+00         0.00000E+00         0.10575E+08
 
    0.10533E+08         0.45737E+06         0.00000E+00
    0.45737E+06         0.24520E+08         0.00000E+00
    0.00000E+00         0.00000E+00         0.10516E+08
 
    0.10469E+08         0.45807E+06         0.00000E+00
    0.45807E+06         0.24383E+08         0.00000E+00
    0.00000E+00         0.00000E+00         0.10456E+08
 
    0.10403E+08         0.45807E+06         0.00000E+00
    0.45807E+06         0.24245E+08         0.00000E+00
    0.00000E+00         0.00000E+00         0.10394E+08
 
    0.10335E+08         0.45729E+06         0.00000E+00
    0.45729E+06         0.24104E+08         0.00000E+00
    0.00000E+00         0.00000E+00         0.10332E+08
 
    0.10266E+08         0.45567E+06         0.00000E+00
    0.45567E+06         0.23961E+08         0.00000E+00
    0.00000E+00         0.00000E+00         0.10268E+08
 
    0.10195E+08         0.45312E+06         0.00000E+00
    0.45312E+06         0.23816E+08         0.00000E+00
    0.00000E+00         0.00000E+00         0.10203E+08
 
    0.10122E+08         0.44956E+06         0.00000E+00
    0.44956E+06         0.23668E+08         0.00000E+00
    0.00000E+00         0.00000E+00         0.10137E+08
 
    0.10047E+08         0.44490E+06         0.00000E+00
    0.44490E+06         0.23518E+08         0.00000E+00
    0.00000E+00         0.00000E+00         0.10069E+08
 
    0.99710E+07         0.43905E+06         0.00000E+00
    0.43905E+06         0.23365E+08         0.00000E+00
    0.00000E+00         0.00000E+00         0.10001E+08
 
    0.98929E+07         0.43192E+06         0.00000E+00
    0.43192E+06         0.23210E+08         0.00000E+00
    0.00000E+00         0.00000E+00         0.99309E+07
 
    0.98131E+07         0.42339E+06         0.00000E+00
    0.42339E+06         0.23053E+08         0.00000E+00
    0.00000E+00         0.00000E+00         0.98597E+07
 
    0.97314E+07         0.41337E+06         0.00000E+00
    0.41337E+06         0.22893E+08         0.00000E+00
    0.00000E+00         0.00000E+00         0.97874E+07
 
    0.96480E+07         0.40174E+06         0.00000E+00
    0.40174E+06         0.22731E+08         0.00000E+00
    0.00000E+00         0.00000E+00         0.97137E+07
 
    0.95629E+07         0.38842E+06         0.00000E+00
    0.38842E+06         0.22567E+08         0.00000E+00
    0.00000E+00         0.00000E+00         0.96389E+07
 
    0.94761E+07         0.37330E+06         0.00000E+00
    0.37330E+06         0.22401E+08         0.00000E+00
    0.00000E+00         0.00000E+00         0.95630E+07
 
    0.93878E+07         0.35631E+06         0.00000E+00
    0.35631E+06         0.22232E+08         0.00000E+00
    0.00000E+00         0.00000E+00         0.94860E+07
 
    0.92980E+07         0.33736E+06         0.00000E+00
    0.33736E+06         0.22062E+08         0.00000E+00
    0.00000E+00         0.00000E+00         0.94080E+07
 
    0.92069E+07         0.31643E+06         0.00000E+00
    0.31643E+06         0.21891E+08         0.00000E+00
    0.00000E+00         0.00000E+00         0.93293E+07
 
    0.91146E+07         0.29351E+06         0.00000E+00
    0.29351E+06         0.21718E+08         0.00000E+00
    0.00000E+00         0.00000E+00         0.92499E+07
 
    0.90210E+07         0.26863E+06         0.00000E+00
    0.26863E+06         0.21546E+08         0.00000E+00
    0.00000E+00         0.00000E+00         0.91701E+07
 
    0.89263E+07         0.24191E+06         0.00000E+00
    0.24191E+06         0.21375E+08         0.00000E+00
    0.00000E+00         0.00000E+00         0.90903E+07
 
    0.88300E+07         0.21352E+06         0.00000E+00
    0.21352E+06         0.21206E+08         0.00000E+00
    0.00000E+00         0.00000E+00         0.90107E+07
 
    0.87319E+07         0.18374E+06         0.00000E+00
    0.18374E+06         0.21041E+08         0.00000E+00
    0.00000E+00         0.00000E+00         0.89318E+07
 
    0.86308E+07         0.15296E+06         0.00000E+00
    0.15296E+06         0.20882E+08         0.00000E+00
    0.00000E+00         0.00000E+00         0.88540E+07
 
    0.85251E+07         0.12173E+06         0.00000E+00
    0.12173E+06         0.20733E+08         0.00000E+00
    0.00000E+00         0.00000E+00         0.87776E+07
 
    0.84125E+07         0.90802E+05         0.00000E+00
    0.90802E+05         0.20597E+08         0.00000E+00
    0.00000E+00         0.00000E+00         0.87029E+07
 
    0.82896E+07         0.61332E+05         0.00000E+00
    0.61332E+05         0.20476E+08         0.00000E+00
    0.00000E+00         0.00000E+00         0.86298E+07
 
    0.81532E+07         0.34627E+05         0.00000E+00
    0.34627E+05         0.20373E+08         0.00000E+00
    0.00000E+00         0.00000E+00         0.85577E+07
 
    0.80013E+07         0.11061E+05         0.00000E+00
    0.11061E+05         0.20285E+08         0.00000E+00
    0.00000E+00         0.00000E+00         0.84860E+07
 
    0.12833E+08         0.35910E+04         0.00000E+00
    0.35910E+04         0.29508E+08         0.00000E+00
    0.00000E+00         0.00000E+00         0.12702E+08
 
    0.12801E+08         0.11100E+05         0.00000E+00
    0.11100E+05         0.29489E+08         0.00000E+00
    0.00000E+00         0.00000E+00         0.12687E+08
 
    0.12771E+08         0.19357E+05         0.00000E+00
    0.19357E+05         0.29466E+08         0.00000E+00
    0.00000E+00         0.00000E+00         0.12671E+08
 
    0.12745E+08         0.28352E+05         0.00000E+00
    0.28352E+05         0.29439E+08         0.00000E+00
    0.00000E+00         0.00000E+00         0.12655E+08
 
    0.12720E+08         0.37839E+05         0.00000E+00
    0.37839E+05         0.29409E+08         0.00000E+00
    0.00000E+00         0.00000E+00         0.12639E+08
 
    0.12697E+08         0.47560E+05         0.00000E+00
    0.47560E+05         0.29376E+08         0.00000E+00
    0.00000E+00         0.00000E+00         0.12622E+08
 
    0.12676E+08         0.57322E+05         0.00000E+00
    0.57322E+05         0.29341E+08         0.00000E+00
    0.00000E+00         0.00000E+00         0.12605E+08
 
    0.12655E+08         0.66984E+05         0.00000E+00
    0.66984E+05         0.29304E+08         0.00000E+00
    0.00000E+00         0.00000E+00         0.12587E+08
 
    0.12634E+08         0.76450E+05         0.00000E+00
    0.76450E+05         0.29265E+08         0.00000E+00
    0.00000E+00         0.00000E+00         0.12570E+08
 
    0.12613E+08         0.85653E+05         0.00000E+00
    0.85653E+05         0.29226E+08         0.00000E+00
    0.00000E+00         0.00000E+00         0.12552E+08
 
    0.12593E+08         0.94553E+05         0.00000E+00
    0.94553E+05         0.29186E+08         0.00000E+00
    0.00000E+00         0.00000E+00         0.12534E+08
 
    0.12573E+08         0.10313E+06         0.00000E+00
    0.10313E+06         0.29145E+08         0.00000E+00
    0.00000E+00         0.00000E+00         0.12515E+08
 
    0.12552E+08         0.11138E+06         0.00000E+00
    0.11138E+06         0.29104E+08         0.00000E+00
    0.00000E+00         0.00000E+00         0.12497E+08
 
    0.12532E+08         0.11931E+06         0.00000E+00
    0.11931E+06         0.29062E+08         0.00000E+00
    0.00000E+00         0.00000E+00         0.12478E+08
 
    0.12512E+08         0.12694E+06         0.00000E+00
    0.12694E+06         0.29020E+08         0.00000E+00
    0.00000E+00         0.00000E+00         0.12460E+08
 
    0.12492E+08         0.13428E+06         0.00000E+00
    0.13428E+06         0.28977E+08         0.00000E+00
    0.00000E+00         0.00000E+00         0.12441E+08
 
    0.12472E+08         0.14136E+06         0.00000E+00
    0.14136E+06         0.28934E+08         0.00000E+00
    0.00000E+00         0.00000E+00         0.12422E+08
 
    0.12452E+08         0.14820E+06         0.00000E+00
    0.14820E+06         0.28890E+08         0.00000E+00
    0.00000E+00         0.00000E+00         0.12403E+08
 
    0.12431E+08         0.15483E+06         0.00000E+00
    0.15483E+06         0.28846E+08         0.00000E+00
    0.00000E+00         0.00000E+00         0.12383E+08
 
    0.12411E+08         0.16128E+06         0.00000E+00
    0.16128E+06         0.28802E+08         0.00000E+00
    0.00000E+00         0.00000E+00         0.12364E+08
 
    0.12391E+08         0.16757E+06         0.00000E+00
    0.16757E+06         0.28756E+08         0.00000E+00
    0.00000E+00         0.00000E+00         0.12344E+08
 
    0.12371E+08         0.17372E+06         0.00000E+00
    0.17372E+06         0.28710E+08         0.00000E+00
    0.00000E+00         0.00000E+00         0.12324E+08
 
    0.12350E+08         0.17976E+06         0.00000E+00
    0.17976E+06         0.28664E+08         0.00000E+00
    0.00000E+00         0.00000E+00         0.12304E+08
 
    0.12329E+08         0.18571E+06         0.00000E+00
    0.18571E+06         0.28616E+08         0.00000E+00
    0.00000E+00         0.00000E+00         0.12284E+08
 
    0.12308E+08         0.19158E+06         0.00000E+00
    0.19158E+06         0.28567E+08         0.00000E+00
    0.00000E+00         0.00000E+00         0.12263E+08
 
    0.12287E+08         0.19740E+06         0.00000E+00
    0.19740E+06         0.28518E+08         0.00000E+00
    0.00000E+00         0.00000E+00         0.12241E+08
 
    0.12265E+08         0.20318E+06         0.00000E+00
    0.20318E+06         0.28468E+08         0.00000E+00
    0.00000E+00         0.00000E+00         0.12220E+08
 
    0.12244E+08         0.20893E+06         0.00000E+00
    0.20893E+06         0.28416E+08         0.00000E+00
    0.00000E+00         0.00000E+00         0.12198E+08
 
    0.12221E+08         0.21467E+06         0.00000E+00
    0.21467E+06         0.28364E+08         0.00000E+00
    0.00000E+00         0.00000E+00         0.12176E+08
 
    0.12199E+08         0.22041E+06         0.00000E+00
    0.22041E+06         0.28310E+08         0.00000E+00
    0.00000E+00         0.00000E+00         0.12153E+08
 
    0.12176E+08         0.22615E+06         0.00000E+00
    0.22615E+06         0.28255E+08         0.00000E+00
    0.00000E+00         0.00000E+00         0.12129E+08
 
    0.12152E+08         0.23190E+06         0.00000E+00
    0.23190E+06         0.28199E+08         0.00000E+00
    0.00000E+00         0.00000E+00         0.12106E+08
 
    0.12128E+08         0.23768E+06         0.00000E+00
    0.23768E+06         0.28142E+08         0.00000E+00
    0.00000E+00         0.00000E+00         0.12081E+08
 
    0.12104E+08         0.24349E+06         0.00000E+00
    0.24349E+06         0.28084E+08         0.00000E+00
    0.00000E+00         0.00000E+00         0.12056E+08
 
    0.12079E+08         0.24933E+06         0.00000E+00
    0.24933E+06         0.28024E+08         0.00000E+00
    0.00000E+00         0.00000E+00         0.12031E+08
 
    0.12053E+08         0.25520E+06         0.00000E+00
    0.25520E+06         0.27963E+08         0.00000E+00
    0.00000E+00         0.00000E+00         0.12005E+08
 
    0.12027E+08         0.26111E+06         0.00000E+00
    0.26111E+06         0.27900E+08         0.00000E+00
    0.00000E+00         0.00000E+00         0.11978E+08
 
    0.12000E+08         0.26707E+06         0.00000E+00
    0.26707E+06         0.27836E+08         0.00000E+00
    0.00000E+00         0.00000E+00         0.11951E+08
 
    0.11973E+08         0.27306E+06         0.00000E+00
    0.27306E+06         0.27770E+08         0.00000E+00
    0.00000E+00         0.00000E+00         0.11923E+08
 
    0.11945E+08         0.27909E+06         0.00000E+00
    0.27909E+06         0.27703E+08         0.00000E+00
    0.00000E+00         0.00000E+00         0.11894E+08
 
    0.11916E+08         0.28517E+06         0.00000E+00
    0.28517E+06         0.27634E+08         0.00000E+00
    0.00000E+00         0.00000E+00         0.11865E+08
 
    0.11886E+08         0.29128E+06         0.00000E+00
    0.29128E+06         0.27563E+08         0.00000E+00
    0.00000E+00         0.00000E+00         0.11835E+08
 
    0.11856E+08         0.29743E+06         0.00000E+00
    0.29743E+06         0.27491E+08         0.00000E+00
    0.00000E+00         0.00000E+00         0.11804E+08
 
    0.11825E+08         0.30360E+06         0.00000E+00
    0.30360E+06         0.27417E+08         0.00000E+00
    0.00000E+00         0.00000E+00         0.11773E+08
 
    0.11793E+08         0.30981E+06         0.00000E+00
    0.30981E+06         0.27341E+08         0.00000E+00
    0.00000E+00         0.00000E+00         0.11740E+08
 
    0.11760E+08         0.31604E+06         0.00000E+00
    0.31604E+06         0.27264E+08         0.00000E+00
    0.00000E+00         0.00000E+00         0.11707E+08
 
    0.11727E+08         0.32228E+06         0.00000E+00
    0.32228E+06         0.27184E+08         0.00000E+00
    0.00000E+00         0.00000E+00         0.11673E+08
 
    0.11692E+08         0.32854E+06         0.00000E+00
    0.32854E+06         0.27103E+08         0.00000E+00
    0.00000E+00         0.00000E+00         0.11639E+08
 
    0.11657E+08         0.33479E+06         0.00000E+00
    0.33479E+06         0.27020E+08         0.00000E+00
    0.00000E+00         0.00000E+00         0.11603E+08
 
    0.11621E+08         0.34104E+06         0.00000E+00
    0.34104E+06         0.26935E+08         0.00000E+00
    0.00000E+00         0.00000E+00         0.11567E+08
 
    0.11583E+08         0.34727E+06         0.00000E+00
    0.34727E+06         0.26848E+08         0.00000E+00
    0.00000E+00         0.00000E+00         0.11529E+08
 
    0.11545E+08         0.35347E+06         0.00000E+00
    0.35347E+06         0.26759E+08         0.00000E+00
    0.00000E+00         0.00000E+00         0.11491E+08
 
    0.11506E+08         0.35963E+06         0.00000E+00
    0.35963E+06         0.26668E+08         0.00000E+00
    0.00000E+00         0.00000E+00         0.11452E+08
 
    0.11465E+08         0.36574E+06         0.00000E+00
    0.36574E+06         0.26575E+08         0.00000E+00
    0.00000E+00         0.00000E+00         0.11412E+08
 
    0.11424E+08         0.37178E+06         0.00000E+00
    0.37178E+06         0.26479E+08         0.00000E+00
    0.00000E+00         0.00000E+00         0.11371E+08
 
    0.11382E+08         0.37775E+06         0.00000E+00
    0.37775E+06         0.26382E+08         0.00000E+00
    0.00000E+00         0.00000E+00         0.11329E+08
 
    0.11338E+08         0.38361E+06         0.00000E+00
    0.38361E+06         0.26282E+08         0.00000E+00
    0.00000E+00         0.00000E+00         0.11286E+08
 
    0.11293E+08         0.38936E+06         0.00000E+00
    0.38936E+06         0.26181E+08         0.00000E+00
    0.00000E+00         0.00000E+00         0.11242E+08
 
    0.11248E+08         0.39498E+06         0.00000E+00
    0.39498E+06         0.26077E+08         0.00000E+00
    0.00000E+00         0.00000E+00         0.11197E+08
 
    0.11201E+08         0.40044E+06         0.00000E+00
    0.40044E+06         0.25971E+08         0.00000E+00
    0.00000E+00         0.00000E+00         0.11151E+08
 
    0.11152E+08         0.40572E+06         0.00000E+00
    0.40572E+06         0.25862E+08         0.00000E+00
    0.00000E+00         0.00000E+00         0.11104E+08
 
    0.11103E+08         0.41080E+06         0.00000E+00
    0.41080E+06         0.25752E+08         0.00000E+00
    0.00000E+00         0.00000E+00         0.11056E+08
 
    0.11052E+08         0.41565E+06         0.00000E+00
    0.41565E+06         0.25639E+08         0.00000E+00
    0.00000E+00         0.00000E+00         0.11007E+08
 
    0.11000E+08         0.42025E+06         0.00000E+00
    0.42025E+06         0.25524E+08         0.00000E+00
    0.00000E+00         0.00000E+00         0.10957E+08
 
    0.10947E+08         0.42456E+06         0.00000E+00
    0.42456E+06         0.25406E+08         0.00000E+00
    0.00000E+00         0.00000E+00         0.10906E+08
 
    0.10892E+08         0.42856E+06         0.00000E+00
    0.42856E+06         0.25286E+08         0.00000E+00
    0.00000E+00         0.00000E+00         0.10854E+08
 
    0.10837E+08         0.43220E+06         0.00000E+00
    0.43220E+06         0.25164E+08         0.00000E+00
    0.00000E+00         0.00000E+00         0.10800E+08
 
    0.10779E+08         0.43545E+06         0.00000E+00
    0.43545E+06         0.25040E+08         0.00000E+00
    0.00000E+00         0.00000E+00         0.10746E+08
 
    0.10720E+08         0.43827E+06         0.00000E+00
    0.43827E+06         0.24913E+08         0.00000E+00
    0.00000E+00         0.00000E+00         0.10690E+08
 
    0.10660E+08         0.44061E+06         0.00000E+00
    0.44061E+06         0.24784E+08         0.00000E+00
    0.00000E+00         0.00000E+00         0.10633E+08
 
    0.10598E+08         0.44243E+06         0.00000E+00
    0.44243E+06         0.24653E+08         0.00000E+00
    0.00000E+00         0.00000E+00         0.10575E+08
 
    0.10535E+08         0.44367E+06         0.00000E+00
    0.44367E+06         0.24519E+08         0.00000E+00
    0.00000E+00         0.00000E+00         0.10516E+08
 
    0.10470E+08         0.44427E+06         0.00000E+00
    0.44427E+06         0.24383E+08         0.00000E+00
    0.00000E+00         0.00000E+00         0.10456E+08
 
    0.10404E+08         0.44418E+06         0.00000E+00
    0.44418E+06         0.24245E+08         0.00000E+00
    0.00000E+00         0.00000E+00         0.10395E+08
 
    0.10336E+08         0.44333E+06         0.00000E+00
    0.44333E+06         0.24104E+08         0.00000E+00
    0.00000E+00         0.00000E+00         0.10332E+08
 
    0.10266E+08         0.44164E+06         0.00000E+00
    0.44164E+06         0.23961E+08         0.00000E+00
    0.00000E+00         0.00000E+00         0.10268E+08
 
    0.10194E+08         0.43905E+06         0.00000E+00
    0.43905E+06         0.23816E+08         0.00000E+00
    0.00000E+00         0.00000E+00         0.10203E+08
 
    0.10121E+08         0.43546E+06         0.00000E+00
    0.43546E+06         0.23669E+08         0.00000E+00
    0.00000E+00         0.00000E+00         0.10137E+08
 
    0.10046E+08         0.43079E+06         0.00000E+00
    0.43079E+06         0.23519E+08         0.00000E+00
    0.00000E+00         0.00000E+00         0.10069E+08
 
    0.99690E+07         0.42494E+06         0.00000E+00
    0.42494E+06         0.23366E+08         0.00000E+00
    0.00000E+00         0.00000E+00         0.10001E+08
 
    0.98903E+07         0.41782E+06         0.00000E+00
    0.41782E+06         0.23212E+08         0.00000E+00
    0.00000E+00         0.00000E+00         0.99306E+07
 
    0.98097E+07         0.40932E+06         0.00000E+00
    0.40932E+06         0.23055E+08         0.00000E+00
    0.00000E+00         0.00000E+00         0.98593E+07
 
    0.97273E+07         0.39933E+06         0.00000E+00
    0.39933E+06         0.22895E+08         0.00000E+00
    0.00000E+00         0.00000E+00         0.97868E+07
 
    0.96430E+07         0.38774E+06         0.00000E+00
    0.38774E+06         0.22734E+08         0.00000E+00
    0.00000E+00         0.00000E+00         0.97130E+07
 
    0.95570E+07         0.37446E+06         0.00000E+00
    0.37446E+06         0.22570E+08         0.00000E+00
    0.00000E+00         0.00000E+00         0.96380E+07
 
    0.94693E+07         0.35939E+06         0.00000E+00
    0.35939E+06         0.22404E+08         0.00000E+00
    0.00000E+00         0.00000E+00         0.95619E+07
 
    0.93799E+07         0.34243E+06         0.00000E+00
    0.34243E+06         0.22236E+08         0.00000E+00
    0.00000E+00         0.00000E+00         0.94847E+07
 
    0.92890E+07         0.32352E+06         0.00000E+00
    0.32352E+06         0.22066E+08         0.00000E+00
    0.00000E+00         0.00000E+00         0.94065E+07
 
    0.91966E+07         0.30262E+06         0.00000E+00
    0.30262E+06         0.21895E+08         0.00000E+00
    0.00000E+00         0.00000E+00         0.93275E+07
 
    0.91029E+07         0.27972E+06         0.00000E+00
    0.27972E+06         0.21723E+08         0.00000E+00
    0.00000E+00         0.00000E+00         0.92478E+07
 
    0.90079E+07         0.25489E+06         0.00000E+00
    0.25489E+06         0.21551E+08         0.00000E+00
    0.00000E+00         0.00000E+00         0.91677E+07
 
    0.89115E+07         0.22826E+06         0.00000E+00
    0.22826E+06         0.21380E+08         0.00000E+00
    0.00000E+00         0.00000E+00         0.90875E+07
 
    0.88135E+07         0.20005E+06         0.00000E+00
    0.20005E+06         0.21211E+08         0.00000E+00
    0.00000E+00         0.00000E+00         0.90075E+07
 
    0.87133E+07         0.17060E+06         0.00000E+00
    0.17060E+06         0.21047E+08         0.00000E+00
    0.00000E+00         0.00000E+00         0.89280E+07
 
    0.86102E+07         0.14043E+06         0.00000E+00
    0.14043E+06         0.20889E+08         0.00000E+00
    0.00000E+00         0.00000E+00         0.88496E+07
 
    0.85023E+07         0.11022E+06         0.00000E+00
    0.11022E+06         0.20740E+08         0.00000E+00
    0.00000E+00         0.00000E+00         0.87726E+07
 
    0.83874E+07         0.80917E+05         0.00000E+00
    0.80917E+05         0.20603E+08         0.00000E+00
    0.00000E+00         0.00000E+00         0.86971E+07
 
    0.82624E+07         0.53752E+05         0.00000E+00
    0.53752E+05         0.20482E+08         0.00000E+00
    0.00000E+00         0.00000E+00         0.86232E+07
 
    0.81245E+07         0.29910E+05         0.00000E+00
    0.29910E+05         0.20377E+08         0.00000E+00
    0.00000E+00         0.00000E+00         0.85505E+07
 
    0.79718E+07         0.94722E+04         0.00000E+00
    0.94722E+04         0.20290E+08         0.00000E+00
    0.00000E+00         0.00000E+00         0.84784E+07
 
    0.12841E+08         0.32358E+04         0.00000E+00
    0.32358E+04         0.29507E+08         0.00000E+00
    0.00000E+00         0.00000E+00         0.12704E+08
 
    0.12808E+08         0.10045E+05         0.00000E+00
    0.10045E+05         0.29487E+08         0.00000E+00
    0.00000E+00         0.00000E+00         0.12689E+08
 
    0.12778E+08         0.17653E+05         0.00000E+00
    0.17653E+05         0.29464E+08         0.00000E+00
    0.00000E+00         0.00000E+00         0.12673E+08
 
    0.12752E+08         0.26107E+05         0.00000E+00
    0.26107E+05         0.29438E+08         0.00000E+00
    0.00000E+00         0.00000E+00         0.12657E+08
 
    0.12727E+08         0.35185E+05         0.00000E+00
    0.35185E+05         0.29407E+08         0.00000E+00
    0.00000E+00         0.00000E+00         0.12640E+08
 
    0.12704E+08         0.44615E+05         0.00000E+00
    0.44615E+05         0.29374E+08         0.00000E+00
    0.00000E+00         0.00000E+00         0.12623E+08
 
    0.12682E+08         0.54169E+05         0.00000E+00
    0.54169E+05         0.29339E+08         0.00000E+00
    0.00000E+00         0.00000E+00         0.12606E+08
 
    0.12660E+08         0.63678E+05         0.00000E+00
    0.63678E+05         0.29302E+08         0.00000E+00
    0.00000E+00         0.00000E+00         0.12589E+08
 
    0.12639E+08         0.73019E+05         0.00000E+00
    0.73019E+05         0.29263E+08         0.00000E+00
    0.00000E+00         0.00000E+00         0.12571E+08
 
    0.12618E+08         0.82112E+05         0.00000E+00
    0.82112E+05         0.29224E+08         0.00000E+00
    0.00000E+00         0.00000E+00         0.12553E+08
 
    0.12597E+08         0.90907E+05         0.00000E+00
    0.90907E+05         0.29184E+08         0.00000E+00
    0.00000E+00         0.00000E+00         0.12534E+08
 
    0.12577E+08         0.99377E+05         0.00000E+00
    0.99377E+05         0.29143E+08         0.00000E+00
    0.00000E+00         0.00000E+00         0.12516E+08
 
    0.12557E+08         0.10752E+06         0.00000E+00
    0.10752E+06         0.29102E+08         0.00000E+00
    0.00000E+00         0.00000E+00         0.12498E+08
 
    0.12536E+08         0.11533E+06         0.00000E+00
    0.11533E+06         0.29060E+08         0.00000E+00
    0.00000E+00         0.00000E+00         0.12479E+08
 
    0.12516E+08         0.12284E+06         0.00000E+00
    0.12284E+06         0.29018E+08         0.00000E+00
    0.00000E+00         0.00000E+00         0.12460E+08
 
    0.12496E+08         0.13005E+06         0.00000E+00
    0.13005E+06         0.28976E+08         0.00000E+00
    0.00000E+00         0.00000E+00         0.12441E+08
 
    0.12475E+08         0.13700E+06         0.00000E+00
    0.13700E+06         0.28933E+08         0.00000E+00
    0.00000E+00         0.00000E+00         0.12422E+08
 
    0.12455E+08         0.14370E+06         0.00000E+00
    0.14370E+06         0.28889E+08         0.00000E+00
    0.00000E+00         0.00000E+00         0.12403E+08
 
    0.12435E+08         0.15020E+06         0.00000E+00
    0.15020E+06         0.28845E+08         0.00000E+00
    0.00000E+00         0.00000E+00         0.12384E+08
 
    0.12415E+08         0.15651E+06         0.00000E+00
    0.15651E+06         0.28800E+08         0.00000E+00
    0.00000E+00         0.00000E+00         0.12365E+08
 
    0.12394E+08         0.16265E+06         0.00000E+00
    0.16265E+06         0.28755E+08         0.00000E+00
    0.00000E+00         0.00000E+00         0.12345E+08
 
    0.12374E+08         0.16866E+06         0.00000E+00
    0.16866E+06         0.28709E+08         0.00000E+00
    0.00000E+00         0.00000E+00         0.12325E+08
 
    0.12353E+08         0.17455E+06         0.00000E+00
    0.17455E+06         0.28662E+08         0.00000E+00
    0.00000E+00         0.00000E+00         0.12305E+08
 
    0.12332E+08         0.18035E+06         0.00000E+00
    0.18035E+06         0.28615E+08         0.00000E+00
    0.00000E+00         0.00000E+00         0.12284E+08
 
    0.12311E+08         0.18608E+06         0.00000E+00
    0.18608E+06         0.28566E+08         0.00000E+00
    0.00000E+00         0.00000E+00         0.12263E+08
 
    0.12290E+08         0.19175E+06         0.00000E+00
    0.19175E+06         0.28517E+08         0.00000E+00
    0.00000E+00         0.00000E+00         0.12242E+08
 
    0.12269E+08         0.19738E+06         0.00000E+00
    0.19738E+06         0.28467E+08         0.00000E+00
    0.00000E+00         0.00000E+00         0.12221E+08
 
    0.12247E+08         0.20297E+06         0.00000E+00
    0.20297E+06         0.28415E+08         0.00000E+00
    0.00000E+00         0.00000E+00         0.12199E+08
 
    0.12225E+08         0.20856E+06         0.00000E+00
    0.20856E+06         0.28363E+08         0.00000E+00
    0.00000E+00         0.00000E+00         0.12176E+08
 
    0.12202E+08         0.21414E+06         0.00000E+00
    0.21414E+06         0.28309E+08         0.00000E+00
    0.00000E+00         0.00000E+00         0.12153E+08
 
    0.12179E+08         0.21972E+06         0.00000E+00
    0.21972E+06         0.28254E+08         0.00000E+00
    0.00000E+00         0.00000E+00         0.12130E+08
 
    0.12156E+08         0.22532E+06         0.00000E+00
    0.22532E+06         0.28198E+08         0.00000E+00
    0.00000E+00         0.00000E+00         0.12106E+08
 
    0.12132E+08         0.23093E+06         0.00000E+00
    0.23093E+06         0.28141E+08         0.00000E+00
    0.00000E+00         0.00000E+00         0.12082E+08
 
    0.12107E+08         0.23657E+06         0.00000E+00
    0.23657E+06         0.28083E+08         0.00000E+00
    0.00000E+00         0.00000E+00         0.12057E+08
 
    0.12082E+08         0.24225E+06         0.00000E+00
    0.24225E+06         0.28023E+08         0.00000E+00
    0.00000E+00         0.00000E+00         0.12032E+08
 
    0.12057E+08         0.24795E+06         0.00000E+00
    0.24795E+06         0.27961E+08         0.00000E+00
    0.00000E+00         0.00000E+00         0.12006E+08
 
    0.12031E+08         0.25369E+06         0.00000E+00
    0.25369E+06         0.27899E+08         0.00000E+00
    0.00000E+00         0.00000E+00         0.11979E+08
 
    0.12004E+08         0.25947E+06         0.00000E+00
    0.25947E+06         0.27834E+08         0.00000E+00
    0.00000E+00         0.00000E+00         0.11952E+08
 
    0.11977E+08         0.26529E+06         0.00000E+00
    0.26529E+06         0.27769E+08         0.00000E+00
    0.00000E+00         0.00000E+00         0.11924E+08
 
    0.11949E+08         0.27115E+06         0.00000E+00
    0.27115E+06         0.27701E+08         0.00000E+00
    0.00000E+00         0.00000E+00         0.11895E+08
 
    0.11920E+08         0.27704E+06         0.00000E+00
    0.27704E+06         0.27633E+08         0.00000E+00
    0.00000E+00         0.00000E+00         0.11866E+08
 
    0.11890E+08         0.28297E+06         0.00000E+00
    0.28297E+06         0.27562E+08         0.00000E+00
    0.00000E+00         0.00000E+00         0.11836E+08
 
    0.11860E+08         0.28893E+06         0.00000E+00
    0.28893E+06         0.27490E+08         0.00000E+00
    0.00000E+00         0.00000E+00         0.11805E+08
 
    0.11829E+08         0.29493E+06         0.00000E+00
    0.29493E+06         0.27416E+08         0.00000E+00
    0.00000E+00         0.00000E+00         0.11773E+08
 
    0.11797E+08         0.30094E+06         0.00000E+00
    0.30094E+06         0.27340E+08         0.00000E+00
    0.00000E+00         0.00000E+00         0.11741E+08
 
    0.11764E+08         0.30698E+06         0.00000E+00
    0.30698E+06         0.27263E+08         0.00000E+00
    0.00000E+00         0.00000E+00         0.11708E+08
 
    0.11731E+08         0.31303E+06         0.00000E+00
    0.31303E+06         0.27183E+08         0.00000E+00
    0.00000E+00         0.00000E+00         0.11674E+08
 
    0.11696E+08         0.31909E+06         0.00000E+00
    0.31909E+06         0.27102E+08         0.00000E+00
    0.00000E+00         0.00000E+00         0.11639E+08
 
    0.11661E+08         0.32515E+06         0.00000E+00
    0.32515E+06         0.27019E+08         0.00000E+00
    0.00000E+00         0.00000E+00         0.11604E+08
 
    0.11625E+08         0.33120E+06         0.00000E+00
    0.33120E+06         0.26934E+08         0.00000E+00
    0.00000E+00         0.00000E+00         0.11567E+08
 
    0.11587E+08         0.33724E+06         0.00000E+00
    0.33724E+06         0.26847E+08         0.00000E+00
    0.00000E+00         0.00000E+00         0.11530E+08
 
    0.11549E+08         0.34324E+06         0.00000E+00
    0.34324E+06         0.26758E+08         0.00000E+00
    0.00000E+00         0.00000E+00         0.11492E+08
 
    0.11510E+08         0.34921E+06         0.00000E+00
    0.34921E+06         0.26667E+08         0.00000E+00
    0.00000E+00         0.00000E+00         0.11453E+08
 
    0.11469E+08         0.35512E+06         0.00000E+00
    0.35512E+06         0.26573E+08         0.00000E+00
    0.00000E+00         0.00000E+00         0.11413E+08
 
    0.11428E+08         0.36097E+06         0.00000E+00
    0.36097E+06         0.26478E+08         0.00000E+00
    0.00000E+00         0.00000E+00         0.11372E+08
 
    0.11386E+08         0.36673E+06         0.00000E+00
    0.36673E+06         0.26381E+08         0.00000E+00
    0.00000E+00         0.00000E+00         0.11330E+08
 
    0.11342E+08         0.37240E+06         0.00000E+00
    0.37240E+06         0.26281E+08         0.00000E+00
    0.00000E+00         0.00000E+00         0.11287E+08
 
    0.11297E+08         0.37796E+06         0.00000E+00
    0.37796E+06         0.26179E+08         0.00000E+00
    0.00000E+00         0.00000E+00         0.11243E+08
 
    0.11251E+08         0.38338E+06         0.00000E+00
    0.38338E+06         0.26076E+08         0.00000E+00
    0.00000E+00         0.00000E+00         0.11198E+08
 
    0.11204E+08         0.38865E+06         0.00000E+00
    0.38865E+06         0.25970E+08         0.00000E+00
    0.00000E+00         0.00000E+00         0.11152E+08
 
    0.11156E+08         0.39375E+06         0.00000E+00
    0.39375E+06         0.25861E+08         0.00000E+00
    0.00000E+00         0.00000E+00         0.11105E+08
 
    0.11107E+08         0.39864E+06         0.00000E+00
    0.39864E+06         0.25751E+08         0.00000E+00
    0.00000E+00         0.00000E+00         0.11057E+08
 
    0.11056E+08         0.40332E+06         0.00000E+00
    0.40332E+06         0.25638E+08         0.00000E+00
    0.00000E+00         0.00000E+00         0.11008E+08
 
    0.11004E+08         0.40774E+06         0.00000E+00
    0.40774E+06         0.25523E+08         0.00000E+00
    0.00000E+00         0.00000E+00         0.10958E+08
 
    0.10950E+08         0.41189E+06         0.00000E+00
    0.41189E+06         0.25405E+08         0.00000E+00
    0.00000E+00         0.00000E+00         0.10907E+08
 
    0.10895E+08         0.41572E+06         0.00000E+00
    0.41572E+06         0.25286E+08         0.00000E+00
    0.00000E+00         0.00000E+00         0.10854E+08
 
    0.10839E+08         0.41920E+06         0.00000E+00
    0.41920E+06         0.25164E+08         0.00000E+00
    0.00000E+00         0.00000E+00         0.10801E+08
 
    0.10782E+08         0.42231E+06         0.00000E+00
    0.42231E+06         0.25039E+08         0.00000E+00
    0.00000E+00         0.00000E+00         0.10746E+08
 
    0.10723E+08         0.42499E+06         0.00000E+00
    0.42499E+06         0.24913E+08         0.00000E+00
    0.00000E+00         0.00000E+00         0.10691E+08
 
    0.10662E+08         0.42720E+06         0.00000E+00
    0.42720E+06         0.24784E+08         0.00000E+00
    0.00000E+00         0.00000E+00         0.10634E+08
 
    0.10600E+08         0.42890E+06         0.00000E+00
    0.42890E+06         0.24653E+08         0.00000E+00
    0.00000E+00         0.00000E+00         0.10576E+08
 
    0.10537E+08         0.43003E+06         0.00000E+00
    0.43003E+06         0.24519E+08         0.00000E+00
    0.00000E+00         0.00000E+00         0.10517E+08
 
    0.10471E+08         0.43054E+06         0.00000E+00
    0.43054E+06         0.24383E+08         0.00000E+00
    0.00000E+00         0.00000E+00         0.10456E+08
 
    0.10405E+08         0.43037E+06         0.00000E+00
    0.43037E+06         0.24245E+08         0.00000E+00
    0.00000E+00         0.00000E+00         0.10395E+08
 
    0.10336E+08         0.42945E+06         0.00000E+00
    0.42945E+06         0.24105E+08         0.00000E+00
    0.00000E+00         0.00000E+00         0.10332E+08
 
    0.10266E+08         0.42771E+06         0.00000E+00
    0.42771E+06         0.23962E+08         0.00000E+00
    0.00000E+00         0.00000E+00         0.10268E+08
 
    0.10194E+08         0.42508E+06         0.00000E+00
    0.42508E+06         0.23817E+08         0.00000E+00
    0.00000E+00         0.00000E+00         0.10203E+08
 
    0.10120E+08         0.42147E+06         0.00000E+00
    0.42147E+06         0.23669E+08         0.00000E+00
    0.00000E+00         0.00000E+00         0.10137E+08
 
    0.10045E+08         0.41679E+06         0.00000E+00
    0.41679E+06         0.23520E+08         0.00000E+00
    0.00000E+00         0.00000E+00         0.10069E+08
 
    0.99671E+07         0.41096E+06         0.00000E+00
    0.41096E+06         0.23368E+08         0.00000E+00
    0.00000E+00         0.00000E+00         0.10000E+08
 
    0.98877E+07         0.40385E+06         0.00000E+00
    0.40385E+06         0.23213E+08         0.00000E+00
    0.00000E+00         0.00000E+00         0.99303E+07
 
    0.98064E+07         0.39539E+06         0.00000E+00
    0.39539E+06         0.23056E+08         0.00000E+00
    0.00000E+00         0.00000E+00         0.98589E+07
 
    0.97232E+07         0.38544E+06         0.00000E+00
    0.38544E+06         0.22897E+08         0.00000E+00
    0.00000E+00         0.00000E+00         0.97862E+07
 
    0.96382E+07         0.37391E+06         0.00000E+00
    0.37391E+06         0.22736E+08         0.00000E+00
    0.00000E+00         0.00000E+00         0.97123E+07
 
    0.95513E+07         0.36069E+06         0.00000E+00
    0.36069E+06         0.22573E+08         0.00000E+00
    0.00000E+00         0.00000E+00         0.96372E+07
 
    0.94626E+07         0.34567E+06         0.00000E+00
    0.34567E+06         0.22407E+08         0.00000E+00
    0.00000E+00         0.00000E+00         0.95608E+07
 
    0.93721E+07         0.32877E+06         0.00000E+00
    0.32877E+06         0.22239E+08         0.00000E+00
    0.00000E+00         0.00000E+00         0.94834E+07
 
    0.92800E+07         0.30992E+06         0.00000E+00
    0.30992E+06         0.22070E+08         0.00000E+00
    0.00000E+00         0.00000E+00         0.94050E+07
 
    0.91864E+07         0.28907E+06         0.00000E+00
    0.28907E+06         0.21899E+08         0.00000E+00
    0.00000E+00         0.00000E+00         0.93257E+07
 
    0.90913E+07         0.26623E+06         0.00000E+00
    0.26623E+06         0.21728E+08         0.00000E+00
    0.00000E+00         0.00000E+00         0.92457E+07
 
    0.89947E+07         0.24147E+06         0.00000E+00
    0.24147E+06         0.21556E+08         0.00000E+00
    0.00000E+00         0.00000E+00         0.91653E+07
 
    0.88966E+07         0.21496E+06         0.00000E+00
    0.21496E+06         0.21386E+08         0.00000E+00
    0.00000E+00         0.00000E+00         0.90847E+07
 
    0.87968E+07         0.18695E+06         0.00000E+00
    0.18695E+06         0.21217E+08         0.00000E+00
    0.00000E+00         0.00000E+00         0.90042E+07
 
    0.86947E+07         0.15787E+06         0.00000E+00
    0.15787E+06         0.21053E+08         0.00000E+00
    0.00000E+00         0.00000E+00         0.89242E+07
 
    0.85895E+07         0.12833E+06         0.00000E+00
    0.12833E+06         0.20895E+08         0.00000E+00
    0.00000E+00         0.00000E+00         0.88452E+07
 
    0.84795E+07         0.99161E+05         0.00000E+00
    0.99161E+05         0.20745E+08         0.00000E+00
    0.00000E+00         0.00000E+00         0.87675E+07
 
    0.83624E+07         0.71456E+05         0.00000E+00
    0.71456E+05         0.20609E+08         0.00000E+00
    0.00000E+00         0.00000E+00         0.86913E+07
 
    0.82356E+07         0.46521E+05         0.00000E+00
    0.46521E+05         0.20487E+08         0.00000E+00
    0.00000E+00         0.00000E+00         0.86167E+07
 
    0.80963E+07         0.25415E+05         0.00000E+00
    0.25415E+05         0.20381E+08         0.00000E+00
    0.00000E+00         0.00000E+00         0.85433E+07
 
    0.79429E+07         0.79563E+04         0.00000E+00
    0.79563E+04         0.20293E+08         0.00000E+00
    0.00000E+00         0.00000E+00         0.84708E+07
 
    0.12849E+08         0.28931E+04         0.00000E+00
    0.28931E+04         0.29505E+08         0.00000E+00
    0.00000E+00         0.00000E+00         0.12706E+08
 
    0.12816E+08         0.90286E+04         0.00000E+00
    0.90286E+04         0.29486E+08         0.00000E+00
    0.00000E+00         0.00000E+00         0.12691E+08
 
    0.12786E+08         0.16013E+05         0.00000E+00
    0.16013E+05         0.29463E+08         0.00000E+00
    0.00000E+00         0.00000E+00         0.12675E+08
 
    0.12759E+08         0.23940E+05         0.00000E+00
    0.23940E+05         0.29436E+08         0.00000E+00
    0.00000E+00         0.00000E+00         0.12658E+08
 
    0.12733E+08         0.32615E+05         0.00000E+00
    0.32615E+05         0.29405E+08         0.00000E+00
    0.00000E+00         0.00000E+00         0.12642E+08
 
    0.12710E+08         0.41751E+05         0.00000E+00
    0.41751E+05         0.29372E+08         0.00000E+00
    0.00000E+00         0.00000E+00         0.12625E+08
 
    0.12687E+08         0.51093E+05         0.00000E+00
    0.51093E+05         0.29337E+08         0.00000E+00
    0.00000E+00         0.00000E+00         0.12607E+08
 
    0.12665E+08         0.60440E+05         0.00000E+00
    0.60440E+05         0.29300E+08         0.00000E+00
    0.00000E+00         0.00000E+00         0.12590E+08
 
    0.12644E+08         0.69650E+05         0.00000E+00
    0.69650E+05         0.29261E+08         0.00000E+00
    0.00000E+00         0.00000E+00         0.12572E+08
 
    0.12623E+08         0.78626E+05         0.00000E+00
    0.78626E+05         0.29222E+08         0.00000E+00
    0.00000E+00         0.00000E+00         0.12554E+08
 
    0.12602E+08         0.87308E+05         0.00000E+00
    0.87308E+05         0.29182E+08         0.00000E+00
    0.00000E+00         0.00000E+00         0.12535E+08
 
    0.12581E+08         0.95666E+05         0.00000E+00
    0.95666E+05         0.29141E+08         0.00000E+00
    0.00000E+00         0.00000E+00         0.12517E+08
 
    0.12561E+08         0.10369E+06         0.00000E+00
    0.10369E+06         0.29100E+08         0.00000E+00
    0.00000E+00         0.00000E+00         0.12498E+08
 
    0.12540E+08         0.11138E+06         0.00000E+00
    0.11138E+06         0.29059E+08         0.00000E+00
    0.00000E+00         0.00000E+00         0.12480E+08
 
    0.12520E+08         0.11876E+06         0.00000E+00
    0.11876E+06         0.29017E+08         0.00000E+00
    0.00000E+00         0.00000E+00         0.12461E+08
 
    0.12499E+08         0.12584E+06         0.00000E+00
    0.12584E+06         0.28974E+08         0.00000E+00
    0.00000E+00         0.00000E+00         0.12442E+08
 
    0.12479E+08         0.13266E+06         0.00000E+00
    0.13266E+06         0.28931E+08         0.00000E+00
    0.00000E+00         0.00000E+00         0.12423E+08
 
    0.12459E+08         0.13923E+06         0.00000E+00
    0.13923E+06         0.28888E+08         0.00000E+00
    0.00000E+00         0.00000E+00         0.12404E+08
 
    0.12438E+08         0.14558E+06         0.00000E+00
    0.14558E+06         0.28844E+08         0.00000E+00
    0.00000E+00         0.00000E+00         0.12385E+08
 
    0.12418E+08         0.15174E+06         0.00000E+00
    0.15174E+06         0.28799E+08         0.00000E+00
    0.00000E+00         0.00000E+00         0.12365E+08
 
    0.12398E+08         0.15774E+06         0.00000E+00
    0.15774E+06         0.28754E+08         0.00000E+00
    0.00000E+00         0.00000E+00         0.12345E+08
 
    0.12377E+08         0.16361E+06         0.00000E+00
    0.16361E+06         0.28708E+08         0.00000E+00
    0.00000E+00         0.00000E+00         0.12326E+08
 
    0.12357E+08         0.16935E+06         0.00000E+00
    0.16935E+06         0.28661E+08         0.00000E+00
    0.00000E+00         0.00000E+00         0.12305E+08
 
    0.12336E+08         0.17500E+06         0.00000E+00
    0.17500E+06         0.28614E+08         0.00000E+00
    0.00000E+00         0.00000E+00         0.12285E+08
 
    0.12315E+08         0.18058E+06         0.00000E+00
    0.18058E+06         0.28565E+08         0.00000E+00
    0.00000E+00         0.00000E+00         0.12264E+08
 
    0.12293E+08         0.18609E+06         0.00000E+00
    0.18609E+06         0.28516E+08         0.00000E+00
    0.00000E+00         0.00000E+00         0.12243E+08
 
    0.12272E+08         0.19157E+06         0.00000E+00
    0.19157E+06         0.28465E+08         0.00000E+00
    0.00000E+00         0.00000E+00         0.12221E+08
 
    0.12250E+08         0.19701E+06         0.00000E+00
    0.19701E+06         0.28414E+08         0.00000E+00
    0.00000E+00         0.00000E+00         0.12199E+08
 
    0.12228E+08         0.20244E+06         0.00000E+00
    0.20244E+06         0.28362E+08         0.00000E+00
    0.00000E+00         0.00000E+00         0.12177E+08
 
    0.12205E+08         0.20786E+06         0.00000E+00
    0.20786E+06         0.28308E+08         0.00000E+00
    0.00000E+00         0.00000E+00         0.12154E+08
 
    0.12183E+08         0.21329E+06         0.00000E+00
    0.21329E+06         0.28253E+08         0.00000E+00
    0.00000E+00         0.00000E+00         0.12131E+08
 
    0.12159E+08         0.21872E+06         0.00000E+00
    0.21872E+06         0.28197E+08         0.00000E+00
    0.00000E+00         0.00000E+00         0.12107E+08
 
    0.12135E+08         0.22418E+06         0.00000E+00
    0.22418E+06         0.28140E+08         0.00000E+00
    0.00000E+00         0.00000E+00         0.12083E+08
 
    0.12111E+08         0.22965E+06         0.00000E+00
    0.22965E+06         0.28081E+08         0.00000E+00
    0.00000E+00         0.00000E+00         0.12058E+08
 
    0.12086E+08         0.23516E+06         0.00000E+00
    0.23516E+06         0.28022E+08         0.00000E+00
    0.00000E+00         0.00000E+00         0.12032E+08
 
    0.12060E+08         0.24069E+06         0.00000E+00
    0.24069E+06         0.27960E+08         0.00000E+00
    0.00000E+00         0.00000E+00         0.12006E+08
 
    0.12034E+08         0.24627E+06         0.00000E+00
    0.24627E+06         0.27898E+08         0.00000E+00
    0.00000E+00         0.00000E+00         0.11980E+08
 
    0.12008E+08         0.25187E+06         0.00000E+00
    0.25187E+06         0.27833E+08         0.00000E+00
    0.00000E+00         0.00000E+00         0.11952E+08
 
    0.11980E+08         0.25751E+06         0.00000E+00
    0.25751E+06         0.27768E+08         0.00000E+00
    0.00000E+00         0.00000E+00         0.11924E+08
 
    0.11952E+08         0.26319E+06         0.00000E+00
    0.26319E+06         0.27700E+08         0.00000E+00
    0.00000E+00         0.00000E+00         0.11896E+08
 
    0.11924E+08         0.26891E+06         0.00000E+00
    0.26891E+06         0.27631E+08         0.00000E+00
    0.00000E+00         0.00000E+00         0.11866E+08
 
    0.11894E+08         0.27466E+06         0.00000E+00
    0.27466E+06         0.27561E+08         0.00000E+00
    0.00000E+00         0.00000E+00         0.11836E+08
 
    0.11864E+08         0.28043E+06         0.00000E+00
    0.28043E+06         0.27489E+08         0.00000E+00
    0.00000E+00         0.00000E+00         0.11806E+08
 
    0.11833E+08         0.28624E+06         0.00000E+00
    0.28624E+06         0.27415E+08         0.00000E+00
    0.00000E+00         0.00000E+00         0.11774E+08
 
    0.11801E+08         0.29207E+06         0.00000E+00
    0.29207E+06         0.27339E+08         0.00000E+00
    0.00000E+00         0.00000E+00         0.11742E+08
 
    0.11768E+08         0.29792E+06         0.00000E+00
    0.29792E+06         0.27261E+08         0.00000E+00
    0.00000E+00         0.00000E+00         0.11709E+08
 
    0.11735E+08         0.30378E+06         0.00000E+00
    0.30378E+06         0.27182E+08         0.00000E+00
    0.00000E+00         0.00000E+00         0.11675E+08
 
    0.11700E+08         0.30965E+06         0.00000E+00
    0.30965E+06         0.27101E+08         0.00000E+00
    0.00000E+00         0.00000E+00         0.11640E+08
 
    0.11665E+08         0.31551E+06         0.00000E+00
    0.31551E+06         0.27018E+08         0.00000E+00
    0.00000E+00         0.00000E+00         0.11605E+08
 
    0.11629E+08         0.32137E+06         0.00000E+00
    0.32137E+06         0.26933E+08         0.00000E+00
    0.00000E+00         0.00000E+00         0.11568E+08
 
    0.11591E+08         0.32721E+06         0.00000E+00
    0.32721E+06         0.26846E+08         0.00000E+00
    0.00000E+00         0.00000E+00         0.11531E+08
 
    0.11553E+08         0.33302E+06         0.00000E+00
    0.33302E+06         0.26756E+08         0.00000E+00
    0.00000E+00         0.00000E+00         0.11493E+08
 
    0.11514E+08         0.33879E+06         0.00000E+00
    0.33879E+06         0.26665E+08         0.00000E+00
    0.00000E+00         0.00000E+00         0.11454E+08
 
    0.11473E+08         0.34450E+06         0.00000E+00
    0.34450E+06         0.26572E+08         0.00000E+00
    0.00000E+00         0.00000E+00         0.11414E+08
 
    0.11432E+08         0.35015E+06         0.00000E+00
    0.35015E+06         0.26477E+08         0.00000E+00
    0.00000E+00         0.00000E+00         0.11373E+08
 
    0.11389E+08         0.35572E+06         0.00000E+00
    0.35572E+06         0.26380E+08         0.00000E+00
    0.00000E+00         0.00000E+00         0.11331E+08
 
    0.11346E+08         0.36120E+06         0.00000E+00
    0.36120E+06         0.26280E+08         0.00000E+00
    0.00000E+00         0.00000E+00         0.11288E+08
 
    0.11301E+08         0.36656E+06         0.00000E+00
    0.36656E+06         0.26178E+08         0.00000E+00
    0.00000E+00         0.00000E+00         0.11244E+08
 
    0.11255E+08         0.37180E+06         0.00000E+00
    0.37180E+06         0.26075E+08         0.00000E+00
    0.00000E+00         0.00000E+00         0.11199E+08
 
    0.11208E+08         0.37688E+06         0.00000E+00
    0.37688E+06         0.25968E+08         0.00000E+00
    0.00000E+00         0.00000E+00         0.11153E+08
 
    0.11160E+08         0.38179E+06         0.00000E+00
    0.38179E+06         0.25860E+08         0.00000E+00
    0.00000E+00         0.00000E+00         0.11106E+08
 
    0.11110E+08         0.38651E+06         0.00000E+00
    0.38651E+06         0.25750E+08         0.00000E+00
    0.00000E+00         0.00000E+00         0.11058E+08
 
    0.11059E+08         0.39100E+06         0.00000E+00
    0.39100E+06         0.25637E+08         0.00000E+00
    0.00000E+00         0.00000E+00         0.11009E+08
 
    0.11007E+08         0.39526E+06         0.00000E+00
    0.39526E+06         0.25522E+08         0.00000E+00
    0.00000E+00         0.00000E+00         0.10959E+08
 
    0.10953E+08         0.39924E+06         0.00000E+00
    0.39924E+06         0.25404E+08         0.00000E+00
    0.00000E+00         0.00000E+00         0.10907E+08
 
    0.10898E+08         0.40291E+06         0.00000E+00
    0.40291E+06         0.25285E+08         0.00000E+00
    0.00000E+00         0.00000E+00         0.10855E+08
 
    0.10842E+08         0.40624E+06         0.00000E+00
    0.40624E+06         0.25163E+08         0.00000E+00
    0.00000E+00         0.00000E+00         0.10802E+08
 
    0.10784E+08         0.40920E+06         0.00000E+00
    0.40920E+06         0.25039E+08         0.00000E+00
    0.00000E+00         0.00000E+00         0.10747E+08
 
    0.10725E+08         0.41175E+06         0.00000E+00
    0.41175E+06         0.24912E+08         0.00000E+00
    0.00000E+00         0.00000E+00         0.10691E+08
 
    0.10664E+08         0.41383E+06         0.00000E+00
    0.41383E+06         0.24783E+08         0.00000E+00
    0.00000E+00         0.00000E+00         0.10634E+08
 
    0.10602E+08         0.41542E+06         0.00000E+00
    0.41542E+06         0.24652E+08         0.00000E+00
    0.00000E+00         0.00000E+00         0.10576E+08
 
    0.10538E+08         0.41645E+06         0.00000E+00
    0.41645E+06         0.24519E+08         0.00000E+00
    0.00000E+00         0.00000E+00         0.10517E+08
 
    0.10473E+08         0.41687E+06         0.00000E+00
    0.41687E+06         0.24383E+08         0.00000E+00
    0.00000E+00         0.00000E+00         0.10457E+08
 
    0.10406E+08         0.41663E+06         0.00000E+00
    0.41663E+06         0.24245E+08         0.00000E+00
    0.00000E+00         0.00000E+00         0.10395E+08
 
    0.10337E+08         0.41565E+06         0.00000E+00
    0.41565E+06         0.24105E+08         0.00000E+00
    0.00000E+00         0.00000E+00         0.10333E+08
 
    0.10266E+08         0.41387E+06         0.00000E+00
    0.41387E+06         0.23962E+08         0.00000E+00
    0.00000E+00         0.00000E+00         0.10269E+08
 
    0.10194E+08         0.41120E+06         0.00000E+00
    0.41120E+06         0.23817E+08         0.00000E+00
    0.00000E+00         0.00000E+00         0.10203E+08
 
    0.10119E+08         0.40758E+06         0.00000E+00
    0.40758E+06         0.23670E+08         0.00000E+00
    0.00000E+00         0.00000E+00         0.10137E+08
 
    0.10043E+08         0.40291E+06         0.00000E+00
    0.40291E+06         0.23521E+08         0.00000E+00
    0.00000E+00         0.00000E+00         0.10069E+08
 
    0.99652E+07         0.39709E+06         0.00000E+00
    0.39709E+06         0.23369E+08         0.00000E+00
    0.00000E+00         0.00000E+00         0.10000E+08
 
    0.98852E+07         0.39002E+06         0.00000E+00
    0.39002E+06         0.23215E+08         0.00000E+00
    0.00000E+00         0.00000E+00         0.99300E+07
 
    0.98032E+07         0.38160E+06         0.00000E+00
    0.38160E+06         0.23058E+08         0.00000E+00
    0.00000E+00         0.00000E+00         0.98585E+07
 
    0.97193E+07         0.37172E+06         0.00000E+00
    0.37172E+06         0.22900E+08         0.00000E+00
    0.00000E+00         0.00000E+00         0.97857E+07
 
    0.96334E+07         0.36026E+06         0.00000E+00
    0.36026E+06         0.22739E+08         0.00000E+00
    0.00000E+00         0.00000E+00         0.97116E+07
 
    0.95456E+07         0.34711E+06         0.00000E+00
    0.34711E+06         0.22575E+08         0.00000E+00
    0.00000E+00         0.00000E+00         0.96363E+07
 
    0.94559E+07         0.33217E+06         0.00000E+00
    0.33217E+06         0.22410E+08         0.00000E+00
    0.00000E+00         0.00000E+00         0.95598E+07
 
    0.93644E+07         0.31534E+06         0.00000E+00
    0.31534E+06         0.22243E+08         0.00000E+00
    0.00000E+00         0.00000E+00         0.94822E+07
 
    0.92711E+07         0.29656E+06         0.00000E+00
    0.29656E+06         0.22074E+08         0.00000E+00
    0.00000E+00         0.00000E+00         0.94035E+07
 
    0.91762E+07         0.27579E+06         0.00000E+00
    0.27579E+06         0.21904E+08         0.00000E+00
    0.00000E+00         0.00000E+00         0.93240E+07
 
    0.90796E+07         0.25303E+06         0.00000E+00
    0.25303E+06         0.21733E+08         0.00000E+00
    0.00000E+00         0.00000E+00         0.92437E+07
 
    0.89815E+07         0.22837E+06         0.00000E+00
    0.22837E+06         0.21561E+08         0.00000E+00
    0.00000E+00         0.00000E+00         0.91629E+07
 
    0.88818E+07         0.20200E+06         0.00000E+00
    0.20200E+06         0.21391E+08         0.00000E+00
    0.00000E+00         0.00000E+00         0.90818E+07
 
    0.87801E+07         0.17423E+06         0.00000E+00
    0.17423E+06         0.21223E+08         0.00000E+00
    0.00000E+00         0.00000E+00         0.90009E+07
 
    0.86761E+07         0.14554E+06         0.00000E+00
    0.14554E+06         0.21059E+08         0.00000E+00
    0.00000E+00         0.00000E+00         0.89204E+07
 
    0.85688E+07         0.11665E+06         0.00000E+00
    0.11665E+06         0.20900E+08         0.00000E+00
    0.00000E+00         0.00000E+00         0.88407E+07
 
    0.84566E+07         0.88522E+05         0.00000E+00
    0.88522E+05         0.20751E+08         0.00000E+00
    0.00000E+00         0.00000E+00         0.87623E+07
 
    0.83376E+07         0.62388E+05         0.00000E+00
    0.62388E+05         0.20614E+08         0.00000E+00
    0.00000E+00         0.00000E+00         0.86854E+07
 
    0.82091E+07         0.39602E+05         0.00000E+00
    0.39602E+05         0.20491E+08         0.00000E+00
    0.00000E+00         0.00000E+00         0.86100E+07
 
    0.80686E+07         0.21111E+05         0.00000E+00
    0.21111E+05         0.20385E+08         0.00000E+00
    0.00000E+00         0.00000E+00         0.85361E+07
 
    0.79146E+07         0.65030E+04         0.00000E+00
    0.65030E+04         0.20296E+08         0.00000E+00
    0.00000E+00         0.00000E+00         0.84632E+07
 
    0.12856E+08         0.25610E+04         0.00000E+00
    0.25610E+04         0.29504E+08         0.00000E+00
    0.00000E+00         0.00000E+00         0.12708E+08
 
    0.12823E+08         0.80454E+04         0.00000E+00
    0.80454E+04         0.29485E+08         0.00000E+00
    0.00000E+00         0.00000E+00         0.12692E+08
 
    0.12793E+08         0.14428E+05         0.00000E+00
    0.14428E+05         0.29461E+08         0.00000E+00
    0.00000E+00         0.00000E+00         0.12676E+08
 
    0.12765E+08         0.21845E+05         0.00000E+00
    0.21845E+05         0.29434E+08         0.00000E+00
    0.00000E+00         0.00000E+00         0.12660E+08
 
    0.12740E+08         0.30124E+05         0.00000E+00
    0.30124E+05         0.29404E+08         0.00000E+00
    0.00000E+00         0.00000E+00         0.12643E+08
 
    0.12716E+08         0.38967E+05         0.00000E+00
    0.38967E+05         0.29370E+08         0.00000E+00
    0.00000E+00         0.00000E+00         0.12626E+08
 
    0.12693E+08         0.48092E+05         0.00000E+00
    0.48092E+05         0.29335E+08         0.00000E+00
    0.00000E+00         0.00000E+00         0.12608E+08
 
    0.12671E+08         0.57273E+05         0.00000E+00
    0.57273E+05         0.29298E+08         0.00000E+00
    0.00000E+00         0.00000E+00         0.12591E+08
 
    0.12649E+08         0.66345E+05         0.00000E+00
    0.66345E+05         0.29260E+08         0.00000E+00
    0.00000E+00         0.00000E+00         0.12573E+08
 
    0.12628E+08         0.75196E+05         0.00000E+00
    0.75196E+05         0.29220E+08         0.00000E+00
    0.00000E+00         0.00000E+00         0.12554E+08
 
    0.12607E+08         0.83759E+05         0.00000E+00
    0.83759E+05         0.29180E+08         0.00000E+00
    0.00000E+00         0.00000E+00         0.12536E+08
 
    0.12586E+08         0.91998E+05         0.00000E+00
    0.91998E+05         0.29140E+08         0.00000E+00
    0.00000E+00         0.00000E+00         0.12518E+08
 
    0.12565E+08         0.99900E+05         0.00000E+00
    0.99900E+05         0.29099E+08         0.00000E+00
    0.00000E+00         0.00000E+00         0.12499E+08
 
    0.12544E+08         0.10747E+06         0.00000E+00
    0.10747E+06         0.29057E+08         0.00000E+00
    0.00000E+00         0.00000E+00         0.12480E+08
 
    0.12523E+08         0.11471E+06         0.00000E+00
    0.11471E+06         0.29015E+08         0.00000E+00
    0.00000E+00         0.00000E+00         0.12462E+08
 
    0.12503E+08         0.12166E+06         0.00000E+00
    0.12166E+06         0.28973E+08         0.00000E+00
    0.00000E+00         0.00000E+00         0.12443E+08
 
    0.12482E+08         0.12834E+06         0.00000E+00
    0.12834E+06         0.28930E+08         0.00000E+00
    0.00000E+00         0.00000E+00         0.12424E+08
 
    0.12462E+08         0.13476E+06         0.00000E+00
    0.13476E+06         0.28887E+08         0.00000E+00
    0.00000E+00         0.00000E+00         0.12405E+08
 
    0.12442E+08         0.14097E+06         0.00000E+00
    0.14097E+06         0.28843E+08         0.00000E+00
    0.00000E+00         0.00000E+00         0.12385E+08
 
    0.12421E+08         0.14699E+06         0.00000E+00
    0.14699E+06         0.28798E+08         0.00000E+00
    0.00000E+00         0.00000E+00         0.12366E+08
 
    0.12401E+08         0.15284E+06         0.00000E+00
    0.15284E+06         0.28753E+08         0.00000E+00
    0.00000E+00         0.00000E+00         0.12346E+08
 
    0.12380E+08         0.15855E+06         0.00000E+00
    0.15855E+06         0.28707E+08         0.00000E+00
    0.00000E+00         0.00000E+00         0.12326E+08
 
    0.12360E+08         0.16415E+06         0.00000E+00
    0.16415E+06         0.28660E+08         0.00000E+00
    0.00000E+00         0.00000E+00         0.12306E+08
 
    0.12339E+08         0.16965E+06         0.00000E+00
    0.16965E+06         0.28612E+08         0.00000E+00
    0.00000E+00         0.00000E+00         0.12285E+08
 
    0.12318E+08         0.17507E+06         0.00000E+00
    0.17507E+06         0.28564E+08         0.00000E+00
    0.00000E+00         0.00000E+00         0.12265E+08
 
    0.12297E+08         0.18044E+06         0.00000E+00
    0.18044E+06         0.28515E+08         0.00000E+00
    0.00000E+00         0.00000E+00         0.12243E+08
 
    0.12275E+08         0.18576E+06         0.00000E+00
    0.18576E+06         0.28464E+08         0.00000E+00
    0.00000E+00         0.00000E+00         0.12222E+08
 
    0.12253E+08         0.19104E+06         0.00000E+00
    0.19104E+06         0.28413E+08         0.00000E+00
    0.00000E+00         0.00000E+00         0.12200E+08
 
    0.12231E+08         0.19632E+06         0.00000E+00
    0.19632E+06         0.28360E+08         0.00000E+00
    0.00000E+00         0.00000E+00         0.12178E+08
 
    0.12209E+08         0.20158E+06         0.00000E+00
    0.20158E+06         0.28307E+08         0.00000E+00
    0.00000E+00         0.00000E+00         0.12155E+08
 
    0.12186E+08         0.20685E+06         0.00000E+00
    0.20685E+06         0.28252E+08         0.00000E+00
    0.00000E+00         0.00000E+00         0.12131E+08
 
    0.12162E+08         0.21212E+06         0.00000E+00
    0.21212E+06         0.28196E+08         0.00000E+00
    0.00000E+00         0.00000E+00         0.12108E+08
 
    0.12139E+08         0.21741E+06         0.00000E+00
    0.21741E+06         0.28139E+08         0.00000E+00
    0.00000E+00         0.00000E+00         0.12083E+08
 
    0.12114E+08         0.22272E+06         0.00000E+00
    0.22272E+06         0.28080E+08         0.00000E+00
    0.00000E+00         0.00000E+00         0.12058E+08
 
    0.12089E+08         0.22806E+06         0.00000E+00
    0.22806E+06         0.28020E+08         0.00000E+00
    0.00000E+00         0.00000E+00         0.12033E+08
 
    0.12064E+08         0.23343E+06         0.00000E+00
    0.23343E+06         0.27959E+08         0.00000E+00
    0.00000E+00         0.00000E+00         0.12007E+08
 
    0.12038E+08         0.23883E+06         0.00000E+00
    0.23883E+06         0.27896E+08         0.00000E+00
    0.00000E+00         0.00000E+00         0.11980E+08
 
    0.12011E+08         0.24426E+06         0.00000E+00
    0.24426E+06         0.27832E+08         0.00000E+00
    0.00000E+00         0.00000E+00         0.11953E+08
 
    0.11984E+08         0.24973E+06         0.00000E+00
    0.24973E+06         0.27766E+08         0.00000E+00
    0.00000E+00         0.00000E+00         0.11925E+08
 
    0.11956E+08         0.25523E+06         0.00000E+00
    0.25523E+06         0.27699E+08         0.00000E+00
    0.00000E+00         0.00000E+00         0.11897E+08
 
    0.11927E+08         0.26077E+06         0.00000E+00
    0.26077E+06         0.27630E+08         0.00000E+00
    0.00000E+00         0.00000E+00         0.11867E+08
 
    0.11898E+08         0.26633E+06         0.00000E+00
    0.26633E+06         0.27560E+08         0.00000E+00
    0.00000E+00         0.00000E+00         0.11837E+08
 
    0.11868E+08         0.27193E+06         0.00000E+00
    0.27193E+06         0.27487E+08         0.00000E+00
    0.00000E+00         0.00000E+00         0.11807E+08
 
    0.11837E+08         0.27755E+06         0.00000E+00
    0.27755E+06         0.27414E+08         0.00000E+00
    0.00000E+00         0.00000E+00         0.11775E+08
 
    0.11805E+08         0.28319E+06         0.00000E+00
    0.28319E+06         0.27338E+08         0.00000E+00
    0.00000E+00         0.00000E+00         0.11743E+08
 
    0.11772E+08         0.28885E+06         0.00000E+00
    0.28885E+06         0.27260E+08         0.00000E+00
    0.00000E+00         0.00000E+00         0.11710E+08
 
    0.11739E+08         0.29452E+06         0.00000E+00
    0.29452E+06         0.27181E+08         0.00000E+00
    0.00000E+00         0.00000E+00         0.11676E+08
 
    0.11704E+08         0.30020E+06         0.00000E+00
    0.30020E+06         0.27100E+08         0.00000E+00
    0.00000E+00         0.00000E+00         0.11641E+08
 
    0.11669E+08         0.30587E+06         0.00000E+00
    0.30587E+06         0.27017E+08         0.00000E+00
    0.00000E+00         0.00000E+00         0.11606E+08
 
    0.11632E+08         0.31154E+06         0.00000E+00
    0.31154E+06         0.26931E+08         0.00000E+00
    0.00000E+00         0.00000E+00         0.11569E+08
 
    0.11595E+08         0.31718E+06         0.00000E+00
    0.31718E+06         0.26844E+08         0.00000E+00
    0.00000E+00         0.00000E+00         0.11532E+08
 
    0.11557E+08         0.32279E+06         0.00000E+00
    0.32279E+06         0.26755E+08         0.00000E+00
    0.00000E+00         0.00000E+00         0.11494E+08
 
    0.11518E+08         0.32837E+06         0.00000E+00
    0.32837E+06         0.26664E+08         0.00000E+00
    0.00000E+00         0.00000E+00         0.11455E+08
 
    0.11477E+08         0.33389E+06         0.00000E+00
    0.33389E+06         0.26571E+08         0.00000E+00
    0.00000E+00         0.00000E+00         0.11415E+08
 
    0.11436E+08         0.33935E+06         0.00000E+00
    0.33935E+06         0.26476E+08         0.00000E+00
    0.00000E+00         0.00000E+00         0.11374E+08
 
    0.11393E+08         0.34472E+06         0.00000E+00
    0.34472E+06         0.26379E+08         0.00000E+00
    0.00000E+00         0.00000E+00         0.11332E+08
 
    0.11350E+08         0.35001E+06         0.00000E+00
    0.35001E+06         0.26279E+08         0.00000E+00
    0.00000E+00         0.00000E+00         0.11289E+08
 
    0.11305E+08         0.35518E+06         0.00000E+00
    0.35518E+06         0.26177E+08         0.00000E+00
    0.00000E+00         0.00000E+00         0.11245E+08
 
    0.11259E+08         0.36022E+06         0.00000E+00
    0.36022E+06         0.26074E+08         0.00000E+00
    0.00000E+00         0.00000E+00         0.11200E+08
 
    0.11212E+08         0.36512E+06         0.00000E+00
    0.36512E+06         0.25968E+08         0.00000E+00
    0.00000E+00         0.00000E+00         0.11154E+08
 
    0.11163E+08         0.36985E+06         0.00000E+00
    0.36985E+06         0.25859E+08         0.00000E+00
    0.00000E+00         0.00000E+00         0.11107E+08
 
    0.11114E+08         0.37439E+06         0.00000E+00
    0.37439E+06         0.25749E+08         0.00000E+00
    0.00000E+00         0.00000E+00         0.11059E+08
 
    0.11063E+08         0.37871E+06         0.00000E+00
    0.37871E+06         0.25636E+08         0.00000E+00
    0.00000E+00         0.00000E+00         0.11010E+08
 
    0.11010E+08         0.38280E+06         0.00000E+00
    0.38280E+06         0.25521E+08         0.00000E+00
    0.00000E+00         0.00000E+00         0.10959E+08
 
    0.10957E+08         0.38662E+06         0.00000E+00
    0.38662E+06         0.25404E+08         0.00000E+00
    0.00000E+00         0.00000E+00         0.10908E+08
 
    0.10901E+08         0.39013E+06         0.00000E+00
    0.39013E+06         0.25284E+08         0.00000E+00
    0.00000E+00         0.00000E+00         0.10856E+08
 
    0.10845E+08         0.39332E+06         0.00000E+00
    0.39332E+06         0.25162E+08         0.00000E+00
    0.00000E+00         0.00000E+00         0.10802E+08
 
    0.10787E+08         0.39614E+06         0.00000E+00
    0.39614E+06         0.25038E+08         0.00000E+00
    0.00000E+00         0.00000E+00         0.10748E+08
 
    0.10728E+08         0.39855E+06         0.00000E+00
    0.39855E+06         0.24912E+08         0.00000E+00
    0.00000E+00         0.00000E+00         0.10692E+08
 
    0.10667E+08         0.40052E+06         0.00000E+00
    0.40052E+06         0.24783E+08         0.00000E+00
    0.00000E+00         0.00000E+00         0.10635E+08
 
    0.10604E+08         0.40200E+06         0.00000E+00
    0.40200E+06         0.24652E+08         0.00000E+00
    0.00000E+00         0.00000E+00         0.10577E+08
 
    0.10540E+08         0.40293E+06         0.00000E+00
    0.40293E+06         0.24519E+08         0.00000E+00
    0.00000E+00         0.00000E+00         0.10518E+08
 
    0.10474E+08         0.40327E+06         0.00000E+00
    0.40327E+06         0.24383E+08         0.00000E+00
    0.00000E+00         0.00000E+00         0.10457E+08
 
    0.10407E+08         0.40295E+06         0.00000E+00
    0.40295E+06         0.24245E+08         0.00000E+00
    0.00000E+00         0.00000E+00         0.10396E+08
 
    0.10337E+08         0.40192E+06         0.00000E+00
    0.40192E+06         0.24105E+08         0.00000E+00
    0.00000E+00         0.00000E+00         0.10333E+08
 
    0.10266E+08         0.40010E+06         0.00000E+00
    0.40010E+06         0.23963E+08         0.00000E+00
    0.00000E+00         0.00000E+00         0.10269E+08
 
    0.10193E+08         0.39742E+06         0.00000E+00
    0.39742E+06         0.23818E+08         0.00000E+00
    0.00000E+00         0.00000E+00         0.10203E+08
 
    0.10119E+08         0.39380E+06         0.00000E+00
    0.39380E+06         0.23671E+08         0.00000E+00
    0.00000E+00         0.00000E+00         0.10137E+08
 
    0.10042E+08         0.38914E+06         0.00000E+00
    0.38914E+06         0.23522E+08         0.00000E+00
    0.00000E+00         0.00000E+00         0.10069E+08
 
    0.99634E+07         0.38335E+06         0.00000E+00
    0.38335E+06         0.23370E+08         0.00000E+00
    0.00000E+00         0.00000E+00         0.10000E+08
 
    0.98828E+07         0.37633E+06         0.00000E+00
    0.37633E+06         0.23216E+08         0.00000E+00
    0.00000E+00         0.00000E+00         0.99297E+07
 
    0.98001E+07         0.36796E+06         0.00000E+00
    0.36796E+06         0.23060E+08         0.00000E+00
    0.00000E+00         0.00000E+00         0.98581E+07
 
    0.97154E+07         0.35815E+06         0.00000E+00
    0.35815E+06         0.22902E+08         0.00000E+00
    0.00000E+00         0.00000E+00         0.97851E+07
 
    0.96287E+07         0.34677E+06         0.00000E+00
    0.34677E+06         0.22741E+08         0.00000E+00
    0.00000E+00         0.00000E+00         0.97109E+07
 
    0.95400E+07         0.33371E+06         0.00000E+00
    0.33371E+06         0.22578E+08         0.00000E+00
    0.00000E+00         0.00000E+00         0.96355E+07
 
    0.94493E+07         0.31887E+06         0.00000E+00
    0.31887E+06         0.22413E+08         0.00000E+00
    0.00000E+00         0.00000E+00         0.95588E+07
 
    0.93567E+07         0.30214E+06         0.00000E+00
    0.30214E+06         0.22246E+08         0.00000E+00
    0.00000E+00         0.00000E+00         0.94809E+07
 
    0.92622E+07         0.28345E+06         0.00000E+00
    0.28345E+06         0.22078E+08         0.00000E+00
    0.00000E+00         0.00000E+00         0.94021E+07
 
    0.91660E+07         0.26278E+06         0.00000E+00
    0.26278E+06         0.21908E+08         0.00000E+00
    0.00000E+00         0.00000E+00         0.93222E+07
 
    0.90680E+07         0.24013E+06         0.00000E+00
    0.24013E+06         0.21737E+08         0.00000E+00
    0.00000E+00         0.00000E+00         0.92416E+07
 
    0.89683E+07         0.21560E+06         0.00000E+00
    0.21560E+06         0.21566E+08         0.00000E+00
    0.00000E+00         0.00000E+00         0.91604E+07
 
    0.88669E+07         0.18940E+06         0.00000E+00
    0.18940E+06         0.21396E+08         0.00000E+00
    0.00000E+00         0.00000E+00         0.90790E+07
 
    0.87634E+07         0.16189E+06         0.00000E+00
    0.16189E+06         0.21228E+08         0.00000E+00
    0.00000E+00         0.00000E+00         0.89976E+07
 
    0.86574E+07         0.13361E+06         0.00000E+00
    0.13361E+06         0.21064E+08         0.00000E+00
    0.00000E+00         0.00000E+00         0.89165E+07
 
    0.85480E+07         0.10538E+06         0.00000E+00
    0.10538E+06         0.20906E+08         0.00000E+00
    0.00000E+00         0.00000E+00         0.88362E+07
 
    0.84339E+07         0.78290E+05         0.00000E+00
    0.78290E+05         0.20756E+08         0.00000E+00
    0.00000E+00         0.00000E+00         0.87571E+07
 
    0.83129E+07         0.53683E+05         0.00000E+00
    0.53683E+05         0.20618E+08         0.00000E+00
    0.00000E+00         0.00000E+00         0.86794E+07
 
    0.81829E+07         0.32964E+05         0.00000E+00
    0.32964E+05         0.20495E+08         0.00000E+00
    0.00000E+00         0.00000E+00         0.86033E+07
 
    0.80413E+07         0.16975E+05         0.00000E+00
    0.16975E+05         0.20388E+08         0.00000E+00
    0.00000E+00         0.00000E+00         0.85288E+07
 
    0.78867E+07         0.51036E+04         0.00000E+00
    0.51036E+04         0.20298E+08         0.00000E+00
    0.00000E+00         0.00000E+00         0.84555E+07
 
    0.12864E+08         0.22381E+04         0.00000E+00
    0.22381E+04         0.29503E+08         0.00000E+00
    0.00000E+00         0.00000E+00         0.12710E+08
 
    0.12831E+08         0.70914E+04         0.00000E+00
    0.70914E+04         0.29484E+08         0.00000E+00
    0.00000E+00         0.00000E+00         0.12694E+08
 
    0.12800E+08         0.12893E+05         0.00000E+00
    0.12893E+05         0.29460E+08         0.00000E+00
    0.00000E+00         0.00000E+00         0.12678E+08
 
    0.12772E+08         0.19818E+05         0.00000E+00
    0.19818E+05         0.29433E+08         0.00000E+00
    0.00000E+00         0.00000E+00         0.12661E+08
 
    0.12746E+08         0.27709E+05         0.00000E+00
    0.27709E+05         0.29402E+08         0.00000E+00
    0.00000E+00         0.00000E+00         0.12645E+08
 
    0.12722E+08         0.36261E+05         0.00000E+00
    0.36261E+05         0.29369E+08         0.00000E+00
    0.00000E+00         0.00000E+00         0.12627E+08
 
    0.12699E+08         0.45168E+05         0.00000E+00
    0.45168E+05         0.29333E+08         0.00000E+00
    0.00000E+00         0.00000E+00         0.12610E+08
 
    0.12676E+08         0.54176E+05         0.00000E+00
    0.54176E+05         0.29296E+08         0.00000E+00
    0.00000E+00         0.00000E+00         0.12592E+08
 
    0.12654E+08         0.63103E+05         0.00000E+00
    0.63103E+05         0.29258E+08         0.00000E+00
    0.00000E+00         0.00000E+00         0.12574E+08
 
    0.12632E+08         0.71823E+05         0.00000E+00
    0.71823E+05         0.29219E+08         0.00000E+00
    0.00000E+00         0.00000E+00         0.12555E+08
 
    0.12611E+08         0.80261E+05         0.00000E+00
    0.80261E+05         0.29179E+08         0.00000E+00
    0.00000E+00         0.00000E+00         0.12537E+08
 
    0.12590E+08         0.88374E+05         0.00000E+00
    0.88374E+05         0.29138E+08         0.00000E+00
    0.00000E+00         0.00000E+00         0.12518E+08
 
    0.12569E+08         0.96147E+05         0.00000E+00
    0.96147E+05         0.29097E+08         0.00000E+00
    0.00000E+00         0.00000E+00         0.12500E+08
 
    0.12548E+08         0.10358E+06         0.00000E+00
    0.10358E+06         0.29056E+08         0.00000E+00
    0.00000E+00         0.00000E+00         0.12481E+08
 
    0.12527E+08         0.11069E+06         0.00000E+00
    0.11069E+06         0.29014E+08         0.00000E+00
    0.00000E+00         0.00000E+00         0.12462E+08
 
    0.12506E+08         0.11750E+06         0.00000E+00
    0.11750E+06         0.28972E+08         0.00000E+00
    0.00000E+00         0.00000E+00         0.12443E+08
 
    0.12486E+08         0.12403E+06         0.00000E+00
    0.12403E+06         0.28929E+08         0.00000E+00
    0.00000E+00         0.00000E+00         0.12424E+08
 
    0.12465E+08         0.13032E+06         0.00000E+00
    0.13032E+06         0.28885E+08         0.00000E+00
    0.00000E+00         0.00000E+00         0.12405E+08
 
    0.12445E+08         0.13638E+06         0.00000E+00
    0.13638E+06         0.28841E+08         0.00000E+00
    0.00000E+00         0.00000E+00         0.12386E+08
 
    0.12425E+08         0.14225E+06         0.00000E+00
    0.14225E+06         0.28797E+08         0.00000E+00
    0.00000E+00         0.00000E+00         0.12366E+08
 
    0.12404E+08         0.14795E+06         0.00000E+00
    0.14795E+06         0.28752E+08         0.00000E+00
    0.00000E+00         0.00000E+00         0.12347E+08
 
    0.12384E+08         0.15351E+06         0.00000E+00
    0.15351E+06         0.28706E+08         0.00000E+00
    0.00000E+00         0.00000E+00         0.12327E+08
 
    0.12363E+08         0.15895E+06         0.00000E+00
    0.15895E+06         0.28659E+08         0.00000E+00
    0.00000E+00         0.00000E+00         0.12307E+08
 
    0.12342E+08         0.16430E+06         0.00000E+00
    0.16430E+06         0.28611E+08         0.00000E+00
    0.00000E+00         0.00000E+00         0.12286E+08
 
    0.12321E+08         0.16957E+06         0.00000E+00
    0.16957E+06         0.28563E+08         0.00000E+00
    0.00000E+00         0.00000E+00         0.12265E+08
 
    0.12300E+08         0.17478E+06         0.00000E+00
    0.17478E+06         0.28514E+08         0.00000E+00
    0.00000E+00         0.00000E+00         0.12244E+08
 
    0.12278E+08         0.17994E+06         0.00000E+00
    0.17994E+06         0.28463E+08         0.00000E+00
    0.00000E+00         0.00000E+00         0.12223E+08
 
    0.12257E+08         0.18507E+06         0.00000E+00
    0.18507E+06         0.28412E+08         0.00000E+00
    0.00000E+00         0.00000E+00         0.12201E+08
 
    0.12234E+08         0.19019E+06         0.00000E+00
    0.19019E+06         0.28359E+08         0.00000E+00
    0.00000E+00         0.00000E+00         0.12178E+08
 
    0.12212E+08         0.19529E+06         0.00000E+00
    0.19529E+06         0.28306E+08         0.00000E+00
    0.00000E+00         0.00000E+00         0.12155E+08
 
    0.12189E+08         0.20040E+06         0.00000E+00
    0.20040E+06         0.28251E+08         0.00000E+00
    0.00000E+00         0.00000E+00         0.12132E+08
 
    0.12166E+08         0.20551E+06         0.00000E+00
    0.20551E+06         0.28195E+08         0.00000E+00
    0.00000E+00         0.00000E+00         0.12108E+08
 
    0.12142E+08         0.21064E+06         0.00000E+00
    0.21064E+06         0.28138E+08         0.00000E+00
    0.00000E+00         0.00000E+00         0.12084E+08
 
    0.12118E+08         0.21579E+06         0.00000E+00
    0.21579E+06         0.28079E+08         0.00000E+00
    0.00000E+00         0.00000E+00         0.12059E+08
 
    0.12093E+08         0.22096E+06         0.00000E+00
    0.22096E+06         0.28019E+08         0.00000E+00
    0.00000E+00         0.00000E+00         0.12034E+08
 
    0.12067E+08         0.22616E+06         0.00000E+00
    0.22616E+06         0.27958E+08         0.00000E+00
    0.00000E+00         0.00000E+00         0.12008E+08
 
    0.12041E+08         0.23138E+06         0.00000E+00
    0.23138E+06         0.27895E+08         0.00000E+00
    0.00000E+00         0.00000E+00         0.11981E+08
 
    0.12015E+08         0.23665E+06         0.00000E+00
    0.23665E+06         0.27831E+08         0.00000E+00
    0.00000E+00         0.00000E+00         0.11954E+08
 
    0.11988E+08         0.24194E+06         0.00000E+00
    0.24194E+06         0.27765E+08         0.00000E+00
    0.00000E+00         0.00000E+00         0.11926E+08
 
    0.11960E+08         0.24726E+06         0.00000E+00
    0.24726E+06         0.27698E+08         0.00000E+00
    0.00000E+00         0.00000E+00         0.11897E+08
 
    0.11931E+08         0.25262E+06         0.00000E+00
    0.25262E+06         0.27629E+08         0.00000E+00
    0.00000E+00         0.00000E+00         0.11868E+08
 
    0.11901E+08         0.25800E+06         0.00000E+00
    0.25800E+06         0.27559E+08         0.00000E+00
    0.00000E+00         0.00000E+00         0.11838E+08
 
    0.11871E+08         0.26342E+06         0.00000E+00
    0.26342E+06         0.27486E+08         0.00000E+00
    0.00000E+00         0.00000E+00         0.11807E+08
 
    0.11840E+08         0.26885E+06         0.00000E+00
    0.26885E+06         0.27412E+08         0.00000E+00
    0.00000E+00         0.00000E+00         0.11776E+08
 
    0.11809E+08         0.27431E+06         0.00000E+00
    0.27431E+06         0.27337E+08         0.00000E+00
    0.00000E+00         0.00000E+00         0.11744E+08
 
    0.11776E+08         0.27978E+06         0.00000E+00
    0.27978E+06         0.27259E+08         0.00000E+00
    0.00000E+00         0.00000E+00         0.11711E+08
 
    0.11742E+08         0.28526E+06         0.00000E+00
    0.28526E+06         0.27180E+08         0.00000E+00
    0.00000E+00         0.00000E+00         0.11677E+08
 
    0.11708E+08         0.29075E+06         0.00000E+00
    0.29075E+06         0.27099E+08         0.00000E+00
    0.00000E+00         0.00000E+00         0.11642E+08
 
    0.11673E+08         0.29623E+06         0.00000E+00
    0.29623E+06         0.27015E+08         0.00000E+00
    0.00000E+00         0.00000E+00         0.11606E+08
 
    0.11636E+08         0.30170E+06         0.00000E+00
    0.30170E+06         0.26930E+08         0.00000E+00
    0.00000E+00         0.00000E+00         0.11570E+08
 
    0.11599E+08         0.30715E+06         0.00000E+00
    0.30715E+06         0.26843E+08         0.00000E+00
    0.00000E+00         0.00000E+00         0.11533E+08
 
    0.11561E+08         0.31257E+06         0.00000E+00
    0.31257E+06         0.26754E+08         0.00000E+00
    0.00000E+00         0.00000E+00         0.11495E+08
 
    0.11522E+08         0.31795E+06         0.00000E+00
    0.31795E+06         0.26663E+08         0.00000E+00
    0.00000E+00         0.00000E+00         0.11455E+08
 
    0.11481E+08         0.32328E+06         0.00000E+00
    0.32328E+06         0.26570E+08         0.00000E+00
    0.00000E+00         0.00000E+00         0.11415E+08
 
    0.11440E+08         0.32854E+06         0.00000E+00
    0.32854E+06         0.26475E+08         0.00000E+00
    0.00000E+00         0.00000E+00         0.11374E+08
 
    0.11397E+08         0.33373E+06         0.00000E+00
    0.33373E+06         0.26377E+08         0.00000E+00
    0.00000E+00         0.00000E+00         0.11332E+08
 
    0.11353E+08         0.33882E+06         0.00000E+00
    0.33882E+06         0.26278E+08         0.00000E+00
    0.00000E+00         0.00000E+00         0.11289E+08
 
    0.11309E+08         0.34381E+06         0.00000E+00
    0.34381E+06         0.26176E+08         0.00000E+00
    0.00000E+00         0.00000E+00         0.11246E+08
 
    0.11263E+08         0.34867E+06         0.00000E+00
    0.34867E+06         0.26073E+08         0.00000E+00
    0.00000E+00         0.00000E+00         0.11201E+08
 
    0.11215E+08         0.35338E+06         0.00000E+00
    0.35338E+06         0.25967E+08         0.00000E+00
    0.00000E+00         0.00000E+00         0.11155E+08
 
    0.11167E+08         0.35793E+06         0.00000E+00
    0.35793E+06         0.25858E+08         0.00000E+00
    0.00000E+00         0.00000E+00         0.11108E+08
 
    0.11117E+08         0.36229E+06         0.00000E+00
    0.36229E+06         0.25748E+08         0.00000E+00
    0.00000E+00         0.00000E+00         0.11059E+08
 
    0.11066E+08         0.36645E+06         0.00000E+00
    0.36645E+06         0.25635E+08         0.00000E+00
    0.00000E+00         0.00000E+00         0.11010E+08
 
    0.11013E+08         0.37037E+06         0.00000E+00
    0.37037E+06         0.25520E+08         0.00000E+00
    0.00000E+00         0.00000E+00         0.10960E+08
 
    0.10960E+08         0.37402E+06         0.00000E+00
    0.37402E+06         0.25403E+08         0.00000E+00
    0.00000E+00         0.00000E+00         0.10909E+08
 
    0.10904E+08         0.37739E+06         0.00000E+00
    0.37739E+06         0.25284E+08         0.00000E+00
    0.00000E+00         0.00000E+00         0.10856E+08
 
    0.10848E+08         0.38043E+06         0.00000E+00
    0.38043E+06         0.25162E+08         0.00000E+00
    0.00000E+00         0.00000E+00         0.10803E+08
 
    0.10790E+08         0.38311E+06         0.00000E+00
    0.38311E+06         0.25038E+08         0.00000E+00
    0.00000E+00         0.00000E+00         0.10748E+08
 
    0.10730E+08         0.38540E+06         0.00000E+00
    0.38540E+06         0.24911E+08         0.00000E+00
    0.00000E+00         0.00000E+00         0.10692E+08
 
    0.10669E+08         0.38725E+06         0.00000E+00
    0.38725E+06         0.24783E+08         0.00000E+00
    0.00000E+00         0.00000E+00         0.10635E+08
 
    0.10606E+08         0.38863E+06         0.00000E+00
    0.38863E+06         0.24652E+08         0.00000E+00
    0.00000E+00         0.00000E+00         0.10577E+08
 
    0.10542E+08         0.38947E+06         0.00000E+00
    0.38947E+06         0.24519E+08         0.00000E+00
    0.00000E+00         0.00000E+00         0.10518E+08
 
    0.10475E+08         0.38973E+06         0.00000E+00
    0.38973E+06         0.24383E+08         0.00000E+00
    0.00000E+00         0.00000E+00         0.10458E+08
 
    0.10408E+08         0.38935E+06         0.00000E+00
    0.38935E+06         0.24246E+08         0.00000E+00
    0.00000E+00         0.00000E+00         0.10396E+08
 
    0.10338E+08         0.38828E+06         0.00000E+00
    0.38828E+06         0.24106E+08         0.00000E+00
    0.00000E+00         0.00000E+00         0.10333E+08
 
    0.10267E+08         0.38643E+06         0.00000E+00
    0.38643E+06         0.23963E+08         0.00000E+00
    0.00000E+00         0.00000E+00         0.10269E+08
 
    0.10193E+08         0.38373E+06         0.00000E+00
    0.38373E+06         0.23819E+08         0.00000E+00
    0.00000E+00         0.00000E+00         0.10204E+08
 
    0.10118E+08         0.38011E+06         0.00000E+00
    0.38011E+06         0.23672E+08         0.00000E+00
    0.00000E+00         0.00000E+00         0.10137E+08
 
    0.10041E+08         0.37547E+06         0.00000E+00
    0.37547E+06         0.23523E+08         0.00000E+00
    0.00000E+00         0.00000E+00         0.10069E+08
 
    0.99617E+07         0.36972E+06         0.00000E+00
    0.36972E+06         0.23371E+08         0.00000E+00
    0.00000E+00         0.00000E+00         0.99999E+07
 
    0.98804E+07         0.36276E+06         0.00000E+00
    0.36276E+06         0.23218E+08         0.00000E+00
    0.00000E+00         0.00000E+00         0.99295E+07
 
    0.97971E+07         0.35447E+06         0.00000E+00
    0.35447E+06         0.23062E+08         0.00000E+00
    0.00000E+00         0.00000E+00         0.98577E+07
 
    0.97117E+07         0.34474E+06         0.00000E+00
    0.34474E+06         0.22904E+08         0.00000E+00
    0.00000E+00         0.00000E+00         0.97846E+07
 
    0.96241E+07         0.33346E+06         0.00000E+00
    0.33346E+06         0.22743E+08         0.00000E+00
    0.00000E+00         0.00000E+00         0.97103E+07
 
    0.95345E+07         0.32051E+06         0.00000E+00
    0.32051E+06         0.22581E+08         0.00000E+00
    0.00000E+00         0.00000E+00         0.96346E+07
 
    0.94428E+07         0.30577E+06         0.00000E+00
    0.30577E+06         0.22416E+08         0.00000E+00
    0.00000E+00         0.00000E+00         0.95578E+07
 
    0.93491E+07         0.28916E+06         0.00000E+00
    0.28916E+06         0.22250E+08         0.00000E+00
    0.00000E+00         0.00000E+00         0.94797E+07
 
    0.92535E+07         0.27060E+06         0.00000E+00
    0.27060E+06         0.22082E+08         0.00000E+00
    0.00000E+00         0.00000E+00         0.94006E+07
 
    0.91559E+07         0.25005E+06         0.00000E+00
    0.25005E+06         0.21912E+08         0.00000E+00
    0.00000E+00         0.00000E+00         0.93205E+07
 
    0.90565E+07         0.22753E+06         0.00000E+00
    0.22753E+06         0.21742E+08         0.00000E+00
    0.00000E+00         0.00000E+00         0.92396E+07
 
    0.89552E+07         0.20316E+06         0.00000E+00
    0.20316E+06         0.21572E+08         0.00000E+00
    0.00000E+00         0.00000E+00         0.91580E+07
 
    0.88520E+07         0.17716E+06         0.00000E+00
    0.17716E+06         0.21402E+08         0.00000E+00
    0.00000E+00         0.00000E+00         0.90761E+07
 
    0.87466E+07         0.14993E+06         0.00000E+00
    0.14993E+06         0.21234E+08         0.00000E+00
    0.00000E+00         0.00000E+00         0.89942E+07
 
    0.86386E+07         0.12209E+06         0.00000E+00
    0.12209E+06         0.21070E+08         0.00000E+00
    0.00000E+00         0.00000E+00         0.89126E+07
 
    0.85272E+07         0.94527E+05         0.00000E+00
    0.94527E+05         0.20912E+08         0.00000E+00
    0.00000E+00         0.00000E+00         0.88316E+07
 
    0.84111E+07         0.68449E+05         0.00000E+00
    0.68449E+05         0.20762E+08         0.00000E+00
    0.00000E+00         0.00000E+00         0.87518E+07
 
    0.82884E+07         0.45320E+05         0.00000E+00
    0.45320E+05         0.20623E+08         0.00000E+00
    0.00000E+00         0.00000E+00         0.86734E+07
 
    0.81569E+07         0.26580E+05         0.00000E+00
    0.26580E+05         0.20498E+08         0.00000E+00
    0.00000E+00         0.00000E+00         0.85966E+07
 
    0.80143E+07         0.12987E+05         0.00000E+00
    0.12987E+05         0.20390E+08         0.00000E+00
    0.00000E+00         0.00000E+00         0.85214E+07
 
    0.78593E+07         0.37510E+04         0.00000E+00
    0.37510E+04         0.20300E+08         0.00000E+00
    0.00000E+00         0.00000E+00         0.84478E+07
 
    0.12871E+08         0.19230E+04         0.00000E+00
    0.19230E+04         0.29502E+08         0.00000E+00
    0.00000E+00         0.00000E+00         0.12712E+08
 
    0.12838E+08         0.61627E+04         0.00000E+00
    0.61627E+04         0.29483E+08         0.00000E+00
    0.00000E+00         0.00000E+00         0.12696E+08
 
    0.12807E+08         0.11403E+05         0.00000E+00
    0.11403E+05         0.29459E+08         0.00000E+00
    0.00000E+00         0.00000E+00         0.12680E+08
 
    0.12779E+08         0.17853E+05         0.00000E+00
    0.17853E+05         0.29431E+08         0.00000E+00
    0.00000E+00         0.00000E+00         0.12663E+08
 
    0.12753E+08         0.25367E+05         0.00000E+00
    0.25367E+05         0.29400E+08         0.00000E+00
    0.00000E+00         0.00000E+00         0.12646E+08
 
    0.12728E+08         0.33633E+05         0.00000E+00
    0.33633E+05         0.29367E+08         0.00000E+00
    0.00000E+00         0.00000E+00         0.12629E+08
 
    0.12705E+08         0.42320E+05         0.00000E+00
    0.42320E+05         0.29331E+08         0.00000E+00
    0.00000E+00         0.00000E+00         0.12611E+08
 
    0.12682E+08         0.51151E+05         0.00000E+00
    0.51151E+05         0.29294E+08         0.00000E+00
    0.00000E+00         0.00000E+00         0.12593E+08
 
    0.12659E+08         0.59927E+05         0.00000E+00
    0.59927E+05         0.29256E+08         0.00000E+00
    0.00000E+00         0.00000E+00         0.12575E+08
 
    0.12637E+08         0.68509E+05         0.00000E+00
    0.68509E+05         0.29217E+08         0.00000E+00
    0.00000E+00         0.00000E+00         0.12556E+08
 
    0.12615E+08         0.76813E+05         0.00000E+00
    0.76813E+05         0.29177E+08         0.00000E+00
    0.00000E+00         0.00000E+00         0.12538E+08
 
    0.12594E+08         0.84794E+05         0.00000E+00
    0.84794E+05         0.29137E+08         0.00000E+00
    0.00000E+00         0.00000E+00         0.12519E+08
 
    0.12573E+08         0.92433E+05         0.00000E+00
    0.92433E+05         0.29096E+08         0.00000E+00
    0.00000E+00         0.00000E+00         0.12501E+08
 
    0.12552E+08         0.99731E+05         0.00000E+00
    0.99731E+05         0.29054E+08         0.00000E+00
    0.00000E+00         0.00000E+00         0.12482E+08
 
    0.12531E+08         0.10670E+06         0.00000E+00
    0.10670E+06         0.29012E+08         0.00000E+00
    0.00000E+00         0.00000E+00         0.12463E+08
 
    0.12510E+08         0.11337E+06         0.00000E+00
    0.11337E+06         0.28970E+08         0.00000E+00
    0.00000E+00         0.00000E+00         0.12444E+08
 
    0.12489E+08         0.11975E+06         0.00000E+00
    0.11975E+06         0.28927E+08         0.00000E+00
    0.00000E+00         0.00000E+00         0.12425E+08
 
    0.12469E+08         0.12588E+06         0.00000E+00
    0.12588E+06         0.28884E+08         0.00000E+00
    0.00000E+00         0.00000E+00         0.12406E+08
 
    0.12448E+08         0.13179E+06         0.00000E+00
    0.13179E+06         0.28840E+08         0.00000E+00
    0.00000E+00         0.00000E+00         0.12387E+08
 
    0.12428E+08         0.13751E+06         0.00000E+00
    0.13751E+06         0.28796E+08         0.00000E+00
    0.00000E+00         0.00000E+00         0.12367E+08
 
    0.12407E+08         0.14306E+06         0.00000E+00
    0.14306E+06         0.28750E+08         0.00000E+00
    0.00000E+00         0.00000E+00         0.12347E+08
 
    0.12387E+08         0.14847E+06         0.00000E+00
    0.14847E+06         0.28705E+08         0.00000E+00
    0.00000E+00         0.00000E+00         0.12327E+08
 
    0.12366E+08         0.15376E+06         0.00000E+00
    0.15376E+06         0.28658E+08         0.00000E+00
    0.00000E+00         0.00000E+00         0.12307E+08
 
    0.12345E+08         0.15895E+06         0.00000E+00
    0.15895E+06         0.28610E+08         0.00000E+00
    0.00000E+00         0.00000E+00         0.12287E+08
 
    0.12324E+08         0.16406E+06         0.00000E+00
    0.16406E+06         0.28562E+08         0.00000E+00
    0.00000E+00         0.00000E+00         0.12266E+08
 
    0.12303E+08         0.16912E+06         0.00000E+00
    0.16912E+06         0.28513E+08         0.00000E+00
    0.00000E+00         0.00000E+00         0.12245E+08
 
    0.12282E+08         0.17412E+06         0.00000E+00
    0.17412E+06         0.28462E+08         0.00000E+00
    0.00000E+00         0.00000E+00         0.12223E+08
 
    0.12260E+08         0.17910E+06         0.00000E+00
    0.17910E+06         0.28411E+08         0.00000E+00
    0.00000E+00         0.00000E+00         0.12201E+08
 
    0.12238E+08         0.18406E+06         0.00000E+00
    0.18406E+06         0.28358E+08         0.00000E+00
    0.00000E+00         0.00000E+00         0.12179E+08
 
    0.12215E+08         0.18900E+06         0.00000E+00
    0.18900E+06         0.28305E+08         0.00000E+00
    0.00000E+00         0.00000E+00         0.12156E+08
 
    0.12192E+08         0.19395E+06         0.00000E+00
    0.19395E+06         0.28250E+08         0.00000E+00
    0.00000E+00         0.00000E+00         0.12133E+08
 
    0.12169E+08         0.19890E+06         0.00000E+00
    0.19890E+06         0.28194E+08         0.00000E+00
    0.00000E+00         0.00000E+00         0.12109E+08
 
    0.12145E+08         0.20386E+06         0.00000E+00
    0.20386E+06         0.28137E+08         0.00000E+00
    0.00000E+00         0.00000E+00         0.12085E+08
 
    0.12121E+08         0.20884E+06         0.00000E+00
    0.20884E+06         0.28078E+08         0.00000E+00
    0.00000E+00         0.00000E+00         0.12060E+08
 
    0.12096E+08         0.21385E+06         0.00000E+00
    0.21385E+06         0.28018E+08         0.00000E+00
    0.00000E+00         0.00000E+00         0.12034E+08
 
    0.12071E+08         0.21887E+06         0.00000E+00
    0.21887E+06         0.27957E+08         0.00000E+00
    0.00000E+00         0.00000E+00         0.12008E+08
 
    0.12045E+08         0.22393E+06         0.00000E+00
    0.22393E+06         0.27894E+08         0.00000E+00
    0.00000E+00         0.00000E+00         0.11982E+08
 
    0.12018E+08         0.22902E+06         0.00000E+00
    0.22902E+06         0.27830E+08         0.00000E+00
    0.00000E+00         0.00000E+00         0.11955E+08
 
    0.11991E+08         0.23414E+06         0.00000E+00
    0.23414E+06         0.27764E+08         0.00000E+00
    0.00000E+00         0.00000E+00         0.11927E+08
 
    0.11963E+08         0.23928E+06         0.00000E+00
    0.23928E+06         0.27697E+08         0.00000E+00
    0.00000E+00         0.00000E+00         0.11898E+08
 
    0.11935E+08         0.24446E+06         0.00000E+00
    0.24446E+06         0.27628E+08         0.00000E+00
    0.00000E+00         0.00000E+00         0.11869E+08
 
    0.11905E+08         0.24967E+06         0.00000E+00
    0.24967E+06         0.27558E+08         0.00000E+00
    0.00000E+00         0.00000E+00         0.11839E+08
 
    0.11875E+08         0.25489E+06         0.00000E+00
    0.25489E+06         0.27485E+08         0.00000E+00
    0.00000E+00         0.00000E+00         0.11808E+08
 
    0.11844E+08         0.26015E+06         0.00000E+00
    0.26015E+06         0.27411E+08         0.00000E+00
    0.00000E+00         0.00000E+00         0.11777E+08
 
    0.11812E+08         0.26542E+06         0.00000E+00
    0.26542E+06         0.27336E+08         0.00000E+00
    0.00000E+00         0.00000E+00         0.11744E+08
 
    0.11780E+08         0.27070E+06         0.00000E+00
    0.27070E+06         0.27258E+08         0.00000E+00
    0.00000E+00         0.00000E+00         0.11711E+08
 
    0.11746E+08         0.27599E+06         0.00000E+00
    0.27599E+06         0.27179E+08         0.00000E+00
    0.00000E+00         0.00000E+00         0.11677E+08
 
    0.11712E+08         0.28129E+06         0.00000E+00
    0.28129E+06         0.27097E+08         0.00000E+00
    0.00000E+00         0.00000E+00         0.11643E+08
 
    0.11677E+08         0.28658E+06         0.00000E+00
    0.28658E+06         0.27014E+08         0.00000E+00
    0.00000E+00         0.00000E+00         0.11607E+08
 
    0.11640E+08         0.29186E+06         0.00000E+00
    0.29186E+06         0.26929E+08         0.00000E+00
    0.00000E+00         0.00000E+00         0.11571E+08
 
    0.11603E+08         0.29712E+06         0.00000E+00
    0.29712E+06         0.26842E+08         0.00000E+00
    0.00000E+00         0.00000E+00         0.11534E+08
 
    0.11565E+08         0.30235E+06         0.00000E+00
    0.30235E+06         0.26753E+08         0.00000E+00
    0.00000E+00         0.00000E+00         0.11495E+08
 
    0.11525E+08         0.30753E+06         0.00000E+00
    0.30753E+06         0.26662E+08         0.00000E+00
    0.00000E+00         0.00000E+00         0.11456E+08
 
    0.11485E+08         0.31267E+06         0.00000E+00
    0.31267E+06         0.26569E+08         0.00000E+00
    0.00000E+00         0.00000E+00         0.11416E+08
 
    0.11444E+08         0.31774E+06         0.00000E+00
    0.31774E+06         0.26474E+08         0.00000E+00
    0.00000E+00         0.00000E+00         0.11375E+08
 
    0.11401E+08         0.32274E+06         0.00000E+00
    0.32274E+06         0.26376E+08         0.00000E+00
    0.00000E+00         0.00000E+00         0.11333E+08
 
    0.11357E+08         0.32765E+06         0.00000E+00
    0.32765E+06         0.26277E+08         0.00000E+00
    0.00000E+00         0.00000E+00         0.11290E+08
 
    0.11312E+08         0.33244E+06         0.00000E+00
    0.33244E+06         0.26175E+08         0.00000E+00
    0.00000E+00         0.00000E+00         0.11246E+08
 
    0.11266E+08         0.33712E+06         0.00000E+00
    0.33712E+06         0.26072E+08         0.00000E+00
    0.00000E+00         0.00000E+00         0.11201E+08
 
    0.11219E+08         0.34165E+06         0.00000E+00
    0.34165E+06         0.25966E+08         0.00000E+00
    0.00000E+00         0.00000E+00         0.11155E+08
 
    0.11170E+08         0.34603E+06         0.00000E+00
    0.34603E+06         0.25857E+08         0.00000E+00
    0.00000E+00         0.00000E+00         0.11108E+08
 
    0.11120E+08         0.35022E+06         0.00000E+00
    0.35022E+06         0.25747E+08         0.00000E+00
    0.00000E+00         0.00000E+00         0.11060E+08
 
    0.11069E+08         0.35420E+06         0.00000E+00
    0.35420E+06         0.25634E+08         0.00000E+00
    0.00000E+00         0.00000E+00         0.11011E+08
 
    0.11017E+08         0.35796E+06         0.00000E+00
    0.35796E+06         0.25519E+08         0.00000E+00
    0.00000E+00         0.00000E+00         0.10961E+08
 
    0.10963E+08         0.36146E+06         0.00000E+00
    0.36146E+06         0.25402E+08         0.00000E+00
    0.00000E+00         0.00000E+00         0.10910E+08
 
    0.10907E+08         0.36468E+06         0.00000E+00
    0.36468E+06         0.25283E+08         0.00000E+00
    0.00000E+00         0.00000E+00         0.10857E+08
 
    0.10851E+08         0.36758E+06         0.00000E+00
    0.36758E+06         0.25161E+08         0.00000E+00
    0.00000E+00         0.00000E+00         0.10804E+08
 
    0.10792E+08         0.37013E+06         0.00000E+00
    0.37013E+06         0.25037E+08         0.00000E+00
    0.00000E+00         0.00000E+00         0.10749E+08
 
    0.10732E+08         0.37229E+06         0.00000E+00
    0.37229E+06         0.24911E+08         0.00000E+00
    0.00000E+00         0.00000E+00         0.10693E+08
 
    0.10671E+08         0.37404E+06         0.00000E+00
    0.37404E+06         0.24782E+08         0.00000E+00
    0.00000E+00         0.00000E+00         0.10636E+08
 
    0.10608E+08         0.37531E+06         0.00000E+00
    0.37531E+06         0.24652E+08         0.00000E+00
    0.00000E+00         0.00000E+00         0.10578E+08
 
    0.10543E+08         0.37607E+06         0.00000E+00
    0.37607E+06         0.24519E+08         0.00000E+00
    0.00000E+00         0.00000E+00         0.10519E+08
 
    0.10477E+08         0.37626E+06         0.00000E+00
    0.37626E+06         0.24383E+08         0.00000E+00
    0.00000E+00         0.00000E+00         0.10458E+08
 
    0.10409E+08         0.37582E+06         0.00000E+00
    0.37582E+06         0.24246E+08         0.00000E+00
    0.00000E+00         0.00000E+00         0.10396E+08
 
    0.10339E+08         0.37470E+06         0.00000E+00
    0.37470E+06         0.24106E+08         0.00000E+00
    0.00000E+00         0.00000E+00         0.10333E+08
 
    0.10267E+08         0.37283E+06         0.00000E+00
    0.37283E+06         0.23964E+08         0.00000E+00
    0.00000E+00         0.00000E+00         0.10269E+08
 
    0.10193E+08         0.37013E+06         0.00000E+00
    0.37013E+06         0.23819E+08         0.00000E+00
    0.00000E+00         0.00000E+00         0.10204E+08
 
    0.10118E+08         0.36652E+06         0.00000E+00
    0.36652E+06         0.23673E+08         0.00000E+00
    0.00000E+00         0.00000E+00         0.10137E+08
 
    0.10040E+08         0.36191E+06         0.00000E+00
    0.36191E+06         0.23524E+08         0.00000E+00
    0.00000E+00         0.00000E+00         0.10069E+08
 
    0.99600E+07         0.35621E+06         0.00000E+00
    0.35621E+06         0.23373E+08         0.00000E+00
    0.00000E+00         0.00000E+00         0.99998E+07
 
    0.98782E+07         0.34932E+06         0.00000E+00
    0.34932E+06         0.23219E+08         0.00000E+00
    0.00000E+00         0.00000E+00         0.99292E+07
 
    0.97942E+07         0.34111E+06         0.00000E+00
    0.34111E+06         0.23064E+08         0.00000E+00
    0.00000E+00         0.00000E+00         0.98574E+07
 
    0.97080E+07         0.33149E+06         0.00000E+00
    0.33149E+06         0.22906E+08         0.00000E+00
    0.00000E+00         0.00000E+00         0.97842E+07
 
    0.96196E+07         0.32032E+06         0.00000E+00
    0.32032E+06         0.22746E+08         0.00000E+00
    0.00000E+00         0.00000E+00         0.97097E+07
 
    0.95291E+07         0.30749E+06         0.00000E+00
    0.30749E+06         0.22584E+08         0.00000E+00
    0.00000E+00         0.00000E+00         0.96339E+07
 
    0.94365E+07         0.29289E+06         0.00000E+00
    0.29289E+06         0.22420E+08         0.00000E+00
    0.00000E+00         0.00000E+00         0.95568E+07
 
    0.93417E+07         0.27642E+06         0.00000E+00
    0.27642E+06         0.22253E+08         0.00000E+00
    0.00000E+00         0.00000E+00         0.94785E+07
 
    0.92448E+07         0.25800E+06         0.00000E+00
    0.25800E+06         0.22086E+08         0.00000E+00
    0.00000E+00         0.00000E+00         0.93992E+07
 
    0.91459E+07         0.23760E+06         0.00000E+00
    0.23760E+06         0.21917E+08         0.00000E+00
    0.00000E+00         0.00000E+00         0.93188E+07
 
    0.90450E+07         0.21524E+06         0.00000E+00
    0.21524E+06         0.21747E+08         0.00000E+00
    0.00000E+00         0.00000E+00         0.92375E+07
 
    0.89420E+07         0.19106E+06         0.00000E+00
    0.19106E+06         0.21577E+08         0.00000E+00
    0.00000E+00         0.00000E+00         0.91556E+07
 
    0.88371E+07         0.16529E+06         0.00000E+00
    0.16529E+06         0.21407E+08         0.00000E+00
    0.00000E+00         0.00000E+00         0.90733E+07
 
    0.87298E+07         0.13837E+06         0.00000E+00
    0.13837E+06         0.21240E+08         0.00000E+00
    0.00000E+00         0.00000E+00         0.89908E+07
 
    0.86198E+07         0.11097E+06         0.00000E+00
    0.11097E+06         0.21075E+08         0.00000E+00
    0.00000E+00         0.00000E+00         0.89086E+07
 
    0.85064E+07         0.84073E+05         0.00000E+00
    0.84073E+05         0.20917E+08         0.00000E+00
    0.00000E+00         0.00000E+00         0.88270E+07
 
    0.83883E+07         0.58986E+05         0.00000E+00
    0.58986E+05         0.20766E+08         0.00000E+00
    0.00000E+00         0.00000E+00         0.87464E+07
 
    0.82639E+07         0.37276E+05         0.00000E+00
    0.37276E+05         0.20627E+08         0.00000E+00
    0.00000E+00         0.00000E+00         0.86672E+07
 
    0.81310E+07         0.20428E+05         0.00000E+00
    0.20428E+05         0.20501E+08         0.00000E+00
    0.00000E+00         0.00000E+00         0.85897E+07
 
    0.79877E+07         0.91306E+04         0.00000E+00
    0.91306E+04         0.20392E+08         0.00000E+00
    0.00000E+00         0.00000E+00         0.85140E+07
 
    0.78322E+07         0.24390E+04         0.00000E+00
    0.24390E+04         0.20301E+08         0.00000E+00
    0.00000E+00         0.00000E+00         0.84401E+07
 
    0.12879E+08         0.16147E+04         0.00000E+00
    0.16147E+04         0.29502E+08         0.00000E+00
    0.00000E+00         0.00000E+00         0.12714E+08
 
    0.12845E+08         0.52566E+04         0.00000E+00
    0.52566E+04         0.29482E+08         0.00000E+00
    0.00000E+00         0.00000E+00         0.12698E+08
 
    0.12814E+08         0.99549E+04         0.00000E+00
    0.99549E+04         0.29458E+08         0.00000E+00
    0.00000E+00         0.00000E+00         0.12682E+08
 
    0.12786E+08         0.15947E+05         0.00000E+00
    0.15947E+05         0.29430E+08         0.00000E+00
    0.00000E+00         0.00000E+00         0.12665E+08
 
    0.12759E+08         0.23098E+05         0.00000E+00
    0.23098E+05         0.29399E+08         0.00000E+00
    0.00000E+00         0.00000E+00         0.12647E+08
 
    0.12734E+08         0.31082E+05         0.00000E+00
    0.31082E+05         0.29365E+08         0.00000E+00
    0.00000E+00         0.00000E+00         0.12630E+08
 
    0.12710E+08         0.39548E+05         0.00000E+00
    0.39548E+05         0.29330E+08         0.00000E+00
    0.00000E+00         0.00000E+00         0.12612E+08
 
    0.12687E+08         0.48199E+05         0.00000E+00
    0.48199E+05         0.29293E+08         0.00000E+00
    0.00000E+00         0.00000E+00         0.12594E+08
 
    0.12664E+08         0.56817E+05         0.00000E+00
    0.56817E+05         0.29254E+08         0.00000E+00
    0.00000E+00         0.00000E+00         0.12576E+08
 
    0.12642E+08         0.65254E+05         0.00000E+00
    0.65254E+05         0.29215E+08         0.00000E+00
    0.00000E+00         0.00000E+00         0.12557E+08
 
    0.12620E+08         0.73418E+05         0.00000E+00
    0.73418E+05         0.29175E+08         0.00000E+00
    0.00000E+00         0.00000E+00         0.12539E+08
 
    0.12598E+08         0.81259E+05         0.00000E+00
    0.81259E+05         0.29135E+08         0.00000E+00
    0.00000E+00         0.00000E+00         0.12520E+08
 
    0.12577E+08         0.88757E+05         0.00000E+00
    0.88757E+05         0.29094E+08         0.00000E+00
    0.00000E+00         0.00000E+00         0.12501E+08
 
    0.12555E+08         0.95912E+05         0.00000E+00
    0.95912E+05         0.29053E+08         0.00000E+00
    0.00000E+00         0.00000E+00         0.12482E+08
 
    0.12534E+08         0.10274E+06         0.00000E+00
    0.10274E+06         0.29011E+08         0.00000E+00
    0.00000E+00         0.00000E+00         0.12464E+08
 
    0.12514E+08         0.10925E+06         0.00000E+00
    0.10925E+06         0.28969E+08         0.00000E+00
    0.00000E+00         0.00000E+00         0.12445E+08
 
    0.12493E+08         0.11549E+06         0.00000E+00
    0.11549E+06         0.28926E+08         0.00000E+00
    0.00000E+00         0.00000E+00         0.12426E+08
 
    0.12472E+08         0.12147E+06         0.00000E+00
    0.12147E+06         0.28883E+08         0.00000E+00
    0.00000E+00         0.00000E+00         0.12407E+08
 
    0.12452E+08         0.12722E+06         0.00000E+00
    0.12722E+06         0.28839E+08         0.00000E+00
    0.00000E+00         0.00000E+00         0.12387E+08
 
    0.12431E+08         0.13279E+06         0.00000E+00
    0.13279E+06         0.28795E+08         0.00000E+00
    0.00000E+00         0.00000E+00         0.12368E+08
 
    0.12410E+08         0.13818E+06         0.00000E+00
    0.13818E+06         0.28749E+08         0.00000E+00
    0.00000E+00         0.00000E+00         0.12348E+08
 
    0.12390E+08         0.14343E+06         0.00000E+00
    0.14343E+06         0.28704E+08         0.00000E+00
    0.00000E+00         0.00000E+00         0.12328E+08
 
    0.12369E+08         0.14856E+06         0.00000E+00
    0.14856E+06         0.28657E+08         0.00000E+00
    0.00000E+00         0.00000E+00         0.12308E+08
 
    0.12348E+08         0.15360E+06         0.00000E+00
    0.15360E+06         0.28609E+08         0.00000E+00
    0.00000E+00         0.00000E+00         0.12287E+08
 
    0.12327E+08         0.15856E+06         0.00000E+00
    0.15856E+06         0.28561E+08         0.00000E+00
    0.00000E+00         0.00000E+00         0.12266E+08
 
    0.12306E+08         0.16345E+06         0.00000E+00
    0.16345E+06         0.28512E+08         0.00000E+00
    0.00000E+00         0.00000E+00         0.12245E+08
 
    0.12285E+08         0.16830E+06         0.00000E+00
    0.16830E+06         0.28461E+08         0.00000E+00
    0.00000E+00         0.00000E+00         0.12224E+08
 
    0.12263E+08         0.17312E+06         0.00000E+00
    0.17312E+06         0.28410E+08         0.00000E+00
    0.00000E+00         0.00000E+00         0.12202E+08
 
    0.12241E+08         0.17792E+06         0.00000E+00
    0.17792E+06         0.28357E+08         0.00000E+00
    0.00000E+00         0.00000E+00         0.12179E+08
 
    0.12218E+08         0.18270E+06         0.00000E+00
    0.18270E+06         0.28304E+08         0.00000E+00
    0.00000E+00         0.00000E+00         0.12157E+08
 
    0.12196E+08         0.18749E+06         0.00000E+00
    0.18749E+06         0.28249E+08         0.00000E+00
    0.00000E+00         0.00000E+00         0.12133E+08
 
    0.12172E+08         0.19227E+06         0.00000E+00
    0.19227E+06         0.28193E+08         0.00000E+00
    0.00000E+00         0.00000E+00         0.12110E+08
 
    0.12149E+08         0.19707E+06         0.00000E+00
    0.19707E+06         0.28136E+08         0.00000E+00
    0.00000E+00         0.00000E+00         0.12085E+08
 
    0.12124E+08         0.20189E+06         0.00000E+00
    0.20189E+06         0.28077E+08         0.00000E+00
    0.00000E+00         0.00000E+00         0.12061E+08
 
    0.12100E+08         0.20672E+06         0.00000E+00
    0.20672E+06         0.28017E+08         0.00000E+00
    0.00000E+00         0.00000E+00         0.12035E+08
 
    0.12074E+08         0.21159E+06         0.00000E+00
    0.21159E+06         0.27956E+08         0.00000E+00
    0.00000E+00         0.00000E+00         0.12009E+08
 
    0.12048E+08         0.21647E+06         0.00000E+00
    0.21647E+06         0.27893E+08         0.00000E+00
    0.00000E+00         0.00000E+00         0.11983E+08
 
    0.12022E+08         0.22139E+06         0.00000E+00
    0.22139E+06         0.27829E+08         0.00000E+00
    0.00000E+00         0.00000E+00         0.11955E+08
 
    0.11995E+08         0.22633E+06         0.00000E+00
    0.22633E+06         0.27763E+08         0.00000E+00
    0.00000E+00         0.00000E+00         0.11927E+08
 
    0.11967E+08         0.23130E+06         0.00000E+00
    0.23130E+06         0.27696E+08         0.00000E+00
    0.00000E+00         0.00000E+00         0.11899E+08
 
    0.11938E+08         0.23630E+06         0.00000E+00
    0.23630E+06         0.27627E+08         0.00000E+00
    0.00000E+00         0.00000E+00         0.11870E+08
 
    0.11909E+08         0.24132E+06         0.00000E+00
    0.24132E+06         0.27557E+08         0.00000E+00
    0.00000E+00         0.00000E+00         0.11840E+08
 
    0.11879E+08         0.24637E+06         0.00000E+00
    0.24637E+06         0.27484E+08         0.00000E+00
    0.00000E+00         0.00000E+00         0.11809E+08
 
    0.11848E+08         0.25144E+06         0.00000E+00
    0.25144E+06         0.27410E+08         0.00000E+00
    0.00000E+00         0.00000E+00         0.11777E+08
 
    0.11816E+08         0.25652E+06         0.00000E+00
    0.25652E+06         0.27335E+08         0.00000E+00
    0.00000E+00         0.00000E+00         0.11745E+08
 
    0.11783E+08         0.26162E+06         0.00000E+00
    0.26162E+06         0.27257E+08         0.00000E+00
    0.00000E+00         0.00000E+00         0.11712E+08
 
    0.11750E+08         0.26672E+06         0.00000E+00
    0.26672E+06         0.27178E+08         0.00000E+00
    0.00000E+00         0.00000E+00         0.11678E+08
 
    0.11716E+08         0.27183E+06         0.00000E+00
    0.27183E+06         0.27096E+08         0.00000E+00
    0.00000E+00         0.00000E+00         0.11644E+08
 
    0.11680E+08         0.27693E+06         0.00000E+00
    0.27693E+06         0.27013E+08         0.00000E+00
    0.00000E+00         0.00000E+00         0.11608E+08
 
    0.11644E+08         0.28202E+06         0.00000E+00
    0.28202E+06         0.26928E+08         0.00000E+00
    0.00000E+00         0.00000E+00         0.11572E+08
 
    0.11607E+08         0.28708E+06         0.00000E+00
    0.28708E+06         0.26841E+08         0.00000E+00
    0.00000E+00         0.00000E+00         0.11534E+08
 
    0.11569E+08         0.29212E+06         0.00000E+00
    0.29212E+06         0.26752E+08         0.00000E+00
    0.00000E+00         0.00000E+00         0.11496E+08
 
    0.11529E+08         0.29712E+06         0.00000E+00
    0.29712E+06         0.26661E+08         0.00000E+00
    0.00000E+00         0.00000E+00         0.11457E+08
 
    0.11489E+08         0.30207E+06         0.00000E+00
    0.30207E+06         0.26568E+08         0.00000E+00
    0.00000E+00         0.00000E+00         0.11417E+08
 
    0.11447E+08         0.30695E+06         0.00000E+00
    0.30695E+06         0.26473E+08         0.00000E+00
    0.00000E+00         0.00000E+00         0.11376E+08
 
    0.11405E+08         0.31176E+06         0.00000E+00
    0.31176E+06         0.26375E+08         0.00000E+00
    0.00000E+00         0.00000E+00         0.11334E+08
 
    0.11361E+08         0.31648E+06         0.00000E+00
    0.31648E+06         0.26276E+08         0.00000E+00
    0.00000E+00         0.00000E+00         0.11291E+08
 
    0.11316E+08         0.32109E+06         0.00000E+00
    0.32109E+06         0.26174E+08         0.00000E+00
    0.00000E+00         0.00000E+00         0.11247E+08
 
    0.11270E+08         0.32558E+06         0.00000E+00
    0.32558E+06         0.26071E+08         0.00000E+00
    0.00000E+00         0.00000E+00         0.11202E+08
 
    0.11223E+08         0.32994E+06         0.00000E+00
    0.32994E+06         0.25965E+08         0.00000E+00
    0.00000E+00         0.00000E+00         0.11156E+08
 
    0.11174E+08         0.33414E+06         0.00000E+00
    0.33414E+06         0.25857E+08         0.00000E+00
    0.00000E+00         0.00000E+00         0.11109E+08
 
    0.11124E+08         0.33816E+06         0.00000E+00
    0.33816E+06         0.25746E+08         0.00000E+00
    0.00000E+00         0.00000E+00         0.11061E+08
 
    0.11073E+08         0.34198E+06         0.00000E+00
    0.34198E+06         0.25634E+08         0.00000E+00
    0.00000E+00         0.00000E+00         0.11012E+08
 
    0.11020E+08         0.34557E+06         0.00000E+00
    0.34557E+06         0.25519E+08         0.00000E+00
    0.00000E+00         0.00000E+00         0.10962E+08
 
    0.10966E+08         0.34892E+06         0.00000E+00
    0.34892E+06         0.25402E+08         0.00000E+00
    0.00000E+00         0.00000E+00         0.10910E+08
 
    0.10910E+08         0.35199E+06         0.00000E+00
    0.35199E+06         0.25282E+08         0.00000E+00
    0.00000E+00         0.00000E+00         0.10858E+08
 
    0.10853E+08         0.35476E+06         0.00000E+00
    0.35476E+06         0.25161E+08         0.00000E+00
    0.00000E+00         0.00000E+00         0.10804E+08
 
    0.10795E+08         0.35718E+06         0.00000E+00
    0.35718E+06         0.25037E+08         0.00000E+00
    0.00000E+00         0.00000E+00         0.10750E+08
 
    0.10735E+08         0.35923E+06         0.00000E+00
    0.35923E+06         0.24911E+08         0.00000E+00
    0.00000E+00         0.00000E+00         0.10694E+08
 
    0.10673E+08         0.36086E+06         0.00000E+00
    0.36086E+06         0.24782E+08         0.00000E+00
    0.00000E+00         0.00000E+00         0.10637E+08
 
    0.10610E+08         0.36204E+06         0.00000E+00
    0.36204E+06         0.24651E+08         0.00000E+00
    0.00000E+00         0.00000E+00         0.10578E+08
 
    0.10545E+08         0.36272E+06         0.00000E+00
    0.36272E+06         0.24519E+08         0.00000E+00
    0.00000E+00         0.00000E+00         0.10519E+08
 
    0.10478E+08         0.36284E+06         0.00000E+00
    0.36284E+06         0.24383E+08         0.00000E+00
    0.00000E+00         0.00000E+00         0.10458E+08
 
    0.10410E+08         0.36236E+06         0.00000E+00
    0.36236E+06         0.24246E+08         0.00000E+00
    0.00000E+00         0.00000E+00         0.10397E+08
 
    0.10340E+08         0.36120E+06         0.00000E+00
    0.36120E+06         0.24106E+08         0.00000E+00
    0.00000E+00         0.00000E+00         0.10334E+08
 
    0.10267E+08         0.35932E+06         0.00000E+00
    0.35932E+06         0.23964E+08         0.00000E+00
    0.00000E+00         0.00000E+00         0.10269E+08
 
    0.10193E+08         0.35662E+06         0.00000E+00
    0.35662E+06         0.23820E+08         0.00000E+00
    0.00000E+00         0.00000E+00         0.10204E+08
 
    0.10117E+08         0.35303E+06         0.00000E+00
    0.35303E+06         0.23674E+08         0.00000E+00
    0.00000E+00         0.00000E+00         0.10137E+08
 
    0.10039E+08         0.34846E+06         0.00000E+00
    0.34846E+06         0.23525E+08         0.00000E+00
    0.00000E+00         0.00000E+00         0.10069E+08
 
    0.99585E+07         0.34282E+06         0.00000E+00
    0.34282E+06         0.23374E+08         0.00000E+00
    0.00000E+00         0.00000E+00         0.99997E+07
 
    0.98760E+07         0.33601E+06         0.00000E+00
    0.33601E+06         0.23221E+08         0.00000E+00
    0.00000E+00         0.00000E+00         0.99290E+07
 
    0.97913E+07         0.32790E+06         0.00000E+00
    0.32790E+06         0.23065E+08         0.00000E+00
    0.00000E+00         0.00000E+00         0.98570E+07
 
    0.97044E+07         0.31839E+06         0.00000E+00
    0.31839E+06         0.22908E+08         0.00000E+00
    0.00000E+00         0.00000E+00         0.97837E+07
 
    0.96153E+07         0.30735E+06         0.00000E+00
    0.30735E+06         0.22748E+08         0.00000E+00
    0.00000E+00         0.00000E+00         0.97091E+07
 
    0.95239E+07         0.29466E+06         0.00000E+00
    0.29466E+06         0.22586E+08         0.00000E+00
    0.00000E+00         0.00000E+00         0.96331E+07
 
    0.94302E+07         0.28021E+06         0.00000E+00
    0.28021E+06         0.22423E+08         0.00000E+00
    0.00000E+00         0.00000E+00         0.95558E+07
 
    0.93343E+07         0.26390E+06         0.00000E+00
    0.26390E+06         0.22257E+08         0.00000E+00
    0.00000E+00         0.00000E+00         0.94774E+07
 
    0.92362E+07         0.24565E+06         0.00000E+00
    0.24565E+06         0.22090E+08         0.00000E+00
    0.00000E+00         0.00000E+00         0.93977E+07
 
    0.91359E+07         0.22543E+06         0.00000E+00
    0.22543E+06         0.21921E+08         0.00000E+00
    0.00000E+00         0.00000E+00         0.93171E+07
 
    0.90335E+07         0.20327E+06         0.00000E+00
    0.20327E+06         0.21751E+08         0.00000E+00
    0.00000E+00         0.00000E+00         0.92355E+07
 
    0.89290E+07         0.17929E+06         0.00000E+00
    0.17929E+06         0.21582E+08         0.00000E+00
    0.00000E+00         0.00000E+00         0.91532E+07
 
    0.88222E+07         0.15378E+06         0.00000E+00
    0.15378E+06         0.21412E+08         0.00000E+00
    0.00000E+00         0.00000E+00         0.90704E+07
 
    0.87130E+07         0.12720E+06         0.00000E+00
    0.12720E+06         0.21245E+08         0.00000E+00
    0.00000E+00         0.00000E+00         0.89874E+07
 
    0.86010E+07         0.10026E+06         0.00000E+00
    0.10026E+06         0.21081E+08         0.00000E+00
    0.00000E+00         0.00000E+00         0.89046E+07
 
    0.84856E+07         0.74020E+05         0.00000E+00
    0.74020E+05         0.20922E+08         0.00000E+00
    0.00000E+00         0.00000E+00         0.88223E+07
 
    0.83656E+07         0.49892E+05         0.00000E+00
    0.49892E+05         0.20771E+08         0.00000E+00
    0.00000E+00         0.00000E+00         0.87410E+07
 
    0.82395E+07         0.29537E+05         0.00000E+00
    0.29537E+05         0.20631E+08         0.00000E+00
    0.00000E+00         0.00000E+00         0.86611E+07
 
    0.81054E+07         0.14489E+05         0.00000E+00
    0.14489E+05         0.20504E+08         0.00000E+00
    0.00000E+00         0.00000E+00         0.85828E+07
 
    0.79612E+07         0.53909E+04         0.00000E+00
    0.53909E+04         0.20394E+08         0.00000E+00
    0.00000E+00         0.00000E+00         0.85065E+07
 
    0.78054E+07         0.11627E+04         0.00000E+00
    0.11627E+04         0.20302E+08         0.00000E+00
    0.00000E+00         0.00000E+00         0.84322E+07
 
    0.12886E+08         0.13121E+04         0.00000E+00
    0.13121E+04         0.29501E+08         0.00000E+00
    0.00000E+00         0.00000E+00         0.12716E+08
 
    0.12852E+08         0.43704E+04         0.00000E+00
    0.43704E+04         0.29481E+08         0.00000E+00
    0.00000E+00         0.00000E+00         0.12700E+08
 
    0.12821E+08         0.85450E+04         0.00000E+00
    0.85450E+04         0.29457E+08         0.00000E+00
    0.00000E+00         0.00000E+00         0.12683E+08
 
    0.12793E+08         0.14098E+05         0.00000E+00
    0.14098E+05         0.29429E+08         0.00000E+00
    0.00000E+00         0.00000E+00         0.12666E+08
 
    0.12766E+08         0.20898E+05         0.00000E+00
    0.20898E+05         0.29397E+08         0.00000E+00
    0.00000E+00         0.00000E+00         0.12649E+08
 
    0.12740E+08         0.28607E+05         0.00000E+00
    0.28607E+05         0.29364E+08         0.00000E+00
    0.00000E+00         0.00000E+00         0.12631E+08
 
    0.12716E+08         0.36853E+05         0.00000E+00
    0.36853E+05         0.29328E+08         0.00000E+00
    0.00000E+00         0.00000E+00         0.12613E+08
 
    0.12692E+08         0.45320E+05         0.00000E+00
    0.45320E+05         0.29291E+08         0.00000E+00
    0.00000E+00         0.00000E+00         0.12595E+08
 
    0.12669E+08         0.53774E+05         0.00000E+00
    0.53774E+05         0.29253E+08         0.00000E+00
    0.00000E+00         0.00000E+00         0.12577E+08
 
    0.12646E+08         0.62059E+05         0.00000E+00
    0.62059E+05         0.29214E+08         0.00000E+00
    0.00000E+00         0.00000E+00         0.12558E+08
 
    0.12624E+08         0.70076E+05         0.00000E+00
    0.70076E+05         0.29174E+08         0.00000E+00
    0.00000E+00         0.00000E+00         0.12539E+08
 
    0.12602E+08         0.77770E+05         0.00000E+00
    0.77770E+05         0.29134E+08         0.00000E+00
    0.00000E+00         0.00000E+00         0.12521E+08
 
    0.12581E+08         0.85121E+05         0.00000E+00
    0.85121E+05         0.29093E+08         0.00000E+00
    0.00000E+00         0.00000E+00         0.12502E+08
 
    0.12559E+08         0.92126E+05         0.00000E+00
    0.92126E+05         0.29052E+08         0.00000E+00
    0.00000E+00         0.00000E+00         0.12483E+08
 
    0.12538E+08         0.98799E+05         0.00000E+00
    0.98799E+05         0.29010E+08         0.00000E+00
    0.00000E+00         0.00000E+00         0.12464E+08
 
    0.12517E+08         0.10516E+06         0.00000E+00
    0.10516E+06         0.28968E+08         0.00000E+00
    0.00000E+00         0.00000E+00         0.12445E+08
 
    0.12496E+08         0.11124E+06         0.00000E+00
    0.11124E+06         0.28925E+08         0.00000E+00
    0.00000E+00         0.00000E+00         0.12426E+08
 
    0.12475E+08         0.11706E+06         0.00000E+00
    0.11706E+06         0.28882E+08         0.00000E+00
    0.00000E+00         0.00000E+00         0.12407E+08
 
    0.12455E+08         0.12266E+06         0.00000E+00
    0.12266E+06         0.28838E+08         0.00000E+00
    0.00000E+00         0.00000E+00         0.12388E+08
 
    0.12434E+08         0.12807E+06         0.00000E+00
    0.12807E+06         0.28793E+08         0.00000E+00
    0.00000E+00         0.00000E+00         0.12368E+08
 
    0.12414E+08         0.13330E+06         0.00000E+00
    0.13330E+06         0.28748E+08         0.00000E+00
    0.00000E+00         0.00000E+00         0.12349E+08
 
    0.12393E+08         0.13840E+06         0.00000E+00
    0.13840E+06         0.28703E+08         0.00000E+00
    0.00000E+00         0.00000E+00         0.12329E+08
 
    0.12372E+08         0.14337E+06         0.00000E+00
    0.14337E+06         0.28656E+08         0.00000E+00
    0.00000E+00         0.00000E+00         0.12308E+08
 
    0.12351E+08         0.14825E+06         0.00000E+00
    0.14825E+06         0.28608E+08         0.00000E+00
    0.00000E+00         0.00000E+00         0.12288E+08
 
    0.12330E+08         0.15305E+06         0.00000E+00
    0.15305E+06         0.28560E+08         0.00000E+00
    0.00000E+00         0.00000E+00         0.12267E+08
 
    0.12309E+08         0.15779E+06         0.00000E+00
    0.15779E+06         0.28511E+08         0.00000E+00
    0.00000E+00         0.00000E+00         0.12246E+08
 
    0.12288E+08         0.16248E+06         0.00000E+00
    0.16248E+06         0.28460E+08         0.00000E+00
    0.00000E+00         0.00000E+00         0.12224E+08
 
    0.12266E+08         0.16714E+06         0.00000E+00
    0.16714E+06         0.28409E+08         0.00000E+00
    0.00000E+00         0.00000E+00         0.12202E+08
 
    0.12244E+08         0.17177E+06         0.00000E+00
    0.17177E+06         0.28357E+08         0.00000E+00
    0.00000E+00         0.00000E+00         0.12180E+08
 
    0.12222E+08         0.17640E+06         0.00000E+00
    0.17640E+06         0.28303E+08         0.00000E+00
    0.00000E+00         0.00000E+00         0.12157E+08
 
    0.12199E+08         0.18102E+06         0.00000E+00
    0.18102E+06         0.28248E+08         0.00000E+00
    0.00000E+00         0.00000E+00         0.12134E+08
 
    0.12176E+08         0.18564E+06         0.00000E+00
    0.18564E+06         0.28192E+08         0.00000E+00
    0.00000E+00         0.00000E+00         0.12110E+08
 
    0.12152E+08         0.19028E+06         0.00000E+00
    0.19028E+06         0.28135E+08         0.00000E+00
    0.00000E+00         0.00000E+00         0.12086E+08
 
    0.12128E+08         0.19493E+06         0.00000E+00
    0.19493E+06         0.28076E+08         0.00000E+00
    0.00000E+00         0.00000E+00         0.12061E+08
 
    0.12103E+08         0.19960E+06         0.00000E+00
    0.19960E+06         0.28016E+08         0.00000E+00
    0.00000E+00         0.00000E+00         0.12036E+08
 
    0.12078E+08         0.20429E+06         0.00000E+00
    0.20429E+06         0.27955E+08         0.00000E+00
    0.00000E+00         0.00000E+00         0.12010E+08
 
    0.12052E+08         0.20900E+06         0.00000E+00
    0.20900E+06         0.27892E+08         0.00000E+00
    0.00000E+00         0.00000E+00         0.11983E+08
 
    0.12025E+08         0.21374E+06         0.00000E+00
    0.21374E+06         0.27828E+08         0.00000E+00
    0.00000E+00         0.00000E+00         0.11956E+08
 
    0.11998E+08         0.21851E+06         0.00000E+00
    0.21851E+06         0.27762E+08         0.00000E+00
    0.00000E+00         0.00000E+00         0.11928E+08
 
    0.11970E+08         0.22330E+06         0.00000E+00
    0.22330E+06         0.27695E+08         0.00000E+00
    0.00000E+00         0.00000E+00         0.11900E+08
 
    0.11942E+08         0.22812E+06         0.00000E+00
    0.22812E+06         0.27626E+08         0.00000E+00
    0.00000E+00         0.00000E+00         0.11870E+08
 
    0.11912E+08         0.23297E+06         0.00000E+00
    0.23297E+06         0.27556E+08         0.00000E+00
    0.00000E+00         0.00000E+00         0.11840E+08
 
    0.11882E+08         0.23783E+06         0.00000E+00
    0.23783E+06         0.27483E+08         0.00000E+00
    0.00000E+00         0.00000E+00         0.11810E+08
 
    0.11851E+08         0.24272E+06         0.00000E+00
    0.24272E+06         0.27409E+08         0.00000E+00
    0.00000E+00         0.00000E+00         0.11778E+08
 
    0.11820E+08         0.24762E+06         0.00000E+00
    0.24762E+06         0.27334E+08         0.00000E+00
    0.00000E+00         0.00000E+00         0.11746E+08
 
    0.11787E+08         0.25253E+06         0.00000E+00
    0.25253E+06         0.27256E+08         0.00000E+00
    0.00000E+00         0.00000E+00         0.11713E+08
 
    0.11754E+08         0.25745E+06         0.00000E+00
    0.25745E+06         0.27177E+08         0.00000E+00
    0.00000E+00         0.00000E+00         0.11679E+08
 
    0.11719E+08         0.26236E+06         0.00000E+00
    0.26236E+06         0.27095E+08         0.00000E+00
    0.00000E+00         0.00000E+00         0.11644E+08
 
    0.11684E+08         0.26728E+06         0.00000E+00
    0.26728E+06         0.27012E+08         0.00000E+00
    0.00000E+00         0.00000E+00         0.11609E+08
 
    0.11648E+08         0.27217E+06         0.00000E+00
    0.27217E+06         0.26927E+08         0.00000E+00
    0.00000E+00         0.00000E+00         0.11573E+08
 
    0.11611E+08         0.27705E+06         0.00000E+00
    0.27705E+06         0.26840E+08         0.00000E+00
    0.00000E+00         0.00000E+00         0.11535E+08
 
    0.11572E+08         0.28190E+06         0.00000E+00
    0.28190E+06         0.26751E+08         0.00000E+00
    0.00000E+00         0.00000E+00         0.11497E+08
 
    0.11533E+08         0.28671E+06         0.00000E+00
    0.28671E+06         0.26660E+08         0.00000E+00
    0.00000E+00         0.00000E+00         0.11458E+08
 
    0.11493E+08         0.29146E+06         0.00000E+00
    0.29146E+06         0.26567E+08         0.00000E+00
    0.00000E+00         0.00000E+00         0.11418E+08
 
    0.11451E+08         0.29616E+06         0.00000E+00
    0.29616E+06         0.26472E+08         0.00000E+00
    0.00000E+00         0.00000E+00         0.11377E+08
 
    0.11409E+08         0.30078E+06         0.00000E+00
    0.30078E+06         0.26375E+08         0.00000E+00
    0.00000E+00         0.00000E+00         0.11335E+08
 
    0.11365E+08         0.30531E+06         0.00000E+00
    0.30531E+06         0.26275E+08         0.00000E+00
    0.00000E+00         0.00000E+00         0.11292E+08
 
    0.11320E+08         0.30975E+06         0.00000E+00
    0.30975E+06         0.26174E+08         0.00000E+00
    0.00000E+00         0.00000E+00         0.11248E+08
 
    0.11274E+08         0.31406E+06         0.00000E+00
    0.31406E+06         0.26070E+08         0.00000E+00
    0.00000E+00         0.00000E+00         0.11203E+08
 
    0.11226E+08         0.31824E+06         0.00000E+00
    0.31824E+06         0.25964E+08         0.00000E+00
    0.00000E+00         0.00000E+00         0.11157E+08
 
    0.11177E+08         0.32226E+06         0.00000E+00
    0.32226E+06         0.25856E+08         0.00000E+00
    0.00000E+00         0.00000E+00         0.11110E+08
 
    0.11127E+08         0.32612E+06         0.00000E+00
    0.32612E+06         0.25745E+08         0.00000E+00
    0.00000E+00         0.00000E+00         0.11062E+08
 
    0.11076E+08         0.32977E+06         0.00000E+00
    0.32977E+06         0.25633E+08         0.00000E+00
    0.00000E+00         0.00000E+00         0.11013E+08
 
    0.11023E+08         0.33321E+06         0.00000E+00
    0.33321E+06         0.25518E+08         0.00000E+00
    0.00000E+00         0.00000E+00         0.10962E+08
 
    0.10969E+08         0.33641E+06         0.00000E+00
    0.33641E+06         0.25401E+08         0.00000E+00
    0.00000E+00         0.00000E+00         0.10911E+08
 
    0.10913E+08         0.33934E+06         0.00000E+00
    0.33934E+06         0.25282E+08         0.00000E+00
    0.00000E+00         0.00000E+00         0.10859E+08
 
    0.10856E+08         0.34197E+06         0.00000E+00
    0.34197E+06         0.25160E+08         0.00000E+00
    0.00000E+00         0.00000E+00         0.10805E+08
 
    0.10798E+08         0.34427E+06         0.00000E+00
    0.34427E+06         0.25036E+08         0.00000E+00
    0.00000E+00         0.00000E+00         0.10750E+08
 
    0.10737E+08         0.34620E+06         0.00000E+00
    0.34620E+06         0.24910E+08         0.00000E+00
    0.00000E+00         0.00000E+00         0.10694E+08
 
    0.10675E+08         0.34774E+06         0.00000E+00
    0.34774E+06         0.24782E+08         0.00000E+00
    0.00000E+00         0.00000E+00         0.10637E+08
 
    0.10612E+08         0.34883E+06         0.00000E+00
    0.34883E+06         0.24651E+08         0.00000E+00
    0.00000E+00         0.00000E+00         0.10579E+08
 
    0.10547E+08         0.34943E+06         0.00000E+00
    0.34943E+06         0.24518E+08         0.00000E+00
    0.00000E+00         0.00000E+00         0.10520E+08
 
    0.10480E+08         0.34949E+06         0.00000E+00
    0.34949E+06         0.24383E+08         0.00000E+00
    0.00000E+00         0.00000E+00         0.10459E+08
 
    0.10411E+08         0.34896E+06         0.00000E+00
    0.34896E+06         0.24246E+08         0.00000E+00
    0.00000E+00         0.00000E+00         0.10397E+08
 
    0.10340E+08         0.34778E+06         0.00000E+00
    0.34778E+06         0.24106E+08         0.00000E+00
    0.00000E+00         0.00000E+00         0.10334E+08
 
    0.10268E+08         0.34588E+06         0.00000E+00
    0.34588E+06         0.23965E+08         0.00000E+00
    0.00000E+00         0.00000E+00         0.10270E+08
 
    0.10193E+08         0.34319E+06         0.00000E+00
    0.34319E+06         0.23821E+08         0.00000E+00
    0.00000E+00         0.00000E+00         0.10204E+08
 
    0.10117E+08         0.33963E+06         0.00000E+00
    0.33963E+06         0.23674E+08         0.00000E+00
    0.00000E+00         0.00000E+00         0.10137E+08
 
    0.10038E+08         0.33512E+06         0.00000E+00
    0.33512E+06         0.23526E+08         0.00000E+00
    0.00000E+00         0.00000E+00         0.10069E+08
 
    0.99570E+07         0.32955E+06         0.00000E+00
    0.32955E+06         0.23375E+08         0.00000E+00
    0.00000E+00         0.00000E+00         0.99997E+07
 
    0.98739E+07         0.32282E+06         0.00000E+00
    0.32282E+06         0.23222E+08         0.00000E+00
    0.00000E+00         0.00000E+00         0.99289E+07
 
    0.97886E+07         0.31482E+06         0.00000E+00
    0.31482E+06         0.23067E+08         0.00000E+00
    0.00000E+00         0.00000E+00         0.98567E+07
 
    0.97010E+07         0.30544E+06         0.00000E+00
    0.30544E+06         0.22910E+08         0.00000E+00
    0.00000E+00         0.00000E+00         0.97833E+07
 
    0.96110E+07         0.29455E+06         0.00000E+00
    0.29455E+06         0.22751E+08         0.00000E+00
    0.00000E+00         0.00000E+00         0.97085E+07
 
    0.95187E+07         0.28202E+06         0.00000E+00
    0.28202E+06         0.22589E+08         0.00000E+00
    0.00000E+00         0.00000E+00         0.96324E+07
 
    0.94241E+07         0.26775E+06         0.00000E+00
    0.26775E+06         0.22426E+08         0.00000E+00
    0.00000E+00         0.00000E+00         0.95549E+07
 
    0.93270E+07         0.25162E+06         0.00000E+00
    0.25162E+06         0.22260E+08         0.00000E+00
    0.00000E+00         0.00000E+00         0.94762E+07
 
    0.92277E+07         0.23356E+06         0.00000E+00
    0.23356E+06         0.22093E+08         0.00000E+00
    0.00000E+00         0.00000E+00         0.93963E+07
 
    0.91261E+07         0.21355E+06         0.00000E+00
    0.21355E+06         0.21925E+08         0.00000E+00
    0.00000E+00         0.00000E+00         0.93154E+07
 
    0.90222E+07         0.19161E+06         0.00000E+00
    0.19161E+06         0.21756E+08         0.00000E+00
    0.00000E+00         0.00000E+00         0.92334E+07
 
    0.89159E+07         0.16788E+06         0.00000E+00
    0.16788E+06         0.21587E+08         0.00000E+00
    0.00000E+00         0.00000E+00         0.91507E+07
 
    0.88073E+07         0.14265E+06         0.00000E+00
    0.14265E+06         0.21418E+08         0.00000E+00
    0.00000E+00         0.00000E+00         0.90675E+07
 
    0.86962E+07         0.11642E+06         0.00000E+00
    0.11642E+06         0.21250E+08         0.00000E+00
    0.00000E+00         0.00000E+00         0.89840E+07
 
    0.85822E+07         0.89950E+05         0.00000E+00
    0.89950E+05         0.21086E+08         0.00000E+00
    0.00000E+00         0.00000E+00         0.89005E+07
 
    0.84648E+07         0.64364E+05         0.00000E+00
    0.64364E+05         0.20927E+08         0.00000E+00
    0.00000E+00         0.00000E+00         0.88176E+07
 
    0.83429E+07         0.41158E+05         0.00000E+00
    0.41158E+05         0.20775E+08         0.00000E+00
    0.00000E+00         0.00000E+00         0.87355E+07
 
    0.82152E+07         0.22089E+05         0.00000E+00
    0.22089E+05         0.20634E+08         0.00000E+00
    0.00000E+00         0.00000E+00         0.86548E+07
 
    0.80798E+07         0.87477E+04         0.00000E+00
    0.87477E+04         0.20506E+08         0.00000E+00
    0.00000E+00         0.00000E+00         0.85758E+07
 
    0.79349E+07         0.17567E+04         0.00000E+00
    0.17567E+04         0.20395E+08         0.00000E+00
    0.00000E+00         0.00000E+00         0.84989E+07
 
    0.77788E+07        -0.82399E+02         0.00000E+00
   -0.82399E+02         0.20302E+08         0.00000E+00
    0.00000E+00         0.00000E+00         0.84243E+07
 
    0.12893E+08         0.10146E+04         0.00000E+00
    0.10146E+04         0.29501E+08         0.00000E+00
    0.00000E+00         0.00000E+00         0.12718E+08
 
    0.12859E+08         0.35021E+04         0.00000E+00
    0.35021E+04         0.29480E+08         0.00000E+00
    0.00000E+00         0.00000E+00         0.12702E+08
 
    0.12828E+08         0.71708E+04         0.00000E+00
    0.71708E+04         0.29456E+08         0.00000E+00
    0.00000E+00         0.00000E+00         0.12685E+08
 
    0.12799E+08         0.12303E+05         0.00000E+00
    0.12303E+05         0.29427E+08         0.00000E+00
    0.00000E+00         0.00000E+00         0.12668E+08
 
    0.12772E+08         0.18767E+05         0.00000E+00
    0.18767E+05         0.29396E+08         0.00000E+00
    0.00000E+00         0.00000E+00         0.12650E+08
 
    0.12746E+08         0.26208E+05         0.00000E+00
    0.26208E+05         0.29362E+08         0.00000E+00
    0.00000E+00         0.00000E+00         0.12633E+08
 
    0.12722E+08         0.34235E+05         0.00000E+00
    0.34235E+05         0.29326E+08         0.00000E+00
    0.00000E+00         0.00000E+00         0.12614E+08
 
    0.12698E+08         0.42515E+05         0.00000E+00
    0.42515E+05         0.29289E+08         0.00000E+00
    0.00000E+00         0.00000E+00         0.12596E+08
 
    0.12674E+08         0.50800E+05         0.00000E+00
    0.50800E+05         0.29251E+08         0.00000E+00
    0.00000E+00         0.00000E+00         0.12578E+08
 
    0.12651E+08         0.58926E+05         0.00000E+00
    0.58926E+05         0.29212E+08         0.00000E+00
    0.00000E+00         0.00000E+00         0.12559E+08
 
    0.12628E+08         0.66787E+05         0.00000E+00
    0.66787E+05         0.29172E+08         0.00000E+00
    0.00000E+00         0.00000E+00         0.12540E+08
 
    0.12606E+08         0.74328E+05         0.00000E+00
    0.74328E+05         0.29132E+08         0.00000E+00
    0.00000E+00         0.00000E+00         0.12522E+08
 
    0.12584E+08         0.81525E+05         0.00000E+00
    0.81525E+05         0.29091E+08         0.00000E+00
    0.00000E+00         0.00000E+00         0.12503E+08
 
    0.12563E+08         0.88374E+05         0.00000E+00
    0.88374E+05         0.29050E+08         0.00000E+00
    0.00000E+00         0.00000E+00         0.12484E+08
 
    0.12541E+08         0.94890E+05         0.00000E+00
    0.94890E+05         0.29009E+08         0.00000E+00
    0.00000E+00         0.00000E+00         0.12465E+08
 
    0.12520E+08         0.10109E+06         0.00000E+00
    0.10109E+06         0.28966E+08         0.00000E+00
    0.00000E+00         0.00000E+00         0.12446E+08
 
    0.12499E+08         0.10701E+06         0.00000E+00
    0.10701E+06         0.28924E+08         0.00000E+00
    0.00000E+00         0.00000E+00         0.12427E+08
 
    0.12479E+08         0.11268E+06         0.00000E+00
    0.11268E+06         0.28881E+08         0.00000E+00
    0.00000E+00         0.00000E+00         0.12408E+08
 
    0.12458E+08         0.11812E+06         0.00000E+00
    0.11812E+06         0.28837E+08         0.00000E+00
    0.00000E+00         0.00000E+00         0.12388E+08
 
    0.12437E+08         0.12336E+06         0.00000E+00
    0.12336E+06         0.28792E+08         0.00000E+00
    0.00000E+00         0.00000E+00         0.12369E+08
 
    0.12417E+08         0.12844E+06         0.00000E+00
    0.12844E+06         0.28747E+08         0.00000E+00
    0.00000E+00         0.00000E+00         0.12349E+08
 
    0.12396E+08         0.13337E+06         0.00000E+00
    0.13337E+06         0.28702E+08         0.00000E+00
    0.00000E+00         0.00000E+00         0.12329E+08
 
    0.12375E+08         0.13819E+06         0.00000E+00
    0.13819E+06         0.28655E+08         0.00000E+00
    0.00000E+00         0.00000E+00         0.12309E+08
 
    0.12354E+08         0.14290E+06         0.00000E+00
    0.14290E+06         0.28607E+08         0.00000E+00
    0.00000E+00         0.00000E+00         0.12289E+08
 
    0.12333E+08         0.14754E+06         0.00000E+00
    0.14754E+06         0.28559E+08         0.00000E+00
    0.00000E+00         0.00000E+00         0.12268E+08
 
    0.12312E+08         0.15212E+06         0.00000E+00
    0.15212E+06         0.28510E+08         0.00000E+00
    0.00000E+00         0.00000E+00         0.12247E+08
 
    0.12291E+08         0.15665E+06         0.00000E+00
    0.15665E+06         0.28459E+08         0.00000E+00
    0.00000E+00         0.00000E+00         0.12225E+08
 
    0.12269E+08         0.16115E+06         0.00000E+00
    0.16115E+06         0.28408E+08         0.00000E+00
    0.00000E+00         0.00000E+00         0.12203E+08
 
    0.12247E+08         0.16563E+06         0.00000E+00
    0.16563E+06         0.28356E+08         0.00000E+00
    0.00000E+00         0.00000E+00         0.12181E+08
 
    0.12225E+08         0.17009E+06         0.00000E+00
    0.17009E+06         0.28302E+08         0.00000E+00
    0.00000E+00         0.00000E+00         0.12158E+08
 
    0.12202E+08         0.17455E+06         0.00000E+00
    0.17455E+06         0.28247E+08         0.00000E+00
    0.00000E+00         0.00000E+00         0.12135E+08
 
    0.12179E+08         0.17901E+06         0.00000E+00
    0.17901E+06         0.28191E+08         0.00000E+00
    0.00000E+00         0.00000E+00         0.12111E+08
 
    0.12155E+08         0.18348E+06         0.00000E+00
    0.18348E+06         0.28134E+08         0.00000E+00
    0.00000E+00         0.00000E+00         0.12087E+08
 
    0.12131E+08         0.18796E+06         0.00000E+00
    0.18796E+06         0.28075E+08         0.00000E+00
    0.00000E+00         0.00000E+00         0.12062E+08
 
    0.12106E+08         0.19246E+06         0.00000E+00
    0.19246E+06         0.28016E+08         0.00000E+00
    0.00000E+00         0.00000E+00         0.12037E+08
 
    0.12081E+08         0.19698E+06         0.00000E+00
    0.19698E+06         0.27954E+08         0.00000E+00
    0.00000E+00         0.00000E+00         0.12011E+08
 
    0.12055E+08         0.20152E+06         0.00000E+00
    0.20152E+06         0.27891E+08         0.00000E+00
    0.00000E+00         0.00000E+00         0.11984E+08
 
    0.12029E+08         0.20609E+06         0.00000E+00
    0.20609E+06         0.27827E+08         0.00000E+00
    0.00000E+00         0.00000E+00         0.11957E+08
 
    0.12002E+08         0.21069E+06         0.00000E+00
    0.21069E+06         0.27761E+08         0.00000E+00
    0.00000E+00         0.00000E+00         0.11929E+08
 
    0.11974E+08         0.21530E+06         0.00000E+00
    0.21530E+06         0.27694E+08         0.00000E+00
    0.00000E+00         0.00000E+00         0.11900E+08
 
    0.11945E+08         0.21994E+06         0.00000E+00
    0.21994E+06         0.27625E+08         0.00000E+00
    0.00000E+00         0.00000E+00         0.11871E+08
 
    0.11916E+08         0.22461E+06         0.00000E+00
    0.22461E+06         0.27555E+08         0.00000E+00
    0.00000E+00         0.00000E+00         0.11841E+08
 
    0.11886E+08         0.22929E+06         0.00000E+00
    0.22929E+06         0.27482E+08         0.00000E+00
    0.00000E+00         0.00000E+00         0.11810E+08
 
    0.11855E+08         0.23399E+06         0.00000E+00
    0.23399E+06         0.27408E+08         0.00000E+00
    0.00000E+00         0.00000E+00         0.11779E+08
 
    0.11823E+08         0.23871E+06         0.00000E+00
    0.23871E+06         0.27333E+08         0.00000E+00
    0.00000E+00         0.00000E+00         0.11747E+08
 
    0.11791E+08         0.24343E+06         0.00000E+00
    0.24343E+06         0.27255E+08         0.00000E+00
    0.00000E+00         0.00000E+00         0.11714E+08
 
    0.11758E+08         0.24817E+06         0.00000E+00
    0.24817E+06         0.27176E+08         0.00000E+00
    0.00000E+00         0.00000E+00         0.11680E+08
 
    0.11723E+08         0.25290E+06         0.00000E+00
    0.25290E+06         0.27094E+08         0.00000E+00
    0.00000E+00         0.00000E+00         0.11645E+08
 
    0.11688E+08         0.25762E+06         0.00000E+00
    0.25762E+06         0.27011E+08         0.00000E+00
    0.00000E+00         0.00000E+00         0.11610E+08
 
    0.11652E+08         0.26233E+06         0.00000E+00
    0.26233E+06         0.26926E+08         0.00000E+00
    0.00000E+00         0.00000E+00         0.11573E+08
 
    0.11614E+08         0.26702E+06         0.00000E+00
    0.26702E+06         0.26839E+08         0.00000E+00
    0.00000E+00         0.00000E+00         0.11536E+08
 
    0.11576E+08         0.27168E+06         0.00000E+00
    0.27168E+06         0.26750E+08         0.00000E+00
    0.00000E+00         0.00000E+00         0.11498E+08
 
    0.11537E+08         0.27629E+06         0.00000E+00
    0.27629E+06         0.26659E+08         0.00000E+00
    0.00000E+00         0.00000E+00         0.11459E+08
 
    0.11497E+08         0.28086E+06         0.00000E+00
    0.28086E+06         0.26566E+08         0.00000E+00
    0.00000E+00         0.00000E+00         0.11419E+08
 
    0.11455E+08         0.28537E+06         0.00000E+00
    0.28537E+06         0.26471E+08         0.00000E+00
    0.00000E+00         0.00000E+00         0.11378E+08
 
    0.11412E+08         0.28981E+06         0.00000E+00
    0.28981E+06         0.26374E+08         0.00000E+00
    0.00000E+00         0.00000E+00         0.11336E+08
 
    0.11369E+08         0.29416E+06         0.00000E+00
    0.29416E+06         0.26274E+08         0.00000E+00
    0.00000E+00         0.00000E+00         0.11293E+08
 
    0.11324E+08         0.29841E+06         0.00000E+00
    0.29841E+06         0.26173E+08         0.00000E+00
    0.00000E+00         0.00000E+00         0.11249E+08
 
    0.11277E+08         0.30255E+06         0.00000E+00
    0.30255E+06         0.26069E+08         0.00000E+00
    0.00000E+00         0.00000E+00         0.11204E+08
 
    0.11230E+08         0.30655E+06         0.00000E+00
    0.30655E+06         0.25963E+08         0.00000E+00
    0.00000E+00         0.00000E+00         0.11158E+08
 
    0.11181E+08         0.31041E+06         0.00000E+00
    0.31041E+06         0.25855E+08         0.00000E+00
    0.00000E+00         0.00000E+00         0.11111E+08
 
    0.11131E+08         0.31409E+06         0.00000E+00
    0.31409E+06         0.25745E+08         0.00000E+00
    0.00000E+00         0.00000E+00         0.11063E+08
 
    0.11079E+08         0.31759E+06         0.00000E+00
    0.31759E+06         0.25632E+08         0.00000E+00
    0.00000E+00         0.00000E+00         0.11013E+08
 
    0.11026E+08         0.32088E+06         0.00000E+00
    0.32088E+06         0.25517E+08         0.00000E+00
    0.00000E+00         0.00000E+00         0.10963E+08
 
    0.10972E+08         0.32393E+06         0.00000E+00
    0.32393E+06         0.25400E+08         0.00000E+00
    0.00000E+00         0.00000E+00         0.10912E+08
 
    0.10916E+08         0.32672E+06         0.00000E+00
    0.32672E+06         0.25281E+08         0.00000E+00
    0.00000E+00         0.00000E+00         0.10859E+08
 
    0.10859E+08         0.32922E+06         0.00000E+00
    0.32922E+06         0.25160E+08         0.00000E+00
    0.00000E+00         0.00000E+00         0.10806E+08
 
    0.10800E+08         0.33139E+06         0.00000E+00
    0.33139E+06         0.25036E+08         0.00000E+00
    0.00000E+00         0.00000E+00         0.10751E+08
 
    0.10740E+08         0.33322E+06         0.00000E+00
    0.33322E+06         0.24910E+08         0.00000E+00
    0.00000E+00         0.00000E+00         0.10695E+08
 
    0.10678E+08         0.33465E+06         0.00000E+00
    0.33465E+06         0.24782E+08         0.00000E+00
    0.00000E+00         0.00000E+00         0.10638E+08
 
    0.10614E+08         0.33566E+06         0.00000E+00
    0.33566E+06         0.24651E+08         0.00000E+00
    0.00000E+00         0.00000E+00         0.10580E+08
 
    0.10549E+08         0.33619E+06         0.00000E+00
    0.33619E+06         0.24518E+08         0.00000E+00
    0.00000E+00         0.00000E+00         0.10520E+08
 
    0.10481E+08         0.33619E+06         0.00000E+00
    0.33619E+06         0.24383E+08         0.00000E+00
    0.00000E+00         0.00000E+00         0.10459E+08
 
    0.10412E+08         0.33562E+06         0.00000E+00
    0.33562E+06         0.24246E+08         0.00000E+00
    0.00000E+00         0.00000E+00         0.10398E+08
 
    0.10341E+08         0.33442E+06         0.00000E+00
    0.33442E+06         0.24107E+08         0.00000E+00
    0.00000E+00         0.00000E+00         0.10334E+08
 
    0.10268E+08         0.33252E+06         0.00000E+00
    0.33252E+06         0.23965E+08         0.00000E+00
    0.00000E+00         0.00000E+00         0.10270E+08
 
    0.10193E+08         0.32985E+06         0.00000E+00
    0.32985E+06         0.23821E+08         0.00000E+00
    0.00000E+00         0.00000E+00         0.10204E+08
 
    0.10116E+08         0.32633E+06         0.00000E+00
    0.32633E+06         0.23675E+08         0.00000E+00
    0.00000E+00         0.00000E+00         0.10137E+08
 
    0.10037E+08         0.32187E+06         0.00000E+00
    0.32187E+06         0.23527E+08         0.00000E+00
    0.00000E+00         0.00000E+00         0.10069E+08
 
    0.99556E+07         0.31639E+06         0.00000E+00
    0.31639E+06         0.23376E+08         0.00000E+00
    0.00000E+00         0.00000E+00         0.99996E+07
 
    0.98720E+07         0.30976E+06         0.00000E+00
    0.30976E+06         0.23224E+08         0.00000E+00
    0.00000E+00         0.00000E+00         0.99287E+07
 
    0.97860E+07         0.30189E+06         0.00000E+00
    0.30189E+06         0.23069E+08         0.00000E+00
    0.00000E+00         0.00000E+00         0.98565E+07
 
    0.96976E+07         0.29265E+06         0.00000E+00
    0.29265E+06         0.22912E+08         0.00000E+00
    0.00000E+00         0.00000E+00         0.97829E+07
 
    0.96069E+07         0.28192E+06         0.00000E+00
    0.28192E+06         0.22753E+08         0.00000E+00
    0.00000E+00         0.00000E+00         0.97079E+07
 
    0.95137E+07         0.26957E+06         0.00000E+00
    0.26957E+06         0.22592E+08         0.00000E+00
    0.00000E+00         0.00000E+00         0.96316E+07
 
    0.94180E+07         0.25549E+06         0.00000E+00
    0.25549E+06         0.22429E+08         0.00000E+00
    0.00000E+00         0.00000E+00         0.95540E+07
 
    0.93199E+07         0.23957E+06         0.00000E+00
    0.23957E+06         0.22264E+08         0.00000E+00
    0.00000E+00         0.00000E+00         0.94751E+07
 
    0.92193E+07         0.22174E+06         0.00000E+00
    0.22174E+06         0.22097E+08         0.00000E+00
    0.00000E+00         0.00000E+00         0.93950E+07
 
    0.91163E+07         0.20196E+06         0.00000E+00
    0.20196E+06         0.21929E+08         0.00000E+00
    0.00000E+00         0.00000E+00         0.93137E+07
 
    0.90109E+07         0.18026E+06         0.00000E+00
    0.18026E+06         0.21761E+08         0.00000E+00
    0.00000E+00         0.00000E+00         0.92314E+07
 
    0.89030E+07         0.15681E+06         0.00000E+00
    0.15681E+06         0.21591E+08         0.00000E+00
    0.00000E+00         0.00000E+00         0.91483E+07
 
    0.87926E+07         0.13190E+06         0.00000E+00
    0.13190E+06         0.21423E+08         0.00000E+00
    0.00000E+00         0.00000E+00         0.90646E+07
 
    0.86795E+07         0.10604E+06         0.00000E+00
    0.10604E+06         0.21256E+08         0.00000E+00
    0.00000E+00         0.00000E+00         0.89805E+07
 
    0.85635E+07         0.80052E+05         0.00000E+00
    0.80052E+05         0.21091E+08         0.00000E+00
    0.00000E+00         0.00000E+00         0.88965E+07
 
    0.84440E+07         0.55106E+05         0.00000E+00
    0.55106E+05         0.20932E+08         0.00000E+00
    0.00000E+00         0.00000E+00         0.88128E+07
 
    0.83202E+07         0.32780E+05         0.00000E+00
    0.32780E+05         0.20780E+08         0.00000E+00
    0.00000E+00         0.00000E+00         0.87300E+07
 
    0.81909E+07         0.14922E+05         0.00000E+00
    0.14922E+05         0.20637E+08         0.00000E+00
    0.00000E+00         0.00000E+00         0.86484E+07
 
    0.80544E+07         0.31936E+04         0.00000E+00
    0.31936E+04         0.20508E+08         0.00000E+00
    0.00000E+00         0.00000E+00         0.85687E+07
 
    0.79088E+07        -0.17816E+04         0.00000E+00
   -0.17816E+04         0.20395E+08         0.00000E+00
    0.00000E+00         0.00000E+00         0.84912E+07
 
    0.77523E+07        -0.12999E+04         0.00000E+00
   -0.12999E+04         0.20302E+08         0.00000E+00
    0.00000E+00         0.00000E+00         0.84163E+07
 
    0.12900E+08         0.72146E+03         0.00000E+00
    0.72146E+03         0.29500E+08         0.00000E+00
    0.00000E+00         0.00000E+00         0.12720E+08
 
    0.12866E+08         0.26501E+04         0.00000E+00
    0.26501E+04         0.29480E+08         0.00000E+00
    0.00000E+00         0.00000E+00         0.12704E+08
 
    0.12835E+08         0.58304E+04         0.00000E+00
    0.58304E+04         0.29455E+08         0.00000E+00
    0.00000E+00         0.00000E+00         0.12687E+08
 
    0.12806E+08         0.10561E+05         0.00000E+00
    0.10561E+05         0.29426E+08         0.00000E+00
    0.00000E+00         0.00000E+00         0.12670E+08
 
    0.12779E+08         0.16704E+05         0.00000E+00
    0.16704E+05         0.29395E+08         0.00000E+00
    0.00000E+00         0.00000E+00         0.12652E+08
 
    0.12753E+08         0.23886E+05         0.00000E+00
    0.23886E+05         0.29361E+08         0.00000E+00
    0.00000E+00         0.00000E+00         0.12634E+08
 
    0.12727E+08         0.31696E+05         0.00000E+00
    0.31696E+05         0.29325E+08         0.00000E+00
    0.00000E+00         0.00000E+00         0.12616E+08
 
    0.12703E+08         0.39785E+05         0.00000E+00
    0.39785E+05         0.29288E+08         0.00000E+00
    0.00000E+00         0.00000E+00         0.12597E+08
 
    0.12679E+08         0.47896E+05         0.00000E+00
    0.47896E+05         0.29249E+08         0.00000E+00
    0.00000E+00         0.00000E+00         0.12579E+08
 
    0.12656E+08         0.55855E+05         0.00000E+00
    0.55855E+05         0.29210E+08         0.00000E+00
    0.00000E+00         0.00000E+00         0.12560E+08
 
    0.12633E+08         0.63554E+05         0.00000E+00
    0.63554E+05         0.29171E+08         0.00000E+00
    0.00000E+00         0.00000E+00         0.12541E+08
 
    0.12610E+08         0.70934E+05         0.00000E+00
    0.70934E+05         0.29131E+08         0.00000E+00
    0.00000E+00         0.00000E+00         0.12522E+08
 
    0.12588E+08         0.77968E+05         0.00000E+00
    0.77968E+05         0.29090E+08         0.00000E+00
    0.00000E+00         0.00000E+00         0.12503E+08
 
    0.12566E+08         0.84656E+05         0.00000E+00
    0.84656E+05         0.29049E+08         0.00000E+00
    0.00000E+00         0.00000E+00         0.12485E+08
 
    0.12545E+08         0.91008E+05         0.00000E+00
    0.91008E+05         0.29007E+08         0.00000E+00
    0.00000E+00         0.00000E+00         0.12466E+08
 
    0.12524E+08         0.97049E+05         0.00000E+00
    0.97049E+05         0.28965E+08         0.00000E+00
    0.00000E+00         0.00000E+00         0.12447E+08
 
    0.12503E+08         0.10280E+06         0.00000E+00
    0.10280E+06         0.28923E+08         0.00000E+00
    0.00000E+00         0.00000E+00         0.12428E+08
 
    0.12482E+08         0.10830E+06         0.00000E+00
    0.10830E+06         0.28880E+08         0.00000E+00
    0.00000E+00         0.00000E+00         0.12408E+08
 
    0.12461E+08         0.11358E+06         0.00000E+00
    0.11358E+06         0.28836E+08         0.00000E+00
    0.00000E+00         0.00000E+00         0.12389E+08
 
    0.12440E+08         0.11866E+06         0.00000E+00
    0.11866E+06         0.28791E+08         0.00000E+00
    0.00000E+00         0.00000E+00         0.12369E+08
 
    0.12420E+08         0.12357E+06         0.00000E+00
    0.12357E+06         0.28746E+08         0.00000E+00
    0.00000E+00         0.00000E+00         0.12350E+08
 
    0.12399E+08         0.12834E+06         0.00000E+00
    0.12834E+06         0.28701E+08         0.00000E+00
    0.00000E+00         0.00000E+00         0.12330E+08
 
    0.12378E+08         0.13300E+06         0.00000E+00
    0.13300E+06         0.28654E+08         0.00000E+00
    0.00000E+00         0.00000E+00         0.12310E+08
 
    0.12357E+08         0.13756E+06         0.00000E+00
    0.13756E+06         0.28606E+08         0.00000E+00
    0.00000E+00         0.00000E+00         0.12289E+08
 
    0.12336E+08         0.14203E+06         0.00000E+00
    0.14203E+06         0.28558E+08         0.00000E+00
    0.00000E+00         0.00000E+00         0.12268E+08
 
    0.12315E+08         0.14645E+06         0.00000E+00
    0.14645E+06         0.28509E+08         0.00000E+00
    0.00000E+00         0.00000E+00         0.12247E+08
 
    0.12294E+08         0.15082E+06         0.00000E+00
    0.15082E+06         0.28459E+08         0.00000E+00
    0.00000E+00         0.00000E+00         0.12226E+08
 
    0.12272E+08         0.15516E+06         0.00000E+00
    0.15516E+06         0.28407E+08         0.00000E+00
    0.00000E+00         0.00000E+00         0.12204E+08
 
    0.12250E+08         0.15947E+06         0.00000E+00
    0.15947E+06         0.28355E+08         0.00000E+00
    0.00000E+00         0.00000E+00         0.12181E+08
 
    0.12228E+08         0.16377E+06         0.00000E+00
    0.16377E+06         0.28301E+08         0.00000E+00
    0.00000E+00         0.00000E+00         0.12159E+08
 
    0.12205E+08         0.16807E+06         0.00000E+00
    0.16807E+06         0.28246E+08         0.00000E+00
    0.00000E+00         0.00000E+00         0.12135E+08
 
    0.12182E+08         0.17236E+06         0.00000E+00
    0.17236E+06         0.28190E+08         0.00000E+00
    0.00000E+00         0.00000E+00         0.12112E+08
 
    0.12158E+08         0.17667E+06         0.00000E+00
    0.17667E+06         0.28133E+08         0.00000E+00
    0.00000E+00         0.00000E+00         0.12087E+08
 
    0.12134E+08         0.18098E+06         0.00000E+00
    0.18098E+06         0.28075E+08         0.00000E+00
    0.00000E+00         0.00000E+00         0.12063E+08
 
    0.12109E+08         0.18532E+06         0.00000E+00
    0.18532E+06         0.28015E+08         0.00000E+00
    0.00000E+00         0.00000E+00         0.12037E+08
 
    0.12084E+08         0.18967E+06         0.00000E+00
    0.18967E+06         0.27953E+08         0.00000E+00
    0.00000E+00         0.00000E+00         0.12011E+08
 
    0.12058E+08         0.19404E+06         0.00000E+00
    0.19404E+06         0.27891E+08         0.00000E+00
    0.00000E+00         0.00000E+00         0.11985E+08
 
    0.12032E+08         0.19843E+06         0.00000E+00
    0.19843E+06         0.27826E+08         0.00000E+00
    0.00000E+00         0.00000E+00         0.11958E+08
 
    0.12005E+08         0.20285E+06         0.00000E+00
    0.20285E+06         0.27761E+08         0.00000E+00
    0.00000E+00         0.00000E+00         0.11930E+08
 
    0.11977E+08         0.20729E+06         0.00000E+00
    0.20729E+06         0.27693E+08         0.00000E+00
    0.00000E+00         0.00000E+00         0.11901E+08
 
    0.11949E+08         0.21176E+06         0.00000E+00
    0.21176E+06         0.27624E+08         0.00000E+00
    0.00000E+00         0.00000E+00         0.11872E+08
 
    0.11920E+08         0.21624E+06         0.00000E+00
    0.21624E+06         0.27554E+08         0.00000E+00
    0.00000E+00         0.00000E+00         0.11842E+08
 
    0.11890E+08         0.22074E+06         0.00000E+00
    0.22074E+06         0.27481E+08         0.00000E+00
    0.00000E+00         0.00000E+00         0.11811E+08
 
    0.11859E+08         0.22526E+06         0.00000E+00
    0.22526E+06         0.27407E+08         0.00000E+00
    0.00000E+00         0.00000E+00         0.11780E+08
 
    0.11827E+08         0.22979E+06         0.00000E+00
    0.22979E+06         0.27332E+08         0.00000E+00
    0.00000E+00         0.00000E+00         0.11748E+08
 
    0.11795E+08         0.23433E+06         0.00000E+00
    0.23433E+06         0.27254E+08         0.00000E+00
    0.00000E+00         0.00000E+00         0.11715E+08
 
    0.11761E+08         0.23888E+06         0.00000E+00
    0.23888E+06         0.27175E+08         0.00000E+00
    0.00000E+00         0.00000E+00         0.11681E+08
 
    0.11727E+08         0.24342E+06         0.00000E+00
    0.24342E+06         0.27094E+08         0.00000E+00
    0.00000E+00         0.00000E+00         0.11646E+08
 
    0.11692E+08         0.24796E+06         0.00000E+00
    0.24796E+06         0.27010E+08         0.00000E+00
    0.00000E+00         0.00000E+00         0.11611E+08
 
    0.11655E+08         0.25248E+06         0.00000E+00
    0.25248E+06         0.26925E+08         0.00000E+00
    0.00000E+00         0.00000E+00         0.11574E+08
 
    0.11618E+08         0.25698E+06         0.00000E+00
    0.25698E+06         0.26838E+08         0.00000E+00
    0.00000E+00         0.00000E+00         0.11537E+08
 
    0.11580E+08         0.26145E+06         0.00000E+00
    0.26145E+06         0.26749E+08         0.00000E+00
    0.00000E+00         0.00000E+00         0.11499E+08
 
    0.11541E+08         0.26588E+06         0.00000E+00
    0.26588E+06         0.26658E+08         0.00000E+00
    0.00000E+00         0.00000E+00         0.11460E+08
 
    0.11500E+08         0.27027E+06         0.00000E+00
    0.27027E+06         0.26565E+08         0.00000E+00
    0.00000E+00         0.00000E+00         0.11420E+08
 
    0.11459E+08         0.27459E+06         0.00000E+00
    0.27459E+06         0.26470E+08         0.00000E+00
    0.00000E+00         0.00000E+00         0.11379E+08
 
    0.11416E+08         0.27884E+06         0.00000E+00
    0.27884E+06         0.26373E+08         0.00000E+00
    0.00000E+00         0.00000E+00         0.11337E+08
 
    0.11372E+08         0.28301E+06         0.00000E+00
    0.28301E+06         0.26273E+08         0.00000E+00
    0.00000E+00         0.00000E+00         0.11294E+08
 
    0.11327E+08         0.28708E+06         0.00000E+00
    0.28708E+06         0.26172E+08         0.00000E+00
    0.00000E+00         0.00000E+00         0.11250E+08
 
    0.11281E+08         0.29104E+06         0.00000E+00
    0.29104E+06         0.26068E+08         0.00000E+00
    0.00000E+00         0.00000E+00         0.11205E+08
 
    0.11233E+08         0.29488E+06         0.00000E+00
    0.29488E+06         0.25962E+08         0.00000E+00
    0.00000E+00         0.00000E+00         0.11159E+08
 
    0.11184E+08         0.29856E+06         0.00000E+00
    0.29856E+06         0.25854E+08         0.00000E+00
    0.00000E+00         0.00000E+00         0.11112E+08
 
    0.11134E+08         0.30209E+06         0.00000E+00
    0.30209E+06         0.25744E+08         0.00000E+00
    0.00000E+00         0.00000E+00         0.11063E+08
 
    0.11083E+08         0.30543E+06         0.00000E+00
    0.30543E+06         0.25632E+08         0.00000E+00
    0.00000E+00         0.00000E+00         0.11014E+08
 
    0.11030E+08         0.30856E+06         0.00000E+00
    0.30856E+06         0.25517E+08         0.00000E+00
    0.00000E+00         0.00000E+00         0.10964E+08
 
    0.10975E+08         0.31147E+06         0.00000E+00
    0.31147E+06         0.25400E+08         0.00000E+00
    0.00000E+00         0.00000E+00         0.10913E+08
 
    0.10919E+08         0.31412E+06         0.00000E+00
    0.31412E+06         0.25281E+08         0.00000E+00
    0.00000E+00         0.00000E+00         0.10860E+08
 
    0.10862E+08         0.31649E+06         0.00000E+00
    0.31649E+06         0.25159E+08         0.00000E+00
    0.00000E+00         0.00000E+00         0.10806E+08
 
    0.10803E+08         0.31856E+06         0.00000E+00
    0.31856E+06         0.25036E+08         0.00000E+00
    0.00000E+00         0.00000E+00         0.10752E+08
 
    0.10742E+08         0.32027E+06         0.00000E+00
    0.32027E+06         0.24910E+08         0.00000E+00
    0.00000E+00         0.00000E+00         0.10696E+08
 
    0.10680E+08         0.32161E+06         0.00000E+00
    0.32161E+06         0.24781E+08         0.00000E+00
    0.00000E+00         0.00000E+00         0.10638E+08
 
    0.10616E+08         0.32254E+06         0.00000E+00
    0.32254E+06         0.24651E+08         0.00000E+00
    0.00000E+00         0.00000E+00         0.10580E+08
 
    0.10550E+08         0.32300E+06         0.00000E+00
    0.32300E+06         0.24518E+08         0.00000E+00
    0.00000E+00         0.00000E+00         0.10521E+08
 
    0.10483E+08         0.32296E+06         0.00000E+00
    0.32296E+06         0.24383E+08         0.00000E+00
    0.00000E+00         0.00000E+00         0.10460E+08
 
    0.10413E+08         0.32235E+06         0.00000E+00
    0.32235E+06         0.24246E+08         0.00000E+00
    0.00000E+00         0.00000E+00         0.10398E+08
 
    0.10342E+08         0.32114E+06         0.00000E+00
    0.32114E+06         0.24107E+08         0.00000E+00
    0.00000E+00         0.00000E+00         0.10335E+08
 
    0.10269E+08         0.31924E+06         0.00000E+00
    0.31924E+06         0.23966E+08         0.00000E+00
    0.00000E+00         0.00000E+00         0.10270E+08
 
    0.10193E+08         0.31659E+06         0.00000E+00
    0.31659E+06         0.23822E+08         0.00000E+00
    0.00000E+00         0.00000E+00         0.10205E+08
 
    0.10116E+08         0.31312E+06         0.00000E+00
    0.31312E+06         0.23676E+08         0.00000E+00
    0.00000E+00         0.00000E+00         0.10138E+08
 
    0.10036E+08         0.30873E+06         0.00000E+00
    0.30873E+06         0.23528E+08         0.00000E+00
    0.00000E+00         0.00000E+00         0.10069E+08
 
    0.99544E+07         0.30333E+06         0.00000E+00
    0.30333E+06         0.23378E+08         0.00000E+00
    0.00000E+00         0.00000E+00         0.99996E+07
 
    0.98701E+07         0.29682E+06         0.00000E+00
    0.29682E+06         0.23225E+08         0.00000E+00
    0.00000E+00         0.00000E+00         0.99286E+07
 
    0.97835E+07         0.28909E+06         0.00000E+00
    0.28909E+06         0.23071E+08         0.00000E+00
    0.00000E+00         0.00000E+00         0.98562E+07
 
    0.96944E+07         0.28000E+06         0.00000E+00
    0.28000E+06         0.22914E+08         0.00000E+00
    0.00000E+00         0.00000E+00         0.97825E+07
 
    0.96029E+07         0.26945E+06         0.00000E+00
    0.26945E+06         0.22755E+08         0.00000E+00
    0.00000E+00         0.00000E+00         0.97074E+07
 
    0.95088E+07         0.25731E+06         0.00000E+00
    0.25731E+06         0.22594E+08         0.00000E+00
    0.00000E+00         0.00000E+00         0.96310E+07
 
    0.94122E+07         0.24344E+06         0.00000E+00
    0.24344E+06         0.22432E+08         0.00000E+00
    0.00000E+00         0.00000E+00         0.95531E+07
 
    0.93129E+07         0.22776E+06         0.00000E+00
    0.22776E+06         0.22267E+08         0.00000E+00
    0.00000E+00         0.00000E+00         0.94740E+07
 
    0.92111E+07         0.21017E+06         0.00000E+00
    0.21017E+06         0.22101E+08         0.00000E+00
    0.00000E+00         0.00000E+00         0.93936E+07
 
    0.91067E+07         0.19066E+06         0.00000E+00
    0.19066E+06         0.21933E+08         0.00000E+00
    0.00000E+00         0.00000E+00         0.93121E+07
 
    0.89997E+07         0.16925E+06         0.00000E+00
    0.16925E+06         0.21765E+08         0.00000E+00
    0.00000E+00         0.00000E+00         0.92294E+07
 
    0.88901E+07         0.14610E+06         0.00000E+00
    0.14610E+06         0.21596E+08         0.00000E+00
    0.00000E+00         0.00000E+00         0.91459E+07
 
    0.87778E+07         0.12153E+06         0.00000E+00
    0.12153E+06         0.21428E+08         0.00000E+00
    0.00000E+00         0.00000E+00         0.90617E+07
 
    0.86628E+07         0.96072E+05         0.00000E+00
    0.96072E+05         0.21261E+08         0.00000E+00
    0.00000E+00         0.00000E+00         0.89771E+07
 
    0.85447E+07         0.70568E+05         0.00000E+00
    0.70568E+05         0.21097E+08         0.00000E+00
    0.00000E+00         0.00000E+00         0.88924E+07
 
    0.84232E+07         0.46247E+05         0.00000E+00
    0.46247E+05         0.20937E+08         0.00000E+00
    0.00000E+00         0.00000E+00         0.88080E+07
 
    0.82975E+07         0.24756E+05         0.00000E+00
    0.24756E+05         0.20784E+08         0.00000E+00
    0.00000E+00         0.00000E+00         0.87243E+07
 
    0.81666E+07         0.80315E+04         0.00000E+00
    0.80315E+04         0.20640E+08         0.00000E+00
    0.00000E+00         0.00000E+00         0.86420E+07
 
    0.80289E+07        -0.21827E+04         0.00000E+00
   -0.21827E+04         0.20509E+08         0.00000E+00
    0.00000E+00         0.00000E+00         0.85615E+07
 
    0.78827E+07        -0.52318E+04         0.00000E+00
   -0.52318E+04         0.20395E+08         0.00000E+00
    0.00000E+00         0.00000E+00         0.84834E+07
 
    0.77260E+07        -0.24929E+04         0.00000E+00
   -0.24929E+04         0.20301E+08         0.00000E+00
    0.00000E+00         0.00000E+00         0.84082E+07
 
    0.12907E+08         0.43204E+03         0.00000E+00
    0.43204E+03         0.29500E+08         0.00000E+00
    0.00000E+00         0.00000E+00         0.12722E+08
 
    0.12873E+08         0.18129E+04         0.00000E+00
    0.18129E+04         0.29479E+08         0.00000E+00
    0.00000E+00         0.00000E+00         0.12706E+08
 
    0.12842E+08         0.45225E+04         0.00000E+00
    0.45225E+04         0.29454E+08         0.00000E+00
    0.00000E+00         0.00000E+00         0.12689E+08
 
    0.12813E+08         0.88722E+04         0.00000E+00
    0.88722E+04         0.29425E+08         0.00000E+00
    0.00000E+00         0.00000E+00         0.12671E+08
 
    0.12785E+08         0.14710E+05         0.00000E+00
    0.14710E+05         0.29393E+08         0.00000E+00
    0.00000E+00         0.00000E+00         0.12653E+08
 
    0.12759E+08         0.21642E+05         0.00000E+00
    0.21642E+05         0.29359E+08         0.00000E+00
    0.00000E+00         0.00000E+00         0.12635E+08
 
    0.12733E+08         0.29237E+05         0.00000E+00
    0.29237E+05         0.29323E+08         0.00000E+00
    0.00000E+00         0.00000E+00         0.12617E+08
 
    0.12708E+08         0.37132E+05         0.00000E+00
    0.37132E+05         0.29286E+08         0.00000E+00
    0.00000E+00         0.00000E+00         0.12598E+08
 
    0.12684E+08         0.45062E+05         0.00000E+00
    0.45062E+05         0.29248E+08         0.00000E+00
    0.00000E+00         0.00000E+00         0.12579E+08
 
    0.12660E+08         0.52847E+05         0.00000E+00
    0.52847E+05         0.29209E+08         0.00000E+00
    0.00000E+00         0.00000E+00         0.12561E+08
 
    0.12637E+08         0.60375E+05         0.00000E+00
    0.60375E+05         0.29169E+08         0.00000E+00
    0.00000E+00         0.00000E+00         0.12542E+08
 
    0.12614E+08         0.67586E+05         0.00000E+00
    0.67586E+05         0.29129E+08         0.00000E+00
    0.00000E+00         0.00000E+00         0.12523E+08
 
    0.12592E+08         0.74452E+05         0.00000E+00
    0.74452E+05         0.29089E+08         0.00000E+00
    0.00000E+00         0.00000E+00         0.12504E+08
 
    0.12570E+08         0.80971E+05         0.00000E+00
    0.80971E+05         0.29048E+08         0.00000E+00
    0.00000E+00         0.00000E+00         0.12485E+08
 
    0.12548E+08         0.87155E+05         0.00000E+00
    0.87155E+05         0.29006E+08         0.00000E+00
    0.00000E+00         0.00000E+00         0.12466E+08
 
    0.12527E+08         0.93027E+05         0.00000E+00
    0.93027E+05         0.28964E+08         0.00000E+00
    0.00000E+00         0.00000E+00         0.12447E+08
 
    0.12506E+08         0.98613E+05         0.00000E+00
    0.98613E+05         0.28922E+08         0.00000E+00
    0.00000E+00         0.00000E+00         0.12428E+08
 
    0.12485E+08         0.10395E+06         0.00000E+00
    0.10395E+06         0.28878E+08         0.00000E+00
    0.00000E+00         0.00000E+00         0.12409E+08
 
    0.12464E+08         0.10905E+06         0.00000E+00
    0.10905E+06         0.28835E+08         0.00000E+00
    0.00000E+00         0.00000E+00         0.12390E+08
 
    0.12443E+08         0.11397E+06         0.00000E+00
    0.11397E+06         0.28790E+08         0.00000E+00
    0.00000E+00         0.00000E+00         0.12370E+08
 
    0.12422E+08         0.11872E+06         0.00000E+00
    0.11872E+06         0.28745E+08         0.00000E+00
    0.00000E+00         0.00000E+00         0.12350E+08
 
    0.12402E+08         0.12332E+06         0.00000E+00
    0.12332E+06         0.28700E+08         0.00000E+00
    0.00000E+00         0.00000E+00         0.12330E+08
 
    0.12381E+08         0.12781E+06         0.00000E+00
    0.12781E+06         0.28653E+08         0.00000E+00
    0.00000E+00         0.00000E+00         0.12310E+08
 
    0.12360E+08         0.13221E+06         0.00000E+00
    0.13221E+06         0.28606E+08         0.00000E+00
    0.00000E+00         0.00000E+00         0.12290E+08
 
    0.12339E+08         0.13652E+06         0.00000E+00
    0.13652E+06         0.28557E+08         0.00000E+00
    0.00000E+00         0.00000E+00         0.12269E+08
 
    0.12318E+08         0.14078E+06         0.00000E+00
    0.14078E+06         0.28508E+08         0.00000E+00
    0.00000E+00         0.00000E+00         0.12248E+08
 
    0.12297E+08         0.14499E+06         0.00000E+00
    0.14499E+06         0.28458E+08         0.00000E+00
    0.00000E+00         0.00000E+00         0.12226E+08
 
    0.12275E+08         0.14916E+06         0.00000E+00
    0.14916E+06         0.28406E+08         0.00000E+00
    0.00000E+00         0.00000E+00         0.12204E+08
 
    0.12253E+08         0.15331E+06         0.00000E+00
    0.15331E+06         0.28354E+08         0.00000E+00
    0.00000E+00         0.00000E+00         0.12182E+08
 
    0.12231E+08         0.15745E+06         0.00000E+00
    0.15745E+06         0.28300E+08         0.00000E+00
    0.00000E+00         0.00000E+00         0.12159E+08
 
    0.12208E+08         0.16158E+06         0.00000E+00
    0.16158E+06         0.28246E+08         0.00000E+00
    0.00000E+00         0.00000E+00         0.12136E+08
 
    0.12185E+08         0.16571E+06         0.00000E+00
    0.16571E+06         0.28190E+08         0.00000E+00
    0.00000E+00         0.00000E+00         0.12112E+08
 
    0.12161E+08         0.16985E+06         0.00000E+00
    0.16985E+06         0.28132E+08         0.00000E+00
    0.00000E+00         0.00000E+00         0.12088E+08
 
    0.12137E+08         0.17400E+06         0.00000E+00
    0.17400E+06         0.28074E+08         0.00000E+00
    0.00000E+00         0.00000E+00         0.12063E+08
 
    0.12113E+08         0.17816E+06         0.00000E+00
    0.17816E+06         0.28014E+08         0.00000E+00
    0.00000E+00         0.00000E+00         0.12038E+08
 
    0.12088E+08         0.18234E+06         0.00000E+00
    0.18234E+06         0.27952E+08         0.00000E+00
    0.00000E+00         0.00000E+00         0.12012E+08
 
    0.12062E+08         0.18654E+06         0.00000E+00
    0.18654E+06         0.27890E+08         0.00000E+00
    0.00000E+00         0.00000E+00         0.11985E+08
 
    0.12035E+08         0.19077E+06         0.00000E+00
    0.19077E+06         0.27825E+08         0.00000E+00
    0.00000E+00         0.00000E+00         0.11958E+08
 
    0.12008E+08         0.19501E+06         0.00000E+00
    0.19501E+06         0.27760E+08         0.00000E+00
    0.00000E+00         0.00000E+00         0.11930E+08
 
    0.11981E+08         0.19927E+06         0.00000E+00
    0.19927E+06         0.27692E+08         0.00000E+00
    0.00000E+00         0.00000E+00         0.11902E+08
 
    0.11952E+08         0.20356E+06         0.00000E+00
    0.20356E+06         0.27623E+08         0.00000E+00
    0.00000E+00         0.00000E+00         0.11873E+08
 
    0.11923E+08         0.20786E+06         0.00000E+00
    0.20786E+06         0.27553E+08         0.00000E+00
    0.00000E+00         0.00000E+00         0.11843E+08
 
    0.11893E+08         0.21219E+06         0.00000E+00
    0.21219E+06         0.27481E+08         0.00000E+00
    0.00000E+00         0.00000E+00         0.11812E+08
 
    0.11862E+08         0.21652E+06         0.00000E+00
    0.21652E+06         0.27407E+08         0.00000E+00
    0.00000E+00         0.00000E+00         0.11781E+08
 
    0.11831E+08         0.22087E+06         0.00000E+00
    0.22087E+06         0.27331E+08         0.00000E+00
    0.00000E+00         0.00000E+00         0.11748E+08
 
    0.11798E+08         0.22523E+06         0.00000E+00
    0.22523E+06         0.27253E+08         0.00000E+00
    0.00000E+00         0.00000E+00         0.11715E+08
 
    0.11765E+08         0.22959E+06         0.00000E+00
    0.22959E+06         0.27174E+08         0.00000E+00
    0.00000E+00         0.00000E+00         0.11682E+08
 
    0.11731E+08         0.23395E+06         0.00000E+00
    0.23395E+06         0.27093E+08         0.00000E+00
    0.00000E+00         0.00000E+00         0.11647E+08
 
    0.11695E+08         0.23829E+06         0.00000E+00
    0.23829E+06         0.27010E+08         0.00000E+00
    0.00000E+00         0.00000E+00         0.11611E+08
 
    0.11659E+08         0.24263E+06         0.00000E+00
    0.24263E+06         0.26924E+08         0.00000E+00
    0.00000E+00         0.00000E+00         0.11575E+08
 
    0.11622E+08         0.24694E+06         0.00000E+00
    0.24694E+06         0.26837E+08         0.00000E+00
    0.00000E+00         0.00000E+00         0.11538E+08
 
    0.11584E+08         0.25123E+06         0.00000E+00
    0.25123E+06         0.26748E+08         0.00000E+00
    0.00000E+00         0.00000E+00         0.11500E+08
 
    0.11544E+08         0.25547E+06         0.00000E+00
    0.25547E+06         0.26657E+08         0.00000E+00
    0.00000E+00         0.00000E+00         0.11461E+08
 
    0.11504E+08         0.25967E+06         0.00000E+00
    0.25967E+06         0.26564E+08         0.00000E+00
    0.00000E+00         0.00000E+00         0.11421E+08
 
    0.11462E+08         0.26381E+06         0.00000E+00
    0.26381E+06         0.26469E+08         0.00000E+00
    0.00000E+00         0.00000E+00         0.11380E+08
 
    0.11420E+08         0.26788E+06         0.00000E+00
    0.26788E+06         0.26372E+08         0.00000E+00
    0.00000E+00         0.00000E+00         0.11338E+08
 
    0.11376E+08         0.27187E+06         0.00000E+00
    0.27187E+06         0.26273E+08         0.00000E+00
    0.00000E+00         0.00000E+00         0.11295E+08
 
    0.11331E+08         0.27577E+06         0.00000E+00
    0.27577E+06         0.26171E+08         0.00000E+00
    0.00000E+00         0.00000E+00         0.11251E+08
 
    0.11284E+08         0.27955E+06         0.00000E+00
    0.27955E+06         0.26067E+08         0.00000E+00
    0.00000E+00         0.00000E+00         0.11206E+08
 
    0.11237E+08         0.28321E+06         0.00000E+00
    0.28321E+06         0.25962E+08         0.00000E+00
    0.00000E+00         0.00000E+00         0.11160E+08
 
    0.11188E+08         0.28674E+06         0.00000E+00
    0.28674E+06         0.25854E+08         0.00000E+00
    0.00000E+00         0.00000E+00         0.11112E+08
 
    0.11138E+08         0.29010E+06         0.00000E+00
    0.29010E+06         0.25743E+08         0.00000E+00
    0.00000E+00         0.00000E+00         0.11064E+08
 
    0.11086E+08         0.29328E+06         0.00000E+00
    0.29328E+06         0.25631E+08         0.00000E+00
    0.00000E+00         0.00000E+00         0.11015E+08
 
    0.11033E+08         0.29627E+06         0.00000E+00
    0.29627E+06         0.25516E+08         0.00000E+00
    0.00000E+00         0.00000E+00         0.10965E+08
 
    0.10978E+08         0.29903E+06         0.00000E+00
    0.29903E+06         0.25399E+08         0.00000E+00
    0.00000E+00         0.00000E+00         0.10913E+08
 
    0.10922E+08         0.30155E+06         0.00000E+00
    0.30155E+06         0.25280E+08         0.00000E+00
    0.00000E+00         0.00000E+00         0.10861E+08
 
    0.10865E+08         0.30380E+06         0.00000E+00
    0.30380E+06         0.25159E+08         0.00000E+00
    0.00000E+00         0.00000E+00         0.10807E+08
 
    0.10806E+08         0.30575E+06         0.00000E+00
    0.30575E+06         0.25035E+08         0.00000E+00
    0.00000E+00         0.00000E+00         0.10752E+08
 
    0.10745E+08         0.30737E+06         0.00000E+00
    0.30737E+06         0.24909E+08         0.00000E+00
    0.00000E+00         0.00000E+00         0.10696E+08
 
    0.10682E+08         0.30862E+06         0.00000E+00
    0.30862E+06         0.24781E+08         0.00000E+00
    0.00000E+00         0.00000E+00         0.10639E+08
 
    0.10618E+08         0.30946E+06         0.00000E+00
    0.30946E+06         0.24651E+08         0.00000E+00
    0.00000E+00         0.00000E+00         0.10581E+08
 
    0.10552E+08         0.30986E+06         0.00000E+00
    0.30986E+06         0.24518E+08         0.00000E+00
    0.00000E+00         0.00000E+00         0.10521E+08
 
    0.10484E+08         0.30977E+06         0.00000E+00
    0.30977E+06         0.24384E+08         0.00000E+00
    0.00000E+00         0.00000E+00         0.10460E+08
 
    0.10415E+08         0.30914E+06         0.00000E+00
    0.30914E+06         0.24247E+08         0.00000E+00
    0.00000E+00         0.00000E+00         0.10398E+08
 
    0.10343E+08         0.30792E+06         0.00000E+00
    0.30792E+06         0.24107E+08         0.00000E+00
    0.00000E+00         0.00000E+00         0.10335E+08
 
    0.10269E+08         0.30603E+06         0.00000E+00
    0.30603E+06         0.23966E+08         0.00000E+00
    0.00000E+00         0.00000E+00         0.10271E+08
 
    0.10194E+08         0.30342E+06         0.00000E+00
    0.30342E+06         0.23822E+08         0.00000E+00
    0.00000E+00         0.00000E+00         0.10205E+08
 
    0.10116E+08         0.30000E+06         0.00000E+00
    0.30000E+06         0.23677E+08         0.00000E+00
    0.00000E+00         0.00000E+00         0.10138E+08
 
    0.10036E+08         0.29569E+06         0.00000E+00
    0.29569E+06         0.23529E+08         0.00000E+00
    0.00000E+00         0.00000E+00         0.10069E+08
 
    0.99532E+07         0.29039E+06         0.00000E+00
    0.29039E+06         0.23379E+08         0.00000E+00
    0.00000E+00         0.00000E+00         0.99996E+07
 
    0.98684E+07         0.28401E+06         0.00000E+00
    0.28401E+06         0.23227E+08         0.00000E+00
    0.00000E+00         0.00000E+00         0.99285E+07
 
    0.97811E+07         0.27642E+06         0.00000E+00
    0.27642E+06         0.23072E+08         0.00000E+00
    0.00000E+00         0.00000E+00         0.98560E+07
 
    0.96914E+07         0.26751E+06         0.00000E+00
    0.26751E+06         0.22916E+08         0.00000E+00
    0.00000E+00         0.00000E+00         0.97822E+07
 
    0.95990E+07         0.25716E+06         0.00000E+00
    0.25716E+06         0.22757E+08         0.00000E+00
    0.00000E+00         0.00000E+00         0.97069E+07
 
    0.95040E+07         0.24523E+06         0.00000E+00
    0.24523E+06         0.22597E+08         0.00000E+00
    0.00000E+00         0.00000E+00         0.96303E+07
 
    0.94064E+07         0.23161E+06         0.00000E+00
    0.23161E+06         0.22435E+08         0.00000E+00
    0.00000E+00         0.00000E+00         0.95523E+07
 
    0.93061E+07         0.21618E+06         0.00000E+00
    0.21618E+06         0.22270E+08         0.00000E+00
    0.00000E+00         0.00000E+00         0.94730E+07
 
    0.92030E+07         0.19887E+06         0.00000E+00
    0.19887E+06         0.22105E+08         0.00000E+00
    0.00000E+00         0.00000E+00         0.93923E+07
 
    0.90972E+07         0.17965E+06         0.00000E+00
    0.17965E+06         0.21938E+08         0.00000E+00
    0.00000E+00         0.00000E+00         0.93104E+07
 
    0.89887E+07         0.15856E+06         0.00000E+00
    0.15856E+06         0.21769E+08         0.00000E+00
    0.00000E+00         0.00000E+00         0.92274E+07
 
    0.88774E+07         0.13575E+06         0.00000E+00
    0.13575E+06         0.21601E+08         0.00000E+00
    0.00000E+00         0.00000E+00         0.91435E+07
 
    0.87632E+07         0.11155E+06         0.00000E+00
    0.11155E+06         0.21433E+08         0.00000E+00
    0.00000E+00         0.00000E+00         0.90588E+07
 
    0.86461E+07         0.86511E+05         0.00000E+00
    0.86511E+05         0.21266E+08         0.00000E+00
    0.00000E+00         0.00000E+00         0.89736E+07
 
    0.85260E+07         0.61502E+05         0.00000E+00
    0.61502E+05         0.21102E+08         0.00000E+00
    0.00000E+00         0.00000E+00         0.88882E+07
 
    0.84023E+07         0.37791E+05         0.00000E+00
    0.37791E+05         0.20941E+08         0.00000E+00
    0.00000E+00         0.00000E+00         0.88031E+07
 
    0.82748E+07         0.17087E+05         0.00000E+00
    0.17087E+05         0.20787E+08         0.00000E+00
    0.00000E+00         0.00000E+00         0.87187E+07
 
    0.81423E+07         0.14133E+04         0.00000E+00
    0.14133E+04         0.20643E+08         0.00000E+00
    0.00000E+00         0.00000E+00         0.86355E+07
 
    0.80035E+07        -0.73868E+04         0.00000E+00
   -0.73868E+04         0.20511E+08         0.00000E+00
    0.00000E+00         0.00000E+00         0.85542E+07
 
    0.78566E+07        -0.86002E+04         0.00000E+00
   -0.86002E+04         0.20395E+08         0.00000E+00
    0.00000E+00         0.00000E+00         0.84755E+07
 
    0.76997E+07        -0.36641E+04         0.00000E+00
   -0.36641E+04         0.20300E+08         0.00000E+00
    0.00000E+00         0.00000E+00         0.84000E+07
 
    0.12914E+08         0.14589E+03         0.00000E+00
    0.14589E+03         0.29500E+08         0.00000E+00
    0.00000E+00         0.00000E+00         0.12724E+08
 
    0.12880E+08         0.98961E+03         0.00000E+00
    0.98961E+03         0.29479E+08         0.00000E+00
    0.00000E+00         0.00000E+00         0.12708E+08
 
    0.12849E+08         0.32466E+04         0.00000E+00
    0.32466E+04         0.29453E+08         0.00000E+00
    0.00000E+00         0.00000E+00         0.12691E+08
 
    0.12819E+08         0.72359E+04         0.00000E+00
    0.72359E+04         0.29424E+08         0.00000E+00
    0.00000E+00         0.00000E+00         0.12673E+08
 
    0.12791E+08         0.12786E+05         0.00000E+00
    0.12786E+05         0.29392E+08         0.00000E+00
    0.00000E+00         0.00000E+00         0.12655E+08
 
    0.12764E+08         0.19476E+05         0.00000E+00
    0.19476E+05         0.29358E+08         0.00000E+00
    0.00000E+00         0.00000E+00         0.12637E+08
 
    0.12738E+08         0.26858E+05         0.00000E+00
    0.26858E+05         0.29322E+08         0.00000E+00
    0.00000E+00         0.00000E+00         0.12618E+08
 
    0.12713E+08         0.34557E+05         0.00000E+00
    0.34557E+05         0.29284E+08         0.00000E+00
    0.00000E+00         0.00000E+00         0.12599E+08
 
    0.12689E+08         0.42299E+05         0.00000E+00
    0.42299E+05         0.29246E+08         0.00000E+00
    0.00000E+00         0.00000E+00         0.12580E+08
 
    0.12665E+08         0.49903E+05         0.00000E+00
    0.49903E+05         0.29207E+08         0.00000E+00
    0.00000E+00         0.00000E+00         0.12562E+08
 
    0.12641E+08         0.57253E+05         0.00000E+00
    0.57253E+05         0.29168E+08         0.00000E+00
    0.00000E+00         0.00000E+00         0.12543E+08
 
    0.12618E+08         0.64287E+05         0.00000E+00
    0.64287E+05         0.29128E+08         0.00000E+00
    0.00000E+00         0.00000E+00         0.12524E+08
 
    0.12596E+08         0.70977E+05         0.00000E+00
    0.70977E+05         0.29087E+08         0.00000E+00
    0.00000E+00         0.00000E+00         0.12505E+08
 
    0.12573E+08         0.77320E+05         0.00000E+00
    0.77320E+05         0.29046E+08         0.00000E+00
    0.00000E+00         0.00000E+00         0.12486E+08
 
    0.12552E+08         0.83330E+05         0.00000E+00
    0.83330E+05         0.29005E+08         0.00000E+00
    0.00000E+00         0.00000E+00         0.12467E+08
 
    0.12530E+08         0.89027E+05         0.00000E+00
    0.89027E+05         0.28963E+08         0.00000E+00
    0.00000E+00         0.00000E+00         0.12448E+08
 
    0.12509E+08         0.94441E+05         0.00000E+00
    0.94441E+05         0.28920E+08         0.00000E+00
    0.00000E+00         0.00000E+00         0.12429E+08
 
    0.12488E+08         0.99601E+05         0.00000E+00
    0.99601E+05         0.28877E+08         0.00000E+00
    0.00000E+00         0.00000E+00         0.12410E+08
 
    0.12467E+08         0.10454E+06         0.00000E+00
    0.10454E+06         0.28834E+08         0.00000E+00
    0.00000E+00         0.00000E+00         0.12390E+08
 
    0.12446E+08         0.10928E+06         0.00000E+00
    0.10928E+06         0.28789E+08         0.00000E+00
    0.00000E+00         0.00000E+00         0.12371E+08
 
    0.12425E+08         0.11386E+06         0.00000E+00
    0.11386E+06         0.28744E+08         0.00000E+00
    0.00000E+00         0.00000E+00         0.12351E+08
 
    0.12405E+08         0.11830E+06         0.00000E+00
    0.11830E+06         0.28699E+08         0.00000E+00
    0.00000E+00         0.00000E+00         0.12331E+08
 
    0.12384E+08         0.12263E+06         0.00000E+00
    0.12263E+06         0.28652E+08         0.00000E+00
    0.00000E+00         0.00000E+00         0.12311E+08
 
    0.12363E+08         0.12686E+06         0.00000E+00
    0.12686E+06         0.28605E+08         0.00000E+00
    0.00000E+00         0.00000E+00         0.12290E+08
 
    0.12342E+08         0.13101E+06         0.00000E+00
    0.13101E+06         0.28556E+08         0.00000E+00
    0.00000E+00         0.00000E+00         0.12270E+08
 
    0.12321E+08         0.13510E+06         0.00000E+00
    0.13510E+06         0.28507E+08         0.00000E+00
    0.00000E+00         0.00000E+00         0.12248E+08
 
    0.12300E+08         0.13915E+06         0.00000E+00
    0.13915E+06         0.28457E+08         0.00000E+00
    0.00000E+00         0.00000E+00         0.12227E+08
 
    0.12278E+08         0.14316E+06         0.00000E+00
    0.14316E+06         0.28406E+08         0.00000E+00
    0.00000E+00         0.00000E+00         0.12205E+08
 
    0.12256E+08         0.14715E+06         0.00000E+00
    0.14715E+06         0.28353E+08         0.00000E+00
    0.00000E+00         0.00000E+00         0.12183E+08
 
    0.12234E+08         0.15112E+06         0.00000E+00
    0.15112E+06         0.28300E+08         0.00000E+00
    0.00000E+00         0.00000E+00         0.12160E+08
 
    0.12211E+08         0.15509E+06         0.00000E+00
    0.15509E+06         0.28245E+08         0.00000E+00
    0.00000E+00         0.00000E+00         0.12137E+08
 
    0.12188E+08         0.15905E+06         0.00000E+00
    0.15905E+06         0.28189E+08         0.00000E+00
    0.00000E+00         0.00000E+00         0.12113E+08
 
    0.12164E+08         0.16302E+06         0.00000E+00
    0.16302E+06         0.28132E+08         0.00000E+00
    0.00000E+00         0.00000E+00         0.12089E+08
 
    0.12140E+08         0.16701E+06         0.00000E+00
    0.16701E+06         0.28073E+08         0.00000E+00
    0.00000E+00         0.00000E+00         0.12064E+08
 
    0.12116E+08         0.17100E+06         0.00000E+00
    0.17100E+06         0.28013E+08         0.00000E+00
    0.00000E+00         0.00000E+00         0.12039E+08
 
    0.12091E+08         0.17501E+06         0.00000E+00
    0.17501E+06         0.27952E+08         0.00000E+00
    0.00000E+00         0.00000E+00         0.12013E+08
 
    0.12065E+08         0.17904E+06         0.00000E+00
    0.17904E+06         0.27889E+08         0.00000E+00
    0.00000E+00         0.00000E+00         0.11986E+08
 
    0.12039E+08         0.18309E+06         0.00000E+00
    0.18309E+06         0.27825E+08         0.00000E+00
    0.00000E+00         0.00000E+00         0.11959E+08
 
    0.12012E+08         0.18716E+06         0.00000E+00
    0.18716E+06         0.27759E+08         0.00000E+00
    0.00000E+00         0.00000E+00         0.11931E+08
 
    0.11984E+08         0.19125E+06         0.00000E+00
    0.19125E+06         0.27691E+08         0.00000E+00
    0.00000E+00         0.00000E+00         0.11903E+08
 
    0.11956E+08         0.19535E+06         0.00000E+00
    0.19535E+06         0.27623E+08         0.00000E+00
    0.00000E+00         0.00000E+00         0.11873E+08
 
    0.11927E+08         0.19948E+06         0.00000E+00
    0.19948E+06         0.27552E+08         0.00000E+00
    0.00000E+00         0.00000E+00         0.11844E+08
 
    0.11897E+08         0.20362E+06         0.00000E+00
    0.20362E+06         0.27480E+08         0.00000E+00
    0.00000E+00         0.00000E+00         0.11813E+08
 
    0.11866E+08         0.20778E+06         0.00000E+00
    0.20778E+06         0.27406E+08         0.00000E+00
    0.00000E+00         0.00000E+00         0.11781E+08
 
    0.11834E+08         0.21194E+06         0.00000E+00
    0.21194E+06         0.27330E+08         0.00000E+00
    0.00000E+00         0.00000E+00         0.11749E+08
 
    0.11802E+08         0.21612E+06         0.00000E+00
    0.21612E+06         0.27252E+08         0.00000E+00
    0.00000E+00         0.00000E+00         0.11716E+08
 
    0.11769E+08         0.22029E+06         0.00000E+00
    0.22029E+06         0.27173E+08         0.00000E+00
    0.00000E+00         0.00000E+00         0.11682E+08
 
    0.11734E+08         0.22446E+06         0.00000E+00
    0.22446E+06         0.27092E+08         0.00000E+00
    0.00000E+00         0.00000E+00         0.11648E+08
 
    0.11699E+08         0.22863E+06         0.00000E+00
    0.22863E+06         0.27009E+08         0.00000E+00
    0.00000E+00         0.00000E+00         0.11612E+08
 
    0.11663E+08         0.23278E+06         0.00000E+00
    0.23278E+06         0.26924E+08         0.00000E+00
    0.00000E+00         0.00000E+00         0.11576E+08
 
    0.11626E+08         0.23690E+06         0.00000E+00
    0.23690E+06         0.26837E+08         0.00000E+00
    0.00000E+00         0.00000E+00         0.11539E+08
 
    0.11587E+08         0.24100E+06         0.00000E+00
    0.24100E+06         0.26748E+08         0.00000E+00
    0.00000E+00         0.00000E+00         0.11501E+08
 
    0.11548E+08         0.24506E+06         0.00000E+00
    0.24506E+06         0.26657E+08         0.00000E+00
    0.00000E+00         0.00000E+00         0.11461E+08
 
    0.11508E+08         0.24908E+06         0.00000E+00
    0.24908E+06         0.26564E+08         0.00000E+00
    0.00000E+00         0.00000E+00         0.11421E+08
 
    0.11466E+08         0.25304E+06         0.00000E+00
    0.25304E+06         0.26468E+08         0.00000E+00
    0.00000E+00         0.00000E+00         0.11380E+08
 
    0.11423E+08         0.25693E+06         0.00000E+00
    0.25693E+06         0.26371E+08         0.00000E+00
    0.00000E+00         0.00000E+00         0.11338E+08
 
    0.11380E+08         0.26074E+06         0.00000E+00
    0.26074E+06         0.26272E+08         0.00000E+00
    0.00000E+00         0.00000E+00         0.11295E+08
 
    0.11334E+08         0.26446E+06         0.00000E+00
    0.26446E+06         0.26170E+08         0.00000E+00
    0.00000E+00         0.00000E+00         0.11251E+08
 
    0.11288E+08         0.26807E+06         0.00000E+00
    0.26807E+06         0.26067E+08         0.00000E+00
    0.00000E+00         0.00000E+00         0.11206E+08
 
    0.11240E+08         0.27156E+06         0.00000E+00
    0.27156E+06         0.25961E+08         0.00000E+00
    0.00000E+00         0.00000E+00         0.11160E+08
 
    0.11191E+08         0.27492E+06         0.00000E+00
    0.27492E+06         0.25853E+08         0.00000E+00
    0.00000E+00         0.00000E+00         0.11113E+08
 
    0.11141E+08         0.27813E+06         0.00000E+00
    0.27813E+06         0.25743E+08         0.00000E+00
    0.00000E+00         0.00000E+00         0.11065E+08
 
    0.11089E+08         0.28116E+06         0.00000E+00
    0.28116E+06         0.25630E+08         0.00000E+00
    0.00000E+00         0.00000E+00         0.11016E+08
 
    0.11036E+08         0.28400E+06         0.00000E+00
    0.28400E+06         0.25516E+08         0.00000E+00
    0.00000E+00         0.00000E+00         0.10966E+08
 
    0.10981E+08         0.28662E+06         0.00000E+00
    0.28662E+06         0.25399E+08         0.00000E+00
    0.00000E+00         0.00000E+00         0.10914E+08
 
    0.10925E+08         0.28901E+06         0.00000E+00
    0.28901E+06         0.25280E+08         0.00000E+00
    0.00000E+00         0.00000E+00         0.10861E+08
 
    0.10867E+08         0.29114E+06         0.00000E+00
    0.29114E+06         0.25158E+08         0.00000E+00
    0.00000E+00         0.00000E+00         0.10808E+08
 
    0.10808E+08         0.29298E+06         0.00000E+00
    0.29298E+06         0.25035E+08         0.00000E+00
    0.00000E+00         0.00000E+00         0.10753E+08
 
    0.10747E+08         0.29449E+06         0.00000E+00
    0.29449E+06         0.24909E+08         0.00000E+00
    0.00000E+00         0.00000E+00         0.10697E+08
 
    0.10685E+08         0.29566E+06         0.00000E+00
    0.29566E+06         0.24781E+08         0.00000E+00
    0.00000E+00         0.00000E+00         0.10640E+08
 
    0.10620E+08         0.29643E+06         0.00000E+00
    0.29643E+06         0.24651E+08         0.00000E+00
    0.00000E+00         0.00000E+00         0.10581E+08
 
    0.10554E+08         0.29678E+06         0.00000E+00
    0.29678E+06         0.24518E+08         0.00000E+00
    0.00000E+00         0.00000E+00         0.10522E+08
 
    0.10486E+08         0.29665E+06         0.00000E+00
    0.29665E+06         0.24384E+08         0.00000E+00
    0.00000E+00         0.00000E+00         0.10461E+08
 
    0.10416E+08         0.29599E+06         0.00000E+00
    0.29599E+06         0.24247E+08         0.00000E+00
    0.00000E+00         0.00000E+00         0.10399E+08
 
    0.10344E+08         0.29476E+06         0.00000E+00
    0.29476E+06         0.24108E+08         0.00000E+00
    0.00000E+00         0.00000E+00         0.10336E+08
 
    0.10270E+08         0.29290E+06         0.00000E+00
    0.29290E+06         0.23966E+08         0.00000E+00
    0.00000E+00         0.00000E+00         0.10271E+08
 
    0.10194E+08         0.29032E+06         0.00000E+00
    0.29032E+06         0.23823E+08         0.00000E+00
    0.00000E+00         0.00000E+00         0.10205E+08
 
    0.10116E+08         0.28696E+06         0.00000E+00
    0.28696E+06         0.23677E+08         0.00000E+00
    0.00000E+00         0.00000E+00         0.10138E+08
 
    0.10035E+08         0.28274E+06         0.00000E+00
    0.28274E+06         0.23530E+08         0.00000E+00
    0.00000E+00         0.00000E+00         0.10069E+08
 
    0.99521E+07         0.27755E+06         0.00000E+00
    0.27755E+06         0.23380E+08         0.00000E+00
    0.00000E+00         0.00000E+00         0.99996E+07
 
    0.98667E+07         0.27131E+06         0.00000E+00
    0.27131E+06         0.23228E+08         0.00000E+00
    0.00000E+00         0.00000E+00         0.99284E+07
 
    0.97789E+07         0.26388E+06         0.00000E+00
    0.26388E+06         0.23074E+08         0.00000E+00
    0.00000E+00         0.00000E+00         0.98558E+07
 
    0.96884E+07         0.25517E+06         0.00000E+00
    0.25517E+06         0.22918E+08         0.00000E+00
    0.00000E+00         0.00000E+00         0.97819E+07
 
    0.95953E+07         0.24503E+06         0.00000E+00
    0.24503E+06         0.22760E+08         0.00000E+00
    0.00000E+00         0.00000E+00         0.97065E+07
 
    0.94994E+07         0.23334E+06         0.00000E+00
    0.23334E+06         0.22600E+08         0.00000E+00
    0.00000E+00         0.00000E+00         0.96297E+07
 
    0.94008E+07         0.21998E+06         0.00000E+00
    0.21998E+06         0.22437E+08         0.00000E+00
    0.00000E+00         0.00000E+00         0.95515E+07
 
    0.92994E+07         0.20484E+06         0.00000E+00
    0.20484E+06         0.22274E+08         0.00000E+00
    0.00000E+00         0.00000E+00         0.94719E+07
 
    0.91951E+07         0.18783E+06         0.00000E+00
    0.18783E+06         0.22108E+08         0.00000E+00
    0.00000E+00         0.00000E+00         0.93910E+07
 
    0.90879E+07         0.16894E+06         0.00000E+00
    0.16894E+06         0.21942E+08         0.00000E+00
    0.00000E+00         0.00000E+00         0.93088E+07
 
    0.89778E+07         0.14819E+06         0.00000E+00
    0.14819E+06         0.21774E+08         0.00000E+00
    0.00000E+00         0.00000E+00         0.92255E+07
 
    0.88647E+07         0.12576E+06         0.00000E+00
    0.12576E+06         0.21606E+08         0.00000E+00
    0.00000E+00         0.00000E+00         0.91411E+07
 
    0.87487E+07         0.10196E+06         0.00000E+00
    0.10196E+06         0.21438E+08         0.00000E+00
    0.00000E+00         0.00000E+00         0.90559E+07
 
    0.86296E+07         0.77366E+05         0.00000E+00
    0.77366E+05         0.21271E+08         0.00000E+00
    0.00000E+00         0.00000E+00         0.89701E+07
 
    0.85073E+07         0.52861E+05         0.00000E+00
    0.52861E+05         0.21106E+08         0.00000E+00
    0.00000E+00         0.00000E+00         0.88841E+07
 
    0.83815E+07         0.29743E+05         0.00000E+00
    0.29743E+05         0.20946E+08         0.00000E+00
    0.00000E+00         0.00000E+00         0.87982E+07
 
    0.82520E+07         0.97764E+04         0.00000E+00
    0.97764E+04         0.20791E+08         0.00000E+00
    0.00000E+00         0.00000E+00         0.87129E+07
 
    0.81179E+07        -0.49314E+04         0.00000E+00
   -0.49314E+04         0.20645E+08         0.00000E+00
    0.00000E+00         0.00000E+00         0.86289E+07
 
    0.79780E+07        -0.12422E+05         0.00000E+00
   -0.12422E+05         0.20511E+08         0.00000E+00
    0.00000E+00         0.00000E+00         0.85469E+07
 
    0.78305E+07        -0.11892E+05         0.00000E+00
   -0.11892E+05         0.20394E+08         0.00000E+00
    0.00000E+00         0.00000E+00         0.84675E+07
 
    0.76733E+07        -0.48159E+04         0.00000E+00
   -0.48159E+04         0.20299E+08         0.00000E+00
    0.00000E+00         0.00000E+00         0.83916E+07
 
    0.12921E+08        -0.13743E+03         0.00000E+00
   -0.13743E+03         0.29500E+08         0.00000E+00
    0.00000E+00         0.00000E+00         0.12726E+08
 
    0.12887E+08         0.17946E+03         0.00000E+00
    0.17946E+03         0.29479E+08         0.00000E+00
    0.00000E+00         0.00000E+00         0.12710E+08
 
    0.12856E+08         0.20025E+04         0.00000E+00
    0.20025E+04         0.29453E+08         0.00000E+00
    0.00000E+00         0.00000E+00         0.12693E+08
 
    0.12826E+08         0.56533E+04         0.00000E+00
    0.56533E+04         0.29423E+08         0.00000E+00
    0.00000E+00         0.00000E+00         0.12675E+08
 
    0.12798E+08         0.10932E+05         0.00000E+00
    0.10932E+05         0.29391E+08         0.00000E+00
    0.00000E+00         0.00000E+00         0.12657E+08
 
    0.12770E+08         0.17391E+05         0.00000E+00
    0.17391E+05         0.29356E+08         0.00000E+00
    0.00000E+00         0.00000E+00         0.12638E+08
 
    0.12744E+08         0.24562E+05         0.00000E+00
    0.24562E+05         0.29320E+08         0.00000E+00
    0.00000E+00         0.00000E+00         0.12619E+08
 
    0.12718E+08         0.32060E+05         0.00000E+00
    0.32060E+05         0.29283E+08         0.00000E+00
    0.00000E+00         0.00000E+00         0.12600E+08
 
    0.12693E+08         0.39610E+05         0.00000E+00
    0.39610E+05         0.29245E+08         0.00000E+00
    0.00000E+00         0.00000E+00         0.12581E+08
 
    0.12669E+08         0.47024E+05         0.00000E+00
    0.47024E+05         0.29206E+08         0.00000E+00
    0.00000E+00         0.00000E+00         0.12562E+08
 
    0.12645E+08         0.54187E+05         0.00000E+00
    0.54187E+05         0.29166E+08         0.00000E+00
    0.00000E+00         0.00000E+00         0.12543E+08
 
    0.12622E+08         0.61036E+05         0.00000E+00
    0.61036E+05         0.29126E+08         0.00000E+00
    0.00000E+00         0.00000E+00         0.12525E+08
 
    0.12599E+08         0.67543E+05         0.00000E+00
    0.67543E+05         0.29086E+08         0.00000E+00
    0.00000E+00         0.00000E+00         0.12506E+08
 
    0.12577E+08         0.73704E+05         0.00000E+00
    0.73704E+05         0.29045E+08         0.00000E+00
    0.00000E+00         0.00000E+00         0.12487E+08
 
    0.12555E+08         0.79532E+05         0.00000E+00
    0.79532E+05         0.29004E+08         0.00000E+00
    0.00000E+00         0.00000E+00         0.12468E+08
 
    0.12533E+08         0.85050E+05         0.00000E+00
    0.85050E+05         0.28962E+08         0.00000E+00
    0.00000E+00         0.00000E+00         0.12449E+08
 
    0.12512E+08         0.90286E+05         0.00000E+00
    0.90286E+05         0.28919E+08         0.00000E+00
    0.00000E+00         0.00000E+00         0.12429E+08
 
    0.12491E+08         0.95270E+05         0.00000E+00
    0.95270E+05         0.28876E+08         0.00000E+00
    0.00000E+00         0.00000E+00         0.12410E+08
 
    0.12470E+08         0.10003E+06         0.00000E+00
    0.10003E+06         0.28833E+08         0.00000E+00
    0.00000E+00         0.00000E+00         0.12391E+08
 
    0.12449E+08         0.10461E+06         0.00000E+00
    0.10461E+06         0.28789E+08         0.00000E+00
    0.00000E+00         0.00000E+00         0.12371E+08
 
    0.12428E+08         0.10902E+06         0.00000E+00
    0.10902E+06         0.28744E+08         0.00000E+00
    0.00000E+00         0.00000E+00         0.12352E+08
 
    0.12407E+08         0.11329E+06         0.00000E+00
    0.11329E+06         0.28698E+08         0.00000E+00
    0.00000E+00         0.00000E+00         0.12332E+08
 
    0.12387E+08         0.11744E+06         0.00000E+00
    0.11744E+06         0.28651E+08         0.00000E+00
    0.00000E+00         0.00000E+00         0.12311E+08
 
    0.12366E+08         0.12151E+06         0.00000E+00
    0.12151E+06         0.28604E+08         0.00000E+00
    0.00000E+00         0.00000E+00         0.12291E+08
 
    0.12345E+08         0.12549E+06         0.00000E+00
    0.12549E+06         0.28556E+08         0.00000E+00
    0.00000E+00         0.00000E+00         0.12270E+08
 
    0.12324E+08         0.12942E+06         0.00000E+00
    0.12942E+06         0.28506E+08         0.00000E+00
    0.00000E+00         0.00000E+00         0.12249E+08
 
    0.12302E+08         0.13330E+06         0.00000E+00
    0.13330E+06         0.28456E+08         0.00000E+00
    0.00000E+00         0.00000E+00         0.12228E+08
 
    0.12281E+08         0.13715E+06         0.00000E+00
    0.13715E+06         0.28405E+08         0.00000E+00
    0.00000E+00         0.00000E+00         0.12206E+08
 
    0.12259E+08         0.14097E+06         0.00000E+00
    0.14097E+06         0.28352E+08         0.00000E+00
    0.00000E+00         0.00000E+00         0.12183E+08
 
    0.12237E+08         0.14478E+06         0.00000E+00
    0.14478E+06         0.28299E+08         0.00000E+00
    0.00000E+00         0.00000E+00         0.12161E+08
 
    0.12214E+08         0.14858E+06         0.00000E+00
    0.14858E+06         0.28244E+08         0.00000E+00
    0.00000E+00         0.00000E+00         0.12137E+08
 
    0.12191E+08         0.15238E+06         0.00000E+00
    0.15238E+06         0.28188E+08         0.00000E+00
    0.00000E+00         0.00000E+00         0.12114E+08
 
    0.12167E+08         0.15619E+06         0.00000E+00
    0.15619E+06         0.28131E+08         0.00000E+00
    0.00000E+00         0.00000E+00         0.12089E+08
 
    0.12143E+08         0.16000E+06         0.00000E+00
    0.16000E+06         0.28072E+08         0.00000E+00
    0.00000E+00         0.00000E+00         0.12065E+08
 
    0.12119E+08         0.16383E+06         0.00000E+00
    0.16383E+06         0.28012E+08         0.00000E+00
    0.00000E+00         0.00000E+00         0.12039E+08
 
    0.12094E+08         0.16767E+06         0.00000E+00
    0.16767E+06         0.27951E+08         0.00000E+00
    0.00000E+00         0.00000E+00         0.12013E+08
 
    0.12068E+08         0.17153E+06         0.00000E+00
    0.17153E+06         0.27888E+08         0.00000E+00
    0.00000E+00         0.00000E+00         0.11987E+08
 
    0.12042E+08         0.17540E+06         0.00000E+00
    0.17540E+06         0.27824E+08         0.00000E+00
    0.00000E+00         0.00000E+00         0.11960E+08
 
    0.12015E+08         0.17930E+06         0.00000E+00
    0.17930E+06         0.27758E+08         0.00000E+00
    0.00000E+00         0.00000E+00         0.11932E+08
 
    0.11987E+08         0.18321E+06         0.00000E+00
    0.18321E+06         0.27691E+08         0.00000E+00
    0.00000E+00         0.00000E+00         0.11903E+08
 
    0.11959E+08         0.18714E+06         0.00000E+00
    0.18714E+06         0.27622E+08         0.00000E+00
    0.00000E+00         0.00000E+00         0.11874E+08
 
    0.11930E+08         0.19109E+06         0.00000E+00
    0.19109E+06         0.27551E+08         0.00000E+00
    0.00000E+00         0.00000E+00         0.11844E+08
 
    0.11900E+08         0.19505E+06         0.00000E+00
    0.19505E+06         0.27479E+08         0.00000E+00
    0.00000E+00         0.00000E+00         0.11814E+08
 
    0.11869E+08         0.19903E+06         0.00000E+00
    0.19903E+06         0.27405E+08         0.00000E+00
    0.00000E+00         0.00000E+00         0.11782E+08
 
    0.11838E+08         0.20301E+06         0.00000E+00
    0.20301E+06         0.27329E+08         0.00000E+00
    0.00000E+00         0.00000E+00         0.11750E+08
 
    0.11805E+08         0.20700E+06         0.00000E+00
    0.20700E+06         0.27252E+08         0.00000E+00
    0.00000E+00         0.00000E+00         0.11717E+08
 
    0.11772E+08         0.21099E+06         0.00000E+00
    0.21099E+06         0.27172E+08         0.00000E+00
    0.00000E+00         0.00000E+00         0.11683E+08
 
    0.11738E+08         0.21498E+06         0.00000E+00
    0.21498E+06         0.27091E+08         0.00000E+00
    0.00000E+00         0.00000E+00         0.11649E+08
 
    0.11703E+08         0.21896E+06         0.00000E+00
    0.21896E+06         0.27008E+08         0.00000E+00
    0.00000E+00         0.00000E+00         0.11613E+08
 
    0.11667E+08         0.22292E+06         0.00000E+00
    0.22292E+06         0.26923E+08         0.00000E+00
    0.00000E+00         0.00000E+00         0.11577E+08
 
    0.11629E+08         0.22686E+06         0.00000E+00
    0.22686E+06         0.26836E+08         0.00000E+00
    0.00000E+00         0.00000E+00         0.11540E+08
 
    0.11591E+08         0.23078E+06         0.00000E+00
    0.23078E+06         0.26747E+08         0.00000E+00
    0.00000E+00         0.00000E+00         0.11501E+08
 
    0.11552E+08         0.23465E+06         0.00000E+00
    0.23465E+06         0.26656E+08         0.00000E+00
    0.00000E+00         0.00000E+00         0.11462E+08
 
    0.11511E+08         0.23849E+06         0.00000E+00
    0.23849E+06         0.26563E+08         0.00000E+00
    0.00000E+00         0.00000E+00         0.11422E+08
 
    0.11470E+08         0.24226E+06         0.00000E+00
    0.24226E+06         0.26468E+08         0.00000E+00
    0.00000E+00         0.00000E+00         0.11381E+08
 
    0.11427E+08         0.24597E+06         0.00000E+00
    0.24597E+06         0.26370E+08         0.00000E+00
    0.00000E+00         0.00000E+00         0.11339E+08
 
    0.11383E+08         0.24961E+06         0.00000E+00
    0.24961E+06         0.26271E+08         0.00000E+00
    0.00000E+00         0.00000E+00         0.11296E+08
 
    0.11338E+08         0.25315E+06         0.00000E+00
    0.25315E+06         0.26170E+08         0.00000E+00
    0.00000E+00         0.00000E+00         0.11252E+08
 
    0.11292E+08         0.25660E+06         0.00000E+00
    0.25660E+06         0.26066E+08         0.00000E+00
    0.00000E+00         0.00000E+00         0.11207E+08
 
    0.11244E+08         0.25992E+06         0.00000E+00
    0.25992E+06         0.25960E+08         0.00000E+00
    0.00000E+00         0.00000E+00         0.11161E+08
 
    0.11195E+08         0.26312E+06         0.00000E+00
    0.26312E+06         0.25852E+08         0.00000E+00
    0.00000E+00         0.00000E+00         0.11114E+08
 
    0.11144E+08         0.26617E+06         0.00000E+00
    0.26617E+06         0.25742E+08         0.00000E+00
    0.00000E+00         0.00000E+00         0.11066E+08
 
    0.11093E+08         0.26905E+06         0.00000E+00
    0.26905E+06         0.25630E+08         0.00000E+00
    0.00000E+00         0.00000E+00         0.11017E+08
 
    0.11039E+08         0.27175E+06         0.00000E+00
    0.27175E+06         0.25515E+08         0.00000E+00
    0.00000E+00         0.00000E+00         0.10966E+08
 
    0.10984E+08         0.27424E+06         0.00000E+00
    0.27424E+06         0.25398E+08         0.00000E+00
    0.00000E+00         0.00000E+00         0.10915E+08
 
    0.10928E+08         0.27650E+06         0.00000E+00
    0.27650E+06         0.25279E+08         0.00000E+00
    0.00000E+00         0.00000E+00         0.10862E+08
 
    0.10870E+08         0.27851E+06         0.00000E+00
    0.27851E+06         0.25158E+08         0.00000E+00
    0.00000E+00         0.00000E+00         0.10809E+08
 
    0.10811E+08         0.28024E+06         0.00000E+00
    0.28024E+06         0.25035E+08         0.00000E+00
    0.00000E+00         0.00000E+00         0.10754E+08
 
    0.10750E+08         0.28166E+06         0.00000E+00
    0.28166E+06         0.24909E+08         0.00000E+00
    0.00000E+00         0.00000E+00         0.10698E+08
 
    0.10687E+08         0.28274E+06         0.00000E+00
    0.28274E+06         0.24781E+08         0.00000E+00
    0.00000E+00         0.00000E+00         0.10640E+08
 
    0.10622E+08         0.28345E+06         0.00000E+00
    0.28345E+06         0.24651E+08         0.00000E+00
    0.00000E+00         0.00000E+00         0.10582E+08
 
    0.10556E+08         0.28374E+06         0.00000E+00
    0.28374E+06         0.24518E+08         0.00000E+00
    0.00000E+00         0.00000E+00         0.10522E+08
 
    0.10488E+08         0.28357E+06         0.00000E+00
    0.28357E+06         0.24384E+08         0.00000E+00
    0.00000E+00         0.00000E+00         0.10461E+08
 
    0.10417E+08         0.28290E+06         0.00000E+00
    0.28290E+06         0.24247E+08         0.00000E+00
    0.00000E+00         0.00000E+00         0.10399E+08
 
    0.10345E+08         0.28167E+06         0.00000E+00
    0.28167E+06         0.24108E+08         0.00000E+00
    0.00000E+00         0.00000E+00         0.10336E+08
 
    0.10271E+08         0.27983E+06         0.00000E+00
    0.27983E+06         0.23967E+08         0.00000E+00
    0.00000E+00         0.00000E+00         0.10271E+08
 
    0.10194E+08         0.27730E+06         0.00000E+00
    0.27730E+06         0.23824E+08         0.00000E+00
    0.00000E+00         0.00000E+00         0.10205E+08
 
    0.10116E+08         0.27401E+06         0.00000E+00
    0.27401E+06         0.23678E+08         0.00000E+00
    0.00000E+00         0.00000E+00         0.10138E+08
 
    0.10035E+08         0.26989E+06         0.00000E+00
    0.26989E+06         0.23531E+08         0.00000E+00
    0.00000E+00         0.00000E+00         0.10070E+08
 
    0.99511E+07         0.26482E+06         0.00000E+00
    0.26482E+06         0.23381E+08         0.00000E+00
    0.00000E+00         0.00000E+00         0.99997E+07
 
    0.98652E+07         0.25873E+06         0.00000E+00
    0.25873E+06         0.23229E+08         0.00000E+00
    0.00000E+00         0.00000E+00         0.99284E+07
 
    0.97767E+07         0.25148E+06         0.00000E+00
    0.25148E+06         0.23076E+08         0.00000E+00
    0.00000E+00         0.00000E+00         0.98557E+07
 
    0.96856E+07         0.24297E+06         0.00000E+00
    0.24297E+06         0.22920E+08         0.00000E+00
    0.00000E+00         0.00000E+00         0.97816E+07
 
    0.95917E+07         0.23306E+06         0.00000E+00
    0.23306E+06         0.22762E+08         0.00000E+00
    0.00000E+00         0.00000E+00         0.97061E+07
 
    0.94950E+07         0.22163E+06         0.00000E+00
    0.22163E+06         0.22602E+08         0.00000E+00
    0.00000E+00         0.00000E+00         0.96291E+07
 
    0.93954E+07         0.20856E+06         0.00000E+00
    0.20856E+06         0.22440E+08         0.00000E+00
    0.00000E+00         0.00000E+00         0.95507E+07
 
    0.92929E+07         0.19373E+06         0.00000E+00
    0.19373E+06         0.22277E+08         0.00000E+00
    0.00000E+00         0.00000E+00         0.94709E+07
 
    0.91873E+07         0.17706E+06         0.00000E+00
    0.17706E+06         0.22112E+08         0.00000E+00
    0.00000E+00         0.00000E+00         0.93897E+07
 
    0.90787E+07         0.15852E+06         0.00000E+00
    0.15852E+06         0.21945E+08         0.00000E+00
    0.00000E+00         0.00000E+00         0.93073E+07
 
    0.89670E+07         0.13816E+06         0.00000E+00
    0.13816E+06         0.21778E+08         0.00000E+00
    0.00000E+00         0.00000E+00         0.92235E+07
 
    0.88522E+07         0.11613E+06         0.00000E+00
    0.11613E+06         0.21610E+08         0.00000E+00
    0.00000E+00         0.00000E+00         0.91387E+07
 
    0.87342E+07         0.92771E+05         0.00000E+00
    0.92771E+05         0.21443E+08         0.00000E+00
    0.00000E+00         0.00000E+00         0.90530E+07
 
    0.86131E+07         0.68644E+05         0.00000E+00
    0.68644E+05         0.21276E+08         0.00000E+00
    0.00000E+00         0.00000E+00         0.89667E+07
 
    0.84886E+07         0.44651E+05         0.00000E+00
    0.44651E+05         0.21111E+08         0.00000E+00
    0.00000E+00         0.00000E+00         0.88799E+07
 
    0.83607E+07         0.22112E+05         0.00000E+00
    0.22112E+05         0.20950E+08         0.00000E+00
    0.00000E+00         0.00000E+00         0.87933E+07
 
    0.82292E+07         0.28313E+04         0.00000E+00
    0.28313E+04         0.20795E+08         0.00000E+00
    0.00000E+00         0.00000E+00         0.87071E+07
 
    0.80935E+07        -0.10999E+05         0.00000E+00
   -0.10999E+05         0.20647E+08         0.00000E+00
    0.00000E+00         0.00000E+00         0.86222E+07
 
    0.79525E+07        -0.17288E+05         0.00000E+00
   -0.17288E+05         0.20512E+08         0.00000E+00
    0.00000E+00         0.00000E+00         0.85394E+07
 
    0.78044E+07        -0.15109E+05         0.00000E+00
   -0.15109E+05         0.20393E+08         0.00000E+00
    0.00000E+00         0.00000E+00         0.84593E+07
 
    0.76470E+07        -0.59502E+04         0.00000E+00
   -0.59502E+04         0.20296E+08         0.00000E+00
    0.00000E+00         0.00000E+00         0.83830E+07
 
    0.12928E+08        -0.41827E+03         0.00000E+00
   -0.41827E+03         0.29500E+08         0.00000E+00
    0.00000E+00         0.00000E+00         0.12728E+08
 
    0.12894E+08        -0.61794E+03         0.00000E+00
   -0.61794E+03         0.29479E+08         0.00000E+00
    0.00000E+00         0.00000E+00         0.12712E+08
 
    0.12863E+08         0.79077E+03         0.00000E+00
    0.79077E+03         0.29452E+08         0.00000E+00
    0.00000E+00         0.00000E+00         0.12695E+08
 
    0.12833E+08         0.41258E+04         0.00000E+00
    0.41258E+04         0.29422E+08         0.00000E+00
    0.00000E+00         0.00000E+00         0.12677E+08
 
    0.12804E+08         0.91518E+04         0.00000E+00
    0.91518E+04         0.29390E+08         0.00000E+00
    0.00000E+00         0.00000E+00         0.12658E+08
 
    0.12776E+08         0.15388E+05         0.00000E+00
    0.15388E+05         0.29355E+08         0.00000E+00
    0.00000E+00         0.00000E+00         0.12639E+08
 
    0.12749E+08         0.22349E+05         0.00000E+00
    0.22349E+05         0.29319E+08         0.00000E+00
    0.00000E+00         0.00000E+00         0.12620E+08
 
    0.12723E+08         0.29644E+05         0.00000E+00
    0.29644E+05         0.29281E+08         0.00000E+00
    0.00000E+00         0.00000E+00         0.12601E+08
 
    0.12698E+08         0.36994E+05         0.00000E+00
    0.36994E+05         0.29243E+08         0.00000E+00
    0.00000E+00         0.00000E+00         0.12582E+08
 
    0.12673E+08         0.44211E+05         0.00000E+00
    0.44211E+05         0.29204E+08         0.00000E+00
    0.00000E+00         0.00000E+00         0.12563E+08
 
    0.12649E+08         0.51179E+05         0.00000E+00
    0.51179E+05         0.29165E+08         0.00000E+00
    0.00000E+00         0.00000E+00         0.12544E+08
 
    0.12626E+08         0.57834E+05         0.00000E+00
    0.57834E+05         0.29125E+08         0.00000E+00
    0.00000E+00         0.00000E+00         0.12525E+08
 
    0.12603E+08         0.64149E+05         0.00000E+00
    0.64149E+05         0.29085E+08         0.00000E+00
    0.00000E+00         0.00000E+00         0.12506E+08
 
    0.12580E+08         0.70121E+05         0.00000E+00
    0.70121E+05         0.29044E+08         0.00000E+00
    0.00000E+00         0.00000E+00         0.12487E+08
 
    0.12558E+08         0.75761E+05         0.00000E+00
    0.75761E+05         0.29003E+08         0.00000E+00
    0.00000E+00         0.00000E+00         0.12468E+08
 
    0.12536E+08         0.81094E+05         0.00000E+00
    0.81094E+05         0.28961E+08         0.00000E+00
    0.00000E+00         0.00000E+00         0.12449E+08
 
    0.12515E+08         0.86148E+05         0.00000E+00
    0.86148E+05         0.28918E+08         0.00000E+00
    0.00000E+00         0.00000E+00         0.12430E+08
 
    0.12494E+08         0.90952E+05         0.00000E+00
    0.90952E+05         0.28875E+08         0.00000E+00
    0.00000E+00         0.00000E+00         0.12411E+08
 
    0.12473E+08         0.95538E+05         0.00000E+00
    0.95538E+05         0.28832E+08         0.00000E+00
    0.00000E+00         0.00000E+00         0.12391E+08
 
    0.12452E+08         0.99935E+05         0.00000E+00
    0.99935E+05         0.28788E+08         0.00000E+00
    0.00000E+00         0.00000E+00         0.12372E+08
 
    0.12431E+08         0.10417E+06         0.00000E+00
    0.10417E+06         0.28743E+08         0.00000E+00
    0.00000E+00         0.00000E+00         0.12352E+08
 
    0.12410E+08         0.10827E+06         0.00000E+00
    0.10827E+06         0.28697E+08         0.00000E+00
    0.00000E+00         0.00000E+00         0.12332E+08
 
    0.12389E+08         0.11226E+06         0.00000E+00
    0.11226E+06         0.28651E+08         0.00000E+00
    0.00000E+00         0.00000E+00         0.12312E+08
 
    0.12369E+08         0.11615E+06         0.00000E+00
    0.11615E+06         0.28603E+08         0.00000E+00
    0.00000E+00         0.00000E+00         0.12292E+08
 
    0.12348E+08         0.11998E+06         0.00000E+00
    0.11998E+06         0.28555E+08         0.00000E+00
    0.00000E+00         0.00000E+00         0.12271E+08
 
    0.12327E+08         0.12374E+06         0.00000E+00
    0.12374E+06         0.28506E+08         0.00000E+00
    0.00000E+00         0.00000E+00         0.12250E+08
 
    0.12305E+08         0.12745E+06         0.00000E+00
    0.12745E+06         0.28455E+08         0.00000E+00
    0.00000E+00         0.00000E+00         0.12228E+08
 
    0.12284E+08         0.13114E+06         0.00000E+00
    0.13114E+06         0.28404E+08         0.00000E+00
    0.00000E+00         0.00000E+00         0.12206E+08
 
    0.12262E+08         0.13480E+06         0.00000E+00
    0.13480E+06         0.28352E+08         0.00000E+00
    0.00000E+00         0.00000E+00         0.12184E+08
 
    0.12240E+08         0.13844E+06         0.00000E+00
    0.13844E+06         0.28298E+08         0.00000E+00
    0.00000E+00         0.00000E+00         0.12161E+08
 
    0.12217E+08         0.14208E+06         0.00000E+00
    0.14208E+06         0.28243E+08         0.00000E+00
    0.00000E+00         0.00000E+00         0.12138E+08
 
    0.12194E+08         0.14571E+06         0.00000E+00
    0.14571E+06         0.28187E+08         0.00000E+00
    0.00000E+00         0.00000E+00         0.12114E+08
 
    0.12171E+08         0.14935E+06         0.00000E+00
    0.14935E+06         0.28130E+08         0.00000E+00
    0.00000E+00         0.00000E+00         0.12090E+08
 
    0.12147E+08         0.15299E+06         0.00000E+00
    0.15299E+06         0.28071E+08         0.00000E+00
    0.00000E+00         0.00000E+00         0.12065E+08
 
    0.12122E+08         0.15665E+06         0.00000E+00
    0.15665E+06         0.28011E+08         0.00000E+00
    0.00000E+00         0.00000E+00         0.12040E+08
 
    0.12097E+08         0.16032E+06         0.00000E+00
    0.16032E+06         0.27950E+08         0.00000E+00
    0.00000E+00         0.00000E+00         0.12014E+08
 
    0.12071E+08         0.16401E+06         0.00000E+00
    0.16401E+06         0.27887E+08         0.00000E+00
    0.00000E+00         0.00000E+00         0.11988E+08
 
    0.12045E+08         0.16771E+06         0.00000E+00
    0.16771E+06         0.27823E+08         0.00000E+00
    0.00000E+00         0.00000E+00         0.11960E+08
 
    0.12018E+08         0.17143E+06         0.00000E+00
    0.17143E+06         0.27757E+08         0.00000E+00
    0.00000E+00         0.00000E+00         0.11933E+08
 
    0.11991E+08         0.17517E+06         0.00000E+00
    0.17517E+06         0.27690E+08         0.00000E+00
    0.00000E+00         0.00000E+00         0.11904E+08
 
    0.11962E+08         0.17892E+06         0.00000E+00
    0.17892E+06         0.27621E+08         0.00000E+00
    0.00000E+00         0.00000E+00         0.11875E+08
 
    0.11933E+08         0.18269E+06         0.00000E+00
    0.18269E+06         0.27550E+08         0.00000E+00
    0.00000E+00         0.00000E+00         0.11845E+08
 
    0.11904E+08         0.18647E+06         0.00000E+00
    0.18647E+06         0.27478E+08         0.00000E+00
    0.00000E+00         0.00000E+00         0.11814E+08
 
    0.11873E+08         0.19027E+06         0.00000E+00
    0.19027E+06         0.27404E+08         0.00000E+00
    0.00000E+00         0.00000E+00         0.11783E+08
 
    0.11841E+08         0.19407E+06         0.00000E+00
    0.19407E+06         0.27328E+08         0.00000E+00
    0.00000E+00         0.00000E+00         0.11751E+08
 
    0.11809E+08         0.19788E+06         0.00000E+00
    0.19788E+06         0.27251E+08         0.00000E+00
    0.00000E+00         0.00000E+00         0.11718E+08
 
    0.11776E+08         0.20168E+06         0.00000E+00
    0.20168E+06         0.27171E+08         0.00000E+00
    0.00000E+00         0.00000E+00         0.11684E+08
 
    0.11742E+08         0.20549E+06         0.00000E+00
    0.20549E+06         0.27090E+08         0.00000E+00
    0.00000E+00         0.00000E+00         0.11650E+08
 
    0.11706E+08         0.20928E+06         0.00000E+00
    0.20928E+06         0.27007E+08         0.00000E+00
    0.00000E+00         0.00000E+00         0.11614E+08
 
    0.11670E+08         0.21306E+06         0.00000E+00
    0.21306E+06         0.26922E+08         0.00000E+00
    0.00000E+00         0.00000E+00         0.11578E+08
 
    0.11633E+08         0.21682E+06         0.00000E+00
    0.21682E+06         0.26835E+08         0.00000E+00
    0.00000E+00         0.00000E+00         0.11540E+08
 
    0.11595E+08         0.22055E+06         0.00000E+00
    0.22055E+06         0.26746E+08         0.00000E+00
    0.00000E+00         0.00000E+00         0.11502E+08
 
    0.11556E+08         0.22425E+06         0.00000E+00
    0.22425E+06         0.26655E+08         0.00000E+00
    0.00000E+00         0.00000E+00         0.11463E+08
 
    0.11515E+08         0.22790E+06         0.00000E+00
    0.22790E+06         0.26562E+08         0.00000E+00
    0.00000E+00         0.00000E+00         0.11423E+08
 
    0.11474E+08         0.23149E+06         0.00000E+00
    0.23149E+06         0.26467E+08         0.00000E+00
    0.00000E+00         0.00000E+00         0.11382E+08
 
    0.11431E+08         0.23503E+06         0.00000E+00
    0.23503E+06         0.26370E+08         0.00000E+00
    0.00000E+00         0.00000E+00         0.11340E+08
 
    0.11387E+08         0.23849E+06         0.00000E+00
    0.23849E+06         0.26270E+08         0.00000E+00
    0.00000E+00         0.00000E+00         0.11297E+08
 
    0.11342E+08         0.24186E+06         0.00000E+00
    0.24186E+06         0.26169E+08         0.00000E+00
    0.00000E+00         0.00000E+00         0.11253E+08
 
    0.11295E+08         0.24513E+06         0.00000E+00
    0.24513E+06         0.26065E+08         0.00000E+00
    0.00000E+00         0.00000E+00         0.11208E+08
 
    0.11247E+08         0.24830E+06         0.00000E+00
    0.24830E+06         0.25960E+08         0.00000E+00
    0.00000E+00         0.00000E+00         0.11162E+08
 
    0.11198E+08         0.25133E+06         0.00000E+00
    0.25133E+06         0.25852E+08         0.00000E+00
    0.00000E+00         0.00000E+00         0.11115E+08
 
    0.11148E+08         0.25423E+06         0.00000E+00
    0.25423E+06         0.25742E+08         0.00000E+00
    0.00000E+00         0.00000E+00         0.11067E+08
 
    0.11096E+08         0.25696E+06         0.00000E+00
    0.25696E+06         0.25629E+08         0.00000E+00
    0.00000E+00         0.00000E+00         0.11018E+08
 
    0.11042E+08         0.25951E+06         0.00000E+00
    0.25951E+06         0.25515E+08         0.00000E+00
    0.00000E+00         0.00000E+00         0.10967E+08
 
    0.10988E+08         0.26187E+06         0.00000E+00
    0.26187E+06         0.25398E+08         0.00000E+00
    0.00000E+00         0.00000E+00         0.10916E+08
 
    0.10931E+08         0.26401E+06         0.00000E+00
    0.26401E+06         0.25279E+08         0.00000E+00
    0.00000E+00         0.00000E+00         0.10863E+08
 
    0.10873E+08         0.26590E+06         0.00000E+00
    0.26590E+06         0.25158E+08         0.00000E+00
    0.00000E+00         0.00000E+00         0.10809E+08
 
    0.10814E+08         0.26753E+06         0.00000E+00
    0.26753E+06         0.25034E+08         0.00000E+00
    0.00000E+00         0.00000E+00         0.10754E+08
 
    0.10752E+08         0.26886E+06         0.00000E+00
    0.26886E+06         0.24909E+08         0.00000E+00
    0.00000E+00         0.00000E+00         0.10698E+08
 
    0.10689E+08         0.26986E+06         0.00000E+00
    0.26986E+06         0.24781E+08         0.00000E+00
    0.00000E+00         0.00000E+00         0.10641E+08
 
    0.10624E+08         0.27050E+06         0.00000E+00
    0.27050E+06         0.24651E+08         0.00000E+00
    0.00000E+00         0.00000E+00         0.10583E+08
 
    0.10558E+08         0.27075E+06         0.00000E+00
    0.27075E+06         0.24518E+08         0.00000E+00
    0.00000E+00         0.00000E+00         0.10523E+08
 
    0.10489E+08         0.27055E+06         0.00000E+00
    0.27055E+06         0.24384E+08         0.00000E+00
    0.00000E+00         0.00000E+00         0.10462E+08
 
    0.10419E+08         0.26987E+06         0.00000E+00
    0.26987E+06         0.24247E+08         0.00000E+00
    0.00000E+00         0.00000E+00         0.10400E+08
 
    0.10346E+08         0.26865E+06         0.00000E+00
    0.26865E+06         0.24108E+08         0.00000E+00
    0.00000E+00         0.00000E+00         0.10336E+08
 
    0.10272E+08         0.26683E+06         0.00000E+00
    0.26683E+06         0.23967E+08         0.00000E+00
    0.00000E+00         0.00000E+00         0.10272E+08
 
    0.10195E+08         0.26436E+06         0.00000E+00
    0.26436E+06         0.23824E+08         0.00000E+00
    0.00000E+00         0.00000E+00         0.10206E+08
 
    0.10116E+08         0.26115E+06         0.00000E+00
    0.26115E+06         0.23679E+08         0.00000E+00
    0.00000E+00         0.00000E+00         0.10138E+08
 
    0.10034E+08         0.25713E+06         0.00000E+00
    0.25713E+06         0.23532E+08         0.00000E+00
    0.00000E+00         0.00000E+00         0.10070E+08
 
    0.99503E+07         0.25220E+06         0.00000E+00
    0.25220E+06         0.23382E+08         0.00000E+00
    0.00000E+00         0.00000E+00         0.99997E+07
 
    0.98638E+07         0.24626E+06         0.00000E+00
    0.24626E+06         0.23231E+08         0.00000E+00
    0.00000E+00         0.00000E+00         0.99283E+07
 
    0.97747E+07         0.23920E+06         0.00000E+00
    0.23920E+06         0.23077E+08         0.00000E+00
    0.00000E+00         0.00000E+00         0.98555E+07
 
    0.96829E+07         0.23091E+06         0.00000E+00
    0.23091E+06         0.22921E+08         0.00000E+00
    0.00000E+00         0.00000E+00         0.97813E+07
 
    0.95883E+07         0.22125E+06         0.00000E+00
    0.22125E+06         0.22764E+08         0.00000E+00
    0.00000E+00         0.00000E+00         0.97057E+07
 
    0.94907E+07         0.21011E+06         0.00000E+00
    0.21011E+06         0.22604E+08         0.00000E+00
    0.00000E+00         0.00000E+00         0.96285E+07
 
    0.93902E+07         0.19734E+06         0.00000E+00
    0.19734E+06         0.22443E+08         0.00000E+00
    0.00000E+00         0.00000E+00         0.95500E+07
 
    0.92865E+07         0.18285E+06         0.00000E+00
    0.18285E+06         0.22280E+08         0.00000E+00
    0.00000E+00         0.00000E+00         0.94699E+07
 
    0.91797E+07         0.16655E+06         0.00000E+00
    0.16655E+06         0.22115E+08         0.00000E+00
    0.00000E+00         0.00000E+00         0.93885E+07
 
    0.90697E+07         0.14841E+06         0.00000E+00
    0.14841E+06         0.21949E+08         0.00000E+00
    0.00000E+00         0.00000E+00         0.93057E+07
 
    0.89564E+07         0.12846E+06         0.00000E+00
    0.12846E+06         0.21782E+08         0.00000E+00
    0.00000E+00         0.00000E+00         0.92216E+07
 
    0.88399E+07         0.10688E+06         0.00000E+00
    0.10688E+06         0.21615E+08         0.00000E+00
    0.00000E+00         0.00000E+00         0.91364E+07
 
    0.87200E+07         0.83983E+05         0.00000E+00
    0.83983E+05         0.21447E+08         0.00000E+00
    0.00000E+00         0.00000E+00         0.90502E+07
 
    0.85967E+07         0.60351E+05         0.00000E+00
    0.60351E+05         0.21281E+08         0.00000E+00
    0.00000E+00         0.00000E+00         0.89632E+07
 
    0.84700E+07         0.36881E+05         0.00000E+00
    0.36881E+05         0.21116E+08         0.00000E+00
    0.00000E+00         0.00000E+00         0.88758E+07
 
    0.83400E+07         0.14906E+05         0.00000E+00
    0.14906E+05         0.20954E+08         0.00000E+00
    0.00000E+00         0.00000E+00         0.87883E+07
 
    0.82064E+07        -0.37383E+04         0.00000E+00
   -0.37383E+04         0.20798E+08         0.00000E+00
    0.00000E+00         0.00000E+00         0.87013E+07
 
    0.80690E+07        -0.16780E+05         0.00000E+00
   -0.16780E+05         0.20649E+08         0.00000E+00
    0.00000E+00         0.00000E+00         0.86155E+07
 
    0.79268E+07        -0.21983E+05         0.00000E+00
   -0.21983E+05         0.20512E+08         0.00000E+00
    0.00000E+00         0.00000E+00         0.85317E+07
 
    0.77781E+07        -0.18254E+05         0.00000E+00
   -0.18254E+05         0.20392E+08         0.00000E+00
    0.00000E+00         0.00000E+00         0.84510E+07
 
    0.76204E+07        -0.70687E+04         0.00000E+00
   -0.70687E+04         0.20294E+08         0.00000E+00
    0.00000E+00         0.00000E+00         0.83743E+07
 
    0.12935E+08        -0.69692E+03         0.00000E+00
   -0.69692E+03         0.29500E+08         0.00000E+00
    0.00000E+00         0.00000E+00         0.12731E+08
 
    0.12901E+08        -0.14027E+04         0.00000E+00
   -0.14027E+04         0.29479E+08         0.00000E+00
    0.00000E+00         0.00000E+00         0.12714E+08
 
    0.12870E+08        -0.38725E+03         0.00000E+00
   -0.38725E+03         0.29452E+08         0.00000E+00
    0.00000E+00         0.00000E+00         0.12696E+08
 
    0.12839E+08         0.26562E+04         0.00000E+00
    0.26562E+04         0.29421E+08         0.00000E+00
    0.00000E+00         0.00000E+00         0.12678E+08
 
    0.12810E+08         0.74473E+04         0.00000E+00
    0.74473E+04         0.29388E+08         0.00000E+00
    0.00000E+00         0.00000E+00         0.12660E+08
 
    0.12782E+08         0.13470E+05         0.00000E+00
    0.13470E+05         0.29353E+08         0.00000E+00
    0.00000E+00         0.00000E+00         0.12641E+08
 
    0.12755E+08         0.20223E+05         0.00000E+00
    0.20223E+05         0.29317E+08         0.00000E+00
    0.00000E+00         0.00000E+00         0.12622E+08
 
    0.12728E+08         0.27310E+05         0.00000E+00
    0.27310E+05         0.29280E+08         0.00000E+00
    0.00000E+00         0.00000E+00         0.12602E+08
 
    0.12703E+08         0.34453E+05         0.00000E+00
    0.34453E+05         0.29242E+08         0.00000E+00
    0.00000E+00         0.00000E+00         0.12583E+08
 
    0.12678E+08         0.41463E+05         0.00000E+00
    0.41463E+05         0.29203E+08         0.00000E+00
    0.00000E+00         0.00000E+00         0.12564E+08
 
    0.12653E+08         0.48227E+05         0.00000E+00
    0.48227E+05         0.29164E+08         0.00000E+00
    0.00000E+00         0.00000E+00         0.12545E+08
 
    0.12629E+08         0.54681E+05         0.00000E+00
    0.54681E+05         0.29124E+08         0.00000E+00
    0.00000E+00         0.00000E+00         0.12526E+08
 
    0.12606E+08         0.60796E+05         0.00000E+00
    0.60796E+05         0.29084E+08         0.00000E+00
    0.00000E+00         0.00000E+00         0.12507E+08
 
    0.12583E+08         0.66571E+05         0.00000E+00
    0.66571E+05         0.29043E+08         0.00000E+00
    0.00000E+00         0.00000E+00         0.12488E+08
 
    0.12561E+08         0.72018E+05         0.00000E+00
    0.72018E+05         0.29002E+08         0.00000E+00
    0.00000E+00         0.00000E+00         0.12469E+08
 
    0.12539E+08         0.77161E+05         0.00000E+00
    0.77161E+05         0.28960E+08         0.00000E+00
    0.00000E+00         0.00000E+00         0.12450E+08
 
    0.12518E+08         0.82027E+05         0.00000E+00
    0.82027E+05         0.28917E+08         0.00000E+00
    0.00000E+00         0.00000E+00         0.12431E+08
 
    0.12496E+08         0.86647E+05         0.00000E+00
    0.86647E+05         0.28875E+08         0.00000E+00
    0.00000E+00         0.00000E+00         0.12411E+08
 
    0.12475E+08         0.91052E+05         0.00000E+00
    0.91052E+05         0.28831E+08         0.00000E+00
    0.00000E+00         0.00000E+00         0.12392E+08
 
    0.12455E+08         0.95271E+05         0.00000E+00
    0.95271E+05         0.28787E+08         0.00000E+00
    0.00000E+00         0.00000E+00         0.12372E+08
 
    0.12434E+08         0.99332E+05         0.00000E+00
    0.99332E+05         0.28742E+08         0.00000E+00
    0.00000E+00         0.00000E+00         0.12353E+08
 
    0.12413E+08         0.10326E+06         0.00000E+00
    0.10326E+06         0.28696E+08         0.00000E+00
    0.00000E+00         0.00000E+00         0.12333E+08
 
    0.12392E+08         0.10708E+06         0.00000E+00
    0.10708E+06         0.28650E+08         0.00000E+00
    0.00000E+00         0.00000E+00         0.12313E+08
 
    0.12371E+08         0.11080E+06         0.00000E+00
    0.11080E+06         0.28602E+08         0.00000E+00
    0.00000E+00         0.00000E+00         0.12292E+08
 
    0.12350E+08         0.11445E+06         0.00000E+00
    0.11445E+06         0.28554E+08         0.00000E+00
    0.00000E+00         0.00000E+00         0.12271E+08
 
    0.12329E+08         0.11805E+06         0.00000E+00
    0.11805E+06         0.28505E+08         0.00000E+00
    0.00000E+00         0.00000E+00         0.12250E+08
 
    0.12308E+08         0.12160E+06         0.00000E+00
    0.12160E+06         0.28455E+08         0.00000E+00
    0.00000E+00         0.00000E+00         0.12229E+08
 
    0.12286E+08         0.12512E+06         0.00000E+00
    0.12512E+06         0.28403E+08         0.00000E+00
    0.00000E+00         0.00000E+00         0.12207E+08
 
    0.12265E+08         0.12861E+06         0.00000E+00
    0.12861E+06         0.28351E+08         0.00000E+00
    0.00000E+00         0.00000E+00         0.12185E+08
 
    0.12242E+08         0.13209E+06         0.00000E+00
    0.13209E+06         0.28297E+08         0.00000E+00
    0.00000E+00         0.00000E+00         0.12162E+08
 
    0.12220E+08         0.13556E+06         0.00000E+00
    0.13556E+06         0.28243E+08         0.00000E+00
    0.00000E+00         0.00000E+00         0.12139E+08
 
    0.12197E+08         0.13903E+06         0.00000E+00
    0.13903E+06         0.28187E+08         0.00000E+00
    0.00000E+00         0.00000E+00         0.12115E+08
 
    0.12173E+08         0.14250E+06         0.00000E+00
    0.14250E+06         0.28129E+08         0.00000E+00
    0.00000E+00         0.00000E+00         0.12091E+08
 
    0.12150E+08         0.14598E+06         0.00000E+00
    0.14598E+06         0.28071E+08         0.00000E+00
    0.00000E+00         0.00000E+00         0.12066E+08
 
    0.12125E+08         0.14946E+06         0.00000E+00
    0.14946E+06         0.28011E+08         0.00000E+00
    0.00000E+00         0.00000E+00         0.12041E+08
 
    0.12100E+08         0.15296E+06         0.00000E+00
    0.15296E+06         0.27949E+08         0.00000E+00
    0.00000E+00         0.00000E+00         0.12015E+08
 
    0.12075E+08         0.15648E+06         0.00000E+00
    0.15648E+06         0.27887E+08         0.00000E+00
    0.00000E+00         0.00000E+00         0.11988E+08
 
    0.12048E+08         0.16001E+06         0.00000E+00
    0.16001E+06         0.27822E+08         0.00000E+00
    0.00000E+00         0.00000E+00         0.11961E+08
 
    0.12022E+08         0.16355E+06         0.00000E+00
    0.16355E+06         0.27757E+08         0.00000E+00
    0.00000E+00         0.00000E+00         0.11933E+08
 
    0.11994E+08         0.16712E+06         0.00000E+00
    0.16712E+06         0.27689E+08         0.00000E+00
    0.00000E+00         0.00000E+00         0.11905E+08
 
    0.11966E+08         0.17069E+06         0.00000E+00
    0.17069E+06         0.27620E+08         0.00000E+00
    0.00000E+00         0.00000E+00         0.11876E+08
 
    0.11937E+08         0.17428E+06         0.00000E+00
    0.17428E+06         0.27550E+08         0.00000E+00
    0.00000E+00         0.00000E+00         0.11846E+08
 
    0.11907E+08         0.17789E+06         0.00000E+00
    0.17789E+06         0.27477E+08         0.00000E+00
    0.00000E+00         0.00000E+00         0.11815E+08
 
    0.11876E+08         0.18150E+06         0.00000E+00
    0.18150E+06         0.27403E+08         0.00000E+00
    0.00000E+00         0.00000E+00         0.11784E+08
 
    0.11845E+08         0.18512E+06         0.00000E+00
    0.18512E+06         0.27328E+08         0.00000E+00
    0.00000E+00         0.00000E+00         0.11752E+08
 
    0.11813E+08         0.18875E+06         0.00000E+00
    0.18875E+06         0.27250E+08         0.00000E+00
    0.00000E+00         0.00000E+00         0.11719E+08
 
    0.11779E+08         0.19237E+06         0.00000E+00
    0.19237E+06         0.27171E+08         0.00000E+00
    0.00000E+00         0.00000E+00         0.11685E+08
 
    0.11745E+08         0.19599E+06         0.00000E+00
    0.19599E+06         0.27089E+08         0.00000E+00
    0.00000E+00         0.00000E+00         0.11650E+08
 
    0.11710E+08         0.19960E+06         0.00000E+00
    0.19960E+06         0.27006E+08         0.00000E+00
    0.00000E+00         0.00000E+00         0.11615E+08
 
    0.11674E+08         0.20320E+06         0.00000E+00
    0.20320E+06         0.26921E+08         0.00000E+00
    0.00000E+00         0.00000E+00         0.11579E+08
 
    0.11637E+08         0.20677E+06         0.00000E+00
    0.20677E+06         0.26834E+08         0.00000E+00
    0.00000E+00         0.00000E+00         0.11541E+08
 
    0.11598E+08         0.21032E+06         0.00000E+00
    0.21032E+06         0.26745E+08         0.00000E+00
    0.00000E+00         0.00000E+00         0.11503E+08
 
    0.11559E+08         0.21384E+06         0.00000E+00
    0.21384E+06         0.26654E+08         0.00000E+00
    0.00000E+00         0.00000E+00         0.11464E+08
 
    0.11519E+08         0.21731E+06         0.00000E+00
    0.21731E+06         0.26561E+08         0.00000E+00
    0.00000E+00         0.00000E+00         0.11424E+08
 
    0.11477E+08         0.22073E+06         0.00000E+00
    0.22073E+06         0.26466E+08         0.00000E+00
    0.00000E+00         0.00000E+00         0.11383E+08
 
    0.11434E+08         0.22408E+06         0.00000E+00
    0.22408E+06         0.26369E+08         0.00000E+00
    0.00000E+00         0.00000E+00         0.11341E+08
 
    0.11390E+08         0.22737E+06         0.00000E+00
    0.22737E+06         0.26270E+08         0.00000E+00
    0.00000E+00         0.00000E+00         0.11298E+08
 
    0.11345E+08         0.23057E+06         0.00000E+00
    0.23057E+06         0.26168E+08         0.00000E+00
    0.00000E+00         0.00000E+00         0.11254E+08
 
    0.11299E+08         0.23368E+06         0.00000E+00
    0.23368E+06         0.26065E+08         0.00000E+00
    0.00000E+00         0.00000E+00         0.11209E+08
 
    0.11251E+08         0.23668E+06         0.00000E+00
    0.23668E+06         0.25959E+08         0.00000E+00
    0.00000E+00         0.00000E+00         0.11163E+08
 
    0.11202E+08         0.23956E+06         0.00000E+00
    0.23956E+06         0.25851E+08         0.00000E+00
    0.00000E+00         0.00000E+00         0.11116E+08
 
    0.11151E+08         0.24230E+06         0.00000E+00
    0.24230E+06         0.25741E+08         0.00000E+00
    0.00000E+00         0.00000E+00         0.11068E+08
 
    0.11099E+08         0.24489E+06         0.00000E+00
    0.24489E+06         0.25629E+08         0.00000E+00
    0.00000E+00         0.00000E+00         0.11018E+08
 
    0.11046E+08         0.24730E+06         0.00000E+00
    0.24730E+06         0.25514E+08         0.00000E+00
    0.00000E+00         0.00000E+00         0.10968E+08
 
    0.10991E+08         0.24953E+06         0.00000E+00
    0.24953E+06         0.25397E+08         0.00000E+00
    0.00000E+00         0.00000E+00         0.10916E+08
 
    0.10934E+08         0.25154E+06         0.00000E+00
    0.25154E+06         0.25278E+08         0.00000E+00
    0.00000E+00         0.00000E+00         0.10864E+08
 
    0.10876E+08         0.25333E+06         0.00000E+00
    0.25333E+06         0.25157E+08         0.00000E+00
    0.00000E+00         0.00000E+00         0.10810E+08
 
    0.10816E+08         0.25485E+06         0.00000E+00
    0.25485E+06         0.25034E+08         0.00000E+00
    0.00000E+00         0.00000E+00         0.10755E+08
 
    0.10755E+08         0.25609E+06         0.00000E+00
    0.25609E+06         0.24908E+08         0.00000E+00
    0.00000E+00         0.00000E+00         0.10699E+08
 
    0.10692E+08         0.25702E+06         0.00000E+00
    0.25702E+06         0.24780E+08         0.00000E+00
    0.00000E+00         0.00000E+00         0.10642E+08
 
    0.10627E+08         0.25760E+06         0.00000E+00
    0.25760E+06         0.24650E+08         0.00000E+00
    0.00000E+00         0.00000E+00         0.10583E+08
 
    0.10560E+08         0.25780E+06         0.00000E+00
    0.25780E+06         0.24518E+08         0.00000E+00
    0.00000E+00         0.00000E+00         0.10523E+08
 
    0.10491E+08         0.25758E+06         0.00000E+00
    0.25758E+06         0.24384E+08         0.00000E+00
    0.00000E+00         0.00000E+00         0.10462E+08
 
    0.10420E+08         0.25689E+06         0.00000E+00
    0.25689E+06         0.24247E+08         0.00000E+00
    0.00000E+00         0.00000E+00         0.10400E+08
 
    0.10347E+08         0.25568E+06         0.00000E+00
    0.25568E+06         0.24109E+08         0.00000E+00
    0.00000E+00         0.00000E+00         0.10337E+08
 
    0.10272E+08         0.25390E+06         0.00000E+00
    0.25390E+06         0.23968E+08         0.00000E+00
    0.00000E+00         0.00000E+00         0.10272E+08
 
    0.10195E+08         0.25149E+06         0.00000E+00
    0.25149E+06         0.23825E+08         0.00000E+00
    0.00000E+00         0.00000E+00         0.10206E+08
 
    0.10116E+08         0.24837E+06         0.00000E+00
    0.24837E+06         0.23680E+08         0.00000E+00
    0.00000E+00         0.00000E+00         0.10139E+08
 
    0.10034E+08         0.24446E+06         0.00000E+00
    0.24446E+06         0.23532E+08         0.00000E+00
    0.00000E+00         0.00000E+00         0.10070E+08
 
    0.99495E+07         0.23967E+06         0.00000E+00
    0.23967E+06         0.23383E+08         0.00000E+00
    0.00000E+00         0.00000E+00         0.99998E+07
 
    0.98626E+07         0.23390E+06         0.00000E+00
    0.23390E+06         0.23232E+08         0.00000E+00
    0.00000E+00         0.00000E+00         0.99283E+07
 
    0.97729E+07         0.22705E+06         0.00000E+00
    0.22705E+06         0.23079E+08         0.00000E+00
    0.00000E+00         0.00000E+00         0.98554E+07
 
    0.96804E+07         0.21900E+06         0.00000E+00
    0.21900E+06         0.22923E+08         0.00000E+00
    0.00000E+00         0.00000E+00         0.97811E+07
 
    0.95850E+07         0.20961E+06         0.00000E+00
    0.20961E+06         0.22766E+08         0.00000E+00
    0.00000E+00         0.00000E+00         0.97053E+07
 
    0.94866E+07         0.19876E+06         0.00000E+00
    0.19876E+06         0.22607E+08         0.00000E+00
    0.00000E+00         0.00000E+00         0.96280E+07
 
    0.93851E+07         0.18634E+06         0.00000E+00
    0.18634E+06         0.22446E+08         0.00000E+00
    0.00000E+00         0.00000E+00         0.95492E+07
 
    0.92804E+07         0.17221E+06         0.00000E+00
    0.17221E+06         0.22283E+08         0.00000E+00
    0.00000E+00         0.00000E+00         0.94690E+07
 
    0.91723E+07         0.15631E+06         0.00000E+00
    0.15631E+06         0.22119E+08         0.00000E+00
    0.00000E+00         0.00000E+00         0.93873E+07
 
    0.90609E+07         0.13859E+06         0.00000E+00
    0.13859E+06         0.21953E+08         0.00000E+00
    0.00000E+00         0.00000E+00         0.93042E+07
 
    0.89461E+07         0.11910E+06         0.00000E+00
    0.11910E+06         0.21786E+08         0.00000E+00
    0.00000E+00         0.00000E+00         0.92198E+07
 
    0.88277E+07         0.97996E+05         0.00000E+00
    0.97996E+05         0.21619E+08         0.00000E+00
    0.00000E+00         0.00000E+00         0.91341E+07
 
    0.87058E+07         0.75604E+05         0.00000E+00
    0.75604E+05         0.21452E+08         0.00000E+00
    0.00000E+00         0.00000E+00         0.90473E+07
 
    0.85804E+07         0.52493E+05         0.00000E+00
    0.52493E+05         0.21285E+08         0.00000E+00
    0.00000E+00         0.00000E+00         0.89597E+07
 
    0.84515E+07         0.29560E+05         0.00000E+00
    0.29560E+05         0.21120E+08         0.00000E+00
    0.00000E+00         0.00000E+00         0.88716E+07
 
    0.83192E+07         0.81375E+04         0.00000E+00
    0.81375E+04         0.20958E+08         0.00000E+00
    0.00000E+00         0.00000E+00         0.87833E+07
 
    0.81835E+07        -0.99190E+04         0.00000E+00
   -0.99190E+04         0.20801E+08         0.00000E+00
    0.00000E+00         0.00000E+00         0.86954E+07
 
    0.80444E+07        -0.22265E+05         0.00000E+00
   -0.22265E+05         0.20651E+08         0.00000E+00
    0.00000E+00         0.00000E+00         0.86086E+07
 
    0.79009E+07        -0.26501E+05         0.00000E+00
   -0.26501E+05         0.20512E+08         0.00000E+00
    0.00000E+00         0.00000E+00         0.85240E+07
 
    0.77515E+07        -0.21327E+05         0.00000E+00
   -0.21327E+05         0.20390E+08         0.00000E+00
    0.00000E+00         0.00000E+00         0.84425E+07
 
    0.75937E+07        -0.81725E+04         0.00000E+00
   -0.81725E+04         0.20291E+08         0.00000E+00
    0.00000E+00         0.00000E+00         0.83654E+07
 
    0.12942E+08        -0.97363E+03         0.00000E+00
   -0.97363E+03         0.29501E+08         0.00000E+00
    0.00000E+00         0.00000E+00         0.12733E+08
 
    0.12908E+08        -0.21744E+04         0.00000E+00
   -0.21744E+04         0.29479E+08         0.00000E+00
    0.00000E+00         0.00000E+00         0.12716E+08
 
    0.12876E+08        -0.15296E+04         0.00000E+00
   -0.15296E+04         0.29452E+08         0.00000E+00
    0.00000E+00         0.00000E+00         0.12698E+08
 
    0.12846E+08         0.12477E+04         0.00000E+00
    0.12477E+04         0.29421E+08         0.00000E+00
    0.00000E+00         0.00000E+00         0.12680E+08
 
    0.12817E+08         0.58223E+04         0.00000E+00
    0.58223E+04         0.29387E+08         0.00000E+00
    0.00000E+00         0.00000E+00         0.12661E+08
 
    0.12788E+08         0.11640E+05         0.00000E+00
    0.11640E+05         0.29352E+08         0.00000E+00
    0.00000E+00         0.00000E+00         0.12642E+08
 
    0.12760E+08         0.18184E+05         0.00000E+00
    0.18184E+05         0.29316E+08         0.00000E+00
    0.00000E+00         0.00000E+00         0.12623E+08
 
    0.12733E+08         0.25060E+05         0.00000E+00
    0.25060E+05         0.29279E+08         0.00000E+00
    0.00000E+00         0.00000E+00         0.12604E+08
 
    0.12707E+08         0.31987E+05         0.00000E+00
    0.31987E+05         0.29240E+08         0.00000E+00
    0.00000E+00         0.00000E+00         0.12584E+08
 
    0.12682E+08         0.38783E+05         0.00000E+00
    0.38783E+05         0.29202E+08         0.00000E+00
    0.00000E+00         0.00000E+00         0.12565E+08
 
    0.12657E+08         0.45334E+05         0.00000E+00
    0.45334E+05         0.29162E+08         0.00000E+00
    0.00000E+00         0.00000E+00         0.12546E+08
 
    0.12633E+08         0.51576E+05         0.00000E+00
    0.51576E+05         0.29123E+08         0.00000E+00
    0.00000E+00         0.00000E+00         0.12527E+08
 
    0.12610E+08         0.57484E+05         0.00000E+00
    0.57484E+05         0.29082E+08         0.00000E+00
    0.00000E+00         0.00000E+00         0.12508E+08
 
    0.12587E+08         0.63055E+05         0.00000E+00
    0.63055E+05         0.29042E+08         0.00000E+00
    0.00000E+00         0.00000E+00         0.12489E+08
 
    0.12564E+08         0.68302E+05         0.00000E+00
    0.68302E+05         0.29000E+08         0.00000E+00
    0.00000E+00         0.00000E+00         0.12469E+08
 
    0.12542E+08         0.73249E+05         0.00000E+00
    0.73249E+05         0.28959E+08         0.00000E+00
    0.00000E+00         0.00000E+00         0.12450E+08
 
    0.12521E+08         0.77922E+05         0.00000E+00
    0.77922E+05         0.28917E+08         0.00000E+00
    0.00000E+00         0.00000E+00         0.12431E+08
 
    0.12499E+08         0.82354E+05         0.00000E+00
    0.82354E+05         0.28874E+08         0.00000E+00
    0.00000E+00         0.00000E+00         0.12412E+08
 
    0.12478E+08         0.86575E+05         0.00000E+00
    0.86575E+05         0.28830E+08         0.00000E+00
    0.00000E+00         0.00000E+00         0.12393E+08
 
    0.12457E+08         0.90612E+05         0.00000E+00
    0.90612E+05         0.28786E+08         0.00000E+00
    0.00000E+00         0.00000E+00         0.12373E+08
 
    0.12436E+08         0.94495E+05         0.00000E+00
    0.94495E+05         0.28741E+08         0.00000E+00
    0.00000E+00         0.00000E+00         0.12353E+08
 
    0.12416E+08         0.98247E+05         0.00000E+00
    0.98247E+05         0.28696E+08         0.00000E+00
    0.00000E+00         0.00000E+00         0.12333E+08
 
    0.12395E+08         0.10189E+06         0.00000E+00
    0.10189E+06         0.28649E+08         0.00000E+00
    0.00000E+00         0.00000E+00         0.12313E+08
 
    0.12374E+08         0.10545E+06         0.00000E+00
    0.10545E+06         0.28602E+08         0.00000E+00
    0.00000E+00         0.00000E+00         0.12293E+08
 
    0.12353E+08         0.10893E+06         0.00000E+00
    0.10893E+06         0.28553E+08         0.00000E+00
    0.00000E+00         0.00000E+00         0.12272E+08
 
    0.12332E+08         0.11236E+06         0.00000E+00
    0.11236E+06         0.28504E+08         0.00000E+00
    0.00000E+00         0.00000E+00         0.12251E+08
 
    0.12311E+08         0.11574E+06         0.00000E+00
    0.11574E+06         0.28454E+08         0.00000E+00
    0.00000E+00         0.00000E+00         0.12229E+08
 
    0.12289E+08         0.11909E+06         0.00000E+00
    0.11909E+06         0.28403E+08         0.00000E+00
    0.00000E+00         0.00000E+00         0.12208E+08
 
    0.12267E+08         0.12242E+06         0.00000E+00
    0.12242E+06         0.28350E+08         0.00000E+00
    0.00000E+00         0.00000E+00         0.12185E+08
 
    0.12245E+08         0.12573E+06         0.00000E+00
    0.12573E+06         0.28297E+08         0.00000E+00
    0.00000E+00         0.00000E+00         0.12163E+08
 
    0.12223E+08         0.12904E+06         0.00000E+00
    0.12904E+06         0.28242E+08         0.00000E+00
    0.00000E+00         0.00000E+00         0.12139E+08
 
    0.12200E+08         0.13234E+06         0.00000E+00
    0.13234E+06         0.28186E+08         0.00000E+00
    0.00000E+00         0.00000E+00         0.12116E+08
 
    0.12176E+08         0.13564E+06         0.00000E+00
    0.13564E+06         0.28129E+08         0.00000E+00
    0.00000E+00         0.00000E+00         0.12092E+08
 
    0.12153E+08         0.13895E+06         0.00000E+00
    0.13895E+06         0.28070E+08         0.00000E+00
    0.00000E+00         0.00000E+00         0.12067E+08
 
    0.12128E+08         0.14227E+06         0.00000E+00
    0.14227E+06         0.28010E+08         0.00000E+00
    0.00000E+00         0.00000E+00         0.12041E+08
 
    0.12103E+08         0.14560E+06         0.00000E+00
    0.14560E+06         0.27949E+08         0.00000E+00
    0.00000E+00         0.00000E+00         0.12016E+08
 
    0.12078E+08         0.14894E+06         0.00000E+00
    0.14894E+06         0.27886E+08         0.00000E+00
    0.00000E+00         0.00000E+00         0.11989E+08
 
    0.12052E+08         0.15230E+06         0.00000E+00
    0.15230E+06         0.27822E+08         0.00000E+00
    0.00000E+00         0.00000E+00         0.11962E+08
 
    0.12025E+08         0.15567E+06         0.00000E+00
    0.15567E+06         0.27756E+08         0.00000E+00
    0.00000E+00         0.00000E+00         0.11934E+08
 
    0.11997E+08         0.15906E+06         0.00000E+00
    0.15906E+06         0.27688E+08         0.00000E+00
    0.00000E+00         0.00000E+00         0.11906E+08
 
    0.11969E+08         0.16246E+06         0.00000E+00
    0.16246E+06         0.27620E+08         0.00000E+00
    0.00000E+00         0.00000E+00         0.11877E+08
 
    0.11940E+08         0.16587E+06         0.00000E+00
    0.16587E+06         0.27549E+08         0.00000E+00
    0.00000E+00         0.00000E+00         0.11847E+08
 
    0.11910E+08         0.16929E+06         0.00000E+00
    0.16929E+06         0.27477E+08         0.00000E+00
    0.00000E+00         0.00000E+00         0.11816E+08
 
    0.11880E+08         0.17273E+06         0.00000E+00
    0.17273E+06         0.27403E+08         0.00000E+00
    0.00000E+00         0.00000E+00         0.11785E+08
 
    0.11848E+08         0.17617E+06         0.00000E+00
    0.17617E+06         0.27327E+08         0.00000E+00
    0.00000E+00         0.00000E+00         0.11753E+08
 
    0.11816E+08         0.17961E+06         0.00000E+00
    0.17961E+06         0.27249E+08         0.00000E+00
    0.00000E+00         0.00000E+00         0.11720E+08
 
    0.11783E+08         0.18305E+06         0.00000E+00
    0.18305E+06         0.27170E+08         0.00000E+00
    0.00000E+00         0.00000E+00         0.11686E+08
 
    0.11749E+08         0.18649E+06         0.00000E+00
    0.18649E+06         0.27089E+08         0.00000E+00
    0.00000E+00         0.00000E+00         0.11651E+08
 
    0.11714E+08         0.18992E+06         0.00000E+00
    0.18992E+06         0.27006E+08         0.00000E+00
    0.00000E+00         0.00000E+00         0.11616E+08
 
    0.11677E+08         0.19333E+06         0.00000E+00
    0.19333E+06         0.26921E+08         0.00000E+00
    0.00000E+00         0.00000E+00         0.11579E+08
 
    0.11640E+08         0.19673E+06         0.00000E+00
    0.19673E+06         0.26834E+08         0.00000E+00
    0.00000E+00         0.00000E+00         0.11542E+08
 
    0.11602E+08         0.20009E+06         0.00000E+00
    0.20009E+06         0.26745E+08         0.00000E+00
    0.00000E+00         0.00000E+00         0.11504E+08
 
    0.11563E+08         0.20343E+06         0.00000E+00
    0.20343E+06         0.26654E+08         0.00000E+00
    0.00000E+00         0.00000E+00         0.11465E+08
 
    0.11522E+08         0.20672E+06         0.00000E+00
    0.20672E+06         0.26561E+08         0.00000E+00
    0.00000E+00         0.00000E+00         0.11425E+08
 
    0.11481E+08         0.20996E+06         0.00000E+00
    0.20996E+06         0.26466E+08         0.00000E+00
    0.00000E+00         0.00000E+00         0.11384E+08
 
    0.11438E+08         0.21314E+06         0.00000E+00
    0.21314E+06         0.26368E+08         0.00000E+00
    0.00000E+00         0.00000E+00         0.11342E+08
 
    0.11394E+08         0.21626E+06         0.00000E+00
    0.21626E+06         0.26269E+08         0.00000E+00
    0.00000E+00         0.00000E+00         0.11299E+08
 
    0.11349E+08         0.21929E+06         0.00000E+00
    0.21929E+06         0.26168E+08         0.00000E+00
    0.00000E+00         0.00000E+00         0.11255E+08
 
    0.11302E+08         0.22223E+06         0.00000E+00
    0.22223E+06         0.26064E+08         0.00000E+00
    0.00000E+00         0.00000E+00         0.11210E+08
 
    0.11254E+08         0.22507E+06         0.00000E+00
    0.22507E+06         0.25958E+08         0.00000E+00
    0.00000E+00         0.00000E+00         0.11164E+08
 
    0.11205E+08         0.22779E+06         0.00000E+00
    0.22779E+06         0.25851E+08         0.00000E+00
    0.00000E+00         0.00000E+00         0.11117E+08
 
    0.11154E+08         0.23038E+06         0.00000E+00
    0.23038E+06         0.25740E+08         0.00000E+00
    0.00000E+00         0.00000E+00         0.11068E+08
 
    0.11102E+08         0.23283E+06         0.00000E+00
    0.23283E+06         0.25628E+08         0.00000E+00
    0.00000E+00         0.00000E+00         0.11019E+08
 
    0.11049E+08         0.23511E+06         0.00000E+00
    0.23511E+06         0.25514E+08         0.00000E+00
    0.00000E+00         0.00000E+00         0.10969E+08
 
    0.10994E+08         0.23721E+06         0.00000E+00
    0.23721E+06         0.25397E+08         0.00000E+00
    0.00000E+00         0.00000E+00         0.10917E+08
 
    0.10937E+08         0.23910E+06         0.00000E+00
    0.23910E+06         0.25278E+08         0.00000E+00
    0.00000E+00         0.00000E+00         0.10865E+08
 
    0.10879E+08         0.24078E+06         0.00000E+00
    0.24078E+06         0.25157E+08         0.00000E+00
    0.00000E+00         0.00000E+00         0.10811E+08
 
    0.10819E+08         0.24220E+06         0.00000E+00
    0.24220E+06         0.25034E+08         0.00000E+00
    0.00000E+00         0.00000E+00         0.10756E+08
 
    0.10757E+08         0.24336E+06         0.00000E+00
    0.24336E+06         0.24908E+08         0.00000E+00
    0.00000E+00         0.00000E+00         0.10700E+08
 
    0.10694E+08         0.24422E+06         0.00000E+00
    0.24422E+06         0.24780E+08         0.00000E+00
    0.00000E+00         0.00000E+00         0.10642E+08
 
    0.10629E+08         0.24474E+06         0.00000E+00
    0.24474E+06         0.24650E+08         0.00000E+00
    0.00000E+00         0.00000E+00         0.10584E+08
 
    0.10562E+08         0.24490E+06         0.00000E+00
    0.24490E+06         0.24518E+08         0.00000E+00
    0.00000E+00         0.00000E+00         0.10524E+08
 
    0.10493E+08         0.24465E+06         0.00000E+00
    0.24465E+06         0.24384E+08         0.00000E+00
    0.00000E+00         0.00000E+00         0.10463E+08
 
    0.10422E+08         0.24396E+06         0.00000E+00
    0.24396E+06         0.24247E+08         0.00000E+00
    0.00000E+00         0.00000E+00         0.10401E+08
 
    0.10349E+08         0.24277E+06         0.00000E+00
    0.24277E+06         0.24109E+08         0.00000E+00
    0.00000E+00         0.00000E+00         0.10337E+08
 
    0.10273E+08         0.24104E+06         0.00000E+00
    0.24104E+06         0.23968E+08         0.00000E+00
    0.00000E+00         0.00000E+00         0.10272E+08
 
    0.10196E+08         0.23869E+06         0.00000E+00
    0.23869E+06         0.23825E+08         0.00000E+00
    0.00000E+00         0.00000E+00         0.10206E+08
 
    0.10116E+08         0.23566E+06         0.00000E+00
    0.23566E+06         0.23680E+08         0.00000E+00
    0.00000E+00         0.00000E+00         0.10139E+08
 
    0.10034E+08         0.23187E+06         0.00000E+00
    0.23187E+06         0.23533E+08         0.00000E+00
    0.00000E+00         0.00000E+00         0.10070E+08
 
    0.99489E+07         0.22724E+06         0.00000E+00
    0.22724E+06         0.23384E+08         0.00000E+00
    0.00000E+00         0.00000E+00         0.99999E+07
 
    0.98614E+07         0.22166E+06         0.00000E+00
    0.22166E+06         0.23233E+08         0.00000E+00
    0.00000E+00         0.00000E+00         0.99284E+07
 
    0.97712E+07         0.21502E+06         0.00000E+00
    0.21502E+06         0.23080E+08         0.00000E+00
    0.00000E+00         0.00000E+00         0.98554E+07
 
    0.96780E+07         0.20722E+06         0.00000E+00
    0.20722E+06         0.22925E+08         0.00000E+00
    0.00000E+00         0.00000E+00         0.97809E+07
 
    0.95819E+07         0.19812E+06         0.00000E+00
    0.19812E+06         0.22768E+08         0.00000E+00
    0.00000E+00         0.00000E+00         0.97050E+07
 
    0.94827E+07         0.18760E+06         0.00000E+00
    0.18760E+06         0.22609E+08         0.00000E+00
    0.00000E+00         0.00000E+00         0.96275E+07
 
    0.93802E+07         0.17553E+06         0.00000E+00
    0.17553E+06         0.22448E+08         0.00000E+00
    0.00000E+00         0.00000E+00         0.95486E+07
 
    0.92744E+07         0.16180E+06         0.00000E+00
    0.16180E+06         0.22286E+08         0.00000E+00
    0.00000E+00         0.00000E+00         0.94681E+07
 
    0.91651E+07         0.14633E+06         0.00000E+00
    0.14633E+06         0.22122E+08         0.00000E+00
    0.00000E+00         0.00000E+00         0.93862E+07
 
    0.90523E+07         0.12907E+06         0.00000E+00
    0.12907E+06         0.21957E+08         0.00000E+00
    0.00000E+00         0.00000E+00         0.93027E+07
 
    0.89359E+07         0.11008E+06         0.00000E+00
    0.11008E+06         0.21790E+08         0.00000E+00
    0.00000E+00         0.00000E+00         0.92179E+07
 
    0.88157E+07         0.89490E+05         0.00000E+00
    0.89490E+05         0.21624E+08         0.00000E+00
    0.00000E+00         0.00000E+00         0.91318E+07
 
    0.86919E+07         0.67638E+05         0.00000E+00
    0.67638E+05         0.21456E+08         0.00000E+00
    0.00000E+00         0.00000E+00         0.90445E+07
 
    0.85643E+07         0.45078E+05         0.00000E+00
    0.45078E+05         0.21290E+08         0.00000E+00
    0.00000E+00         0.00000E+00         0.89563E+07
 
    0.84331E+07         0.22699E+05         0.00000E+00
    0.22699E+05         0.21125E+08         0.00000E+00
    0.00000E+00         0.00000E+00         0.88674E+07
 
    0.82985E+07         0.18207E+04         0.00000E+00
    0.18207E+04         0.20962E+08         0.00000E+00
    0.00000E+00         0.00000E+00         0.87783E+07
 
    0.81606E+07        -0.15694E+05         0.00000E+00
   -0.15694E+05         0.20804E+08         0.00000E+00
    0.00000E+00         0.00000E+00         0.86894E+07
 
    0.80196E+07        -0.27437E+05         0.00000E+00
   -0.27437E+05         0.20653E+08         0.00000E+00
    0.00000E+00         0.00000E+00         0.86017E+07
 
    0.78748E+07        -0.30831E+05         0.00000E+00
   -0.30831E+05         0.20512E+08         0.00000E+00
    0.00000E+00         0.00000E+00         0.85161E+07
 
    0.77248E+07        -0.24328E+05         0.00000E+00
   -0.24328E+05         0.20388E+08         0.00000E+00
    0.00000E+00         0.00000E+00         0.84338E+07
 
    0.75667E+07        -0.92629E+04         0.00000E+00
   -0.92629E+04         0.20287E+08         0.00000E+00
    0.00000E+00         0.00000E+00         0.83562E+07
 
    0.12949E+08        -0.12486E+04         0.00000E+00
   -0.12486E+04         0.29501E+08         0.00000E+00
    0.00000E+00         0.00000E+00         0.12735E+08
 
    0.12915E+08        -0.29325E+04         0.00000E+00
   -0.29325E+04         0.29479E+08         0.00000E+00
    0.00000E+00         0.00000E+00         0.12718E+08
 
    0.12883E+08        -0.26333E+04         0.00000E+00
   -0.26333E+04         0.29451E+08         0.00000E+00
    0.00000E+00         0.00000E+00         0.12700E+08
 
    0.12853E+08        -0.95349E+02         0.00000E+00
   -0.95349E+02         0.29420E+08         0.00000E+00
    0.00000E+00         0.00000E+00         0.12682E+08
 
    0.12823E+08         0.42811E+04         0.00000E+00
    0.42811E+04         0.29386E+08         0.00000E+00
    0.00000E+00         0.00000E+00         0.12663E+08
 
    0.12794E+08         0.99010E+04         0.00000E+00
    0.99010E+04         0.29351E+08         0.00000E+00
    0.00000E+00         0.00000E+00         0.12643E+08
 
    0.12766E+08         0.16237E+05         0.00000E+00
    0.16237E+05         0.29315E+08         0.00000E+00
    0.00000E+00         0.00000E+00         0.12624E+08
 
    0.12738E+08         0.22894E+05         0.00000E+00
    0.22894E+05         0.29277E+08         0.00000E+00
    0.00000E+00         0.00000E+00         0.12605E+08
 
    0.12712E+08         0.29599E+05         0.00000E+00
    0.29599E+05         0.29239E+08         0.00000E+00
    0.00000E+00         0.00000E+00         0.12585E+08
 
    0.12686E+08         0.36171E+05         0.00000E+00
    0.36171E+05         0.29200E+08         0.00000E+00
    0.00000E+00         0.00000E+00         0.12566E+08
 
    0.12661E+08         0.42498E+05         0.00000E+00
    0.42498E+05         0.29161E+08         0.00000E+00
    0.00000E+00         0.00000E+00         0.12547E+08
 
    0.12637E+08         0.48521E+05         0.00000E+00
    0.48521E+05         0.29121E+08         0.00000E+00
    0.00000E+00         0.00000E+00         0.12527E+08
 
    0.12613E+08         0.54213E+05         0.00000E+00
    0.54213E+05         0.29081E+08         0.00000E+00
    0.00000E+00         0.00000E+00         0.12508E+08
 
    0.12590E+08         0.59572E+05         0.00000E+00
    0.59572E+05         0.29041E+08         0.00000E+00
    0.00000E+00         0.00000E+00         0.12489E+08
 
    0.12567E+08         0.64612E+05         0.00000E+00
    0.64612E+05         0.28999E+08         0.00000E+00
    0.00000E+00         0.00000E+00         0.12470E+08
 
    0.12545E+08         0.69357E+05         0.00000E+00
    0.69357E+05         0.28958E+08         0.00000E+00
    0.00000E+00         0.00000E+00         0.12451E+08
 
    0.12523E+08         0.73834E+05         0.00000E+00
    0.73834E+05         0.28916E+08         0.00000E+00
    0.00000E+00         0.00000E+00         0.12432E+08
 
    0.12502E+08         0.78073E+05         0.00000E+00
    0.78073E+05         0.28873E+08         0.00000E+00
    0.00000E+00         0.00000E+00         0.12412E+08
 
    0.12481E+08         0.82106E+05         0.00000E+00
    0.82106E+05         0.28829E+08         0.00000E+00
    0.00000E+00         0.00000E+00         0.12393E+08
 
    0.12460E+08         0.85959E+05         0.00000E+00
    0.85959E+05         0.28785E+08         0.00000E+00
    0.00000E+00         0.00000E+00         0.12374E+08
 
    0.12439E+08         0.89662E+05         0.00000E+00
    0.89662E+05         0.28740E+08         0.00000E+00
    0.00000E+00         0.00000E+00         0.12354E+08
 
    0.12418E+08         0.93237E+05         0.00000E+00
    0.93237E+05         0.28695E+08         0.00000E+00
    0.00000E+00         0.00000E+00         0.12334E+08
 
    0.12397E+08         0.96706E+05         0.00000E+00
    0.96706E+05         0.28648E+08         0.00000E+00
    0.00000E+00         0.00000E+00         0.12314E+08
 
    0.12377E+08         0.10009E+06         0.00000E+00
    0.10009E+06         0.28601E+08         0.00000E+00
    0.00000E+00         0.00000E+00         0.12293E+08
 
    0.12356E+08         0.10340E+06         0.00000E+00
    0.10340E+06         0.28553E+08         0.00000E+00
    0.00000E+00         0.00000E+00         0.12273E+08
 
    0.12335E+08         0.10666E+06         0.00000E+00
    0.10666E+06         0.28503E+08         0.00000E+00
    0.00000E+00         0.00000E+00         0.12251E+08
 
    0.12313E+08         0.10988E+06         0.00000E+00
    0.10988E+06         0.28453E+08         0.00000E+00
    0.00000E+00         0.00000E+00         0.12230E+08
 
    0.12292E+08         0.11306E+06         0.00000E+00
    0.11306E+06         0.28402E+08         0.00000E+00
    0.00000E+00         0.00000E+00         0.12208E+08
 
    0.12270E+08         0.11622E+06         0.00000E+00
    0.11622E+06         0.28350E+08         0.00000E+00
    0.00000E+00         0.00000E+00         0.12186E+08
 
    0.12248E+08         0.11937E+06         0.00000E+00
    0.11937E+06         0.28296E+08         0.00000E+00
    0.00000E+00         0.00000E+00         0.12163E+08
 
    0.12226E+08         0.12250E+06         0.00000E+00
    0.12250E+06         0.28241E+08         0.00000E+00
    0.00000E+00         0.00000E+00         0.12140E+08
 
    0.12203E+08         0.12564E+06         0.00000E+00
    0.12564E+06         0.28185E+08         0.00000E+00
    0.00000E+00         0.00000E+00         0.12116E+08
 
    0.12179E+08         0.12877E+06         0.00000E+00
    0.12877E+06         0.28128E+08         0.00000E+00
    0.00000E+00         0.00000E+00         0.12092E+08
 
    0.12156E+08         0.13191E+06         0.00000E+00
    0.13191E+06         0.28069E+08         0.00000E+00
    0.00000E+00         0.00000E+00         0.12067E+08
 
    0.12131E+08         0.13506E+06         0.00000E+00
    0.13506E+06         0.28009E+08         0.00000E+00
    0.00000E+00         0.00000E+00         0.12042E+08
 
    0.12106E+08         0.13822E+06         0.00000E+00
    0.13822E+06         0.27948E+08         0.00000E+00
    0.00000E+00         0.00000E+00         0.12016E+08
 
    0.12081E+08         0.14139E+06         0.00000E+00
    0.14139E+06         0.27885E+08         0.00000E+00
    0.00000E+00         0.00000E+00         0.11990E+08
 
    0.12055E+08         0.14458E+06         0.00000E+00
    0.14458E+06         0.27821E+08         0.00000E+00
    0.00000E+00         0.00000E+00         0.11963E+08
 
    0.12028E+08         0.14777E+06         0.00000E+00
    0.14777E+06         0.27755E+08         0.00000E+00
    0.00000E+00         0.00000E+00         0.11935E+08
 
    0.12000E+08         0.15099E+06         0.00000E+00
    0.15099E+06         0.27688E+08         0.00000E+00
    0.00000E+00         0.00000E+00         0.11906E+08
 
    0.11972E+08         0.15421E+06         0.00000E+00
    0.15421E+06         0.27619E+08         0.00000E+00
    0.00000E+00         0.00000E+00         0.11877E+08
 
    0.11943E+08         0.15745E+06         0.00000E+00
    0.15745E+06         0.27548E+08         0.00000E+00
    0.00000E+00         0.00000E+00         0.11847E+08
 
    0.11914E+08         0.16069E+06         0.00000E+00
    0.16069E+06         0.27476E+08         0.00000E+00
    0.00000E+00         0.00000E+00         0.11817E+08
 
    0.11883E+08         0.16394E+06         0.00000E+00
    0.16394E+06         0.27402E+08         0.00000E+00
    0.00000E+00         0.00000E+00         0.11786E+08
 
    0.11852E+08         0.16720E+06         0.00000E+00
    0.16720E+06         0.27326E+08         0.00000E+00
    0.00000E+00         0.00000E+00         0.11753E+08
 
    0.11819E+08         0.17047E+06         0.00000E+00
    0.17047E+06         0.27249E+08         0.00000E+00
    0.00000E+00         0.00000E+00         0.11720E+08
 
    0.11786E+08         0.17373E+06         0.00000E+00
    0.17373E+06         0.27169E+08         0.00000E+00
    0.00000E+00         0.00000E+00         0.11687E+08
 
    0.11752E+08         0.17698E+06         0.00000E+00
    0.17698E+06         0.27088E+08         0.00000E+00
    0.00000E+00         0.00000E+00         0.11652E+08
 
    0.11717E+08         0.18023E+06         0.00000E+00
    0.18023E+06         0.27005E+08         0.00000E+00
    0.00000E+00         0.00000E+00         0.11617E+08
 
    0.11681E+08         0.18346E+06         0.00000E+00
    0.18346E+06         0.26920E+08         0.00000E+00
    0.00000E+00         0.00000E+00         0.11580E+08
 
    0.11644E+08         0.18668E+06         0.00000E+00
    0.18668E+06         0.26833E+08         0.00000E+00
    0.00000E+00         0.00000E+00         0.11543E+08
 
    0.11606E+08         0.18986E+06         0.00000E+00
    0.18986E+06         0.26744E+08         0.00000E+00
    0.00000E+00         0.00000E+00         0.11505E+08
 
    0.11566E+08         0.19302E+06         0.00000E+00
    0.19302E+06         0.26653E+08         0.00000E+00
    0.00000E+00         0.00000E+00         0.11466E+08
 
    0.11526E+08         0.19613E+06         0.00000E+00
    0.19613E+06         0.26560E+08         0.00000E+00
    0.00000E+00         0.00000E+00         0.11426E+08
 
    0.11484E+08         0.19920E+06         0.00000E+00
    0.19920E+06         0.26465E+08         0.00000E+00
    0.00000E+00         0.00000E+00         0.11385E+08
 
    0.11442E+08         0.20221E+06         0.00000E+00
    0.20221E+06         0.26368E+08         0.00000E+00
    0.00000E+00         0.00000E+00         0.11343E+08
 
    0.11398E+08         0.20515E+06         0.00000E+00
    0.20515E+06         0.26269E+08         0.00000E+00
    0.00000E+00         0.00000E+00         0.11300E+08
 
    0.11352E+08         0.20801E+06         0.00000E+00
    0.20801E+06         0.26167E+08         0.00000E+00
    0.00000E+00         0.00000E+00         0.11256E+08
 
    0.11306E+08         0.21079E+06         0.00000E+00
    0.21079E+06         0.26064E+08         0.00000E+00
    0.00000E+00         0.00000E+00         0.11211E+08
 
    0.11258E+08         0.21347E+06         0.00000E+00
    0.21347E+06         0.25958E+08         0.00000E+00
    0.00000E+00         0.00000E+00         0.11165E+08
 
    0.11208E+08         0.21604E+06         0.00000E+00
    0.21604E+06         0.25850E+08         0.00000E+00
    0.00000E+00         0.00000E+00         0.11118E+08
 
    0.11158E+08         0.21848E+06         0.00000E+00
    0.21848E+06         0.25740E+08         0.00000E+00
    0.00000E+00         0.00000E+00         0.11069E+08
 
    0.11106E+08         0.22079E+06         0.00000E+00
    0.22079E+06         0.25628E+08         0.00000E+00
    0.00000E+00         0.00000E+00         0.11020E+08
 
    0.11052E+08         0.22293E+06         0.00000E+00
    0.22293E+06         0.25513E+08         0.00000E+00
    0.00000E+00         0.00000E+00         0.10970E+08
 
    0.10997E+08         0.22491E+06         0.00000E+00
    0.22491E+06         0.25397E+08         0.00000E+00
    0.00000E+00         0.00000E+00         0.10918E+08
 
    0.10940E+08         0.22669E+06         0.00000E+00
    0.22669E+06         0.25278E+08         0.00000E+00
    0.00000E+00         0.00000E+00         0.10865E+08
 
    0.10882E+08         0.22825E+06         0.00000E+00
    0.22825E+06         0.25157E+08         0.00000E+00
    0.00000E+00         0.00000E+00         0.10812E+08
 
    0.10822E+08         0.22959E+06         0.00000E+00
    0.22959E+06         0.25033E+08         0.00000E+00
    0.00000E+00         0.00000E+00         0.10757E+08
 
    0.10760E+08         0.23066E+06         0.00000E+00
    0.23066E+06         0.24908E+08         0.00000E+00
    0.00000E+00         0.00000E+00         0.10700E+08
 
    0.10696E+08         0.23145E+06         0.00000E+00
    0.23145E+06         0.24780E+08         0.00000E+00
    0.00000E+00         0.00000E+00         0.10643E+08
 
    0.10631E+08         0.23192E+06         0.00000E+00
    0.23192E+06         0.24650E+08         0.00000E+00
    0.00000E+00         0.00000E+00         0.10584E+08
 
    0.10564E+08         0.23204E+06         0.00000E+00
    0.23204E+06         0.24518E+08         0.00000E+00
    0.00000E+00         0.00000E+00         0.10525E+08
 
    0.10495E+08         0.23178E+06         0.00000E+00
    0.23178E+06         0.24384E+08         0.00000E+00
    0.00000E+00         0.00000E+00         0.10464E+08
 
    0.10423E+08         0.23109E+06         0.00000E+00
    0.23109E+06         0.24248E+08         0.00000E+00
    0.00000E+00         0.00000E+00         0.10401E+08
 
    0.10350E+08         0.22992E+06         0.00000E+00
    0.22992E+06         0.24109E+08         0.00000E+00
    0.00000E+00         0.00000E+00         0.10338E+08
 
    0.10274E+08         0.22824E+06         0.00000E+00
    0.22824E+06         0.23969E+08         0.00000E+00
    0.00000E+00         0.00000E+00         0.10273E+08
 
    0.10197E+08         0.22596E+06         0.00000E+00
    0.22596E+06         0.23826E+08         0.00000E+00
    0.00000E+00         0.00000E+00         0.10207E+08
 
    0.10116E+08         0.22303E+06         0.00000E+00
    0.22303E+06         0.23681E+08         0.00000E+00
    0.00000E+00         0.00000E+00         0.10139E+08
 
    0.10034E+08         0.21938E+06         0.00000E+00
    0.21938E+06         0.23534E+08         0.00000E+00
    0.00000E+00         0.00000E+00         0.10070E+08
 
    0.99484E+07         0.21490E+06         0.00000E+00
    0.21490E+06         0.23385E+08         0.00000E+00
    0.00000E+00         0.00000E+00         0.10000E+08
 
    0.98604E+07         0.20952E+06         0.00000E+00
    0.20952E+06         0.23234E+08         0.00000E+00
    0.00000E+00         0.00000E+00         0.99284E+07
 
    0.97696E+07         0.20312E+06         0.00000E+00
    0.20312E+06         0.23081E+08         0.00000E+00
    0.00000E+00         0.00000E+00         0.98553E+07
 
    0.96758E+07         0.19558E+06         0.00000E+00
    0.19558E+06         0.22927E+08         0.00000E+00
    0.00000E+00         0.00000E+00         0.97807E+07
 
    0.95790E+07         0.18679E+06         0.00000E+00
    0.18679E+06         0.22770E+08         0.00000E+00
    0.00000E+00         0.00000E+00         0.97047E+07
 
    0.94789E+07         0.17661E+06         0.00000E+00
    0.17661E+06         0.22611E+08         0.00000E+00
    0.00000E+00         0.00000E+00         0.96271E+07
 
    0.93755E+07         0.16493E+06         0.00000E+00
    0.16493E+06         0.22451E+08         0.00000E+00
    0.00000E+00         0.00000E+00         0.95479E+07
 
    0.92686E+07         0.15162E+06         0.00000E+00
    0.15162E+06         0.22289E+08         0.00000E+00
    0.00000E+00         0.00000E+00         0.94672E+07
 
    0.91581E+07         0.13661E+06         0.00000E+00
    0.13661E+06         0.22125E+08         0.00000E+00
    0.00000E+00         0.00000E+00         0.93850E+07
 
    0.90439E+07         0.11986E+06         0.00000E+00
    0.11986E+06         0.21960E+08         0.00000E+00
    0.00000E+00         0.00000E+00         0.93013E+07
 
    0.89259E+07         0.10139E+06         0.00000E+00
    0.10139E+06         0.21794E+08         0.00000E+00
    0.00000E+00         0.00000E+00         0.92161E+07
 
    0.88039E+07         0.81363E+05         0.00000E+00
    0.81363E+05         0.21628E+08         0.00000E+00
    0.00000E+00         0.00000E+00         0.91295E+07
 
    0.86781E+07         0.60089E+05         0.00000E+00
    0.60089E+05         0.21461E+08         0.00000E+00
    0.00000E+00         0.00000E+00         0.90417E+07
 
    0.85483E+07         0.38115E+05         0.00000E+00
    0.38115E+05         0.21294E+08         0.00000E+00
    0.00000E+00         0.00000E+00         0.89528E+07
 
    0.84148E+07         0.16309E+05         0.00000E+00
    0.16309E+05         0.21129E+08         0.00000E+00
    0.00000E+00         0.00000E+00         0.88632E+07
 
    0.82778E+07        -0.40284E+04         0.00000E+00
   -0.40284E+04         0.20966E+08         0.00000E+00
    0.00000E+00         0.00000E+00         0.87732E+07
 
    0.81376E+07        -0.21043E+05         0.00000E+00
   -0.21043E+05         0.20807E+08         0.00000E+00
    0.00000E+00         0.00000E+00         0.86834E+07
 
    0.79946E+07        -0.32275E+05         0.00000E+00
   -0.32275E+05         0.20654E+08         0.00000E+00
    0.00000E+00         0.00000E+00         0.85947E+07
 
    0.78485E+07        -0.34961E+05         0.00000E+00
   -0.34961E+05         0.20512E+08         0.00000E+00
    0.00000E+00         0.00000E+00         0.85081E+07
 
    0.76977E+07        -0.27251E+05         0.00000E+00
   -0.27251E+05         0.20386E+08         0.00000E+00
    0.00000E+00         0.00000E+00         0.84250E+07
 
    0.75394E+07        -0.10341E+05         0.00000E+00
   -0.10341E+05         0.20284E+08         0.00000E+00
    0.00000E+00         0.00000E+00         0.83469E+07
 
    0.12956E+08        -0.15218E+04         0.00000E+00
   -0.15218E+04         0.29501E+08         0.00000E+00
    0.00000E+00         0.00000E+00         0.12737E+08
 
    0.12922E+08        -0.36758E+04         0.00000E+00
   -0.36758E+04         0.29479E+08         0.00000E+00
    0.00000E+00         0.00000E+00         0.12720E+08
 
    0.12890E+08        -0.36946E+04         0.00000E+00
   -0.36946E+04         0.29451E+08         0.00000E+00
    0.00000E+00         0.00000E+00         0.12702E+08
 
    0.12859E+08        -0.13675E+04         0.00000E+00
   -0.13675E+04         0.29419E+08         0.00000E+00
    0.00000E+00         0.00000E+00         0.12684E+08
 
    0.12829E+08         0.28287E+04         0.00000E+00
    0.28287E+04         0.29385E+08         0.00000E+00
    0.00000E+00         0.00000E+00         0.12664E+08
 
    0.12800E+08         0.82571E+04         0.00000E+00
    0.82571E+04         0.29350E+08         0.00000E+00
    0.00000E+00         0.00000E+00         0.12645E+08
 
    0.12771E+08         0.14383E+05         0.00000E+00
    0.14383E+05         0.29313E+08         0.00000E+00
    0.00000E+00         0.00000E+00         0.12625E+08
 
    0.12743E+08         0.20815E+05         0.00000E+00
    0.20815E+05         0.29276E+08         0.00000E+00
    0.00000E+00         0.00000E+00         0.12606E+08
 
    0.12716E+08         0.27288E+05         0.00000E+00
    0.27288E+05         0.29238E+08         0.00000E+00
    0.00000E+00         0.00000E+00         0.12586E+08
 
    0.12690E+08         0.33626E+05         0.00000E+00
    0.33626E+05         0.29199E+08         0.00000E+00
    0.00000E+00         0.00000E+00         0.12567E+08
 
    0.12665E+08         0.39720E+05         0.00000E+00
    0.39720E+05         0.29160E+08         0.00000E+00
    0.00000E+00         0.00000E+00         0.12547E+08
 
    0.12640E+08         0.45514E+05         0.00000E+00
    0.45514E+05         0.29120E+08         0.00000E+00
    0.00000E+00         0.00000E+00         0.12528E+08
 
    0.12616E+08         0.50981E+05         0.00000E+00
    0.50981E+05         0.29080E+08         0.00000E+00
    0.00000E+00         0.00000E+00         0.12509E+08
 
    0.12593E+08         0.56121E+05         0.00000E+00
    0.56121E+05         0.29040E+08         0.00000E+00
    0.00000E+00         0.00000E+00         0.12490E+08
 
    0.12570E+08         0.60949E+05         0.00000E+00
    0.60949E+05         0.28999E+08         0.00000E+00
    0.00000E+00         0.00000E+00         0.12471E+08
 
    0.12548E+08         0.65486E+05         0.00000E+00
    0.65486E+05         0.28957E+08         0.00000E+00
    0.00000E+00         0.00000E+00         0.12451E+08
 
    0.12526E+08         0.69761E+05         0.00000E+00
    0.69761E+05         0.28915E+08         0.00000E+00
    0.00000E+00         0.00000E+00         0.12432E+08
 
    0.12505E+08         0.73804E+05         0.00000E+00
    0.73804E+05         0.28872E+08         0.00000E+00
    0.00000E+00         0.00000E+00         0.12413E+08
 
    0.12483E+08         0.77644E+05         0.00000E+00
    0.77644E+05         0.28829E+08         0.00000E+00
    0.00000E+00         0.00000E+00         0.12394E+08
 
    0.12462E+08         0.81311E+05         0.00000E+00
    0.81311E+05         0.28785E+08         0.00000E+00
    0.00000E+00         0.00000E+00         0.12374E+08
 
    0.12442E+08         0.84831E+05         0.00000E+00
    0.84831E+05         0.28740E+08         0.00000E+00
    0.00000E+00         0.00000E+00         0.12354E+08
 
    0.12421E+08         0.88226E+05         0.00000E+00
    0.88226E+05         0.28694E+08         0.00000E+00
    0.00000E+00         0.00000E+00         0.12334E+08
 
    0.12400E+08         0.91519E+05         0.00000E+00
    0.91519E+05         0.28648E+08         0.00000E+00
    0.00000E+00         0.00000E+00         0.12314E+08
 
    0.12379E+08         0.94729E+05         0.00000E+00
    0.94729E+05         0.28600E+08         0.00000E+00
    0.00000E+00         0.00000E+00         0.12294E+08
 
    0.12358E+08         0.97870E+05         0.00000E+00
    0.97870E+05         0.28552E+08         0.00000E+00
    0.00000E+00         0.00000E+00         0.12273E+08
 
    0.12337E+08         0.10096E+06         0.00000E+00
    0.10096E+06         0.28503E+08         0.00000E+00
    0.00000E+00         0.00000E+00         0.12252E+08
 
    0.12316E+08         0.10401E+06         0.00000E+00
    0.10401E+06         0.28453E+08         0.00000E+00
    0.00000E+00         0.00000E+00         0.12231E+08
 
    0.12295E+08         0.10702E+06         0.00000E+00
    0.10702E+06         0.28401E+08         0.00000E+00
    0.00000E+00         0.00000E+00         0.12209E+08
 
    0.12273E+08         0.11001E+06         0.00000E+00
    0.11001E+06         0.28349E+08         0.00000E+00
    0.00000E+00         0.00000E+00         0.12187E+08
 
    0.12251E+08         0.11299E+06         0.00000E+00
    0.11299E+06         0.28295E+08         0.00000E+00
    0.00000E+00         0.00000E+00         0.12164E+08
 
    0.12228E+08         0.11596E+06         0.00000E+00
    0.11596E+06         0.28241E+08         0.00000E+00
    0.00000E+00         0.00000E+00         0.12141E+08
 
    0.12206E+08         0.11893E+06         0.00000E+00
    0.11893E+06         0.28185E+08         0.00000E+00
    0.00000E+00         0.00000E+00         0.12117E+08
 
    0.12182E+08         0.12190E+06         0.00000E+00
    0.12190E+06         0.28127E+08         0.00000E+00
    0.00000E+00         0.00000E+00         0.12093E+08
 
    0.12158E+08         0.12487E+06         0.00000E+00
    0.12487E+06         0.28069E+08         0.00000E+00
    0.00000E+00         0.00000E+00         0.12068E+08
 
    0.12134E+08         0.12785E+06         0.00000E+00
    0.12785E+06         0.28009E+08         0.00000E+00
    0.00000E+00         0.00000E+00         0.12043E+08
 
    0.12109E+08         0.13084E+06         0.00000E+00
    0.13084E+06         0.27947E+08         0.00000E+00
    0.00000E+00         0.00000E+00         0.12017E+08
 
    0.12084E+08         0.13384E+06         0.00000E+00
    0.13384E+06         0.27885E+08         0.00000E+00
    0.00000E+00         0.00000E+00         0.11991E+08
 
    0.12058E+08         0.13685E+06         0.00000E+00
    0.13685E+06         0.27820E+08         0.00000E+00
    0.00000E+00         0.00000E+00         0.11963E+08
 
    0.12031E+08         0.13987E+06         0.00000E+00
    0.13987E+06         0.27755E+08         0.00000E+00
    0.00000E+00         0.00000E+00         0.11936E+08
 
    0.12004E+08         0.14291E+06         0.00000E+00
    0.14291E+06         0.27687E+08         0.00000E+00
    0.00000E+00         0.00000E+00         0.11907E+08
 
    0.11976E+08         0.14596E+06         0.00000E+00
    0.14596E+06         0.27618E+08         0.00000E+00
    0.00000E+00         0.00000E+00         0.11878E+08
 
    0.11947E+08         0.14901E+06         0.00000E+00
    0.14901E+06         0.27548E+08         0.00000E+00
    0.00000E+00         0.00000E+00         0.11848E+08
 
    0.11917E+08         0.15208E+06         0.00000E+00
    0.15208E+06         0.27475E+08         0.00000E+00
    0.00000E+00         0.00000E+00         0.11818E+08
 
    0.11886E+08         0.15516E+06         0.00000E+00
    0.15516E+06         0.27401E+08         0.00000E+00
    0.00000E+00         0.00000E+00         0.11786E+08
 
    0.11855E+08         0.15824E+06         0.00000E+00
    0.15824E+06         0.27326E+08         0.00000E+00
    0.00000E+00         0.00000E+00         0.11754E+08
 
    0.11823E+08         0.16132E+06         0.00000E+00
    0.16132E+06         0.27248E+08         0.00000E+00
    0.00000E+00         0.00000E+00         0.11721E+08
 
    0.11790E+08         0.16440E+06         0.00000E+00
    0.16440E+06         0.27169E+08         0.00000E+00
    0.00000E+00         0.00000E+00         0.11688E+08
 
    0.11756E+08         0.16747E+06         0.00000E+00
    0.16747E+06         0.27087E+08         0.00000E+00
    0.00000E+00         0.00000E+00         0.11653E+08
 
    0.11721E+08         0.17054E+06         0.00000E+00
    0.17054E+06         0.27004E+08         0.00000E+00
    0.00000E+00         0.00000E+00         0.11617E+08
 
    0.11685E+08         0.17359E+06         0.00000E+00
    0.17359E+06         0.26919E+08         0.00000E+00
    0.00000E+00         0.00000E+00         0.11581E+08
 
    0.11647E+08         0.17662E+06         0.00000E+00
    0.17662E+06         0.26832E+08         0.00000E+00
    0.00000E+00         0.00000E+00         0.11544E+08
 
    0.11609E+08         0.17963E+06         0.00000E+00
    0.17963E+06         0.26743E+08         0.00000E+00
    0.00000E+00         0.00000E+00         0.11506E+08
 
    0.11570E+08         0.18261E+06         0.00000E+00
    0.18261E+06         0.26652E+08         0.00000E+00
    0.00000E+00         0.00000E+00         0.11467E+08
 
    0.11529E+08         0.18554E+06         0.00000E+00
    0.18554E+06         0.26559E+08         0.00000E+00
    0.00000E+00         0.00000E+00         0.11427E+08
 
    0.11488E+08         0.18843E+06         0.00000E+00
    0.18843E+06         0.26464E+08         0.00000E+00
    0.00000E+00         0.00000E+00         0.11386E+08
 
    0.11445E+08         0.19127E+06         0.00000E+00
    0.19127E+06         0.26367E+08         0.00000E+00
    0.00000E+00         0.00000E+00         0.11344E+08
 
    0.11401E+08         0.19404E+06         0.00000E+00
    0.19404E+06         0.26268E+08         0.00000E+00
    0.00000E+00         0.00000E+00         0.11301E+08
 
    0.11356E+08         0.19674E+06         0.00000E+00
    0.19674E+06         0.26167E+08         0.00000E+00
    0.00000E+00         0.00000E+00         0.11257E+08
 
    0.11309E+08         0.19936E+06         0.00000E+00
    0.19936E+06         0.26063E+08         0.00000E+00
    0.00000E+00         0.00000E+00         0.11212E+08
 
    0.11261E+08         0.20188E+06         0.00000E+00
    0.20188E+06         0.25957E+08         0.00000E+00
    0.00000E+00         0.00000E+00         0.11166E+08
 
    0.11212E+08         0.20430E+06         0.00000E+00
    0.20430E+06         0.25850E+08         0.00000E+00
    0.00000E+00         0.00000E+00         0.11118E+08
 
    0.11161E+08         0.20660E+06         0.00000E+00
    0.20660E+06         0.25740E+08         0.00000E+00
    0.00000E+00         0.00000E+00         0.11070E+08
 
    0.11109E+08         0.20876E+06         0.00000E+00
    0.20876E+06         0.25627E+08         0.00000E+00
    0.00000E+00         0.00000E+00         0.11021E+08
 
    0.11055E+08         0.21077E+06         0.00000E+00
    0.21077E+06         0.25513E+08         0.00000E+00
    0.00000E+00         0.00000E+00         0.10970E+08
 
    0.11000E+08         0.21262E+06         0.00000E+00
    0.21262E+06         0.25396E+08         0.00000E+00
    0.00000E+00         0.00000E+00         0.10919E+08
 
    0.10943E+08         0.21429E+06         0.00000E+00
    0.21429E+06         0.25277E+08         0.00000E+00
    0.00000E+00         0.00000E+00         0.10866E+08
 
    0.10885E+08         0.21575E+06         0.00000E+00
    0.21575E+06         0.25156E+08         0.00000E+00
    0.00000E+00         0.00000E+00         0.10812E+08
 
    0.10824E+08         0.21699E+06         0.00000E+00
    0.21699E+06         0.25033E+08         0.00000E+00
    0.00000E+00         0.00000E+00         0.10757E+08
 
    0.10763E+08         0.21799E+06         0.00000E+00
    0.21799E+06         0.24908E+08         0.00000E+00
    0.00000E+00         0.00000E+00         0.10701E+08
 
    0.10699E+08         0.21871E+06         0.00000E+00
    0.21871E+06         0.24780E+08         0.00000E+00
    0.00000E+00         0.00000E+00         0.10644E+08
 
    0.10633E+08         0.21913E+06         0.00000E+00
    0.21913E+06         0.24650E+08         0.00000E+00
    0.00000E+00         0.00000E+00         0.10585E+08
 
    0.10566E+08         0.21922E+06         0.00000E+00
    0.21922E+06         0.24518E+08         0.00000E+00
    0.00000E+00         0.00000E+00         0.10525E+08
 
    0.10496E+08         0.21895E+06         0.00000E+00
    0.21895E+06         0.24384E+08         0.00000E+00
    0.00000E+00         0.00000E+00         0.10464E+08
 
    0.10425E+08         0.21826E+06         0.00000E+00
    0.21826E+06         0.24248E+08         0.00000E+00
    0.00000E+00         0.00000E+00         0.10402E+08
 
    0.10351E+08         0.21713E+06         0.00000E+00
    0.21713E+06         0.24109E+08         0.00000E+00
    0.00000E+00         0.00000E+00         0.10338E+08
 
    0.10276E+08         0.21549E+06         0.00000E+00
    0.21549E+06         0.23969E+08         0.00000E+00
    0.00000E+00         0.00000E+00         0.10273E+08
 
    0.10197E+08         0.21330E+06         0.00000E+00
    0.21330E+06         0.23826E+08         0.00000E+00
    0.00000E+00         0.00000E+00         0.10207E+08
 
    0.10117E+08         0.21048E+06         0.00000E+00
    0.21048E+06         0.23682E+08         0.00000E+00
    0.00000E+00         0.00000E+00         0.10140E+08
 
    0.10034E+08         0.20696E+06         0.00000E+00
    0.20696E+06         0.23535E+08         0.00000E+00
    0.00000E+00         0.00000E+00         0.10071E+08
 
    0.99480E+07         0.20266E+06         0.00000E+00
    0.20266E+06         0.23386E+08         0.00000E+00
    0.00000E+00         0.00000E+00         0.10000E+08
 
    0.98595E+07         0.19748E+06         0.00000E+00
    0.19748E+06         0.23235E+08         0.00000E+00
    0.00000E+00         0.00000E+00         0.99285E+07
 
    0.97682E+07         0.19133E+06         0.00000E+00
    0.19133E+06         0.23083E+08         0.00000E+00
    0.00000E+00         0.00000E+00         0.98553E+07
 
    0.96738E+07         0.18407E+06         0.00000E+00
    0.18407E+06         0.22928E+08         0.00000E+00
    0.00000E+00         0.00000E+00         0.97806E+07
 
    0.95763E+07         0.17561E+06         0.00000E+00
    0.17561E+06         0.22772E+08         0.00000E+00
    0.00000E+00         0.00000E+00         0.97044E+07
 
    0.94754E+07         0.16580E+06         0.00000E+00
    0.16580E+06         0.22613E+08         0.00000E+00
    0.00000E+00         0.00000E+00         0.96266E+07
 
    0.93711E+07         0.15452E+06         0.00000E+00
    0.15452E+06         0.22453E+08         0.00000E+00
    0.00000E+00         0.00000E+00         0.95473E+07
 
    0.92631E+07         0.14167E+06         0.00000E+00
    0.14167E+06         0.22292E+08         0.00000E+00
    0.00000E+00         0.00000E+00         0.94664E+07
 
    0.91514E+07         0.12716E+06         0.00000E+00
    0.12716E+06         0.22128E+08         0.00000E+00
    0.00000E+00         0.00000E+00         0.93839E+07
 
    0.90358E+07         0.11094E+06         0.00000E+00
    0.11094E+06         0.21964E+08         0.00000E+00
    0.00000E+00         0.00000E+00         0.92999E+07
 
    0.89162E+07         0.93043E+05         0.00000E+00
    0.93043E+05         0.21798E+08         0.00000E+00
    0.00000E+00         0.00000E+00         0.92143E+07
 
    0.87924E+07         0.73618E+05         0.00000E+00
    0.73618E+05         0.21632E+08         0.00000E+00
    0.00000E+00         0.00000E+00         0.91273E+07
 
    0.86645E+07         0.52964E+05         0.00000E+00
    0.52964E+05         0.21465E+08         0.00000E+00
    0.00000E+00         0.00000E+00         0.90389E+07
 
    0.85326E+07         0.31611E+05         0.00000E+00
    0.31611E+05         0.21299E+08         0.00000E+00
    0.00000E+00         0.00000E+00         0.89494E+07
 
    0.83967E+07         0.10403E+05         0.00000E+00
    0.10403E+05         0.21133E+08         0.00000E+00
    0.00000E+00         0.00000E+00         0.88590E+07
 
    0.82572E+07        -0.93920E+04         0.00000E+00
   -0.93920E+04         0.20970E+08         0.00000E+00
    0.00000E+00         0.00000E+00         0.87682E+07
 
    0.81146E+07        -0.25943E+05         0.00000E+00
   -0.25943E+05         0.20810E+08         0.00000E+00
    0.00000E+00         0.00000E+00         0.86774E+07
 
    0.79695E+07        -0.36755E+05         0.00000E+00
   -0.36755E+05         0.20656E+08         0.00000E+00
    0.00000E+00         0.00000E+00         0.85876E+07
 
    0.78218E+07        -0.38872E+05         0.00000E+00
   -0.38872E+05         0.20511E+08         0.00000E+00
    0.00000E+00         0.00000E+00         0.84999E+07
 
    0.76702E+07        -0.30092E+05         0.00000E+00
   -0.30092E+05         0.20383E+08         0.00000E+00
    0.00000E+00         0.00000E+00         0.84159E+07
 
    0.75117E+07        -0.11406E+05         0.00000E+00
   -0.11406E+05         0.20279E+08         0.00000E+00
    0.00000E+00         0.00000E+00         0.83373E+07
 
    0.12964E+08        -0.17935E+04         0.00000E+00
   -0.17935E+04         0.29502E+08         0.00000E+00
    0.00000E+00         0.00000E+00         0.12740E+08
 
    0.12930E+08        -0.44027E+04         0.00000E+00
   -0.44027E+04         0.29479E+08         0.00000E+00
    0.00000E+00         0.00000E+00         0.12723E+08
 
    0.12897E+08        -0.47085E+04         0.00000E+00
   -0.47085E+04         0.29451E+08         0.00000E+00
    0.00000E+00         0.00000E+00         0.12704E+08
 
    0.12866E+08        -0.25621E+04         0.00000E+00
   -0.25621E+04         0.29419E+08         0.00000E+00
    0.00000E+00         0.00000E+00         0.12685E+08
 
    0.12835E+08         0.14709E+04         0.00000E+00
    0.14709E+04         0.29384E+08         0.00000E+00
    0.00000E+00         0.00000E+00         0.12666E+08
 
    0.12805E+08         0.67125E+04         0.00000E+00
    0.67125E+04         0.29349E+08         0.00000E+00
    0.00000E+00         0.00000E+00         0.12646E+08
 
    0.12776E+08         0.12624E+05         0.00000E+00
    0.12624E+05         0.29312E+08         0.00000E+00
    0.00000E+00         0.00000E+00         0.12626E+08
 
    0.12748E+08         0.18825E+05         0.00000E+00
    0.18825E+05         0.29275E+08         0.00000E+00
    0.00000E+00         0.00000E+00         0.12607E+08
 
    0.12720E+08         0.25056E+05         0.00000E+00
    0.25056E+05         0.29236E+08         0.00000E+00
    0.00000E+00         0.00000E+00         0.12587E+08
 
    0.12694E+08         0.31149E+05         0.00000E+00
    0.31149E+05         0.29198E+08         0.00000E+00
    0.00000E+00         0.00000E+00         0.12568E+08
 
    0.12668E+08         0.37001E+05         0.00000E+00
    0.37001E+05         0.29159E+08         0.00000E+00
    0.00000E+00         0.00000E+00         0.12548E+08
 
    0.12643E+08         0.42555E+05         0.00000E+00
    0.42555E+05         0.29119E+08         0.00000E+00
    0.00000E+00         0.00000E+00         0.12529E+08
 
    0.12619E+08         0.47789E+05         0.00000E+00
    0.47789E+05         0.29079E+08         0.00000E+00
    0.00000E+00         0.00000E+00         0.12510E+08
 
    0.12596E+08         0.52703E+05         0.00000E+00
    0.52703E+05         0.29039E+08         0.00000E+00
    0.00000E+00         0.00000E+00         0.12490E+08
 
    0.12573E+08         0.57310E+05         0.00000E+00
    0.57310E+05         0.28998E+08         0.00000E+00
    0.00000E+00         0.00000E+00         0.12471E+08
 
    0.12551E+08         0.61634E+05         0.00000E+00
    0.61634E+05         0.28956E+08         0.00000E+00
    0.00000E+00         0.00000E+00         0.12452E+08
 
    0.12529E+08         0.65702E+05         0.00000E+00
    0.65702E+05         0.28914E+08         0.00000E+00
    0.00000E+00         0.00000E+00         0.12433E+08
 
    0.12507E+08         0.69545E+05         0.00000E+00
    0.69545E+05         0.28871E+08         0.00000E+00
    0.00000E+00         0.00000E+00         0.12414E+08
 
    0.12486E+08         0.73190E+05         0.00000E+00
    0.73190E+05         0.28828E+08         0.00000E+00
    0.00000E+00         0.00000E+00         0.12394E+08
 
    0.12465E+08         0.76667E+05         0.00000E+00
    0.76667E+05         0.28784E+08         0.00000E+00
    0.00000E+00         0.00000E+00         0.12375E+08
 
    0.12444E+08         0.80002E+05         0.00000E+00
    0.80002E+05         0.28739E+08         0.00000E+00
    0.00000E+00         0.00000E+00         0.12355E+08
 
    0.12423E+08         0.83216E+05         0.00000E+00
    0.83216E+05         0.28693E+08         0.00000E+00
    0.00000E+00         0.00000E+00         0.12335E+08
 
    0.12403E+08         0.86331E+05         0.00000E+00
    0.86331E+05         0.28647E+08         0.00000E+00
    0.00000E+00         0.00000E+00         0.12315E+08
 
    0.12382E+08         0.89365E+05         0.00000E+00
    0.89365E+05         0.28600E+08         0.00000E+00
    0.00000E+00         0.00000E+00         0.12294E+08
 
    0.12361E+08         0.92334E+05         0.00000E+00
    0.92334E+05         0.28551E+08         0.00000E+00
    0.00000E+00         0.00000E+00         0.12274E+08
 
    0.12340E+08         0.95252E+05         0.00000E+00
    0.95252E+05         0.28502E+08         0.00000E+00
    0.00000E+00         0.00000E+00         0.12253E+08
 
    0.12319E+08         0.98129E+05         0.00000E+00
    0.98129E+05         0.28452E+08         0.00000E+00
    0.00000E+00         0.00000E+00         0.12231E+08
 
    0.12297E+08         0.10098E+06         0.00000E+00
    0.10098E+06         0.28401E+08         0.00000E+00
    0.00000E+00         0.00000E+00         0.12209E+08
 
    0.12276E+08         0.10380E+06         0.00000E+00
    0.10380E+06         0.28348E+08         0.00000E+00
    0.00000E+00         0.00000E+00         0.12187E+08
 
    0.12253E+08         0.10661E+06         0.00000E+00
    0.10661E+06         0.28295E+08         0.00000E+00
    0.00000E+00         0.00000E+00         0.12164E+08
 
    0.12231E+08         0.10942E+06         0.00000E+00
    0.10942E+06         0.28240E+08         0.00000E+00
    0.00000E+00         0.00000E+00         0.12141E+08
 
    0.12208E+08         0.11221E+06         0.00000E+00
    0.11221E+06         0.28184E+08         0.00000E+00
    0.00000E+00         0.00000E+00         0.12118E+08
 
    0.12185E+08         0.11501E+06         0.00000E+00
    0.11501E+06         0.28127E+08         0.00000E+00
    0.00000E+00         0.00000E+00         0.12094E+08
 
    0.12161E+08         0.11782E+06         0.00000E+00
    0.11782E+06         0.28068E+08         0.00000E+00
    0.00000E+00         0.00000E+00         0.12069E+08
 
    0.12137E+08         0.12063E+06         0.00000E+00
    0.12063E+06         0.28008E+08         0.00000E+00
    0.00000E+00         0.00000E+00         0.12044E+08
 
    0.12112E+08         0.12344E+06         0.00000E+00
    0.12344E+06         0.27947E+08         0.00000E+00
    0.00000E+00         0.00000E+00         0.12018E+08
 
    0.12087E+08         0.12627E+06         0.00000E+00
    0.12627E+06         0.27884E+08         0.00000E+00
    0.00000E+00         0.00000E+00         0.11991E+08
 
    0.12061E+08         0.12911E+06         0.00000E+00
    0.12911E+06         0.27820E+08         0.00000E+00
    0.00000E+00         0.00000E+00         0.11964E+08
 
    0.12034E+08         0.13196E+06         0.00000E+00
    0.13196E+06         0.27754E+08         0.00000E+00
    0.00000E+00         0.00000E+00         0.11936E+08
 
    0.12007E+08         0.13482E+06         0.00000E+00
    0.13482E+06         0.27687E+08         0.00000E+00
    0.00000E+00         0.00000E+00         0.11908E+08
 
    0.11979E+08         0.13769E+06         0.00000E+00
    0.13769E+06         0.27618E+08         0.00000E+00
    0.00000E+00         0.00000E+00         0.11879E+08
 
    0.11950E+08         0.14057E+06         0.00000E+00
    0.14057E+06         0.27547E+08         0.00000E+00
    0.00000E+00         0.00000E+00         0.11849E+08
 
    0.11920E+08         0.14346E+06         0.00000E+00
    0.14346E+06         0.27475E+08         0.00000E+00
    0.00000E+00         0.00000E+00         0.11818E+08
 
    0.11890E+08         0.14636E+06         0.00000E+00
    0.14636E+06         0.27401E+08         0.00000E+00
    0.00000E+00         0.00000E+00         0.11787E+08
 
    0.11858E+08         0.14926E+06         0.00000E+00
    0.14926E+06         0.27325E+08         0.00000E+00
    0.00000E+00         0.00000E+00         0.11755E+08
 
    0.11826E+08         0.15216E+06         0.00000E+00
    0.15216E+06         0.27247E+08         0.00000E+00
    0.00000E+00         0.00000E+00         0.11722E+08
 
    0.11793E+08         0.15506E+06         0.00000E+00
    0.15506E+06         0.27168E+08         0.00000E+00
    0.00000E+00         0.00000E+00         0.11688E+08
 
    0.11759E+08         0.15796E+06         0.00000E+00
    0.15796E+06         0.27087E+08         0.00000E+00
    0.00000E+00         0.00000E+00         0.11654E+08
 
    0.11724E+08         0.16084E+06         0.00000E+00
    0.16084E+06         0.27004E+08         0.00000E+00
    0.00000E+00         0.00000E+00         0.11618E+08
 
    0.11688E+08         0.16371E+06         0.00000E+00
    0.16371E+06         0.26919E+08         0.00000E+00
    0.00000E+00         0.00000E+00         0.11582E+08
 
    0.11651E+08         0.16657E+06         0.00000E+00
    0.16657E+06         0.26832E+08         0.00000E+00
    0.00000E+00         0.00000E+00         0.11545E+08
 
    0.11613E+08         0.16940E+06         0.00000E+00
    0.16940E+06         0.26743E+08         0.00000E+00
    0.00000E+00         0.00000E+00         0.11507E+08
 
    0.11573E+08         0.17219E+06         0.00000E+00
    0.17219E+06         0.26652E+08         0.00000E+00
    0.00000E+00         0.00000E+00         0.11468E+08
 
    0.11533E+08         0.17496E+06         0.00000E+00
    0.17496E+06         0.26559E+08         0.00000E+00
    0.00000E+00         0.00000E+00         0.11428E+08
 
    0.11491E+08         0.17767E+06         0.00000E+00
    0.17767E+06         0.26464E+08         0.00000E+00
    0.00000E+00         0.00000E+00         0.11387E+08
 
    0.11449E+08         0.18034E+06         0.00000E+00
    0.18034E+06         0.26367E+08         0.00000E+00
    0.00000E+00         0.00000E+00         0.11345E+08
 
    0.11405E+08         0.18294E+06         0.00000E+00
    0.18294E+06         0.26267E+08         0.00000E+00
    0.00000E+00         0.00000E+00         0.11302E+08
 
    0.11359E+08         0.18548E+06         0.00000E+00
    0.18548E+06         0.26166E+08         0.00000E+00
    0.00000E+00         0.00000E+00         0.11258E+08
 
    0.11313E+08         0.18794E+06         0.00000E+00
    0.18794E+06         0.26063E+08         0.00000E+00
    0.00000E+00         0.00000E+00         0.11213E+08
 
    0.11265E+08         0.19030E+06         0.00000E+00
    0.19030E+06         0.25957E+08         0.00000E+00
    0.00000E+00         0.00000E+00         0.11166E+08
 
    0.11215E+08         0.19257E+06         0.00000E+00
    0.19257E+06         0.25849E+08         0.00000E+00
    0.00000E+00         0.00000E+00         0.11119E+08
 
    0.11164E+08         0.19472E+06         0.00000E+00
    0.19472E+06         0.25739E+08         0.00000E+00
    0.00000E+00         0.00000E+00         0.11071E+08
 
    0.11112E+08         0.19675E+06         0.00000E+00
    0.19675E+06         0.25627E+08         0.00000E+00
    0.00000E+00         0.00000E+00         0.11022E+08
 
    0.11058E+08         0.19863E+06         0.00000E+00
    0.19863E+06         0.25513E+08         0.00000E+00
    0.00000E+00         0.00000E+00         0.10971E+08
 
    0.11003E+08         0.20036E+06         0.00000E+00
    0.20036E+06         0.25396E+08         0.00000E+00
    0.00000E+00         0.00000E+00         0.10920E+08
 
    0.10946E+08         0.20191E+06         0.00000E+00
    0.20191E+06         0.25277E+08         0.00000E+00
    0.00000E+00         0.00000E+00         0.10867E+08
 
    0.10888E+08         0.20328E+06         0.00000E+00
    0.20328E+06         0.25156E+08         0.00000E+00
    0.00000E+00         0.00000E+00         0.10813E+08
 
    0.10827E+08         0.20443E+06         0.00000E+00
    0.20443E+06         0.25033E+08         0.00000E+00
    0.00000E+00         0.00000E+00         0.10758E+08
 
    0.10765E+08         0.20535E+06         0.00000E+00
    0.20535E+06         0.24908E+08         0.00000E+00
    0.00000E+00         0.00000E+00         0.10702E+08
 
    0.10701E+08         0.20601E+06         0.00000E+00
    0.20601E+06         0.24780E+08         0.00000E+00
    0.00000E+00         0.00000E+00         0.10644E+08
 
    0.10636E+08         0.20638E+06         0.00000E+00
    0.20638E+06         0.24650E+08         0.00000E+00
    0.00000E+00         0.00000E+00         0.10586E+08
 
    0.10568E+08         0.20645E+06         0.00000E+00
    0.20645E+06         0.24518E+08         0.00000E+00
    0.00000E+00         0.00000E+00         0.10526E+08
 
    0.10498E+08         0.20616E+06         0.00000E+00
    0.20616E+06         0.24384E+08         0.00000E+00
    0.00000E+00         0.00000E+00         0.10465E+08
 
    0.10427E+08         0.20549E+06         0.00000E+00
    0.20549E+06         0.24248E+08         0.00000E+00
    0.00000E+00         0.00000E+00         0.10402E+08
 
    0.10353E+08         0.20439E+06         0.00000E+00
    0.20439E+06         0.24110E+08         0.00000E+00
    0.00000E+00         0.00000E+00         0.10339E+08
 
    0.10277E+08         0.20281E+06         0.00000E+00
    0.20281E+06         0.23969E+08         0.00000E+00
    0.00000E+00         0.00000E+00         0.10274E+08
 
    0.10198E+08         0.20070E+06         0.00000E+00
    0.20070E+06         0.23827E+08         0.00000E+00
    0.00000E+00         0.00000E+00         0.10208E+08
 
    0.10117E+08         0.19800E+06         0.00000E+00
    0.19800E+06         0.23682E+08         0.00000E+00
    0.00000E+00         0.00000E+00         0.10140E+08
 
    0.10034E+08         0.19463E+06         0.00000E+00
    0.19463E+06         0.23536E+08         0.00000E+00
    0.00000E+00         0.00000E+00         0.10071E+08
 
    0.99478E+07         0.19051E+06         0.00000E+00
    0.19051E+06         0.23387E+08         0.00000E+00
    0.00000E+00         0.00000E+00         0.10000E+08
 
    0.98588E+07         0.18555E+06         0.00000E+00
    0.18555E+06         0.23237E+08         0.00000E+00
    0.00000E+00         0.00000E+00         0.99286E+07
 
    0.97669E+07         0.17965E+06         0.00000E+00
    0.17965E+06         0.23084E+08         0.00000E+00
    0.00000E+00         0.00000E+00         0.98553E+07
 
    0.96719E+07         0.17270E+06         0.00000E+00
    0.17270E+06         0.22930E+08         0.00000E+00
    0.00000E+00         0.00000E+00         0.97805E+07
 
    0.95737E+07         0.16457E+06         0.00000E+00
    0.16457E+06         0.22774E+08         0.00000E+00
    0.00000E+00         0.00000E+00         0.97042E+07
 
    0.94721E+07         0.15515E+06         0.00000E+00
    0.15515E+06         0.22615E+08         0.00000E+00
    0.00000E+00         0.00000E+00         0.96263E+07
 
    0.93668E+07         0.14431E+06         0.00000E+00
    0.14431E+06         0.22456E+08         0.00000E+00
    0.00000E+00         0.00000E+00         0.95468E+07
 
    0.92578E+07         0.13195E+06         0.00000E+00
    0.13195E+06         0.22294E+08         0.00000E+00
    0.00000E+00         0.00000E+00         0.94656E+07
 
    0.91449E+07         0.11796E+06         0.00000E+00
    0.11796E+06         0.22131E+08         0.00000E+00
    0.00000E+00         0.00000E+00         0.93829E+07
 
    0.90279E+07         0.10231E+06         0.00000E+00
    0.10231E+06         0.21967E+08         0.00000E+00
    0.00000E+00         0.00000E+00         0.92985E+07
 
    0.89067E+07         0.85035E+05         0.00000E+00
    0.85035E+05         0.21802E+08         0.00000E+00
    0.00000E+00         0.00000E+00         0.92126E+07
 
    0.87811E+07         0.66256E+05         0.00000E+00
    0.66256E+05         0.21636E+08         0.00000E+00
    0.00000E+00         0.00000E+00         0.91251E+07
 
    0.86512E+07         0.46266E+05         0.00000E+00
    0.46266E+05         0.21469E+08         0.00000E+00
    0.00000E+00         0.00000E+00         0.90362E+07
 
    0.85170E+07         0.25574E+05         0.00000E+00
    0.25574E+05         0.21303E+08         0.00000E+00
    0.00000E+00         0.00000E+00         0.89460E+07
 
    0.83786E+07         0.49931E+04         0.00000E+00
    0.49931E+04         0.21137E+08         0.00000E+00
    0.00000E+00         0.00000E+00         0.88548E+07
 
    0.82366E+07        -0.14250E+05         0.00000E+00
   -0.14250E+05         0.20974E+08         0.00000E+00
    0.00000E+00         0.00000E+00         0.87631E+07
 
    0.80915E+07        -0.30366E+05         0.00000E+00
   -0.30366E+05         0.20813E+08         0.00000E+00
    0.00000E+00         0.00000E+00         0.86713E+07
 
    0.79441E+07        -0.40844E+05         0.00000E+00
   -0.40844E+05         0.20657E+08         0.00000E+00
    0.00000E+00         0.00000E+00         0.85804E+07
 
    0.77947E+07        -0.42540E+05         0.00000E+00
   -0.42540E+05         0.20510E+08         0.00000E+00
    0.00000E+00         0.00000E+00         0.84916E+07
 
    0.76423E+07        -0.32843E+05         0.00000E+00
   -0.32843E+05         0.20380E+08         0.00000E+00
    0.00000E+00         0.00000E+00         0.84066E+07
 
    0.74835E+07        -0.12459E+05         0.00000E+00
   -0.12459E+05         0.20275E+08         0.00000E+00
    0.00000E+00         0.00000E+00         0.83274E+07
 
    0.12971E+08        -0.20635E+04         0.00000E+00
   -0.20635E+04         0.29503E+08         0.00000E+00
    0.00000E+00         0.00000E+00         0.12742E+08
 
    0.12937E+08        -0.51106E+04         0.00000E+00
   -0.51106E+04         0.29480E+08         0.00000E+00
    0.00000E+00         0.00000E+00         0.12725E+08
 
    0.12904E+08        -0.56685E+04         0.00000E+00
   -0.56685E+04         0.29451E+08         0.00000E+00
    0.00000E+00         0.00000E+00         0.12706E+08
 
    0.12873E+08        -0.36714E+04         0.00000E+00
   -0.36714E+04         0.29418E+08         0.00000E+00
    0.00000E+00         0.00000E+00         0.12687E+08
 
    0.12842E+08         0.21416E+03         0.00000E+00
    0.21416E+03         0.29383E+08         0.00000E+00
    0.00000E+00         0.00000E+00         0.12667E+08
 
    0.12811E+08         0.52716E+04         0.00000E+00
    0.52716E+04         0.29348E+08         0.00000E+00
    0.00000E+00         0.00000E+00         0.12648E+08
 
    0.12781E+08         0.10965E+05         0.00000E+00
    0.10965E+05         0.29311E+08         0.00000E+00
    0.00000E+00         0.00000E+00         0.12628E+08
 
    0.12753E+08         0.16925E+05         0.00000E+00
    0.16925E+05         0.29273E+08         0.00000E+00
    0.00000E+00         0.00000E+00         0.12608E+08
 
    0.12725E+08         0.22904E+05         0.00000E+00
    0.22904E+05         0.29235E+08         0.00000E+00
    0.00000E+00         0.00000E+00         0.12588E+08
 
    0.12698E+08         0.28742E+05         0.00000E+00
    0.28742E+05         0.29197E+08         0.00000E+00
    0.00000E+00         0.00000E+00         0.12568E+08
 
    0.12672E+08         0.34340E+05         0.00000E+00
    0.34340E+05         0.29158E+08         0.00000E+00
    0.00000E+00         0.00000E+00         0.12549E+08
 
    0.12647E+08         0.39645E+05         0.00000E+00
    0.39645E+05         0.29118E+08         0.00000E+00
    0.00000E+00         0.00000E+00         0.12529E+08
 
    0.12622E+08         0.44637E+05         0.00000E+00
    0.44637E+05         0.29078E+08         0.00000E+00
    0.00000E+00         0.00000E+00         0.12510E+08
 
    0.12599E+08         0.49316E+05         0.00000E+00
    0.49316E+05         0.29038E+08         0.00000E+00
    0.00000E+00         0.00000E+00         0.12491E+08
 
    0.12576E+08         0.53696E+05         0.00000E+00
    0.53696E+05         0.28997E+08         0.00000E+00
    0.00000E+00         0.00000E+00         0.12472E+08
 
    0.12553E+08         0.57801E+05         0.00000E+00
    0.57801E+05         0.28955E+08         0.00000E+00
    0.00000E+00         0.00000E+00         0.12453E+08
 
    0.12531E+08         0.61658E+05         0.00000E+00
    0.61658E+05         0.28913E+08         0.00000E+00
    0.00000E+00         0.00000E+00         0.12433E+08
 
    0.12510E+08         0.65295E+05         0.00000E+00
    0.65295E+05         0.28871E+08         0.00000E+00
    0.00000E+00         0.00000E+00         0.12414E+08
 
    0.12488E+08         0.68743E+05         0.00000E+00
    0.68743E+05         0.28827E+08         0.00000E+00
    0.00000E+00         0.00000E+00         0.12395E+08
 
    0.12467E+08         0.72027E+05         0.00000E+00
    0.72027E+05         0.28783E+08         0.00000E+00
    0.00000E+00         0.00000E+00         0.12375E+08
 
    0.12447E+08         0.75174E+05         0.00000E+00
    0.75174E+05         0.28738E+08         0.00000E+00
    0.00000E+00         0.00000E+00         0.12355E+08
 
    0.12426E+08         0.78205E+05         0.00000E+00
    0.78205E+05         0.28693E+08         0.00000E+00
    0.00000E+00         0.00000E+00         0.12336E+08
 
    0.12405E+08         0.81141E+05         0.00000E+00
    0.81141E+05         0.28646E+08         0.00000E+00
    0.00000E+00         0.00000E+00         0.12315E+08
 
    0.12384E+08         0.83998E+05         0.00000E+00
    0.83998E+05         0.28599E+08         0.00000E+00
    0.00000E+00         0.00000E+00         0.12295E+08
 
    0.12363E+08         0.86794E+05         0.00000E+00
    0.86794E+05         0.28551E+08         0.00000E+00
    0.00000E+00         0.00000E+00         0.12274E+08
 
    0.12342E+08         0.89539E+05         0.00000E+00
    0.89539E+05         0.28502E+08         0.00000E+00
    0.00000E+00         0.00000E+00         0.12253E+08
 
    0.12321E+08         0.92246E+05         0.00000E+00
    0.92246E+05         0.28451E+08         0.00000E+00
    0.00000E+00         0.00000E+00         0.12232E+08
 
    0.12300E+08         0.94924E+05         0.00000E+00
    0.94924E+05         0.28400E+08         0.00000E+00
    0.00000E+00         0.00000E+00         0.12210E+08
 
    0.12278E+08         0.97581E+05         0.00000E+00
    0.97581E+05         0.28348E+08         0.00000E+00
    0.00000E+00         0.00000E+00         0.12188E+08
 
    0.12256E+08         0.10022E+06         0.00000E+00
    0.10022E+06         0.28294E+08         0.00000E+00
    0.00000E+00         0.00000E+00         0.12165E+08
 
    0.12234E+08         0.10286E+06         0.00000E+00
    0.10286E+06         0.28239E+08         0.00000E+00
    0.00000E+00         0.00000E+00         0.12142E+08
 
    0.12211E+08         0.10549E+06         0.00000E+00
    0.10549E+06         0.28183E+08         0.00000E+00
    0.00000E+00         0.00000E+00         0.12118E+08
 
    0.12188E+08         0.10812E+06         0.00000E+00
    0.10812E+06         0.28126E+08         0.00000E+00
    0.00000E+00         0.00000E+00         0.12094E+08
 
    0.12164E+08         0.11075E+06         0.00000E+00
    0.11075E+06         0.28068E+08         0.00000E+00
    0.00000E+00         0.00000E+00         0.12070E+08
 
    0.12140E+08         0.11339E+06         0.00000E+00
    0.11339E+06         0.28008E+08         0.00000E+00
    0.00000E+00         0.00000E+00         0.12044E+08
 
    0.12115E+08         0.11604E+06         0.00000E+00
    0.11604E+06         0.27946E+08         0.00000E+00
    0.00000E+00         0.00000E+00         0.12018E+08
 
    0.12090E+08         0.11870E+06         0.00000E+00
    0.11870E+06         0.27884E+08         0.00000E+00
    0.00000E+00         0.00000E+00         0.11992E+08
 
    0.12064E+08         0.12136E+06         0.00000E+00
    0.12136E+06         0.27819E+08         0.00000E+00
    0.00000E+00         0.00000E+00         0.11965E+08
 
    0.12037E+08         0.12404E+06         0.00000E+00
    0.12404E+06         0.27753E+08         0.00000E+00
    0.00000E+00         0.00000E+00         0.11937E+08
 
    0.12010E+08         0.12672E+06         0.00000E+00
    0.12672E+06         0.27686E+08         0.00000E+00
    0.00000E+00         0.00000E+00         0.11909E+08
 
    0.11982E+08         0.12942E+06         0.00000E+00
    0.12942E+06         0.27617E+08         0.00000E+00
    0.00000E+00         0.00000E+00         0.11880E+08
 
    0.11953E+08         0.13213E+06         0.00000E+00
    0.13213E+06         0.27546E+08         0.00000E+00
    0.00000E+00         0.00000E+00         0.11850E+08
 
    0.11923E+08         0.13484E+06         0.00000E+00
    0.13484E+06         0.27474E+08         0.00000E+00
    0.00000E+00         0.00000E+00         0.11819E+08
 
    0.11893E+08         0.13756E+06         0.00000E+00
    0.13756E+06         0.27400E+08         0.00000E+00
    0.00000E+00         0.00000E+00         0.11788E+08
 
    0.11862E+08         0.14028E+06         0.00000E+00
    0.14028E+06         0.27324E+08         0.00000E+00
    0.00000E+00         0.00000E+00         0.11756E+08
 
    0.11830E+08         0.14300E+06         0.00000E+00
    0.14300E+06         0.27247E+08         0.00000E+00
    0.00000E+00         0.00000E+00         0.11723E+08
 
    0.11797E+08         0.14572E+06         0.00000E+00
    0.14572E+06         0.27168E+08         0.00000E+00
    0.00000E+00         0.00000E+00         0.11689E+08
 
    0.11763E+08         0.14843E+06         0.00000E+00
    0.14843E+06         0.27086E+08         0.00000E+00
    0.00000E+00         0.00000E+00         0.11655E+08
 
    0.11728E+08         0.15114E+06         0.00000E+00
    0.15114E+06         0.27003E+08         0.00000E+00
    0.00000E+00         0.00000E+00         0.11619E+08
 
    0.11691E+08         0.15383E+06         0.00000E+00
    0.15383E+06         0.26918E+08         0.00000E+00
    0.00000E+00         0.00000E+00         0.11583E+08
 
    0.11654E+08         0.15651E+06         0.00000E+00
    0.15651E+06         0.26831E+08         0.00000E+00
    0.00000E+00         0.00000E+00         0.11546E+08
 
    0.11616E+08         0.15916E+06         0.00000E+00
    0.15916E+06         0.26742E+08         0.00000E+00
    0.00000E+00         0.00000E+00         0.11508E+08
 
    0.11577E+08         0.16178E+06         0.00000E+00
    0.16178E+06         0.26651E+08         0.00000E+00
    0.00000E+00         0.00000E+00         0.11468E+08
 
    0.11537E+08         0.16437E+06         0.00000E+00
    0.16437E+06         0.26558E+08         0.00000E+00
    0.00000E+00         0.00000E+00         0.11428E+08
 
    0.11495E+08         0.16691E+06         0.00000E+00
    0.16691E+06         0.26463E+08         0.00000E+00
    0.00000E+00         0.00000E+00         0.11387E+08
 
    0.11452E+08         0.16941E+06         0.00000E+00
    0.16941E+06         0.26366E+08         0.00000E+00
    0.00000E+00         0.00000E+00         0.11345E+08
 
    0.11408E+08         0.17185E+06         0.00000E+00
    0.17185E+06         0.26267E+08         0.00000E+00
    0.00000E+00         0.00000E+00         0.11303E+08
 
    0.11363E+08         0.17422E+06         0.00000E+00
    0.17422E+06         0.26166E+08         0.00000E+00
    0.00000E+00         0.00000E+00         0.11258E+08
 
    0.11316E+08         0.17652E+06         0.00000E+00
    0.17652E+06         0.26062E+08         0.00000E+00
    0.00000E+00         0.00000E+00         0.11213E+08
 
    0.11268E+08         0.17873E+06         0.00000E+00
    0.17873E+06         0.25956E+08         0.00000E+00
    0.00000E+00         0.00000E+00         0.11167E+08
 
    0.11219E+08         0.18085E+06         0.00000E+00
    0.18085E+06         0.25849E+08         0.00000E+00
    0.00000E+00         0.00000E+00         0.11120E+08
 
    0.11168E+08         0.18286E+06         0.00000E+00
    0.18286E+06         0.25739E+08         0.00000E+00
    0.00000E+00         0.00000E+00         0.11072E+08
 
    0.11115E+08         0.18475E+06         0.00000E+00
    0.18475E+06         0.25627E+08         0.00000E+00
    0.00000E+00         0.00000E+00         0.11023E+08
 
    0.11062E+08         0.18650E+06         0.00000E+00
    0.18650E+06         0.25512E+08         0.00000E+00
    0.00000E+00         0.00000E+00         0.10972E+08
 
    0.11006E+08         0.18811E+06         0.00000E+00
    0.18811E+06         0.25396E+08         0.00000E+00
    0.00000E+00         0.00000E+00         0.10921E+08
 
    0.10949E+08         0.18956E+06         0.00000E+00
    0.18956E+06         0.25277E+08         0.00000E+00
    0.00000E+00         0.00000E+00         0.10868E+08
 
    0.10890E+08         0.19082E+06         0.00000E+00
    0.19082E+06         0.25156E+08         0.00000E+00
    0.00000E+00         0.00000E+00         0.10814E+08
 
    0.10830E+08         0.19189E+06         0.00000E+00
    0.19189E+06         0.25033E+08         0.00000E+00
    0.00000E+00         0.00000E+00         0.10759E+08
 
    0.10768E+08         0.19273E+06         0.00000E+00
    0.19273E+06         0.24907E+08         0.00000E+00
    0.00000E+00         0.00000E+00         0.10703E+08
 
    0.10704E+08         0.19334E+06         0.00000E+00
    0.19334E+06         0.24780E+08         0.00000E+00
    0.00000E+00         0.00000E+00         0.10645E+08
 
    0.10638E+08         0.19367E+06         0.00000E+00
    0.19367E+06         0.24650E+08         0.00000E+00
    0.00000E+00         0.00000E+00         0.10586E+08
 
    0.10570E+08         0.19371E+06         0.00000E+00
    0.19371E+06         0.24518E+08         0.00000E+00
    0.00000E+00         0.00000E+00         0.10527E+08
 
    0.10500E+08         0.19341E+06         0.00000E+00
    0.19341E+06         0.24384E+08         0.00000E+00
    0.00000E+00         0.00000E+00         0.10465E+08
 
    0.10428E+08         0.19276E+06         0.00000E+00
    0.19276E+06         0.24248E+08         0.00000E+00
    0.00000E+00         0.00000E+00         0.10403E+08
 
    0.10354E+08         0.19170E+06         0.00000E+00
    0.19170E+06         0.24110E+08         0.00000E+00
    0.00000E+00         0.00000E+00         0.10339E+08
 
    0.10278E+08         0.19018E+06         0.00000E+00
    0.19018E+06         0.23970E+08         0.00000E+00
    0.00000E+00         0.00000E+00         0.10274E+08
 
    0.10199E+08         0.18817E+06         0.00000E+00
    0.18817E+06         0.23827E+08         0.00000E+00
    0.00000E+00         0.00000E+00         0.10208E+08
 
    0.10118E+08         0.18559E+06         0.00000E+00
    0.18559E+06         0.23683E+08         0.00000E+00
    0.00000E+00         0.00000E+00         0.10140E+08
 
    0.10034E+08         0.18237E+06         0.00000E+00
    0.18237E+06         0.23536E+08         0.00000E+00
    0.00000E+00         0.00000E+00         0.10071E+08
 
    0.99476E+07         0.17844E+06         0.00000E+00
    0.17844E+06         0.23388E+08         0.00000E+00
    0.00000E+00         0.00000E+00         0.10001E+08
 
    0.98582E+07         0.17371E+06         0.00000E+00
    0.17371E+06         0.23238E+08         0.00000E+00
    0.00000E+00         0.00000E+00         0.99288E+07
 
    0.97658E+07         0.16809E+06         0.00000E+00
    0.16809E+06         0.23085E+08         0.00000E+00
    0.00000E+00         0.00000E+00         0.98554E+07
 
    0.96703E+07         0.16145E+06         0.00000E+00
    0.16145E+06         0.22931E+08         0.00000E+00
    0.00000E+00         0.00000E+00         0.97804E+07
 
    0.95714E+07         0.15369E+06         0.00000E+00
    0.15369E+06         0.22775E+08         0.00000E+00
    0.00000E+00         0.00000E+00         0.97040E+07
 
    0.94689E+07         0.14468E+06         0.00000E+00
    0.14468E+06         0.22617E+08         0.00000E+00
    0.00000E+00         0.00000E+00         0.96259E+07
 
    0.93628E+07         0.13430E+06         0.00000E+00
    0.13430E+06         0.22458E+08         0.00000E+00
    0.00000E+00         0.00000E+00         0.95462E+07
 
    0.92528E+07         0.12244E+06         0.00000E+00
    0.12244E+06         0.22297E+08         0.00000E+00
    0.00000E+00         0.00000E+00         0.94649E+07
 
    0.91387E+07         0.10902E+06         0.00000E+00
    0.10902E+06         0.22134E+08         0.00000E+00
    0.00000E+00         0.00000E+00         0.93819E+07
 
    0.90203E+07         0.93990E+05         0.00000E+00
    0.93990E+05         0.21970E+08         0.00000E+00
    0.00000E+00         0.00000E+00         0.92972E+07
 
    0.88975E+07         0.77367E+05         0.00000E+00
    0.77367E+05         0.21805E+08         0.00000E+00
    0.00000E+00         0.00000E+00         0.92109E+07
 
    0.87701E+07         0.59280E+05         0.00000E+00
    0.59280E+05         0.21640E+08         0.00000E+00
    0.00000E+00         0.00000E+00         0.91229E+07
 
    0.86381E+07         0.40001E+05         0.00000E+00
    0.40001E+05         0.21473E+08         0.00000E+00
    0.00000E+00         0.00000E+00         0.90334E+07
 
    0.85016E+07         0.20014E+05         0.00000E+00
    0.20014E+05         0.21307E+08         0.00000E+00
    0.00000E+00         0.00000E+00         0.89426E+07
 
    0.83608E+07         0.94567E+02         0.00000E+00
    0.94567E+02         0.21141E+08         0.00000E+00
    0.00000E+00         0.00000E+00         0.88507E+07
 
    0.82161E+07        -0.18581E+05         0.00000E+00
   -0.18581E+05         0.20977E+08         0.00000E+00
    0.00000E+00         0.00000E+00         0.87580E+07
 
    0.80683E+07        -0.34282E+05         0.00000E+00
   -0.34282E+05         0.20816E+08         0.00000E+00
    0.00000E+00         0.00000E+00         0.86652E+07
 
    0.79185E+07        -0.44508E+05         0.00000E+00
   -0.44508E+05         0.20658E+08         0.00000E+00
    0.00000E+00         0.00000E+00         0.85731E+07
 
    0.77673E+07        -0.45937E+05         0.00000E+00
   -0.45937E+05         0.20510E+08         0.00000E+00
    0.00000E+00         0.00000E+00         0.84831E+07
 
    0.76138E+07        -0.35493E+05         0.00000E+00
   -0.35493E+05         0.20377E+08         0.00000E+00
    0.00000E+00         0.00000E+00         0.83971E+07
 
    0.74546E+07        -0.13500E+05         0.00000E+00
   -0.13500E+05         0.20270E+08         0.00000E+00
    0.00000E+00         0.00000E+00         0.83172E+07
 
    0.12978E+08        -0.23318E+04         0.00000E+00
   -0.23318E+04         0.29504E+08         0.00000E+00
    0.00000E+00         0.00000E+00         0.12745E+08
 
    0.12944E+08        -0.57964E+04         0.00000E+00
   -0.57964E+04         0.29480E+08         0.00000E+00
    0.00000E+00         0.00000E+00         0.12727E+08
 
    0.12912E+08        -0.65667E+04         0.00000E+00
   -0.65667E+04         0.29450E+08         0.00000E+00
    0.00000E+00         0.00000E+00         0.12709E+08
 
    0.12879E+08        -0.46863E+04         0.00000E+00
   -0.46863E+04         0.29417E+08         0.00000E+00
    0.00000E+00         0.00000E+00         0.12689E+08
 
    0.12848E+08        -0.93420E+03         0.00000E+00
   -0.93420E+03         0.29382E+08         0.00000E+00
    0.00000E+00         0.00000E+00         0.12669E+08
 
    0.12817E+08         0.39394E+04         0.00000E+00
    0.39394E+04         0.29346E+08         0.00000E+00
    0.00000E+00         0.00000E+00         0.12649E+08
 
    0.12786E+08         0.94072E+04         0.00000E+00
    0.94072E+04         0.29310E+08         0.00000E+00
    0.00000E+00         0.00000E+00         0.12629E+08
 
    0.12757E+08         0.15116E+05         0.00000E+00
    0.15116E+05         0.29272E+08         0.00000E+00
    0.00000E+00         0.00000E+00         0.12609E+08
 
    0.12729E+08         0.20832E+05         0.00000E+00
    0.20832E+05         0.29234E+08         0.00000E+00
    0.00000E+00         0.00000E+00         0.12589E+08
 
    0.12702E+08         0.26403E+05         0.00000E+00
    0.26403E+05         0.29196E+08         0.00000E+00
    0.00000E+00         0.00000E+00         0.12569E+08
 
    0.12675E+08         0.31736E+05         0.00000E+00
    0.31736E+05         0.29157E+08         0.00000E+00
    0.00000E+00         0.00000E+00         0.12550E+08
 
    0.12650E+08         0.36783E+05         0.00000E+00
    0.36783E+05         0.29117E+08         0.00000E+00
    0.00000E+00         0.00000E+00         0.12530E+08
 
    0.12625E+08         0.41523E+05         0.00000E+00
    0.41523E+05         0.29077E+08         0.00000E+00
    0.00000E+00         0.00000E+00         0.12511E+08
 
    0.12602E+08         0.45960E+05         0.00000E+00
    0.45960E+05         0.29037E+08         0.00000E+00
    0.00000E+00         0.00000E+00         0.12492E+08
 
    0.12578E+08         0.50106E+05         0.00000E+00
    0.50106E+05         0.28996E+08         0.00000E+00
    0.00000E+00         0.00000E+00         0.12472E+08
 
    0.12556E+08         0.53986E+05         0.00000E+00
    0.53986E+05         0.28954E+08         0.00000E+00
    0.00000E+00         0.00000E+00         0.12453E+08
 
    0.12534E+08         0.57626E+05         0.00000E+00
    0.57626E+05         0.28912E+08         0.00000E+00
    0.00000E+00         0.00000E+00         0.12434E+08
 
    0.12512E+08         0.61055E+05         0.00000E+00
    0.61055E+05         0.28870E+08         0.00000E+00
    0.00000E+00         0.00000E+00         0.12415E+08
 
    0.12491E+08         0.64301E+05         0.00000E+00
    0.64301E+05         0.28827E+08         0.00000E+00
    0.00000E+00         0.00000E+00         0.12395E+08
 
    0.12470E+08         0.67390E+05         0.00000E+00
    0.67390E+05         0.28783E+08         0.00000E+00
    0.00000E+00         0.00000E+00         0.12376E+08
 
    0.12449E+08         0.70347E+05         0.00000E+00
    0.70347E+05         0.28738E+08         0.00000E+00
    0.00000E+00         0.00000E+00         0.12356E+08
 
    0.12428E+08         0.73193E+05         0.00000E+00
    0.73193E+05         0.28692E+08         0.00000E+00
    0.00000E+00         0.00000E+00         0.12336E+08
 
    0.12407E+08         0.75947E+05         0.00000E+00
    0.75947E+05         0.28646E+08         0.00000E+00
    0.00000E+00         0.00000E+00         0.12316E+08
 
    0.12387E+08         0.78628E+05         0.00000E+00
    0.78628E+05         0.28599E+08         0.00000E+00
    0.00000E+00         0.00000E+00         0.12296E+08
 
    0.12366E+08         0.81248E+05         0.00000E+00
    0.81248E+05         0.28550E+08         0.00000E+00
    0.00000E+00         0.00000E+00         0.12275E+08
 
    0.12345E+08         0.83821E+05         0.00000E+00
    0.83821E+05         0.28501E+08         0.00000E+00
    0.00000E+00         0.00000E+00         0.12254E+08
 
    0.12324E+08         0.86357E+05         0.00000E+00
    0.86357E+05         0.28451E+08         0.00000E+00
    0.00000E+00         0.00000E+00         0.12232E+08
 
    0.12302E+08         0.88865E+05         0.00000E+00
    0.88865E+05         0.28400E+08         0.00000E+00
    0.00000E+00         0.00000E+00         0.12211E+08
 
    0.12281E+08         0.91353E+05         0.00000E+00
    0.91353E+05         0.28347E+08         0.00000E+00
    0.00000E+00         0.00000E+00         0.12188E+08
 
    0.12259E+08         0.93827E+05         0.00000E+00
    0.93827E+05         0.28294E+08         0.00000E+00
    0.00000E+00         0.00000E+00         0.12166E+08
 
    0.12236E+08         0.96293E+05         0.00000E+00
    0.96293E+05         0.28239E+08         0.00000E+00
    0.00000E+00         0.00000E+00         0.12143E+08
 
    0.12214E+08         0.98755E+05         0.00000E+00
    0.98755E+05         0.28183E+08         0.00000E+00
    0.00000E+00         0.00000E+00         0.12119E+08
 
    0.12191E+08         0.10122E+06         0.00000E+00
    0.10122E+06         0.28126E+08         0.00000E+00
    0.00000E+00         0.00000E+00         0.12095E+08
 
    0.12167E+08         0.10368E+06         0.00000E+00
    0.10368E+06         0.28067E+08         0.00000E+00
    0.00000E+00         0.00000E+00         0.12070E+08
 
    0.12143E+08         0.10615E+06         0.00000E+00
    0.10615E+06         0.28007E+08         0.00000E+00
    0.00000E+00         0.00000E+00         0.12045E+08
 
    0.12118E+08         0.10863E+06         0.00000E+00
    0.10863E+06         0.27946E+08         0.00000E+00
    0.00000E+00         0.00000E+00         0.12019E+08
 
    0.12093E+08         0.11111E+06         0.00000E+00
    0.11111E+06         0.27883E+08         0.00000E+00
    0.00000E+00         0.00000E+00         0.11993E+08
 
    0.12067E+08         0.11361E+06         0.00000E+00
    0.11361E+06         0.27819E+08         0.00000E+00
    0.00000E+00         0.00000E+00         0.11966E+08
 
    0.12040E+08         0.11611E+06         0.00000E+00
    0.11611E+06         0.27753E+08         0.00000E+00
    0.00000E+00         0.00000E+00         0.11938E+08
 
    0.12013E+08         0.11862E+06         0.00000E+00
    0.11862E+06         0.27686E+08         0.00000E+00
    0.00000E+00         0.00000E+00         0.11910E+08
 
    0.11985E+08         0.12114E+06         0.00000E+00
    0.12114E+06         0.27617E+08         0.00000E+00
    0.00000E+00         0.00000E+00         0.11880E+08
 
    0.11956E+08         0.12367E+06         0.00000E+00
    0.12367E+06         0.27546E+08         0.00000E+00
    0.00000E+00         0.00000E+00         0.11851E+08
 
    0.11927E+08         0.12620E+06         0.00000E+00
    0.12620E+06         0.27474E+08         0.00000E+00
    0.00000E+00         0.00000E+00         0.11820E+08
 
    0.11896E+08         0.12874E+06         0.00000E+00
    0.12874E+06         0.27400E+08         0.00000E+00
    0.00000E+00         0.00000E+00         0.11789E+08
 
    0.11865E+08         0.13129E+06         0.00000E+00
    0.13129E+06         0.27324E+08         0.00000E+00
    0.00000E+00         0.00000E+00         0.11757E+08
 
    0.11833E+08         0.13383E+06         0.00000E+00
    0.13383E+06         0.27246E+08         0.00000E+00
    0.00000E+00         0.00000E+00         0.11724E+08
 
    0.11800E+08         0.13637E+06         0.00000E+00
    0.13637E+06         0.27167E+08         0.00000E+00
    0.00000E+00         0.00000E+00         0.11690E+08
 
    0.11766E+08         0.13891E+06         0.00000E+00
    0.13891E+06         0.27086E+08         0.00000E+00
    0.00000E+00         0.00000E+00         0.11656E+08
 
    0.11731E+08         0.14143E+06         0.00000E+00
    0.14143E+06         0.27003E+08         0.00000E+00
    0.00000E+00         0.00000E+00         0.11620E+08
 
    0.11695E+08         0.14395E+06         0.00000E+00
    0.14395E+06         0.26918E+08         0.00000E+00
    0.00000E+00         0.00000E+00         0.11584E+08
 
    0.11658E+08         0.14645E+06         0.00000E+00
    0.14645E+06         0.26831E+08         0.00000E+00
    0.00000E+00         0.00000E+00         0.11547E+08
 
    0.11620E+08         0.14892E+06         0.00000E+00
    0.14892E+06         0.26742E+08         0.00000E+00
    0.00000E+00         0.00000E+00         0.11508E+08
 
    0.11580E+08         0.15137E+06         0.00000E+00
    0.15137E+06         0.26651E+08         0.00000E+00
    0.00000E+00         0.00000E+00         0.11469E+08
 
    0.11540E+08         0.15378E+06         0.00000E+00
    0.15378E+06         0.26558E+08         0.00000E+00
    0.00000E+00         0.00000E+00         0.11429E+08
 
    0.11498E+08         0.15615E+06         0.00000E+00
    0.15615E+06         0.26463E+08         0.00000E+00
    0.00000E+00         0.00000E+00         0.11388E+08
 
    0.11456E+08         0.15848E+06         0.00000E+00
    0.15848E+06         0.26366E+08         0.00000E+00
    0.00000E+00         0.00000E+00         0.11346E+08
 
    0.11412E+08         0.16075E+06         0.00000E+00
    0.16075E+06         0.26266E+08         0.00000E+00
    0.00000E+00         0.00000E+00         0.11303E+08
 
    0.11366E+08         0.16297E+06         0.00000E+00
    0.16297E+06         0.26165E+08         0.00000E+00
    0.00000E+00         0.00000E+00         0.11259E+08
 
    0.11320E+08         0.16511E+06         0.00000E+00
    0.16511E+06         0.26062E+08         0.00000E+00
    0.00000E+00         0.00000E+00         0.11214E+08
 
    0.11271E+08         0.16717E+06         0.00000E+00
    0.16717E+06         0.25956E+08         0.00000E+00
    0.00000E+00         0.00000E+00         0.11168E+08
 
    0.11222E+08         0.16914E+06         0.00000E+00
    0.16914E+06         0.25848E+08         0.00000E+00
    0.00000E+00         0.00000E+00         0.11121E+08
 
    0.11171E+08         0.17100E+06         0.00000E+00
    0.17100E+06         0.25738E+08         0.00000E+00
    0.00000E+00         0.00000E+00         0.11073E+08
 
    0.11119E+08         0.17276E+06         0.00000E+00
    0.17276E+06         0.25626E+08         0.00000E+00
    0.00000E+00         0.00000E+00         0.11023E+08
 
    0.11065E+08         0.17439E+06         0.00000E+00
    0.17439E+06         0.25512E+08         0.00000E+00
    0.00000E+00         0.00000E+00         0.10973E+08
 
    0.11009E+08         0.17589E+06         0.00000E+00
    0.17589E+06         0.25395E+08         0.00000E+00
    0.00000E+00         0.00000E+00         0.10921E+08
 
    0.10952E+08         0.17722E+06         0.00000E+00
    0.17722E+06         0.25277E+08         0.00000E+00
    0.00000E+00         0.00000E+00         0.10869E+08
 
    0.10893E+08         0.17839E+06         0.00000E+00
    0.17839E+06         0.25156E+08         0.00000E+00
    0.00000E+00         0.00000E+00         0.10815E+08
 
    0.10833E+08         0.17937E+06         0.00000E+00
    0.17937E+06         0.25033E+08         0.00000E+00
    0.00000E+00         0.00000E+00         0.10760E+08
 
    0.10771E+08         0.18015E+06         0.00000E+00
    0.18015E+06         0.24907E+08         0.00000E+00
    0.00000E+00         0.00000E+00         0.10703E+08
 
    0.10706E+08         0.18069E+06         0.00000E+00
    0.18069E+06         0.24780E+08         0.00000E+00
    0.00000E+00         0.00000E+00         0.10646E+08
 
    0.10640E+08         0.18099E+06         0.00000E+00
    0.18099E+06         0.24650E+08         0.00000E+00
    0.00000E+00         0.00000E+00         0.10587E+08
 
    0.10572E+08         0.18100E+06         0.00000E+00
    0.18100E+06         0.24518E+08         0.00000E+00
    0.00000E+00         0.00000E+00         0.10527E+08
 
    0.10502E+08         0.18071E+06         0.00000E+00
    0.18071E+06         0.24384E+08         0.00000E+00
    0.00000E+00         0.00000E+00         0.10466E+08
 
    0.10430E+08         0.18007E+06         0.00000E+00
    0.18007E+06         0.24248E+08         0.00000E+00
    0.00000E+00         0.00000E+00         0.10404E+08
 
    0.10356E+08         0.17906E+06         0.00000E+00
    0.17906E+06         0.24110E+08         0.00000E+00
    0.00000E+00         0.00000E+00         0.10340E+08
 
    0.10279E+08         0.17761E+06         0.00000E+00
    0.17761E+06         0.23970E+08         0.00000E+00
    0.00000E+00         0.00000E+00         0.10275E+08
 
    0.10200E+08         0.17569E+06         0.00000E+00
    0.17569E+06         0.23828E+08         0.00000E+00
    0.00000E+00         0.00000E+00         0.10208E+08
 
    0.10119E+08         0.17324E+06         0.00000E+00
    0.17324E+06         0.23683E+08         0.00000E+00
    0.00000E+00         0.00000E+00         0.10141E+08
 
    0.10035E+08         0.17019E+06         0.00000E+00
    0.17019E+06         0.23537E+08         0.00000E+00
    0.00000E+00         0.00000E+00         0.10071E+08
 
    0.99476E+07         0.16646E+06         0.00000E+00
    0.16646E+06         0.23389E+08         0.00000E+00
    0.00000E+00         0.00000E+00         0.10001E+08
 
    0.98578E+07         0.16197E+06         0.00000E+00
    0.16197E+06         0.23239E+08         0.00000E+00
    0.00000E+00         0.00000E+00         0.99289E+07
 
    0.97649E+07         0.15663E+06         0.00000E+00
    0.15663E+06         0.23087E+08         0.00000E+00
    0.00000E+00         0.00000E+00         0.98554E+07
 
    0.96688E+07         0.15032E+06         0.00000E+00
    0.15032E+06         0.22933E+08         0.00000E+00
    0.00000E+00         0.00000E+00         0.97804E+07
 
    0.95692E+07         0.14294E+06         0.00000E+00
    0.14294E+06         0.22777E+08         0.00000E+00
    0.00000E+00         0.00000E+00         0.97038E+07
 
    0.94660E+07         0.13436E+06         0.00000E+00
    0.13436E+06         0.22619E+08         0.00000E+00
    0.00000E+00         0.00000E+00         0.96256E+07
 
    0.93590E+07         0.12447E+06         0.00000E+00
    0.12447E+06         0.22460E+08         0.00000E+00
    0.00000E+00         0.00000E+00         0.95458E+07
 
    0.92480E+07         0.11316E+06         0.00000E+00
    0.11316E+06         0.22299E+08         0.00000E+00
    0.00000E+00         0.00000E+00         0.94642E+07
 
    0.91327E+07         0.10034E+06         0.00000E+00
    0.10034E+06         0.22137E+08         0.00000E+00
    0.00000E+00         0.00000E+00         0.93809E+07
 
    0.90130E+07         0.85960E+05         0.00000E+00
    0.85960E+05         0.21974E+08         0.00000E+00
    0.00000E+00         0.00000E+00         0.92959E+07
 
    0.88886E+07         0.70039E+05         0.00000E+00
    0.70039E+05         0.21809E+08         0.00000E+00
    0.00000E+00         0.00000E+00         0.92092E+07
 
    0.87594E+07         0.52691E+05         0.00000E+00
    0.52691E+05         0.21643E+08         0.00000E+00
    0.00000E+00         0.00000E+00         0.91208E+07
 
    0.86254E+07         0.34172E+05         0.00000E+00
    0.34172E+05         0.21477E+08         0.00000E+00
    0.00000E+00         0.00000E+00         0.90308E+07
 
    0.84865E+07         0.14938E+05         0.00000E+00
    0.14938E+05         0.21311E+08         0.00000E+00
    0.00000E+00         0.00000E+00         0.89393E+07
 
    0.83431E+07        -0.42787E+04         0.00000E+00
   -0.42787E+04         0.21145E+08         0.00000E+00
    0.00000E+00         0.00000E+00         0.88465E+07
 
    0.81957E+07        -0.22363E+05         0.00000E+00
   -0.22363E+05         0.20981E+08         0.00000E+00
    0.00000E+00         0.00000E+00         0.87529E+07
 
    0.80451E+07        -0.37656E+05         0.00000E+00
   -0.37656E+05         0.20818E+08         0.00000E+00
    0.00000E+00         0.00000E+00         0.86590E+07
 
    0.78926E+07        -0.47702E+05         0.00000E+00
   -0.47702E+05         0.20660E+08         0.00000E+00
    0.00000E+00         0.00000E+00         0.85657E+07
 
    0.77393E+07        -0.49024E+05         0.00000E+00
   -0.49024E+05         0.20509E+08         0.00000E+00
    0.00000E+00         0.00000E+00         0.84744E+07
 
    0.75846E+07        -0.38025E+05         0.00000E+00
   -0.38025E+05         0.20373E+08         0.00000E+00
    0.00000E+00         0.00000E+00         0.83873E+07
 
    0.74252E+07        -0.14528E+05         0.00000E+00
   -0.14528E+05         0.20264E+08         0.00000E+00
    0.00000E+00         0.00000E+00         0.83068E+07
 
    0.12986E+08        -0.25981E+04         0.00000E+00
   -0.25981E+04         0.29505E+08         0.00000E+00
    0.00000E+00         0.00000E+00         0.12747E+08
 
    0.12952E+08        -0.64555E+04         0.00000E+00
   -0.64555E+04         0.29481E+08         0.00000E+00
    0.00000E+00         0.00000E+00         0.12730E+08
 
    0.12919E+08        -0.73932E+04         0.00000E+00
   -0.73932E+04         0.29450E+08         0.00000E+00
    0.00000E+00         0.00000E+00         0.12711E+08
 
    0.12886E+08        -0.55960E+04         0.00000E+00
   -0.55960E+04         0.29417E+08         0.00000E+00
    0.00000E+00         0.00000E+00         0.12691E+08
 
    0.12854E+08        -0.19663E+04         0.00000E+00
   -0.19663E+04         0.29382E+08         0.00000E+00
    0.00000E+00         0.00000E+00         0.12671E+08
 
    0.12822E+08         0.27208E+04         0.00000E+00
    0.27208E+04         0.29345E+08         0.00000E+00
    0.00000E+00         0.00000E+00         0.12650E+08
 
    0.12791E+08         0.79546E+04         0.00000E+00
    0.79546E+04         0.29309E+08         0.00000E+00
    0.00000E+00         0.00000E+00         0.12630E+08
 
    0.12762E+08         0.13402E+05         0.00000E+00
    0.13402E+05         0.29271E+08         0.00000E+00
    0.00000E+00         0.00000E+00         0.12610E+08
 
    0.12733E+08         0.18842E+05         0.00000E+00
    0.18842E+05         0.29233E+08         0.00000E+00
    0.00000E+00         0.00000E+00         0.12590E+08
 
    0.12705E+08         0.24133E+05         0.00000E+00
    0.24133E+05         0.29195E+08         0.00000E+00
    0.00000E+00         0.00000E+00         0.12570E+08
 
    0.12679E+08         0.29190E+05         0.00000E+00
    0.29190E+05         0.29156E+08         0.00000E+00
    0.00000E+00         0.00000E+00         0.12550E+08
 
    0.12653E+08         0.33967E+05         0.00000E+00
    0.33967E+05         0.29116E+08         0.00000E+00
    0.00000E+00         0.00000E+00         0.12531E+08
 
    0.12628E+08         0.38448E+05         0.00000E+00
    0.38448E+05         0.29076E+08         0.00000E+00
    0.00000E+00         0.00000E+00         0.12511E+08
 
    0.12604E+08         0.42633E+05         0.00000E+00
    0.42633E+05         0.29036E+08         0.00000E+00
    0.00000E+00         0.00000E+00         0.12492E+08
 
    0.12581E+08         0.46539E+05         0.00000E+00
    0.46539E+05         0.28995E+08         0.00000E+00
    0.00000E+00         0.00000E+00         0.12473E+08
 
    0.12558E+08         0.50188E+05         0.00000E+00
    0.50188E+05         0.28954E+08         0.00000E+00
    0.00000E+00         0.00000E+00         0.12454E+08
 
    0.12536E+08         0.53607E+05         0.00000E+00
    0.53607E+05         0.28912E+08         0.00000E+00
    0.00000E+00         0.00000E+00         0.12434E+08
 
    0.12515E+08         0.56824E+05         0.00000E+00
    0.56824E+05         0.28869E+08         0.00000E+00
    0.00000E+00         0.00000E+00         0.12415E+08
 
    0.12493E+08         0.59864E+05         0.00000E+00
    0.59864E+05         0.28826E+08         0.00000E+00
    0.00000E+00         0.00000E+00         0.12396E+08
 
    0.12472E+08         0.62755E+05         0.00000E+00
    0.62755E+05         0.28782E+08         0.00000E+00
    0.00000E+00         0.00000E+00         0.12376E+08
 
    0.12451E+08         0.65520E+05         0.00000E+00
    0.65520E+05         0.28737E+08         0.00000E+00
    0.00000E+00         0.00000E+00         0.12357E+08
 
    0.12431E+08         0.68179E+05         0.00000E+00
    0.68179E+05         0.28692E+08         0.00000E+00
    0.00000E+00         0.00000E+00         0.12337E+08
 
    0.12410E+08         0.70751E+05         0.00000E+00
    0.70751E+05         0.28645E+08         0.00000E+00
    0.00000E+00         0.00000E+00         0.12317E+08
 
    0.12389E+08         0.73252E+05         0.00000E+00
    0.73252E+05         0.28598E+08         0.00000E+00
    0.00000E+00         0.00000E+00         0.12296E+08
 
    0.12368E+08         0.75697E+05         0.00000E+00
    0.75697E+05         0.28550E+08         0.00000E+00
    0.00000E+00         0.00000E+00         0.12275E+08
 
    0.12347E+08         0.78096E+05         0.00000E+00
    0.78096E+05         0.28501E+08         0.00000E+00
    0.00000E+00         0.00000E+00         0.12254E+08
 
    0.12326E+08         0.80460E+05         0.00000E+00
    0.80460E+05         0.28450E+08         0.00000E+00
    0.00000E+00         0.00000E+00         0.12233E+08
 
    0.12305E+08         0.82798E+05         0.00000E+00
    0.82798E+05         0.28399E+08         0.00000E+00
    0.00000E+00         0.00000E+00         0.12211E+08
 
    0.12283E+08         0.85117E+05         0.00000E+00
    0.85117E+05         0.28347E+08         0.00000E+00
    0.00000E+00         0.00000E+00         0.12189E+08
 
    0.12261E+08         0.87422E+05         0.00000E+00
    0.87422E+05         0.28293E+08         0.00000E+00
    0.00000E+00         0.00000E+00         0.12166E+08
 
    0.12239E+08         0.89719E+05         0.00000E+00
    0.89719E+05         0.28238E+08         0.00000E+00
    0.00000E+00         0.00000E+00         0.12143E+08
 
    0.12216E+08         0.92013E+05         0.00000E+00
    0.92013E+05         0.28183E+08         0.00000E+00
    0.00000E+00         0.00000E+00         0.12120E+08
 
    0.12193E+08         0.94305E+05         0.00000E+00
    0.94305E+05         0.28125E+08         0.00000E+00
    0.00000E+00         0.00000E+00         0.12096E+08
 
    0.12170E+08         0.96600E+05         0.00000E+00
    0.96600E+05         0.28067E+08         0.00000E+00
    0.00000E+00         0.00000E+00         0.12071E+08
 
    0.12146E+08         0.98900E+05         0.00000E+00
    0.98900E+05         0.28007E+08         0.00000E+00
    0.00000E+00         0.00000E+00         0.12046E+08
 
    0.12121E+08         0.10121E+06         0.00000E+00
    0.10121E+06         0.27945E+08         0.00000E+00
    0.00000E+00         0.00000E+00         0.12020E+08
 
    0.12096E+08         0.10352E+06         0.00000E+00
    0.10352E+06         0.27883E+08         0.00000E+00
    0.00000E+00         0.00000E+00         0.11993E+08
 
    0.12070E+08         0.10584E+06         0.00000E+00
    0.10584E+06         0.27818E+08         0.00000E+00
    0.00000E+00         0.00000E+00         0.11966E+08
 
    0.12043E+08         0.10817E+06         0.00000E+00
    0.10817E+06         0.27752E+08         0.00000E+00
    0.00000E+00         0.00000E+00         0.11939E+08
 
    0.12016E+08         0.11051E+06         0.00000E+00
    0.11051E+06         0.27685E+08         0.00000E+00
    0.00000E+00         0.00000E+00         0.11910E+08
 
    0.11988E+08         0.11285E+06         0.00000E+00
    0.11285E+06         0.27616E+08         0.00000E+00
    0.00000E+00         0.00000E+00         0.11881E+08
 
    0.11959E+08         0.11520E+06         0.00000E+00
    0.11520E+06         0.27545E+08         0.00000E+00
    0.00000E+00         0.00000E+00         0.11851E+08
 
    0.11930E+08         0.11756E+06         0.00000E+00
    0.11756E+06         0.27473E+08         0.00000E+00
    0.00000E+00         0.00000E+00         0.11821E+08
 
    0.11900E+08         0.11992E+06         0.00000E+00
    0.11992E+06         0.27399E+08         0.00000E+00
    0.00000E+00         0.00000E+00         0.11790E+08
 
    0.11868E+08         0.12229E+06         0.00000E+00
    0.12229E+06         0.27323E+08         0.00000E+00
    0.00000E+00         0.00000E+00         0.11758E+08
 
    0.11836E+08         0.12465E+06         0.00000E+00
    0.12465E+06         0.27246E+08         0.00000E+00
    0.00000E+00         0.00000E+00         0.11725E+08
 
    0.11803E+08         0.12702E+06         0.00000E+00
    0.12702E+06         0.27166E+08         0.00000E+00
    0.00000E+00         0.00000E+00         0.11691E+08
 
    0.11769E+08         0.12937E+06         0.00000E+00
    0.12937E+06         0.27085E+08         0.00000E+00
    0.00000E+00         0.00000E+00         0.11656E+08
 
    0.11734E+08         0.13172E+06         0.00000E+00
    0.13172E+06         0.27002E+08         0.00000E+00
    0.00000E+00         0.00000E+00         0.11621E+08
 
    0.11698E+08         0.13406E+06         0.00000E+00
    0.13406E+06         0.26917E+08         0.00000E+00
    0.00000E+00         0.00000E+00         0.11585E+08
 
    0.11661E+08         0.13638E+06         0.00000E+00
    0.13638E+06         0.26830E+08         0.00000E+00
    0.00000E+00         0.00000E+00         0.11547E+08
 
    0.11623E+08         0.13868E+06         0.00000E+00
    0.13868E+06         0.26741E+08         0.00000E+00
    0.00000E+00         0.00000E+00         0.11509E+08
 
    0.11584E+08         0.14095E+06         0.00000E+00
    0.14095E+06         0.26650E+08         0.00000E+00
    0.00000E+00         0.00000E+00         0.11470E+08
 
    0.11544E+08         0.14319E+06         0.00000E+00
    0.14319E+06         0.26557E+08         0.00000E+00
    0.00000E+00         0.00000E+00         0.11430E+08
 
    0.11502E+08         0.14539E+06         0.00000E+00
    0.14539E+06         0.26462E+08         0.00000E+00
    0.00000E+00         0.00000E+00         0.11389E+08
 
    0.11459E+08         0.14755E+06         0.00000E+00
    0.14755E+06         0.26365E+08         0.00000E+00
    0.00000E+00         0.00000E+00         0.11347E+08
 
    0.11415E+08         0.14966E+06         0.00000E+00
    0.14966E+06         0.26266E+08         0.00000E+00
    0.00000E+00         0.00000E+00         0.11304E+08
 
    0.11370E+08         0.15171E+06         0.00000E+00
    0.15171E+06         0.26165E+08         0.00000E+00
    0.00000E+00         0.00000E+00         0.11260E+08
 
    0.11323E+08         0.15370E+06         0.00000E+00
    0.15370E+06         0.26061E+08         0.00000E+00
    0.00000E+00         0.00000E+00         0.11215E+08
 
    0.11275E+08         0.15561E+06         0.00000E+00
    0.15561E+06         0.25956E+08         0.00000E+00
    0.00000E+00         0.00000E+00         0.11169E+08
 
    0.11225E+08         0.15743E+06         0.00000E+00
    0.15743E+06         0.25848E+08         0.00000E+00
    0.00000E+00         0.00000E+00         0.11122E+08
 
    0.11174E+08         0.15916E+06         0.00000E+00
    0.15916E+06         0.25738E+08         0.00000E+00
    0.00000E+00         0.00000E+00         0.11074E+08
 
    0.11122E+08         0.16079E+06         0.00000E+00
    0.16079E+06         0.25626E+08         0.00000E+00
    0.00000E+00         0.00000E+00         0.11024E+08
 
    0.11068E+08         0.16230E+06         0.00000E+00
    0.16230E+06         0.25512E+08         0.00000E+00
    0.00000E+00         0.00000E+00         0.10974E+08
 
    0.11012E+08         0.16367E+06         0.00000E+00
    0.16367E+06         0.25395E+08         0.00000E+00
    0.00000E+00         0.00000E+00         0.10922E+08
 
    0.10955E+08         0.16491E+06         0.00000E+00
    0.16491E+06         0.25276E+08         0.00000E+00
    0.00000E+00         0.00000E+00         0.10869E+08
 
    0.10896E+08         0.16598E+06         0.00000E+00
    0.16598E+06         0.25155E+08         0.00000E+00
    0.00000E+00         0.00000E+00         0.10816E+08
 
    0.10836E+08         0.16688E+06         0.00000E+00
    0.16688E+06         0.25032E+08         0.00000E+00
    0.00000E+00         0.00000E+00         0.10760E+08
 
    0.10773E+08         0.16759E+06         0.00000E+00
    0.16759E+06         0.24907E+08         0.00000E+00
    0.00000E+00         0.00000E+00         0.10704E+08
 
    0.10709E+08         0.16808E+06         0.00000E+00
    0.16808E+06         0.24780E+08         0.00000E+00
    0.00000E+00         0.00000E+00         0.10647E+08
 
    0.10643E+08         0.16834E+06         0.00000E+00
    0.16834E+06         0.24650E+08         0.00000E+00
    0.00000E+00         0.00000E+00         0.10588E+08
 
    0.10575E+08         0.16834E+06         0.00000E+00
    0.16834E+06         0.24518E+08         0.00000E+00
    0.00000E+00         0.00000E+00         0.10528E+08
 
    0.10504E+08         0.16804E+06         0.00000E+00
    0.16804E+06         0.24384E+08         0.00000E+00
    0.00000E+00         0.00000E+00         0.10467E+08
 
    0.10432E+08         0.16743E+06         0.00000E+00
    0.16743E+06         0.24249E+08         0.00000E+00
    0.00000E+00         0.00000E+00         0.10404E+08
 
    0.10358E+08         0.16646E+06         0.00000E+00
    0.16646E+06         0.24110E+08         0.00000E+00
    0.00000E+00         0.00000E+00         0.10340E+08
 
    0.10281E+08         0.16509E+06         0.00000E+00
    0.16509E+06         0.23970E+08         0.00000E+00
    0.00000E+00         0.00000E+00         0.10275E+08
 
    0.10201E+08         0.16328E+06         0.00000E+00
    0.16328E+06         0.23828E+08         0.00000E+00
    0.00000E+00         0.00000E+00         0.10209E+08
 
    0.10120E+08         0.16096E+06         0.00000E+00
    0.16096E+06         0.23684E+08         0.00000E+00
    0.00000E+00         0.00000E+00         0.10141E+08
 
    0.10035E+08         0.15808E+06         0.00000E+00
    0.15808E+06         0.23538E+08         0.00000E+00
    0.00000E+00         0.00000E+00         0.10072E+08
 
    0.99478E+07         0.15456E+06         0.00000E+00
    0.15456E+06         0.23390E+08         0.00000E+00
    0.00000E+00         0.00000E+00         0.10001E+08
 
    0.98575E+07         0.15032E+06         0.00000E+00
    0.15032E+06         0.23240E+08         0.00000E+00
    0.00000E+00         0.00000E+00         0.99291E+07
 
    0.97641E+07         0.14528E+06         0.00000E+00
    0.14528E+06         0.23088E+08         0.00000E+00
    0.00000E+00         0.00000E+00         0.98555E+07
 
    0.96675E+07         0.13931E+06         0.00000E+00
    0.13931E+06         0.22934E+08         0.00000E+00
    0.00000E+00         0.00000E+00         0.97804E+07
 
    0.95673E+07         0.13233E+06         0.00000E+00
    0.13233E+06         0.22778E+08         0.00000E+00
    0.00000E+00         0.00000E+00         0.97037E+07
 
    0.94634E+07         0.12421E+06         0.00000E+00
    0.12421E+06         0.22621E+08         0.00000E+00
    0.00000E+00         0.00000E+00         0.96254E+07
 
    0.93555E+07         0.11483E+06         0.00000E+00
    0.11483E+06         0.22462E+08         0.00000E+00
    0.00000E+00         0.00000E+00         0.95453E+07
 
    0.92435E+07         0.10409E+06         0.00000E+00
    0.10409E+06         0.22302E+08         0.00000E+00
    0.00000E+00         0.00000E+00         0.94636E+07
 
    0.91270E+07         0.91908E+05         0.00000E+00
    0.91908E+05         0.22140E+08         0.00000E+00
    0.00000E+00         0.00000E+00         0.93800E+07
 
    0.90059E+07         0.78222E+05         0.00000E+00
    0.78222E+05         0.21976E+08         0.00000E+00
    0.00000E+00         0.00000E+00         0.92947E+07
 
    0.88800E+07         0.63048E+05         0.00000E+00
    0.63048E+05         0.21812E+08         0.00000E+00
    0.00000E+00         0.00000E+00         0.92076E+07
 
    0.87490E+07         0.46490E+05         0.00000E+00
    0.46490E+05         0.21647E+08         0.00000E+00
    0.00000E+00         0.00000E+00         0.91187E+07
 
    0.86129E+07         0.28783E+05         0.00000E+00
    0.28783E+05         0.21481E+08         0.00000E+00
    0.00000E+00         0.00000E+00         0.90281E+07
 
    0.84717E+07         0.10355E+05         0.00000E+00
    0.10355E+05         0.21315E+08         0.00000E+00
    0.00000E+00         0.00000E+00         0.89360E+07
 
    0.83257E+07        -0.81118E+04         0.00000E+00
   -0.81118E+04         0.21149E+08         0.00000E+00
    0.00000E+00         0.00000E+00         0.88424E+07
 
    0.81754E+07        -0.25570E+05         0.00000E+00
   -0.25570E+05         0.20984E+08         0.00000E+00
    0.00000E+00         0.00000E+00         0.87479E+07
 
    0.80219E+07        -0.40452E+05         0.00000E+00
   -0.40452E+05         0.20821E+08         0.00000E+00
    0.00000E+00         0.00000E+00         0.86528E+07
 
    0.78665E+07        -0.50377E+05         0.00000E+00
   -0.50377E+05         0.20661E+08         0.00000E+00
    0.00000E+00         0.00000E+00         0.85583E+07
 
    0.77108E+07        -0.51755E+05         0.00000E+00
   -0.51755E+05         0.20508E+08         0.00000E+00
    0.00000E+00         0.00000E+00         0.84656E+07
 
    0.75548E+07        -0.40420E+05         0.00000E+00
   -0.40420E+05         0.20369E+08         0.00000E+00
    0.00000E+00         0.00000E+00         0.83772E+07
 
    0.73949E+07        -0.15542E+05         0.00000E+00
   -0.15542E+05         0.20258E+08         0.00000E+00
    0.00000E+00         0.00000E+00         0.82959E+07
 
    0.12994E+08        -0.28621E+04         0.00000E+00
   -0.28621E+04         0.29506E+08         0.00000E+00
    0.00000E+00         0.00000E+00         0.12750E+08
 
    0.12959E+08        -0.70823E+04         0.00000E+00
   -0.70823E+04         0.29481E+08         0.00000E+00
    0.00000E+00         0.00000E+00         0.12732E+08
 
    0.12926E+08        -0.81356E+04         0.00000E+00
   -0.81356E+04         0.29450E+08         0.00000E+00
    0.00000E+00         0.00000E+00         0.12713E+08
 
    0.12893E+08        -0.63885E+04         0.00000E+00
   -0.63885E+04         0.29416E+08         0.00000E+00
    0.00000E+00         0.00000E+00         0.12693E+08
 
    0.12860E+08        -0.28737E+04         0.00000E+00
   -0.28737E+04         0.29381E+08         0.00000E+00
    0.00000E+00         0.00000E+00         0.12672E+08
 
    0.12828E+08         0.16211E+04         0.00000E+00
    0.16211E+04         0.29344E+08         0.00000E+00
    0.00000E+00         0.00000E+00         0.12652E+08
 
    0.12796E+08         0.66099E+04         0.00000E+00
    0.66099E+04         0.29307E+08         0.00000E+00
    0.00000E+00         0.00000E+00         0.12631E+08
 
    0.12766E+08         0.11782E+05         0.00000E+00
    0.11782E+05         0.29270E+08         0.00000E+00
    0.00000E+00         0.00000E+00         0.12611E+08
 
    0.12737E+08         0.16933E+05         0.00000E+00
    0.16933E+05         0.29232E+08         0.00000E+00
    0.00000E+00         0.00000E+00         0.12591E+08
 
    0.12709E+08         0.21933E+05         0.00000E+00
    0.21933E+05         0.29194E+08         0.00000E+00
    0.00000E+00         0.00000E+00         0.12571E+08
 
    0.12682E+08         0.26702E+05         0.00000E+00
    0.26702E+05         0.29155E+08         0.00000E+00
    0.00000E+00         0.00000E+00         0.12551E+08
 
    0.12656E+08         0.31199E+05         0.00000E+00
    0.31199E+05         0.29115E+08         0.00000E+00
    0.00000E+00         0.00000E+00         0.12531E+08
 
    0.12631E+08         0.35409E+05         0.00000E+00
    0.35409E+05         0.29075E+08         0.00000E+00
    0.00000E+00         0.00000E+00         0.12512E+08
 
    0.12607E+08         0.39336E+05         0.00000E+00
    0.39336E+05         0.29035E+08         0.00000E+00
    0.00000E+00         0.00000E+00         0.12493E+08
 
    0.12584E+08         0.42994E+05         0.00000E+00
    0.42994E+05         0.28994E+08         0.00000E+00
    0.00000E+00         0.00000E+00         0.12473E+08
 
    0.12561E+08         0.46407E+05         0.00000E+00
    0.46407E+05         0.28953E+08         0.00000E+00
    0.00000E+00         0.00000E+00         0.12454E+08
 
    0.12539E+08         0.49600E+05         0.00000E+00
    0.49600E+05         0.28911E+08         0.00000E+00
    0.00000E+00         0.00000E+00         0.12435E+08
 
    0.12517E+08         0.52600E+05         0.00000E+00
    0.52600E+05         0.28869E+08         0.00000E+00
    0.00000E+00         0.00000E+00         0.12416E+08
 
    0.12496E+08         0.55432E+05         0.00000E+00
    0.55432E+05         0.28825E+08         0.00000E+00
    0.00000E+00         0.00000E+00         0.12396E+08
 
    0.12474E+08         0.58122E+05         0.00000E+00
    0.58122E+05         0.28781E+08         0.00000E+00
    0.00000E+00         0.00000E+00         0.12377E+08
 
    0.12454E+08         0.60692E+05         0.00000E+00
    0.60692E+05         0.28737E+08         0.00000E+00
    0.00000E+00         0.00000E+00         0.12357E+08
 
    0.12433E+08         0.63163E+05         0.00000E+00
    0.63163E+05         0.28691E+08         0.00000E+00
    0.00000E+00         0.00000E+00         0.12337E+08
 
    0.12412E+08         0.65551E+05         0.00000E+00
    0.65551E+05         0.28645E+08         0.00000E+00
    0.00000E+00         0.00000E+00         0.12317E+08
 
    0.12391E+08         0.67872E+05         0.00000E+00
    0.67872E+05         0.28598E+08         0.00000E+00
    0.00000E+00         0.00000E+00         0.12297E+08
 
    0.12371E+08         0.70140E+05         0.00000E+00
    0.70140E+05         0.28549E+08         0.00000E+00
    0.00000E+00         0.00000E+00         0.12276E+08
 
    0.12350E+08         0.72365E+05         0.00000E+00
    0.72365E+05         0.28500E+08         0.00000E+00
    0.00000E+00         0.00000E+00         0.12255E+08
 
    0.12329E+08         0.74556E+05         0.00000E+00
    0.74556E+05         0.28450E+08         0.00000E+00
    0.00000E+00         0.00000E+00         0.12234E+08
 
    0.12307E+08         0.76723E+05         0.00000E+00
    0.76723E+05         0.28399E+08         0.00000E+00
    0.00000E+00         0.00000E+00         0.12212E+08
 
    0.12286E+08         0.78872E+05         0.00000E+00
    0.78872E+05         0.28346E+08         0.00000E+00
    0.00000E+00         0.00000E+00         0.12190E+08
 
    0.12264E+08         0.81008E+05         0.00000E+00
    0.81008E+05         0.28293E+08         0.00000E+00
    0.00000E+00         0.00000E+00         0.12167E+08
 
    0.12242E+08         0.83136E+05         0.00000E+00
    0.83136E+05         0.28238E+08         0.00000E+00
    0.00000E+00         0.00000E+00         0.12144E+08
 
    0.12219E+08         0.85261E+05         0.00000E+00
    0.85261E+05         0.28182E+08         0.00000E+00
    0.00000E+00         0.00000E+00         0.12120E+08
 
    0.12196E+08         0.87384E+05         0.00000E+00
    0.87384E+05         0.28125E+08         0.00000E+00
    0.00000E+00         0.00000E+00         0.12096E+08
 
    0.12172E+08         0.89509E+05         0.00000E+00
    0.89509E+05         0.28066E+08         0.00000E+00
    0.00000E+00         0.00000E+00         0.12072E+08
 
    0.12148E+08         0.91639E+05         0.00000E+00
    0.91639E+05         0.28006E+08         0.00000E+00
    0.00000E+00         0.00000E+00         0.12046E+08
 
    0.12124E+08         0.93773E+05         0.00000E+00
    0.93773E+05         0.27945E+08         0.00000E+00
    0.00000E+00         0.00000E+00         0.12021E+08
 
    0.12099E+08         0.95914E+05         0.00000E+00
    0.95914E+05         0.27882E+08         0.00000E+00
    0.00000E+00         0.00000E+00         0.11994E+08
 
    0.12073E+08         0.98063E+05         0.00000E+00
    0.98063E+05         0.27818E+08         0.00000E+00
    0.00000E+00         0.00000E+00         0.11967E+08
 
    0.12046E+08         0.10022E+06         0.00000E+00
    0.10022E+06         0.27752E+08         0.00000E+00
    0.00000E+00         0.00000E+00         0.11939E+08
 
    0.12019E+08         0.10238E+06         0.00000E+00
    0.10238E+06         0.27685E+08         0.00000E+00
    0.00000E+00         0.00000E+00         0.11911E+08
 
    0.11991E+08         0.10455E+06         0.00000E+00
    0.10455E+06         0.27616E+08         0.00000E+00
    0.00000E+00         0.00000E+00         0.11882E+08
 
    0.11963E+08         0.10673E+06         0.00000E+00
    0.10673E+06         0.27545E+08         0.00000E+00
    0.00000E+00         0.00000E+00         0.11852E+08
 
    0.11933E+08         0.10891E+06         0.00000E+00
    0.10891E+06         0.27473E+08         0.00000E+00
    0.00000E+00         0.00000E+00         0.11822E+08
 
    0.11903E+08         0.11110E+06         0.00000E+00
    0.11110E+06         0.27399E+08         0.00000E+00
    0.00000E+00         0.00000E+00         0.11790E+08
 
    0.11872E+08         0.11328E+06         0.00000E+00
    0.11328E+06         0.27323E+08         0.00000E+00
    0.00000E+00         0.00000E+00         0.11758E+08
 
    0.11840E+08         0.11547E+06         0.00000E+00
    0.11547E+06         0.27245E+08         0.00000E+00
    0.00000E+00         0.00000E+00         0.11725E+08
 
    0.11807E+08         0.11765E+06         0.00000E+00
    0.11765E+06         0.27166E+08         0.00000E+00
    0.00000E+00         0.00000E+00         0.11692E+08
 
    0.11773E+08         0.11983E+06         0.00000E+00
    0.11983E+06         0.27085E+08         0.00000E+00
    0.00000E+00         0.00000E+00         0.11657E+08
 
    0.11738E+08         0.12201E+06         0.00000E+00
    0.12201E+06         0.27002E+08         0.00000E+00
    0.00000E+00         0.00000E+00         0.11622E+08
 
    0.11702E+08         0.12416E+06         0.00000E+00
    0.12416E+06         0.26917E+08         0.00000E+00
    0.00000E+00         0.00000E+00         0.11586E+08
 
    0.11665E+08         0.12631E+06         0.00000E+00
    0.12631E+06         0.26830E+08         0.00000E+00
    0.00000E+00         0.00000E+00         0.11548E+08
 
    0.11627E+08         0.12843E+06         0.00000E+00
    0.12843E+06         0.26741E+08         0.00000E+00
    0.00000E+00         0.00000E+00         0.11510E+08
 
    0.11587E+08         0.13053E+06         0.00000E+00
    0.13053E+06         0.26650E+08         0.00000E+00
    0.00000E+00         0.00000E+00         0.11471E+08
 
    0.11547E+08         0.13260E+06         0.00000E+00
    0.13260E+06         0.26557E+08         0.00000E+00
    0.00000E+00         0.00000E+00         0.11431E+08
 
    0.11505E+08         0.13464E+06         0.00000E+00
    0.13464E+06         0.26462E+08         0.00000E+00
    0.00000E+00         0.00000E+00         0.11390E+08
 
    0.11463E+08         0.13663E+06         0.00000E+00
    0.13663E+06         0.26365E+08         0.00000E+00
    0.00000E+00         0.00000E+00         0.11348E+08
 
    0.11418E+08         0.13858E+06         0.00000E+00
    0.13858E+06         0.26266E+08         0.00000E+00
    0.00000E+00         0.00000E+00         0.11305E+08
 
    0.11373E+08         0.14047E+06         0.00000E+00
    0.14047E+06         0.26164E+08         0.00000E+00
    0.00000E+00         0.00000E+00         0.11261E+08
 
    0.11326E+08         0.14230E+06         0.00000E+00
    0.14230E+06         0.26061E+08         0.00000E+00
    0.00000E+00         0.00000E+00         0.11216E+08
 
    0.11278E+08         0.14406E+06         0.00000E+00
    0.14406E+06         0.25955E+08         0.00000E+00
    0.00000E+00         0.00000E+00         0.11170E+08
 
    0.11229E+08         0.14574E+06         0.00000E+00
    0.14574E+06         0.25848E+08         0.00000E+00
    0.00000E+00         0.00000E+00         0.11123E+08
 
    0.11178E+08         0.14733E+06         0.00000E+00
    0.14733E+06         0.25738E+08         0.00000E+00
    0.00000E+00         0.00000E+00         0.11075E+08
 
    0.11125E+08         0.14883E+06         0.00000E+00
    0.14883E+06         0.25626E+08         0.00000E+00
    0.00000E+00         0.00000E+00         0.11025E+08
 
    0.11071E+08         0.15021E+06         0.00000E+00
    0.15021E+06         0.25511E+08         0.00000E+00
    0.00000E+00         0.00000E+00         0.10975E+08
 
    0.11016E+08         0.15148E+06         0.00000E+00
    0.15148E+06         0.25395E+08         0.00000E+00
    0.00000E+00         0.00000E+00         0.10923E+08
 
    0.10958E+08         0.15261E+06         0.00000E+00
    0.15261E+06         0.25276E+08         0.00000E+00
    0.00000E+00         0.00000E+00         0.10870E+08
 
    0.10899E+08         0.15359E+06         0.00000E+00
    0.15359E+06         0.25155E+08         0.00000E+00
    0.00000E+00         0.00000E+00         0.10816E+08
 
    0.10839E+08         0.15441E+06         0.00000E+00
    0.15441E+06         0.25032E+08         0.00000E+00
    0.00000E+00         0.00000E+00         0.10761E+08
 
    0.10776E+08         0.15505E+06         0.00000E+00
    0.15505E+06         0.24907E+08         0.00000E+00
    0.00000E+00         0.00000E+00         0.10705E+08
 
    0.10712E+08         0.15550E+06         0.00000E+00
    0.15550E+06         0.24780E+08         0.00000E+00
    0.00000E+00         0.00000E+00         0.10647E+08
 
    0.10645E+08         0.15572E+06         0.00000E+00
    0.15572E+06         0.24650E+08         0.00000E+00
    0.00000E+00         0.00000E+00         0.10589E+08
 
    0.10577E+08         0.15570E+06         0.00000E+00
    0.15570E+06         0.24518E+08         0.00000E+00
    0.00000E+00         0.00000E+00         0.10529E+08
 
    0.10507E+08         0.15542E+06         0.00000E+00
    0.15542E+06         0.24385E+08         0.00000E+00
    0.00000E+00         0.00000E+00         0.10467E+08
 
    0.10434E+08         0.15483E+06         0.00000E+00
    0.15483E+06         0.24249E+08         0.00000E+00
    0.00000E+00         0.00000E+00         0.10405E+08
 
    0.10359E+08         0.15391E+06         0.00000E+00
    0.15391E+06         0.24111E+08         0.00000E+00
    0.00000E+00         0.00000E+00         0.10341E+08
 
    0.10282E+08         0.15262E+06         0.00000E+00
    0.15262E+06         0.23971E+08         0.00000E+00
    0.00000E+00         0.00000E+00         0.10276E+08
 
    0.10203E+08         0.15092E+06         0.00000E+00
    0.15092E+06         0.23829E+08         0.00000E+00
    0.00000E+00         0.00000E+00         0.10209E+08
 
    0.10121E+08         0.14874E+06         0.00000E+00
    0.14874E+06         0.23684E+08         0.00000E+00
    0.00000E+00         0.00000E+00         0.10141E+08
 
    0.10036E+08         0.14604E+06         0.00000E+00
    0.14604E+06         0.23538E+08         0.00000E+00
    0.00000E+00         0.00000E+00         0.10072E+08
 
    0.99480E+07         0.14274E+06         0.00000E+00
    0.14274E+06         0.23390E+08         0.00000E+00
    0.00000E+00         0.00000E+00         0.10002E+08
 
    0.98574E+07         0.13876E+06         0.00000E+00
    0.13876E+06         0.23241E+08         0.00000E+00
    0.00000E+00         0.00000E+00         0.99294E+07
 
    0.97635E+07         0.13402E+06         0.00000E+00
    0.13402E+06         0.23089E+08         0.00000E+00
    0.00000E+00         0.00000E+00         0.98557E+07
 
    0.96663E+07         0.12842E+06         0.00000E+00
    0.12842E+06         0.22935E+08         0.00000E+00
    0.00000E+00         0.00000E+00         0.97805E+07
 
    0.95655E+07         0.12186E+06         0.00000E+00
    0.12186E+06         0.22780E+08         0.00000E+00
    0.00000E+00         0.00000E+00         0.97036E+07
 
    0.94609E+07         0.11421E+06         0.00000E+00
    0.11421E+06         0.22623E+08         0.00000E+00
    0.00000E+00         0.00000E+00         0.96251E+07
 
    0.93523E+07         0.10537E+06         0.00000E+00
    0.10537E+06         0.22464E+08         0.00000E+00
    0.00000E+00         0.00000E+00         0.95449E+07
 
    0.92393E+07         0.95240E+05         0.00000E+00
    0.95240E+05         0.22304E+08         0.00000E+00
    0.00000E+00         0.00000E+00         0.94630E+07
 
    0.91217E+07         0.83725E+05         0.00000E+00
    0.83725E+05         0.22142E+08         0.00000E+00
    0.00000E+00         0.00000E+00         0.93792E+07
 
    0.89992E+07         0.70774E+05         0.00000E+00
    0.70774E+05         0.21979E+08         0.00000E+00
    0.00000E+00         0.00000E+00         0.92936E+07
 
    0.88717E+07         0.56395E+05         0.00000E+00
    0.56395E+05         0.21815E+08         0.00000E+00
    0.00000E+00         0.00000E+00         0.92061E+07
 
    0.87389E+07         0.40677E+05         0.00000E+00
    0.40677E+05         0.21650E+08         0.00000E+00
    0.00000E+00         0.00000E+00         0.91167E+07
 
    0.86007E+07         0.23839E+05         0.00000E+00
    0.23839E+05         0.21484E+08         0.00000E+00
    0.00000E+00         0.00000E+00         0.90256E+07
 
    0.84572E+07         0.62725E+04         0.00000E+00
    0.62725E+04         0.21319E+08         0.00000E+00
    0.00000E+00         0.00000E+00         0.89327E+07
 
    0.83085E+07        -0.11390E+05         0.00000E+00
   -0.11390E+05         0.21153E+08         0.00000E+00
    0.00000E+00         0.00000E+00         0.88383E+07
 
    0.81553E+07        -0.28178E+05         0.00000E+00
   -0.28178E+05         0.20987E+08         0.00000E+00
    0.00000E+00         0.00000E+00         0.87428E+07
 
    0.79986E+07        -0.42628E+05         0.00000E+00
   -0.42628E+05         0.20824E+08         0.00000E+00
    0.00000E+00         0.00000E+00         0.86466E+07
 
    0.78401E+07        -0.52476E+05         0.00000E+00
   -0.52476E+05         0.20662E+08         0.00000E+00
    0.00000E+00         0.00000E+00         0.85507E+07
 
    0.76817E+07        -0.54072E+05         0.00000E+00
   -0.54072E+05         0.20507E+08         0.00000E+00
    0.00000E+00         0.00000E+00         0.84567E+07
 
    0.75241E+07        -0.42650E+05         0.00000E+00
   -0.42650E+05         0.20366E+08         0.00000E+00
    0.00000E+00         0.00000E+00         0.83669E+07
 
    0.73637E+07        -0.16540E+05         0.00000E+00
   -0.16540E+05         0.20252E+08         0.00000E+00
    0.00000E+00         0.00000E+00         0.82847E+07
 
    0.13002E+08        -0.31234E+04         0.00000E+00
   -0.31234E+04         0.29507E+08         0.00000E+00
    0.00000E+00         0.00000E+00         0.12753E+08
 
    0.12967E+08        -0.76686E+04         0.00000E+00
   -0.76686E+04         0.29482E+08         0.00000E+00
    0.00000E+00         0.00000E+00         0.12735E+08
 
    0.12934E+08        -0.87787E+04         0.00000E+00
   -0.87787E+04         0.29450E+08         0.00000E+00
    0.00000E+00         0.00000E+00         0.12715E+08
 
    0.12900E+08        -0.70499E+04         0.00000E+00
   -0.70499E+04         0.29416E+08         0.00000E+00
    0.00000E+00         0.00000E+00         0.12695E+08
 
    0.12866E+08        -0.36475E+04         0.00000E+00
   -0.36475E+04         0.29380E+08         0.00000E+00
    0.00000E+00         0.00000E+00         0.12674E+08
 
    0.12833E+08         0.64561E+03         0.00000E+00
    0.64561E+03         0.29343E+08         0.00000E+00
    0.00000E+00         0.00000E+00         0.12653E+08
 
    0.12801E+08         0.53763E+04         0.00000E+00
    0.53763E+04         0.29306E+08         0.00000E+00
    0.00000E+00         0.00000E+00         0.12632E+08
 
    0.12770E+08         0.10259E+05         0.00000E+00
    0.10259E+05         0.29269E+08         0.00000E+00
    0.00000E+00         0.00000E+00         0.12612E+08
 
    0.12741E+08         0.15107E+05         0.00000E+00
    0.15107E+05         0.29231E+08         0.00000E+00
    0.00000E+00         0.00000E+00         0.12592E+08
 
    0.12712E+08         0.19801E+05         0.00000E+00
    0.19801E+05         0.29193E+08         0.00000E+00
    0.00000E+00         0.00000E+00         0.12571E+08
 
    0.12685E+08         0.24270E+05         0.00000E+00
    0.24270E+05         0.29154E+08         0.00000E+00
    0.00000E+00         0.00000E+00         0.12552E+08
 
    0.12659E+08         0.28475E+05         0.00000E+00
    0.28475E+05         0.29114E+08         0.00000E+00
    0.00000E+00         0.00000E+00         0.12532E+08
 
    0.12634E+08         0.32406E+05         0.00000E+00
    0.32406E+05         0.29075E+08         0.00000E+00
    0.00000E+00         0.00000E+00         0.12513E+08
 
    0.12610E+08         0.36066E+05         0.00000E+00
    0.36066E+05         0.29034E+08         0.00000E+00
    0.00000E+00         0.00000E+00         0.12493E+08
 
    0.12586E+08         0.39470E+05         0.00000E+00
    0.39470E+05         0.28994E+08         0.00000E+00
    0.00000E+00         0.00000E+00         0.12474E+08
 
    0.12563E+08         0.42641E+05         0.00000E+00
    0.42641E+05         0.28952E+08         0.00000E+00
    0.00000E+00         0.00000E+00         0.12455E+08
 
    0.12541E+08         0.45603E+05         0.00000E+00
    0.45603E+05         0.28911E+08         0.00000E+00
    0.00000E+00         0.00000E+00         0.12435E+08
 
    0.12519E+08         0.48382E+05         0.00000E+00
    0.48382E+05         0.28868E+08         0.00000E+00
    0.00000E+00         0.00000E+00         0.12416E+08
 
    0.12498E+08         0.51003E+05         0.00000E+00
    0.51003E+05         0.28825E+08         0.00000E+00
    0.00000E+00         0.00000E+00         0.12397E+08
 
    0.12477E+08         0.53490E+05         0.00000E+00
    0.53490E+05         0.28781E+08         0.00000E+00
    0.00000E+00         0.00000E+00         0.12377E+08
 
    0.12456E+08         0.55864E+05         0.00000E+00
    0.55864E+05         0.28736E+08         0.00000E+00
    0.00000E+00         0.00000E+00         0.12358E+08
 
    0.12435E+08         0.58144E+05         0.00000E+00
    0.58144E+05         0.28691E+08         0.00000E+00
    0.00000E+00         0.00000E+00         0.12338E+08
 
    0.12414E+08         0.60347E+05         0.00000E+00
    0.60347E+05         0.28644E+08         0.00000E+00
    0.00000E+00         0.00000E+00         0.12318E+08
 
    0.12394E+08         0.62487E+05         0.00000E+00
    0.62487E+05         0.28597E+08         0.00000E+00
    0.00000E+00         0.00000E+00         0.12297E+08
 
    0.12373E+08         0.64576E+05         0.00000E+00
    0.64576E+05         0.28549E+08         0.00000E+00
    0.00000E+00         0.00000E+00         0.12277E+08
 
    0.12352E+08         0.66626E+05         0.00000E+00
    0.66626E+05         0.28500E+08         0.00000E+00
    0.00000E+00         0.00000E+00         0.12256E+08
 
    0.12331E+08         0.68645E+05         0.00000E+00
    0.68645E+05         0.28450E+08         0.00000E+00
    0.00000E+00         0.00000E+00         0.12234E+08
 
    0.12310E+08         0.70640E+05         0.00000E+00
    0.70640E+05         0.28398E+08         0.00000E+00
    0.00000E+00         0.00000E+00         0.12212E+08
 
    0.12288E+08         0.72619E+05         0.00000E+00
    0.72619E+05         0.28346E+08         0.00000E+00
    0.00000E+00         0.00000E+00         0.12190E+08
 
    0.12266E+08         0.74585E+05         0.00000E+00
    0.74585E+05         0.28292E+08         0.00000E+00
    0.00000E+00         0.00000E+00         0.12168E+08
 
    0.12244E+08         0.76544E+05         0.00000E+00
    0.76544E+05         0.28238E+08         0.00000E+00
    0.00000E+00         0.00000E+00         0.12145E+08
 
    0.12222E+08         0.78499E+05         0.00000E+00
    0.78499E+05         0.28182E+08         0.00000E+00
    0.00000E+00         0.00000E+00         0.12121E+08
 
    0.12199E+08         0.80453E+05         0.00000E+00
    0.80453E+05         0.28124E+08         0.00000E+00
    0.00000E+00         0.00000E+00         0.12097E+08
 
    0.12175E+08         0.82409E+05         0.00000E+00
    0.82409E+05         0.28066E+08         0.00000E+00
    0.00000E+00         0.00000E+00         0.12072E+08
 
    0.12151E+08         0.84368E+05         0.00000E+00
    0.84368E+05         0.28006E+08         0.00000E+00
    0.00000E+00         0.00000E+00         0.12047E+08
 
    0.12127E+08         0.86332E+05         0.00000E+00
    0.86332E+05         0.27944E+08         0.00000E+00
    0.00000E+00         0.00000E+00         0.12021E+08
 
    0.12101E+08         0.88301E+05         0.00000E+00
    0.88301E+05         0.27882E+08         0.00000E+00
    0.00000E+00         0.00000E+00         0.11995E+08
 
    0.12076E+08         0.90277E+05         0.00000E+00
    0.90277E+05         0.27817E+08         0.00000E+00
    0.00000E+00         0.00000E+00         0.11968E+08
 
    0.12049E+08         0.92260E+05         0.00000E+00
    0.92260E+05         0.27752E+08         0.00000E+00
    0.00000E+00         0.00000E+00         0.11940E+08
 
    0.12022E+08         0.94249E+05         0.00000E+00
    0.94249E+05         0.27684E+08         0.00000E+00
    0.00000E+00         0.00000E+00         0.11912E+08
 
    0.11994E+08         0.96244E+05         0.00000E+00
    0.96244E+05         0.27615E+08         0.00000E+00
    0.00000E+00         0.00000E+00         0.11883E+08
 
    0.11966E+08         0.98245E+05         0.00000E+00
    0.98245E+05         0.27545E+08         0.00000E+00
    0.00000E+00         0.00000E+00         0.11853E+08
 
    0.11936E+08         0.10025E+06         0.00000E+00
    0.10025E+06         0.27472E+08         0.00000E+00
    0.00000E+00         0.00000E+00         0.11823E+08
 
    0.11906E+08         0.10226E+06         0.00000E+00
    0.10226E+06         0.27398E+08         0.00000E+00
    0.00000E+00         0.00000E+00         0.11791E+08
 
    0.11875E+08         0.10427E+06         0.00000E+00
    0.10427E+06         0.27323E+08         0.00000E+00
    0.00000E+00         0.00000E+00         0.11759E+08
 
    0.11843E+08         0.10628E+06         0.00000E+00
    0.10628E+06         0.27245E+08         0.00000E+00
    0.00000E+00         0.00000E+00         0.11726E+08
 
    0.11810E+08         0.10829E+06         0.00000E+00
    0.10829E+06         0.27166E+08         0.00000E+00
    0.00000E+00         0.00000E+00         0.11693E+08
 
    0.11776E+08         0.11029E+06         0.00000E+00
    0.11029E+06         0.27084E+08         0.00000E+00
    0.00000E+00         0.00000E+00         0.11658E+08
 
    0.11741E+08         0.11228E+06         0.00000E+00
    0.11228E+06         0.27001E+08         0.00000E+00
    0.00000E+00         0.00000E+00         0.11623E+08
 
    0.11705E+08         0.11427E+06         0.00000E+00
    0.11427E+06         0.26916E+08         0.00000E+00
    0.00000E+00         0.00000E+00         0.11586E+08
 
    0.11668E+08         0.11623E+06         0.00000E+00
    0.11623E+06         0.26829E+08         0.00000E+00
    0.00000E+00         0.00000E+00         0.11549E+08
 
    0.11630E+08         0.11818E+06         0.00000E+00
    0.11818E+06         0.26740E+08         0.00000E+00
    0.00000E+00         0.00000E+00         0.11511E+08
 
    0.11591E+08         0.12011E+06         0.00000E+00
    0.12011E+06         0.26649E+08         0.00000E+00
    0.00000E+00         0.00000E+00         0.11472E+08
 
    0.11550E+08         0.12201E+06         0.00000E+00
    0.12201E+06         0.26557E+08         0.00000E+00
    0.00000E+00         0.00000E+00         0.11432E+08
 
    0.11509E+08         0.12388E+06         0.00000E+00
    0.12388E+06         0.26462E+08         0.00000E+00
    0.00000E+00         0.00000E+00         0.11391E+08
 
    0.11466E+08         0.12570E+06         0.00000E+00
    0.12570E+06         0.26364E+08         0.00000E+00
    0.00000E+00         0.00000E+00         0.11349E+08
 
    0.11422E+08         0.12749E+06         0.00000E+00
    0.12749E+06         0.26265E+08         0.00000E+00
    0.00000E+00         0.00000E+00         0.11306E+08
 
    0.11377E+08         0.12922E+06         0.00000E+00
    0.12922E+06         0.26164E+08         0.00000E+00
    0.00000E+00         0.00000E+00         0.11262E+08
 
    0.11330E+08         0.13090E+06         0.00000E+00
    0.13090E+06         0.26061E+08         0.00000E+00
    0.00000E+00         0.00000E+00         0.11217E+08
 
    0.11282E+08         0.13251E+06         0.00000E+00
    0.13251E+06         0.25955E+08         0.00000E+00
    0.00000E+00         0.00000E+00         0.11171E+08
 
    0.11232E+08         0.13405E+06         0.00000E+00
    0.13405E+06         0.25847E+08         0.00000E+00
    0.00000E+00         0.00000E+00         0.11124E+08
 
    0.11181E+08         0.13551E+06         0.00000E+00
    0.13551E+06         0.25737E+08         0.00000E+00
    0.00000E+00         0.00000E+00         0.11076E+08
 
    0.11128E+08         0.13687E+06         0.00000E+00
    0.13687E+06         0.25625E+08         0.00000E+00
    0.00000E+00         0.00000E+00         0.11026E+08
 
    0.11074E+08         0.13814E+06         0.00000E+00
    0.13814E+06         0.25511E+08         0.00000E+00
    0.00000E+00         0.00000E+00         0.10976E+08
 
    0.11019E+08         0.13930E+06         0.00000E+00
    0.13930E+06         0.25395E+08         0.00000E+00
    0.00000E+00         0.00000E+00         0.10924E+08
 
    0.10961E+08         0.14033E+06         0.00000E+00
    0.14033E+06         0.25276E+08         0.00000E+00
    0.00000E+00         0.00000E+00         0.10871E+08
 
    0.10902E+08         0.14122E+06         0.00000E+00
    0.14122E+06         0.25155E+08         0.00000E+00
    0.00000E+00         0.00000E+00         0.10817E+08
 
    0.10841E+08         0.14197E+06         0.00000E+00
    0.14197E+06         0.25032E+08         0.00000E+00
    0.00000E+00         0.00000E+00         0.10762E+08
 
    0.10779E+08         0.14254E+06         0.00000E+00
    0.14254E+06         0.24907E+08         0.00000E+00
    0.00000E+00         0.00000E+00         0.10706E+08
 
    0.10714E+08         0.14294E+06         0.00000E+00
    0.14294E+06         0.24780E+08         0.00000E+00
    0.00000E+00         0.00000E+00         0.10648E+08
 
    0.10648E+08         0.14313E+06         0.00000E+00
    0.14313E+06         0.24650E+08         0.00000E+00
    0.00000E+00         0.00000E+00         0.10589E+08
 
    0.10579E+08         0.14310E+06         0.00000E+00
    0.14310E+06         0.24518E+08         0.00000E+00
    0.00000E+00         0.00000E+00         0.10529E+08
 
    0.10509E+08         0.14282E+06         0.00000E+00
    0.14282E+06         0.24385E+08         0.00000E+00
    0.00000E+00         0.00000E+00         0.10468E+08
 
    0.10436E+08         0.14227E+06         0.00000E+00
    0.14227E+06         0.24249E+08         0.00000E+00
    0.00000E+00         0.00000E+00         0.10405E+08
 
    0.10361E+08         0.14141E+06         0.00000E+00
    0.14141E+06         0.24111E+08         0.00000E+00
    0.00000E+00         0.00000E+00         0.10342E+08
 
    0.10284E+08         0.14020E+06         0.00000E+00
    0.14020E+06         0.23971E+08         0.00000E+00
    0.00000E+00         0.00000E+00         0.10276E+08
 
    0.10204E+08         0.13861E+06         0.00000E+00
    0.13861E+06         0.23829E+08         0.00000E+00
    0.00000E+00         0.00000E+00         0.10210E+08
 
    0.10122E+08         0.13658E+06         0.00000E+00
    0.13658E+06         0.23685E+08         0.00000E+00
    0.00000E+00         0.00000E+00         0.10142E+08
 
    0.10036E+08         0.13406E+06         0.00000E+00
    0.13406E+06         0.23539E+08         0.00000E+00
    0.00000E+00         0.00000E+00         0.10073E+08
 
    0.99485E+07         0.13099E+06         0.00000E+00
    0.13099E+06         0.23391E+08         0.00000E+00
    0.00000E+00         0.00000E+00         0.10002E+08
 
    0.98574E+07         0.12729E+06         0.00000E+00
    0.12729E+06         0.23241E+08         0.00000E+00
    0.00000E+00         0.00000E+00         0.99296E+07
 
    0.97631E+07         0.12287E+06         0.00000E+00
    0.12287E+06         0.23090E+08         0.00000E+00
    0.00000E+00         0.00000E+00         0.98559E+07
 
    0.96654E+07         0.11764E+06         0.00000E+00
    0.11764E+06         0.22936E+08         0.00000E+00
    0.00000E+00         0.00000E+00         0.97805E+07
 
    0.95640E+07         0.11151E+06         0.00000E+00
    0.11151E+06         0.22781E+08         0.00000E+00
    0.00000E+00         0.00000E+00         0.97036E+07
 
    0.94587E+07         0.10436E+06         0.00000E+00
    0.10436E+06         0.22624E+08         0.00000E+00
    0.00000E+00         0.00000E+00         0.96250E+07
 
    0.93493E+07         0.96090E+05         0.00000E+00
    0.96090E+05         0.22466E+08         0.00000E+00
    0.00000E+00         0.00000E+00         0.95446E+07
 
    0.92353E+07         0.86593E+05         0.00000E+00
    0.86593E+05         0.22306E+08         0.00000E+00
    0.00000E+00         0.00000E+00         0.94624E+07
 
    0.91166E+07         0.75785E+05         0.00000E+00
    0.75785E+05         0.22145E+08         0.00000E+00
    0.00000E+00         0.00000E+00         0.93784E+07
 
    0.89929E+07         0.63613E+05         0.00000E+00
    0.63613E+05         0.21982E+08         0.00000E+00
    0.00000E+00         0.00000E+00         0.92925E+07
 
    0.88638E+07         0.50075E+05         0.00000E+00
    0.50075E+05         0.21818E+08         0.00000E+00
    0.00000E+00         0.00000E+00         0.92046E+07
 
    0.87292E+07         0.35253E+05         0.00000E+00
    0.35253E+05         0.21653E+08         0.00000E+00
    0.00000E+00         0.00000E+00         0.91148E+07
 
    0.85889E+07         0.19342E+05         0.00000E+00
    0.19342E+05         0.21488E+08         0.00000E+00
    0.00000E+00         0.00000E+00         0.90230E+07
 
    0.84430E+07         0.26989E+04         0.00000E+00
    0.26989E+04         0.21322E+08         0.00000E+00
    0.00000E+00         0.00000E+00         0.89295E+07
 
    0.82916E+07        -0.14098E+05         0.00000E+00
   -0.14098E+05         0.21156E+08         0.00000E+00
    0.00000E+00         0.00000E+00         0.88343E+07
 
    0.81354E+07        -0.30161E+05         0.00000E+00
   -0.30161E+05         0.20991E+08         0.00000E+00
    0.00000E+00         0.00000E+00         0.87378E+07
 
    0.79754E+07        -0.44144E+05         0.00000E+00
   -0.44144E+05         0.20826E+08         0.00000E+00
    0.00000E+00         0.00000E+00         0.86404E+07
 
    0.78134E+07        -0.53935E+05         0.00000E+00
   -0.53935E+05         0.20664E+08         0.00000E+00
    0.00000E+00         0.00000E+00         0.85432E+07
 
    0.76520E+07        -0.55905E+05         0.00000E+00
   -0.55905E+05         0.20506E+08         0.00000E+00
    0.00000E+00         0.00000E+00         0.84475E+07
 
    0.74924E+07        -0.44677E+05         0.00000E+00
   -0.44677E+05         0.20362E+08         0.00000E+00
    0.00000E+00         0.00000E+00         0.83562E+07
 
    0.73314E+07        -0.17519E+05         0.00000E+00
   -0.17519E+05         0.20245E+08         0.00000E+00
    0.00000E+00         0.00000E+00         0.82730E+07
 
    0.13010E+08        -0.33811E+04         0.00000E+00
   -0.33811E+04         0.29508E+08         0.00000E+00
    0.00000E+00         0.00000E+00         0.12755E+08
 
    0.12975E+08        -0.82040E+04         0.00000E+00
   -0.82040E+04         0.29482E+08         0.00000E+00
    0.00000E+00         0.00000E+00         0.12737E+08
 
    0.12941E+08        -0.93041E+04         0.00000E+00
   -0.93041E+04         0.29450E+08         0.00000E+00
    0.00000E+00         0.00000E+00         0.12717E+08
 
    0.12907E+08        -0.75651E+04         0.00000E+00
   -0.75651E+04         0.29415E+08         0.00000E+00
    0.00000E+00         0.00000E+00         0.12697E+08
 
    0.12872E+08        -0.42784E+04         0.00000E+00
   -0.42784E+04         0.29379E+08         0.00000E+00
    0.00000E+00         0.00000E+00         0.12675E+08
 
    0.12839E+08        -0.20026E+03         0.00000E+00
   -0.20026E+03         0.29343E+08         0.00000E+00
    0.00000E+00         0.00000E+00         0.12654E+08
 
    0.12806E+08         0.42567E+04         0.00000E+00
    0.42567E+04         0.29306E+08         0.00000E+00
    0.00000E+00         0.00000E+00         0.12633E+08
 
    0.12775E+08         0.88338E+04         0.00000E+00
    0.88338E+04         0.29268E+08         0.00000E+00
    0.00000E+00         0.00000E+00         0.12613E+08
 
    0.12745E+08         0.13363E+05         0.00000E+00
    0.13363E+05         0.29230E+08         0.00000E+00
    0.00000E+00         0.00000E+00         0.12592E+08
 
    0.12716E+08         0.17738E+05         0.00000E+00
    0.17738E+05         0.29192E+08         0.00000E+00
    0.00000E+00         0.00000E+00         0.12572E+08
 
    0.12688E+08         0.21893E+05         0.00000E+00
    0.21893E+05         0.29153E+08         0.00000E+00
    0.00000E+00         0.00000E+00         0.12552E+08
 
    0.12662E+08         0.25797E+05         0.00000E+00
    0.25797E+05         0.29114E+08         0.00000E+00
    0.00000E+00         0.00000E+00         0.12533E+08
 
    0.12636E+08         0.29439E+05         0.00000E+00
    0.29439E+05         0.29074E+08         0.00000E+00
    0.00000E+00         0.00000E+00         0.12513E+08
 
    0.12612E+08         0.32823E+05         0.00000E+00
    0.32823E+05         0.29034E+08         0.00000E+00
    0.00000E+00         0.00000E+00         0.12494E+08
 
    0.12588E+08         0.35966E+05         0.00000E+00
    0.35966E+05         0.28993E+08         0.00000E+00
    0.00000E+00         0.00000E+00         0.12474E+08
 
    0.12566E+08         0.38889E+05         0.00000E+00
    0.38889E+05         0.28952E+08         0.00000E+00
    0.00000E+00         0.00000E+00         0.12455E+08
 
    0.12543E+08         0.41616E+05         0.00000E+00
    0.41616E+05         0.28910E+08         0.00000E+00
    0.00000E+00         0.00000E+00         0.12436E+08
 
    0.12521E+08         0.44170E+05         0.00000E+00
    0.44170E+05         0.28868E+08         0.00000E+00
    0.00000E+00         0.00000E+00         0.12417E+08
 
    0.12500E+08         0.46577E+05         0.00000E+00
    0.46577E+05         0.28824E+08         0.00000E+00
    0.00000E+00         0.00000E+00         0.12397E+08
 
    0.12479E+08         0.48858E+05         0.00000E+00
    0.48858E+05         0.28780E+08         0.00000E+00
    0.00000E+00         0.00000E+00         0.12378E+08
 
    0.12458E+08         0.51034E+05         0.00000E+00
    0.51034E+05         0.28736E+08         0.00000E+00
    0.00000E+00         0.00000E+00         0.12358E+08
 
    0.12437E+08         0.53122E+05         0.00000E+00
    0.53122E+05         0.28690E+08         0.00000E+00
    0.00000E+00         0.00000E+00         0.12338E+08
 
    0.12417E+08         0.55138E+05         0.00000E+00
    0.55138E+05         0.28644E+08         0.00000E+00
    0.00000E+00         0.00000E+00         0.12318E+08
 
    0.12396E+08         0.57096E+05         0.00000E+00
    0.57096E+05         0.28597E+08         0.00000E+00
    0.00000E+00         0.00000E+00         0.12298E+08
 
    0.12375E+08         0.59006E+05         0.00000E+00
    0.59006E+05         0.28549E+08         0.00000E+00
    0.00000E+00         0.00000E+00         0.12277E+08
 
    0.12354E+08         0.60880E+05         0.00000E+00
    0.60880E+05         0.28499E+08         0.00000E+00
    0.00000E+00         0.00000E+00         0.12256E+08
 
    0.12333E+08         0.62726E+05         0.00000E+00
    0.62726E+05         0.28449E+08         0.00000E+00
    0.00000E+00         0.00000E+00         0.12235E+08
 
    0.12312E+08         0.64549E+05         0.00000E+00
    0.64549E+05         0.28398E+08         0.00000E+00
    0.00000E+00         0.00000E+00         0.12213E+08
 
    0.12291E+08         0.66357E+05         0.00000E+00
    0.66357E+05         0.28346E+08         0.00000E+00
    0.00000E+00         0.00000E+00         0.12191E+08
 
    0.12269E+08         0.68153E+05         0.00000E+00
    0.68153E+05         0.28292E+08         0.00000E+00
    0.00000E+00         0.00000E+00         0.12168E+08
 
    0.12247E+08         0.69942E+05         0.00000E+00
    0.69942E+05         0.28237E+08         0.00000E+00
    0.00000E+00         0.00000E+00         0.12145E+08
 
    0.12224E+08         0.71728E+05         0.00000E+00
    0.71728E+05         0.28181E+08         0.00000E+00
    0.00000E+00         0.00000E+00         0.12122E+08
 
    0.12201E+08         0.73513E+05         0.00000E+00
    0.73513E+05         0.28124E+08         0.00000E+00
    0.00000E+00         0.00000E+00         0.12098E+08
 
    0.12178E+08         0.75299E+05         0.00000E+00
    0.75299E+05         0.28065E+08         0.00000E+00
    0.00000E+00         0.00000E+00         0.12073E+08
 
    0.12154E+08         0.77087E+05         0.00000E+00
    0.77087E+05         0.28005E+08         0.00000E+00
    0.00000E+00         0.00000E+00         0.12048E+08
 
    0.12129E+08         0.78880E+05         0.00000E+00
    0.78880E+05         0.27944E+08         0.00000E+00
    0.00000E+00         0.00000E+00         0.12022E+08
 
    0.12104E+08         0.80678E+05         0.00000E+00
    0.80678E+05         0.27881E+08         0.00000E+00
    0.00000E+00         0.00000E+00         0.11996E+08
 
    0.12079E+08         0.82482E+05         0.00000E+00
    0.82482E+05         0.27817E+08         0.00000E+00
    0.00000E+00         0.00000E+00         0.11969E+08
 
    0.12052E+08         0.84291E+05         0.00000E+00
    0.84291E+05         0.27751E+08         0.00000E+00
    0.00000E+00         0.00000E+00         0.11941E+08
 
    0.12025E+08         0.86106E+05         0.00000E+00
    0.86106E+05         0.27684E+08         0.00000E+00
    0.00000E+00         0.00000E+00         0.11913E+08
 
    0.11997E+08         0.87927E+05         0.00000E+00
    0.87927E+05         0.27615E+08         0.00000E+00
    0.00000E+00         0.00000E+00         0.11884E+08
 
    0.11969E+08         0.89753E+05         0.00000E+00
    0.89753E+05         0.27544E+08         0.00000E+00
    0.00000E+00         0.00000E+00         0.11854E+08
 
    0.11939E+08         0.91582E+05         0.00000E+00
    0.91582E+05         0.27472E+08         0.00000E+00
    0.00000E+00         0.00000E+00         0.11823E+08
 
    0.11909E+08         0.93414E+05         0.00000E+00
    0.93414E+05         0.27398E+08         0.00000E+00
    0.00000E+00         0.00000E+00         0.11792E+08
 
    0.11878E+08         0.95248E+05         0.00000E+00
    0.95248E+05         0.27322E+08         0.00000E+00
    0.00000E+00         0.00000E+00         0.11760E+08
 
    0.11846E+08         0.97080E+05         0.00000E+00
    0.97080E+05         0.27245E+08         0.00000E+00
    0.00000E+00         0.00000E+00         0.11727E+08
 
    0.11813E+08         0.98911E+05         0.00000E+00
    0.98911E+05         0.27165E+08         0.00000E+00
    0.00000E+00         0.00000E+00         0.11694E+08
 
    0.11779E+08         0.10074E+06         0.00000E+00
    0.10074E+06         0.27084E+08         0.00000E+00
    0.00000E+00         0.00000E+00         0.11659E+08
 
    0.11744E+08         0.10255E+06         0.00000E+00
    0.10255E+06         0.27001E+08         0.00000E+00
    0.00000E+00         0.00000E+00         0.11624E+08
 
    0.11708E+08         0.10436E+06         0.00000E+00
    0.10436E+06         0.26916E+08         0.00000E+00
    0.00000E+00         0.00000E+00         0.11587E+08
 
    0.11672E+08         0.10615E+06         0.00000E+00
    0.10615E+06         0.26829E+08         0.00000E+00
    0.00000E+00         0.00000E+00         0.11550E+08
 
    0.11633E+08         0.10793E+06         0.00000E+00
    0.10793E+06         0.26740E+08         0.00000E+00
    0.00000E+00         0.00000E+00         0.11512E+08
 
    0.11594E+08         0.10969E+06         0.00000E+00
    0.10969E+06         0.26649E+08         0.00000E+00
    0.00000E+00         0.00000E+00         0.11473E+08
 
    0.11554E+08         0.11142E+06         0.00000E+00
    0.11142E+06         0.26556E+08         0.00000E+00
    0.00000E+00         0.00000E+00         0.11433E+08
 
    0.11512E+08         0.11312E+06         0.00000E+00
    0.11312E+06         0.26461E+08         0.00000E+00
    0.00000E+00         0.00000E+00         0.11392E+08
 
    0.11469E+08         0.11478E+06         0.00000E+00
    0.11478E+06         0.26364E+08         0.00000E+00
    0.00000E+00         0.00000E+00         0.11350E+08
 
    0.11425E+08         0.11640E+06         0.00000E+00
    0.11640E+06         0.26265E+08         0.00000E+00
    0.00000E+00         0.00000E+00         0.11307E+08
 
    0.11380E+08         0.11798E+06         0.00000E+00
    0.11798E+06         0.26164E+08         0.00000E+00
    0.00000E+00         0.00000E+00         0.11263E+08
 
    0.11333E+08         0.11951E+06         0.00000E+00
    0.11951E+06         0.26060E+08         0.00000E+00
    0.00000E+00         0.00000E+00         0.11218E+08
 
    0.11285E+08         0.12097E+06         0.00000E+00
    0.12097E+06         0.25955E+08         0.00000E+00
    0.00000E+00         0.00000E+00         0.11172E+08
 
    0.11235E+08         0.12237E+06         0.00000E+00
    0.12237E+06         0.25847E+08         0.00000E+00
    0.00000E+00         0.00000E+00         0.11125E+08
 
    0.11184E+08         0.12369E+06         0.00000E+00
    0.12369E+06         0.25737E+08         0.00000E+00
    0.00000E+00         0.00000E+00         0.11076E+08
 
    0.11132E+08         0.12493E+06         0.00000E+00
    0.12493E+06         0.25625E+08         0.00000E+00
    0.00000E+00         0.00000E+00         0.11027E+08
 
    0.11078E+08         0.12608E+06         0.00000E+00
    0.12608E+06         0.25511E+08         0.00000E+00
    0.00000E+00         0.00000E+00         0.10977E+08
 
    0.11022E+08         0.12713E+06         0.00000E+00
    0.12713E+06         0.25394E+08         0.00000E+00
    0.00000E+00         0.00000E+00         0.10925E+08
 
    0.10964E+08         0.12806E+06         0.00000E+00
    0.12806E+06         0.25276E+08         0.00000E+00
    0.00000E+00         0.00000E+00         0.10872E+08
 
    0.10905E+08         0.12887E+06         0.00000E+00
    0.12887E+06         0.25155E+08         0.00000E+00
    0.00000E+00         0.00000E+00         0.10818E+08
 
    0.10844E+08         0.12954E+06         0.00000E+00
    0.12954E+06         0.25032E+08         0.00000E+00
    0.00000E+00         0.00000E+00         0.10763E+08
 
    0.10782E+08         0.13006E+06         0.00000E+00
    0.13006E+06         0.24907E+08         0.00000E+00
    0.00000E+00         0.00000E+00         0.10707E+08
 
    0.10717E+08         0.13041E+06         0.00000E+00
    0.13041E+06         0.24780E+08         0.00000E+00
    0.00000E+00         0.00000E+00         0.10649E+08
 
    0.10650E+08         0.13057E+06         0.00000E+00
    0.13057E+06         0.24650E+08         0.00000E+00
    0.00000E+00         0.00000E+00         0.10590E+08
 
    0.10582E+08         0.13053E+06         0.00000E+00
    0.13053E+06         0.24518E+08         0.00000E+00
    0.00000E+00         0.00000E+00         0.10530E+08
 
    0.10511E+08         0.13026E+06         0.00000E+00
    0.13026E+06         0.24385E+08         0.00000E+00
    0.00000E+00         0.00000E+00         0.10469E+08
 
    0.10438E+08         0.12974E+06         0.00000E+00
    0.12974E+06         0.24249E+08         0.00000E+00
    0.00000E+00         0.00000E+00         0.10406E+08
 
    0.10363E+08         0.12894E+06         0.00000E+00
    0.12894E+06         0.24111E+08         0.00000E+00
    0.00000E+00         0.00000E+00         0.10342E+08
 
    0.10285E+08         0.12782E+06         0.00000E+00
    0.12782E+06         0.23971E+08         0.00000E+00
    0.00000E+00         0.00000E+00         0.10277E+08
 
    0.10205E+08         0.12635E+06         0.00000E+00
    0.12635E+06         0.23829E+08         0.00000E+00
    0.00000E+00         0.00000E+00         0.10210E+08
 
    0.10123E+08         0.12448E+06         0.00000E+00
    0.12448E+06         0.23685E+08         0.00000E+00
    0.00000E+00         0.00000E+00         0.10142E+08
 
    0.10037E+08         0.12215E+06         0.00000E+00
    0.12215E+06         0.23539E+08         0.00000E+00
    0.00000E+00         0.00000E+00         0.10073E+08
 
    0.99490E+07         0.11931E+06         0.00000E+00
    0.11931E+06         0.23392E+08         0.00000E+00
    0.00000E+00         0.00000E+00         0.10002E+08
 
    0.98576E+07         0.11589E+06         0.00000E+00
    0.11589E+06         0.23242E+08         0.00000E+00
    0.00000E+00         0.00000E+00         0.99299E+07
 
    0.97629E+07         0.11180E+06         0.00000E+00
    0.11180E+06         0.23091E+08         0.00000E+00
    0.00000E+00         0.00000E+00         0.98561E+07
 
    0.96647E+07         0.10697E+06         0.00000E+00
    0.10697E+06         0.22937E+08         0.00000E+00
    0.00000E+00         0.00000E+00         0.97807E+07
 
    0.95628E+07         0.10129E+06         0.00000E+00
    0.10129E+06         0.22783E+08         0.00000E+00
    0.00000E+00         0.00000E+00         0.97036E+07
 
    0.94568E+07         0.94658E+05         0.00000E+00
    0.94658E+05         0.22626E+08         0.00000E+00
    0.00000E+00         0.00000E+00         0.96248E+07
 
    0.93466E+07         0.86978E+05         0.00000E+00
    0.86978E+05         0.22468E+08         0.00000E+00
    0.00000E+00         0.00000E+00         0.95443E+07
 
    0.92317E+07         0.78148E+05         0.00000E+00
    0.78148E+05         0.22308E+08         0.00000E+00
    0.00000E+00         0.00000E+00         0.94619E+07
 
    0.91119E+07         0.68085E+05         0.00000E+00
    0.68085E+05         0.22147E+08         0.00000E+00
    0.00000E+00         0.00000E+00         0.93776E+07
 
    0.89869E+07         0.56733E+05         0.00000E+00
    0.56733E+05         0.21984E+08         0.00000E+00
    0.00000E+00         0.00000E+00         0.92914E+07
 
    0.88563E+07         0.44088E+05         0.00000E+00
    0.44088E+05         0.21821E+08         0.00000E+00
    0.00000E+00         0.00000E+00         0.92032E+07
 
    0.87199E+07         0.30217E+05         0.00000E+00
    0.30217E+05         0.21656E+08         0.00000E+00
    0.00000E+00         0.00000E+00         0.91129E+07
 
    0.85775E+07         0.15294E+05         0.00000E+00
    0.15294E+05         0.21491E+08         0.00000E+00
    0.00000E+00         0.00000E+00         0.90206E+07
 
    0.84292E+07        -0.35885E+03         0.00000E+00
   -0.35885E+03         0.21325E+08         0.00000E+00
    0.00000E+00         0.00000E+00         0.89263E+07
 
    0.82750E+07        -0.16221E+05         0.00000E+00
   -0.16221E+05         0.21159E+08         0.00000E+00
    0.00000E+00         0.00000E+00         0.88303E+07
 
    0.81156E+07        -0.31493E+05         0.00000E+00
   -0.31493E+05         0.20994E+08         0.00000E+00
    0.00000E+00         0.00000E+00         0.87327E+07
 
    0.79522E+07        -0.44955E+05         0.00000E+00
   -0.44955E+05         0.20829E+08         0.00000E+00
    0.00000E+00         0.00000E+00         0.86342E+07
 
    0.77865E+07        -0.54682E+05         0.00000E+00
   -0.54682E+05         0.20665E+08         0.00000E+00
    0.00000E+00         0.00000E+00         0.85355E+07
 
    0.76216E+07        -0.57168E+05         0.00000E+00
   -0.57168E+05         0.20506E+08         0.00000E+00
    0.00000E+00         0.00000E+00         0.84382E+07
 
    0.74597E+07        -0.46452E+05         0.00000E+00
   -0.46452E+05         0.20358E+08         0.00000E+00
    0.00000E+00         0.00000E+00         0.83452E+07
 
    0.72979E+07        -0.18477E+05         0.00000E+00
   -0.18477E+05         0.20238E+08         0.00000E+00
    0.00000E+00         0.00000E+00         0.82608E+07
 
    0.13018E+08        -0.36344E+04         0.00000E+00
   -0.36344E+04         0.29510E+08         0.00000E+00
    0.00000E+00         0.00000E+00         0.12758E+08
 
    0.12984E+08        -0.86741E+04         0.00000E+00
   -0.86741E+04         0.29483E+08         0.00000E+00
    0.00000E+00         0.00000E+00         0.12740E+08
 
    0.12949E+08        -0.96890E+04         0.00000E+00
   -0.96890E+04         0.29450E+08         0.00000E+00
    0.00000E+00         0.00000E+00         0.12720E+08
 
    0.12913E+08        -0.79177E+04         0.00000E+00
   -0.79177E+04         0.29415E+08         0.00000E+00
    0.00000E+00         0.00000E+00         0.12698E+08
 
    0.12878E+08        -0.47572E+04         0.00000E+00
   -0.47572E+04         0.29378E+08         0.00000E+00
    0.00000E+00         0.00000E+00         0.12677E+08
 
    0.12844E+08        -0.91123E+03         0.00000E+00
   -0.91123E+03         0.29342E+08         0.00000E+00
    0.00000E+00         0.00000E+00         0.12656E+08
 
    0.12811E+08         0.32538E+04         0.00000E+00
    0.32538E+04         0.29305E+08         0.00000E+00
    0.00000E+00         0.00000E+00         0.12635E+08
 
    0.12779E+08         0.75078E+04         0.00000E+00
    0.75078E+04         0.29267E+08         0.00000E+00
    0.00000E+00         0.00000E+00         0.12614E+08
 
    0.12748E+08         0.11702E+05         0.00000E+00
    0.11702E+05         0.29229E+08         0.00000E+00
    0.00000E+00         0.00000E+00         0.12593E+08
 
    0.12719E+08         0.15743E+05         0.00000E+00
    0.15743E+05         0.29191E+08         0.00000E+00
    0.00000E+00         0.00000E+00         0.12573E+08
 
    0.12691E+08         0.19572E+05         0.00000E+00
    0.19572E+05         0.29152E+08         0.00000E+00
    0.00000E+00         0.00000E+00         0.12553E+08
 
    0.12665E+08         0.23162E+05         0.00000E+00
    0.23162E+05         0.29113E+08         0.00000E+00
    0.00000E+00         0.00000E+00         0.12533E+08
 
    0.12639E+08         0.26505E+05         0.00000E+00
    0.26505E+05         0.29073E+08         0.00000E+00
    0.00000E+00         0.00000E+00         0.12514E+08
 
    0.12614E+08         0.29606E+05         0.00000E+00
    0.29606E+05         0.29033E+08         0.00000E+00
    0.00000E+00         0.00000E+00         0.12494E+08
 
    0.12591E+08         0.32481E+05         0.00000E+00
    0.32481E+05         0.28993E+08         0.00000E+00
    0.00000E+00         0.00000E+00         0.12475E+08
 
    0.12568E+08         0.35150E+05         0.00000E+00
    0.35150E+05         0.28951E+08         0.00000E+00
    0.00000E+00         0.00000E+00         0.12456E+08
 
    0.12545E+08         0.37637E+05         0.00000E+00
    0.37637E+05         0.28909E+08         0.00000E+00
    0.00000E+00         0.00000E+00         0.12436E+08
 
    0.12524E+08         0.39963E+05         0.00000E+00
    0.39963E+05         0.28867E+08         0.00000E+00
    0.00000E+00         0.00000E+00         0.12417E+08
 
    0.12502E+08         0.42152E+05         0.00000E+00
    0.42152E+05         0.28824E+08         0.00000E+00
    0.00000E+00         0.00000E+00         0.12398E+08
 
    0.12481E+08         0.44225E+05         0.00000E+00
    0.44225E+05         0.28780E+08         0.00000E+00
    0.00000E+00         0.00000E+00         0.12378E+08
 
    0.12460E+08         0.46201E+05         0.00000E+00
    0.46201E+05         0.28735E+08         0.00000E+00
    0.00000E+00         0.00000E+00         0.12359E+08
 
    0.12439E+08         0.48095E+05         0.00000E+00
    0.48095E+05         0.28690E+08         0.00000E+00
    0.00000E+00         0.00000E+00         0.12339E+08
 
    0.12419E+08         0.49924E+05         0.00000E+00
    0.49924E+05         0.28644E+08         0.00000E+00
    0.00000E+00         0.00000E+00         0.12319E+08
 
    0.12398E+08         0.51698E+05         0.00000E+00
    0.51698E+05         0.28596E+08         0.00000E+00
    0.00000E+00         0.00000E+00         0.12298E+08
 
    0.12377E+08         0.53430E+05         0.00000E+00
    0.53430E+05         0.28548E+08         0.00000E+00
    0.00000E+00         0.00000E+00         0.12278E+08
 
    0.12357E+08         0.55127E+05         0.00000E+00
    0.55127E+05         0.28499E+08         0.00000E+00
    0.00000E+00         0.00000E+00         0.12257E+08
 
    0.12336E+08         0.56798E+05         0.00000E+00
    0.56798E+05         0.28449E+08         0.00000E+00
    0.00000E+00         0.00000E+00         0.12235E+08
 
    0.12314E+08         0.58449E+05         0.00000E+00
    0.58449E+05         0.28398E+08         0.00000E+00
    0.00000E+00         0.00000E+00         0.12214E+08
 
    0.12293E+08         0.60086E+05         0.00000E+00
    0.60086E+05         0.28345E+08         0.00000E+00
    0.00000E+00         0.00000E+00         0.12191E+08
 
    0.12271E+08         0.61712E+05         0.00000E+00
    0.61712E+05         0.28292E+08         0.00000E+00
    0.00000E+00         0.00000E+00         0.12169E+08
 
    0.12249E+08         0.63331E+05         0.00000E+00
    0.63331E+05         0.28237E+08         0.00000E+00
    0.00000E+00         0.00000E+00         0.12146E+08
 
    0.12227E+08         0.64947E+05         0.00000E+00
    0.64947E+05         0.28181E+08         0.00000E+00
    0.00000E+00         0.00000E+00         0.12122E+08
 
    0.12204E+08         0.66562E+05         0.00000E+00
    0.66562E+05         0.28124E+08         0.00000E+00
    0.00000E+00         0.00000E+00         0.12098E+08
 
    0.12180E+08         0.68178E+05         0.00000E+00
    0.68178E+05         0.28065E+08         0.00000E+00
    0.00000E+00         0.00000E+00         0.12074E+08
 
    0.12157E+08         0.69797E+05         0.00000E+00
    0.69797E+05         0.28005E+08         0.00000E+00
    0.00000E+00         0.00000E+00         0.12049E+08
 
    0.12132E+08         0.71419E+05         0.00000E+00
    0.71419E+05         0.27944E+08         0.00000E+00
    0.00000E+00         0.00000E+00         0.12023E+08
 
    0.12107E+08         0.73045E+05         0.00000E+00
    0.73045E+05         0.27881E+08         0.00000E+00
    0.00000E+00         0.00000E+00         0.11996E+08
 
    0.12081E+08         0.74676E+05         0.00000E+00
    0.74676E+05         0.27817E+08         0.00000E+00
    0.00000E+00         0.00000E+00         0.11969E+08
 
    0.12055E+08         0.76313E+05         0.00000E+00
    0.76313E+05         0.27751E+08         0.00000E+00
    0.00000E+00         0.00000E+00         0.11942E+08
 
    0.12028E+08         0.77954E+05         0.00000E+00
    0.77954E+05         0.27683E+08         0.00000E+00
    0.00000E+00         0.00000E+00         0.11913E+08
 
    0.12000E+08         0.79601E+05         0.00000E+00
    0.79601E+05         0.27614E+08         0.00000E+00
    0.00000E+00         0.00000E+00         0.11884E+08
 
    0.11972E+08         0.81251E+05         0.00000E+00
    0.81251E+05         0.27544E+08         0.00000E+00
    0.00000E+00         0.00000E+00         0.11855E+08
 
    0.11942E+08         0.82905E+05         0.00000E+00
    0.82905E+05         0.27472E+08         0.00000E+00
    0.00000E+00         0.00000E+00         0.11824E+08
 
    0.11912E+08         0.84561E+05         0.00000E+00
    0.84561E+05         0.27398E+08         0.00000E+00
    0.00000E+00         0.00000E+00         0.11793E+08
 
    0.11881E+08         0.86218E+05         0.00000E+00
    0.86218E+05         0.27322E+08         0.00000E+00
    0.00000E+00         0.00000E+00         0.11761E+08
 
    0.11849E+08         0.87874E+05         0.00000E+00
    0.87874E+05         0.27244E+08         0.00000E+00
    0.00000E+00         0.00000E+00         0.11728E+08
 
    0.11816E+08         0.89528E+05         0.00000E+00
    0.89528E+05         0.27165E+08         0.00000E+00
    0.00000E+00         0.00000E+00         0.11694E+08
 
    0.11783E+08         0.91177E+05         0.00000E+00
    0.91177E+05         0.27084E+08         0.00000E+00
    0.00000E+00         0.00000E+00         0.11660E+08
 
    0.11748E+08         0.92819E+05         0.00000E+00
    0.92819E+05         0.27001E+08         0.00000E+00
    0.00000E+00         0.00000E+00         0.11624E+08
 
    0.11712E+08         0.94452E+05         0.00000E+00
    0.94452E+05         0.26916E+08         0.00000E+00
    0.00000E+00         0.00000E+00         0.11588E+08
 
    0.11675E+08         0.96072E+05         0.00000E+00
    0.96072E+05         0.26829E+08         0.00000E+00
    0.00000E+00         0.00000E+00         0.11551E+08
 
    0.11637E+08         0.97675E+05         0.00000E+00
    0.97675E+05         0.26740E+08         0.00000E+00
    0.00000E+00         0.00000E+00         0.11513E+08
 
    0.11598E+08         0.99260E+05         0.00000E+00
    0.99260E+05         0.26649E+08         0.00000E+00
    0.00000E+00         0.00000E+00         0.11474E+08
 
    0.11557E+08         0.10082E+06         0.00000E+00
    0.10082E+06         0.26556E+08         0.00000E+00
    0.00000E+00         0.00000E+00         0.11434E+08
 
    0.11516E+08         0.10235E+06         0.00000E+00
    0.10235E+06         0.26461E+08         0.00000E+00
    0.00000E+00         0.00000E+00         0.11393E+08
 
    0.11473E+08         0.10386E+06         0.00000E+00
    0.10386E+06         0.26364E+08         0.00000E+00
    0.00000E+00         0.00000E+00         0.11351E+08
 
    0.11429E+08         0.10532E+06         0.00000E+00
    0.10532E+06         0.26265E+08         0.00000E+00
    0.00000E+00         0.00000E+00         0.11308E+08
 
    0.11383E+08         0.10674E+06         0.00000E+00
    0.10674E+06         0.26163E+08         0.00000E+00
    0.00000E+00         0.00000E+00         0.11264E+08
 
    0.11337E+08         0.10812E+06         0.00000E+00
    0.10812E+06         0.26060E+08         0.00000E+00
    0.00000E+00         0.00000E+00         0.11219E+08
 
    0.11288E+08         0.10944E+06         0.00000E+00
    0.10944E+06         0.25954E+08         0.00000E+00
    0.00000E+00         0.00000E+00         0.11173E+08
 
    0.11239E+08         0.11070E+06         0.00000E+00
    0.11070E+06         0.25847E+08         0.00000E+00
    0.00000E+00         0.00000E+00         0.11126E+08
 
    0.11188E+08         0.11189E+06         0.00000E+00
    0.11189E+06         0.25737E+08         0.00000E+00
    0.00000E+00         0.00000E+00         0.11077E+08
 
    0.11135E+08         0.11300E+06         0.00000E+00
    0.11300E+06         0.25625E+08         0.00000E+00
    0.00000E+00         0.00000E+00         0.11028E+08
 
    0.11081E+08         0.11403E+06         0.00000E+00
    0.11403E+06         0.25511E+08         0.00000E+00
    0.00000E+00         0.00000E+00         0.10977E+08
 
    0.11025E+08         0.11497E+06         0.00000E+00
    0.11497E+06         0.25394E+08         0.00000E+00
    0.00000E+00         0.00000E+00         0.10926E+08
 
    0.10967E+08         0.11581E+06         0.00000E+00
    0.11581E+06         0.25276E+08         0.00000E+00
    0.00000E+00         0.00000E+00         0.10873E+08
 
    0.10908E+08         0.11653E+06         0.00000E+00
    0.11653E+06         0.25155E+08         0.00000E+00
    0.00000E+00         0.00000E+00         0.10819E+08
 
    0.10847E+08         0.11713E+06         0.00000E+00
    0.11713E+06         0.25032E+08         0.00000E+00
    0.00000E+00         0.00000E+00         0.10764E+08
 
    0.10784E+08         0.11759E+06         0.00000E+00
    0.11759E+06         0.24907E+08         0.00000E+00
    0.00000E+00         0.00000E+00         0.10707E+08
 
    0.10720E+08         0.11790E+06         0.00000E+00
    0.11790E+06         0.24779E+08         0.00000E+00
    0.00000E+00         0.00000E+00         0.10650E+08
 
    0.10653E+08         0.11804E+06         0.00000E+00
    0.11804E+06         0.24650E+08         0.00000E+00
    0.00000E+00         0.00000E+00         0.10591E+08
 
    0.10584E+08         0.11799E+06         0.00000E+00
    0.11799E+06         0.24518E+08         0.00000E+00
    0.00000E+00         0.00000E+00         0.10531E+08
 
    0.10513E+08         0.11774E+06         0.00000E+00
    0.11774E+06         0.24385E+08         0.00000E+00
    0.00000E+00         0.00000E+00         0.10469E+08
 
    0.10440E+08         0.11726E+06         0.00000E+00
    0.11726E+06         0.24249E+08         0.00000E+00
    0.00000E+00         0.00000E+00         0.10407E+08
 
    0.10365E+08         0.11652E+06         0.00000E+00
    0.11652E+06         0.24111E+08         0.00000E+00
    0.00000E+00         0.00000E+00         0.10343E+08
 
    0.10287E+08         0.11549E+06         0.00000E+00
    0.11549E+06         0.23971E+08         0.00000E+00
    0.00000E+00         0.00000E+00         0.10278E+08
 
    0.10207E+08         0.11414E+06         0.00000E+00
    0.11414E+06         0.23830E+08         0.00000E+00
    0.00000E+00         0.00000E+00         0.10211E+08
 
    0.10124E+08         0.11243E+06         0.00000E+00
    0.11243E+06         0.23686E+08         0.00000E+00
    0.00000E+00         0.00000E+00         0.10143E+08
 
    0.10038E+08         0.11030E+06         0.00000E+00
    0.11030E+06         0.23540E+08         0.00000E+00
    0.00000E+00         0.00000E+00         0.10074E+08
 
    0.99498E+07         0.10770E+06         0.00000E+00
    0.10770E+06         0.23392E+08         0.00000E+00
    0.00000E+00         0.00000E+00         0.10003E+08
 
    0.98580E+07         0.10457E+06         0.00000E+00
    0.10457E+06         0.23243E+08         0.00000E+00
    0.00000E+00         0.00000E+00         0.99302E+07
 
    0.97629E+07         0.10083E+06         0.00000E+00
    0.10083E+06         0.23092E+08         0.00000E+00
    0.00000E+00         0.00000E+00         0.98563E+07
 
    0.96642E+07         0.96395E+05         0.00000E+00
    0.96395E+05         0.22938E+08         0.00000E+00
    0.00000E+00         0.00000E+00         0.97808E+07
 
    0.95617E+07         0.91184E+05         0.00000E+00
    0.91184E+05         0.22784E+08         0.00000E+00
    0.00000E+00         0.00000E+00         0.97036E+07
 
    0.94552E+07         0.85095E+05         0.00000E+00
    0.85095E+05         0.22627E+08         0.00000E+00
    0.00000E+00         0.00000E+00         0.96247E+07
 
    0.93442E+07         0.78032E+05         0.00000E+00
    0.78032E+05         0.22469E+08         0.00000E+00
    0.00000E+00         0.00000E+00         0.95440E+07
 
    0.92284E+07         0.69900E+05         0.00000E+00
    0.69900E+05         0.22310E+08         0.00000E+00
    0.00000E+00         0.00000E+00         0.94615E+07
 
    0.91076E+07         0.60618E+05         0.00000E+00
    0.60618E+05         0.22149E+08         0.00000E+00
    0.00000E+00         0.00000E+00         0.93770E+07
 
    0.89813E+07         0.50131E+05         0.00000E+00
    0.50131E+05         0.21987E+08         0.00000E+00
    0.00000E+00         0.00000E+00         0.92904E+07
 
    0.88492E+07         0.38428E+05         0.00000E+00
    0.38428E+05         0.21823E+08         0.00000E+00
    0.00000E+00         0.00000E+00         0.92018E+07
 
    0.87110E+07         0.25566E+05         0.00000E+00
    0.25566E+05         0.21659E+08         0.00000E+00
    0.00000E+00         0.00000E+00         0.91110E+07
 
    0.85666E+07         0.11697E+05         0.00000E+00
    0.11697E+05         0.21494E+08         0.00000E+00
    0.00000E+00         0.00000E+00         0.90182E+07
 
    0.84158E+07        -0.28943E+04         0.00000E+00
   -0.28943E+04         0.21328E+08         0.00000E+00
    0.00000E+00         0.00000E+00         0.89232E+07
 
    0.82588E+07        -0.17746E+05         0.00000E+00
   -0.17746E+05         0.21162E+08         0.00000E+00
    0.00000E+00         0.00000E+00         0.88263E+07
 
    0.80962E+07        -0.32149E+05         0.00000E+00
   -0.32149E+05         0.20996E+08         0.00000E+00
    0.00000E+00         0.00000E+00         0.87278E+07
 
    0.79290E+07        -0.45018E+05         0.00000E+00
   -0.45018E+05         0.20831E+08         0.00000E+00
    0.00000E+00         0.00000E+00         0.86280E+07
 
    0.77594E+07        -0.54640E+05         0.00000E+00
   -0.54640E+05         0.20667E+08         0.00000E+00
    0.00000E+00         0.00000E+00         0.85278E+07
 
    0.75905E+07        -0.57754E+05         0.00000E+00
   -0.57754E+05         0.20505E+08         0.00000E+00
    0.00000E+00         0.00000E+00         0.84288E+07
 
    0.74258E+07        -0.47909E+05         0.00000E+00
   -0.47909E+05         0.20354E+08         0.00000E+00
    0.00000E+00         0.00000E+00         0.83339E+07
 
    0.72630E+07        -0.19409E+05         0.00000E+00
   -0.19409E+05         0.20231E+08         0.00000E+00
    0.00000E+00         0.00000E+00         0.82481E+07
 
    0.13027E+08        -0.38817E+04         0.00000E+00
   -0.38817E+04         0.29511E+08         0.00000E+00
    0.00000E+00         0.00000E+00         0.12761E+08
 
    0.12992E+08        -0.90591E+04         0.00000E+00
   -0.90591E+04         0.29483E+08         0.00000E+00
    0.00000E+00         0.00000E+00         0.12743E+08
 
    0.12956E+08        -0.99062E+04         0.00000E+00
   -0.99062E+04         0.29450E+08         0.00000E+00
    0.00000E+00         0.00000E+00         0.12722E+08
 
    0.12920E+08        -0.80902E+04         0.00000E+00
   -0.80902E+04         0.29414E+08         0.00000E+00
    0.00000E+00         0.00000E+00         0.12700E+08
 
    0.12884E+08        -0.50749E+04         0.00000E+00
   -0.50749E+04         0.29378E+08         0.00000E+00
    0.00000E+00         0.00000E+00         0.12679E+08
 
    0.12849E+08        -0.14821E+04         0.00000E+00
   -0.14821E+04         0.29341E+08         0.00000E+00
    0.00000E+00         0.00000E+00         0.12657E+08
 
    0.12815E+08         0.23705E+04         0.00000E+00
    0.23705E+04         0.29304E+08         0.00000E+00
    0.00000E+00         0.00000E+00         0.12636E+08
 
    0.12783E+08         0.62821E+04         0.00000E+00
    0.62821E+04         0.29266E+08         0.00000E+00
    0.00000E+00         0.00000E+00         0.12615E+08
 
    0.12752E+08         0.10125E+05         0.00000E+00
    0.10125E+05         0.29228E+08         0.00000E+00
    0.00000E+00         0.00000E+00         0.12594E+08
 
    0.12722E+08         0.13815E+05         0.00000E+00
    0.13815E+05         0.29190E+08         0.00000E+00
    0.00000E+00         0.00000E+00         0.12574E+08
 
    0.12694E+08         0.17305E+05         0.00000E+00
    0.17305E+05         0.29151E+08         0.00000E+00
    0.00000E+00         0.00000E+00         0.12554E+08
 
    0.12667E+08         0.20569E+05         0.00000E+00
    0.20569E+05         0.29112E+08         0.00000E+00
    0.00000E+00         0.00000E+00         0.12534E+08
 
    0.12641E+08         0.23603E+05         0.00000E+00
    0.23603E+05         0.29073E+08         0.00000E+00
    0.00000E+00         0.00000E+00         0.12514E+08
 
    0.12617E+08         0.26413E+05         0.00000E+00
    0.26413E+05         0.29033E+08         0.00000E+00
    0.00000E+00         0.00000E+00         0.12495E+08
 
    0.12593E+08         0.29013E+05         0.00000E+00
    0.29013E+05         0.28992E+08         0.00000E+00
    0.00000E+00         0.00000E+00         0.12475E+08
 
    0.12570E+08         0.31423E+05         0.00000E+00
    0.31423E+05         0.28951E+08         0.00000E+00
    0.00000E+00         0.00000E+00         0.12456E+08
 
    0.12547E+08         0.33665E+05         0.00000E+00
    0.33665E+05         0.28909E+08         0.00000E+00
    0.00000E+00         0.00000E+00         0.12437E+08
 
    0.12526E+08         0.35760E+05         0.00000E+00
    0.35760E+05         0.28867E+08         0.00000E+00
    0.00000E+00         0.00000E+00         0.12418E+08
 
    0.12504E+08         0.37729E+05         0.00000E+00
    0.37729E+05         0.28823E+08         0.00000E+00
    0.00000E+00         0.00000E+00         0.12398E+08
 
    0.12483E+08         0.39591E+05         0.00000E+00
    0.39591E+05         0.28780E+08         0.00000E+00
    0.00000E+00         0.00000E+00         0.12379E+08
 
    0.12462E+08         0.41364E+05         0.00000E+00
    0.41364E+05         0.28735E+08         0.00000E+00
    0.00000E+00         0.00000E+00         0.12359E+08
 
    0.12441E+08         0.43064E+05         0.00000E+00
    0.43064E+05         0.28690E+08         0.00000E+00
    0.00000E+00         0.00000E+00         0.12339E+08
 
    0.12421E+08         0.44703E+05         0.00000E+00
    0.44703E+05         0.28643E+08         0.00000E+00
    0.00000E+00         0.00000E+00         0.12319E+08
 
    0.12400E+08         0.46294E+05         0.00000E+00
    0.46294E+05         0.28596E+08         0.00000E+00
    0.00000E+00         0.00000E+00         0.12299E+08
 
    0.12380E+08         0.47845E+05         0.00000E+00
    0.47845E+05         0.28548E+08         0.00000E+00
    0.00000E+00         0.00000E+00         0.12278E+08
 
    0.12359E+08         0.49365E+05         0.00000E+00
    0.49365E+05         0.28499E+08         0.00000E+00
    0.00000E+00         0.00000E+00         0.12257E+08
 
    0.12338E+08         0.50862E+05         0.00000E+00
    0.50862E+05         0.28449E+08         0.00000E+00
    0.00000E+00         0.00000E+00         0.12236E+08
 
    0.12317E+08         0.52340E+05         0.00000E+00
    0.52340E+05         0.28397E+08         0.00000E+00
    0.00000E+00         0.00000E+00         0.12214E+08
 
    0.12295E+08         0.53805E+05         0.00000E+00
    0.53805E+05         0.28345E+08         0.00000E+00
    0.00000E+00         0.00000E+00         0.12192E+08
 
    0.12274E+08         0.55261E+05         0.00000E+00
    0.55261E+05         0.28291E+08         0.00000E+00
    0.00000E+00         0.00000E+00         0.12170E+08
 
    0.12252E+08         0.56710E+05         0.00000E+00
    0.56710E+05         0.28237E+08         0.00000E+00
    0.00000E+00         0.00000E+00         0.12146E+08
 
    0.12229E+08         0.58157E+05         0.00000E+00
    0.58157E+05         0.28181E+08         0.00000E+00
    0.00000E+00         0.00000E+00         0.12123E+08
 
    0.12206E+08         0.59602E+05         0.00000E+00
    0.59602E+05         0.28123E+08         0.00000E+00
    0.00000E+00         0.00000E+00         0.12099E+08
 
    0.12183E+08         0.61048E+05         0.00000E+00
    0.61048E+05         0.28065E+08         0.00000E+00
    0.00000E+00         0.00000E+00         0.12074E+08
 
    0.12159E+08         0.62496E+05         0.00000E+00
    0.62496E+05         0.28005E+08         0.00000E+00
    0.00000E+00         0.00000E+00         0.12049E+08
 
    0.12135E+08         0.63947E+05         0.00000E+00
    0.63947E+05         0.27943E+08         0.00000E+00
    0.00000E+00         0.00000E+00         0.12023E+08
 
    0.12110E+08         0.65402E+05         0.00000E+00
    0.65402E+05         0.27881E+08         0.00000E+00
    0.00000E+00         0.00000E+00         0.11997E+08
 
    0.12084E+08         0.66861E+05         0.00000E+00
    0.66861E+05         0.27816E+08         0.00000E+00
    0.00000E+00         0.00000E+00         0.11970E+08
 
    0.12058E+08         0.68324E+05         0.00000E+00
    0.68324E+05         0.27751E+08         0.00000E+00
    0.00000E+00         0.00000E+00         0.11943E+08
 
    0.12031E+08         0.69792E+05         0.00000E+00
    0.69792E+05         0.27683E+08         0.00000E+00
    0.00000E+00         0.00000E+00         0.11914E+08
 
    0.12003E+08         0.71265E+05         0.00000E+00
    0.71265E+05         0.27614E+08         0.00000E+00
    0.00000E+00         0.00000E+00         0.11885E+08
 
    0.11975E+08         0.72740E+05         0.00000E+00
    0.72740E+05         0.27544E+08         0.00000E+00
    0.00000E+00         0.00000E+00         0.11855E+08
 
    0.11945E+08         0.74219E+05         0.00000E+00
    0.74219E+05         0.27471E+08         0.00000E+00
    0.00000E+00         0.00000E+00         0.11825E+08
 
    0.11915E+08         0.75699E+05         0.00000E+00
    0.75699E+05         0.27397E+08         0.00000E+00
    0.00000E+00         0.00000E+00         0.11794E+08
 
    0.11884E+08         0.77180E+05         0.00000E+00
    0.77180E+05         0.27321E+08         0.00000E+00
    0.00000E+00         0.00000E+00         0.11762E+08
 
    0.11852E+08         0.78661E+05         0.00000E+00
    0.78661E+05         0.27244E+08         0.00000E+00
    0.00000E+00         0.00000E+00         0.11729E+08
 
    0.11820E+08         0.80138E+05         0.00000E+00
    0.80138E+05         0.27165E+08         0.00000E+00
    0.00000E+00         0.00000E+00         0.11695E+08
 
    0.11786E+08         0.81612E+05         0.00000E+00
    0.81612E+05         0.27083E+08         0.00000E+00
    0.00000E+00         0.00000E+00         0.11661E+08
 
    0.11751E+08         0.83079E+05         0.00000E+00
    0.83079E+05         0.27000E+08         0.00000E+00
    0.00000E+00         0.00000E+00         0.11625E+08
 
    0.11715E+08         0.84537E+05         0.00000E+00
    0.84537E+05         0.26915E+08         0.00000E+00
    0.00000E+00         0.00000E+00         0.11589E+08
 
    0.11678E+08         0.85983E+05         0.00000E+00
    0.85983E+05         0.26828E+08         0.00000E+00
    0.00000E+00         0.00000E+00         0.11552E+08
 
    0.11640E+08         0.87416E+05         0.00000E+00
    0.87416E+05         0.26739E+08         0.00000E+00
    0.00000E+00         0.00000E+00         0.11514E+08
 
    0.11601E+08         0.88830E+05         0.00000E+00
    0.88830E+05         0.26648E+08         0.00000E+00
    0.00000E+00         0.00000E+00         0.11475E+08
 
    0.11561E+08         0.90223E+05         0.00000E+00
    0.90223E+05         0.26556E+08         0.00000E+00
    0.00000E+00         0.00000E+00         0.11435E+08
 
    0.11519E+08         0.91592E+05         0.00000E+00
    0.91592E+05         0.26461E+08         0.00000E+00
    0.00000E+00         0.00000E+00         0.11394E+08
 
    0.11476E+08         0.92931E+05         0.00000E+00
    0.92931E+05         0.26363E+08         0.00000E+00
    0.00000E+00         0.00000E+00         0.11352E+08
 
    0.11432E+08         0.94237E+05         0.00000E+00
    0.94237E+05         0.26264E+08         0.00000E+00
    0.00000E+00         0.00000E+00         0.11309E+08
 
    0.11387E+08         0.95506E+05         0.00000E+00
    0.95506E+05         0.26163E+08         0.00000E+00
    0.00000E+00         0.00000E+00         0.11265E+08
 
    0.11340E+08         0.96730E+05         0.00000E+00
    0.96730E+05         0.26060E+08         0.00000E+00
    0.00000E+00         0.00000E+00         0.11220E+08
 
    0.11292E+08         0.97906E+05         0.00000E+00
    0.97906E+05         0.25954E+08         0.00000E+00
    0.00000E+00         0.00000E+00         0.11174E+08
 
    0.11242E+08         0.99028E+05         0.00000E+00
    0.99028E+05         0.25846E+08         0.00000E+00
    0.00000E+00         0.00000E+00         0.11127E+08
 
    0.11191E+08         0.10009E+06         0.00000E+00
    0.10009E+06         0.25737E+08         0.00000E+00
    0.00000E+00         0.00000E+00         0.11078E+08
 
    0.11138E+08         0.10108E+06         0.00000E+00
    0.10108E+06         0.25625E+08         0.00000E+00
    0.00000E+00         0.00000E+00         0.11029E+08
 
    0.11084E+08         0.10200E+06         0.00000E+00
    0.10200E+06         0.25510E+08         0.00000E+00
    0.00000E+00         0.00000E+00         0.10978E+08
 
    0.11028E+08         0.10283E+06         0.00000E+00
    0.10283E+06         0.25394E+08         0.00000E+00
    0.00000E+00         0.00000E+00         0.10927E+08
 
    0.10971E+08         0.10357E+06         0.00000E+00
    0.10357E+06         0.25275E+08         0.00000E+00
    0.00000E+00         0.00000E+00         0.10874E+08
 
    0.10911E+08         0.10421E+06         0.00000E+00
    0.10421E+06         0.25155E+08         0.00000E+00
    0.00000E+00         0.00000E+00         0.10820E+08
 
    0.10850E+08         0.10474E+06         0.00000E+00
    0.10474E+06         0.25032E+08         0.00000E+00
    0.00000E+00         0.00000E+00         0.10765E+08
 
    0.10787E+08         0.10514E+06         0.00000E+00
    0.10514E+06         0.24907E+08         0.00000E+00
    0.00000E+00         0.00000E+00         0.10708E+08
 
    0.10722E+08         0.10541E+06         0.00000E+00
    0.10541E+06         0.24779E+08         0.00000E+00
    0.00000E+00         0.00000E+00         0.10651E+08
 
    0.10656E+08         0.10553E+06         0.00000E+00
    0.10553E+06         0.24650E+08         0.00000E+00
    0.00000E+00         0.00000E+00         0.10592E+08
 
    0.10587E+08         0.10548E+06         0.00000E+00
    0.10548E+06         0.24519E+08         0.00000E+00
    0.00000E+00         0.00000E+00         0.10532E+08
 
    0.10516E+08         0.10524E+06         0.00000E+00
    0.10524E+06         0.24385E+08         0.00000E+00
    0.00000E+00         0.00000E+00         0.10470E+08
 
    0.10443E+08         0.10480E+06         0.00000E+00
    0.10480E+06         0.24249E+08         0.00000E+00
    0.00000E+00         0.00000E+00         0.10408E+08
 
    0.10367E+08         0.10413E+06         0.00000E+00
    0.10413E+06         0.24111E+08         0.00000E+00
    0.00000E+00         0.00000E+00         0.10344E+08
 
    0.10289E+08         0.10320E+06         0.00000E+00
    0.10320E+06         0.23972E+08         0.00000E+00
    0.00000E+00         0.00000E+00         0.10278E+08
 
    0.10209E+08         0.10198E+06         0.00000E+00
    0.10198E+06         0.23830E+08         0.00000E+00
    0.00000E+00         0.00000E+00         0.10212E+08
 
    0.10125E+08         0.10043E+06         0.00000E+00
    0.10043E+06         0.23686E+08         0.00000E+00
    0.00000E+00         0.00000E+00         0.10143E+08
 
    0.10040E+08         0.98502E+05         0.00000E+00
    0.98502E+05         0.23540E+08         0.00000E+00
    0.00000E+00         0.00000E+00         0.10074E+08
 
    0.99506E+07         0.96153E+05         0.00000E+00
    0.96153E+05         0.23393E+08         0.00000E+00
    0.00000E+00         0.00000E+00         0.10003E+08
 
    0.98585E+07         0.93319E+05         0.00000E+00
    0.93319E+05         0.23243E+08         0.00000E+00
    0.00000E+00         0.00000E+00         0.99306E+07
 
    0.97631E+07         0.89934E+05         0.00000E+00
    0.89934E+05         0.23092E+08         0.00000E+00
    0.00000E+00         0.00000E+00         0.98566E+07
 
    0.96640E+07         0.85920E+05         0.00000E+00
    0.85920E+05         0.22939E+08         0.00000E+00
    0.00000E+00         0.00000E+00         0.97810E+07
 
    0.95610E+07         0.81194E+05         0.00000E+00
    0.81194E+05         0.22785E+08         0.00000E+00
    0.00000E+00         0.00000E+00         0.97037E+07
 
    0.94538E+07         0.75667E+05         0.00000E+00
    0.75667E+05         0.22629E+08         0.00000E+00
    0.00000E+00         0.00000E+00         0.96247E+07
 
    0.93420E+07         0.69246E+05         0.00000E+00
    0.69246E+05         0.22471E+08         0.00000E+00
    0.00000E+00         0.00000E+00         0.95438E+07
 
    0.92254E+07         0.61842E+05         0.00000E+00
    0.61842E+05         0.22311E+08         0.00000E+00
    0.00000E+00         0.00000E+00         0.94611E+07
 
    0.91036E+07         0.53378E+05         0.00000E+00
    0.53378E+05         0.22151E+08         0.00000E+00
    0.00000E+00         0.00000E+00         0.93763E+07
 
    0.89760E+07         0.43800E+05         0.00000E+00
    0.43800E+05         0.21989E+08         0.00000E+00
    0.00000E+00         0.00000E+00         0.92895E+07
 
    0.88425E+07         0.33092E+05         0.00000E+00
    0.33092E+05         0.21826E+08         0.00000E+00
    0.00000E+00         0.00000E+00         0.92005E+07
 
    0.87026E+07         0.21299E+05         0.00000E+00
    0.21299E+05         0.21662E+08         0.00000E+00
    0.00000E+00         0.00000E+00         0.91093E+07
 
    0.85560E+07         0.85523E+04         0.00000E+00
    0.85523E+04         0.21497E+08         0.00000E+00
    0.00000E+00         0.00000E+00         0.90158E+07
 
    0.84028E+07        -0.49017E+04         0.00000E+00
   -0.49017E+04         0.21331E+08         0.00000E+00
    0.00000E+00         0.00000E+00         0.89202E+07
 
    0.82429E+07        -0.18659E+05         0.00000E+00
   -0.18659E+05         0.21165E+08         0.00000E+00
    0.00000E+00         0.00000E+00         0.88224E+07
 
    0.80770E+07        -0.32104E+05         0.00000E+00
   -0.32104E+05         0.20999E+08         0.00000E+00
    0.00000E+00         0.00000E+00         0.87228E+07
 
    0.79061E+07        -0.44289E+05         0.00000E+00
   -0.44289E+05         0.20833E+08         0.00000E+00
    0.00000E+00         0.00000E+00         0.86218E+07
 
    0.77321E+07        -0.53728E+05         0.00000E+00
   -0.53728E+05         0.20668E+08         0.00000E+00
    0.00000E+00         0.00000E+00         0.85201E+07
 
    0.75587E+07        -0.57536E+05         0.00000E+00
   -0.57536E+05         0.20505E+08         0.00000E+00
    0.00000E+00         0.00000E+00         0.84191E+07
 
    0.73904E+07        -0.48954E+05         0.00000E+00
   -0.48954E+05         0.20350E+08         0.00000E+00
    0.00000E+00         0.00000E+00         0.83222E+07
 
    0.72263E+07        -0.20307E+05         0.00000E+00
   -0.20307E+05         0.20223E+08         0.00000E+00
    0.00000E+00         0.00000E+00         0.82348E+07
 
    0.13036E+08        -0.41210E+04         0.00000E+00
   -0.41210E+04         0.29513E+08         0.00000E+00
    0.00000E+00         0.00000E+00         0.12765E+08
 
    0.13001E+08        -0.93318E+04         0.00000E+00
   -0.93318E+04         0.29484E+08         0.00000E+00
    0.00000E+00         0.00000E+00         0.12745E+08
 
    0.12964E+08        -0.99231E+04         0.00000E+00
   -0.99231E+04         0.29449E+08         0.00000E+00
    0.00000E+00         0.00000E+00         0.12724E+08
 
    0.12927E+08        -0.80653E+04         0.00000E+00
   -0.80653E+04         0.29414E+08         0.00000E+00
    0.00000E+00         0.00000E+00         0.12702E+08
 
    0.12890E+08        -0.52226E+04         0.00000E+00
   -0.52226E+04         0.29377E+08         0.00000E+00
    0.00000E+00         0.00000E+00         0.12680E+08
 
    0.12854E+08        -0.19078E+04         0.00000E+00
   -0.19078E+04         0.29340E+08         0.00000E+00
    0.00000E+00         0.00000E+00         0.12658E+08
 
    0.12819E+08         0.16089E+04         0.00000E+00
    0.16089E+04         0.29303E+08         0.00000E+00
    0.00000E+00         0.00000E+00         0.12637E+08
 
    0.12786E+08         0.51574E+04         0.00000E+00
    0.51574E+04         0.29266E+08         0.00000E+00
    0.00000E+00         0.00000E+00         0.12616E+08
 
    0.12755E+08         0.86292E+04         0.00000E+00
    0.86292E+04         0.29228E+08         0.00000E+00
    0.00000E+00         0.00000E+00         0.12595E+08
 
    0.12725E+08         0.11954E+05         0.00000E+00
    0.11954E+05         0.29189E+08         0.00000E+00
    0.00000E+00         0.00000E+00         0.12574E+08
 
    0.12697E+08         0.15090E+05         0.00000E+00
    0.15090E+05         0.29151E+08         0.00000E+00
    0.00000E+00         0.00000E+00         0.12554E+08
 
    0.12670E+08         0.18017E+05         0.00000E+00
    0.18017E+05         0.29112E+08         0.00000E+00
    0.00000E+00         0.00000E+00         0.12534E+08
 
    0.12644E+08         0.20733E+05         0.00000E+00
    0.20733E+05         0.29072E+08         0.00000E+00
    0.00000E+00         0.00000E+00         0.12515E+08
 
    0.12619E+08         0.23242E+05         0.00000E+00
    0.23242E+05         0.29032E+08         0.00000E+00
    0.00000E+00         0.00000E+00         0.12495E+08
 
    0.12595E+08         0.25561E+05         0.00000E+00
    0.25561E+05         0.28992E+08         0.00000E+00
    0.00000E+00         0.00000E+00         0.12476E+08
 
    0.12572E+08         0.27707E+05         0.00000E+00
    0.27707E+05         0.28950E+08         0.00000E+00
    0.00000E+00         0.00000E+00         0.12457E+08
 
    0.12549E+08         0.29699E+05         0.00000E+00
    0.29699E+05         0.28909E+08         0.00000E+00
    0.00000E+00         0.00000E+00         0.12437E+08
 
    0.12527E+08         0.31559E+05         0.00000E+00
    0.31559E+05         0.28866E+08         0.00000E+00
    0.00000E+00         0.00000E+00         0.12418E+08
 
    0.12506E+08         0.33305E+05         0.00000E+00
    0.33305E+05         0.28823E+08         0.00000E+00
    0.00000E+00         0.00000E+00         0.12399E+08
 
    0.12485E+08         0.34955E+05         0.00000E+00
    0.34955E+05         0.28779E+08         0.00000E+00
    0.00000E+00         0.00000E+00         0.12379E+08
 
    0.12464E+08         0.36524E+05         0.00000E+00
    0.36524E+05         0.28735E+08         0.00000E+00
    0.00000E+00         0.00000E+00         0.12360E+08
 
    0.12443E+08         0.38028E+05         0.00000E+00
    0.38028E+05         0.28689E+08         0.00000E+00
    0.00000E+00         0.00000E+00         0.12340E+08
 
    0.12423E+08         0.39477E+05         0.00000E+00
    0.39477E+05         0.28643E+08         0.00000E+00
    0.00000E+00         0.00000E+00         0.12320E+08
 
    0.12402E+08         0.40882E+05         0.00000E+00
    0.40882E+05         0.28596E+08         0.00000E+00
    0.00000E+00         0.00000E+00         0.12299E+08
 
    0.12382E+08         0.42253E+05         0.00000E+00
    0.42253E+05         0.28548E+08         0.00000E+00
    0.00000E+00         0.00000E+00         0.12279E+08
 
    0.12361E+08         0.43595E+05         0.00000E+00
    0.43595E+05         0.28498E+08         0.00000E+00
    0.00000E+00         0.00000E+00         0.12258E+08
 
    0.12340E+08         0.44917E+05         0.00000E+00
    0.44917E+05         0.28448E+08         0.00000E+00
    0.00000E+00         0.00000E+00         0.12237E+08
 
    0.12319E+08         0.46222E+05         0.00000E+00
    0.46222E+05         0.28397E+08         0.00000E+00
    0.00000E+00         0.00000E+00         0.12215E+08
 
    0.12298E+08         0.47515E+05         0.00000E+00
    0.47515E+05         0.28345E+08         0.00000E+00
    0.00000E+00         0.00000E+00         0.12193E+08
 
    0.12276E+08         0.48800E+05         0.00000E+00
    0.48800E+05         0.28291E+08         0.00000E+00
    0.00000E+00         0.00000E+00         0.12170E+08
 
    0.12254E+08         0.50080E+05         0.00000E+00
    0.50080E+05         0.28236E+08         0.00000E+00
    0.00000E+00         0.00000E+00         0.12147E+08
 
    0.12232E+08         0.51356E+05         0.00000E+00
    0.51356E+05         0.28180E+08         0.00000E+00
    0.00000E+00         0.00000E+00         0.12124E+08
 
    0.12209E+08         0.52631E+05         0.00000E+00
    0.52631E+05         0.28123E+08         0.00000E+00
    0.00000E+00         0.00000E+00         0.12100E+08
 
    0.12186E+08         0.53907E+05         0.00000E+00
    0.53907E+05         0.28065E+08         0.00000E+00
    0.00000E+00         0.00000E+00         0.12075E+08
 
    0.12162E+08         0.55185E+05         0.00000E+00
    0.55185E+05         0.28005E+08         0.00000E+00
    0.00000E+00         0.00000E+00         0.12050E+08
 
    0.12137E+08         0.56465E+05         0.00000E+00
    0.56465E+05         0.27943E+08         0.00000E+00
    0.00000E+00         0.00000E+00         0.12024E+08
 
    0.12112E+08         0.57748E+05         0.00000E+00
    0.57748E+05         0.27880E+08         0.00000E+00
    0.00000E+00         0.00000E+00         0.11998E+08
 
    0.12087E+08         0.59035E+05         0.00000E+00
    0.59035E+05         0.27816E+08         0.00000E+00
    0.00000E+00         0.00000E+00         0.11971E+08
 
    0.12061E+08         0.60326E+05         0.00000E+00
    0.60326E+05         0.27750E+08         0.00000E+00
    0.00000E+00         0.00000E+00         0.11943E+08
 
    0.12034E+08         0.61621E+05         0.00000E+00
    0.61621E+05         0.27683E+08         0.00000E+00
    0.00000E+00         0.00000E+00         0.11915E+08
 
    0.12006E+08         0.62919E+05         0.00000E+00
    0.62919E+05         0.27614E+08         0.00000E+00
    0.00000E+00         0.00000E+00         0.11886E+08
 
    0.11978E+08         0.64220E+05         0.00000E+00
    0.64220E+05         0.27543E+08         0.00000E+00
    0.00000E+00         0.00000E+00         0.11856E+08
 
    0.11948E+08         0.65524E+05         0.00000E+00
    0.65524E+05         0.27471E+08         0.00000E+00
    0.00000E+00         0.00000E+00         0.11826E+08
 
    0.11918E+08         0.66829E+05         0.00000E+00
    0.66829E+05         0.27397E+08         0.00000E+00
    0.00000E+00         0.00000E+00         0.11795E+08
 
    0.11887E+08         0.68134E+05         0.00000E+00
    0.68134E+05         0.27321E+08         0.00000E+00
    0.00000E+00         0.00000E+00         0.11763E+08
 
    0.11855E+08         0.69439E+05         0.00000E+00
    0.69439E+05         0.27244E+08         0.00000E+00
    0.00000E+00         0.00000E+00         0.11730E+08
 
    0.11823E+08         0.70741E+05         0.00000E+00
    0.70741E+05         0.27164E+08         0.00000E+00
    0.00000E+00         0.00000E+00         0.11696E+08
 
    0.11789E+08         0.72040E+05         0.00000E+00
    0.72040E+05         0.27083E+08         0.00000E+00
    0.00000E+00         0.00000E+00         0.11662E+08
 
    0.11754E+08         0.73332E+05         0.00000E+00
    0.73332E+05         0.27000E+08         0.00000E+00
    0.00000E+00         0.00000E+00         0.11626E+08
 
    0.11718E+08         0.74616E+05         0.00000E+00
    0.74616E+05         0.26915E+08         0.00000E+00
    0.00000E+00         0.00000E+00         0.11590E+08
 
    0.11681E+08         0.75890E+05         0.00000E+00
    0.75890E+05         0.26828E+08         0.00000E+00
    0.00000E+00         0.00000E+00         0.11553E+08
 
    0.11643E+08         0.77151E+05         0.00000E+00
    0.77151E+05         0.26739E+08         0.00000E+00
    0.00000E+00         0.00000E+00         0.11515E+08
 
    0.11604E+08         0.78397E+05         0.00000E+00
    0.78397E+05         0.26648E+08         0.00000E+00
    0.00000E+00         0.00000E+00         0.11476E+08
 
    0.11564E+08         0.79623E+05         0.00000E+00
    0.79623E+05         0.26555E+08         0.00000E+00
    0.00000E+00         0.00000E+00         0.11436E+08
 
    0.11522E+08         0.80827E+05         0.00000E+00
    0.80827E+05         0.26460E+08         0.00000E+00
    0.00000E+00         0.00000E+00         0.11395E+08
 
    0.11480E+08         0.82006E+05         0.00000E+00
    0.82006E+05         0.26363E+08         0.00000E+00
    0.00000E+00         0.00000E+00         0.11353E+08
 
    0.11436E+08         0.83155E+05         0.00000E+00
    0.83155E+05         0.26264E+08         0.00000E+00
    0.00000E+00         0.00000E+00         0.11310E+08
 
    0.11390E+08         0.84270E+05         0.00000E+00
    0.84270E+05         0.26163E+08         0.00000E+00
    0.00000E+00         0.00000E+00         0.11266E+08
 
    0.11343E+08         0.85347E+05         0.00000E+00
    0.85347E+05         0.26059E+08         0.00000E+00
    0.00000E+00         0.00000E+00         0.11221E+08
 
    0.11295E+08         0.86380E+05         0.00000E+00
    0.86380E+05         0.25954E+08         0.00000E+00
    0.00000E+00         0.00000E+00         0.11175E+08
 
    0.11245E+08         0.87365E+05         0.00000E+00
    0.87365E+05         0.25846E+08         0.00000E+00
    0.00000E+00         0.00000E+00         0.11128E+08
 
    0.11194E+08         0.88296E+05         0.00000E+00
    0.88296E+05         0.25736E+08         0.00000E+00
    0.00000E+00         0.00000E+00         0.11079E+08
 
    0.11142E+08         0.89166E+05         0.00000E+00
    0.89166E+05         0.25624E+08         0.00000E+00
    0.00000E+00         0.00000E+00         0.11030E+08
 
    0.11087E+08         0.89970E+05         0.00000E+00
    0.89970E+05         0.25510E+08         0.00000E+00
    0.00000E+00         0.00000E+00         0.10979E+08
 
    0.11031E+08         0.90700E+05         0.00000E+00
    0.90700E+05         0.25394E+08         0.00000E+00
    0.00000E+00         0.00000E+00         0.10928E+08
 
    0.10974E+08         0.91348E+05         0.00000E+00
    0.91348E+05         0.25275E+08         0.00000E+00
    0.00000E+00         0.00000E+00         0.10875E+08
 
    0.10914E+08         0.91906E+05         0.00000E+00
    0.91906E+05         0.25155E+08         0.00000E+00
    0.00000E+00         0.00000E+00         0.10821E+08
 
    0.10853E+08         0.92365E+05         0.00000E+00
    0.92365E+05         0.25032E+08         0.00000E+00
    0.00000E+00         0.00000E+00         0.10765E+08
 
    0.10790E+08         0.92715E+05         0.00000E+00
    0.92715E+05         0.24907E+08         0.00000E+00
    0.00000E+00         0.00000E+00         0.10709E+08
 
    0.10725E+08         0.92944E+05         0.00000E+00
    0.92944E+05         0.24779E+08         0.00000E+00
    0.00000E+00         0.00000E+00         0.10651E+08
 
    0.10658E+08         0.93040E+05         0.00000E+00
    0.93040E+05         0.24650E+08         0.00000E+00
    0.00000E+00         0.00000E+00         0.10592E+08
 
    0.10589E+08         0.92988E+05         0.00000E+00
    0.92988E+05         0.24519E+08         0.00000E+00
    0.00000E+00         0.00000E+00         0.10532E+08
 
    0.10518E+08         0.92773E+05         0.00000E+00
    0.92773E+05         0.24385E+08         0.00000E+00
    0.00000E+00         0.00000E+00         0.10471E+08
 
    0.10445E+08         0.92375E+05         0.00000E+00
    0.92375E+05         0.24249E+08         0.00000E+00
    0.00000E+00         0.00000E+00         0.10408E+08
 
    0.10369E+08         0.91773E+05         0.00000E+00
    0.91773E+05         0.24112E+08         0.00000E+00
    0.00000E+00         0.00000E+00         0.10344E+08
 
    0.10291E+08         0.90943E+05         0.00000E+00
    0.90943E+05         0.23972E+08         0.00000E+00
    0.00000E+00         0.00000E+00         0.10279E+08
 
    0.10210E+08         0.89853E+05         0.00000E+00
    0.89853E+05         0.23830E+08         0.00000E+00
    0.00000E+00         0.00000E+00         0.10212E+08
 
    0.10127E+08         0.88472E+05         0.00000E+00
    0.88472E+05         0.23686E+08         0.00000E+00
    0.00000E+00         0.00000E+00         0.10144E+08
 
    0.10041E+08         0.86758E+05         0.00000E+00
    0.86758E+05         0.23541E+08         0.00000E+00
    0.00000E+00         0.00000E+00         0.10075E+08
 
    0.99516E+07         0.84665E+05         0.00000E+00
    0.84665E+05         0.23393E+08         0.00000E+00
    0.00000E+00         0.00000E+00         0.10004E+08
 
    0.98592E+07         0.82139E+05         0.00000E+00
    0.82139E+05         0.23244E+08         0.00000E+00
    0.00000E+00         0.00000E+00         0.99310E+07
 
    0.97634E+07         0.79119E+05         0.00000E+00
    0.79119E+05         0.23093E+08         0.00000E+00
    0.00000E+00         0.00000E+00         0.98569E+07
 
    0.96639E+07         0.75536E+05         0.00000E+00
    0.75536E+05         0.22940E+08         0.00000E+00
    0.00000E+00         0.00000E+00         0.97812E+07
 
    0.95604E+07         0.71312E+05         0.00000E+00
    0.71312E+05         0.22786E+08         0.00000E+00
    0.00000E+00         0.00000E+00         0.97039E+07
 
    0.94527E+07         0.66366E+05         0.00000E+00
    0.66366E+05         0.22630E+08         0.00000E+00
    0.00000E+00         0.00000E+00         0.96247E+07
 
    0.93403E+07         0.60612E+05         0.00000E+00
    0.60612E+05         0.22472E+08         0.00000E+00
    0.00000E+00         0.00000E+00         0.95437E+07
 
    0.92228E+07         0.53968E+05         0.00000E+00
    0.53968E+05         0.22313E+08         0.00000E+00
    0.00000E+00         0.00000E+00         0.94607E+07
 
    0.91000E+07         0.46360E+05         0.00000E+00
    0.46360E+05         0.22153E+08         0.00000E+00
    0.00000E+00         0.00000E+00         0.93758E+07
 
    0.89712E+07         0.37735E+05         0.00000E+00
    0.37735E+05         0.21991E+08         0.00000E+00
    0.00000E+00         0.00000E+00         0.92886E+07
 
    0.88363E+07         0.28075E+05         0.00000E+00
    0.28075E+05         0.21828E+08         0.00000E+00
    0.00000E+00         0.00000E+00         0.91993E+07
 
    0.86946E+07         0.17413E+05         0.00000E+00
    0.17413E+05         0.21664E+08         0.00000E+00
    0.00000E+00         0.00000E+00         0.91076E+07
 
    0.85460E+07         0.58591E+04         0.00000E+00
    0.58591E+04         0.21499E+08         0.00000E+00
    0.00000E+00         0.00000E+00         0.90136E+07
 
    0.83903E+07        -0.63764E+04         0.00000E+00
   -0.63764E+04         0.21334E+08         0.00000E+00
    0.00000E+00         0.00000E+00         0.89172E+07
 
    0.82275E+07        -0.18948E+05         0.00000E+00
   -0.18948E+05         0.21168E+08         0.00000E+00
    0.00000E+00         0.00000E+00         0.88186E+07
 
    0.80582E+07        -0.31333E+05         0.00000E+00
   -0.31333E+05         0.21002E+08         0.00000E+00
    0.00000E+00         0.00000E+00         0.87179E+07
 
    0.78833E+07        -0.42727E+05         0.00000E+00
   -0.42727E+05         0.20835E+08         0.00000E+00
    0.00000E+00         0.00000E+00         0.86156E+07
 
    0.77047E+07        -0.51864E+05         0.00000E+00
   -0.51864E+05         0.20670E+08         0.00000E+00
    0.00000E+00         0.00000E+00         0.85123E+07
 
    0.75262E+07        -0.56364E+05         0.00000E+00
   -0.56364E+05         0.20505E+08         0.00000E+00
    0.00000E+00         0.00000E+00         0.84094E+07
 
    0.73536E+07        -0.49463E+05         0.00000E+00
   -0.49463E+05         0.20347E+08         0.00000E+00
    0.00000E+00         0.00000E+00         0.83101E+07
 
    0.71877E+07        -0.21162E+05         0.00000E+00
   -0.21162E+05         0.20215E+08         0.00000E+00
    0.00000E+00         0.00000E+00         0.82209E+07
 
    0.13046E+08        -0.43488E+04         0.00000E+00
   -0.43488E+04         0.29514E+08         0.00000E+00
    0.00000E+00         0.00000E+00         0.12768E+08
 
    0.13010E+08        -0.94538E+04         0.00000E+00
   -0.94538E+04         0.29484E+08         0.00000E+00
    0.00000E+00         0.00000E+00         0.12748E+08
 
    0.12972E+08        -0.97019E+04         0.00000E+00
   -0.97019E+04         0.29449E+08         0.00000E+00
    0.00000E+00         0.00000E+00         0.12726E+08
 
    0.12934E+08        -0.78265E+04         0.00000E+00
   -0.78265E+04         0.29413E+08         0.00000E+00
    0.00000E+00         0.00000E+00         0.12704E+08
 
    0.12896E+08        -0.51919E+04         0.00000E+00
   -0.51919E+04         0.29376E+08         0.00000E+00
    0.00000E+00         0.00000E+00         0.12682E+08
 
    0.12859E+08        -0.21837E+04         0.00000E+00
   -0.21837E+04         0.29340E+08         0.00000E+00
    0.00000E+00         0.00000E+00         0.12660E+08
 
    0.12824E+08         0.97104E+03         0.00000E+00
    0.97104E+03         0.29302E+08         0.00000E+00
    0.00000E+00         0.00000E+00         0.12638E+08
 
    0.12790E+08         0.41341E+04         0.00000E+00
    0.41341E+04         0.29265E+08         0.00000E+00
    0.00000E+00         0.00000E+00         0.12616E+08
 
    0.12758E+08         0.72161E+04         0.00000E+00
    0.72161E+04         0.29227E+08         0.00000E+00
    0.00000E+00         0.00000E+00         0.12596E+08
 
    0.12728E+08         0.10158E+05         0.00000E+00
    0.10158E+05         0.29189E+08         0.00000E+00
    0.00000E+00         0.00000E+00         0.12575E+08
 
    0.12699E+08         0.12926E+05         0.00000E+00
    0.12926E+05         0.29150E+08         0.00000E+00
    0.00000E+00         0.00000E+00         0.12555E+08
 
    0.12672E+08         0.15505E+05         0.00000E+00
    0.15505E+05         0.29111E+08         0.00000E+00
    0.00000E+00         0.00000E+00         0.12535E+08
 
    0.12646E+08         0.17891E+05         0.00000E+00
    0.17891E+05         0.29072E+08         0.00000E+00
    0.00000E+00         0.00000E+00         0.12515E+08
 
    0.12621E+08         0.20093E+05         0.00000E+00
    0.20093E+05         0.29032E+08         0.00000E+00
    0.00000E+00         0.00000E+00         0.12496E+08
 
    0.12597E+08         0.22123E+05         0.00000E+00
    0.22123E+05         0.28991E+08         0.00000E+00
    0.00000E+00         0.00000E+00         0.12476E+08
 
    0.12574E+08         0.23999E+05         0.00000E+00
    0.23999E+05         0.28950E+08         0.00000E+00
    0.00000E+00         0.00000E+00         0.12457E+08
 
    0.12551E+08         0.25738E+05         0.00000E+00
    0.25738E+05         0.28908E+08         0.00000E+00
    0.00000E+00         0.00000E+00         0.12438E+08
 
    0.12529E+08         0.27359E+05         0.00000E+00
    0.27359E+05         0.28866E+08         0.00000E+00
    0.00000E+00         0.00000E+00         0.12419E+08
 
    0.12508E+08         0.28880E+05         0.00000E+00
    0.28880E+05         0.28823E+08         0.00000E+00
    0.00000E+00         0.00000E+00         0.12399E+08
 
    0.12487E+08         0.30315E+05         0.00000E+00
    0.30315E+05         0.28779E+08         0.00000E+00
    0.00000E+00         0.00000E+00         0.12380E+08
 
    0.12466E+08         0.31679E+05         0.00000E+00
    0.31679E+05         0.28734E+08         0.00000E+00
    0.00000E+00         0.00000E+00         0.12360E+08
 
    0.12445E+08         0.32985E+05         0.00000E+00
    0.32985E+05         0.28689E+08         0.00000E+00
    0.00000E+00         0.00000E+00         0.12340E+08
 
    0.12425E+08         0.34243E+05         0.00000E+00
    0.34243E+05         0.28643E+08         0.00000E+00
    0.00000E+00         0.00000E+00         0.12320E+08
 
    0.12404E+08         0.35463E+05         0.00000E+00
    0.35463E+05         0.28596E+08         0.00000E+00
    0.00000E+00         0.00000E+00         0.12300E+08
 
    0.12384E+08         0.36652E+05         0.00000E+00
    0.36652E+05         0.28547E+08         0.00000E+00
    0.00000E+00         0.00000E+00         0.12279E+08
 
    0.12363E+08         0.37816E+05         0.00000E+00
    0.37816E+05         0.28498E+08         0.00000E+00
    0.00000E+00         0.00000E+00         0.12258E+08
 
    0.12342E+08         0.38962E+05         0.00000E+00
    0.38962E+05         0.28448E+08         0.00000E+00
    0.00000E+00         0.00000E+00         0.12237E+08
 
    0.12321E+08         0.40094E+05         0.00000E+00
    0.40094E+05         0.28397E+08         0.00000E+00
    0.00000E+00         0.00000E+00         0.12215E+08
 
    0.12300E+08         0.41215E+05         0.00000E+00
    0.41215E+05         0.28344E+08         0.00000E+00
    0.00000E+00         0.00000E+00         0.12193E+08
 
    0.12278E+08         0.42329E+05         0.00000E+00
    0.42329E+05         0.28291E+08         0.00000E+00
    0.00000E+00         0.00000E+00         0.12171E+08
 
    0.12256E+08         0.43438E+05         0.00000E+00
    0.43438E+05         0.28236E+08         0.00000E+00
    0.00000E+00         0.00000E+00         0.12148E+08
 
    0.12234E+08         0.44545E+05         0.00000E+00
    0.44545E+05         0.28180E+08         0.00000E+00
    0.00000E+00         0.00000E+00         0.12124E+08
 
    0.12211E+08         0.45650E+05         0.00000E+00
    0.45650E+05         0.28123E+08         0.00000E+00
    0.00000E+00         0.00000E+00         0.12100E+08
 
    0.12188E+08         0.46756E+05         0.00000E+00
    0.46756E+05         0.28064E+08         0.00000E+00
    0.00000E+00         0.00000E+00         0.12076E+08
 
    0.12164E+08         0.47863E+05         0.00000E+00
    0.47863E+05         0.28004E+08         0.00000E+00
    0.00000E+00         0.00000E+00         0.12051E+08
 
    0.12140E+08         0.48972E+05         0.00000E+00
    0.48972E+05         0.27943E+08         0.00000E+00
    0.00000E+00         0.00000E+00         0.12025E+08
 
    0.12115E+08         0.50084E+05         0.00000E+00
    0.50084E+05         0.27880E+08         0.00000E+00
    0.00000E+00         0.00000E+00         0.11999E+08
 
    0.12090E+08         0.51200E+05         0.00000E+00
    0.51200E+05         0.27816E+08         0.00000E+00
    0.00000E+00         0.00000E+00         0.11972E+08
 
    0.12063E+08         0.52318E+05         0.00000E+00
    0.52318E+05         0.27750E+08         0.00000E+00
    0.00000E+00         0.00000E+00         0.11944E+08
 
    0.12037E+08         0.53439E+05         0.00000E+00
    0.53439E+05         0.27683E+08         0.00000E+00
    0.00000E+00         0.00000E+00         0.11916E+08
 
    0.12009E+08         0.54564E+05         0.00000E+00
    0.54564E+05         0.27614E+08         0.00000E+00
    0.00000E+00         0.00000E+00         0.11887E+08
 
    0.11981E+08         0.55691E+05         0.00000E+00
    0.55691E+05         0.27543E+08         0.00000E+00
    0.00000E+00         0.00000E+00         0.11857E+08
 
    0.11951E+08         0.56820E+05         0.00000E+00
    0.56820E+05         0.27471E+08         0.00000E+00
    0.00000E+00         0.00000E+00         0.11827E+08
 
    0.11921E+08         0.57950E+05         0.00000E+00
    0.57950E+05         0.27397E+08         0.00000E+00
    0.00000E+00         0.00000E+00         0.11795E+08
 
    0.11890E+08         0.59080E+05         0.00000E+00
    0.59080E+05         0.27321E+08         0.00000E+00
    0.00000E+00         0.00000E+00         0.11763E+08
 
    0.11859E+08         0.60209E+05         0.00000E+00
    0.60209E+05         0.27243E+08         0.00000E+00
    0.00000E+00         0.00000E+00         0.11731E+08
 
    0.11826E+08         0.61336E+05         0.00000E+00
    0.61336E+05         0.27164E+08         0.00000E+00
    0.00000E+00         0.00000E+00         0.11697E+08
 
    0.11792E+08         0.62460E+05         0.00000E+00
    0.62460E+05         0.27083E+08         0.00000E+00
    0.00000E+00         0.00000E+00         0.11662E+08
 
    0.11757E+08         0.63578E+05         0.00000E+00
    0.63578E+05         0.27000E+08         0.00000E+00
    0.00000E+00         0.00000E+00         0.11627E+08
 
    0.11722E+08         0.64690E+05         0.00000E+00
    0.64690E+05         0.26915E+08         0.00000E+00
    0.00000E+00         0.00000E+00         0.11591E+08
 
    0.11685E+08         0.65792E+05         0.00000E+00
    0.65792E+05         0.26828E+08         0.00000E+00
    0.00000E+00         0.00000E+00         0.11554E+08
 
    0.11647E+08         0.66882E+05         0.00000E+00
    0.66882E+05         0.26739E+08         0.00000E+00
    0.00000E+00         0.00000E+00         0.11516E+08
 
    0.11608E+08         0.67959E+05         0.00000E+00
    0.67959E+05         0.26648E+08         0.00000E+00
    0.00000E+00         0.00000E+00         0.11477E+08
 
    0.11567E+08         0.69020E+05         0.00000E+00
    0.69020E+05         0.26555E+08         0.00000E+00
    0.00000E+00         0.00000E+00         0.11437E+08
 
    0.11526E+08         0.70061E+05         0.00000E+00
    0.70061E+05         0.26460E+08         0.00000E+00
    0.00000E+00         0.00000E+00         0.11396E+08
 
    0.11483E+08         0.71080E+05         0.00000E+00
    0.71080E+05         0.26363E+08         0.00000E+00
    0.00000E+00         0.00000E+00         0.11354E+08
 
    0.11439E+08         0.72072E+05         0.00000E+00
    0.72072E+05         0.26264E+08         0.00000E+00
    0.00000E+00         0.00000E+00         0.11311E+08
 
    0.11393E+08         0.73035E+05         0.00000E+00
    0.73035E+05         0.26163E+08         0.00000E+00
    0.00000E+00         0.00000E+00         0.11267E+08
 
    0.11347E+08         0.73965E+05         0.00000E+00
    0.73965E+05         0.26059E+08         0.00000E+00
    0.00000E+00         0.00000E+00         0.11222E+08
 
    0.11298E+08         0.74857E+05         0.00000E+00
    0.74857E+05         0.25954E+08         0.00000E+00
    0.00000E+00         0.00000E+00         0.11176E+08
 
    0.11249E+08         0.75707E+05         0.00000E+00
    0.75707E+05         0.25846E+08         0.00000E+00
    0.00000E+00         0.00000E+00         0.11128E+08
 
    0.11198E+08         0.76509E+05         0.00000E+00
    0.76509E+05         0.25736E+08         0.00000E+00
    0.00000E+00         0.00000E+00         0.11080E+08
 
    0.11145E+08         0.77260E+05         0.00000E+00
    0.77260E+05         0.25624E+08         0.00000E+00
    0.00000E+00         0.00000E+00         0.11031E+08
 
    0.11090E+08         0.77952E+05         0.00000E+00
    0.77952E+05         0.25510E+08         0.00000E+00
    0.00000E+00         0.00000E+00         0.10980E+08
 
    0.11034E+08         0.78580E+05         0.00000E+00
    0.78580E+05         0.25394E+08         0.00000E+00
    0.00000E+00         0.00000E+00         0.10928E+08
 
    0.10977E+08         0.79137E+05         0.00000E+00
    0.79137E+05         0.25275E+08         0.00000E+00
    0.00000E+00         0.00000E+00         0.10876E+08
 
    0.10917E+08         0.79615E+05         0.00000E+00
    0.79615E+05         0.25154E+08         0.00000E+00
    0.00000E+00         0.00000E+00         0.10822E+08
 
    0.10856E+08         0.80008E+05         0.00000E+00
    0.80008E+05         0.25032E+08         0.00000E+00
    0.00000E+00         0.00000E+00         0.10766E+08
 
    0.10793E+08         0.80306E+05         0.00000E+00
    0.80306E+05         0.24907E+08         0.00000E+00
    0.00000E+00         0.00000E+00         0.10710E+08
 
    0.10728E+08         0.80499E+05         0.00000E+00
    0.80499E+05         0.24779E+08         0.00000E+00
    0.00000E+00         0.00000E+00         0.10652E+08
 
    0.10661E+08         0.80576E+05         0.00000E+00
    0.80576E+05         0.24650E+08         0.00000E+00
    0.00000E+00         0.00000E+00         0.10593E+08
 
    0.10592E+08         0.80525E+05         0.00000E+00
    0.80525E+05         0.24519E+08         0.00000E+00
    0.00000E+00         0.00000E+00         0.10533E+08
 
    0.10521E+08         0.80332E+05         0.00000E+00
    0.80332E+05         0.24385E+08         0.00000E+00
    0.00000E+00         0.00000E+00         0.10472E+08
 
    0.10447E+08         0.79980E+05         0.00000E+00
    0.79980E+05         0.24249E+08         0.00000E+00
    0.00000E+00         0.00000E+00         0.10409E+08
 
    0.10371E+08         0.79451E+05         0.00000E+00
    0.79451E+05         0.24112E+08         0.00000E+00
    0.00000E+00         0.00000E+00         0.10345E+08
 
    0.10293E+08         0.78723E+05         0.00000E+00
    0.78723E+05         0.23972E+08         0.00000E+00
    0.00000E+00         0.00000E+00         0.10280E+08
 
    0.10212E+08         0.77770E+05         0.00000E+00
    0.77770E+05         0.23830E+08         0.00000E+00
    0.00000E+00         0.00000E+00         0.10213E+08
 
    0.10129E+08         0.76561E+05         0.00000E+00
    0.76561E+05         0.23687E+08         0.00000E+00
    0.00000E+00         0.00000E+00         0.10145E+08
 
    0.10042E+08         0.75063E+05         0.00000E+00
    0.75063E+05         0.23541E+08         0.00000E+00
    0.00000E+00         0.00000E+00         0.10075E+08
 
    0.99528E+07         0.73232E+05         0.00000E+00
    0.73232E+05         0.23394E+08         0.00000E+00
    0.00000E+00         0.00000E+00         0.10004E+08
 
    0.98601E+07         0.71022E+05         0.00000E+00
    0.71022E+05         0.23245E+08         0.00000E+00
    0.00000E+00         0.00000E+00         0.99314E+07
 
    0.97640E+07         0.68378E+05         0.00000E+00
    0.68378E+05         0.23094E+08         0.00000E+00
    0.00000E+00         0.00000E+00         0.98573E+07
 
    0.96641E+07         0.65237E+05         0.00000E+00
    0.65237E+05         0.22941E+08         0.00000E+00
    0.00000E+00         0.00000E+00         0.97815E+07
 
    0.95601E+07         0.61532E+05         0.00000E+00
    0.61532E+05         0.22787E+08         0.00000E+00
    0.00000E+00         0.00000E+00         0.97040E+07
 
    0.94518E+07         0.57187E+05         0.00000E+00
    0.57187E+05         0.22631E+08         0.00000E+00
    0.00000E+00         0.00000E+00         0.96248E+07
 
    0.93388E+07         0.52125E+05         0.00000E+00
    0.52125E+05         0.22473E+08         0.00000E+00
    0.00000E+00         0.00000E+00         0.95436E+07
 
    0.92206E+07         0.46270E+05         0.00000E+00
    0.46270E+05         0.22314E+08         0.00000E+00
    0.00000E+00         0.00000E+00         0.94605E+07
 
    0.90968E+07         0.39555E+05         0.00000E+00
    0.39555E+05         0.22154E+08         0.00000E+00
    0.00000E+00         0.00000E+00         0.93753E+07
 
    0.89669E+07         0.31929E+05         0.00000E+00
    0.31929E+05         0.21993E+08         0.00000E+00
    0.00000E+00         0.00000E+00         0.92878E+07
 
    0.88305E+07         0.23370E+05         0.00000E+00
    0.23370E+05         0.21830E+08         0.00000E+00
    0.00000E+00         0.00000E+00         0.91981E+07
 
    0.86871E+07         0.13903E+05         0.00000E+00
    0.13903E+05         0.21666E+08         0.00000E+00
    0.00000E+00         0.00000E+00         0.91060E+07
 
    0.85365E+07         0.36166E+04         0.00000E+00
    0.36166E+04         0.21502E+08         0.00000E+00
    0.00000E+00         0.00000E+00         0.90114E+07
 
    0.83783E+07        -0.73148E+04         0.00000E+00
   -0.73148E+04         0.21336E+08         0.00000E+00
    0.00000E+00         0.00000E+00         0.89143E+07
 
    0.82126E+07        -0.18602E+05         0.00000E+00
   -0.18602E+05         0.21170E+08         0.00000E+00
    0.00000E+00         0.00000E+00         0.88149E+07
 
    0.80397E+07        -0.29812E+05         0.00000E+00
   -0.29812E+05         0.21004E+08         0.00000E+00
    0.00000E+00         0.00000E+00         0.87131E+07
 
    0.78607E+07        -0.40290E+05         0.00000E+00
   -0.40290E+05         0.20837E+08         0.00000E+00
    0.00000E+00         0.00000E+00         0.86094E+07
 
    0.76773E+07        -0.48971E+05         0.00000E+00
   -0.48971E+05         0.20671E+08         0.00000E+00
    0.00000E+00         0.00000E+00         0.85045E+07
 
    0.74930E+07        -0.54060E+05         0.00000E+00
   -0.54060E+05         0.20506E+08         0.00000E+00
    0.00000E+00         0.00000E+00         0.83996E+07
 
    0.73151E+07        -0.49256E+05         0.00000E+00
   -0.49256E+05         0.20344E+08         0.00000E+00
    0.00000E+00         0.00000E+00         0.82976E+07
 
    0.71468E+07        -0.21957E+05         0.00000E+00
   -0.21957E+05         0.20207E+08         0.00000E+00
    0.00000E+00         0.00000E+00         0.82061E+07
 
    0.13056E+08        -0.45594E+04         0.00000E+00
   -0.45594E+04         0.29516E+08         0.00000E+00
    0.00000E+00         0.00000E+00         0.12772E+08
 
    0.13019E+08        -0.93706E+04         0.00000E+00
   -0.93706E+04         0.29485E+08         0.00000E+00
    0.00000E+00         0.00000E+00         0.12751E+08
 
    0.12980E+08        -0.92003E+04         0.00000E+00
   -0.92003E+04         0.29449E+08         0.00000E+00
    0.00000E+00         0.00000E+00         0.12729E+08
 
    0.12941E+08        -0.73596E+04         0.00000E+00
   -0.73596E+04         0.29413E+08         0.00000E+00
    0.00000E+00         0.00000E+00         0.12706E+08
 
    0.12901E+08        -0.49747E+04         0.00000E+00
   -0.49747E+04         0.29376E+08         0.00000E+00
    0.00000E+00         0.00000E+00         0.12683E+08
 
    0.12864E+08        -0.23053E+04         0.00000E+00
   -0.23053E+04         0.29339E+08         0.00000E+00
    0.00000E+00         0.00000E+00         0.12661E+08
 
    0.12828E+08         0.45861E+03         0.00000E+00
    0.45861E+03         0.29302E+08         0.00000E+00
    0.00000E+00         0.00000E+00         0.12639E+08
 
    0.12794E+08         0.32127E+04         0.00000E+00
    0.32127E+04         0.29264E+08         0.00000E+00
    0.00000E+00         0.00000E+00         0.12617E+08
 
    0.12761E+08         0.58844E+04         0.00000E+00
    0.58844E+04         0.29226E+08         0.00000E+00
    0.00000E+00         0.00000E+00         0.12596E+08
 
    0.12731E+08         0.84268E+04         0.00000E+00
    0.84268E+04         0.29188E+08         0.00000E+00
    0.00000E+00         0.00000E+00         0.12576E+08
 
    0.12702E+08         0.10813E+05         0.00000E+00
    0.10813E+05         0.29150E+08         0.00000E+00
    0.00000E+00         0.00000E+00         0.12555E+08
 
    0.12674E+08         0.13030E+05         0.00000E+00
    0.13030E+05         0.29111E+08         0.00000E+00
    0.00000E+00         0.00000E+00         0.12535E+08
 
    0.12648E+08         0.15077E+05         0.00000E+00
    0.15077E+05         0.29071E+08         0.00000E+00
    0.00000E+00         0.00000E+00         0.12516E+08
 
    0.12623E+08         0.16962E+05         0.00000E+00
    0.16962E+05         0.29031E+08         0.00000E+00
    0.00000E+00         0.00000E+00         0.12496E+08
 
    0.12599E+08         0.18698E+05         0.00000E+00
    0.18698E+05         0.28991E+08         0.00000E+00
    0.00000E+00         0.00000E+00         0.12477E+08
 
    0.12576E+08         0.20299E+05         0.00000E+00
    0.20299E+05         0.28950E+08         0.00000E+00
    0.00000E+00         0.00000E+00         0.12458E+08
 
    0.12553E+08         0.21781E+05         0.00000E+00
    0.21781E+05         0.28908E+08         0.00000E+00
    0.00000E+00         0.00000E+00         0.12438E+08
 
    0.12531E+08         0.23160E+05         0.00000E+00
    0.23160E+05         0.28866E+08         0.00000E+00
    0.00000E+00         0.00000E+00         0.12419E+08
 
    0.12510E+08         0.24452E+05         0.00000E+00
    0.24452E+05         0.28823E+08         0.00000E+00
    0.00000E+00         0.00000E+00         0.12400E+08
 
    0.12489E+08         0.25671E+05         0.00000E+00
    0.25671E+05         0.28779E+08         0.00000E+00
    0.00000E+00         0.00000E+00         0.12380E+08
 
    0.12468E+08         0.26828E+05         0.00000E+00
    0.26828E+05         0.28734E+08         0.00000E+00
    0.00000E+00         0.00000E+00         0.12361E+08
 
    0.12447E+08         0.27935E+05         0.00000E+00
    0.27935E+05         0.28689E+08         0.00000E+00
    0.00000E+00         0.00000E+00         0.12341E+08
 
    0.12427E+08         0.29002E+05         0.00000E+00
    0.29002E+05         0.28642E+08         0.00000E+00
    0.00000E+00         0.00000E+00         0.12321E+08
 
    0.12406E+08         0.30035E+05         0.00000E+00
    0.30035E+05         0.28595E+08         0.00000E+00
    0.00000E+00         0.00000E+00         0.12300E+08
 
    0.12386E+08         0.31042E+05         0.00000E+00
    0.31042E+05         0.28547E+08         0.00000E+00
    0.00000E+00         0.00000E+00         0.12280E+08
 
    0.12365E+08         0.32028E+05         0.00000E+00
    0.32028E+05         0.28498E+08         0.00000E+00
    0.00000E+00         0.00000E+00         0.12259E+08
 
    0.12344E+08         0.32998E+05         0.00000E+00
    0.32998E+05         0.28448E+08         0.00000E+00
    0.00000E+00         0.00000E+00         0.12238E+08
 
    0.12323E+08         0.33956E+05         0.00000E+00
    0.33956E+05         0.28397E+08         0.00000E+00
    0.00000E+00         0.00000E+00         0.12216E+08
 
    0.12302E+08         0.34905E+05         0.00000E+00
    0.34905E+05         0.28344E+08         0.00000E+00
    0.00000E+00         0.00000E+00         0.12194E+08
 
    0.12281E+08         0.35848E+05         0.00000E+00
    0.35848E+05         0.28291E+08         0.00000E+00
    0.00000E+00         0.00000E+00         0.12171E+08
 
    0.12259E+08         0.36787E+05         0.00000E+00
    0.36787E+05         0.28236E+08         0.00000E+00
    0.00000E+00         0.00000E+00         0.12148E+08
 
    0.12236E+08         0.37723E+05         0.00000E+00
    0.37723E+05         0.28180E+08         0.00000E+00
    0.00000E+00         0.00000E+00         0.12125E+08
 
    0.12214E+08         0.38659E+05         0.00000E+00
    0.38659E+05         0.28123E+08         0.00000E+00
    0.00000E+00         0.00000E+00         0.12101E+08
 
    0.12191E+08         0.39594E+05         0.00000E+00
    0.39594E+05         0.28064E+08         0.00000E+00
    0.00000E+00         0.00000E+00         0.12076E+08
 
    0.12167E+08         0.40531E+05         0.00000E+00
    0.40531E+05         0.28004E+08         0.00000E+00
    0.00000E+00         0.00000E+00         0.12051E+08
 
    0.12143E+08         0.41469E+05         0.00000E+00
    0.41469E+05         0.27943E+08         0.00000E+00
    0.00000E+00         0.00000E+00         0.12026E+08
 
    0.12118E+08         0.42410E+05         0.00000E+00
    0.42410E+05         0.27880E+08         0.00000E+00
    0.00000E+00         0.00000E+00         0.11999E+08
 
    0.12092E+08         0.43353E+05         0.00000E+00
    0.43353E+05         0.27816E+08         0.00000E+00
    0.00000E+00         0.00000E+00         0.11972E+08
 
    0.12066E+08         0.44299E+05         0.00000E+00
    0.44299E+05         0.27750E+08         0.00000E+00
    0.00000E+00         0.00000E+00         0.11945E+08
 
    0.12039E+08         0.45248E+05         0.00000E+00
    0.45248E+05         0.27682E+08         0.00000E+00
    0.00000E+00         0.00000E+00         0.11917E+08
 
    0.12012E+08         0.46199E+05         0.00000E+00
    0.46199E+05         0.27613E+08         0.00000E+00
    0.00000E+00         0.00000E+00         0.11888E+08
 
    0.11983E+08         0.47151E+05         0.00000E+00
    0.47151E+05         0.27543E+08         0.00000E+00
    0.00000E+00         0.00000E+00         0.11858E+08
 
    0.11954E+08         0.48106E+05         0.00000E+00
    0.48106E+05         0.27471E+08         0.00000E+00
    0.00000E+00         0.00000E+00         0.11827E+08
 
    0.11924E+08         0.49061E+05         0.00000E+00
    0.49061E+05         0.27397E+08         0.00000E+00
    0.00000E+00         0.00000E+00         0.11796E+08
 
    0.11893E+08         0.50017E+05         0.00000E+00
    0.50017E+05         0.27321E+08         0.00000E+00
    0.00000E+00         0.00000E+00         0.11764E+08
 
    0.11862E+08         0.50971E+05         0.00000E+00
    0.50971E+05         0.27243E+08         0.00000E+00
    0.00000E+00         0.00000E+00         0.11731E+08
 
    0.11829E+08         0.51924E+05         0.00000E+00
    0.51924E+05         0.27164E+08         0.00000E+00
    0.00000E+00         0.00000E+00         0.11698E+08
 
    0.11795E+08         0.52873E+05         0.00000E+00
    0.52873E+05         0.27083E+08         0.00000E+00
    0.00000E+00         0.00000E+00         0.11663E+08
 
    0.11761E+08         0.53818E+05         0.00000E+00
    0.53818E+05         0.27000E+08         0.00000E+00
    0.00000E+00         0.00000E+00         0.11628E+08
 
    0.11725E+08         0.54757E+05         0.00000E+00
    0.54757E+05         0.26915E+08         0.00000E+00
    0.00000E+00         0.00000E+00         0.11592E+08
 
    0.11688E+08         0.55688E+05         0.00000E+00
    0.55688E+05         0.26828E+08         0.00000E+00
    0.00000E+00         0.00000E+00         0.11555E+08
 
    0.11650E+08         0.56609E+05         0.00000E+00
    0.56609E+05         0.26739E+08         0.00000E+00
    0.00000E+00         0.00000E+00         0.11517E+08
 
    0.11611E+08         0.57518E+05         0.00000E+00
    0.57518E+05         0.26648E+08         0.00000E+00
    0.00000E+00         0.00000E+00         0.11478E+08
 
    0.11571E+08         0.58413E+05         0.00000E+00
    0.58413E+05         0.26555E+08         0.00000E+00
    0.00000E+00         0.00000E+00         0.11438E+08
 
    0.11529E+08         0.59292E+05         0.00000E+00
    0.59292E+05         0.26460E+08         0.00000E+00
    0.00000E+00         0.00000E+00         0.11397E+08
 
    0.11486E+08         0.60152E+05         0.00000E+00
    0.60152E+05         0.26363E+08         0.00000E+00
    0.00000E+00         0.00000E+00         0.11355E+08
 
    0.11442E+08         0.60989E+05         0.00000E+00
    0.60989E+05         0.26264E+08         0.00000E+00
    0.00000E+00         0.00000E+00         0.11312E+08
 
    0.11397E+08         0.61801E+05         0.00000E+00
    0.61801E+05         0.26162E+08         0.00000E+00
    0.00000E+00         0.00000E+00         0.11268E+08
 
    0.11350E+08         0.62585E+05         0.00000E+00
    0.62585E+05         0.26059E+08         0.00000E+00
    0.00000E+00         0.00000E+00         0.11223E+08
 
    0.11302E+08         0.63337E+05         0.00000E+00
    0.63337E+05         0.25954E+08         0.00000E+00
    0.00000E+00         0.00000E+00         0.11177E+08
 
    0.11252E+08         0.64053E+05         0.00000E+00
    0.64053E+05         0.25846E+08         0.00000E+00
    0.00000E+00         0.00000E+00         0.11129E+08
 
    0.11201E+08         0.64728E+05         0.00000E+00
    0.64728E+05         0.25736E+08         0.00000E+00
    0.00000E+00         0.00000E+00         0.11081E+08
 
    0.11148E+08         0.65360E+05         0.00000E+00
    0.65360E+05         0.25624E+08         0.00000E+00
    0.00000E+00         0.00000E+00         0.11032E+08
 
    0.11094E+08         0.65942E+05         0.00000E+00
    0.65942E+05         0.25510E+08         0.00000E+00
    0.00000E+00         0.00000E+00         0.10981E+08
 
    0.11038E+08         0.66469E+05         0.00000E+00
    0.66469E+05         0.25394E+08         0.00000E+00
    0.00000E+00         0.00000E+00         0.10929E+08
 
    0.10980E+08         0.66936E+05         0.00000E+00
    0.66936E+05         0.25275E+08         0.00000E+00
    0.00000E+00         0.00000E+00         0.10877E+08
 
    0.10920E+08         0.67337E+05         0.00000E+00
    0.67337E+05         0.25154E+08         0.00000E+00
    0.00000E+00         0.00000E+00         0.10822E+08
 
    0.10859E+08         0.67665E+05         0.00000E+00
    0.67665E+05         0.25032E+08         0.00000E+00
    0.00000E+00         0.00000E+00         0.10767E+08
 
    0.10796E+08         0.67913E+05         0.00000E+00
    0.67913E+05         0.24907E+08         0.00000E+00
    0.00000E+00         0.00000E+00         0.10711E+08
 
    0.10731E+08         0.68071E+05         0.00000E+00
    0.68071E+05         0.24779E+08         0.00000E+00
    0.00000E+00         0.00000E+00         0.10653E+08
 
    0.10664E+08         0.68132E+05         0.00000E+00
    0.68132E+05         0.24650E+08         0.00000E+00
    0.00000E+00         0.00000E+00         0.10594E+08
 
    0.10595E+08         0.68084E+05         0.00000E+00
    0.68084E+05         0.24519E+08         0.00000E+00
    0.00000E+00         0.00000E+00         0.10534E+08
 
    0.10523E+08         0.67916E+05         0.00000E+00
    0.67916E+05         0.24385E+08         0.00000E+00
    0.00000E+00         0.00000E+00         0.10472E+08
 
    0.10450E+08         0.67613E+05         0.00000E+00
    0.67613E+05         0.24249E+08         0.00000E+00
    0.00000E+00         0.00000E+00         0.10410E+08
 
    0.10374E+08         0.67159E+05         0.00000E+00
    0.67159E+05         0.24112E+08         0.00000E+00
    0.00000E+00         0.00000E+00         0.10346E+08
 
    0.10295E+08         0.66537E+05         0.00000E+00
    0.66537E+05         0.23972E+08         0.00000E+00
    0.00000E+00         0.00000E+00         0.10280E+08
 
    0.10214E+08         0.65723E+05         0.00000E+00
    0.65723E+05         0.23831E+08         0.00000E+00
    0.00000E+00         0.00000E+00         0.10213E+08
 
    0.10130E+08         0.64692E+05         0.00000E+00
    0.64692E+05         0.23687E+08         0.00000E+00
    0.00000E+00         0.00000E+00         0.10145E+08
 
    0.10044E+08         0.63413E+05         0.00000E+00
    0.63413E+05         0.23542E+08         0.00000E+00
    0.00000E+00         0.00000E+00         0.10076E+08
 
    0.99542E+07         0.61851E+05         0.00000E+00
    0.61851E+05         0.23394E+08         0.00000E+00
    0.00000E+00         0.00000E+00         0.10005E+08
 
    0.98612E+07         0.59964E+05         0.00000E+00
    0.59964E+05         0.23245E+08         0.00000E+00
    0.00000E+00         0.00000E+00         0.99319E+07
 
    0.97647E+07         0.57705E+05         0.00000E+00
    0.57705E+05         0.23094E+08         0.00000E+00
    0.00000E+00         0.00000E+00         0.98577E+07
 
    0.96645E+07         0.55019E+05         0.00000E+00
    0.55019E+05         0.22942E+08         0.00000E+00
    0.00000E+00         0.00000E+00         0.97818E+07
 
    0.95601E+07         0.51847E+05         0.00000E+00
    0.51847E+05         0.22787E+08         0.00000E+00
    0.00000E+00         0.00000E+00         0.97042E+07
 
    0.94513E+07         0.48122E+05         0.00000E+00
    0.48122E+05         0.22632E+08         0.00000E+00
    0.00000E+00         0.00000E+00         0.96249E+07
 
    0.93377E+07         0.43776E+05         0.00000E+00
    0.43776E+05         0.22474E+08         0.00000E+00
    0.00000E+00         0.00000E+00         0.95436E+07
 
    0.92187E+07         0.38741E+05         0.00000E+00
    0.38741E+05         0.22316E+08         0.00000E+00
    0.00000E+00         0.00000E+00         0.94603E+07
 
    0.90940E+07         0.32956E+05         0.00000E+00
    0.32956E+05         0.22155E+08         0.00000E+00
    0.00000E+00         0.00000E+00         0.93748E+07
 
    0.89630E+07         0.26374E+05         0.00000E+00
    0.26374E+05         0.21994E+08         0.00000E+00
    0.00000E+00         0.00000E+00         0.92871E+07
 
    0.88252E+07         0.18972E+05         0.00000E+00
    0.18972E+05         0.21832E+08         0.00000E+00
    0.00000E+00         0.00000E+00         0.91970E+07
 
    0.86802E+07         0.10765E+05         0.00000E+00
    0.10765E+05         0.21668E+08         0.00000E+00
    0.00000E+00         0.00000E+00         0.91045E+07
 
    0.85275E+07         0.18223E+04         0.00000E+00
    0.18223E+04         0.21504E+08         0.00000E+00
    0.00000E+00         0.00000E+00         0.90093E+07
 
    0.83668E+07        -0.77143E+04         0.00000E+00
   -0.77143E+04         0.21338E+08         0.00000E+00
    0.00000E+00         0.00000E+00         0.89115E+07
 
    0.81982E+07        -0.17612E+05         0.00000E+00
   -0.17612E+05         0.21172E+08         0.00000E+00
    0.00000E+00         0.00000E+00         0.88112E+07
 
    0.80218E+07        -0.27520E+05         0.00000E+00
   -0.27520E+05         0.21006E+08         0.00000E+00
    0.00000E+00         0.00000E+00         0.87083E+07
 
    0.78385E+07        -0.36940E+05         0.00000E+00
   -0.36940E+05         0.20839E+08         0.00000E+00
    0.00000E+00         0.00000E+00         0.86033E+07
 
    0.76499E+07        -0.44980E+05         0.00000E+00
   -0.44980E+05         0.20673E+08         0.00000E+00
    0.00000E+00         0.00000E+00         0.84968E+07
 
    0.74594E+07        -0.50429E+05         0.00000E+00
   -0.50429E+05         0.20506E+08         0.00000E+00
    0.00000E+00         0.00000E+00         0.83897E+07
 
    0.72747E+07        -0.48081E+05         0.00000E+00
   -0.48081E+05         0.20341E+08         0.00000E+00
    0.00000E+00         0.00000E+00         0.82848E+07
 
    0.71030E+07        -0.22665E+05         0.00000E+00
   -0.22665E+05         0.20198E+08         0.00000E+00
    0.00000E+00         0.00000E+00         0.81905E+07
 
    0.13067E+08        -0.47416E+04         0.00000E+00
   -0.47416E+04         0.29518E+08         0.00000E+00
    0.00000E+00         0.00000E+00         0.12775E+08
 
    0.13029E+08        -0.90038E+04         0.00000E+00
   -0.90038E+04         0.29485E+08         0.00000E+00
    0.00000E+00         0.00000E+00         0.12754E+08
 
    0.12988E+08        -0.83751E+04         0.00000E+00
   -0.83751E+04         0.29449E+08         0.00000E+00
    0.00000E+00         0.00000E+00         0.12731E+08
 
    0.12947E+08        -0.66539E+04         0.00000E+00
   -0.66539E+04         0.29412E+08         0.00000E+00
    0.00000E+00         0.00000E+00         0.12708E+08
 
    0.12907E+08        -0.45623E+04         0.00000E+00
   -0.45623E+04         0.29375E+08         0.00000E+00
    0.00000E+00         0.00000E+00         0.12685E+08
 
    0.12868E+08        -0.22694E+04         0.00000E+00
   -0.22694E+04         0.29338E+08         0.00000E+00
    0.00000E+00         0.00000E+00         0.12662E+08
 
    0.12832E+08         0.72822E+02         0.00000E+00
    0.72822E+02         0.29301E+08         0.00000E+00
    0.00000E+00         0.00000E+00         0.12640E+08
 
    0.12797E+08         0.23929E+04         0.00000E+00
    0.23929E+04         0.29264E+08         0.00000E+00
    0.00000E+00         0.00000E+00         0.12618E+08
 
    0.12764E+08         0.46331E+04         0.00000E+00
    0.46331E+04         0.29226E+08         0.00000E+00
    0.00000E+00         0.00000E+00         0.12597E+08
 
    0.12733E+08         0.67580E+04         0.00000E+00
    0.67580E+04         0.29188E+08         0.00000E+00
    0.00000E+00         0.00000E+00         0.12576E+08
 
    0.12704E+08         0.87465E+04         0.00000E+00
    0.87465E+04         0.29149E+08         0.00000E+00
    0.00000E+00         0.00000E+00         0.12556E+08
 
    0.12676E+08         0.10590E+05         0.00000E+00
    0.10590E+05         0.29110E+08         0.00000E+00
    0.00000E+00         0.00000E+00         0.12536E+08
 
    0.12650E+08         0.12288E+05         0.00000E+00
    0.12288E+05         0.29071E+08         0.00000E+00
    0.00000E+00         0.00000E+00         0.12516E+08
 
    0.12625E+08         0.13849E+05         0.00000E+00
    0.13849E+05         0.29031E+08         0.00000E+00
    0.00000E+00         0.00000E+00         0.12497E+08
 
    0.12601E+08         0.15284E+05         0.00000E+00
    0.15284E+05         0.28990E+08         0.00000E+00
    0.00000E+00         0.00000E+00         0.12477E+08
 
    0.12577E+08         0.16604E+05         0.00000E+00
    0.16604E+05         0.28949E+08         0.00000E+00
    0.00000E+00         0.00000E+00         0.12458E+08
 
    0.12555E+08         0.17825E+05         0.00000E+00
    0.17825E+05         0.28908E+08         0.00000E+00
    0.00000E+00         0.00000E+00         0.12439E+08
 
    0.12533E+08         0.18959E+05         0.00000E+00
    0.18959E+05         0.28865E+08         0.00000E+00
    0.00000E+00         0.00000E+00         0.12419E+08
 
    0.12511E+08         0.20021E+05         0.00000E+00
    0.20021E+05         0.28822E+08         0.00000E+00
    0.00000E+00         0.00000E+00         0.12400E+08
 
    0.12490E+08         0.21021E+05         0.00000E+00
    0.21021E+05         0.28779E+08         0.00000E+00
    0.00000E+00         0.00000E+00         0.12381E+08
 
    0.12470E+08         0.21971E+05         0.00000E+00
    0.21971E+05         0.28734E+08         0.00000E+00
    0.00000E+00         0.00000E+00         0.12361E+08
 
    0.12449E+08         0.22878E+05         0.00000E+00
    0.22878E+05         0.28689E+08         0.00000E+00
    0.00000E+00         0.00000E+00         0.12341E+08
 
    0.12429E+08         0.23752E+05         0.00000E+00
    0.23752E+05         0.28642E+08         0.00000E+00
    0.00000E+00         0.00000E+00         0.12321E+08
 
    0.12408E+08         0.24598E+05         0.00000E+00
    0.24598E+05         0.28595E+08         0.00000E+00
    0.00000E+00         0.00000E+00         0.12301E+08
 
    0.12388E+08         0.25423E+05         0.00000E+00
    0.25423E+05         0.28547E+08         0.00000E+00
    0.00000E+00         0.00000E+00         0.12280E+08
 
    0.12367E+08         0.26230E+05         0.00000E+00
    0.26230E+05         0.28498E+08         0.00000E+00
    0.00000E+00         0.00000E+00         0.12259E+08
 
    0.12346E+08         0.27024E+05         0.00000E+00
    0.27024E+05         0.28448E+08         0.00000E+00
    0.00000E+00         0.00000E+00         0.12238E+08
 
    0.12326E+08         0.27808E+05         0.00000E+00
    0.27808E+05         0.28396E+08         0.00000E+00
    0.00000E+00         0.00000E+00         0.12217E+08
 
    0.12304E+08         0.28585E+05         0.00000E+00
    0.28585E+05         0.28344E+08         0.00000E+00
    0.00000E+00         0.00000E+00         0.12195E+08
 
    0.12283E+08         0.29357E+05         0.00000E+00
    0.29357E+05         0.28290E+08         0.00000E+00
    0.00000E+00         0.00000E+00         0.12172E+08
 
    0.12261E+08         0.30125E+05         0.00000E+00
    0.30125E+05         0.28236E+08         0.00000E+00
    0.00000E+00         0.00000E+00         0.12149E+08
 
    0.12239E+08         0.30891E+05         0.00000E+00
    0.30891E+05         0.28180E+08         0.00000E+00
    0.00000E+00         0.00000E+00         0.12126E+08
 
    0.12216E+08         0.31656E+05         0.00000E+00
    0.31656E+05         0.28122E+08         0.00000E+00
    0.00000E+00         0.00000E+00         0.12102E+08
 
    0.12193E+08         0.32422E+05         0.00000E+00
    0.32422E+05         0.28064E+08         0.00000E+00
    0.00000E+00         0.00000E+00         0.12077E+08
 
    0.12169E+08         0.33188E+05         0.00000E+00
    0.33188E+05         0.28004E+08         0.00000E+00
    0.00000E+00         0.00000E+00         0.12052E+08
 
    0.12145E+08         0.33956E+05         0.00000E+00
    0.33956E+05         0.27943E+08         0.00000E+00
    0.00000E+00         0.00000E+00         0.12026E+08
 
    0.12120E+08         0.34725E+05         0.00000E+00
    0.34725E+05         0.27880E+08         0.00000E+00
    0.00000E+00         0.00000E+00         0.12000E+08
 
    0.12095E+08         0.35497E+05         0.00000E+00
    0.35497E+05         0.27815E+08         0.00000E+00
    0.00000E+00         0.00000E+00         0.11973E+08
 
    0.12069E+08         0.36270E+05         0.00000E+00
    0.36270E+05         0.27750E+08         0.00000E+00
    0.00000E+00         0.00000E+00         0.11946E+08
 
    0.12042E+08         0.37046E+05         0.00000E+00
    0.37046E+05         0.27682E+08         0.00000E+00
    0.00000E+00         0.00000E+00         0.11917E+08
 
    0.12015E+08         0.37823E+05         0.00000E+00
    0.37823E+05         0.27613E+08         0.00000E+00
    0.00000E+00         0.00000E+00         0.11888E+08
 
    0.11986E+08         0.38602E+05         0.00000E+00
    0.38602E+05         0.27543E+08         0.00000E+00
    0.00000E+00         0.00000E+00         0.11859E+08
 
    0.11957E+08         0.39383E+05         0.00000E+00
    0.39383E+05         0.27470E+08         0.00000E+00
    0.00000E+00         0.00000E+00         0.11828E+08
 
    0.11927E+08         0.40164E+05         0.00000E+00
    0.40164E+05         0.27396E+08         0.00000E+00
    0.00000E+00         0.00000E+00         0.11797E+08
 
    0.11896E+08         0.40944E+05         0.00000E+00
    0.40944E+05         0.27321E+08         0.00000E+00
    0.00000E+00         0.00000E+00         0.11765E+08
 
    0.11865E+08         0.41725E+05         0.00000E+00
    0.41725E+05         0.27243E+08         0.00000E+00
    0.00000E+00         0.00000E+00         0.11732E+08
 
    0.11832E+08         0.42503E+05         0.00000E+00
    0.42503E+05         0.27164E+08         0.00000E+00
    0.00000E+00         0.00000E+00         0.11699E+08
 
    0.11798E+08         0.43279E+05         0.00000E+00
    0.43279E+05         0.27082E+08         0.00000E+00
    0.00000E+00         0.00000E+00         0.11664E+08
 
    0.11764E+08         0.44051E+05         0.00000E+00
    0.44051E+05         0.26999E+08         0.00000E+00
    0.00000E+00         0.00000E+00         0.11629E+08
 
    0.11728E+08         0.44818E+05         0.00000E+00
    0.44818E+05         0.26914E+08         0.00000E+00
    0.00000E+00         0.00000E+00         0.11593E+08
 
    0.11691E+08         0.45578E+05         0.00000E+00
    0.45578E+05         0.26827E+08         0.00000E+00
    0.00000E+00         0.00000E+00         0.11556E+08
 
    0.11653E+08         0.46330E+05         0.00000E+00
    0.46330E+05         0.26739E+08         0.00000E+00
    0.00000E+00         0.00000E+00         0.11518E+08
 
    0.11614E+08         0.47072E+05         0.00000E+00
    0.47072E+05         0.26648E+08         0.00000E+00
    0.00000E+00         0.00000E+00         0.11479E+08
 
    0.11574E+08         0.47803E+05         0.00000E+00
    0.47803E+05         0.26555E+08         0.00000E+00
    0.00000E+00         0.00000E+00         0.11439E+08
 
    0.11532E+08         0.48520E+05         0.00000E+00
    0.48520E+05         0.26460E+08         0.00000E+00
    0.00000E+00         0.00000E+00         0.11398E+08
 
    0.11490E+08         0.49222E+05         0.00000E+00
    0.49222E+05         0.26363E+08         0.00000E+00
    0.00000E+00         0.00000E+00         0.11356E+08
 
    0.11446E+08         0.49905E+05         0.00000E+00
    0.49905E+05         0.26264E+08         0.00000E+00
    0.00000E+00         0.00000E+00         0.11313E+08
 
    0.11400E+08         0.50567E+05         0.00000E+00
    0.50567E+05         0.26162E+08         0.00000E+00
    0.00000E+00         0.00000E+00         0.11269E+08
 
    0.11353E+08         0.51206E+05         0.00000E+00
    0.51206E+05         0.26059E+08         0.00000E+00
    0.00000E+00         0.00000E+00         0.11224E+08
 
    0.11305E+08         0.51819E+05         0.00000E+00
    0.51819E+05         0.25953E+08         0.00000E+00
    0.00000E+00         0.00000E+00         0.11178E+08
 
    0.11255E+08         0.52402E+05         0.00000E+00
    0.52402E+05         0.25846E+08         0.00000E+00
    0.00000E+00         0.00000E+00         0.11130E+08
 
    0.11204E+08         0.52952E+05         0.00000E+00
    0.52952E+05         0.25736E+08         0.00000E+00
    0.00000E+00         0.00000E+00         0.11082E+08
 
    0.11151E+08         0.53466E+05         0.00000E+00
    0.53466E+05         0.25624E+08         0.00000E+00
    0.00000E+00         0.00000E+00         0.11033E+08
 
    0.11097E+08         0.53939E+05         0.00000E+00
    0.53939E+05         0.25510E+08         0.00000E+00
    0.00000E+00         0.00000E+00         0.10982E+08
 
    0.11041E+08         0.54368E+05         0.00000E+00
    0.54368E+05         0.25394E+08         0.00000E+00
    0.00000E+00         0.00000E+00         0.10930E+08
 
    0.10983E+08         0.54747E+05         0.00000E+00
    0.54747E+05         0.25275E+08         0.00000E+00
    0.00000E+00         0.00000E+00         0.10877E+08
 
    0.10924E+08         0.55071E+05         0.00000E+00
    0.55071E+05         0.25154E+08         0.00000E+00
    0.00000E+00         0.00000E+00         0.10823E+08
 
    0.10862E+08         0.55336E+05         0.00000E+00
    0.55336E+05         0.25031E+08         0.00000E+00
    0.00000E+00         0.00000E+00         0.10768E+08
 
    0.10799E+08         0.55535E+05         0.00000E+00
    0.55535E+05         0.24906E+08         0.00000E+00
    0.00000E+00         0.00000E+00         0.10712E+08
 
    0.10734E+08         0.55661E+05         0.00000E+00
    0.55661E+05         0.24779E+08         0.00000E+00
    0.00000E+00         0.00000E+00         0.10654E+08
 
    0.10667E+08         0.55707E+05         0.00000E+00
    0.55707E+05         0.24650E+08         0.00000E+00
    0.00000E+00         0.00000E+00         0.10595E+08
 
    0.10597E+08         0.55664E+05         0.00000E+00
    0.55664E+05         0.24519E+08         0.00000E+00
    0.00000E+00         0.00000E+00         0.10535E+08
 
    0.10526E+08         0.55523E+05         0.00000E+00
    0.55523E+05         0.24385E+08         0.00000E+00
    0.00000E+00         0.00000E+00         0.10473E+08
 
    0.10452E+08         0.55271E+05         0.00000E+00
    0.55271E+05         0.24250E+08         0.00000E+00
    0.00000E+00         0.00000E+00         0.10410E+08
 
    0.10376E+08         0.54895E+05         0.00000E+00
    0.54895E+05         0.24112E+08         0.00000E+00
    0.00000E+00         0.00000E+00         0.10346E+08
 
    0.10297E+08         0.54381E+05         0.00000E+00
    0.54381E+05         0.23972E+08         0.00000E+00
    0.00000E+00         0.00000E+00         0.10281E+08
 
    0.10216E+08         0.53710E+05         0.00000E+00
    0.53710E+05         0.23831E+08         0.00000E+00
    0.00000E+00         0.00000E+00         0.10214E+08
 
    0.10132E+08         0.52859E+05         0.00000E+00
    0.52859E+05         0.23687E+08         0.00000E+00
    0.00000E+00         0.00000E+00         0.10146E+08
 
    0.10046E+08         0.51805E+05         0.00000E+00
    0.51805E+05         0.23542E+08         0.00000E+00
    0.00000E+00         0.00000E+00         0.10076E+08
 
    0.99557E+07         0.50517E+05         0.00000E+00
    0.50517E+05         0.23394E+08         0.00000E+00
    0.00000E+00         0.00000E+00         0.10005E+08
 
    0.98625E+07         0.48961E+05         0.00000E+00
    0.48961E+05         0.23245E+08         0.00000E+00
    0.00000E+00         0.00000E+00         0.99324E+07
 
    0.97657E+07         0.47096E+05         0.00000E+00
    0.47096E+05         0.23095E+08         0.00000E+00
    0.00000E+00         0.00000E+00         0.98581E+07
 
    0.96651E+07         0.44876E+05         0.00000E+00
    0.44876E+05         0.22942E+08         0.00000E+00
    0.00000E+00         0.00000E+00         0.97822E+07
 
    0.95604E+07         0.42251E+05         0.00000E+00
    0.42251E+05         0.22788E+08         0.00000E+00
    0.00000E+00         0.00000E+00         0.97045E+07
 
    0.94511E+07         0.39164E+05         0.00000E+00
    0.39164E+05         0.22632E+08         0.00000E+00
    0.00000E+00         0.00000E+00         0.96250E+07
 
    0.93369E+07         0.35557E+05         0.00000E+00
    0.35557E+05         0.22475E+08         0.00000E+00
    0.00000E+00         0.00000E+00         0.95436E+07
 
    0.92172E+07         0.31372E+05         0.00000E+00
    0.31372E+05         0.22316E+08         0.00000E+00
    0.00000E+00         0.00000E+00         0.94601E+07
 
    0.90916E+07         0.26554E+05         0.00000E+00
    0.26554E+05         0.22157E+08         0.00000E+00
    0.00000E+00         0.00000E+00         0.93745E+07
 
    0.89596E+07         0.21062E+05         0.00000E+00
    0.21062E+05         0.21995E+08         0.00000E+00
    0.00000E+00         0.00000E+00         0.92865E+07
 
    0.88205E+07         0.14871E+05         0.00000E+00
    0.14871E+05         0.21833E+08         0.00000E+00
    0.00000E+00         0.00000E+00         0.91960E+07
 
    0.86738E+07         0.79911E+04         0.00000E+00
    0.79911E+04         0.21670E+08         0.00000E+00
    0.00000E+00         0.00000E+00         0.91030E+07
 
    0.85191E+07         0.47273E+03         0.00000E+00
    0.47273E+03         0.21505E+08         0.00000E+00
    0.00000E+00         0.00000E+00         0.90073E+07
 
    0.83560E+07        -0.75739E+04         0.00000E+00
   -0.75739E+04         0.21340E+08         0.00000E+00
    0.00000E+00         0.00000E+00         0.89088E+07
 
    0.81844E+07        -0.15972E+05         0.00000E+00
   -0.15972E+05         0.21174E+08         0.00000E+00
    0.00000E+00         0.00000E+00         0.88076E+07
 
    0.80044E+07        -0.24440E+05         0.00000E+00
   -0.24440E+05         0.21008E+08         0.00000E+00
    0.00000E+00         0.00000E+00         0.87037E+07
 
    0.78166E+07        -0.32635E+05         0.00000E+00
   -0.32635E+05         0.20841E+08         0.00000E+00
    0.00000E+00         0.00000E+00         0.85973E+07
 
    0.76227E+07        -0.39842E+05         0.00000E+00
   -0.39842E+05         0.20674E+08         0.00000E+00
    0.00000E+00         0.00000E+00         0.84890E+07
 
    0.74253E+07        -0.45269E+05         0.00000E+00
   -0.45269E+05         0.20507E+08         0.00000E+00
    0.00000E+00         0.00000E+00         0.83797E+07
 
    0.72324E+07        -0.45575E+05         0.00000E+00
   -0.45575E+05         0.20340E+08         0.00000E+00
    0.00000E+00         0.00000E+00         0.82716E+07
 
    0.70558E+07        -0.23234E+05         0.00000E+00
   -0.23234E+05         0.20190E+08         0.00000E+00
    0.00000E+00         0.00000E+00         0.81737E+07
 
    0.13079E+08        -0.48728E+04         0.00000E+00
   -0.48728E+04         0.29519E+08         0.00000E+00
    0.00000E+00         0.00000E+00         0.12779E+08
 
    0.13039E+08        -0.82400E+04         0.00000E+00
   -0.82400E+04         0.29485E+08         0.00000E+00
    0.00000E+00         0.00000E+00         0.12757E+08
 
    0.12997E+08        -0.71894E+04         0.00000E+00
   -0.71894E+04         0.29448E+08         0.00000E+00
    0.00000E+00         0.00000E+00         0.12733E+08
 
    0.12954E+08        -0.57022E+04         0.00000E+00
   -0.57022E+04         0.29412E+08         0.00000E+00
    0.00000E+00         0.00000E+00         0.12710E+08
 
    0.12912E+08        -0.39457E+04         0.00000E+00
   -0.39457E+04         0.29375E+08         0.00000E+00
    0.00000E+00         0.00000E+00         0.12686E+08
 
    0.12873E+08        -0.20738E+04         0.00000E+00
   -0.20738E+04         0.29338E+08         0.00000E+00
    0.00000E+00         0.00000E+00         0.12663E+08
 
    0.12835E+08        -0.18522E+03         0.00000E+00
   -0.18522E+03         0.29301E+08         0.00000E+00
    0.00000E+00         0.00000E+00         0.12641E+08
 
    0.12800E+08         0.16744E+04         0.00000E+00
    0.16744E+04         0.29263E+08         0.00000E+00
    0.00000E+00         0.00000E+00         0.12619E+08
 
    0.12767E+08         0.34609E+04         0.00000E+00
    0.34609E+04         0.29226E+08         0.00000E+00
    0.00000E+00         0.00000E+00         0.12598E+08
 
    0.12736E+08         0.51501E+04         0.00000E+00
    0.51501E+04         0.29187E+08         0.00000E+00
    0.00000E+00         0.00000E+00         0.12577E+08
 
    0.12706E+08         0.67260E+04         0.00000E+00
    0.67260E+04         0.29149E+08         0.00000E+00
    0.00000E+00         0.00000E+00         0.12557E+08
 
    0.12678E+08         0.81833E+04         0.00000E+00
    0.81833E+04         0.29110E+08         0.00000E+00
    0.00000E+00         0.00000E+00         0.12536E+08
 
    0.12652E+08         0.95231E+04         0.00000E+00
    0.95231E+04         0.29071E+08         0.00000E+00
    0.00000E+00         0.00000E+00         0.12517E+08
 
    0.12626E+08         0.10752E+05         0.00000E+00
    0.10752E+05         0.29031E+08         0.00000E+00
    0.00000E+00         0.00000E+00         0.12497E+08
 
    0.12602E+08         0.11878E+05         0.00000E+00
    0.11878E+05         0.28990E+08         0.00000E+00
    0.00000E+00         0.00000E+00         0.12478E+08
 
    0.12579E+08         0.12914E+05         0.00000E+00
    0.12914E+05         0.28949E+08         0.00000E+00
    0.00000E+00         0.00000E+00         0.12458E+08
 
    0.12556E+08         0.13869E+05         0.00000E+00
    0.13869E+05         0.28907E+08         0.00000E+00
    0.00000E+00         0.00000E+00         0.12439E+08
 
    0.12535E+08         0.14756E+05         0.00000E+00
    0.14756E+05         0.28865E+08         0.00000E+00
    0.00000E+00         0.00000E+00         0.12420E+08
 
    0.12513E+08         0.15585E+05         0.00000E+00
    0.15585E+05         0.28822E+08         0.00000E+00
    0.00000E+00         0.00000E+00         0.12401E+08
 
    0.12492E+08         0.16366E+05         0.00000E+00
    0.16366E+05         0.28778E+08         0.00000E+00
    0.00000E+00         0.00000E+00         0.12381E+08
 
    0.12471E+08         0.17106E+05         0.00000E+00
    0.17106E+05         0.28734E+08         0.00000E+00
    0.00000E+00         0.00000E+00         0.12362E+08
 
    0.12451E+08         0.17813E+05         0.00000E+00
    0.17813E+05         0.28688E+08         0.00000E+00
    0.00000E+00         0.00000E+00         0.12342E+08
 
    0.12430E+08         0.18493E+05         0.00000E+00
    0.18493E+05         0.28642E+08         0.00000E+00
    0.00000E+00         0.00000E+00         0.12322E+08
 
    0.12410E+08         0.19152E+05         0.00000E+00
    0.19152E+05         0.28595E+08         0.00000E+00
    0.00000E+00         0.00000E+00         0.12301E+08
 
    0.12390E+08         0.19794E+05         0.00000E+00
    0.19794E+05         0.28547E+08         0.00000E+00
    0.00000E+00         0.00000E+00         0.12281E+08
 
    0.12369E+08         0.20422E+05         0.00000E+00
    0.20422E+05         0.28498E+08         0.00000E+00
    0.00000E+00         0.00000E+00         0.12260E+08
 
    0.12348E+08         0.21040E+05         0.00000E+00
    0.21040E+05         0.28447E+08         0.00000E+00
    0.00000E+00         0.00000E+00         0.12239E+08
 
    0.12328E+08         0.21650E+05         0.00000E+00
    0.21650E+05         0.28396E+08         0.00000E+00
    0.00000E+00         0.00000E+00         0.12217E+08
 
    0.12306E+08         0.22254E+05         0.00000E+00
    0.22254E+05         0.28344E+08         0.00000E+00
    0.00000E+00         0.00000E+00         0.12195E+08
 
    0.12285E+08         0.22854E+05         0.00000E+00
    0.22854E+05         0.28290E+08         0.00000E+00
    0.00000E+00         0.00000E+00         0.12173E+08
 
    0.12263E+08         0.23452E+05         0.00000E+00
    0.23452E+05         0.28236E+08         0.00000E+00
    0.00000E+00         0.00000E+00         0.12150E+08
 
    0.12241E+08         0.24048E+05         0.00000E+00
    0.24048E+05         0.28180E+08         0.00000E+00
    0.00000E+00         0.00000E+00         0.12126E+08
 
    0.12218E+08         0.24643E+05         0.00000E+00
    0.24643E+05         0.28122E+08         0.00000E+00
    0.00000E+00         0.00000E+00         0.12102E+08
 
    0.12195E+08         0.25238E+05         0.00000E+00
    0.25238E+05         0.28064E+08         0.00000E+00
    0.00000E+00         0.00000E+00         0.12078E+08
 
    0.12172E+08         0.25834E+05         0.00000E+00
    0.25834E+05         0.28004E+08         0.00000E+00
    0.00000E+00         0.00000E+00         0.12053E+08
 
    0.12148E+08         0.26431E+05         0.00000E+00
    0.26431E+05         0.27942E+08         0.00000E+00
    0.00000E+00         0.00000E+00         0.12027E+08
 
    0.12123E+08         0.27029E+05         0.00000E+00
    0.27029E+05         0.27880E+08         0.00000E+00
    0.00000E+00         0.00000E+00         0.12001E+08
 
    0.12098E+08         0.27629E+05         0.00000E+00
    0.27629E+05         0.27815E+08         0.00000E+00
    0.00000E+00         0.00000E+00         0.11974E+08
 
    0.12072E+08         0.28231E+05         0.00000E+00
    0.28231E+05         0.27749E+08         0.00000E+00
    0.00000E+00         0.00000E+00         0.11946E+08
 
    0.12045E+08         0.28834E+05         0.00000E+00
    0.28834E+05         0.27682E+08         0.00000E+00
    0.00000E+00         0.00000E+00         0.11918E+08
 
    0.12017E+08         0.29438E+05         0.00000E+00
    0.29438E+05         0.27613E+08         0.00000E+00
    0.00000E+00         0.00000E+00         0.11889E+08
 
    0.11989E+08         0.30043E+05         0.00000E+00
    0.30043E+05         0.27543E+08         0.00000E+00
    0.00000E+00         0.00000E+00         0.11859E+08
 
    0.11960E+08         0.30650E+05         0.00000E+00
    0.30650E+05         0.27470E+08         0.00000E+00
    0.00000E+00         0.00000E+00         0.11829E+08
 
    0.11930E+08         0.31257E+05         0.00000E+00
    0.31257E+05         0.27396E+08         0.00000E+00
    0.00000E+00         0.00000E+00         0.11798E+08
 
    0.11899E+08         0.31863E+05         0.00000E+00
    0.31863E+05         0.27320E+08         0.00000E+00
    0.00000E+00         0.00000E+00         0.11766E+08
 
    0.11868E+08         0.32469E+05         0.00000E+00
    0.32469E+05         0.27243E+08         0.00000E+00
    0.00000E+00         0.00000E+00         0.11733E+08
 
    0.11835E+08         0.33074E+05         0.00000E+00
    0.33074E+05         0.27164E+08         0.00000E+00
    0.00000E+00         0.00000E+00         0.11700E+08
 
    0.11801E+08         0.33677E+05         0.00000E+00
    0.33677E+05         0.27082E+08         0.00000E+00
    0.00000E+00         0.00000E+00         0.11665E+08
 
    0.11767E+08         0.34276E+05         0.00000E+00
    0.34276E+05         0.26999E+08         0.00000E+00
    0.00000E+00         0.00000E+00         0.11630E+08
 
    0.11731E+08         0.34872E+05         0.00000E+00
    0.34872E+05         0.26914E+08         0.00000E+00
    0.00000E+00         0.00000E+00         0.11594E+08
 
    0.11694E+08         0.35462E+05         0.00000E+00
    0.35462E+05         0.26827E+08         0.00000E+00
    0.00000E+00         0.00000E+00         0.11557E+08
 
    0.11657E+08         0.36046E+05         0.00000E+00
    0.36046E+05         0.26738E+08         0.00000E+00
    0.00000E+00         0.00000E+00         0.11518E+08
 
    0.11617E+08         0.36622E+05         0.00000E+00
    0.36622E+05         0.26647E+08         0.00000E+00
    0.00000E+00         0.00000E+00         0.11479E+08
 
    0.11577E+08         0.37189E+05         0.00000E+00
    0.37189E+05         0.26555E+08         0.00000E+00
    0.00000E+00         0.00000E+00         0.11440E+08
 
    0.11536E+08         0.37746E+05         0.00000E+00
    0.37746E+05         0.26460E+08         0.00000E+00
    0.00000E+00         0.00000E+00         0.11399E+08
 
    0.11493E+08         0.38289E+05         0.00000E+00
    0.38289E+05         0.26363E+08         0.00000E+00
    0.00000E+00         0.00000E+00         0.11357E+08
 
    0.11449E+08         0.38819E+05         0.00000E+00
    0.38819E+05         0.26263E+08         0.00000E+00
    0.00000E+00         0.00000E+00         0.11314E+08
 
    0.11403E+08         0.39333E+05         0.00000E+00
    0.39333E+05         0.26162E+08         0.00000E+00
    0.00000E+00         0.00000E+00         0.11270E+08
 
    0.11357E+08         0.39828E+05         0.00000E+00
    0.39828E+05         0.26059E+08         0.00000E+00
    0.00000E+00         0.00000E+00         0.11225E+08
 
    0.11308E+08         0.40303E+05         0.00000E+00
    0.40303E+05         0.25953E+08         0.00000E+00
    0.00000E+00         0.00000E+00         0.11179E+08
 
    0.11259E+08         0.40754E+05         0.00000E+00
    0.40754E+05         0.25846E+08         0.00000E+00
    0.00000E+00         0.00000E+00         0.11131E+08
 
    0.11207E+08         0.41180E+05         0.00000E+00
    0.41180E+05         0.25736E+08         0.00000E+00
    0.00000E+00         0.00000E+00         0.11083E+08
 
    0.11155E+08         0.41577E+05         0.00000E+00
    0.41577E+05         0.25624E+08         0.00000E+00
    0.00000E+00         0.00000E+00         0.11034E+08
 
    0.11100E+08         0.41943E+05         0.00000E+00
    0.41943E+05         0.25510E+08         0.00000E+00
    0.00000E+00         0.00000E+00         0.10983E+08
 
    0.11044E+08         0.42274E+05         0.00000E+00
    0.42274E+05         0.25393E+08         0.00000E+00
    0.00000E+00         0.00000E+00         0.10931E+08
 
    0.10986E+08         0.42566E+05         0.00000E+00
    0.42566E+05         0.25275E+08         0.00000E+00
    0.00000E+00         0.00000E+00         0.10878E+08
 
    0.10927E+08         0.42816E+05         0.00000E+00
    0.42816E+05         0.25154E+08         0.00000E+00
    0.00000E+00         0.00000E+00         0.10824E+08
 
    0.10865E+08         0.43020E+05         0.00000E+00
    0.43020E+05         0.25031E+08         0.00000E+00
    0.00000E+00         0.00000E+00         0.10769E+08
 
    0.10802E+08         0.43172E+05         0.00000E+00
    0.43172E+05         0.24906E+08         0.00000E+00
    0.00000E+00         0.00000E+00         0.10713E+08
 
    0.10737E+08         0.43267E+05         0.00000E+00
    0.43267E+05         0.24779E+08         0.00000E+00
    0.00000E+00         0.00000E+00         0.10655E+08
 
    0.10669E+08         0.43300E+05         0.00000E+00
    0.43300E+05         0.24650E+08         0.00000E+00
    0.00000E+00         0.00000E+00         0.10596E+08
 
    0.10600E+08         0.43264E+05         0.00000E+00
    0.43264E+05         0.24519E+08         0.00000E+00
    0.00000E+00         0.00000E+00         0.10536E+08
 
    0.10528E+08         0.43151E+05         0.00000E+00
    0.43151E+05         0.24385E+08         0.00000E+00
    0.00000E+00         0.00000E+00         0.10474E+08
 
    0.10455E+08         0.42952E+05         0.00000E+00
    0.42952E+05         0.24250E+08         0.00000E+00
    0.00000E+00         0.00000E+00         0.10411E+08
 
    0.10378E+08         0.42657E+05         0.00000E+00
    0.42657E+05         0.24112E+08         0.00000E+00
    0.00000E+00         0.00000E+00         0.10347E+08
 
    0.10300E+08         0.42253E+05         0.00000E+00
    0.42253E+05         0.23972E+08         0.00000E+00
    0.00000E+00         0.00000E+00         0.10282E+08
 
    0.10218E+08         0.41727E+05         0.00000E+00
    0.41727E+05         0.23831E+08         0.00000E+00
    0.00000E+00         0.00000E+00         0.10215E+08
 
    0.10134E+08         0.41061E+05         0.00000E+00
    0.41061E+05         0.23687E+08         0.00000E+00
    0.00000E+00         0.00000E+00         0.10147E+08
 
    0.10047E+08         0.40236E+05         0.00000E+00
    0.40236E+05         0.23542E+08         0.00000E+00
    0.00000E+00         0.00000E+00         0.10077E+08
 
    0.99573E+07         0.39227E+05         0.00000E+00
    0.39227E+05         0.23395E+08         0.00000E+00
    0.00000E+00         0.00000E+00         0.10006E+08
 
    0.98639E+07         0.38007E+05         0.00000E+00
    0.38007E+05         0.23246E+08         0.00000E+00
    0.00000E+00         0.00000E+00         0.99329E+07
 
    0.97669E+07         0.36543E+05         0.00000E+00
    0.36543E+05         0.23095E+08         0.00000E+00
    0.00000E+00         0.00000E+00         0.98586E+07
 
    0.96660E+07         0.34800E+05         0.00000E+00
    0.34800E+05         0.22943E+08         0.00000E+00
    0.00000E+00         0.00000E+00         0.97826E+07
 
    0.95609E+07         0.32736E+05         0.00000E+00
    0.32736E+05         0.22788E+08         0.00000E+00
    0.00000E+00         0.00000E+00         0.97048E+07
 
    0.94512E+07         0.30305E+05         0.00000E+00
    0.30305E+05         0.22633E+08         0.00000E+00
    0.00000E+00         0.00000E+00         0.96252E+07
 
    0.93364E+07         0.27461E+05         0.00000E+00
    0.27461E+05         0.22476E+08         0.00000E+00
    0.00000E+00         0.00000E+00         0.95437E+07
 
    0.92161E+07         0.24154E+05         0.00000E+00
    0.24154E+05         0.22317E+08         0.00000E+00
    0.00000E+00         0.00000E+00         0.94600E+07
 
    0.90897E+07         0.20340E+05         0.00000E+00
    0.20340E+05         0.22157E+08         0.00000E+00
    0.00000E+00         0.00000E+00         0.93742E+07
 
    0.89566E+07         0.15983E+05         0.00000E+00
    0.15983E+05         0.21996E+08         0.00000E+00
    0.00000E+00         0.00000E+00         0.92859E+07
 
    0.88162E+07         0.11060E+05         0.00000E+00
    0.11060E+05         0.21834E+08         0.00000E+00
    0.00000E+00         0.00000E+00         0.91951E+07
 
    0.86680E+07         0.55755E+04         0.00000E+00
    0.55755E+04         0.21671E+08         0.00000E+00
    0.00000E+00         0.00000E+00         0.91017E+07
 
    0.85113E+07        -0.43707E+03         0.00000E+00
   -0.43707E+03         0.21507E+08         0.00000E+00
    0.00000E+00         0.00000E+00         0.90054E+07
 
    0.83458E+07        -0.68944E+04         0.00000E+00
   -0.68944E+04         0.21342E+08         0.00000E+00
    0.00000E+00         0.00000E+00         0.89062E+07
 
    0.81712E+07        -0.13674E+05         0.00000E+00
   -0.13674E+05         0.21176E+08         0.00000E+00
    0.00000E+00         0.00000E+00         0.88041E+07
 
    0.79875E+07        -0.20560E+05         0.00000E+00
   -0.20560E+05         0.21009E+08         0.00000E+00
    0.00000E+00         0.00000E+00         0.86991E+07
 
    0.77953E+07        -0.27332E+05         0.00000E+00
   -0.27332E+05         0.20843E+08         0.00000E+00
    0.00000E+00         0.00000E+00         0.85913E+07
 
    0.75958E+07        -0.33520E+05         0.00000E+00
   -0.33520E+05         0.20675E+08         0.00000E+00
    0.00000E+00         0.00000E+00         0.84813E+07
 
    0.73912E+07        -0.38407E+05         0.00000E+00
   -0.38407E+05         0.20508E+08         0.00000E+00
    0.00000E+00         0.00000E+00         0.83698E+07
 
    0.71882E+07        -0.41211E+05         0.00000E+00
   -0.41211E+05         0.20339E+08         0.00000E+00
    0.00000E+00         0.00000E+00         0.82582E+07
 
    0.70044E+07        -0.23560E+05         0.00000E+00
   -0.23560E+05         0.20182E+08         0.00000E+00
    0.00000E+00         0.00000E+00         0.81558E+07
 
    0.13092E+08        -0.49030E+04         0.00000E+00
   -0.49030E+04         0.29521E+08         0.00000E+00
    0.00000E+00         0.00000E+00         0.12784E+08
 
    0.13050E+08        -0.69151E+04         0.00000E+00
   -0.69151E+04         0.29485E+08         0.00000E+00
    0.00000E+00         0.00000E+00         0.12760E+08
 
    0.13004E+08        -0.56293E+04         0.00000E+00
   -0.56293E+04         0.29448E+08         0.00000E+00
    0.00000E+00         0.00000E+00         0.12736E+08
 
    0.12960E+08        -0.44961E+04         0.00000E+00
   -0.44961E+04         0.29412E+08         0.00000E+00
    0.00000E+00         0.00000E+00         0.12712E+08
 
    0.12918E+08        -0.31159E+04         0.00000E+00
   -0.31159E+04         0.29375E+08         0.00000E+00
    0.00000E+00         0.00000E+00         0.12688E+08
 
    0.12877E+08        -0.17185E+04         0.00000E+00
   -0.17185E+04         0.29338E+08         0.00000E+00
    0.00000E+00         0.00000E+00         0.12664E+08
 
    0.12839E+08        -0.31414E+03         0.00000E+00
   -0.31414E+03         0.29301E+08         0.00000E+00
    0.00000E+00         0.00000E+00         0.12642E+08
 
    0.12803E+08         0.10559E+04         0.00000E+00
    0.10559E+04         0.29263E+08         0.00000E+00
    0.00000E+00         0.00000E+00         0.12620E+08
 
    0.12770E+08         0.23664E+04         0.00000E+00
    0.23664E+04         0.29225E+08         0.00000E+00
    0.00000E+00         0.00000E+00         0.12598E+08
 
    0.12738E+08         0.36008E+04         0.00000E+00
    0.36008E+04         0.29187E+08         0.00000E+00
    0.00000E+00         0.00000E+00         0.12578E+08
 
    0.12708E+08         0.47489E+04         0.00000E+00
    0.47489E+04         0.29149E+08         0.00000E+00
    0.00000E+00         0.00000E+00         0.12557E+08
 
    0.12680E+08         0.58077E+04         0.00000E+00
    0.58077E+04         0.29110E+08         0.00000E+00
    0.00000E+00         0.00000E+00         0.12537E+08
 
    0.12653E+08         0.67787E+04         0.00000E+00
    0.67787E+04         0.29070E+08         0.00000E+00
    0.00000E+00         0.00000E+00         0.12517E+08
 
    0.12628E+08         0.76670E+04         0.00000E+00
    0.76670E+04         0.29030E+08         0.00000E+00
    0.00000E+00         0.00000E+00         0.12498E+08
 
    0.12604E+08         0.84799E+04         0.00000E+00
    0.84799E+04         0.28990E+08         0.00000E+00
    0.00000E+00         0.00000E+00         0.12478E+08
 
    0.12581E+08         0.92256E+04         0.00000E+00
    0.92256E+04         0.28949E+08         0.00000E+00
    0.00000E+00         0.00000E+00         0.12459E+08
 
    0.12558E+08         0.99127E+04         0.00000E+00
    0.99127E+04         0.28907E+08         0.00000E+00
    0.00000E+00         0.00000E+00         0.12440E+08
 
    0.12536E+08         0.10550E+05         0.00000E+00
    0.10550E+05         0.28865E+08         0.00000E+00
    0.00000E+00         0.00000E+00         0.12420E+08
 
    0.12515E+08         0.11144E+05         0.00000E+00
    0.11144E+05         0.28822E+08         0.00000E+00
    0.00000E+00         0.00000E+00         0.12401E+08
 
    0.12494E+08         0.11703E+05         0.00000E+00
    0.11703E+05         0.28778E+08         0.00000E+00
    0.00000E+00         0.00000E+00         0.12382E+08
 
    0.12473E+08         0.12233E+05         0.00000E+00
    0.12233E+05         0.28734E+08         0.00000E+00
    0.00000E+00         0.00000E+00         0.12362E+08
 
    0.12453E+08         0.12739E+05         0.00000E+00
    0.12739E+05         0.28688E+08         0.00000E+00
    0.00000E+00         0.00000E+00         0.12342E+08
 
    0.12432E+08         0.13225E+05         0.00000E+00
    0.13225E+05         0.28642E+08         0.00000E+00
    0.00000E+00         0.00000E+00         0.12322E+08
 
    0.12412E+08         0.13696E+05         0.00000E+00
    0.13696E+05         0.28595E+08         0.00000E+00
    0.00000E+00         0.00000E+00         0.12302E+08
 
    0.12391E+08         0.14154E+05         0.00000E+00
    0.14154E+05         0.28547E+08         0.00000E+00
    0.00000E+00         0.00000E+00         0.12281E+08
 
    0.12371E+08         0.14603E+05         0.00000E+00
    0.14603E+05         0.28498E+08         0.00000E+00
    0.00000E+00         0.00000E+00         0.12261E+08
 
    0.12350E+08         0.15045E+05         0.00000E+00
    0.15045E+05         0.28447E+08         0.00000E+00
    0.00000E+00         0.00000E+00         0.12239E+08
 
    0.12330E+08         0.15481E+05         0.00000E+00
    0.15481E+05         0.28396E+08         0.00000E+00
    0.00000E+00         0.00000E+00         0.12218E+08
 
    0.12309E+08         0.15912E+05         0.00000E+00
    0.15912E+05         0.28344E+08         0.00000E+00
    0.00000E+00         0.00000E+00         0.12196E+08
 
    0.12287E+08         0.16341E+05         0.00000E+00
    0.16341E+05         0.28290E+08         0.00000E+00
    0.00000E+00         0.00000E+00         0.12173E+08
 
    0.12265E+08         0.16768E+05         0.00000E+00
    0.16768E+05         0.28235E+08         0.00000E+00
    0.00000E+00         0.00000E+00         0.12150E+08
 
    0.12243E+08         0.17193E+05         0.00000E+00
    0.17193E+05         0.28180E+08         0.00000E+00
    0.00000E+00         0.00000E+00         0.12127E+08
 
    0.12221E+08         0.17618E+05         0.00000E+00
    0.17618E+05         0.28122E+08         0.00000E+00
    0.00000E+00         0.00000E+00         0.12103E+08
 
    0.12198E+08         0.18044E+05         0.00000E+00
    0.18044E+05         0.28064E+08         0.00000E+00
    0.00000E+00         0.00000E+00         0.12078E+08
 
    0.12174E+08         0.18469E+05         0.00000E+00
    0.18469E+05         0.28004E+08         0.00000E+00
    0.00000E+00         0.00000E+00         0.12053E+08
 
    0.12150E+08         0.18895E+05         0.00000E+00
    0.18895E+05         0.27942E+08         0.00000E+00
    0.00000E+00         0.00000E+00         0.12028E+08
 
    0.12125E+08         0.19323E+05         0.00000E+00
    0.19323E+05         0.27880E+08         0.00000E+00
    0.00000E+00         0.00000E+00         0.12001E+08
 
    0.12100E+08         0.19751E+05         0.00000E+00
    0.19751E+05         0.27815E+08         0.00000E+00
    0.00000E+00         0.00000E+00         0.11975E+08
 
    0.12074E+08         0.20180E+05         0.00000E+00
    0.20180E+05         0.27749E+08         0.00000E+00
    0.00000E+00         0.00000E+00         0.11947E+08
 
    0.12048E+08         0.20611E+05         0.00000E+00
    0.20611E+05         0.27682E+08         0.00000E+00
    0.00000E+00         0.00000E+00         0.11919E+08
 
    0.12020E+08         0.21042E+05         0.00000E+00
    0.21042E+05         0.27613E+08         0.00000E+00
    0.00000E+00         0.00000E+00         0.11890E+08
 
    0.11992E+08         0.21474E+05         0.00000E+00
    0.21474E+05         0.27542E+08         0.00000E+00
    0.00000E+00         0.00000E+00         0.11860E+08
 
    0.11963E+08         0.21907E+05         0.00000E+00
    0.21907E+05         0.27470E+08         0.00000E+00
    0.00000E+00         0.00000E+00         0.11830E+08
 
    0.11933E+08         0.22340E+05         0.00000E+00
    0.22340E+05         0.27396E+08         0.00000E+00
    0.00000E+00         0.00000E+00         0.11799E+08
 
    0.11902E+08         0.22773E+05         0.00000E+00
    0.22773E+05         0.27320E+08         0.00000E+00
    0.00000E+00         0.00000E+00         0.11767E+08
 
    0.11871E+08         0.23206E+05         0.00000E+00
    0.23206E+05         0.27243E+08         0.00000E+00
    0.00000E+00         0.00000E+00         0.11734E+08
 
    0.11838E+08         0.23637E+05         0.00000E+00
    0.23637E+05         0.27163E+08         0.00000E+00
    0.00000E+00         0.00000E+00         0.11700E+08
 
    0.11805E+08         0.24067E+05         0.00000E+00
    0.24067E+05         0.27082E+08         0.00000E+00
    0.00000E+00         0.00000E+00         0.11666E+08
 
    0.11770E+08         0.24494E+05         0.00000E+00
    0.24494E+05         0.26999E+08         0.00000E+00
    0.00000E+00         0.00000E+00         0.11631E+08
 
    0.11734E+08         0.24919E+05         0.00000E+00
    0.24919E+05         0.26914E+08         0.00000E+00
    0.00000E+00         0.00000E+00         0.11595E+08
 
    0.11698E+08         0.25340E+05         0.00000E+00
    0.25340E+05         0.26827E+08         0.00000E+00
    0.00000E+00         0.00000E+00         0.11557E+08
 
    0.11660E+08         0.25756E+05         0.00000E+00
    0.25756E+05         0.26738E+08         0.00000E+00
    0.00000E+00         0.00000E+00         0.11519E+08
 
    0.11621E+08         0.26167E+05         0.00000E+00
    0.26167E+05         0.26647E+08         0.00000E+00
    0.00000E+00         0.00000E+00         0.11480E+08
 
    0.11580E+08         0.26571E+05         0.00000E+00
    0.26571E+05         0.26554E+08         0.00000E+00
    0.00000E+00         0.00000E+00         0.11440E+08
 
    0.11539E+08         0.26967E+05         0.00000E+00
    0.26967E+05         0.26460E+08         0.00000E+00
    0.00000E+00         0.00000E+00         0.11400E+08
 
    0.11496E+08         0.27355E+05         0.00000E+00
    0.27355E+05         0.26362E+08         0.00000E+00
    0.00000E+00         0.00000E+00         0.11358E+08
 
    0.11452E+08         0.27732E+05         0.00000E+00
    0.27732E+05         0.26263E+08         0.00000E+00
    0.00000E+00         0.00000E+00         0.11315E+08
 
    0.11407E+08         0.28097E+05         0.00000E+00
    0.28097E+05         0.26162E+08         0.00000E+00
    0.00000E+00         0.00000E+00         0.11271E+08
 
    0.11360E+08         0.28450E+05         0.00000E+00
    0.28450E+05         0.26059E+08         0.00000E+00
    0.00000E+00         0.00000E+00         0.11226E+08
 
    0.11312E+08         0.28787E+05         0.00000E+00
    0.28787E+05         0.25953E+08         0.00000E+00
    0.00000E+00         0.00000E+00         0.11180E+08
 
    0.11262E+08         0.29108E+05         0.00000E+00
    0.29108E+05         0.25846E+08         0.00000E+00
    0.00000E+00         0.00000E+00         0.11132E+08
 
    0.11211E+08         0.29411E+05         0.00000E+00
    0.29411E+05         0.25736E+08         0.00000E+00
    0.00000E+00         0.00000E+00         0.11084E+08
 
    0.11158E+08         0.29693E+05         0.00000E+00
    0.29693E+05         0.25624E+08         0.00000E+00
    0.00000E+00         0.00000E+00         0.11035E+08
 
    0.11103E+08         0.29953E+05         0.00000E+00
    0.29953E+05         0.25510E+08         0.00000E+00
    0.00000E+00         0.00000E+00         0.10984E+08
 
    0.11047E+08         0.30188E+05         0.00000E+00
    0.30188E+05         0.25393E+08         0.00000E+00
    0.00000E+00         0.00000E+00         0.10932E+08
 
    0.10989E+08         0.30395E+05         0.00000E+00
    0.30395E+05         0.25275E+08         0.00000E+00
    0.00000E+00         0.00000E+00         0.10879E+08
 
    0.10930E+08         0.30571E+05         0.00000E+00
    0.30571E+05         0.25154E+08         0.00000E+00
    0.00000E+00         0.00000E+00         0.10825E+08
 
    0.10868E+08         0.30715E+05         0.00000E+00
    0.30715E+05         0.25031E+08         0.00000E+00
    0.00000E+00         0.00000E+00         0.10770E+08
 
    0.10805E+08         0.30822E+05         0.00000E+00
    0.30822E+05         0.24906E+08         0.00000E+00
    0.00000E+00         0.00000E+00         0.10713E+08
 
    0.10740E+08         0.30888E+05         0.00000E+00
    0.30888E+05         0.24779E+08         0.00000E+00
    0.00000E+00         0.00000E+00         0.10656E+08
 
    0.10672E+08         0.30909E+05         0.00000E+00
    0.30909E+05         0.24650E+08         0.00000E+00
    0.00000E+00         0.00000E+00         0.10597E+08
 
    0.10603E+08         0.30882E+05         0.00000E+00
    0.30882E+05         0.24519E+08         0.00000E+00
    0.00000E+00         0.00000E+00         0.10536E+08
 
    0.10531E+08         0.30799E+05         0.00000E+00
    0.30799E+05         0.24385E+08         0.00000E+00
    0.00000E+00         0.00000E+00         0.10475E+08
 
    0.10457E+08         0.30655E+05         0.00000E+00
    0.30655E+05         0.24250E+08         0.00000E+00
    0.00000E+00         0.00000E+00         0.10412E+08
 
    0.10381E+08         0.30442E+05         0.00000E+00
    0.30442E+05         0.24112E+08         0.00000E+00
    0.00000E+00         0.00000E+00         0.10348E+08
 
    0.10302E+08         0.30151E+05         0.00000E+00
    0.30151E+05         0.23972E+08         0.00000E+00
    0.00000E+00         0.00000E+00         0.10282E+08
 
    0.10221E+08         0.29773E+05         0.00000E+00
    0.29773E+05         0.23831E+08         0.00000E+00
    0.00000E+00         0.00000E+00         0.10215E+08
 
    0.10137E+08         0.29294E+05         0.00000E+00
    0.29294E+05         0.23687E+08         0.00000E+00
    0.00000E+00         0.00000E+00         0.10147E+08
 
    0.10049E+08         0.28700E+05         0.00000E+00
    0.28700E+05         0.23542E+08         0.00000E+00
    0.00000E+00         0.00000E+00         0.10077E+08
 
    0.99591E+07         0.27975E+05         0.00000E+00
    0.27975E+05         0.23395E+08         0.00000E+00
    0.00000E+00         0.00000E+00         0.10006E+08
 
    0.98655E+07         0.27097E+05         0.00000E+00
    0.27097E+05         0.23246E+08         0.00000E+00
    0.00000E+00         0.00000E+00         0.99334E+07
 
    0.97683E+07         0.26043E+05         0.00000E+00
    0.26043E+05         0.23095E+08         0.00000E+00
    0.00000E+00         0.00000E+00         0.98591E+07
 
    0.96672E+07         0.24786E+05         0.00000E+00
    0.24786E+05         0.22943E+08         0.00000E+00
    0.00000E+00         0.00000E+00         0.97830E+07
 
    0.95617E+07         0.23296E+05         0.00000E+00
    0.23296E+05         0.22789E+08         0.00000E+00
    0.00000E+00         0.00000E+00         0.97052E+07
 
    0.94516E+07         0.21538E+05         0.00000E+00
    0.21538E+05         0.22633E+08         0.00000E+00
    0.00000E+00         0.00000E+00         0.96255E+07
 
    0.93364E+07         0.19477E+05         0.00000E+00
    0.19477E+05         0.22476E+08         0.00000E+00
    0.00000E+00         0.00000E+00         0.95438E+07
 
    0.92155E+07         0.17077E+05         0.00000E+00
    0.17077E+05         0.22318E+08         0.00000E+00
    0.00000E+00         0.00000E+00         0.94600E+07
 
    0.90883E+07         0.14303E+05         0.00000E+00
    0.14303E+05         0.22158E+08         0.00000E+00
    0.00000E+00         0.00000E+00         0.93739E+07
 
    0.89542E+07         0.11126E+05         0.00000E+00
    0.11126E+05         0.21997E+08         0.00000E+00
    0.00000E+00         0.00000E+00         0.92854E+07
 
    0.88126E+07         0.75285E+04         0.00000E+00
    0.75285E+04         0.21835E+08         0.00000E+00
    0.00000E+00         0.00000E+00         0.91943E+07
 
    0.86628E+07         0.35089E+04         0.00000E+00
    0.35089E+04         0.21672E+08         0.00000E+00
    0.00000E+00         0.00000E+00         0.91004E+07
 
    0.85042E+07        -0.91248E+03         0.00000E+00
   -0.91248E+03         0.21508E+08         0.00000E+00
    0.00000E+00         0.00000E+00         0.90036E+07
 
    0.83363E+07        -0.56803E+04         0.00000E+00
   -0.56803E+04         0.21343E+08         0.00000E+00
    0.00000E+00         0.00000E+00         0.89037E+07
 
    0.81587E+07        -0.10711E+05         0.00000E+00
   -0.10711E+05         0.21177E+08         0.00000E+00
    0.00000E+00         0.00000E+00         0.88007E+07
 
    0.79713E+07        -0.15879E+05         0.00000E+00
   -0.15879E+05         0.21011E+08         0.00000E+00
    0.00000E+00         0.00000E+00         0.86946E+07
 
    0.77745E+07        -0.20986E+05         0.00000E+00
   -0.20986E+05         0.20844E+08         0.00000E+00
    0.00000E+00         0.00000E+00         0.85855E+07
 
    0.75691E+07        -0.25974E+05         0.00000E+00
   -0.25974E+05         0.20676E+08         0.00000E+00
    0.00000E+00         0.00000E+00         0.84736E+07
 
    0.73574E+07        -0.29778E+05         0.00000E+00
   -0.29778E+05         0.20509E+08         0.00000E+00
    0.00000E+00         0.00000E+00         0.83599E+07
 
    0.71426E+07        -0.34232E+05         0.00000E+00
   -0.34232E+05         0.20340E+08         0.00000E+00
    0.00000E+00         0.00000E+00         0.82447E+07
 
    0.69474E+07        -0.23410E+05         0.00000E+00
   -0.23410E+05         0.20173E+08         0.00000E+00
    0.00000E+00         0.00000E+00         0.81362E+07
 
    0.13106E+08        -0.47140E+04         0.00000E+00
   -0.47140E+04         0.29523E+08         0.00000E+00
    0.00000E+00         0.00000E+00         0.12789E+08
 
    0.13060E+08        -0.47982E+04         0.00000E+00
   -0.47982E+04         0.29484E+08         0.00000E+00
    0.00000E+00         0.00000E+00         0.12763E+08
 
    0.13012E+08        -0.37362E+04         0.00000E+00
   -0.37362E+04         0.29448E+08         0.00000E+00
    0.00000E+00         0.00000E+00         0.12738E+08
 
    0.12966E+08        -0.30087E+04         0.00000E+00
   -0.30087E+04         0.29411E+08         0.00000E+00
    0.00000E+00         0.00000E+00         0.12713E+08
 
    0.12923E+08        -0.20724E+04         0.00000E+00
   -0.20724E+04         0.29374E+08         0.00000E+00
    0.00000E+00         0.00000E+00         0.12689E+08
 
    0.12881E+08        -0.12023E+04         0.00000E+00
   -0.12023E+04         0.29337E+08         0.00000E+00
    0.00000E+00         0.00000E+00         0.12666E+08
 
    0.12842E+08        -0.31327E+03         0.00000E+00
   -0.31327E+03         0.29300E+08         0.00000E+00
    0.00000E+00         0.00000E+00         0.12643E+08
 
    0.12806E+08         0.53548E+03         0.00000E+00
    0.53548E+03         0.29263E+08         0.00000E+00
    0.00000E+00         0.00000E+00         0.12621E+08
 
    0.12772E+08         0.13479E+04         0.00000E+00
    0.13479E+04         0.29225E+08         0.00000E+00
    0.00000E+00         0.00000E+00         0.12599E+08
 
    0.12740E+08         0.21077E+04         0.00000E+00
    0.21077E+04         0.29187E+08         0.00000E+00
    0.00000E+00         0.00000E+00         0.12578E+08
 
    0.12710E+08         0.28128E+04         0.00000E+00
    0.28128E+04         0.29148E+08         0.00000E+00
    0.00000E+00         0.00000E+00         0.12558E+08
 
    0.12682E+08         0.34604E+04         0.00000E+00
    0.34604E+04         0.29110E+08         0.00000E+00
    0.00000E+00         0.00000E+00         0.12537E+08
 
    0.12655E+08         0.40528E+04         0.00000E+00
    0.40528E+04         0.29070E+08         0.00000E+00
    0.00000E+00         0.00000E+00         0.12518E+08
 
    0.12630E+08         0.45932E+04         0.00000E+00
    0.45932E+04         0.29030E+08         0.00000E+00
    0.00000E+00         0.00000E+00         0.12498E+08
 
    0.12605E+08         0.50864E+04         0.00000E+00
    0.50864E+04         0.28990E+08         0.00000E+00
    0.00000E+00         0.00000E+00         0.12479E+08
 
    0.12582E+08         0.55379E+04         0.00000E+00
    0.55379E+04         0.28949E+08         0.00000E+00
    0.00000E+00         0.00000E+00         0.12459E+08
 
    0.12559E+08         0.59531E+04         0.00000E+00
    0.59531E+04         0.28907E+08         0.00000E+00
    0.00000E+00         0.00000E+00         0.12440E+08
 
    0.12538E+08         0.63374E+04         0.00000E+00
    0.63374E+04         0.28865E+08         0.00000E+00
    0.00000E+00         0.00000E+00         0.12421E+08
 
    0.12516E+08         0.66955E+04         0.00000E+00
    0.66955E+04         0.28822E+08         0.00000E+00
    0.00000E+00         0.00000E+00         0.12401E+08
 
    0.12495E+08         0.70319E+04         0.00000E+00
    0.70319E+04         0.28778E+08         0.00000E+00
    0.00000E+00         0.00000E+00         0.12382E+08
 
    0.12475E+08         0.73503E+04         0.00000E+00
    0.73503E+04         0.28734E+08         0.00000E+00
    0.00000E+00         0.00000E+00         0.12362E+08
 
    0.12454E+08         0.76542E+04         0.00000E+00
    0.76542E+04         0.28688E+08         0.00000E+00
    0.00000E+00         0.00000E+00         0.12343E+08
 
    0.12434E+08         0.79464E+04         0.00000E+00
    0.79464E+04         0.28642E+08         0.00000E+00
    0.00000E+00         0.00000E+00         0.12323E+08
 
    0.12414E+08         0.82291E+04         0.00000E+00
    0.82291E+04         0.28595E+08         0.00000E+00
    0.00000E+00         0.00000E+00         0.12303E+08
 
    0.12393E+08         0.85043E+04         0.00000E+00
    0.85043E+04         0.28547E+08         0.00000E+00
    0.00000E+00         0.00000E+00         0.12282E+08
 
    0.12373E+08         0.87737E+04         0.00000E+00
    0.87737E+04         0.28497E+08         0.00000E+00
    0.00000E+00         0.00000E+00         0.12261E+08
 
    0.12352E+08         0.90386E+04         0.00000E+00
    0.90386E+04         0.28447E+08         0.00000E+00
    0.00000E+00         0.00000E+00         0.12240E+08
 
    0.12332E+08         0.93001E+04         0.00000E+00
    0.93001E+04         0.28396E+08         0.00000E+00
    0.00000E+00         0.00000E+00         0.12218E+08
 
    0.12311E+08         0.95591E+04         0.00000E+00
    0.95591E+04         0.28344E+08         0.00000E+00
    0.00000E+00         0.00000E+00         0.12196E+08
 
    0.12289E+08         0.98163E+04         0.00000E+00
    0.98163E+04         0.28290E+08         0.00000E+00
    0.00000E+00         0.00000E+00         0.12174E+08
 
    0.12268E+08         0.10072E+05         0.00000E+00
    0.10072E+05         0.28235E+08         0.00000E+00
    0.00000E+00         0.00000E+00         0.12151E+08
 
    0.12246E+08         0.10328E+05         0.00000E+00
    0.10328E+05         0.28179E+08         0.00000E+00
    0.00000E+00         0.00000E+00         0.12128E+08
 
    0.12223E+08         0.10583E+05         0.00000E+00
    0.10583E+05         0.28122E+08         0.00000E+00
    0.00000E+00         0.00000E+00         0.12104E+08
 
    0.12200E+08         0.10838E+05         0.00000E+00
    0.10838E+05         0.28064E+08         0.00000E+00
    0.00000E+00         0.00000E+00         0.12079E+08
 
    0.12177E+08         0.11093E+05         0.00000E+00
    0.11093E+05         0.28004E+08         0.00000E+00
    0.00000E+00         0.00000E+00         0.12054E+08
 
    0.12153E+08         0.11349E+05         0.00000E+00
    0.11349E+05         0.27942E+08         0.00000E+00
    0.00000E+00         0.00000E+00         0.12028E+08
 
    0.12128E+08         0.11605E+05         0.00000E+00
    0.11605E+05         0.27879E+08         0.00000E+00
    0.00000E+00         0.00000E+00         0.12002E+08
 
    0.12103E+08         0.11862E+05         0.00000E+00
    0.11862E+05         0.27815E+08         0.00000E+00
    0.00000E+00         0.00000E+00         0.11975E+08
 
    0.12077E+08         0.12119E+05         0.00000E+00
    0.12119E+05         0.27749E+08         0.00000E+00
    0.00000E+00         0.00000E+00         0.11948E+08
 
    0.12050E+08         0.12377E+05         0.00000E+00
    0.12377E+05         0.27682E+08         0.00000E+00
    0.00000E+00         0.00000E+00         0.11920E+08
 
    0.12023E+08         0.12636E+05         0.00000E+00
    0.12636E+05         0.27613E+08         0.00000E+00
    0.00000E+00         0.00000E+00         0.11891E+08
 
    0.11995E+08         0.12895E+05         0.00000E+00
    0.12895E+05         0.27542E+08         0.00000E+00
    0.00000E+00         0.00000E+00         0.11861E+08
 
    0.11966E+08         0.13155E+05         0.00000E+00
    0.13155E+05         0.27470E+08         0.00000E+00
    0.00000E+00         0.00000E+00         0.11831E+08
 
    0.11936E+08         0.13414E+05         0.00000E+00
    0.13414E+05         0.27396E+08         0.00000E+00
    0.00000E+00         0.00000E+00         0.11800E+08
 
    0.11905E+08         0.13674E+05         0.00000E+00
    0.13674E+05         0.27320E+08         0.00000E+00
    0.00000E+00         0.00000E+00         0.11768E+08
 
    0.11874E+08         0.13933E+05         0.00000E+00
    0.13933E+05         0.27243E+08         0.00000E+00
    0.00000E+00         0.00000E+00         0.11735E+08
 
    0.11841E+08         0.14191E+05         0.00000E+00
    0.14191E+05         0.27163E+08         0.00000E+00
    0.00000E+00         0.00000E+00         0.11701E+08
 
    0.11808E+08         0.14449E+05         0.00000E+00
    0.14449E+05         0.27082E+08         0.00000E+00
    0.00000E+00         0.00000E+00         0.11667E+08
 
    0.11773E+08         0.14705E+05         0.00000E+00
    0.14705E+05         0.26999E+08         0.00000E+00
    0.00000E+00         0.00000E+00         0.11632E+08
 
    0.11737E+08         0.14959E+05         0.00000E+00
    0.14959E+05         0.26914E+08         0.00000E+00
    0.00000E+00         0.00000E+00         0.11595E+08
 
    0.11701E+08         0.15211E+05         0.00000E+00
    0.15211E+05         0.26827E+08         0.00000E+00
    0.00000E+00         0.00000E+00         0.11558E+08
 
    0.11663E+08         0.15460E+05         0.00000E+00
    0.15460E+05         0.26738E+08         0.00000E+00
    0.00000E+00         0.00000E+00         0.11520E+08
 
    0.11624E+08         0.15706E+05         0.00000E+00
    0.15706E+05         0.26647E+08         0.00000E+00
    0.00000E+00         0.00000E+00         0.11481E+08
 
    0.11584E+08         0.15948E+05         0.00000E+00
    0.15948E+05         0.26554E+08         0.00000E+00
    0.00000E+00         0.00000E+00         0.11441E+08
 
    0.11542E+08         0.16185E+05         0.00000E+00
    0.16185E+05         0.26459E+08         0.00000E+00
    0.00000E+00         0.00000E+00         0.11401E+08
 
    0.11500E+08         0.16417E+05         0.00000E+00
    0.16417E+05         0.26362E+08         0.00000E+00
    0.00000E+00         0.00000E+00         0.11359E+08
 
    0.11456E+08         0.16642E+05         0.00000E+00
    0.16642E+05         0.26263E+08         0.00000E+00
    0.00000E+00         0.00000E+00         0.11316E+08
 
    0.11410E+08         0.16861E+05         0.00000E+00
    0.16861E+05         0.26162E+08         0.00000E+00
    0.00000E+00         0.00000E+00         0.11272E+08
 
    0.11363E+08         0.17071E+05         0.00000E+00
    0.17071E+05         0.26059E+08         0.00000E+00
    0.00000E+00         0.00000E+00         0.11227E+08
 
    0.11315E+08         0.17273E+05         0.00000E+00
    0.17273E+05         0.25953E+08         0.00000E+00
    0.00000E+00         0.00000E+00         0.11180E+08
 
    0.11265E+08         0.17464E+05         0.00000E+00
    0.17464E+05         0.25846E+08         0.00000E+00
    0.00000E+00         0.00000E+00         0.11133E+08
 
    0.11214E+08         0.17645E+05         0.00000E+00
    0.17645E+05         0.25736E+08         0.00000E+00
    0.00000E+00         0.00000E+00         0.11085E+08
 
    0.11161E+08         0.17813E+05         0.00000E+00
    0.17813E+05         0.25624E+08         0.00000E+00
    0.00000E+00         0.00000E+00         0.11036E+08
 
    0.11107E+08         0.17968E+05         0.00000E+00
    0.17968E+05         0.25510E+08         0.00000E+00
    0.00000E+00         0.00000E+00         0.10985E+08
 
    0.11051E+08         0.18108E+05         0.00000E+00
    0.18108E+05         0.25393E+08         0.00000E+00
    0.00000E+00         0.00000E+00         0.10933E+08
 
    0.10993E+08         0.18231E+05         0.00000E+00
    0.18231E+05         0.25275E+08         0.00000E+00
    0.00000E+00         0.00000E+00         0.10880E+08
 
    0.10933E+08         0.18335E+05         0.00000E+00
    0.18335E+05         0.25154E+08         0.00000E+00
    0.00000E+00         0.00000E+00         0.10826E+08
 
    0.10871E+08         0.18420E+05         0.00000E+00
    0.18420E+05         0.25031E+08         0.00000E+00
    0.00000E+00         0.00000E+00         0.10771E+08
 
    0.10808E+08         0.18483E+05         0.00000E+00
    0.18483E+05         0.24906E+08         0.00000E+00
    0.00000E+00         0.00000E+00         0.10714E+08
 
    0.10743E+08         0.18522E+05         0.00000E+00
    0.18522E+05         0.24779E+08         0.00000E+00
    0.00000E+00         0.00000E+00         0.10657E+08
 
    0.10675E+08         0.18533E+05         0.00000E+00
    0.18533E+05         0.24650E+08         0.00000E+00
    0.00000E+00         0.00000E+00         0.10598E+08
 
    0.10606E+08         0.18515E+05         0.00000E+00
    0.18515E+05         0.24519E+08         0.00000E+00
    0.00000E+00         0.00000E+00         0.10537E+08
 
    0.10534E+08         0.18464E+05         0.00000E+00
    0.18464E+05         0.24385E+08         0.00000E+00
    0.00000E+00         0.00000E+00         0.10476E+08
 
    0.10460E+08         0.18376E+05         0.00000E+00
    0.18376E+05         0.24250E+08         0.00000E+00
    0.00000E+00         0.00000E+00         0.10413E+08
 
    0.10384E+08         0.18247E+05         0.00000E+00
    0.18247E+05         0.24112E+08         0.00000E+00
    0.00000E+00         0.00000E+00         0.10349E+08
 
    0.10305E+08         0.18072E+05         0.00000E+00
    0.18072E+05         0.23973E+08         0.00000E+00
    0.00000E+00         0.00000E+00         0.10283E+08
 
    0.10223E+08         0.17843E+05         0.00000E+00
    0.17843E+05         0.23831E+08         0.00000E+00
    0.00000E+00         0.00000E+00         0.10216E+08
 
    0.10139E+08         0.17554E+05         0.00000E+00
    0.17554E+05         0.23688E+08         0.00000E+00
    0.00000E+00         0.00000E+00         0.10148E+08
 
    0.10052E+08         0.17196E+05         0.00000E+00
    0.17196E+05         0.23542E+08         0.00000E+00
    0.00000E+00         0.00000E+00         0.10078E+08
 
    0.99611E+07         0.16757E+05         0.00000E+00
    0.16757E+05         0.23395E+08         0.00000E+00
    0.00000E+00         0.00000E+00         0.10007E+08
 
    0.98673E+07         0.16227E+05         0.00000E+00
    0.16227E+05         0.23246E+08         0.00000E+00
    0.00000E+00         0.00000E+00         0.99340E+07
 
    0.97699E+07         0.15589E+05         0.00000E+00
    0.15589E+05         0.23095E+08         0.00000E+00
    0.00000E+00         0.00000E+00         0.98596E+07
 
    0.96685E+07         0.14827E+05         0.00000E+00
    0.14827E+05         0.22943E+08         0.00000E+00
    0.00000E+00         0.00000E+00         0.97835E+07
 
    0.95628E+07         0.13922E+05         0.00000E+00
    0.13922E+05         0.22789E+08         0.00000E+00
    0.00000E+00         0.00000E+00         0.97056E+07
 
    0.94524E+07         0.12854E+05         0.00000E+00
    0.12854E+05         0.22634E+08         0.00000E+00
    0.00000E+00         0.00000E+00         0.96258E+07
 
    0.93367E+07         0.11598E+05         0.00000E+00
    0.11598E+05         0.22477E+08         0.00000E+00
    0.00000E+00         0.00000E+00         0.95440E+07
 
    0.92152E+07         0.10131E+05         0.00000E+00
    0.10131E+05         0.22318E+08         0.00000E+00
    0.00000E+00         0.00000E+00         0.94601E+07
 
    0.90873E+07         0.84326E+04         0.00000E+00
    0.84326E+04         0.22159E+08         0.00000E+00
    0.00000E+00         0.00000E+00         0.93738E+07
 
    0.89523E+07         0.64815E+04         0.00000E+00
    0.64815E+04         0.21998E+08         0.00000E+00
    0.00000E+00         0.00000E+00         0.92850E+07
 
    0.88096E+07         0.42661E+04         0.00000E+00
    0.42661E+04         0.21836E+08         0.00000E+00
    0.00000E+00         0.00000E+00         0.91936E+07
 
    0.86583E+07         0.17804E+04         0.00000E+00
    0.17804E+04         0.21673E+08         0.00000E+00
    0.00000E+00         0.00000E+00         0.90993E+07
 
    0.84978E+07        -0.95929E+03         0.00000E+00
   -0.95929E+03         0.21509E+08         0.00000E+00
    0.00000E+00         0.00000E+00         0.90019E+07
 
    0.83275E+07        -0.39387E+04         0.00000E+00
   -0.39387E+04         0.21344E+08         0.00000E+00
    0.00000E+00         0.00000E+00         0.89013E+07
 
    0.81469E+07        -0.70772E+04         0.00000E+00
   -0.70772E+04         0.21178E+08         0.00000E+00
    0.00000E+00         0.00000E+00         0.87975E+07
 
    0.79558E+07        -0.10388E+05         0.00000E+00
   -0.10388E+05         0.21011E+08         0.00000E+00
    0.00000E+00         0.00000E+00         0.86902E+07
 
    0.77545E+07        -0.13592E+05         0.00000E+00
   -0.13592E+05         0.20845E+08         0.00000E+00
    0.00000E+00         0.00000E+00         0.85797E+07
 
    0.75429E+07        -0.17078E+05         0.00000E+00
   -0.17078E+05         0.20677E+08         0.00000E+00
    0.00000E+00         0.00000E+00         0.84660E+07
 
    0.73238E+07        -0.19569E+05         0.00000E+00
   -0.19569E+05         0.20509E+08         0.00000E+00
    0.00000E+00         0.00000E+00         0.83499E+07
 
    0.70967E+07        -0.23569E+05         0.00000E+00
   -0.23569E+05         0.20342E+08         0.00000E+00
    0.00000E+00         0.00000E+00         0.82317E+07
 
    0.68830E+07        -0.22239E+05         0.00000E+00
   -0.22239E+05         0.20166E+08         0.00000E+00
    0.00000E+00         0.00000E+00         0.81146E+07
 
    0.13123E+08        -0.40134E+04         0.00000E+00
   -0.40134E+04         0.29524E+08         0.00000E+00
    0.00000E+00         0.00000E+00         0.12794E+08
 
    0.13070E+08        -0.15886E+04         0.00000E+00
   -0.15886E+04         0.29483E+08         0.00000E+00
    0.00000E+00         0.00000E+00         0.12766E+08
 
    0.13020E+08        -0.16635E+04         0.00000E+00
   -0.16635E+04         0.29448E+08         0.00000E+00
    0.00000E+00         0.00000E+00         0.12741E+08
 
    0.12972E+08        -0.11468E+04         0.00000E+00
   -0.11468E+04         0.29411E+08         0.00000E+00
    0.00000E+00         0.00000E+00         0.12715E+08
 
    0.12928E+08        -0.85399E+03         0.00000E+00
   -0.85399E+03         0.29374E+08         0.00000E+00
    0.00000E+00         0.00000E+00         0.12691E+08
 
    0.12885E+08        -0.50545E+03         0.00000E+00
   -0.50545E+03         0.29337E+08         0.00000E+00
    0.00000E+00         0.00000E+00         0.12667E+08
 
    0.12846E+08        -0.19191E+03         0.00000E+00
   -0.19191E+03         0.29300E+08         0.00000E+00
    0.00000E+00         0.00000E+00         0.12644E+08
 
    0.12809E+08         0.11526E+03         0.00000E+00
    0.11526E+03         0.29263E+08         0.00000E+00
    0.00000E+00         0.00000E+00         0.12621E+08
 
    0.12774E+08         0.40160E+03         0.00000E+00
    0.40160E+03         0.29225E+08         0.00000E+00
    0.00000E+00         0.00000E+00         0.12600E+08
 
    0.12742E+08         0.66889E+03         0.00000E+00
    0.66889E+03         0.29187E+08         0.00000E+00
    0.00000E+00         0.00000E+00         0.12579E+08
 
    0.12712E+08         0.91443E+03         0.00000E+00
    0.91443E+03         0.29148E+08         0.00000E+00
    0.00000E+00         0.00000E+00         0.12558E+08
 
    0.12683E+08         0.11388E+04         0.00000E+00
    0.11388E+04         0.29109E+08         0.00000E+00
    0.00000E+00         0.00000E+00         0.12538E+08
 
    0.12656E+08         0.13427E+04         0.00000E+00
    0.13427E+04         0.29070E+08         0.00000E+00
    0.00000E+00         0.00000E+00         0.12518E+08
 
    0.12631E+08         0.15277E+04         0.00000E+00
    0.15277E+04         0.29030E+08         0.00000E+00
    0.00000E+00         0.00000E+00         0.12498E+08
 
    0.12607E+08         0.16957E+04         0.00000E+00
    0.16957E+04         0.28990E+08         0.00000E+00
    0.00000E+00         0.00000E+00         0.12479E+08
 
    0.12583E+08         0.18488E+04         0.00000E+00
    0.18488E+04         0.28949E+08         0.00000E+00
    0.00000E+00         0.00000E+00         0.12460E+08
 
    0.12561E+08         0.19890E+04         0.00000E+00
    0.19890E+04         0.28907E+08         0.00000E+00
    0.00000E+00         0.00000E+00         0.12440E+08
 
    0.12539E+08         0.21184E+04         0.00000E+00
    0.21184E+04         0.28865E+08         0.00000E+00
    0.00000E+00         0.00000E+00         0.12421E+08
 
    0.12518E+08         0.22386E+04         0.00000E+00
    0.22386E+04         0.28822E+08         0.00000E+00
    0.00000E+00         0.00000E+00         0.12402E+08
 
    0.12497E+08         0.23513E+04         0.00000E+00
    0.23513E+04         0.28778E+08         0.00000E+00
    0.00000E+00         0.00000E+00         0.12382E+08
 
    0.12476E+08         0.24578E+04         0.00000E+00
    0.24578E+04         0.28734E+08         0.00000E+00
    0.00000E+00         0.00000E+00         0.12363E+08
 
    0.12456E+08         0.25593E+04         0.00000E+00
    0.25593E+04         0.28688E+08         0.00000E+00
    0.00000E+00         0.00000E+00         0.12343E+08
 
    0.12436E+08         0.26568E+04         0.00000E+00
    0.26568E+04         0.28642E+08         0.00000E+00
    0.00000E+00         0.00000E+00         0.12323E+08
 
    0.12415E+08         0.27511E+04         0.00000E+00
    0.27511E+04         0.28595E+08         0.00000E+00
    0.00000E+00         0.00000E+00         0.12303E+08
 
    0.12395E+08         0.28429E+04         0.00000E+00
    0.28429E+04         0.28547E+08         0.00000E+00
    0.00000E+00         0.00000E+00         0.12283E+08
 
    0.12375E+08         0.29327E+04         0.00000E+00
    0.29327E+04         0.28497E+08         0.00000E+00
    0.00000E+00         0.00000E+00         0.12262E+08
 
    0.12354E+08         0.30209E+04         0.00000E+00
    0.30209E+04         0.28447E+08         0.00000E+00
    0.00000E+00         0.00000E+00         0.12240E+08
 
    0.12334E+08         0.31081E+04         0.00000E+00
    0.31081E+04         0.28396E+08         0.00000E+00
    0.00000E+00         0.00000E+00         0.12219E+08
 
    0.12313E+08         0.31944E+04         0.00000E+00
    0.31944E+04         0.28344E+08         0.00000E+00
    0.00000E+00         0.00000E+00         0.12197E+08
 
    0.12291E+08         0.32801E+04         0.00000E+00
    0.32801E+04         0.28290E+08         0.00000E+00
    0.00000E+00         0.00000E+00         0.12174E+08
 
    0.12270E+08         0.33654E+04         0.00000E+00
    0.33654E+04         0.28235E+08         0.00000E+00
    0.00000E+00         0.00000E+00         0.12152E+08
 
    0.12248E+08         0.34505E+04         0.00000E+00
    0.34505E+04         0.28179E+08         0.00000E+00
    0.00000E+00         0.00000E+00         0.12128E+08
 
    0.12225E+08         0.35355E+04         0.00000E+00
    0.35355E+04         0.28122E+08         0.00000E+00
    0.00000E+00         0.00000E+00         0.12104E+08
 
    0.12202E+08         0.36205E+04         0.00000E+00
    0.36205E+04         0.28064E+08         0.00000E+00
    0.00000E+00         0.00000E+00         0.12080E+08
 
    0.12179E+08         0.37055E+04         0.00000E+00
    0.37055E+04         0.28004E+08         0.00000E+00
    0.00000E+00         0.00000E+00         0.12055E+08
 
    0.12155E+08         0.37907E+04         0.00000E+00
    0.37907E+04         0.27942E+08         0.00000E+00
    0.00000E+00         0.00000E+00         0.12029E+08
 
    0.12130E+08         0.38761E+04         0.00000E+00
    0.38761E+04         0.27879E+08         0.00000E+00
    0.00000E+00         0.00000E+00         0.12003E+08
 
    0.12105E+08         0.39616E+04         0.00000E+00
    0.39616E+04         0.27815E+08         0.00000E+00
    0.00000E+00         0.00000E+00         0.11976E+08
 
    0.12079E+08         0.40473E+04         0.00000E+00
    0.40473E+04         0.27749E+08         0.00000E+00
    0.00000E+00         0.00000E+00         0.11949E+08
 
    0.12053E+08         0.41332E+04         0.00000E+00
    0.41332E+04         0.27682E+08         0.00000E+00
    0.00000E+00         0.00000E+00         0.11920E+08
 
    0.12025E+08         0.42193E+04         0.00000E+00
    0.42193E+04         0.27613E+08         0.00000E+00
    0.00000E+00         0.00000E+00         0.11892E+08
 
    0.11997E+08         0.43055E+04         0.00000E+00
    0.43055E+04         0.27542E+08         0.00000E+00
    0.00000E+00         0.00000E+00         0.11862E+08
 
    0.11969E+08         0.43918E+04         0.00000E+00
    0.43918E+04         0.27470E+08         0.00000E+00
    0.00000E+00         0.00000E+00         0.11832E+08
 
    0.11939E+08         0.44782E+04         0.00000E+00
    0.44782E+04         0.27396E+08         0.00000E+00
    0.00000E+00         0.00000E+00         0.11800E+08
 
    0.11908E+08         0.45644E+04         0.00000E+00
    0.45644E+04         0.27320E+08         0.00000E+00
    0.00000E+00         0.00000E+00         0.11769E+08
 
    0.11877E+08         0.46506E+04         0.00000E+00
    0.46506E+04         0.27243E+08         0.00000E+00
    0.00000E+00         0.00000E+00         0.11736E+08
 
    0.11844E+08         0.47365E+04         0.00000E+00
    0.47365E+04         0.27163E+08         0.00000E+00
    0.00000E+00         0.00000E+00         0.11702E+08
 
    0.11811E+08         0.48220E+04         0.00000E+00
    0.48220E+04         0.27082E+08         0.00000E+00
    0.00000E+00         0.00000E+00         0.11668E+08
 
    0.11776E+08         0.49071E+04         0.00000E+00
    0.49071E+04         0.26999E+08         0.00000E+00
    0.00000E+00         0.00000E+00         0.11633E+08
 
    0.11741E+08         0.49915E+04         0.00000E+00
    0.49915E+04         0.26914E+08         0.00000E+00
    0.00000E+00         0.00000E+00         0.11596E+08
 
    0.11704E+08         0.50752E+04         0.00000E+00
    0.50752E+04         0.26827E+08         0.00000E+00
    0.00000E+00         0.00000E+00         0.11559E+08
 
    0.11666E+08         0.51579E+04         0.00000E+00
    0.51579E+04         0.26738E+08         0.00000E+00
    0.00000E+00         0.00000E+00         0.11521E+08
 
    0.11627E+08         0.52394E+04         0.00000E+00
    0.52394E+04         0.26647E+08         0.00000E+00
    0.00000E+00         0.00000E+00         0.11482E+08
 
    0.11587E+08         0.53196E+04         0.00000E+00
    0.53196E+04         0.26554E+08         0.00000E+00
    0.00000E+00         0.00000E+00         0.11442E+08
 
    0.11546E+08         0.53982E+04         0.00000E+00
    0.53982E+04         0.26459E+08         0.00000E+00
    0.00000E+00         0.00000E+00         0.11401E+08
 
    0.11503E+08         0.54749E+04         0.00000E+00
    0.54749E+04         0.26362E+08         0.00000E+00
    0.00000E+00         0.00000E+00         0.11360E+08
 
    0.11459E+08         0.55496E+04         0.00000E+00
    0.55496E+04         0.26263E+08         0.00000E+00
    0.00000E+00         0.00000E+00         0.11317E+08
 
    0.11413E+08         0.56219E+04         0.00000E+00
    0.56219E+04         0.26162E+08         0.00000E+00
    0.00000E+00         0.00000E+00         0.11273E+08
 
    0.11367E+08         0.56915E+04         0.00000E+00
    0.56915E+04         0.26059E+08         0.00000E+00
    0.00000E+00         0.00000E+00         0.11228E+08
 
    0.11318E+08         0.57581E+04         0.00000E+00
    0.57581E+04         0.25953E+08         0.00000E+00
    0.00000E+00         0.00000E+00         0.11181E+08
 
    0.11269E+08         0.58214E+04         0.00000E+00
    0.58214E+04         0.25846E+08         0.00000E+00
    0.00000E+00         0.00000E+00         0.11134E+08
 
    0.11217E+08         0.58809E+04         0.00000E+00
    0.58809E+04         0.25736E+08         0.00000E+00
    0.00000E+00         0.00000E+00         0.11086E+08
 
    0.11164E+08         0.59363E+04         0.00000E+00
    0.59363E+04         0.25624E+08         0.00000E+00
    0.00000E+00         0.00000E+00         0.11036E+08
 
    0.11110E+08         0.59871E+04         0.00000E+00
    0.59871E+04         0.25510E+08         0.00000E+00
    0.00000E+00         0.00000E+00         0.10986E+08
 
    0.11054E+08         0.60329E+04         0.00000E+00
    0.60329E+04         0.25393E+08         0.00000E+00
    0.00000E+00         0.00000E+00         0.10934E+08
 
    0.10996E+08         0.60731E+04         0.00000E+00
    0.60731E+04         0.25275E+08         0.00000E+00
    0.00000E+00         0.00000E+00         0.10881E+08
 
    0.10936E+08         0.61073E+04         0.00000E+00
    0.61073E+04         0.25154E+08         0.00000E+00
    0.00000E+00         0.00000E+00         0.10827E+08
 
    0.10875E+08         0.61348E+04         0.00000E+00
    0.61348E+04         0.25031E+08         0.00000E+00
    0.00000E+00         0.00000E+00         0.10772E+08
 
    0.10811E+08         0.61549E+04         0.00000E+00
    0.61549E+04         0.24906E+08         0.00000E+00
    0.00000E+00         0.00000E+00         0.10715E+08
 
    0.10746E+08         0.61670E+04         0.00000E+00
    0.61670E+04         0.24779E+08         0.00000E+00
    0.00000E+00         0.00000E+00         0.10658E+08
 
    0.10678E+08         0.61701E+04         0.00000E+00
    0.61701E+04         0.24650E+08         0.00000E+00
    0.00000E+00         0.00000E+00         0.10598E+08
 
    0.10609E+08         0.61633E+04         0.00000E+00
    0.61633E+04         0.24519E+08         0.00000E+00
    0.00000E+00         0.00000E+00         0.10538E+08
 
    0.10537E+08         0.61455E+04         0.00000E+00
    0.61455E+04         0.24385E+08         0.00000E+00
    0.00000E+00         0.00000E+00         0.10477E+08
 
    0.10463E+08         0.61155E+04         0.00000E+00
    0.61155E+04         0.24250E+08         0.00000E+00
    0.00000E+00         0.00000E+00         0.10414E+08
 
    0.10386E+08         0.60717E+04         0.00000E+00
    0.60717E+04         0.24112E+08         0.00000E+00
    0.00000E+00         0.00000E+00         0.10350E+08
 
    0.10307E+08         0.60124E+04         0.00000E+00
    0.60124E+04         0.23973E+08         0.00000E+00
    0.00000E+00         0.00000E+00         0.10284E+08
 
    0.10226E+08         0.59353E+04         0.00000E+00
    0.59353E+04         0.23831E+08         0.00000E+00
    0.00000E+00         0.00000E+00         0.10217E+08
 
    0.10141E+08         0.58380E+04         0.00000E+00
    0.58380E+04         0.23688E+08         0.00000E+00
    0.00000E+00         0.00000E+00         0.10149E+08
 
    0.10054E+08         0.57173E+04         0.00000E+00
    0.57173E+04         0.23542E+08         0.00000E+00
    0.00000E+00         0.00000E+00         0.10079E+08
 
    0.99633E+07         0.55695E+04         0.00000E+00
    0.55695E+04         0.23395E+08         0.00000E+00
    0.00000E+00         0.00000E+00         0.10008E+08
 
    0.98694E+07         0.53903E+04         0.00000E+00
    0.53903E+04         0.23246E+08         0.00000E+00
    0.00000E+00         0.00000E+00         0.99347E+07
 
    0.97718E+07         0.51745E+04         0.00000E+00
    0.51745E+04         0.23096E+08         0.00000E+00
    0.00000E+00         0.00000E+00         0.98602E+07
 
    0.96702E+07         0.49160E+04         0.00000E+00
    0.49160E+04         0.22943E+08         0.00000E+00
    0.00000E+00         0.00000E+00         0.97840E+07
 
    0.95642E+07         0.46079E+04         0.00000E+00
    0.46079E+04         0.22789E+08         0.00000E+00
    0.00000E+00         0.00000E+00         0.97060E+07
 
    0.94535E+07         0.42426E+04         0.00000E+00
    0.42426E+04         0.22634E+08         0.00000E+00
    0.00000E+00         0.00000E+00         0.96262E+07
 
    0.93374E+07         0.38115E+04         0.00000E+00
    0.38115E+04         0.22477E+08         0.00000E+00
    0.00000E+00         0.00000E+00         0.95443E+07
 
    0.92154E+07         0.33058E+04         0.00000E+00
    0.33058E+04         0.22319E+08         0.00000E+00
    0.00000E+00         0.00000E+00         0.94602E+07
 
    0.90868E+07         0.27167E+04         0.00000E+00
    0.27167E+04         0.22159E+08         0.00000E+00
    0.00000E+00         0.00000E+00         0.93737E+07
 
    0.89510E+07         0.20367E+04         0.00000E+00
    0.20367E+04         0.21998E+08         0.00000E+00
    0.00000E+00         0.00000E+00         0.92847E+07
 
    0.88071E+07         0.12592E+04         0.00000E+00
    0.12592E+04         0.21836E+08         0.00000E+00
    0.00000E+00         0.00000E+00         0.91930E+07
 
    0.86544E+07         0.38250E+03         0.00000E+00
    0.38250E+03         0.21673E+08         0.00000E+00
    0.00000E+00         0.00000E+00         0.90982E+07
 
    0.84921E+07        -0.59464E+03         0.00000E+00
   -0.59464E+03         0.21509E+08         0.00000E+00
    0.00000E+00         0.00000E+00         0.90003E+07
 
    0.83195E+07        -0.16581E+04         0.00000E+00
   -0.16581E+04         0.21344E+08         0.00000E+00
    0.00000E+00         0.00000E+00         0.88991E+07
 
    0.81360E+07        -0.28143E+04         0.00000E+00
   -0.28143E+04         0.21178E+08         0.00000E+00
    0.00000E+00         0.00000E+00         0.87943E+07
 
    0.79412E+07        -0.39945E+04         0.00000E+00
   -0.39945E+04         0.21012E+08         0.00000E+00
    0.00000E+00         0.00000E+00         0.86860E+07
 
    0.77350E+07        -0.53289E+04         0.00000E+00
   -0.53289E+04         0.20845E+08         0.00000E+00
    0.00000E+00         0.00000E+00         0.85739E+07
 
    0.75179E+07        -0.63965E+04         0.00000E+00
   -0.63965E+04         0.20679E+08         0.00000E+00
    0.00000E+00         0.00000E+00         0.84589E+07
 
    0.72895E+07        -0.84859E+04         0.00000E+00
   -0.84859E+04         0.20508E+08         0.00000E+00
    0.00000E+00         0.00000E+00         0.83391E+07
 
    0.70537E+07        -0.78306E+04         0.00000E+00
   -0.78306E+04         0.20347E+08         0.00000E+00
    0.00000E+00         0.00000E+00         0.82202E+07
 
    0.68080E+07        -0.18695E+05         0.00000E+00
   -0.18695E+05         0.20159E+08         0.00000E+00
    0.00000E+00         0.00000E+00         0.80901E+07
 
TENSORS stresstot double 
   -0.18805E+08         0.16685E+05         0.00000E+00
    0.16685E+05        -0.19264E+07         0.00000E+00
    0.00000E+00         0.00000E+00        -0.18812E+08
 
   -0.18781E+08         0.43707E+05         0.00000E+00
    0.43707E+05        -0.19112E+07         0.00000E+00
    0.00000E+00         0.00000E+00        -0.18786E+08
 
   -0.18758E+08         0.62254E+05         0.00000E+00
    0.62254E+05        -0.19016E+07         0.00000E+00
    0.00000E+00         0.00000E+00        -0.18761E+08
 
   -0.18734E+08         0.77392E+05         0.00000E+00
    0.77392E+05        -0.18946E+07         0.00000E+00
    0.00000E+00         0.00000E+00        -0.18737E+08
 
   -0.18712E+08         0.90477E+05         0.00000E+00
    0.90477E+05        -0.18903E+07         0.00000E+00
    0.00000E+00         0.00000E+00        -0.18714E+08
 
   -0.18690E+08         0.10232E+06         0.00000E+00
    0.10232E+06        -0.18882E+07         0.00000E+00
    0.00000E+00         0.00000E+00        -0.18692E+08
 
   -0.18669E+08         0.11339E+06         0.00000E+00
    0.11339E+06        -0.18877E+07         0.00000E+00
    0.00000E+00         0.00000E+00        -0.18671E+08
 
   -0.18648E+08         0.12397E+06         0.00000E+00
    0.12397E+06        -0.18885E+07         0.00000E+00
    0.00000E+00         0.00000E+00        -0.18650E+08
 
   -0.18627E+08         0.13421E+06         0.00000E+00
    0.13421E+06        -0.18901E+07         0.00000E+00
    0.00000E+00         0.00000E+00        -0.18629E+08
 
   -0.18606E+08         0.14420E+06         0.00000E+00
    0.14420E+06        -0.18924E+07         0.00000E+00
    0.00000E+00         0.00000E+00        -0.18608E+08
 
   -0.18586E+08         0.15399E+06         0.00000E+00
    0.15399E+06        -0.18949E+07         0.00000E+00
    0.00000E+00         0.00000E+00        -0.18587E+08
 
   -0.18565E+08         0.16358E+06         0.00000E+00
    0.16358E+06        -0.18976E+07         0.00000E+00
    0.00000E+00         0.00000E+00        -0.18566E+08
 
   -0.18543E+08         0.17299E+06         0.00000E+00
    0.17299E+06        -0.19003E+07         0.00000E+00
    0.00000E+00         0.00000E+00        -0.18545E+08
 
   -0.18522E+08         0.18222E+06         0.00000E+00
    0.18222E+06        -0.19029E+07         0.00000E+00
    0.00000E+00         0.00000E+00        -0.18523E+08
 
   -0.18500E+08         0.19127E+06         0.00000E+00
    0.19127E+06        -0.19053E+07         0.00000E+00
    0.00000E+00         0.00000E+00        -0.18501E+08
 
   -0.18477E+08         0.20014E+06         0.00000E+00
    0.20014E+06        -0.19076E+07         0.00000E+00
    0.00000E+00         0.00000E+00        -0.18479E+08
 
   -0.18454E+08         0.20885E+06         0.00000E+00
    0.20885E+06        -0.19096E+07         0.00000E+00
    0.00000E+00         0.00000E+00        -0.18456E+08
 
   -0.18431E+08         0.21740E+06         0.00000E+00
    0.21740E+06        -0.19114E+07         0.00000E+00
    0.00000E+00         0.00000E+00        -0.18433E+08
 
   -0.18407E+08         0.22581E+06         0.00000E+00
    0.22581E+06        -0.19130E+07         0.00000E+00
    0.00000E+00         0.00000E+00        -0.18409E+08
 
   -0.18383E+08         0.23409E+06         0.00000E+00
    0.23409E+06        -0.19144E+07         0.00000E+00
    0.00000E+00         0.00000E+00        -0.18384E+08
 
   -0.18358E+08         0.24227E+06         0.00000E+00
    0.24227E+06        -0.19155E+07         0.00000E+00
    0.00000E+00         0.00000E+00        -0.18359E+08
 
   -0.18332E+08         0.25035E+06         0.00000E+00
    0.25035E+06        -0.19165E+07         0.00000E+00
    0.00000E+00         0.00000E+00        -0.18334E+08
 
   -0.18306E+08         0.25836E+06         0.00000E+00
    0.25836E+06        -0.19173E+07         0.00000E+00
    0.00000E+00         0.00000E+00        -0.18308E+08
 
   -0.18280E+08         0.26631E+06         0.00000E+00
    0.26631E+06        -0.19179E+07         0.00000E+00
    0.00000E+00         0.00000E+00        -0.18281E+08
 
   -0.18252E+08         0.27424E+06         0.00000E+00
    0.27424E+06        -0.19184E+07         0.00000E+00
    0.00000E+00         0.00000E+00        -0.18254E+08
 
   -0.18224E+08         0.28214E+06         0.00000E+00
    0.28214E+06        -0.19188E+07         0.00000E+00
    0.00000E+00         0.00000E+00        -0.18226E+08
 
   -0.18196E+08         0.29003E+06         0.00000E+00
    0.29003E+06        -0.19190E+07         0.00000E+00
    0.00000E+00         0.00000E+00        -0.18197E+08
 
   -0.18167E+08         0.29794E+06         0.00000E+00
    0.29794E+06        -0.19192E+07         0.00000E+00
    0.00000E+00         0.00000E+00        -0.18168E+08
 
   -0.18137E+08         0.30588E+06         0.00000E+00
    0.30588E+06        -0.19192E+07         0.00000E+00
    0.00000E+00         0.00000E+00        -0.18138E+08
 
   -0.18106E+08         0.31385E+06         0.00000E+00
    0.31385E+06        -0.19192E+07         0.00000E+00
    0.00000E+00         0.00000E+00        -0.18108E+08
 
   -0.18075E+08         0.32187E+06         0.00000E+00
    0.32187E+06        -0.19191E+07         0.00000E+00
    0.00000E+00         0.00000E+00        -0.18076E+08
 
   -0.18043E+08         0.32995E+06         0.00000E+00
    0.32995E+06        -0.19190E+07         0.00000E+00
    0.00000E+00         0.00000E+00        -0.18044E+08
 
   -0.18010E+08         0.33809E+06         0.00000E+00
    0.33809E+06        -0.19188E+07         0.00000E+00
    0.00000E+00         0.00000E+00        -0.18011E+08
 
   -0.17976E+08         0.34631E+06         0.00000E+00
    0.34631E+06        -0.19186E+07         0.00000E+00
    0.00000E+00         0.00000E+00        -0.17978E+08
 
   -0.17942E+08         0.35460E+06         0.00000E+00
    0.35460E+06        -0.19184E+07         0.00000E+00
    0.00000E+00         0.00000E+00        -0.17943E+08
 
   -0.17907E+08         0.36297E+06         0.00000E+00
    0.36297E+06        -0.19181E+07         0.00000E+00
    0.00000E+00         0.00000E+00        -0.17908E+08
 
   -0.17871E+08         0.37143E+06         0.00000E+00
    0.37143E+06        -0.19178E+07         0.00000E+00
    0.00000E+00         0.00000E+00        -0.17872E+08
 
   -0.17834E+08         0.37997E+06         0.00000E+00
    0.37997E+06        -0.19175E+07         0.00000E+00
    0.00000E+00         0.00000E+00        -0.17835E+08
 
   -0.17796E+08         0.38861E+06         0.00000E+00
    0.38861E+06        -0.19172E+07         0.00000E+00
    0.00000E+00         0.00000E+00        -0.17798E+08
 
   -0.17757E+08         0.39732E+06         0.00000E+00
    0.39732E+06        -0.19170E+07         0.00000E+00
    0.00000E+00         0.00000E+00        -0.17759E+08
 
   -0.17718E+08         0.40613E+06         0.00000E+00
    0.40613E+06        -0.19167E+07         0.00000E+00
    0.00000E+00         0.00000E+00        -0.17719E+08
 
   -0.17677E+08         0.41501E+06         0.00000E+00
    0.41501E+06        -0.19164E+07         0.00000E+00
    0.00000E+00         0.00000E+00        -0.17679E+08
 
   -0.17636E+08         0.42397E+06         0.00000E+00
    0.42397E+06        -0.19162E+07         0.00000E+00
    0.00000E+00         0.00000E+00        -0.17638E+08
 
   -0.17593E+08         0.43301E+06         0.00000E+00
    0.43301E+06        -0.19160E+07         0.00000E+00
    0.00000E+00         0.00000E+00        -0.17595E+08
 
   -0.17550E+08         0.44211E+06         0.00000E+00
    0.44211E+06        -0.19158E+07         0.00000E+00
    0.00000E+00         0.00000E+00        -0.17552E+08
 
   -0.17506E+08         0.45128E+06         0.00000E+00
    0.45128E+06        -0.19157E+07         0.00000E+00
    0.00000E+00         0.00000E+00        -0.17507E+08
 
   -0.17460E+08         0.46050E+06         0.00000E+00
    0.46050E+06        -0.19156E+07         0.00000E+00
    0.00000E+00         0.00000E+00        -0.17462E+08
 
   -0.17414E+08         0.46976E+06         0.00000E+00
    0.46976E+06        -0.19155E+07         0.00000E+00
    0.00000E+00         0.00000E+00        -0.17416E+08
 
   -0.17366E+08         0.47905E+06         0.00000E+00
    0.47905E+06        -0.19156E+07         0.00000E+00
    0.00000E+00         0.00000E+00        -0.17368E+08
 
   -0.17318E+08         0.48837E+06         0.00000E+00
    0.48837E+06        -0.19156E+07         0.00000E+00
    0.00000E+00         0.00000E+00        -0.17320E+08
 
   -0.17268E+08         0.49769E+06         0.00000E+00
    0.49769E+06        -0.19158E+07         0.00000E+00
    0.00000E+00         0.00000E+00        -0.17270E+08
 
   -0.17217E+08         0.50701E+06         0.00000E+00
    0.50701E+06        -0.19161E+07         0.00000E+00
    0.00000E+00         0.00000E+00        -0.17219E+08
 
   -0.17166E+08         0.51631E+06         0.00000E+00
    0.51631E+06        -0.19164E+07         0.00000E+00
    0.00000E+00         0.00000E+00        -0.17167E+08
 
   -0.17113E+08         0.52558E+06         0.00000E+00
    0.52558E+06        -0.19168E+07         0.00000E+00
    0.00000E+00         0.00000E+00        -0.17115E+08
 
   -0.17059E+08         0.53479E+06         0.00000E+00
    0.53479E+06        -0.19173E+07         0.00000E+00
    0.00000E+00         0.00000E+00        -0.17061E+08
 
   -0.17004E+08         0.54392E+06         0.00000E+00
    0.54392E+06        -0.19180E+07         0.00000E+00
    0.00000E+00         0.00000E+00        -0.17005E+08
 
   -0.16947E+08         0.55296E+06         0.00000E+00
    0.55296E+06        -0.19187E+07         0.00000E+00
    0.00000E+00         0.00000E+00        -0.16949E+08
 
   -0.16890E+08         0.56188E+06         0.00000E+00
    0.56188E+06        -0.19196E+07         0.00000E+00
    0.00000E+00         0.00000E+00        -0.16892E+08
 
   -0.16831E+08         0.57066E+06         0.00000E+00
    0.57066E+06        -0.19206E+07         0.00000E+00
    0.00000E+00         0.00000E+00        -0.16833E+08
 
   -0.16772E+08         0.57927E+06         0.00000E+00
    0.57927E+06        -0.19218E+07         0.00000E+00
    0.00000E+00         0.00000E+00        -0.16773E+08
 
   -0.16711E+08         0.58768E+06         0.00000E+00
    0.58768E+06        -0.19232E+07         0.00000E+00
    0.00000E+00         0.00000E+00        -0.16712E+08
 
   -0.16649E+08         0.59585E+06         0.00000E+00
    0.59585E+06        -0.19247E+07         0.00000E+00
    0.00000E+00         0.00000E+00        -0.16650E+08
 
   -0.16585E+08         0.60377E+06         0.00000E+00
    0.60377E+06        -0.19264E+07         0.00000E+00
    0.00000E+00         0.00000E+00        -0.16587E+08
 
   -0.16521E+08         0.61139E+06         0.00000E+00
    0.61139E+06        -0.19283E+07         0.00000E+00
    0.00000E+00         0.00000E+00        -0.16523E+08
 
   -0.16456E+08         0.61866E+06         0.00000E+00
    0.61866E+06        -0.19305E+07         0.00000E+00
    0.00000E+00         0.00000E+00        -0.16457E+08
 
   -0.16389E+08         0.62556E+06         0.00000E+00
    0.62556E+06        -0.19328E+07         0.00000E+00
    0.00000E+00         0.00000E+00        -0.16390E+08
 
   -0.16321E+08         0.63203E+06         0.00000E+00
    0.63203E+06        -0.19355E+07         0.00000E+00
    0.00000E+00         0.00000E+00        -0.16323E+08
 
   -0.16253E+08         0.63803E+06         0.00000E+00
    0.63803E+06        -0.19384E+07         0.00000E+00
    0.00000E+00         0.00000E+00        -0.16254E+08
 
   -0.16183E+08         0.64351E+06         0.00000E+00
    0.64351E+06        -0.19416E+07         0.00000E+00
    0.00000E+00         0.00000E+00        -0.16184E+08
 
   -0.16112E+08         0.64840E+06         0.00000E+00
    0.64840E+06        -0.19452E+07         0.00000E+00
    0.00000E+00         0.00000E+00        -0.16113E+08
 
   -0.16040E+08         0.65265E+06         0.00000E+00
    0.65265E+06        -0.19491E+07         0.00000E+00
    0.00000E+00         0.00000E+00        -0.16041E+08
 
   -0.15967E+08         0.65620E+06         0.00000E+00
    0.65620E+06        -0.19534E+07         0.00000E+00
    0.00000E+00         0.00000E+00        -0.15967E+08
 
   -0.15893E+08         0.65897E+06         0.00000E+00
    0.65897E+06        -0.19582E+07         0.00000E+00
    0.00000E+00         0.00000E+00        -0.15893E+08
 
   -0.15818E+08         0.66090E+06         0.00000E+00
    0.66090E+06        -0.19634E+07         0.00000E+00
    0.00000E+00         0.00000E+00        -0.15818E+08
 
   -0.15742E+08         0.66191E+06         0.00000E+00
    0.66191E+06        -0.19691E+07         0.00000E+00
    0.00000E+00         0.00000E+00        -0.15742E+08
 
   -0.15665E+08         0.66191E+06         0.00000E+00
    0.66191E+06        -0.19754E+07         0.00000E+00
    0.00000E+00         0.00000E+00        -0.15665E+08
 
   -0.15588E+08         0.66083E+06         0.00000E+00
    0.66083E+06        -0.19823E+07         0.00000E+00
    0.00000E+00         0.00000E+00        -0.15587E+08
 
   -0.15509E+08         0.65857E+06         0.00000E+00
    0.65857E+06        -0.19899E+07         0.00000E+00
    0.00000E+00         0.00000E+00        -0.15509E+08
 
   -0.15430E+08         0.65506E+06         0.00000E+00
    0.65506E+06        -0.19982E+07         0.00000E+00
    0.00000E+00         0.00000E+00        -0.15429E+08
 
   -0.15350E+08         0.65019E+06         0.00000E+00
    0.65019E+06        -0.20073E+07         0.00000E+00
    0.00000E+00         0.00000E+00        -0.15349E+08
 
   -0.15270E+08         0.64390E+06         0.00000E+00
    0.64390E+06        -0.20172E+07         0.00000E+00
    0.00000E+00         0.00000E+00        -0.15269E+08
 
   -0.15189E+08         0.63609E+06         0.00000E+00
    0.63609E+06        -0.20281E+07         0.00000E+00
    0.00000E+00         0.00000E+00        -0.15187E+08
 
   -0.15107E+08         0.62670E+06         0.00000E+00
    0.62670E+06        -0.20398E+07         0.00000E+00
    0.00000E+00         0.00000E+00        -0.15105E+08
 
   -0.15025E+08         0.61566E+06         0.00000E+00
    0.61566E+06        -0.20525E+07         0.00000E+00
    0.00000E+00         0.00000E+00        -0.15023E+08
 
   -0.14943E+08         0.60291E+06         0.00000E+00
    0.60291E+06        -0.20661E+07         0.00000E+00
    0.00000E+00         0.00000E+00        -0.14940E+08
 
   -0.14860E+08         0.58843E+06         0.00000E+00
    0.58843E+06        -0.20806E+07         0.00000E+00
    0.00000E+00         0.00000E+00        -0.14857E+08
 
   -0.14776E+08         0.57220E+06         0.00000E+00
    0.57220E+06        -0.20958E+07         0.00000E+00
    0.00000E+00         0.00000E+00        -0.14773E+08
 
   -0.14693E+08         0.55422E+06         0.00000E+00
    0.55422E+06        -0.21116E+07         0.00000E+00
    0.00000E+00         0.00000E+00        -0.14689E+08
 
   -0.14608E+08         0.53450E+06         0.00000E+00
    0.53450E+06        -0.21275E+07         0.00000E+00
    0.00000E+00         0.00000E+00        -0.14604E+08
 
   -0.14523E+08         0.51307E+06         0.00000E+00
    0.51307E+06        -0.21431E+07         0.00000E+00
    0.00000E+00         0.00000E+00        -0.14518E+08
 
   -0.14436E+08         0.48991E+06         0.00000E+00
    0.48991E+06        -0.21578E+07         0.00000E+00
    0.00000E+00         0.00000E+00        -0.14431E+08
 
   -0.14348E+08         0.46499E+06         0.00000E+00
    0.46499E+06        -0.21706E+07         0.00000E+00
    0.00000E+00         0.00000E+00        -0.14343E+08
 
   -0.14259E+08         0.43814E+06         0.00000E+00
    0.43814E+06        -0.21805E+07         0.00000E+00
    0.00000E+00         0.00000E+00        -0.14253E+08
 
   -0.14167E+08         0.40902E+06         0.00000E+00
    0.40902E+06        -0.21859E+07         0.00000E+00
    0.00000E+00         0.00000E+00        -0.14161E+08
 
   -0.14073E+08         0.37693E+06         0.00000E+00
    0.37693E+06        -0.21854E+07         0.00000E+00
    0.00000E+00         0.00000E+00        -0.14066E+08
 
   -0.13975E+08         0.34066E+06         0.00000E+00
    0.34066E+06        -0.21766E+07         0.00000E+00
    0.00000E+00         0.00000E+00        -0.13968E+08
 
   -0.13874E+08         0.29808E+06         0.00000E+00
    0.29808E+06        -0.21580E+07         0.00000E+00
    0.00000E+00         0.00000E+00        -0.13865E+08
 
   -0.13768E+08         0.24553E+06         0.00000E+00
    0.24553E+06        -0.21260E+07         0.00000E+00
    0.00000E+00         0.00000E+00        -0.13756E+08
 
   -0.13658E+08         0.17684E+06         0.00000E+00
    0.17684E+06        -0.20818E+07         0.00000E+00
    0.00000E+00         0.00000E+00        -0.13643E+08
 
   -0.13550E+08         0.68749E+05         0.00000E+00
    0.68749E+05        -0.20116E+07         0.00000E+00
    0.00000E+00         0.00000E+00        -0.13522E+08
 
   -0.18789E+08         0.14092E+05         0.00000E+00
    0.14092E+05        -0.19323E+07         0.00000E+00
    0.00000E+00         0.00000E+00        -0.18809E+08
 
   -0.18771E+08         0.38903E+05         0.00000E+00
    0.38903E+05        -0.19158E+07         0.00000E+00
    0.00000E+00         0.00000E+00        -0.18784E+08
 
   -0.18749E+08         0.57759E+05         0.00000E+00
    0.57759E+05        -0.19048E+07         0.00000E+00
    0.00000E+00         0.00000E+00        -0.18759E+08
 
   -0.18728E+08         0.72912E+05         0.00000E+00
    0.72912E+05        -0.18974E+07         0.00000E+00
    0.00000E+00         0.00000E+00        -0.18736E+08
 
   -0.18706E+08         0.86126E+05         0.00000E+00
    0.86126E+05        -0.18928E+07         0.00000E+00
    0.00000E+00         0.00000E+00        -0.18713E+08
 
   -0.18685E+08         0.98054E+05         0.00000E+00
    0.98054E+05        -0.18905E+07         0.00000E+00
    0.00000E+00         0.00000E+00        -0.18691E+08
 
   -0.18664E+08         0.10920E+06         0.00000E+00
    0.10920E+06        -0.18899E+07         0.00000E+00
    0.00000E+00         0.00000E+00        -0.18670E+08
 
   -0.18643E+08         0.11982E+06         0.00000E+00
    0.11982E+06        -0.18906E+07         0.00000E+00
    0.00000E+00         0.00000E+00        -0.18649E+08
 
   -0.18622E+08         0.13008E+06         0.00000E+00
    0.13008E+06        -0.18922E+07         0.00000E+00
    0.00000E+00         0.00000E+00        -0.18628E+08
 
   -0.18602E+08         0.14006E+06         0.00000E+00
    0.14006E+06        -0.18943E+07         0.00000E+00
    0.00000E+00         0.00000E+00        -0.18608E+08
 
   -0.18581E+08         0.14981E+06         0.00000E+00
    0.14981E+06        -0.18968E+07         0.00000E+00
    0.00000E+00         0.00000E+00        -0.18587E+08
 
   -0.18560E+08         0.15936E+06         0.00000E+00
    0.15936E+06        -0.18995E+07         0.00000E+00
    0.00000E+00         0.00000E+00        -0.18566E+08
 
   -0.18539E+08         0.16871E+06         0.00000E+00
    0.16871E+06        -0.19021E+07         0.00000E+00
    0.00000E+00         0.00000E+00        -0.18544E+08
 
   -0.18517E+08         0.17787E+06         0.00000E+00
    0.17787E+06        -0.19047E+07         0.00000E+00
    0.00000E+00         0.00000E+00        -0.18523E+08
 
   -0.18495E+08         0.18683E+06         0.00000E+00
    0.18683E+06        -0.19071E+07         0.00000E+00
    0.00000E+00         0.00000E+00        -0.18501E+08
 
   -0.18473E+08         0.19562E+06         0.00000E+00
    0.19562E+06        -0.19093E+07         0.00000E+00
    0.00000E+00         0.00000E+00        -0.18478E+08
 
   -0.18450E+08         0.20423E+06         0.00000E+00
    0.20423E+06        -0.19113E+07         0.00000E+00
    0.00000E+00         0.00000E+00        -0.18455E+08
 
   -0.18427E+08         0.21269E+06         0.00000E+00
    0.21269E+06        -0.19131E+07         0.00000E+00
    0.00000E+00         0.00000E+00        -0.18432E+08
 
   -0.18403E+08         0.22099E+06         0.00000E+00
    0.22099E+06        -0.19147E+07         0.00000E+00
    0.00000E+00         0.00000E+00        -0.18408E+08
 
   -0.18379E+08         0.22917E+06         0.00000E+00
    0.22917E+06        -0.19160E+07         0.00000E+00
    0.00000E+00         0.00000E+00        -0.18384E+08
 
   -0.18354E+08         0.23723E+06         0.00000E+00
    0.23723E+06        -0.19171E+07         0.00000E+00
    0.00000E+00         0.00000E+00        -0.18359E+08
 
   -0.18328E+08         0.24519E+06         0.00000E+00
    0.24519E+06        -0.19181E+07         0.00000E+00
    0.00000E+00         0.00000E+00        -0.18333E+08
 
   -0.18302E+08         0.25309E+06         0.00000E+00
    0.25309E+06        -0.19189E+07         0.00000E+00
    0.00000E+00         0.00000E+00        -0.18307E+08
 
   -0.18276E+08         0.26092E+06         0.00000E+00
    0.26092E+06        -0.19195E+07         0.00000E+00
    0.00000E+00         0.00000E+00        -0.18280E+08
 
   -0.18248E+08         0.26872E+06         0.00000E+00
    0.26872E+06        -0.19200E+07         0.00000E+00
    0.00000E+00         0.00000E+00        -0.18253E+08
 
   -0.18220E+08         0.27649E+06         0.00000E+00
    0.27649E+06        -0.19203E+07         0.00000E+00
    0.00000E+00         0.00000E+00        -0.18225E+08
 
   -0.18192E+08         0.28425E+06         0.00000E+00
    0.28425E+06        -0.19206E+07         0.00000E+00
    0.00000E+00         0.00000E+00        -0.18197E+08
 
   -0.18163E+08         0.29203E+06         0.00000E+00
    0.29203E+06        -0.19207E+07         0.00000E+00
    0.00000E+00         0.00000E+00        -0.18167E+08
 
   -0.18133E+08         0.29983E+06         0.00000E+00
    0.29983E+06        -0.19208E+07         0.00000E+00
    0.00000E+00         0.00000E+00        -0.18137E+08
 
   -0.18102E+08         0.30765E+06         0.00000E+00
    0.30765E+06        -0.19208E+07         0.00000E+00
    0.00000E+00         0.00000E+00        -0.18107E+08
 
   -0.18071E+08         0.31553E+06         0.00000E+00
    0.31553E+06        -0.19207E+07         0.00000E+00
    0.00000E+00         0.00000E+00        -0.18076E+08
 
   -0.18039E+08         0.32346E+06         0.00000E+00
    0.32346E+06        -0.19206E+07         0.00000E+00
    0.00000E+00         0.00000E+00        -0.18044E+08
 
   -0.18006E+08         0.33145E+06         0.00000E+00
    0.33145E+06        -0.19204E+07         0.00000E+00
    0.00000E+00         0.00000E+00        -0.18011E+08
 
   -0.17972E+08         0.33950E+06         0.00000E+00
    0.33950E+06        -0.19202E+07         0.00000E+00
    0.00000E+00         0.00000E+00        -0.17977E+08
 
   -0.17938E+08         0.34763E+06         0.00000E+00
    0.34763E+06        -0.19200E+07         0.00000E+00
    0.00000E+00         0.00000E+00        -0.17943E+08
 
   -0.17902E+08         0.35584E+06         0.00000E+00
    0.35584E+06        -0.19198E+07         0.00000E+00
    0.00000E+00         0.00000E+00        -0.17908E+08
 
   -0.17866E+08         0.36413E+06         0.00000E+00
    0.36413E+06        -0.19195E+07         0.00000E+00
    0.00000E+00         0.00000E+00        -0.17871E+08
 
   -0.17829E+08         0.37251E+06         0.00000E+00
    0.37251E+06        -0.19192E+07         0.00000E+00
    0.00000E+00         0.00000E+00        -0.17835E+08
 
   -0.17792E+08         0.38096E+06         0.00000E+00
    0.38096E+06        -0.19190E+07         0.00000E+00
    0.00000E+00         0.00000E+00        -0.17797E+08
 
   -0.17753E+08         0.38950E+06         0.00000E+00
    0.38950E+06        -0.19187E+07         0.00000E+00
    0.00000E+00         0.00000E+00        -0.17758E+08
 
   -0.17713E+08         0.39812E+06         0.00000E+00
    0.39812E+06        -0.19184E+07         0.00000E+00
    0.00000E+00         0.00000E+00        -0.17719E+08
 
   -0.17673E+08         0.40681E+06         0.00000E+00
    0.40681E+06        -0.19182E+07         0.00000E+00
    0.00000E+00         0.00000E+00        -0.17678E+08
 
   -0.17631E+08         0.41559E+06         0.00000E+00
    0.41559E+06        -0.19180E+07         0.00000E+00
    0.00000E+00         0.00000E+00        -0.17637E+08
 
   -0.17589E+08         0.42443E+06         0.00000E+00
    0.42443E+06        -0.19178E+07         0.00000E+00
    0.00000E+00         0.00000E+00        -0.17594E+08
 
   -0.17545E+08         0.43333E+06         0.00000E+00
    0.43333E+06        -0.19176E+07         0.00000E+00
    0.00000E+00         0.00000E+00        -0.17551E+08
 
   -0.17501E+08         0.44230E+06         0.00000E+00
    0.44230E+06        -0.19175E+07         0.00000E+00
    0.00000E+00         0.00000E+00        -0.17507E+08
 
   -0.17456E+08         0.45131E+06         0.00000E+00
    0.45131E+06        -0.19174E+07         0.00000E+00
    0.00000E+00         0.00000E+00        -0.17461E+08
 
   -0.17409E+08         0.46037E+06         0.00000E+00
    0.46037E+06        -0.19174E+07         0.00000E+00
    0.00000E+00         0.00000E+00        -0.17415E+08
 
   -0.17362E+08         0.46945E+06         0.00000E+00
    0.46945E+06        -0.19174E+07         0.00000E+00
    0.00000E+00         0.00000E+00        -0.17367E+08
 
   -0.17313E+08         0.47855E+06         0.00000E+00
    0.47855E+06        -0.19175E+07         0.00000E+00
    0.00000E+00         0.00000E+00        -0.17319E+08
 
   -0.17264E+08         0.48766E+06         0.00000E+00
    0.48766E+06        -0.19177E+07         0.00000E+00
    0.00000E+00         0.00000E+00        -0.17269E+08
 
   -0.17213E+08         0.49677E+06         0.00000E+00
    0.49677E+06        -0.19179E+07         0.00000E+00
    0.00000E+00         0.00000E+00        -0.17218E+08
 
   -0.17161E+08         0.50585E+06         0.00000E+00
    0.50585E+06        -0.19182E+07         0.00000E+00
    0.00000E+00         0.00000E+00        -0.17167E+08
 
   -0.17108E+08         0.51489E+06         0.00000E+00
    0.51489E+06        -0.19186E+07         0.00000E+00
    0.00000E+00         0.00000E+00        -0.17114E+08
 
   -0.17054E+08         0.52387E+06         0.00000E+00
    0.52387E+06        -0.19191E+07         0.00000E+00
    0.00000E+00         0.00000E+00        -0.17060E+08
 
   -0.16999E+08         0.53278E+06         0.00000E+00
    0.53278E+06        -0.19198E+07         0.00000E+00
    0.00000E+00         0.00000E+00        -0.17005E+08
 
   -0.16943E+08         0.54160E+06         0.00000E+00
    0.54160E+06        -0.19205E+07         0.00000E+00
    0.00000E+00         0.00000E+00        -0.16948E+08
 
   -0.16885E+08         0.55029E+06         0.00000E+00
    0.55029E+06        -0.19214E+07         0.00000E+00
    0.00000E+00         0.00000E+00        -0.16891E+08
 
   -0.16827E+08         0.55884E+06         0.00000E+00
    0.55884E+06        -0.19224E+07         0.00000E+00
    0.00000E+00         0.00000E+00        -0.16832E+08
 
   -0.16767E+08         0.56722E+06         0.00000E+00
    0.56722E+06        -0.19235E+07         0.00000E+00
    0.00000E+00         0.00000E+00        -0.16772E+08
 
   -0.16707E+08         0.57540E+06         0.00000E+00
    0.57540E+06        -0.19248E+07         0.00000E+00
    0.00000E+00         0.00000E+00        -0.16712E+08
 
   -0.16645E+08         0.58335E+06         0.00000E+00
    0.58335E+06        -0.19263E+07         0.00000E+00
    0.00000E+00         0.00000E+00        -0.16650E+08
 
   -0.16582E+08         0.59104E+06         0.00000E+00
    0.59104E+06        -0.19279E+07         0.00000E+00
    0.00000E+00         0.00000E+00        -0.16586E+08
 
   -0.16518E+08         0.59843E+06         0.00000E+00
    0.59843E+06        -0.19298E+07         0.00000E+00
    0.00000E+00         0.00000E+00        -0.16522E+08
 
   -0.16452E+08         0.60548E+06         0.00000E+00
    0.60548E+06        -0.19319E+07         0.00000E+00
    0.00000E+00         0.00000E+00        -0.16457E+08
 
   -0.16386E+08         0.61215E+06         0.00000E+00
    0.61215E+06        -0.19342E+07         0.00000E+00
    0.00000E+00         0.00000E+00        -0.16390E+08
 
   -0.16318E+08         0.61841E+06         0.00000E+00
    0.61841E+06        -0.19367E+07         0.00000E+00
    0.00000E+00         0.00000E+00        -0.16322E+08
 
   -0.16250E+08         0.62419E+06         0.00000E+00
    0.62419E+06        -0.19395E+07         0.00000E+00
    0.00000E+00         0.00000E+00        -0.16253E+08
 
   -0.16180E+08         0.62945E+06         0.00000E+00
    0.62945E+06        -0.19426E+07         0.00000E+00
    0.00000E+00         0.00000E+00        -0.16183E+08
 
   -0.16110E+08         0.63414E+06         0.00000E+00
    0.63414E+06        -0.19461E+07         0.00000E+00
    0.00000E+00         0.00000E+00        -0.16112E+08
 
   -0.16038E+08         0.63818E+06         0.00000E+00
    0.63818E+06        -0.19499E+07         0.00000E+00
    0.00000E+00         0.00000E+00        -0.16040E+08
 
   -0.15965E+08         0.64153E+06         0.00000E+00
    0.64153E+06        -0.19540E+07         0.00000E+00
    0.00000E+00         0.00000E+00        -0.15967E+08
 
   -0.15892E+08         0.64412E+06         0.00000E+00
    0.64412E+06        -0.19586E+07         0.00000E+00
    0.00000E+00         0.00000E+00        -0.15893E+08
 
   -0.15817E+08         0.64586E+06         0.00000E+00
    0.64586E+06        -0.19636E+07         0.00000E+00
    0.00000E+00         0.00000E+00        -0.15818E+08
 
   -0.15742E+08         0.64669E+06         0.00000E+00
    0.64669E+06        -0.19692E+07         0.00000E+00
    0.00000E+00         0.00000E+00        -0.15742E+08
 
   -0.15665E+08         0.64653E+06         0.00000E+00
    0.64653E+06        -0.19753E+07         0.00000E+00
    0.00000E+00         0.00000E+00        -0.15665E+08
 
   -0.15588E+08         0.64529E+06         0.00000E+00
    0.64529E+06        -0.19819E+07         0.00000E+00
    0.00000E+00         0.00000E+00        -0.15587E+08
 
   -0.15511E+08         0.64288E+06         0.00000E+00
    0.64288E+06        -0.19893E+07         0.00000E+00
    0.00000E+00         0.00000E+00        -0.15509E+08
 
   -0.15432E+08         0.63923E+06         0.00000E+00
    0.63923E+06        -0.19973E+07         0.00000E+00
    0.00000E+00         0.00000E+00        -0.15430E+08
 
   -0.15353E+08         0.63424E+06         0.00000E+00
    0.63424E+06        -0.20062E+07         0.00000E+00
    0.00000E+00         0.00000E+00        -0.15350E+08
 
   -0.15273E+08         0.62783E+06         0.00000E+00
    0.62783E+06        -0.20158E+07         0.00000E+00
    0.00000E+00         0.00000E+00        -0.15269E+08
 
   -0.15193E+08         0.61991E+06         0.00000E+00
    0.61991E+06        -0.20263E+07         0.00000E+00
    0.00000E+00         0.00000E+00        -0.15188E+08
 
   -0.15112E+08         0.61042E+06         0.00000E+00
    0.61042E+06        -0.20378E+07         0.00000E+00
    0.00000E+00         0.00000E+00        -0.15106E+08
 
   -0.15031E+08         0.59929E+06         0.00000E+00
    0.59929E+06        -0.20501E+07         0.00000E+00
    0.00000E+00         0.00000E+00        -0.15024E+08
 
   -0.14949E+08         0.58645E+06         0.00000E+00
    0.58645E+06        -0.20634E+07         0.00000E+00
    0.00000E+00         0.00000E+00        -0.14941E+08
 
   -0.14867E+08         0.57188E+06         0.00000E+00
    0.57188E+06        -0.20775E+07         0.00000E+00
    0.00000E+00         0.00000E+00        -0.14858E+08
 
   -0.14785E+08         0.55555E+06         0.00000E+00
    0.55555E+06        -0.20924E+07         0.00000E+00
    0.00000E+00         0.00000E+00        -0.14775E+08
 
   -0.14702E+08         0.53745E+06         0.00000E+00
    0.53745E+06        -0.21078E+07         0.00000E+00
    0.00000E+00         0.00000E+00        -0.14690E+08
 
   -0.14618E+08         0.51759E+06         0.00000E+00
    0.51759E+06        -0.21233E+07         0.00000E+00
    0.00000E+00         0.00000E+00        -0.14606E+08
 
   -0.14533E+08         0.49598E+06         0.00000E+00
    0.49598E+06        -0.21386E+07         0.00000E+00
    0.00000E+00         0.00000E+00        -0.14520E+08
 
   -0.14448E+08         0.47260E+06         0.00000E+00
    0.47260E+06        -0.21529E+07         0.00000E+00
    0.00000E+00         0.00000E+00        -0.14433E+08
 
   -0.14361E+08         0.44738E+06         0.00000E+00
    0.44738E+06        -0.21654E+07         0.00000E+00
    0.00000E+00         0.00000E+00        -0.14345E+08
 
   -0.14273E+08         0.42016E+06         0.00000E+00
    0.42016E+06        -0.21748E+07         0.00000E+00
    0.00000E+00         0.00000E+00        -0.14256E+08
 
   -0.14182E+08         0.39058E+06         0.00000E+00
    0.39058E+06        -0.21798E+07         0.00000E+00
    0.00000E+00         0.00000E+00        -0.14164E+08
 
   -0.14090E+08         0.35793E+06         0.00000E+00
    0.35793E+06        -0.21785E+07         0.00000E+00
    0.00000E+00         0.00000E+00        -0.14069E+08
 
   -0.13995E+08         0.32106E+06         0.00000E+00
    0.32106E+06        -0.21689E+07         0.00000E+00
    0.00000E+00         0.00000E+00        -0.13971E+08
 
   -0.13897E+08         0.27773E+06         0.00000E+00
    0.27773E+06        -0.21483E+07         0.00000E+00
    0.00000E+00         0.00000E+00        -0.13869E+08
 
   -0.13797E+08         0.22498E+06         0.00000E+00
    0.22498E+06        -0.21147E+07         0.00000E+00
    0.00000E+00         0.00000E+00        -0.13762E+08
 
   -0.13697E+08         0.15476E+06         0.00000E+00
    0.15476E+06        -0.20642E+07         0.00000E+00
    0.00000E+00         0.00000E+00        -0.13649E+08
 
   -0.13615E+08         0.56807E+05         0.00000E+00
    0.56807E+05        -0.19880E+07         0.00000E+00
    0.00000E+00         0.00000E+00        -0.13534E+08
 
   -0.18775E+08         0.12239E+05         0.00000E+00
    0.12239E+05        -0.19374E+07         0.00000E+00
    0.00000E+00         0.00000E+00        -0.18806E+08
 
   -0.18761E+08         0.34907E+05         0.00000E+00
    0.34907E+05        -0.19201E+07         0.00000E+00
    0.00000E+00         0.00000E+00        -0.18782E+08
 
   -0.18741E+08         0.53496E+05         0.00000E+00
    0.53496E+05        -0.19081E+07         0.00000E+00
    0.00000E+00         0.00000E+00        -0.18758E+08
 
   -0.18721E+08         0.68653E+05         0.00000E+00
    0.68653E+05        -0.19002E+07         0.00000E+00
    0.00000E+00         0.00000E+00        -0.18735E+08
 
   -0.18700E+08         0.81885E+05         0.00000E+00
    0.81885E+05        -0.18953E+07         0.00000E+00
    0.00000E+00         0.00000E+00        -0.18712E+08
 
   -0.18679E+08         0.93871E+05         0.00000E+00
    0.93871E+05        -0.18928E+07         0.00000E+00
    0.00000E+00         0.00000E+00        -0.18690E+08
 
   -0.18658E+08         0.10505E+06         0.00000E+00
    0.10505E+06        -0.18921E+07         0.00000E+00
    0.00000E+00         0.00000E+00        -0.18669E+08
 
   -0.18638E+08         0.11570E+06         0.00000E+00
    0.11570E+06        -0.18927E+07         0.00000E+00
    0.00000E+00         0.00000E+00        -0.18648E+08
 
   -0.18617E+08         0.12596E+06         0.00000E+00
    0.12596E+06        -0.18942E+07         0.00000E+00
    0.00000E+00         0.00000E+00        -0.18627E+08
 
   -0.18597E+08         0.13594E+06         0.00000E+00
    0.13594E+06        -0.18963E+07         0.00000E+00
    0.00000E+00         0.00000E+00        -0.18607E+08
 
   -0.18576E+08         0.14566E+06         0.00000E+00
    0.14566E+06        -0.18988E+07         0.00000E+00
    0.00000E+00         0.00000E+00        -0.18586E+08
 
   -0.18555E+08         0.15516E+06         0.00000E+00
    0.15516E+06        -0.19014E+07         0.00000E+00
    0.00000E+00         0.00000E+00        -0.18565E+08
 
   -0.18534E+08         0.16445E+06         0.00000E+00
    0.16445E+06        -0.19040E+07         0.00000E+00
    0.00000E+00         0.00000E+00        -0.18543E+08
 
   -0.18513E+08         0.17353E+06         0.00000E+00
    0.17353E+06        -0.19065E+07         0.00000E+00
    0.00000E+00         0.00000E+00        -0.18522E+08
 
   -0.18491E+08         0.18242E+06         0.00000E+00
    0.18242E+06        -0.19089E+07         0.00000E+00
    0.00000E+00         0.00000E+00        -0.18500E+08
 
   -0.18469E+08         0.19112E+06         0.00000E+00
    0.19112E+06        -0.19111E+07         0.00000E+00
    0.00000E+00         0.00000E+00        -0.18477E+08
 
   -0.18446E+08         0.19963E+06         0.00000E+00
    0.19963E+06        -0.19130E+07         0.00000E+00
    0.00000E+00         0.00000E+00        -0.18455E+08
 
   -0.18423E+08         0.20799E+06         0.00000E+00
    0.20799E+06        -0.19148E+07         0.00000E+00
    0.00000E+00         0.00000E+00        -0.18431E+08
 
   -0.18399E+08         0.21618E+06         0.00000E+00
    0.21618E+06        -0.19163E+07         0.00000E+00
    0.00000E+00         0.00000E+00        -0.18407E+08
 
   -0.18375E+08         0.22425E+06         0.00000E+00
    0.22425E+06        -0.19176E+07         0.00000E+00
    0.00000E+00         0.00000E+00        -0.18383E+08
 
   -0.18350E+08         0.23220E+06         0.00000E+00
    0.23220E+06        -0.19187E+07         0.00000E+00
    0.00000E+00         0.00000E+00        -0.18358E+08
 
   -0.18324E+08         0.24005E+06         0.00000E+00
    0.24005E+06        -0.19197E+07         0.00000E+00
    0.00000E+00         0.00000E+00        -0.18332E+08
 
   -0.18298E+08         0.24782E+06         0.00000E+00
    0.24782E+06        -0.19204E+07         0.00000E+00
    0.00000E+00         0.00000E+00        -0.18306E+08
 
   -0.18272E+08         0.25553E+06         0.00000E+00
    0.25553E+06        -0.19210E+07         0.00000E+00
    0.00000E+00         0.00000E+00        -0.18280E+08
 
   -0.18245E+08         0.26320E+06         0.00000E+00
    0.26320E+06        -0.19215E+07         0.00000E+00
    0.00000E+00         0.00000E+00        -0.18252E+08
 
   -0.18217E+08         0.27084E+06         0.00000E+00
    0.27084E+06        -0.19219E+07         0.00000E+00
    0.00000E+00         0.00000E+00        -0.18225E+08
 
   -0.18188E+08         0.27847E+06         0.00000E+00
    0.27847E+06        -0.19221E+07         0.00000E+00
    0.00000E+00         0.00000E+00        -0.18196E+08
 
   -0.18159E+08         0.28611E+06         0.00000E+00
    0.28611E+06        -0.19223E+07         0.00000E+00
    0.00000E+00         0.00000E+00        -0.18167E+08
 
   -0.18129E+08         0.29377E+06         0.00000E+00
    0.29377E+06        -0.19223E+07         0.00000E+00
    0.00000E+00         0.00000E+00        -0.18137E+08
 
   -0.18098E+08         0.30145E+06         0.00000E+00
    0.30145E+06        -0.19224E+07         0.00000E+00
    0.00000E+00         0.00000E+00        -0.18106E+08
 
   -0.18067E+08         0.30918E+06         0.00000E+00
    0.30918E+06        -0.19223E+07         0.00000E+00
    0.00000E+00         0.00000E+00        -0.18075E+08
 
   -0.18035E+08         0.31696E+06         0.00000E+00
    0.31696E+06        -0.19222E+07         0.00000E+00
    0.00000E+00         0.00000E+00        -0.18043E+08
 
   -0.18002E+08         0.32479E+06         0.00000E+00
    0.32479E+06        -0.19220E+07         0.00000E+00
    0.00000E+00         0.00000E+00        -0.18010E+08
 
   -0.17968E+08         0.33269E+06         0.00000E+00
    0.33269E+06        -0.19218E+07         0.00000E+00
    0.00000E+00         0.00000E+00        -0.17976E+08
 
   -0.17934E+08         0.34066E+06         0.00000E+00
    0.34066E+06        -0.19216E+07         0.00000E+00
    0.00000E+00         0.00000E+00        -0.17942E+08
 
   -0.17898E+08         0.34871E+06         0.00000E+00
    0.34871E+06        -0.19214E+07         0.00000E+00
    0.00000E+00         0.00000E+00        -0.17907E+08
 
   -0.17862E+08         0.35683E+06         0.00000E+00
    0.35683E+06        -0.19211E+07         0.00000E+00
    0.00000E+00         0.00000E+00        -0.17871E+08
 
   -0.17825E+08         0.36503E+06         0.00000E+00
    0.36503E+06        -0.19209E+07         0.00000E+00
    0.00000E+00         0.00000E+00        -0.17834E+08
 
   -0.17787E+08         0.37331E+06         0.00000E+00
    0.37331E+06        -0.19206E+07         0.00000E+00
    0.00000E+00         0.00000E+00        -0.17796E+08
 
   -0.17749E+08         0.38166E+06         0.00000E+00
    0.38166E+06        -0.19204E+07         0.00000E+00
    0.00000E+00         0.00000E+00        -0.17757E+08
 
   -0.17709E+08         0.39010E+06         0.00000E+00
    0.39010E+06        -0.19201E+07         0.00000E+00
    0.00000E+00         0.00000E+00        -0.17718E+08
 
   -0.17669E+08         0.39861E+06         0.00000E+00
    0.39861E+06        -0.19199E+07         0.00000E+00
    0.00000E+00         0.00000E+00        -0.17677E+08
 
   -0.17627E+08         0.40719E+06         0.00000E+00
    0.40719E+06        -0.19197E+07         0.00000E+00
    0.00000E+00         0.00000E+00        -0.17636E+08
 
   -0.17585E+08         0.41584E+06         0.00000E+00
    0.41584E+06        -0.19195E+07         0.00000E+00
    0.00000E+00         0.00000E+00        -0.17594E+08
 
   -0.17541E+08         0.42455E+06         0.00000E+00
    0.42455E+06        -0.19194E+07         0.00000E+00
    0.00000E+00         0.00000E+00        -0.17550E+08
 
   -0.17497E+08         0.43331E+06         0.00000E+00
    0.43331E+06        -0.19193E+07         0.00000E+00
    0.00000E+00         0.00000E+00        -0.17506E+08
 
   -0.17451E+08         0.44212E+06         0.00000E+00
    0.44212E+06        -0.19192E+07         0.00000E+00
    0.00000E+00         0.00000E+00        -0.17460E+08
 
   -0.17405E+08         0.45097E+06         0.00000E+00
    0.45097E+06        -0.19192E+07         0.00000E+00
    0.00000E+00         0.00000E+00        -0.17414E+08
 
   -0.17357E+08         0.45985E+06         0.00000E+00
    0.45985E+06        -0.19192E+07         0.00000E+00
    0.00000E+00         0.00000E+00        -0.17366E+08
 
   -0.17309E+08         0.46874E+06         0.00000E+00
    0.46874E+06        -0.19193E+07         0.00000E+00
    0.00000E+00         0.00000E+00        -0.17318E+08
 
   -0.17259E+08         0.47763E+06         0.00000E+00
    0.47763E+06        -0.19195E+07         0.00000E+00
    0.00000E+00         0.00000E+00        -0.17268E+08
 
   -0.17208E+08         0.48652E+06         0.00000E+00
    0.48652E+06        -0.19197E+07         0.00000E+00
    0.00000E+00         0.00000E+00        -0.17218E+08
 
   -0.17157E+08         0.49538E+06         0.00000E+00
    0.49538E+06        -0.19200E+07         0.00000E+00
    0.00000E+00         0.00000E+00        -0.17166E+08
 
   -0.17104E+08         0.50420E+06         0.00000E+00
    0.50420E+06        -0.19204E+07         0.00000E+00
    0.00000E+00         0.00000E+00        -0.17113E+08
 
   -0.17050E+08         0.51297E+06         0.00000E+00
    0.51297E+06        -0.19209E+07         0.00000E+00
    0.00000E+00         0.00000E+00        -0.17059E+08
 
   -0.16995E+08         0.52165E+06         0.00000E+00
    0.52165E+06        -0.19215E+07         0.00000E+00
    0.00000E+00         0.00000E+00        -0.17004E+08
 
   -0.16939E+08         0.53024E+06         0.00000E+00
    0.53024E+06        -0.19222E+07         0.00000E+00
    0.00000E+00         0.00000E+00        -0.16947E+08
 
   -0.16881E+08         0.53871E+06         0.00000E+00
    0.53871E+06        -0.19231E+07         0.00000E+00
    0.00000E+00         0.00000E+00        -0.16890E+08
 
   -0.16823E+08         0.54703E+06         0.00000E+00
    0.54703E+06        -0.19240E+07         0.00000E+00
    0.00000E+00         0.00000E+00        -0.16831E+08
 
   -0.16763E+08         0.55519E+06         0.00000E+00
    0.55519E+06        -0.19251E+07         0.00000E+00
    0.00000E+00         0.00000E+00        -0.16772E+08
 
   -0.16703E+08         0.56314E+06         0.00000E+00
    0.56314E+06        -0.19264E+07         0.00000E+00
    0.00000E+00         0.00000E+00        -0.16711E+08
 
   -0.16641E+08         0.57087E+06         0.00000E+00
    0.57087E+06        -0.19278E+07         0.00000E+00
    0.00000E+00         0.00000E+00        -0.16649E+08
 
   -0.16578E+08         0.57833E+06         0.00000E+00
    0.57833E+06        -0.19294E+07         0.00000E+00
    0.00000E+00         0.00000E+00        -0.16586E+08
 
   -0.16514E+08         0.58550E+06         0.00000E+00
    0.58550E+06        -0.19312E+07         0.00000E+00
    0.00000E+00         0.00000E+00        -0.16521E+08
 
   -0.16449E+08         0.59233E+06         0.00000E+00
    0.59233E+06        -0.19332E+07         0.00000E+00
    0.00000E+00         0.00000E+00        -0.16456E+08
 
   -0.16383E+08         0.59879E+06         0.00000E+00
    0.59879E+06        -0.19354E+07         0.00000E+00
    0.00000E+00         0.00000E+00        -0.16389E+08
 
   -0.16315E+08         0.60483E+06         0.00000E+00
    0.60483E+06        -0.19379E+07         0.00000E+00
    0.00000E+00         0.00000E+00        -0.16322E+08
 
   -0.16247E+08         0.61040E+06         0.00000E+00
    0.61040E+06        -0.19406E+07         0.00000E+00
    0.00000E+00         0.00000E+00        -0.16253E+08
 
   -0.16178E+08         0.61545E+06         0.00000E+00
    0.61545E+06        -0.19436E+07         0.00000E+00
    0.00000E+00         0.00000E+00        -0.16183E+08
 
   -0.16107E+08         0.61993E+06         0.00000E+00
    0.61993E+06        -0.19469E+07         0.00000E+00
    0.00000E+00         0.00000E+00        -0.16112E+08
 
   -0.16036E+08         0.62379E+06         0.00000E+00
    0.62379E+06        -0.19506E+07         0.00000E+00
    0.00000E+00         0.00000E+00        -0.16040E+08
 
   -0.15964E+08         0.62694E+06         0.00000E+00
    0.62694E+06        -0.19546E+07         0.00000E+00
    0.00000E+00         0.00000E+00        -0.15967E+08
 
   -0.15890E+08         0.62934E+06         0.00000E+00
    0.62934E+06        -0.19590E+07         0.00000E+00
    0.00000E+00         0.00000E+00        -0.15893E+08
 
   -0.15816E+08         0.63091E+06         0.00000E+00
    0.63091E+06        -0.19639E+07         0.00000E+00
    0.00000E+00         0.00000E+00        -0.15818E+08
 
   -0.15741E+08         0.63157E+06         0.00000E+00
    0.63157E+06        -0.19692E+07         0.00000E+00
    0.00000E+00         0.00000E+00        -0.15742E+08
 
   -0.15666E+08         0.63125E+06         0.00000E+00
    0.63125E+06        -0.19751E+07         0.00000E+00
    0.00000E+00         0.00000E+00        -0.15665E+08
 
   -0.15589E+08         0.62986E+06         0.00000E+00
    0.62986E+06        -0.19816E+07         0.00000E+00
    0.00000E+00         0.00000E+00        -0.15588E+08
 
   -0.15512E+08         0.62732E+06         0.00000E+00
    0.62732E+06        -0.19887E+07         0.00000E+00
    0.00000E+00         0.00000E+00        -0.15509E+08
 
   -0.15434E+08         0.62353E+06         0.00000E+00
    0.62353E+06        -0.19965E+07         0.00000E+00
    0.00000E+00         0.00000E+00        -0.15430E+08
 
   -0.15356E+08         0.61842E+06         0.00000E+00
    0.61842E+06        -0.20050E+07         0.00000E+00
    0.00000E+00         0.00000E+00        -0.15350E+08
 
   -0.15277E+08         0.61190E+06         0.00000E+00
    0.61190E+06        -0.20144E+07         0.00000E+00
    0.00000E+00         0.00000E+00        -0.15270E+08
 
   -0.15197E+08         0.60389E+06         0.00000E+00
    0.60389E+06        -0.20246E+07         0.00000E+00
    0.00000E+00         0.00000E+00        -0.15189E+08
 
   -0.15117E+08         0.59430E+06         0.00000E+00
    0.59430E+06        -0.20357E+07         0.00000E+00
    0.00000E+00         0.00000E+00        -0.15107E+08
 
   -0.15037E+08         0.58308E+06         0.00000E+00
    0.58308E+06        -0.20477E+07         0.00000E+00
    0.00000E+00         0.00000E+00        -0.15025E+08
 
   -0.14956E+08         0.57016E+06         0.00000E+00
    0.57016E+06        -0.20607E+07         0.00000E+00
    0.00000E+00         0.00000E+00        -0.14942E+08
 
   -0.14875E+08         0.55550E+06         0.00000E+00
    0.55550E+06        -0.20744E+07         0.00000E+00
    0.00000E+00         0.00000E+00        -0.14859E+08
 
   -0.14793E+08         0.53907E+06         0.00000E+00
    0.53907E+06        -0.20889E+07         0.00000E+00
    0.00000E+00         0.00000E+00        -0.14776E+08
 
   -0.14711E+08         0.52086E+06         0.00000E+00
    0.52086E+06        -0.21040E+07         0.00000E+00
    0.00000E+00         0.00000E+00        -0.14692E+08
 
   -0.14628E+08         0.50086E+06         0.00000E+00
    0.50086E+06        -0.21192E+07         0.00000E+00
    0.00000E+00         0.00000E+00        -0.14607E+08
 
   -0.14544E+08         0.47907E+06         0.00000E+00
    0.47907E+06        -0.21341E+07         0.00000E+00
    0.00000E+00         0.00000E+00        -0.14522E+08
 
   -0.14460E+08         0.45547E+06         0.00000E+00
    0.45547E+06        -0.21481E+07         0.00000E+00
    0.00000E+00         0.00000E+00        -0.14435E+08
 
   -0.14374E+08         0.42998E+06         0.00000E+00
    0.42998E+06        -0.21601E+07         0.00000E+00
    0.00000E+00         0.00000E+00        -0.14348E+08
 
   -0.14287E+08         0.40243E+06         0.00000E+00
    0.40243E+06        -0.21692E+07         0.00000E+00
    0.00000E+00         0.00000E+00        -0.14258E+08
 
   -0.14198E+08         0.37245E+06         0.00000E+00
    0.37245E+06        -0.21736E+07         0.00000E+00
    0.00000E+00         0.00000E+00        -0.14167E+08
 
   -0.14107E+08         0.33937E+06         0.00000E+00
    0.33937E+06        -0.21715E+07         0.00000E+00
    0.00000E+00         0.00000E+00        -0.14072E+08
 
   -0.14015E+08         0.30203E+06         0.00000E+00
    0.30203E+06        -0.21609E+07         0.00000E+00
    0.00000E+00         0.00000E+00        -0.13975E+08
 
   -0.13921E+08         0.25844E+06         0.00000E+00
    0.25844E+06        -0.21388E+07         0.00000E+00
    0.00000E+00         0.00000E+00        -0.13873E+08
 
   -0.13827E+08         0.20553E+06         0.00000E+00
    0.20553E+06        -0.21029E+07         0.00000E+00
    0.00000E+00         0.00000E+00        -0.13767E+08
 
   -0.13737E+08         0.13643E+06         0.00000E+00
    0.13643E+06        -0.20476E+07         0.00000E+00
    0.00000E+00         0.00000E+00        -0.13656E+08
 
   -0.13673E+08         0.48289E+05         0.00000E+00
    0.48289E+05        -0.19677E+07         0.00000E+00
    0.00000E+00         0.00000E+00        -0.13546E+08
 
   -0.18762E+08         0.10832E+05         0.00000E+00
    0.10832E+05        -0.19419E+07         0.00000E+00
    0.00000E+00         0.00000E+00        -0.18803E+08
 
   -0.18750E+08         0.31545E+05         0.00000E+00
    0.31545E+05        -0.19242E+07         0.00000E+00
    0.00000E+00         0.00000E+00        -0.18780E+08
 
   -0.18733E+08         0.49531E+05         0.00000E+00
    0.49531E+05        -0.19114E+07         0.00000E+00
    0.00000E+00         0.00000E+00        -0.18756E+08
 
   -0.18713E+08         0.64584E+05         0.00000E+00
    0.64584E+05        -0.19030E+07         0.00000E+00
    0.00000E+00         0.00000E+00        -0.18733E+08
 
   -0.18693E+08         0.77772E+05         0.00000E+00
    0.77772E+05        -0.18978E+07         0.00000E+00
    0.00000E+00         0.00000E+00        -0.18711E+08
 
   -0.18673E+08         0.89768E+05         0.00000E+00
    0.89768E+05        -0.18951E+07         0.00000E+00
    0.00000E+00         0.00000E+00        -0.18689E+08
 
   -0.18653E+08         0.10097E+06         0.00000E+00
    0.10097E+06        -0.18942E+07         0.00000E+00
    0.00000E+00         0.00000E+00        -0.18668E+08
 
   -0.18633E+08         0.11162E+06         0.00000E+00
    0.11162E+06        -0.18947E+07         0.00000E+00
    0.00000E+00         0.00000E+00        -0.18647E+08
 
   -0.18612E+08         0.12189E+06         0.00000E+00
    0.12189E+06        -0.18962E+07         0.00000E+00
    0.00000E+00         0.00000E+00        -0.18627E+08
 
   -0.18592E+08         0.13184E+06         0.00000E+00
    0.13184E+06        -0.18983E+07         0.00000E+00
    0.00000E+00         0.00000E+00        -0.18606E+08
 
   -0.18571E+08         0.14153E+06         0.00000E+00
    0.14153E+06        -0.19007E+07         0.00000E+00
    0.00000E+00         0.00000E+00        -0.18585E+08
 
   -0.18551E+08         0.15098E+06         0.00000E+00
    0.15098E+06        -0.19032E+07         0.00000E+00
    0.00000E+00         0.00000E+00        -0.18564E+08
 
   -0.18530E+08         0.16021E+06         0.00000E+00
    0.16021E+06        -0.19058E+07         0.00000E+00
    0.00000E+00         0.00000E+00        -0.18543E+08
 
   -0.18508E+08         0.16922E+06         0.00000E+00
    0.16922E+06        -0.19083E+07         0.00000E+00
    0.00000E+00         0.00000E+00        -0.18521E+08
 
   -0.18487E+08         0.17802E+06         0.00000E+00
    0.17802E+06        -0.19106E+07         0.00000E+00
    0.00000E+00         0.00000E+00        -0.18499E+08
 
   -0.18464E+08         0.18663E+06         0.00000E+00
    0.18663E+06        -0.19128E+07         0.00000E+00
    0.00000E+00         0.00000E+00        -0.18477E+08
 
   -0.18442E+08         0.19505E+06         0.00000E+00
    0.19505E+06        -0.19147E+07         0.00000E+00
    0.00000E+00         0.00000E+00        -0.18454E+08
 
   -0.18419E+08         0.20330E+06         0.00000E+00
    0.20330E+06        -0.19164E+07         0.00000E+00
    0.00000E+00         0.00000E+00        -0.18430E+08
 
   -0.18395E+08         0.21139E+06         0.00000E+00
    0.21139E+06        -0.19179E+07         0.00000E+00
    0.00000E+00         0.00000E+00        -0.18407E+08
 
   -0.18371E+08         0.21934E+06         0.00000E+00
    0.21934E+06        -0.19192E+07         0.00000E+00
    0.00000E+00         0.00000E+00        -0.18382E+08
 
   -0.18346E+08         0.22718E+06         0.00000E+00
    0.22718E+06        -0.19203E+07         0.00000E+00
    0.00000E+00         0.00000E+00        -0.18357E+08
 
   -0.18321E+08         0.23491E+06         0.00000E+00
    0.23491E+06        -0.19212E+07         0.00000E+00
    0.00000E+00         0.00000E+00        -0.18332E+08
 
   -0.18295E+08         0.24256E+06         0.00000E+00
    0.24256E+06        -0.19220E+07         0.00000E+00
    0.00000E+00         0.00000E+00        -0.18306E+08
 
   -0.18268E+08         0.25014E+06         0.00000E+00
    0.25014E+06        -0.19226E+07         0.00000E+00
    0.00000E+00         0.00000E+00        -0.18279E+08
 
   -0.18241E+08         0.25768E+06         0.00000E+00
    0.25768E+06        -0.19230E+07         0.00000E+00
    0.00000E+00         0.00000E+00        -0.18252E+08
 
   -0.18213E+08         0.26519E+06         0.00000E+00
    0.26519E+06        -0.19234E+07         0.00000E+00
    0.00000E+00         0.00000E+00        -0.18224E+08
 
   -0.18184E+08         0.27269E+06         0.00000E+00
    0.27269E+06        -0.19236E+07         0.00000E+00
    0.00000E+00         0.00000E+00        -0.18195E+08
 
   -0.18155E+08         0.28019E+06         0.00000E+00
    0.28019E+06        -0.19238E+07         0.00000E+00
    0.00000E+00         0.00000E+00        -0.18166E+08
 
   -0.18125E+08         0.28771E+06         0.00000E+00
    0.28771E+06        -0.19239E+07         0.00000E+00
    0.00000E+00         0.00000E+00        -0.18136E+08
 
   -0.18094E+08         0.29525E+06         0.00000E+00
    0.29525E+06        -0.19239E+07         0.00000E+00
    0.00000E+00         0.00000E+00        -0.18106E+08
 
   -0.18063E+08         0.30283E+06         0.00000E+00
    0.30283E+06        -0.19238E+07         0.00000E+00
    0.00000E+00         0.00000E+00        -0.18074E+08
 
   -0.18031E+08         0.31045E+06         0.00000E+00
    0.31045E+06        -0.19237E+07         0.00000E+00
    0.00000E+00         0.00000E+00        -0.18042E+08
 
   -0.17998E+08         0.31814E+06         0.00000E+00
    0.31814E+06        -0.19236E+07         0.00000E+00
    0.00000E+00         0.00000E+00        -0.18009E+08
 
   -0.17964E+08         0.32588E+06         0.00000E+00
    0.32588E+06        -0.19234E+07         0.00000E+00
    0.00000E+00         0.00000E+00        -0.17976E+08
 
   -0.17930E+08         0.33368E+06         0.00000E+00
    0.33368E+06        -0.19232E+07         0.00000E+00
    0.00000E+00         0.00000E+00        -0.17941E+08
 
   -0.17894E+08         0.34156E+06         0.00000E+00
    0.34156E+06        -0.19230E+07         0.00000E+00
    0.00000E+00         0.00000E+00        -0.17906E+08
 
   -0.17858E+08         0.34951E+06         0.00000E+00
    0.34951E+06        -0.19228E+07         0.00000E+00
    0.00000E+00         0.00000E+00        -0.17870E+08
 
   -0.17821E+08         0.35754E+06         0.00000E+00
    0.35754E+06        -0.19225E+07         0.00000E+00
    0.00000E+00         0.00000E+00        -0.17833E+08
 
   -0.17783E+08         0.36564E+06         0.00000E+00
    0.36564E+06        -0.19223E+07         0.00000E+00
    0.00000E+00         0.00000E+00        -0.17795E+08
 
   -0.17745E+08         0.37382E+06         0.00000E+00
    0.37382E+06        -0.19220E+07         0.00000E+00
    0.00000E+00         0.00000E+00        -0.17757E+08
 
   -0.17705E+08         0.38207E+06         0.00000E+00
    0.38207E+06        -0.19218E+07         0.00000E+00
    0.00000E+00         0.00000E+00        -0.17717E+08
 
   -0.17664E+08         0.39040E+06         0.00000E+00
    0.39040E+06        -0.19216E+07         0.00000E+00
    0.00000E+00         0.00000E+00        -0.17677E+08
 
   -0.17623E+08         0.39879E+06         0.00000E+00
    0.39879E+06        -0.19214E+07         0.00000E+00
    0.00000E+00         0.00000E+00        -0.17635E+08
 
   -0.17580E+08         0.40725E+06         0.00000E+00
    0.40725E+06        -0.19212E+07         0.00000E+00
    0.00000E+00         0.00000E+00        -0.17593E+08
 
   -0.17537E+08         0.41576E+06         0.00000E+00
    0.41576E+06        -0.19211E+07         0.00000E+00
    0.00000E+00         0.00000E+00        -0.17549E+08
 
   -0.17492E+08         0.42432E+06         0.00000E+00
    0.42432E+06        -0.19210E+07         0.00000E+00
    0.00000E+00         0.00000E+00        -0.17505E+08
 
   -0.17447E+08         0.43293E+06         0.00000E+00
    0.43293E+06        -0.19209E+07         0.00000E+00
    0.00000E+00         0.00000E+00        -0.17460E+08
 
   -0.17400E+08         0.44157E+06         0.00000E+00
    0.44157E+06        -0.19209E+07         0.00000E+00
    0.00000E+00         0.00000E+00        -0.17413E+08
 
   -0.17353E+08         0.45024E+06         0.00000E+00
    0.45024E+06        -0.19210E+07         0.00000E+00
    0.00000E+00         0.00000E+00        -0.17366E+08
 
   -0.17304E+08         0.45892E+06         0.00000E+00
    0.45892E+06        -0.19211E+07         0.00000E+00
    0.00000E+00         0.00000E+00        -0.17317E+08
 
   -0.17255E+08         0.46760E+06         0.00000E+00
    0.46760E+06        -0.19212E+07         0.00000E+00
    0.00000E+00         0.00000E+00        -0.17268E+08
 
   -0.17204E+08         0.47628E+06         0.00000E+00
    0.47628E+06        -0.19214E+07         0.00000E+00
    0.00000E+00         0.00000E+00        -0.17217E+08
 
   -0.17152E+08         0.48492E+06         0.00000E+00
    0.48492E+06        -0.19218E+07         0.00000E+00
    0.00000E+00         0.00000E+00        -0.17165E+08
 
   -0.17099E+08         0.49352E+06         0.00000E+00
    0.49352E+06        -0.19221E+07         0.00000E+00
    0.00000E+00         0.00000E+00        -0.17112E+08
 
   -0.17045E+08         0.50207E+06         0.00000E+00
    0.50207E+06        -0.19226E+07         0.00000E+00
    0.00000E+00         0.00000E+00        -0.17058E+08
 
   -0.16990E+08         0.51053E+06         0.00000E+00
    0.51053E+06        -0.19232E+07         0.00000E+00
    0.00000E+00         0.00000E+00        -0.17003E+08
 
   -0.16934E+08         0.51890E+06         0.00000E+00
    0.51890E+06        -0.19239E+07         0.00000E+00
    0.00000E+00         0.00000E+00        -0.16947E+08
 
   -0.16877E+08         0.52715E+06         0.00000E+00
    0.52715E+06        -0.19247E+07         0.00000E+00
    0.00000E+00         0.00000E+00        -0.16889E+08
 
   -0.16819E+08         0.53525E+06         0.00000E+00
    0.53525E+06        -0.19257E+07         0.00000E+00
    0.00000E+00         0.00000E+00        -0.16831E+08
 
   -0.16759E+08         0.54318E+06         0.00000E+00
    0.54318E+06        -0.19267E+07         0.00000E+00
    0.00000E+00         0.00000E+00        -0.16771E+08
 
   -0.16699E+08         0.55091E+06         0.00000E+00
    0.55091E+06        -0.19279E+07         0.00000E+00
    0.00000E+00         0.00000E+00        -0.16710E+08
 
   -0.16637E+08         0.55841E+06         0.00000E+00
    0.55841E+06        -0.19293E+07         0.00000E+00
    0.00000E+00         0.00000E+00        -0.16648E+08
 
   -0.16574E+08         0.56566E+06         0.00000E+00
    0.56566E+06        -0.19309E+07         0.00000E+00
    0.00000E+00         0.00000E+00        -0.16585E+08
 
   -0.16510E+08         0.57260E+06         0.00000E+00
    0.57260E+06        -0.19326E+07         0.00000E+00
    0.00000E+00         0.00000E+00        -0.16521E+08
 
   -0.16445E+08         0.57922E+06         0.00000E+00
    0.57922E+06        -0.19345E+07         0.00000E+00
    0.00000E+00         0.00000E+00        -0.16455E+08
 
   -0.16379E+08         0.58546E+06         0.00000E+00
    0.58546E+06        -0.19367E+07         0.00000E+00
    0.00000E+00         0.00000E+00        -0.16389E+08
 
   -0.16312E+08         0.59129E+06         0.00000E+00
    0.59129E+06        -0.19390E+07         0.00000E+00
    0.00000E+00         0.00000E+00        -0.16321E+08
 
   -0.16244E+08         0.59666E+06         0.00000E+00
    0.59666E+06        -0.19417E+07         0.00000E+00
    0.00000E+00         0.00000E+00        -0.16252E+08
 
   -0.16175E+08         0.60151E+06         0.00000E+00
    0.60151E+06        -0.19446E+07         0.00000E+00
    0.00000E+00         0.00000E+00        -0.16182E+08
 
   -0.16105E+08         0.60579E+06         0.00000E+00
    0.60579E+06        -0.19477E+07         0.00000E+00
    0.00000E+00         0.00000E+00        -0.16112E+08
 
   -0.16034E+08         0.60945E+06         0.00000E+00
    0.60945E+06        -0.19513E+07         0.00000E+00
    0.00000E+00         0.00000E+00        -0.16040E+08
 
   -0.15962E+08         0.61243E+06         0.00000E+00
    0.61243E+06        -0.19551E+07         0.00000E+00
    0.00000E+00         0.00000E+00        -0.15967E+08
 
   -0.15889E+08         0.61465E+06         0.00000E+00
    0.61465E+06        -0.19594E+07         0.00000E+00
    0.00000E+00         0.00000E+00        -0.15893E+08
 
   -0.15816E+08         0.61605E+06         0.00000E+00
    0.61605E+06        -0.19641E+07         0.00000E+00
    0.00000E+00         0.00000E+00        -0.15818E+08
 
   -0.15741E+08         0.61655E+06         0.00000E+00
    0.61655E+06        -0.19693E+07         0.00000E+00
    0.00000E+00         0.00000E+00        -0.15742E+08
 
   -0.15666E+08         0.61607E+06         0.00000E+00
    0.61607E+06        -0.19749E+07         0.00000E+00
    0.00000E+00         0.00000E+00        -0.15665E+08
 
   -0.15590E+08         0.61454E+06         0.00000E+00
    0.61454E+06        -0.19812E+07         0.00000E+00
    0.00000E+00         0.00000E+00        -0.15588E+08
 
   -0.15513E+08         0.61187E+06         0.00000E+00
    0.61187E+06        -0.19880E+07         0.00000E+00
    0.00000E+00         0.00000E+00        -0.15509E+08
 
   -0.15436E+08         0.60797E+06         0.00000E+00
    0.60797E+06        -0.19956E+07         0.00000E+00
    0.00000E+00         0.00000E+00        -0.15430E+08
 
   -0.15358E+08         0.60275E+06         0.00000E+00
    0.60275E+06        -0.20038E+07         0.00000E+00
    0.00000E+00         0.00000E+00        -0.15351E+08
 
   -0.15280E+08         0.59612E+06         0.00000E+00
    0.59612E+06        -0.20129E+07         0.00000E+00
    0.00000E+00         0.00000E+00        -0.15270E+08
 
   -0.15201E+08         0.58802E+06         0.00000E+00
    0.58802E+06        -0.20228E+07         0.00000E+00
    0.00000E+00         0.00000E+00        -0.15189E+08
 
   -0.15122E+08         0.57835E+06         0.00000E+00
    0.57835E+06        -0.20336E+07         0.00000E+00
    0.00000E+00         0.00000E+00        -0.15108E+08
 
   -0.15042E+08         0.56704E+06         0.00000E+00
    0.56704E+06        -0.20453E+07         0.00000E+00
    0.00000E+00         0.00000E+00        -0.15026E+08
 
   -0.14962E+08         0.55404E+06         0.00000E+00
    0.55404E+06        -0.20579E+07         0.00000E+00
    0.00000E+00         0.00000E+00        -0.14944E+08
 
   -0.14882E+08         0.53929E+06         0.00000E+00
    0.53929E+06        -0.20713E+07         0.00000E+00
    0.00000E+00         0.00000E+00        -0.14861E+08
 
   -0.14801E+08         0.52277E+06         0.00000E+00
    0.52277E+06        -0.20855E+07         0.00000E+00
    0.00000E+00         0.00000E+00        -0.14777E+08
 
   -0.14720E+08         0.50445E+06         0.00000E+00
    0.50445E+06        -0.21001E+07         0.00000E+00
    0.00000E+00         0.00000E+00        -0.14694E+08
 
   -0.14638E+08         0.48431E+06         0.00000E+00
    0.48431E+06        -0.21150E+07         0.00000E+00
    0.00000E+00         0.00000E+00        -0.14609E+08
 
   -0.14555E+08         0.46235E+06         0.00000E+00
    0.46235E+06        -0.21295E+07         0.00000E+00
    0.00000E+00         0.00000E+00        -0.14524E+08
 
   -0.14472E+08         0.43854E+06         0.00000E+00
    0.43854E+06        -0.21431E+07         0.00000E+00
    0.00000E+00         0.00000E+00        -0.14438E+08
 
   -0.14387E+08         0.41280E+06         0.00000E+00
    0.41280E+06        -0.21548E+07         0.00000E+00
    0.00000E+00         0.00000E+00        -0.14350E+08
 
   -0.14301E+08         0.38495E+06         0.00000E+00
    0.38495E+06        -0.21634E+07         0.00000E+00
    0.00000E+00         0.00000E+00        -0.14261E+08
 
   -0.14214E+08         0.35465E+06         0.00000E+00
    0.35465E+06        -0.21673E+07         0.00000E+00
    0.00000E+00         0.00000E+00        -0.14170E+08
 
   -0.14125E+08         0.32125E+06         0.00000E+00
    0.32125E+06        -0.21645E+07         0.00000E+00
    0.00000E+00         0.00000E+00        -0.14076E+08
 
   -0.14035E+08         0.28365E+06         0.00000E+00
    0.28365E+06        -0.21528E+07         0.00000E+00
    0.00000E+00         0.00000E+00        -0.13978E+08
 
   -0.13945E+08         0.24007E+06         0.00000E+00
    0.24007E+06        -0.21293E+07         0.00000E+00
    0.00000E+00         0.00000E+00        -0.13877E+08
 
   -0.13857E+08         0.18749E+06         0.00000E+00
    0.18749E+06        -0.20911E+07         0.00000E+00
    0.00000E+00         0.00000E+00        -0.13772E+08
 
   -0.13777E+08         0.12106E+06         0.00000E+00
    0.12106E+06        -0.20321E+07         0.00000E+00
    0.00000E+00         0.00000E+00        -0.13663E+08
 
   -0.13725E+08         0.41837E+05         0.00000E+00
    0.41837E+05        -0.19501E+07         0.00000E+00
    0.00000E+00         0.00000E+00        -0.13556E+08
 
   -0.18750E+08         0.97113E+04         0.00000E+00
    0.97113E+04        -0.19460E+07         0.00000E+00
    0.00000E+00         0.00000E+00        -0.18801E+08
 
   -0.18740E+08         0.28677E+05         0.00000E+00
    0.28677E+05        -0.19280E+07         0.00000E+00
    0.00000E+00         0.00000E+00        -0.18778E+08
 
   -0.18725E+08         0.45875E+05         0.00000E+00
    0.45875E+05        -0.19146E+07         0.00000E+00
    0.00000E+00         0.00000E+00        -0.18755E+08
 
   -0.18706E+08         0.60698E+05         0.00000E+00
    0.60698E+05        -0.19058E+07         0.00000E+00
    0.00000E+00         0.00000E+00        -0.18732E+08
 
   -0.18687E+08         0.73788E+05         0.00000E+00
    0.73788E+05        -0.19003E+07         0.00000E+00
    0.00000E+00         0.00000E+00        -0.18710E+08
 
   -0.18667E+08         0.85751E+05         0.00000E+00
    0.85751E+05        -0.18974E+07         0.00000E+00
    0.00000E+00         0.00000E+00        -0.18688E+08
 
   -0.18647E+08         0.96942E+05         0.00000E+00
    0.96942E+05        -0.18964E+07         0.00000E+00
    0.00000E+00         0.00000E+00        -0.18667E+08
 
   -0.18627E+08         0.10759E+06         0.00000E+00
    0.10759E+06        -0.18968E+07         0.00000E+00
    0.00000E+00         0.00000E+00        -0.18646E+08
 
   -0.18607E+08         0.11784E+06         0.00000E+00
    0.11784E+06        -0.18982E+07         0.00000E+00
    0.00000E+00         0.00000E+00        -0.18626E+08
 
   -0.18587E+08         0.12777E+06         0.00000E+00
    0.12777E+06        -0.19002E+07         0.00000E+00
    0.00000E+00         0.00000E+00        -0.18605E+08
 
   -0.18567E+08         0.13743E+06         0.00000E+00
    0.13743E+06        -0.19026E+07         0.00000E+00
    0.00000E+00         0.00000E+00        -0.18584E+08
 
   -0.18546E+08         0.14683E+06         0.00000E+00
    0.14683E+06        -0.19051E+07         0.00000E+00
    0.00000E+00         0.00000E+00        -0.18563E+08
 
   -0.18525E+08         0.15599E+06         0.00000E+00
    0.15599E+06        -0.19076E+07         0.00000E+00
    0.00000E+00         0.00000E+00        -0.18542E+08
 
   -0.18504E+08         0.16493E+06         0.00000E+00
    0.16493E+06        -0.19101E+07         0.00000E+00
    0.00000E+00         0.00000E+00        -0.18520E+08
 
   -0.18482E+08         0.17365E+06         0.00000E+00
    0.17365E+06        -0.19124E+07         0.00000E+00
    0.00000E+00         0.00000E+00        -0.18498E+08
 
   -0.18460E+08         0.18216E+06         0.00000E+00
    0.18216E+06        -0.19145E+07         0.00000E+00
    0.00000E+00         0.00000E+00        -0.18476E+08
 
   -0.18438E+08         0.19048E+06         0.00000E+00
    0.19048E+06        -0.19164E+07         0.00000E+00
    0.00000E+00         0.00000E+00        -0.18453E+08
 
   -0.18415E+08         0.19863E+06         0.00000E+00
    0.19863E+06        -0.19180E+07         0.00000E+00
    0.00000E+00         0.00000E+00        -0.18430E+08
 
   -0.18391E+08         0.20661E+06         0.00000E+00
    0.20661E+06        -0.19195E+07         0.00000E+00
    0.00000E+00         0.00000E+00        -0.18406E+08
 
   -0.18367E+08         0.21445E+06         0.00000E+00
    0.21445E+06        -0.19208E+07         0.00000E+00
    0.00000E+00         0.00000E+00        -0.18382E+08
 
   -0.18342E+08         0.22216E+06         0.00000E+00
    0.22216E+06        -0.19218E+07         0.00000E+00
    0.00000E+00         0.00000E+00        -0.18357E+08
 
   -0.18317E+08         0.22977E+06         0.00000E+00
    0.22977E+06        -0.19227E+07         0.00000E+00
    0.00000E+00         0.00000E+00        -0.18331E+08
 
   -0.18291E+08         0.23730E+06         0.00000E+00
    0.23730E+06        -0.19235E+07         0.00000E+00
    0.00000E+00         0.00000E+00        -0.18305E+08
 
   -0.18264E+08         0.24476E+06         0.00000E+00
    0.24476E+06        -0.19241E+07         0.00000E+00
    0.00000E+00         0.00000E+00        -0.18278E+08
 
   -0.18237E+08         0.25217E+06         0.00000E+00
    0.25217E+06        -0.19245E+07         0.00000E+00
    0.00000E+00         0.00000E+00        -0.18251E+08
 
   -0.18209E+08         0.25955E+06         0.00000E+00
    0.25955E+06        -0.19249E+07         0.00000E+00
    0.00000E+00         0.00000E+00        -0.18223E+08
 
   -0.18181E+08         0.26691E+06         0.00000E+00
    0.26691E+06        -0.19251E+07         0.00000E+00
    0.00000E+00         0.00000E+00        -0.18195E+08
 
   -0.18151E+08         0.27427E+06         0.00000E+00
    0.27427E+06        -0.19253E+07         0.00000E+00
    0.00000E+00         0.00000E+00        -0.18165E+08
 
   -0.18121E+08         0.28164E+06         0.00000E+00
    0.28164E+06        -0.19254E+07         0.00000E+00
    0.00000E+00         0.00000E+00        -0.18135E+08
 
   -0.18091E+08         0.28904E+06         0.00000E+00
    0.28904E+06        -0.19254E+07         0.00000E+00
    0.00000E+00         0.00000E+00        -0.18105E+08
 
   -0.18059E+08         0.29647E+06         0.00000E+00
    0.29647E+06        -0.19253E+07         0.00000E+00
    0.00000E+00         0.00000E+00        -0.18073E+08
 
   -0.18027E+08         0.30394E+06         0.00000E+00
    0.30394E+06        -0.19252E+07         0.00000E+00
    0.00000E+00         0.00000E+00        -0.18041E+08
 
   -0.17994E+08         0.31147E+06         0.00000E+00
    0.31147E+06        -0.19251E+07         0.00000E+00
    0.00000E+00         0.00000E+00        -0.18009E+08
 
   -0.17960E+08         0.31905E+06         0.00000E+00
    0.31905E+06        -0.19250E+07         0.00000E+00
    0.00000E+00         0.00000E+00        -0.17975E+08
 
   -0.17926E+08         0.32670E+06         0.00000E+00
    0.32670E+06        -0.19248E+07         0.00000E+00
    0.00000E+00         0.00000E+00        -0.17941E+08
 
   -0.17890E+08         0.33441E+06         0.00000E+00
    0.33441E+06        -0.19246E+07         0.00000E+00
    0.00000E+00         0.00000E+00        -0.17905E+08
 
   -0.17854E+08         0.34219E+06         0.00000E+00
    0.34219E+06        -0.19243E+07         0.00000E+00
    0.00000E+00         0.00000E+00        -0.17869E+08
 
   -0.17817E+08         0.35005E+06         0.00000E+00
    0.35005E+06        -0.19241E+07         0.00000E+00
    0.00000E+00         0.00000E+00        -0.17832E+08
 
   -0.17779E+08         0.35797E+06         0.00000E+00
    0.35797E+06        -0.19239E+07         0.00000E+00
    0.00000E+00         0.00000E+00        -0.17795E+08
 
   -0.17740E+08         0.36597E+06         0.00000E+00
    0.36597E+06        -0.19237E+07         0.00000E+00
    0.00000E+00         0.00000E+00        -0.17756E+08
 
   -0.17701E+08         0.37404E+06         0.00000E+00
    0.37404E+06        -0.19235E+07         0.00000E+00
    0.00000E+00         0.00000E+00        -0.17716E+08
 
   -0.17660E+08         0.38218E+06         0.00000E+00
    0.38218E+06        -0.19233E+07         0.00000E+00
    0.00000E+00         0.00000E+00        -0.17676E+08
 
   -0.17618E+08         0.39038E+06         0.00000E+00
    0.39038E+06        -0.19231E+07         0.00000E+00
    0.00000E+00         0.00000E+00        -0.17634E+08
 
   -0.17576E+08         0.39864E+06         0.00000E+00
    0.39864E+06        -0.19229E+07         0.00000E+00
    0.00000E+00         0.00000E+00        -0.17592E+08
 
   -0.17532E+08         0.40696E+06         0.00000E+00
    0.40696E+06        -0.19228E+07         0.00000E+00
    0.00000E+00         0.00000E+00        -0.17549E+08
 
   -0.17488E+08         0.41533E+06         0.00000E+00
    0.41533E+06        -0.19227E+07         0.00000E+00
    0.00000E+00         0.00000E+00        -0.17504E+08
 
   -0.17442E+08         0.42373E+06         0.00000E+00
    0.42373E+06        -0.19226E+07         0.00000E+00
    0.00000E+00         0.00000E+00        -0.17459E+08
 
   -0.17396E+08         0.43217E+06         0.00000E+00
    0.43217E+06        -0.19226E+07         0.00000E+00
    0.00000E+00         0.00000E+00        -0.17412E+08
 
   -0.17348E+08         0.44063E+06         0.00000E+00
    0.44063E+06        -0.19227E+07         0.00000E+00
    0.00000E+00         0.00000E+00        -0.17365E+08
 
   -0.17300E+08         0.44910E+06         0.00000E+00
    0.44910E+06        -0.19228E+07         0.00000E+00
    0.00000E+00         0.00000E+00        -0.17316E+08
 
   -0.17250E+08         0.45757E+06         0.00000E+00
    0.45757E+06        -0.19229E+07         0.00000E+00
    0.00000E+00         0.00000E+00        -0.17267E+08
 
   -0.17199E+08         0.46603E+06         0.00000E+00
    0.46603E+06        -0.19232E+07         0.00000E+00
    0.00000E+00         0.00000E+00        -0.17216E+08
 
   -0.17148E+08         0.47446E+06         0.00000E+00
    0.47446E+06        -0.19235E+07         0.00000E+00
    0.00000E+00         0.00000E+00        -0.17164E+08
 
   -0.17095E+08         0.48285E+06         0.00000E+00
    0.48285E+06        -0.19238E+07         0.00000E+00
    0.00000E+00         0.00000E+00        -0.17111E+08
 
   -0.17041E+08         0.49118E+06         0.00000E+00
    0.49118E+06        -0.19243E+07         0.00000E+00
    0.00000E+00         0.00000E+00        -0.17057E+08
 
   -0.16986E+08         0.49942E+06         0.00000E+00
    0.49942E+06        -0.19249E+07         0.00000E+00
    0.00000E+00         0.00000E+00        -0.17002E+08
 
   -0.16930E+08         0.50757E+06         0.00000E+00
    0.50757E+06        -0.19256E+07         0.00000E+00
    0.00000E+00         0.00000E+00        -0.16946E+08
 
   -0.16873E+08         0.51559E+06         0.00000E+00
    0.51559E+06        -0.19263E+07         0.00000E+00
    0.00000E+00         0.00000E+00        -0.16888E+08
 
   -0.16814E+08         0.52347E+06         0.00000E+00
    0.52347E+06        -0.19272E+07         0.00000E+00
    0.00000E+00         0.00000E+00        -0.16830E+08
 
   -0.16755E+08         0.53118E+06         0.00000E+00
    0.53118E+06        -0.19283E+07         0.00000E+00
    0.00000E+00         0.00000E+00        -0.16770E+08
 
   -0.16695E+08         0.53870E+06         0.00000E+00
    0.53870E+06        -0.19294E+07         0.00000E+00
    0.00000E+00         0.00000E+00        -0.16709E+08
 
   -0.16633E+08         0.54598E+06         0.00000E+00
    0.54598E+06        -0.19308E+07         0.00000E+00
    0.00000E+00         0.00000E+00        -0.16647E+08
 
   -0.16570E+08         0.55301E+06         0.00000E+00
    0.55301E+06        -0.19323E+07         0.00000E+00
    0.00000E+00         0.00000E+00        -0.16584E+08
 
   -0.16507E+08         0.55974E+06         0.00000E+00
    0.55974E+06        -0.19339E+07         0.00000E+00
    0.00000E+00         0.00000E+00        -0.16520E+08
 
   -0.16442E+08         0.56615E+06         0.00000E+00
    0.56615E+06        -0.19358E+07         0.00000E+00
    0.00000E+00         0.00000E+00        -0.16455E+08
 
   -0.16376E+08         0.57218E+06         0.00000E+00
    0.57218E+06        -0.19378E+07         0.00000E+00
    0.00000E+00         0.00000E+00        -0.16388E+08
 
   -0.16309E+08         0.57780E+06         0.00000E+00
    0.57780E+06        -0.19401E+07         0.00000E+00
    0.00000E+00         0.00000E+00        -0.16320E+08
 
   -0.16242E+08         0.58296E+06         0.00000E+00
    0.58296E+06        -0.19427E+07         0.00000E+00
    0.00000E+00         0.00000E+00        -0.16252E+08
 
   -0.16173E+08         0.58762E+06         0.00000E+00
    0.58762E+06        -0.19454E+07         0.00000E+00
    0.00000E+00         0.00000E+00        -0.16182E+08
 
   -0.16103E+08         0.59171E+06         0.00000E+00
    0.59171E+06        -0.19485E+07         0.00000E+00
    0.00000E+00         0.00000E+00        -0.16111E+08
 
   -0.16032E+08         0.59519E+06         0.00000E+00
    0.59519E+06        -0.19519E+07         0.00000E+00
    0.00000E+00         0.00000E+00        -0.16039E+08
 
   -0.15961E+08         0.59798E+06         0.00000E+00
    0.59798E+06        -0.19556E+07         0.00000E+00
    0.00000E+00         0.00000E+00        -0.15966E+08
 
   -0.15888E+08         0.60004E+06         0.00000E+00
    0.60004E+06        -0.19598E+07         0.00000E+00
    0.00000E+00         0.00000E+00        -0.15892E+08
 
   -0.15815E+08         0.60127E+06         0.00000E+00
    0.60127E+06        -0.19643E+07         0.00000E+00
    0.00000E+00         0.00000E+00        -0.15818E+08
 
   -0.15741E+08         0.60162E+06         0.00000E+00
    0.60162E+06        -0.19692E+07         0.00000E+00
    0.00000E+00         0.00000E+00        -0.15742E+08
 
   -0.15666E+08         0.60100E+06         0.00000E+00
    0.60100E+06        -0.19747E+07         0.00000E+00
    0.00000E+00         0.00000E+00        -0.15665E+08
 
   -0.15591E+08         0.59934E+06         0.00000E+00
    0.59934E+06        -0.19807E+07         0.00000E+00
    0.00000E+00         0.00000E+00        -0.15588E+08
 
   -0.15515E+08         0.59654E+06         0.00000E+00
    0.59654E+06        -0.19874E+07         0.00000E+00
    0.00000E+00         0.00000E+00        -0.15510E+08
 
   -0.15438E+08         0.59252E+06         0.00000E+00
    0.59252E+06        -0.19946E+07         0.00000E+00
    0.00000E+00         0.00000E+00        -0.15431E+08
 
   -0.15361E+08         0.58720E+06         0.00000E+00
    0.58720E+06        -0.20026E+07         0.00000E+00
    0.00000E+00         0.00000E+00        -0.15351E+08
 
   -0.15283E+08         0.58049E+06         0.00000E+00
    0.58049E+06        -0.20114E+07         0.00000E+00
    0.00000E+00         0.00000E+00        -0.15271E+08
 
   -0.15205E+08         0.57230E+06         0.00000E+00
    0.57230E+06        -0.20210E+07         0.00000E+00
    0.00000E+00         0.00000E+00        -0.15190E+08
 
   -0.15127E+08         0.56255E+06         0.00000E+00
    0.56255E+06        -0.20315E+07         0.00000E+00
    0.00000E+00         0.00000E+00        -0.15109E+08
 
   -0.15048E+08         0.55117E+06         0.00000E+00
    0.55117E+06        -0.20429E+07         0.00000E+00
    0.00000E+00         0.00000E+00        -0.15027E+08
 
   -0.14969E+08         0.53809E+06         0.00000E+00
    0.53809E+06        -0.20551E+07         0.00000E+00
    0.00000E+00         0.00000E+00        -0.14945E+08
 
   -0.14889E+08         0.52326E+06         0.00000E+00
    0.52326E+06        -0.20682E+07         0.00000E+00
    0.00000E+00         0.00000E+00        -0.14862E+08
 
   -0.14810E+08         0.50665E+06         0.00000E+00
    0.50665E+06        -0.20820E+07         0.00000E+00
    0.00000E+00         0.00000E+00        -0.14779E+08
 
   -0.14729E+08         0.48822E+06         0.00000E+00
    0.48822E+06        -0.20963E+07         0.00000E+00
    0.00000E+00         0.00000E+00        -0.14695E+08
 
   -0.14648E+08         0.46795E+06         0.00000E+00
    0.46795E+06        -0.21108E+07         0.00000E+00
    0.00000E+00         0.00000E+00        -0.14611E+08
 
   -0.14567E+08         0.44583E+06         0.00000E+00
    0.44583E+06        -0.21249E+07         0.00000E+00
    0.00000E+00         0.00000E+00        -0.14526E+08
 
   -0.14484E+08         0.42183E+06         0.00000E+00
    0.42183E+06        -0.21382E+07         0.00000E+00
    0.00000E+00         0.00000E+00        -0.14440E+08
 
   -0.14400E+08         0.39585E+06         0.00000E+00
    0.39585E+06        -0.21494E+07         0.00000E+00
    0.00000E+00         0.00000E+00        -0.14353E+08
 
   -0.14316E+08         0.36775E+06         0.00000E+00
    0.36775E+06        -0.21576E+07         0.00000E+00
    0.00000E+00         0.00000E+00        -0.14264E+08
 
   -0.14230E+08         0.33719E+06         0.00000E+00
    0.33719E+06        -0.21609E+07         0.00000E+00
    0.00000E+00         0.00000E+00        -0.14173E+08
 
   -0.14143E+08         0.30358E+06         0.00000E+00
    0.30358E+06        -0.21575E+07         0.00000E+00
    0.00000E+00         0.00000E+00        -0.14079E+08
 
   -0.14056E+08         0.26591E+06         0.00000E+00
    0.26591E+06        -0.21448E+07         0.00000E+00
    0.00000E+00         0.00000E+00        -0.13982E+08
 
   -0.13970E+08         0.22260E+06         0.00000E+00
    0.22260E+06        -0.21199E+07         0.00000E+00
    0.00000E+00         0.00000E+00        -0.13882E+08
 
   -0.13887E+08         0.17091E+06         0.00000E+00
    0.17091E+06        -0.20794E+07         0.00000E+00
    0.00000E+00         0.00000E+00        -0.13778E+08
 
   -0.13816E+08         0.10798E+06         0.00000E+00
    0.10798E+06        -0.20178E+07         0.00000E+00
    0.00000E+00         0.00000E+00        -0.13671E+08
 
   -0.13773E+08         0.36717E+05         0.00000E+00
    0.36717E+05        -0.19346E+07         0.00000E+00
    0.00000E+00         0.00000E+00        -0.13566E+08
 
   -0.18738E+08         0.87859E+04         0.00000E+00
    0.87859E+04        -0.19497E+07         0.00000E+00
    0.00000E+00         0.00000E+00        -0.18799E+08
 
   -0.18730E+08         0.26191E+05         0.00000E+00
    0.26191E+05        -0.19315E+07         0.00000E+00
    0.00000E+00         0.00000E+00        -0.18776E+08
 
   -0.18716E+08         0.42514E+05         0.00000E+00
    0.42514E+05        -0.19178E+07         0.00000E+00
    0.00000E+00         0.00000E+00        -0.18753E+08
 
   -0.18699E+08         0.56995E+05         0.00000E+00
    0.56995E+05        -0.19085E+07         0.00000E+00
    0.00000E+00         0.00000E+00        -0.18731E+08
 
   -0.18680E+08         0.69933E+05         0.00000E+00
    0.69933E+05        -0.19028E+07         0.00000E+00
    0.00000E+00         0.00000E+00        -0.18709E+08
 
   -0.18661E+08         0.81823E+05         0.00000E+00
    0.81823E+05        -0.18997E+07         0.00000E+00
    0.00000E+00         0.00000E+00        -0.18687E+08
 
   -0.18642E+08         0.92980E+05         0.00000E+00
    0.92980E+05        -0.18986E+07         0.00000E+00
    0.00000E+00         0.00000E+00        -0.18666E+08
 
   -0.18622E+08         0.10361E+06         0.00000E+00
    0.10361E+06        -0.18989E+07         0.00000E+00
    0.00000E+00         0.00000E+00        -0.18645E+08
 
   -0.18602E+08         0.11384E+06         0.00000E+00
    0.11384E+06        -0.19002E+07         0.00000E+00
    0.00000E+00         0.00000E+00        -0.18625E+08
 
   -0.18582E+08         0.12374E+06         0.00000E+00
    0.12374E+06        -0.19022E+07         0.00000E+00
    0.00000E+00         0.00000E+00        -0.18604E+08
 
   -0.18562E+08         0.13335E+06         0.00000E+00
    0.13335E+06        -0.19045E+07         0.00000E+00
    0.00000E+00         0.00000E+00        -0.18583E+08
 
   -0.18542E+08         0.14270E+06         0.00000E+00
    0.14270E+06        -0.19070E+07         0.00000E+00
    0.00000E+00         0.00000E+00        -0.18562E+08
 
   -0.18521E+08         0.15179E+06         0.00000E+00
    0.15179E+06        -0.19094E+07         0.00000E+00
    0.00000E+00         0.00000E+00        -0.18541E+08
 
   -0.18500E+08         0.16066E+06         0.00000E+00
    0.16066E+06        -0.19118E+07         0.00000E+00
    0.00000E+00         0.00000E+00        -0.18520E+08
 
   -0.18478E+08         0.16929E+06         0.00000E+00
    0.16929E+06        -0.19141E+07         0.00000E+00
    0.00000E+00         0.00000E+00        -0.18498E+08
 
   -0.18456E+08         0.17771E+06         0.00000E+00
    0.17771E+06        -0.19161E+07         0.00000E+00
    0.00000E+00         0.00000E+00        -0.18475E+08
 
   -0.18434E+08         0.18593E+06         0.00000E+00
    0.18593E+06        -0.19180E+07         0.00000E+00
    0.00000E+00         0.00000E+00        -0.18452E+08
 
   -0.18411E+08         0.19397E+06         0.00000E+00
    0.19397E+06        -0.19197E+07         0.00000E+00
    0.00000E+00         0.00000E+00        -0.18429E+08
 
   -0.18387E+08         0.20184E+06         0.00000E+00
    0.20184E+06        -0.19211E+07         0.00000E+00
    0.00000E+00         0.00000E+00        -0.18405E+08
 
   -0.18363E+08         0.20956E+06         0.00000E+00
    0.20956E+06        -0.19223E+07         0.00000E+00
    0.00000E+00         0.00000E+00        -0.18381E+08
 
   -0.18338E+08         0.21716E+06         0.00000E+00
    0.21716E+06        -0.19234E+07         0.00000E+00
    0.00000E+00         0.00000E+00        -0.18356E+08
 
   -0.18313E+08         0.22465E+06         0.00000E+00
    0.22465E+06        -0.19242E+07         0.00000E+00
    0.00000E+00         0.00000E+00        -0.18330E+08
 
   -0.18287E+08         0.23205E+06         0.00000E+00
    0.23205E+06        -0.19250E+07         0.00000E+00
    0.00000E+00         0.00000E+00        -0.18304E+08
 
   -0.18261E+08         0.23938E+06         0.00000E+00
    0.23938E+06        -0.19255E+07         0.00000E+00
    0.00000E+00         0.00000E+00        -0.18278E+08
 
   -0.18233E+08         0.24666E+06         0.00000E+00
    0.24666E+06        -0.19260E+07         0.00000E+00
    0.00000E+00         0.00000E+00        -0.18250E+08
 
   -0.18205E+08         0.25390E+06         0.00000E+00
    0.25390E+06        -0.19263E+07         0.00000E+00
    0.00000E+00         0.00000E+00        -0.18222E+08
 
   -0.18177E+08         0.26112E+06         0.00000E+00
    0.26112E+06        -0.19266E+07         0.00000E+00
    0.00000E+00         0.00000E+00        -0.18194E+08
 
   -0.18148E+08         0.26834E+06         0.00000E+00
    0.26834E+06        -0.19267E+07         0.00000E+00
    0.00000E+00         0.00000E+00        -0.18165E+08
 
   -0.18118E+08         0.27557E+06         0.00000E+00
    0.27557E+06        -0.19268E+07         0.00000E+00
    0.00000E+00         0.00000E+00        -0.18135E+08
 
   -0.18087E+08         0.28282E+06         0.00000E+00
    0.28282E+06        -0.19268E+07         0.00000E+00
    0.00000E+00         0.00000E+00        -0.18104E+08
 
   -0.18055E+08         0.29011E+06         0.00000E+00
    0.29011E+06        -0.19268E+07         0.00000E+00
    0.00000E+00         0.00000E+00        -0.18073E+08
 
   -0.18023E+08         0.29743E+06         0.00000E+00
    0.29743E+06        -0.19267E+07         0.00000E+00
    0.00000E+00         0.00000E+00        -0.18041E+08
 
   -0.17990E+08         0.30480E+06         0.00000E+00
    0.30480E+06        -0.19266E+07         0.00000E+00
    0.00000E+00         0.00000E+00        -0.18008E+08
 
   -0.17956E+08         0.31222E+06         0.00000E+00
    0.31222E+06        -0.19265E+07         0.00000E+00
    0.00000E+00         0.00000E+00        -0.17974E+08
 
   -0.17922E+08         0.31970E+06         0.00000E+00
    0.31970E+06        -0.19263E+07         0.00000E+00
    0.00000E+00         0.00000E+00        -0.17940E+08
 
   -0.17886E+08         0.32725E+06         0.00000E+00
    0.32725E+06        -0.19261E+07         0.00000E+00
    0.00000E+00         0.00000E+00        -0.17905E+08
 
   -0.17850E+08         0.33486E+06         0.00000E+00
    0.33486E+06        -0.19259E+07         0.00000E+00
    0.00000E+00         0.00000E+00        -0.17869E+08
 
   -0.17813E+08         0.34254E+06         0.00000E+00
    0.34254E+06        -0.19257E+07         0.00000E+00
    0.00000E+00         0.00000E+00        -0.17832E+08
 
   -0.17775E+08         0.35030E+06         0.00000E+00
    0.35030E+06        -0.19255E+07         0.00000E+00
    0.00000E+00         0.00000E+00        -0.17794E+08
 
   -0.17736E+08         0.35811E+06         0.00000E+00
    0.35811E+06        -0.19253E+07         0.00000E+00
    0.00000E+00         0.00000E+00        -0.17755E+08
 
   -0.17696E+08         0.36600E+06         0.00000E+00
    0.36600E+06        -0.19251E+07         0.00000E+00
    0.00000E+00         0.00000E+00        -0.17716E+08
 
   -0.17656E+08         0.37395E+06         0.00000E+00
    0.37395E+06        -0.19249E+07         0.00000E+00
    0.00000E+00         0.00000E+00        -0.17675E+08
 
   -0.17614E+08         0.38197E+06         0.00000E+00
    0.38197E+06        -0.19247E+07         0.00000E+00
    0.00000E+00         0.00000E+00        -0.17634E+08
 
   -0.17572E+08         0.39004E+06         0.00000E+00
    0.39004E+06        -0.19246E+07         0.00000E+00
    0.00000E+00         0.00000E+00        -0.17591E+08
 
   -0.17528E+08         0.39816E+06         0.00000E+00
    0.39816E+06        -0.19244E+07         0.00000E+00
    0.00000E+00         0.00000E+00        -0.17548E+08
 
   -0.17484E+08         0.40633E+06         0.00000E+00
    0.40633E+06        -0.19243E+07         0.00000E+00
    0.00000E+00         0.00000E+00        -0.17503E+08
 
   -0.17438E+08         0.41453E+06         0.00000E+00
    0.41453E+06        -0.19243E+07         0.00000E+00
    0.00000E+00         0.00000E+00        -0.17458E+08
 
   -0.17391E+08         0.42277E+06         0.00000E+00
    0.42277E+06        -0.19243E+07         0.00000E+00
    0.00000E+00         0.00000E+00        -0.17412E+08
 
   -0.17344E+08         0.43102E+06         0.00000E+00
    0.43102E+06        -0.19243E+07         0.00000E+00
    0.00000E+00         0.00000E+00        -0.17364E+08
 
   -0.17295E+08         0.43928E+06         0.00000E+00
    0.43928E+06        -0.19244E+07         0.00000E+00
    0.00000E+00         0.00000E+00        -0.17316E+08
 
   -0.17246E+08         0.44755E+06         0.00000E+00
    0.44755E+06        -0.19246E+07         0.00000E+00
    0.00000E+00         0.00000E+00        -0.17266E+08
 
   -0.17195E+08         0.45579E+06         0.00000E+00
    0.45579E+06        -0.19248E+07         0.00000E+00
    0.00000E+00         0.00000E+00        -0.17215E+08
 
   -0.17143E+08         0.46401E+06         0.00000E+00
    0.46401E+06        -0.19251E+07         0.00000E+00
    0.00000E+00         0.00000E+00        -0.17163E+08
 
   -0.17091E+08         0.47218E+06         0.00000E+00
    0.47218E+06        -0.19255E+07         0.00000E+00
    0.00000E+00         0.00000E+00        -0.17111E+08
 
   -0.17037E+08         0.48029E+06         0.00000E+00
    0.48029E+06        -0.19259E+07         0.00000E+00
    0.00000E+00         0.00000E+00        -0.17057E+08
 
   -0.16982E+08         0.48832E+06         0.00000E+00
    0.48832E+06        -0.19265E+07         0.00000E+00
    0.00000E+00         0.00000E+00        -0.17001E+08
 
   -0.16926E+08         0.49625E+06         0.00000E+00
    0.49625E+06        -0.19271E+07         0.00000E+00
    0.00000E+00         0.00000E+00        -0.16945E+08
 
   -0.16869E+08         0.50405E+06         0.00000E+00
    0.50405E+06        -0.19279E+07         0.00000E+00
    0.00000E+00         0.00000E+00        -0.16888E+08
 
   -0.16810E+08         0.51172E+06         0.00000E+00
    0.51172E+06        -0.19288E+07         0.00000E+00
    0.00000E+00         0.00000E+00        -0.16829E+08
 
   -0.16751E+08         0.51921E+06         0.00000E+00
    0.51921E+06        -0.19298E+07         0.00000E+00
    0.00000E+00         0.00000E+00        -0.16769E+08
 
   -0.16691E+08         0.52651E+06         0.00000E+00
    0.52651E+06        -0.19309E+07         0.00000E+00
    0.00000E+00         0.00000E+00        -0.16709E+08
 
   -0.16629E+08         0.53358E+06         0.00000E+00
    0.53358E+06        -0.19322E+07         0.00000E+00
    0.00000E+00         0.00000E+00        -0.16647E+08
 
   -0.16567E+08         0.54039E+06         0.00000E+00
    0.54039E+06        -0.19336E+07         0.00000E+00
    0.00000E+00         0.00000E+00        -0.16584E+08
 
   -0.16503E+08         0.54691E+06         0.00000E+00
    0.54691E+06        -0.19352E+07         0.00000E+00
    0.00000E+00         0.00000E+00        -0.16519E+08
 
   -0.16439E+08         0.55311E+06         0.00000E+00
    0.55311E+06        -0.19370E+07         0.00000E+00
    0.00000E+00         0.00000E+00        -0.16454E+08
 
   -0.16373E+08         0.55894E+06         0.00000E+00
    0.55894E+06        -0.19390E+07         0.00000E+00
    0.00000E+00         0.00000E+00        -0.16387E+08
 
   -0.16306E+08         0.56436E+06         0.00000E+00
    0.56436E+06        -0.19412E+07         0.00000E+00
    0.00000E+00         0.00000E+00        -0.16320E+08
 
   -0.16239E+08         0.56932E+06         0.00000E+00
    0.56932E+06        -0.19436E+07         0.00000E+00
    0.00000E+00         0.00000E+00        -0.16251E+08
 
   -0.16170E+08         0.57378E+06         0.00000E+00
    0.57378E+06        -0.19463E+07         0.00000E+00
    0.00000E+00         0.00000E+00        -0.16181E+08
 
   -0.16101E+08         0.57769E+06         0.00000E+00
    0.57769E+06        -0.19493E+07         0.00000E+00
    0.00000E+00         0.00000E+00        -0.16111E+08
 
   -0.16030E+08         0.58099E+06         0.00000E+00
    0.58099E+06        -0.19525E+07         0.00000E+00
    0.00000E+00         0.00000E+00        -0.16039E+08
 
   -0.15959E+08         0.58361E+06         0.00000E+00
    0.58361E+06        -0.19561E+07         0.00000E+00
    0.00000E+00         0.00000E+00        -0.15966E+08
 
   -0.15887E+08         0.58550E+06         0.00000E+00
    0.58550E+06        -0.19601E+07         0.00000E+00
    0.00000E+00         0.00000E+00        -0.15892E+08
 
   -0.15814E+08         0.58658E+06         0.00000E+00
    0.58658E+06        -0.19644E+07         0.00000E+00
    0.00000E+00         0.00000E+00        -0.15817E+08
 
   -0.15740E+08         0.58678E+06         0.00000E+00
    0.58678E+06        -0.19692E+07         0.00000E+00
    0.00000E+00         0.00000E+00        -0.15742E+08
 
   -0.15666E+08         0.58603E+06         0.00000E+00
    0.58603E+06        -0.19745E+07         0.00000E+00
    0.00000E+00         0.00000E+00        -0.15665E+08
 
   -0.15591E+08         0.58424E+06         0.00000E+00
    0.58424E+06        -0.19803E+07         0.00000E+00
    0.00000E+00         0.00000E+00        -0.15588E+08
 
   -0.15516E+08         0.58133E+06         0.00000E+00
    0.58133E+06        -0.19867E+07         0.00000E+00
    0.00000E+00         0.00000E+00        -0.15510E+08
 
   -0.15440E+08         0.57721E+06         0.00000E+00
    0.57721E+06        -0.19937E+07         0.00000E+00
    0.00000E+00         0.00000E+00        -0.15431E+08
 
   -0.15363E+08         0.57180E+06         0.00000E+00
    0.57180E+06        -0.20014E+07         0.00000E+00
    0.00000E+00         0.00000E+00        -0.15351E+08
 
   -0.15286E+08         0.56500E+06         0.00000E+00
    0.56500E+06        -0.20099E+07         0.00000E+00
    0.00000E+00         0.00000E+00        -0.15271E+08
 
   -0.15209E+08         0.55673E+06         0.00000E+00
    0.55673E+06        -0.20192E+07         0.00000E+00
    0.00000E+00         0.00000E+00        -0.15191E+08
 
   -0.15132E+08         0.54691E+06         0.00000E+00
    0.54691E+06        -0.20294E+07         0.00000E+00
    0.00000E+00         0.00000E+00        -0.15110E+08
 
   -0.15054E+08         0.53546E+06         0.00000E+00
    0.53546E+06        -0.20404E+07         0.00000E+00
    0.00000E+00         0.00000E+00        -0.15028E+08
 
   -0.14975E+08         0.52232E+06         0.00000E+00
    0.52232E+06        -0.20523E+07         0.00000E+00
    0.00000E+00         0.00000E+00        -0.14946E+08
 
   -0.14897E+08         0.50742E+06         0.00000E+00
    0.50742E+06        -0.20650E+07         0.00000E+00
    0.00000E+00         0.00000E+00        -0.14863E+08
 
   -0.14818E+08         0.49072E+06         0.00000E+00
    0.49072E+06        -0.20785E+07         0.00000E+00
    0.00000E+00         0.00000E+00        -0.14780E+08
 
   -0.14738E+08         0.47219E+06         0.00000E+00
    0.47219E+06        -0.20924E+07         0.00000E+00
    0.00000E+00         0.00000E+00        -0.14697E+08
 
   -0.14658E+08         0.45180E+06         0.00000E+00
    0.45180E+06        -0.21065E+07         0.00000E+00
    0.00000E+00         0.00000E+00        -0.14613E+08
 
   -0.14578E+08         0.42952E+06         0.00000E+00
    0.42952E+06        -0.21203E+07         0.00000E+00
    0.00000E+00         0.00000E+00        -0.14528E+08
 
   -0.14496E+08         0.40534E+06         0.00000E+00
    0.40534E+06        -0.21331E+07         0.00000E+00
    0.00000E+00         0.00000E+00        -0.14442E+08
 
   -0.14414E+08         0.37916E+06         0.00000E+00
    0.37916E+06        -0.21440E+07         0.00000E+00
    0.00000E+00         0.00000E+00        -0.14355E+08
 
   -0.14331E+08         0.35084E+06         0.00000E+00
    0.35084E+06        -0.21517E+07         0.00000E+00
    0.00000E+00         0.00000E+00        -0.14266E+08
 
   -0.14247E+08         0.32009E+06         0.00000E+00
    0.32009E+06        -0.21545E+07         0.00000E+00
    0.00000E+00         0.00000E+00        -0.14176E+08
 
   -0.14162E+08         0.28638E+06         0.00000E+00
    0.28638E+06        -0.21504E+07         0.00000E+00
    0.00000E+00         0.00000E+00        -0.14082E+08
 
   -0.14078E+08         0.24882E+06         0.00000E+00
    0.24882E+06        -0.21368E+07         0.00000E+00
    0.00000E+00         0.00000E+00        -0.13986E+08
 
   -0.13995E+08         0.20600E+06         0.00000E+00
    0.20600E+06        -0.21106E+07         0.00000E+00
    0.00000E+00         0.00000E+00        -0.13887E+08
 
   -0.13918E+08         0.15573E+06         0.00000E+00
    0.15573E+06        -0.20682E+07         0.00000E+00
    0.00000E+00         0.00000E+00        -0.13784E+08
 
   -0.13854E+08         0.96695E+05         0.00000E+00
    0.96695E+05        -0.20046E+07         0.00000E+00
    0.00000E+00         0.00000E+00        -0.13678E+08
 
   -0.13817E+08         0.32506E+05         0.00000E+00
    0.32506E+05        -0.19209E+07         0.00000E+00
    0.00000E+00         0.00000E+00        -0.13575E+08
 
   -0.18728E+08         0.79989E+04         0.00000E+00
    0.79989E+04        -0.19530E+07         0.00000E+00
    0.00000E+00         0.00000E+00        -0.18797E+08
 
   -0.18721E+08         0.24006E+05         0.00000E+00
    0.24006E+05        -0.19348E+07         0.00000E+00
    0.00000E+00         0.00000E+00        -0.18774E+08
 
   -0.18708E+08         0.39420E+05         0.00000E+00
    0.39420E+05        -0.19208E+07         0.00000E+00
    0.00000E+00         0.00000E+00        -0.18752E+08
 
   -0.18692E+08         0.53472E+05         0.00000E+00
    0.53472E+05        -0.19112E+07         0.00000E+00
    0.00000E+00         0.00000E+00        -0.18729E+08
 
   -0.18674E+08         0.66205E+05         0.00000E+00
    0.66205E+05        -0.19052E+07         0.00000E+00
    0.00000E+00         0.00000E+00        -0.18707E+08
 
   -0.18655E+08         0.77986E+05         0.00000E+00
    0.77986E+05        -0.19020E+07         0.00000E+00
    0.00000E+00         0.00000E+00        -0.18686E+08
 
   -0.18636E+08         0.89086E+05         0.00000E+00
    0.89086E+05        -0.19008E+07         0.00000E+00
    0.00000E+00         0.00000E+00        -0.18665E+08
 
   -0.18617E+08         0.99679E+05         0.00000E+00
    0.99679E+05        -0.19010E+07         0.00000E+00
    0.00000E+00         0.00000E+00        -0.18644E+08
 
   -0.18597E+08         0.10987E+06         0.00000E+00
    0.10987E+06        -0.19022E+07         0.00000E+00
    0.00000E+00         0.00000E+00        -0.18624E+08
 
   -0.18577E+08         0.11974E+06         0.00000E+00
    0.11974E+06        -0.19041E+07         0.00000E+00
    0.00000E+00         0.00000E+00        -0.18603E+08
 
   -0.18557E+08         0.12930E+06         0.00000E+00
    0.12930E+06        -0.19064E+07         0.00000E+00
    0.00000E+00         0.00000E+00        -0.18582E+08
 
   -0.18537E+08         0.13859E+06         0.00000E+00
    0.13859E+06        -0.19088E+07         0.00000E+00
    0.00000E+00         0.00000E+00        -0.18562E+08
 
   -0.18516E+08         0.14762E+06         0.00000E+00
    0.14762E+06        -0.19112E+07         0.00000E+00
    0.00000E+00         0.00000E+00        -0.18540E+08
 
   -0.18495E+08         0.15641E+06         0.00000E+00
    0.15641E+06        -0.19136E+07         0.00000E+00
    0.00000E+00         0.00000E+00        -0.18519E+08
 
   -0.18474E+08         0.16495E+06         0.00000E+00
    0.16495E+06        -0.19158E+07         0.00000E+00
    0.00000E+00         0.00000E+00        -0.18497E+08
 
   -0.18452E+08         0.17328E+06         0.00000E+00
    0.17328E+06        -0.19178E+07         0.00000E+00
    0.00000E+00         0.00000E+00        -0.18474E+08
 
   -0.18430E+08         0.18140E+06         0.00000E+00
    0.18140E+06        -0.19196E+07         0.00000E+00
    0.00000E+00         0.00000E+00        -0.18452E+08
 
   -0.18407E+08         0.18932E+06         0.00000E+00
    0.18932E+06        -0.19212E+07         0.00000E+00
    0.00000E+00         0.00000E+00        -0.18428E+08
 
   -0.18383E+08         0.19708E+06         0.00000E+00
    0.19708E+06        -0.19226E+07         0.00000E+00
    0.00000E+00         0.00000E+00        -0.18405E+08
 
   -0.18359E+08         0.20469E+06         0.00000E+00
    0.20469E+06        -0.19238E+07         0.00000E+00
    0.00000E+00         0.00000E+00        -0.18380E+08
 
   -0.18335E+08         0.21216E+06         0.00000E+00
    0.21216E+06        -0.19249E+07         0.00000E+00
    0.00000E+00         0.00000E+00        -0.18355E+08
 
   -0.18309E+08         0.21953E+06         0.00000E+00
    0.21953E+06        -0.19257E+07         0.00000E+00
    0.00000E+00         0.00000E+00        -0.18330E+08
 
   -0.18283E+08         0.22680E+06         0.00000E+00
    0.22680E+06        -0.19264E+07         0.00000E+00
    0.00000E+00         0.00000E+00        -0.18304E+08
 
   -0.18257E+08         0.23400E+06         0.00000E+00
    0.23400E+06        -0.19270E+07         0.00000E+00
    0.00000E+00         0.00000E+00        -0.18277E+08
 
   -0.18230E+08         0.24114E+06         0.00000E+00
    0.24114E+06        -0.19274E+07         0.00000E+00
    0.00000E+00         0.00000E+00        -0.18250E+08
 
   -0.18202E+08         0.24825E+06         0.00000E+00
    0.24825E+06        -0.19278E+07         0.00000E+00
    0.00000E+00         0.00000E+00        -0.18222E+08
 
   -0.18173E+08         0.25534E+06         0.00000E+00
    0.25534E+06        -0.19280E+07         0.00000E+00
    0.00000E+00         0.00000E+00        -0.18193E+08
 
   -0.18144E+08         0.26242E+06         0.00000E+00
    0.26242E+06        -0.19282E+07         0.00000E+00
    0.00000E+00         0.00000E+00        -0.18164E+08
 
   -0.18114E+08         0.26950E+06         0.00000E+00
    0.26950E+06        -0.19283E+07         0.00000E+00
    0.00000E+00         0.00000E+00        -0.18134E+08
 
   -0.18083E+08         0.27660E+06         0.00000E+00
    0.27660E+06        -0.19283E+07         0.00000E+00
    0.00000E+00         0.00000E+00        -0.18103E+08
 
   -0.18052E+08         0.28374E+06         0.00000E+00
    0.28374E+06        -0.19283E+07         0.00000E+00
    0.00000E+00         0.00000E+00        -0.18072E+08
 
   -0.18019E+08         0.29090E+06         0.00000E+00
    0.29090E+06        -0.19282E+07         0.00000E+00
    0.00000E+00         0.00000E+00        -0.18040E+08
 
   -0.17986E+08         0.29812E+06         0.00000E+00
    0.29812E+06        -0.19281E+07         0.00000E+00
    0.00000E+00         0.00000E+00        -0.18007E+08
 
   -0.17953E+08         0.30538E+06         0.00000E+00
    0.30538E+06        -0.19279E+07         0.00000E+00
    0.00000E+00         0.00000E+00        -0.17974E+08
 
   -0.17918E+08         0.31270E+06         0.00000E+00
    0.31270E+06        -0.19278E+07         0.00000E+00
    0.00000E+00         0.00000E+00        -0.17939E+08
 
   -0.17883E+08         0.32008E+06         0.00000E+00
    0.32008E+06        -0.19276E+07         0.00000E+00
    0.00000E+00         0.00000E+00        -0.17904E+08
 
   -0.17846E+08         0.32752E+06         0.00000E+00
    0.32752E+06        -0.19274E+07         0.00000E+00
    0.00000E+00         0.00000E+00        -0.17868E+08
 
   -0.17809E+08         0.33503E+06         0.00000E+00
    0.33503E+06        -0.19272E+07         0.00000E+00
    0.00000E+00         0.00000E+00        -0.17831E+08
 
   -0.17771E+08         0.34261E+06         0.00000E+00
    0.34261E+06        -0.19270E+07         0.00000E+00
    0.00000E+00         0.00000E+00        -0.17793E+08
 
   -0.17732E+08         0.35025E+06         0.00000E+00
    0.35025E+06        -0.19268E+07         0.00000E+00
    0.00000E+00         0.00000E+00        -0.17754E+08
 
   -0.17692E+08         0.35795E+06         0.00000E+00
    0.35795E+06        -0.19266E+07         0.00000E+00
    0.00000E+00         0.00000E+00        -0.17715E+08
 
   -0.17652E+08         0.36572E+06         0.00000E+00
    0.36572E+06        -0.19264E+07         0.00000E+00
    0.00000E+00         0.00000E+00        -0.17674E+08
 
   -0.17610E+08         0.37354E+06         0.00000E+00
    0.37354E+06        -0.19263E+07         0.00000E+00
    0.00000E+00         0.00000E+00        -0.17633E+08
 
   -0.17567E+08         0.38142E+06         0.00000E+00
    0.38142E+06        -0.19262E+07         0.00000E+00
    0.00000E+00         0.00000E+00        -0.17590E+08
 
   -0.17524E+08         0.38935E+06         0.00000E+00
    0.38935E+06        -0.19260E+07         0.00000E+00
    0.00000E+00         0.00000E+00        -0.17547E+08
 
   -0.17479E+08         0.39732E+06         0.00000E+00
    0.39732E+06        -0.19260E+07         0.00000E+00
    0.00000E+00         0.00000E+00        -0.17503E+08
 
   -0.17434E+08         0.40532E+06         0.00000E+00
    0.40532E+06        -0.19259E+07         0.00000E+00
    0.00000E+00         0.00000E+00        -0.17457E+08
 
   -0.17387E+08         0.41336E+06         0.00000E+00
    0.41336E+06        -0.19259E+07         0.00000E+00
    0.00000E+00         0.00000E+00        -0.17411E+08
 
   -0.17340E+08         0.42141E+06         0.00000E+00
    0.42141E+06        -0.19260E+07         0.00000E+00
    0.00000E+00         0.00000E+00        -0.17363E+08
 
   -0.17291E+08         0.42946E+06         0.00000E+00
    0.42946E+06        -0.19261E+07         0.00000E+00
    0.00000E+00         0.00000E+00        -0.17315E+08
 
   -0.17241E+08         0.43752E+06         0.00000E+00
    0.43752E+06        -0.19262E+07         0.00000E+00
    0.00000E+00         0.00000E+00        -0.17265E+08
 
   -0.17191E+08         0.44555E+06         0.00000E+00
    0.44555E+06        -0.19264E+07         0.00000E+00
    0.00000E+00         0.00000E+00        -0.17214E+08
 
   -0.17139E+08         0.45356E+06         0.00000E+00
    0.45356E+06        -0.19267E+07         0.00000E+00
    0.00000E+00         0.00000E+00        -0.17163E+08
 
   -0.17086E+08         0.46152E+06         0.00000E+00
    0.46152E+06        -0.19271E+07         0.00000E+00
    0.00000E+00         0.00000E+00        -0.17110E+08
 
   -0.17032E+08         0.46941E+06         0.00000E+00
    0.46941E+06        -0.19275E+07         0.00000E+00
    0.00000E+00         0.00000E+00        -0.17056E+08
 
   -0.16977E+08         0.47722E+06         0.00000E+00
    0.47722E+06        -0.19281E+07         0.00000E+00
    0.00000E+00         0.00000E+00        -0.17001E+08
 
   -0.16921E+08         0.48494E+06         0.00000E+00
    0.48494E+06        -0.19287E+07         0.00000E+00
    0.00000E+00         0.00000E+00        -0.16944E+08
 
   -0.16864E+08         0.49253E+06         0.00000E+00
    0.49253E+06        -0.19294E+07         0.00000E+00
    0.00000E+00         0.00000E+00        -0.16887E+08
 
   -0.16806E+08         0.49998E+06         0.00000E+00
    0.49998E+06        -0.19303E+07         0.00000E+00
    0.00000E+00         0.00000E+00        -0.16828E+08
 
   -0.16747E+08         0.50725E+06         0.00000E+00
    0.50725E+06        -0.19312E+07         0.00000E+00
    0.00000E+00         0.00000E+00        -0.16769E+08
 
   -0.16687E+08         0.51434E+06         0.00000E+00
    0.51434E+06        -0.19323E+07         0.00000E+00
    0.00000E+00         0.00000E+00        -0.16708E+08
 
   -0.16625E+08         0.52119E+06         0.00000E+00
    0.52119E+06        -0.19336E+07         0.00000E+00
    0.00000E+00         0.00000E+00        -0.16646E+08
 
   -0.16563E+08         0.52780E+06         0.00000E+00
    0.52780E+06        -0.19349E+07         0.00000E+00
    0.00000E+00         0.00000E+00        -0.16583E+08
 
   -0.16500E+08         0.53411E+06         0.00000E+00
    0.53411E+06        -0.19365E+07         0.00000E+00
    0.00000E+00         0.00000E+00        -0.16519E+08
 
   -0.16435E+08         0.54010E+06         0.00000E+00
    0.54010E+06        -0.19382E+07         0.00000E+00
    0.00000E+00         0.00000E+00        -0.16453E+08
 
   -0.16370E+08         0.54573E+06         0.00000E+00
    0.54573E+06        -0.19401E+07         0.00000E+00
    0.00000E+00         0.00000E+00        -0.16387E+08
 
   -0.16303E+08         0.55095E+06         0.00000E+00
    0.55095E+06        -0.19422E+07         0.00000E+00
    0.00000E+00         0.00000E+00        -0.16319E+08
 
   -0.16236E+08         0.55573E+06         0.00000E+00
    0.55573E+06        -0.19445E+07         0.00000E+00
    0.00000E+00         0.00000E+00        -0.16251E+08
 
   -0.16168E+08         0.56000E+06         0.00000E+00
    0.56000E+06        -0.19471E+07         0.00000E+00
    0.00000E+00         0.00000E+00        -0.16181E+08
 
   -0.16099E+08         0.56373E+06         0.00000E+00
    0.56373E+06        -0.19500E+07         0.00000E+00
    0.00000E+00         0.00000E+00        -0.16110E+08
 
   -0.16028E+08         0.56685E+06         0.00000E+00
    0.56685E+06        -0.19531E+07         0.00000E+00
    0.00000E+00         0.00000E+00        -0.16038E+08
 
   -0.15957E+08         0.56931E+06         0.00000E+00
    0.56931E+06        -0.19566E+07         0.00000E+00
    0.00000E+00         0.00000E+00        -0.15966E+08
 
   -0.15886E+08         0.57104E+06         0.00000E+00
    0.57104E+06        -0.19604E+07         0.00000E+00
    0.00000E+00         0.00000E+00        -0.15892E+08
 
   -0.15813E+08         0.57198E+06         0.00000E+00
    0.57198E+06        -0.19645E+07         0.00000E+00
    0.00000E+00         0.00000E+00        -0.15817E+08
 
   -0.15740E+08         0.57204E+06         0.00000E+00
    0.57204E+06        -0.19691E+07         0.00000E+00
    0.00000E+00         0.00000E+00        -0.15742E+08
 
   -0.15666E+08         0.57116E+06         0.00000E+00
    0.57116E+06        -0.19742E+07         0.00000E+00
    0.00000E+00         0.00000E+00        -0.15665E+08
 
   -0.15592E+08         0.56925E+06         0.00000E+00
    0.56925E+06        -0.19798E+07         0.00000E+00
    0.00000E+00         0.00000E+00        -0.15588E+08
 
   -0.15517E+08         0.56624E+06         0.00000E+00
    0.56624E+06        -0.19860E+07         0.00000E+00
    0.00000E+00         0.00000E+00        -0.15510E+08
 
   -0.15442E+08         0.56202E+06         0.00000E+00
    0.56202E+06        -0.19927E+07         0.00000E+00
    0.00000E+00         0.00000E+00        -0.15431E+08
 
   -0.15366E+08         0.55652E+06         0.00000E+00
    0.55652E+06        -0.20002E+07         0.00000E+00
    0.00000E+00         0.00000E+00        -0.15352E+08
 
   -0.15290E+08         0.54965E+06         0.00000E+00
    0.54965E+06        -0.20084E+07         0.00000E+00
    0.00000E+00         0.00000E+00        -0.15272E+08
 
   -0.15213E+08         0.54131E+06         0.00000E+00
    0.54131E+06        -0.20174E+07         0.00000E+00
    0.00000E+00         0.00000E+00        -0.15191E+08
 
   -0.15136E+08         0.53143E+06         0.00000E+00
    0.53143E+06        -0.20273E+07         0.00000E+00
    0.00000E+00         0.00000E+00        -0.15110E+08
 
   -0.15059E+08         0.51992E+06         0.00000E+00
    0.51992E+06        -0.20379E+07         0.00000E+00
    0.00000E+00         0.00000E+00        -0.15029E+08
 
   -0.14982E+08         0.50672E+06         0.00000E+00
    0.50672E+06        -0.20495E+07         0.00000E+00
    0.00000E+00         0.00000E+00        -0.14947E+08
 
   -0.14904E+08         0.49175E+06         0.00000E+00
    0.49175E+06        -0.20619E+07         0.00000E+00
    0.00000E+00         0.00000E+00        -0.14864E+08
 
   -0.14826E+08         0.47498E+06         0.00000E+00
    0.47498E+06        -0.20749E+07         0.00000E+00
    0.00000E+00         0.00000E+00        -0.14782E+08
 
   -0.14748E+08         0.45635E+06         0.00000E+00
    0.45635E+06        -0.20885E+07         0.00000E+00
    0.00000E+00         0.00000E+00        -0.14698E+08
 
   -0.14669E+08         0.43584E+06         0.00000E+00
    0.43584E+06        -0.21022E+07         0.00000E+00
    0.00000E+00         0.00000E+00        -0.14614E+08
 
   -0.14589E+08         0.41343E+06         0.00000E+00
    0.41343E+06        -0.21157E+07         0.00000E+00
    0.00000E+00         0.00000E+00        -0.14530E+08
 
   -0.14509E+08         0.38908E+06         0.00000E+00
    0.38908E+06        -0.21281E+07         0.00000E+00
    0.00000E+00         0.00000E+00        -0.14444E+08
 
   -0.14428E+08         0.36272E+06         0.00000E+00
    0.36272E+06        -0.21386E+07         0.00000E+00
    0.00000E+00         0.00000E+00        -0.14357E+08
 
   -0.14346E+08         0.33423E+06         0.00000E+00
    0.33423E+06        -0.21458E+07         0.00000E+00
    0.00000E+00         0.00000E+00        -0.14269E+08
 
   -0.14263E+08         0.30336E+06         0.00000E+00
    0.30336E+06        -0.21481E+07         0.00000E+00
    0.00000E+00         0.00000E+00        -0.14179E+08
 
   -0.14181E+08         0.26966E+06         0.00000E+00
    0.26966E+06        -0.21433E+07         0.00000E+00
    0.00000E+00         0.00000E+00        -0.14086E+08
 
   -0.14099E+08         0.23236E+06         0.00000E+00
    0.23236E+06        -0.21288E+07         0.00000E+00
    0.00000E+00         0.00000E+00        -0.13990E+08
 
   -0.14021E+08         0.19028E+06         0.00000E+00
    0.19028E+06        -0.21015E+07         0.00000E+00
    0.00000E+00         0.00000E+00        -0.13892E+08
 
   -0.13949E+08         0.14181E+06         0.00000E+00
    0.14181E+06        -0.20575E+07         0.00000E+00
    0.00000E+00         0.00000E+00        -0.13790E+08
 
   -0.13891E+08         0.86817E+05         0.00000E+00
    0.86817E+05        -0.19926E+07         0.00000E+00
    0.00000E+00         0.00000E+00        -0.13686E+08
 
   -0.13859E+08         0.28941E+05         0.00000E+00
    0.28941E+05        -0.19087E+07         0.00000E+00
    0.00000E+00         0.00000E+00        -0.13584E+08
 
   -0.18717E+08         0.73137E+04         0.00000E+00
    0.73137E+04        -0.19560E+07         0.00000E+00
    0.00000E+00         0.00000E+00        -0.18794E+08
 
   -0.18711E+08         0.22059E+05         0.00000E+00
    0.22059E+05        -0.19379E+07         0.00000E+00
    0.00000E+00         0.00000E+00        -0.18772E+08
 
   -0.18699E+08         0.36565E+05         0.00000E+00
    0.36565E+05        -0.19237E+07         0.00000E+00
    0.00000E+00         0.00000E+00        -0.18750E+08
 
   -0.18684E+08         0.50122E+05         0.00000E+00
    0.50122E+05        -0.19139E+07         0.00000E+00
    0.00000E+00         0.00000E+00        -0.18728E+08
 
   -0.18667E+08         0.62601E+05         0.00000E+00
    0.62601E+05        -0.19077E+07         0.00000E+00
    0.00000E+00         0.00000E+00        -0.18706E+08
 
   -0.18649E+08         0.74242E+05         0.00000E+00
    0.74242E+05        -0.19043E+07         0.00000E+00
    0.00000E+00         0.00000E+00        -0.18685E+08
 
   -0.18630E+08         0.85261E+05         0.00000E+00
    0.85261E+05        -0.19029E+07         0.00000E+00
    0.00000E+00         0.00000E+00        -0.18664E+08
 
   -0.18611E+08         0.95802E+05         0.00000E+00
    0.95802E+05        -0.19031E+07         0.00000E+00
    0.00000E+00         0.00000E+00        -0.18643E+08
 
   -0.18592E+08         0.10596E+06         0.00000E+00
    0.10596E+06        -0.19042E+07         0.00000E+00
    0.00000E+00         0.00000E+00        -0.18623E+08
 
   -0.18572E+08         0.11577E+06         0.00000E+00
    0.11577E+06        -0.19061E+07         0.00000E+00
    0.00000E+00         0.00000E+00        -0.18602E+08
 
   -0.18553E+08         0.12529E+06         0.00000E+00
    0.12529E+06        -0.19083E+07         0.00000E+00
    0.00000E+00         0.00000E+00        -0.18582E+08
 
   -0.18532E+08         0.13452E+06         0.00000E+00
    0.13452E+06        -0.19106E+07         0.00000E+00
    0.00000E+00         0.00000E+00        -0.18561E+08
 
   -0.18512E+08         0.14348E+06         0.00000E+00
    0.14348E+06        -0.19130E+07         0.00000E+00
    0.00000E+00         0.00000E+00        -0.18540E+08
 
   -0.18491E+08         0.15218E+06         0.00000E+00
    0.15218E+06        -0.19153E+07         0.00000E+00
    0.00000E+00         0.00000E+00        -0.18518E+08
 
   -0.18470E+08         0.16064E+06         0.00000E+00
    0.16064E+06        -0.19175E+07         0.00000E+00
    0.00000E+00         0.00000E+00        -0.18496E+08
 
   -0.18448E+08         0.16886E+06         0.00000E+00
    0.16886E+06        -0.19194E+07         0.00000E+00
    0.00000E+00         0.00000E+00        -0.18474E+08
 
   -0.18426E+08         0.17688E+06         0.00000E+00
    0.17688E+06        -0.19212E+07         0.00000E+00
    0.00000E+00         0.00000E+00        -0.18451E+08
 
   -0.18403E+08         0.18469E+06         0.00000E+00
    0.18469E+06        -0.19228E+07         0.00000E+00
    0.00000E+00         0.00000E+00        -0.18428E+08
 
   -0.18380E+08         0.19234E+06         0.00000E+00
    0.19234E+06        -0.19242E+07         0.00000E+00
    0.00000E+00         0.00000E+00        -0.18404E+08
 
   -0.18356E+08         0.19982E+06         0.00000E+00
    0.19982E+06        -0.19253E+07         0.00000E+00
    0.00000E+00         0.00000E+00        -0.18379E+08
 
   -0.18331E+08         0.20718E+06         0.00000E+00
    0.20718E+06        -0.19263E+07         0.00000E+00
    0.00000E+00         0.00000E+00        -0.18355E+08
 
   -0.18306E+08         0.21441E+06         0.00000E+00
    0.21441E+06        -0.19272E+07         0.00000E+00
    0.00000E+00         0.00000E+00        -0.18329E+08
 
   -0.18280E+08         0.22156E+06         0.00000E+00
    0.22156E+06        -0.19279E+07         0.00000E+00
    0.00000E+00         0.00000E+00        -0.18303E+08
 
   -0.18253E+08         0.22862E+06         0.00000E+00
    0.22862E+06        -0.19284E+07         0.00000E+00
    0.00000E+00         0.00000E+00        -0.18276E+08
 
   -0.18226E+08         0.23563E+06         0.00000E+00
    0.23563E+06        -0.19288E+07         0.00000E+00
    0.00000E+00         0.00000E+00        -0.18249E+08
 
   -0.18198E+08         0.24260E+06         0.00000E+00
    0.24260E+06        -0.19292E+07         0.00000E+00
    0.00000E+00         0.00000E+00        -0.18221E+08
 
   -0.18170E+08         0.24955E+06         0.00000E+00
    0.24955E+06        -0.19294E+07         0.00000E+00
    0.00000E+00         0.00000E+00        -0.18193E+08
 
   -0.18140E+08         0.25649E+06         0.00000E+00
    0.25649E+06        -0.19296E+07         0.00000E+00
    0.00000E+00         0.00000E+00        -0.18163E+08
 
   -0.18110E+08         0.26343E+06         0.00000E+00
    0.26343E+06        -0.19297E+07         0.00000E+00
    0.00000E+00         0.00000E+00        -0.18133E+08
 
   -0.18079E+08         0.27038E+06         0.00000E+00
    0.27038E+06        -0.19297E+07         0.00000E+00
    0.00000E+00         0.00000E+00        -0.18103E+08
 
   -0.18048E+08         0.27736E+06         0.00000E+00
    0.27736E+06        -0.19297E+07         0.00000E+00
    0.00000E+00         0.00000E+00        -0.18071E+08
 
   -0.18016E+08         0.28437E+06         0.00000E+00
    0.28437E+06        -0.19296E+07         0.00000E+00
    0.00000E+00         0.00000E+00        -0.18039E+08
 
   -0.17983E+08         0.29143E+06         0.00000E+00
    0.29143E+06        -0.19295E+07         0.00000E+00
    0.00000E+00         0.00000E+00        -0.18006E+08
 
   -0.17949E+08         0.29853E+06         0.00000E+00
    0.29853E+06        -0.19294E+07         0.00000E+00
    0.00000E+00         0.00000E+00        -0.17973E+08
 
   -0.17914E+08         0.30569E+06         0.00000E+00
    0.30569E+06        -0.19292E+07         0.00000E+00
    0.00000E+00         0.00000E+00        -0.17938E+08
 
   -0.17879E+08         0.31290E+06         0.00000E+00
    0.31290E+06        -0.19291E+07         0.00000E+00
    0.00000E+00         0.00000E+00        -0.17903E+08
 
   -0.17842E+08         0.32018E+06         0.00000E+00
    0.32018E+06        -0.19289E+07         0.00000E+00
    0.00000E+00         0.00000E+00        -0.17867E+08
 
   -0.17805E+08         0.32751E+06         0.00000E+00
    0.32751E+06        -0.19287E+07         0.00000E+00
    0.00000E+00         0.00000E+00        -0.17830E+08
 
   -0.17767E+08         0.33491E+06         0.00000E+00
    0.33491E+06        -0.19285E+07         0.00000E+00
    0.00000E+00         0.00000E+00        -0.17792E+08
 
   -0.17728E+08         0.34237E+06         0.00000E+00
    0.34237E+06        -0.19283E+07         0.00000E+00
    0.00000E+00         0.00000E+00        -0.17754E+08
 
   -0.17688E+08         0.34990E+06         0.00000E+00
    0.34990E+06        -0.19281E+07         0.00000E+00
    0.00000E+00         0.00000E+00        -0.17714E+08
 
   -0.17648E+08         0.35748E+06         0.00000E+00
    0.35748E+06        -0.19280E+07         0.00000E+00
    0.00000E+00         0.00000E+00        -0.17674E+08
 
   -0.17606E+08         0.36511E+06         0.00000E+00
    0.36511E+06        -0.19278E+07         0.00000E+00
    0.00000E+00         0.00000E+00        -0.17632E+08
 
   -0.17563E+08         0.37280E+06         0.00000E+00
    0.37280E+06        -0.19277E+07         0.00000E+00
    0.00000E+00         0.00000E+00        -0.17590E+08
 
   -0.17520E+08         0.38053E+06         0.00000E+00
    0.38053E+06        -0.19276E+07         0.00000E+00
    0.00000E+00         0.00000E+00        -0.17546E+08
 
   -0.17475E+08         0.38831E+06         0.00000E+00
    0.38831E+06        -0.19275E+07         0.00000E+00
    0.00000E+00         0.00000E+00        -0.17502E+08
 
   -0.17429E+08         0.39611E+06         0.00000E+00
    0.39611E+06        -0.19275E+07         0.00000E+00
    0.00000E+00         0.00000E+00        -0.17456E+08
 
   -0.17383E+08         0.40395E+06         0.00000E+00
    0.40395E+06        -0.19275E+07         0.00000E+00
    0.00000E+00         0.00000E+00        -0.17410E+08
 
   -0.17335E+08         0.41179E+06         0.00000E+00
    0.41179E+06        -0.19276E+07         0.00000E+00
    0.00000E+00         0.00000E+00        -0.17362E+08
 
   -0.17287E+08         0.41964E+06         0.00000E+00
    0.41964E+06        -0.19277E+07         0.00000E+00
    0.00000E+00         0.00000E+00        -0.17314E+08
 
   -0.17237E+08         0.42749E+06         0.00000E+00
    0.42749E+06        -0.19278E+07         0.00000E+00
    0.00000E+00         0.00000E+00        -0.17264E+08
 
   -0.17186E+08         0.43532E+06         0.00000E+00
    0.43532E+06        -0.19280E+07         0.00000E+00
    0.00000E+00         0.00000E+00        -0.17214E+08
 
   -0.17135E+08         0.44311E+06         0.00000E+00
    0.44311E+06        -0.19283E+07         0.00000E+00
    0.00000E+00         0.00000E+00        -0.17162E+08
 
   -0.17082E+08         0.45086E+06         0.00000E+00
    0.45086E+06        -0.19287E+07         0.00000E+00
    0.00000E+00         0.00000E+00        -0.17109E+08
 
   -0.17028E+08         0.45854E+06         0.00000E+00
    0.45854E+06        -0.19291E+07         0.00000E+00
    0.00000E+00         0.00000E+00        -0.17055E+08
 
   -0.16973E+08         0.46614E+06         0.00000E+00
    0.46614E+06        -0.19296E+07         0.00000E+00
    0.00000E+00         0.00000E+00        -0.17000E+08
 
   -0.16917E+08         0.47364E+06         0.00000E+00
    0.47364E+06        -0.19302E+07         0.00000E+00
    0.00000E+00         0.00000E+00        -0.16944E+08
 
   -0.16860E+08         0.48102E+06         0.00000E+00
    0.48102E+06        -0.19309E+07         0.00000E+00
    0.00000E+00         0.00000E+00        -0.16886E+08
 
   -0.16802E+08         0.48825E+06         0.00000E+00
    0.48825E+06        -0.19317E+07         0.00000E+00
    0.00000E+00         0.00000E+00        -0.16828E+08
 
   -0.16743E+08         0.49532E+06         0.00000E+00
    0.49532E+06        -0.19326E+07         0.00000E+00
    0.00000E+00         0.00000E+00        -0.16768E+08
 
   -0.16683E+08         0.50219E+06         0.00000E+00
    0.50219E+06        -0.19337E+07         0.00000E+00
    0.00000E+00         0.00000E+00        -0.16707E+08
 
   -0.16622E+08         0.50884E+06         0.00000E+00
    0.50884E+06        -0.19349E+07         0.00000E+00
    0.00000E+00         0.00000E+00        -0.16645E+08
 
   -0.16560E+08         0.51523E+06         0.00000E+00
    0.51523E+06        -0.19362E+07         0.00000E+00
    0.00000E+00         0.00000E+00        -0.16582E+08
 
   -0.16496E+08         0.52134E+06         0.00000E+00
    0.52134E+06        -0.19377E+07         0.00000E+00
    0.00000E+00         0.00000E+00        -0.16518E+08
 
   -0.16432E+08         0.52713E+06         0.00000E+00
    0.52713E+06        -0.19393E+07         0.00000E+00
    0.00000E+00         0.00000E+00        -0.16453E+08
 
   -0.16367E+08         0.53256E+06         0.00000E+00
    0.53256E+06        -0.19412E+07         0.00000E+00
    0.00000E+00         0.00000E+00        -0.16386E+08
 
   -0.16301E+08         0.53759E+06         0.00000E+00
    0.53759E+06        -0.19432E+07         0.00000E+00
    0.00000E+00         0.00000E+00        -0.16319E+08
 
   -0.16233E+08         0.54218E+06         0.00000E+00
    0.54218E+06        -0.19454E+07         0.00000E+00
    0.00000E+00         0.00000E+00        -0.16250E+08
 
   -0.16165E+08         0.54628E+06         0.00000E+00
    0.54628E+06        -0.19479E+07         0.00000E+00
    0.00000E+00         0.00000E+00        -0.16180E+08
 
   -0.16096E+08         0.54983E+06         0.00000E+00
    0.54983E+06        -0.19506E+07         0.00000E+00
    0.00000E+00         0.00000E+00        -0.16110E+08
 
   -0.16027E+08         0.55278E+06         0.00000E+00
    0.55278E+06        -0.19536E+07         0.00000E+00
    0.00000E+00         0.00000E+00        -0.16038E+08
 
   -0.15956E+08         0.55508E+06         0.00000E+00
    0.55508E+06        -0.19570E+07         0.00000E+00
    0.00000E+00         0.00000E+00        -0.15965E+08
 
   -0.15885E+08         0.55666E+06         0.00000E+00
    0.55666E+06        -0.19606E+07         0.00000E+00
    0.00000E+00         0.00000E+00        -0.15892E+08
 
   -0.15813E+08         0.55746E+06         0.00000E+00
    0.55746E+06        -0.19646E+07         0.00000E+00
    0.00000E+00         0.00000E+00        -0.15817E+08
 
   -0.15740E+08         0.55739E+06         0.00000E+00
    0.55739E+06        -0.19690E+07         0.00000E+00
    0.00000E+00         0.00000E+00        -0.15741E+08
 
   -0.15667E+08         0.55639E+06         0.00000E+00
    0.55639E+06        -0.19739E+07         0.00000E+00
    0.00000E+00         0.00000E+00        -0.15665E+08
 
   -0.15593E+08         0.55437E+06         0.00000E+00
    0.55437E+06        -0.19793E+07         0.00000E+00
    0.00000E+00         0.00000E+00        -0.15588E+08
 
   -0.15518E+08         0.55126E+06         0.00000E+00
    0.55126E+06        -0.19852E+07         0.00000E+00
    0.00000E+00         0.00000E+00        -0.15510E+08
 
   -0.15443E+08         0.54696E+06         0.00000E+00
    0.54696E+06        -0.19918E+07         0.00000E+00
    0.00000E+00         0.00000E+00        -0.15431E+08
 
   -0.15368E+08         0.54138E+06         0.00000E+00
    0.54138E+06        -0.19990E+07         0.00000E+00
    0.00000E+00         0.00000E+00        -0.15352E+08
 
   -0.15293E+08         0.53444E+06         0.00000E+00
    0.53444E+06        -0.20069E+07         0.00000E+00
    0.00000E+00         0.00000E+00        -0.15272E+08
 
   -0.15217E+08         0.52605E+06         0.00000E+00
    0.52605E+06        -0.20156E+07         0.00000E+00
    0.00000E+00         0.00000E+00        -0.15192E+08
 
   -0.15141E+08         0.51611E+06         0.00000E+00
    0.51611E+06        -0.20251E+07         0.00000E+00
    0.00000E+00         0.00000E+00        -0.15111E+08
 
   -0.15065E+08         0.50456E+06         0.00000E+00
    0.50456E+06        -0.20355E+07         0.00000E+00
    0.00000E+00         0.00000E+00        -0.15030E+08
 
   -0.14988E+08         0.49130E+06         0.00000E+00
    0.49130E+06        -0.20467E+07         0.00000E+00
    0.00000E+00         0.00000E+00        -0.14948E+08
 
   -0.14911E+08         0.47627E+06         0.00000E+00
    0.47627E+06        -0.20587E+07         0.00000E+00
    0.00000E+00         0.00000E+00        -0.14866E+08
 
   -0.14834E+08         0.45943E+06         0.00000E+00
    0.45943E+06        -0.20714E+07         0.00000E+00
    0.00000E+00         0.00000E+00        -0.14783E+08
 
   -0.14757E+08         0.44072E+06         0.00000E+00
    0.44072E+06        -0.20846E+07         0.00000E+00
    0.00000E+00         0.00000E+00        -0.14700E+08
 
   -0.14679E+08         0.42010E+06         0.00000E+00
    0.42010E+06        -0.20979E+07         0.00000E+00
    0.00000E+00         0.00000E+00        -0.14616E+08
 
   -0.14600E+08         0.39757E+06         0.00000E+00
    0.39757E+06        -0.21110E+07         0.00000E+00
    0.00000E+00         0.00000E+00        -0.14532E+08
 
   -0.14521E+08         0.37307E+06         0.00000E+00
    0.37307E+06        -0.21230E+07         0.00000E+00
    0.00000E+00         0.00000E+00        -0.14446E+08
 
   -0.14442E+08         0.34656E+06         0.00000E+00
    0.34656E+06        -0.21331E+07         0.00000E+00
    0.00000E+00         0.00000E+00        -0.14360E+08
 
   -0.14361E+08         0.31795E+06         0.00000E+00
    0.31795E+06        -0.21398E+07         0.00000E+00
    0.00000E+00         0.00000E+00        -0.14272E+08
 
   -0.14281E+08         0.28702E+06         0.00000E+00
    0.28702E+06        -0.21416E+07         0.00000E+00
    0.00000E+00         0.00000E+00        -0.14182E+08
 
   -0.14200E+08         0.25341E+06         0.00000E+00
    0.25341E+06        -0.21362E+07         0.00000E+00
    0.00000E+00         0.00000E+00        -0.14090E+08
 
   -0.14121E+08         0.21652E+06         0.00000E+00
    0.21652E+06        -0.21210E+07         0.00000E+00
    0.00000E+00         0.00000E+00        -0.13995E+08
 
   -0.14046E+08         0.17541E+06         0.00000E+00
    0.17541E+06        -0.20927E+07         0.00000E+00
    0.00000E+00         0.00000E+00        -0.13897E+08
 
   -0.13979E+08         0.12903E+06         0.00000E+00
    0.12903E+06        -0.20473E+07         0.00000E+00
    0.00000E+00         0.00000E+00        -0.13796E+08
 
   -0.13927E+08         0.78057E+05         0.00000E+00
    0.78057E+05        -0.19817E+07         0.00000E+00
    0.00000E+00         0.00000E+00        -0.13693E+08
 
   -0.13898E+08         0.25852E+05         0.00000E+00
    0.25852E+05        -0.18978E+07         0.00000E+00
    0.00000E+00         0.00000E+00        -0.13592E+08
 
   -0.18708E+08         0.67053E+04         0.00000E+00
    0.67053E+04        -0.19588E+07         0.00000E+00
    0.00000E+00         0.00000E+00        -0.18792E+08
 
   -0.18702E+08         0.20302E+05         0.00000E+00
    0.20302E+05        -0.19407E+07         0.00000E+00
    0.00000E+00         0.00000E+00        -0.18771E+08
 
   -0.18691E+08         0.33919E+05         0.00000E+00
    0.33919E+05        -0.19264E+07         0.00000E+00
    0.00000E+00         0.00000E+00        -0.18748E+08
 
   -0.18677E+08         0.46936E+05         0.00000E+00
    0.46936E+05        -0.19164E+07         0.00000E+00
    0.00000E+00         0.00000E+00        -0.18726E+08
 
   -0.18661E+08         0.59119E+05         0.00000E+00
    0.59119E+05        -0.19100E+07         0.00000E+00
    0.00000E+00         0.00000E+00        -0.18705E+08
 
   -0.18643E+08         0.70590E+05         0.00000E+00
    0.70590E+05        -0.19065E+07         0.00000E+00
    0.00000E+00         0.00000E+00        -0.18684E+08
 
   -0.18625E+08         0.81508E+05         0.00000E+00
    0.81508E+05        -0.19051E+07         0.00000E+00
    0.00000E+00         0.00000E+00        -0.18663E+08
 
   -0.18606E+08         0.91982E+05         0.00000E+00
    0.91982E+05        -0.19051E+07         0.00000E+00
    0.00000E+00         0.00000E+00        -0.18642E+08
 
   -0.18587E+08         0.10208E+06         0.00000E+00
    0.10208E+06        -0.19062E+07         0.00000E+00
    0.00000E+00         0.00000E+00        -0.18622E+08
 
   -0.18568E+08         0.11185E+06         0.00000E+00
    0.11185E+06        -0.19080E+07         0.00000E+00
    0.00000E+00         0.00000E+00        -0.18601E+08
 
   -0.18548E+08         0.12131E+06         0.00000E+00
    0.12131E+06        -0.19101E+07         0.00000E+00
    0.00000E+00         0.00000E+00        -0.18581E+08
 
   -0.18528E+08         0.13047E+06         0.00000E+00
    0.13047E+06        -0.19124E+07         0.00000E+00
    0.00000E+00         0.00000E+00        -0.18560E+08
 
   -0.18508E+08         0.13936E+06         0.00000E+00
    0.13936E+06        -0.19148E+07         0.00000E+00
    0.00000E+00         0.00000E+00        -0.18539E+08
 
   -0.18487E+08         0.14798E+06         0.00000E+00
    0.14798E+06        -0.19170E+07         0.00000E+00
    0.00000E+00         0.00000E+00        -0.18517E+08
 
   -0.18466E+08         0.15634E+06         0.00000E+00
    0.15634E+06        -0.19191E+07         0.00000E+00
    0.00000E+00         0.00000E+00        -0.18495E+08
 
   -0.18444E+08         0.16447E+06         0.00000E+00
    0.16447E+06        -0.19211E+07         0.00000E+00
    0.00000E+00         0.00000E+00        -0.18473E+08
 
   -0.18422E+08         0.17237E+06         0.00000E+00
    0.17237E+06        -0.19228E+07         0.00000E+00
    0.00000E+00         0.00000E+00        -0.18450E+08
 
   -0.18399E+08         0.18008E+06         0.00000E+00
    0.18008E+06        -0.19243E+07         0.00000E+00
    0.00000E+00         0.00000E+00        -0.18427E+08
 
   -0.18376E+08         0.18760E+06         0.00000E+00
    0.18760E+06        -0.19257E+07         0.00000E+00
    0.00000E+00         0.00000E+00        -0.18403E+08
 
   -0.18352E+08         0.19497E+06         0.00000E+00
    0.19497E+06        -0.19268E+07         0.00000E+00
    0.00000E+00         0.00000E+00        -0.18379E+08
 
   -0.18327E+08         0.20220E+06         0.00000E+00
    0.20220E+06        -0.19278E+07         0.00000E+00
    0.00000E+00         0.00000E+00        -0.18354E+08
 
   -0.18302E+08         0.20930E+06         0.00000E+00
    0.20930E+06        -0.19286E+07         0.00000E+00
    0.00000E+00         0.00000E+00        -0.18328E+08
 
   -0.18276E+08         0.21632E+06         0.00000E+00
    0.21632E+06        -0.19293E+07         0.00000E+00
    0.00000E+00         0.00000E+00        -0.18302E+08
 
   -0.18250E+08         0.22325E+06         0.00000E+00
    0.22325E+06        -0.19298E+07         0.00000E+00
    0.00000E+00         0.00000E+00        -0.18276E+08
 
   -0.18222E+08         0.23012E+06         0.00000E+00
    0.23012E+06        -0.19302E+07         0.00000E+00
    0.00000E+00         0.00000E+00        -0.18248E+08
 
   -0.18195E+08         0.23696E+06         0.00000E+00
    0.23696E+06        -0.19305E+07         0.00000E+00
    0.00000E+00         0.00000E+00        -0.18220E+08
 
   -0.18166E+08         0.24376E+06         0.00000E+00
    0.24376E+06        -0.19308E+07         0.00000E+00
    0.00000E+00         0.00000E+00        -0.18192E+08
 
   -0.18137E+08         0.25055E+06         0.00000E+00
    0.25055E+06        -0.19309E+07         0.00000E+00
    0.00000E+00         0.00000E+00        -0.18163E+08
 
   -0.18107E+08         0.25735E+06         0.00000E+00
    0.25735E+06        -0.19310E+07         0.00000E+00
    0.00000E+00         0.00000E+00        -0.18133E+08
 
   -0.18076E+08         0.26415E+06         0.00000E+00
    0.26415E+06        -0.19311E+07         0.00000E+00
    0.00000E+00         0.00000E+00        -0.18102E+08
 
   -0.18044E+08         0.27098E+06         0.00000E+00
    0.27098E+06        -0.19311E+07         0.00000E+00
    0.00000E+00         0.00000E+00        -0.18071E+08
 
   -0.18012E+08         0.27784E+06         0.00000E+00
    0.27784E+06        -0.19310E+07         0.00000E+00
    0.00000E+00         0.00000E+00        -0.18039E+08
 
   -0.17979E+08         0.28474E+06         0.00000E+00
    0.28474E+06        -0.19309E+07         0.00000E+00
    0.00000E+00         0.00000E+00        -0.18006E+08
 
   -0.17945E+08         0.29168E+06         0.00000E+00
    0.29168E+06        -0.19308E+07         0.00000E+00
    0.00000E+00         0.00000E+00        -0.17972E+08
 
   -0.17910E+08         0.29867E+06         0.00000E+00
    0.29867E+06        -0.19306E+07         0.00000E+00
    0.00000E+00         0.00000E+00        -0.17938E+08
 
   -0.17875E+08         0.30572E+06         0.00000E+00
    0.30572E+06        -0.19305E+07         0.00000E+00
    0.00000E+00         0.00000E+00        -0.17902E+08
 
   -0.17838E+08         0.31282E+06         0.00000E+00
    0.31282E+06        -0.19303E+07         0.00000E+00
    0.00000E+00         0.00000E+00        -0.17866E+08
 
   -0.17801E+08         0.31999E+06         0.00000E+00
    0.31999E+06        -0.19302E+07         0.00000E+00
    0.00000E+00         0.00000E+00        -0.17829E+08
 
   -0.17763E+08         0.32721E+06         0.00000E+00
    0.32721E+06        -0.19300E+07         0.00000E+00
    0.00000E+00         0.00000E+00        -0.17792E+08
 
   -0.17724E+08         0.33449E+06         0.00000E+00
    0.33449E+06        -0.19298E+07         0.00000E+00
    0.00000E+00         0.00000E+00        -0.17753E+08
 
   -0.17684E+08         0.34183E+06         0.00000E+00
    0.34183E+06        -0.19296E+07         0.00000E+00
    0.00000E+00         0.00000E+00        -0.17713E+08
 
   -0.17643E+08         0.34923E+06         0.00000E+00
    0.34923E+06        -0.19295E+07         0.00000E+00
    0.00000E+00         0.00000E+00        -0.17673E+08
 
   -0.17602E+08         0.35668E+06         0.00000E+00
    0.35668E+06        -0.19294E+07         0.00000E+00
    0.00000E+00         0.00000E+00        -0.17631E+08
 
   -0.17559E+08         0.36417E+06         0.00000E+00
    0.36417E+06        -0.19292E+07         0.00000E+00
    0.00000E+00         0.00000E+00        -0.17589E+08
 
   -0.17515E+08         0.37171E+06         0.00000E+00
    0.37171E+06        -0.19291E+07         0.00000E+00
    0.00000E+00         0.00000E+00        -0.17545E+08
 
   -0.17471E+08         0.37929E+06         0.00000E+00
    0.37929E+06        -0.19291E+07         0.00000E+00
    0.00000E+00         0.00000E+00        -0.17501E+08
 
   -0.17425E+08         0.38690E+06         0.00000E+00
    0.38690E+06        -0.19291E+07         0.00000E+00
    0.00000E+00         0.00000E+00        -0.17456E+08
 
   -0.17379E+08         0.39453E+06         0.00000E+00
    0.39453E+06        -0.19291E+07         0.00000E+00
    0.00000E+00         0.00000E+00        -0.17409E+08
 
   -0.17331E+08         0.40218E+06         0.00000E+00
    0.40218E+06        -0.19291E+07         0.00000E+00
    0.00000E+00         0.00000E+00        -0.17362E+08
 
   -0.17282E+08         0.40982E+06         0.00000E+00
    0.40982E+06        -0.19292E+07         0.00000E+00
    0.00000E+00         0.00000E+00        -0.17313E+08
 
   -0.17233E+08         0.41746E+06         0.00000E+00
    0.41746E+06        -0.19294E+07         0.00000E+00
    0.00000E+00         0.00000E+00        -0.17263E+08
 
   -0.17182E+08         0.42508E+06         0.00000E+00
    0.42508E+06        -0.19296E+07         0.00000E+00
    0.00000E+00         0.00000E+00        -0.17213E+08
 
   -0.17130E+08         0.43266E+06         0.00000E+00
    0.43266E+06        -0.19298E+07         0.00000E+00
    0.00000E+00         0.00000E+00        -0.17161E+08
 
   -0.17078E+08         0.44020E+06         0.00000E+00
    0.44020E+06        -0.19302E+07         0.00000E+00
    0.00000E+00         0.00000E+00        -0.17108E+08
 
   -0.17024E+08         0.44767E+06         0.00000E+00
    0.44767E+06        -0.19306E+07         0.00000E+00
    0.00000E+00         0.00000E+00        -0.17054E+08
 
   -0.16969E+08         0.45506E+06         0.00000E+00
    0.45506E+06        -0.19311E+07         0.00000E+00
    0.00000E+00         0.00000E+00        -0.16999E+08
 
   -0.16913E+08         0.46235E+06         0.00000E+00
    0.46235E+06        -0.19317E+07         0.00000E+00
    0.00000E+00         0.00000E+00        -0.16943E+08
 
   -0.16856E+08         0.46952E+06         0.00000E+00
    0.46952E+06        -0.19324E+07         0.00000E+00
    0.00000E+00         0.00000E+00        -0.16885E+08
 
   -0.16798E+08         0.47654E+06         0.00000E+00
    0.47654E+06        -0.19331E+07         0.00000E+00
    0.00000E+00         0.00000E+00        -0.16827E+08
 
   -0.16739E+08         0.48340E+06         0.00000E+00
    0.48340E+06        -0.19340E+07         0.00000E+00
    0.00000E+00         0.00000E+00        -0.16767E+08
 
   -0.16679E+08         0.49006E+06         0.00000E+00
    0.49006E+06        -0.19350E+07         0.00000E+00
    0.00000E+00         0.00000E+00        -0.16706E+08
 
   -0.16618E+08         0.49650E+06         0.00000E+00
    0.49650E+06        -0.19362E+07         0.00000E+00
    0.00000E+00         0.00000E+00        -0.16645E+08
 
   -0.16556E+08         0.50269E+06         0.00000E+00
    0.50269E+06        -0.19374E+07         0.00000E+00
    0.00000E+00         0.00000E+00        -0.16581E+08
 
   -0.16493E+08         0.50860E+06         0.00000E+00
    0.50860E+06        -0.19389E+07         0.00000E+00
    0.00000E+00         0.00000E+00        -0.16517E+08
 
   -0.16429E+08         0.51420E+06         0.00000E+00
    0.51420E+06        -0.19404E+07         0.00000E+00
    0.00000E+00         0.00000E+00        -0.16452E+08
 
   -0.16364E+08         0.51943E+06         0.00000E+00
    0.51943E+06        -0.19422E+07         0.00000E+00
    0.00000E+00         0.00000E+00        -0.16386E+08
 
   -0.16298E+08         0.52428E+06         0.00000E+00
    0.52428E+06        -0.19441E+07         0.00000E+00
    0.00000E+00         0.00000E+00        -0.16318E+08
 
   -0.16231E+08         0.52868E+06         0.00000E+00
    0.52868E+06        -0.19463E+07         0.00000E+00
    0.00000E+00         0.00000E+00        -0.16250E+08
 
   -0.16163E+08         0.53260E+06         0.00000E+00
    0.53260E+06        -0.19487E+07         0.00000E+00
    0.00000E+00         0.00000E+00        -0.16180E+08
 
   -0.16094E+08         0.53598E+06         0.00000E+00
    0.53598E+06        -0.19513E+07         0.00000E+00
    0.00000E+00         0.00000E+00        -0.16109E+08
 
   -0.16025E+08         0.53878E+06         0.00000E+00
    0.53878E+06        -0.19542E+07         0.00000E+00
    0.00000E+00         0.00000E+00        -0.16038E+08
 
   -0.15954E+08         0.54092E+06         0.00000E+00
    0.54092E+06        -0.19573E+07         0.00000E+00
    0.00000E+00         0.00000E+00        -0.15965E+08
 
   -0.15883E+08         0.54236E+06         0.00000E+00
    0.54236E+06        -0.19608E+07         0.00000E+00
    0.00000E+00         0.00000E+00        -0.15891E+08
 
   -0.15812E+08         0.54302E+06         0.00000E+00
    0.54302E+06        -0.19647E+07         0.00000E+00
    0.00000E+00         0.00000E+00        -0.15817E+08
 
   -0.15739E+08         0.54283E+06         0.00000E+00
    0.54283E+06        -0.19689E+07         0.00000E+00
    0.00000E+00         0.00000E+00        -0.15741E+08
 
   -0.15667E+08         0.54172E+06         0.00000E+00
    0.54172E+06        -0.19736E+07         0.00000E+00
    0.00000E+00         0.00000E+00        -0.15665E+08
 
   -0.15593E+08         0.53960E+06         0.00000E+00
    0.53960E+06        -0.19788E+07         0.00000E+00
    0.00000E+00         0.00000E+00        -0.15588E+08
 
   -0.15519E+08         0.53640E+06         0.00000E+00
    0.53640E+06        -0.19845E+07         0.00000E+00
    0.00000E+00         0.00000E+00        -0.15510E+08
 
   -0.15445E+08         0.53202E+06         0.00000E+00
    0.53202E+06        -0.19908E+07         0.00000E+00
    0.00000E+00         0.00000E+00        -0.15432E+08
 
   -0.15371E+08         0.52638E+06         0.00000E+00
    0.52638E+06        -0.19977E+07         0.00000E+00
    0.00000E+00         0.00000E+00        -0.15353E+08
 
   -0.15296E+08         0.51938E+06         0.00000E+00
    0.51938E+06        -0.20054E+07         0.00000E+00
    0.00000E+00         0.00000E+00        -0.15273E+08
 
   -0.15221E+08         0.51094E+06         0.00000E+00
    0.51094E+06        -0.20138E+07         0.00000E+00
    0.00000E+00         0.00000E+00        -0.15193E+08
 
   -0.15145E+08         0.50096E+06         0.00000E+00
    0.50096E+06        -0.20230E+07         0.00000E+00
    0.00000E+00         0.00000E+00        -0.15112E+08
 
   -0.15070E+08         0.48936E+06         0.00000E+00
    0.48936E+06        -0.20330E+07         0.00000E+00
    0.00000E+00         0.00000E+00        -0.15031E+08
 
   -0.14994E+08         0.47606E+06         0.00000E+00
    0.47606E+06        -0.20439E+07         0.00000E+00
    0.00000E+00         0.00000E+00        -0.14949E+08
 
   -0.14918E+08         0.46098E+06         0.00000E+00
    0.46098E+06        -0.20555E+07         0.00000E+00
    0.00000E+00         0.00000E+00        -0.14867E+08
 
   -0.14842E+08         0.44408E+06         0.00000E+00
    0.44408E+06        -0.20678E+07         0.00000E+00
    0.00000E+00         0.00000E+00        -0.14784E+08
 
   -0.14766E+08         0.42529E+06         0.00000E+00
    0.42529E+06        -0.20806E+07         0.00000E+00
    0.00000E+00         0.00000E+00        -0.14701E+08
 
   -0.14689E+08         0.40459E+06         0.00000E+00
    0.40459E+06        -0.20936E+07         0.00000E+00
    0.00000E+00         0.00000E+00        -0.14618E+08
 
   -0.14612E+08         0.38193E+06         0.00000E+00
    0.38193E+06        -0.21063E+07         0.00000E+00
    0.00000E+00         0.00000E+00        -0.14534E+08
 
   -0.14534E+08         0.35731E+06         0.00000E+00
    0.35731E+06        -0.21179E+07         0.00000E+00
    0.00000E+00         0.00000E+00        -0.14449E+08
 
   -0.14456E+08         0.33069E+06         0.00000E+00
    0.33069E+06        -0.21275E+07         0.00000E+00
    0.00000E+00         0.00000E+00        -0.14362E+08
 
   -0.14377E+08         0.30198E+06         0.00000E+00
    0.30198E+06        -0.21339E+07         0.00000E+00
    0.00000E+00         0.00000E+00        -0.14275E+08
 
   -0.14298E+08         0.27106E+06         0.00000E+00
    0.27106E+06        -0.21352E+07         0.00000E+00
    0.00000E+00         0.00000E+00        -0.14185E+08
 
   -0.14220E+08         0.23765E+06         0.00000E+00
    0.23765E+06        -0.21292E+07         0.00000E+00
    0.00000E+00         0.00000E+00        -0.14093E+08
 
   -0.14144E+08         0.20130E+06         0.00000E+00
    0.20130E+06        -0.21133E+07         0.00000E+00
    0.00000E+00         0.00000E+00        -0.13999E+08
 
   -0.14072E+08         0.16133E+06         0.00000E+00
    0.16133E+06        -0.20841E+07         0.00000E+00
    0.00000E+00         0.00000E+00        -0.13902E+08
 
   -0.14009E+08         0.11724E+06         0.00000E+00
    0.11724E+06        -0.20378E+07         0.00000E+00
    0.00000E+00         0.00000E+00        -0.13802E+08
 
   -0.13961E+08         0.70194E+05         0.00000E+00
    0.70194E+05        -0.19717E+07         0.00000E+00
    0.00000E+00         0.00000E+00        -0.13701E+08
 
   -0.13936E+08         0.23125E+05         0.00000E+00
    0.23125E+05        -0.18880E+07         0.00000E+00
    0.00000E+00         0.00000E+00        -0.13601E+08
 
   -0.18698E+08         0.61565E+04         0.00000E+00
    0.61565E+04        -0.19614E+07         0.00000E+00
    0.00000E+00         0.00000E+00        -0.18790E+08
 
   -0.18693E+08         0.18700E+05         0.00000E+00
    0.18700E+05        -0.19434E+07         0.00000E+00
    0.00000E+00         0.00000E+00        -0.18769E+08
 
   -0.18683E+08         0.31454E+05         0.00000E+00
    0.31454E+05        -0.19291E+07         0.00000E+00
    0.00000E+00         0.00000E+00        -0.18747E+08
 
   -0.18670E+08         0.43906E+05         0.00000E+00
    0.43906E+05        -0.19189E+07         0.00000E+00
    0.00000E+00         0.00000E+00        -0.18725E+08
 
   -0.18654E+08         0.55757E+05         0.00000E+00
    0.55757E+05        -0.19124E+07         0.00000E+00
    0.00000E+00         0.00000E+00        -0.18704E+08
 
   -0.18637E+08         0.67031E+05         0.00000E+00
    0.67031E+05        -0.19087E+07         0.00000E+00
    0.00000E+00         0.00000E+00        -0.18683E+08
 
   -0.18619E+08         0.77828E+05         0.00000E+00
    0.77828E+05        -0.19072E+07         0.00000E+00
    0.00000E+00         0.00000E+00        -0.18662E+08
 
   -0.18601E+08         0.88221E+05         0.00000E+00
    0.88221E+05        -0.19072E+07         0.00000E+00
    0.00000E+00         0.00000E+00        -0.18641E+08
 
   -0.18582E+08         0.98259E+05         0.00000E+00
    0.98259E+05        -0.19082E+07         0.00000E+00
    0.00000E+00         0.00000E+00        -0.18621E+08
 
   -0.18563E+08         0.10797E+06         0.00000E+00
    0.10797E+06        -0.19099E+07         0.00000E+00
    0.00000E+00         0.00000E+00        -0.18601E+08
 
   -0.18543E+08         0.11736E+06         0.00000E+00
    0.11736E+06        -0.19120E+07         0.00000E+00
    0.00000E+00         0.00000E+00        -0.18580E+08
 
   -0.18523E+08         0.12646E+06         0.00000E+00
    0.12646E+06        -0.19142E+07         0.00000E+00
    0.00000E+00         0.00000E+00        -0.18559E+08
 
   -0.18503E+08         0.13527E+06         0.00000E+00
    0.13527E+06        -0.19165E+07         0.00000E+00
    0.00000E+00         0.00000E+00        -0.18538E+08
 
   -0.18483E+08         0.14380E+06         0.00000E+00
    0.14380E+06        -0.19187E+07         0.00000E+00
    0.00000E+00         0.00000E+00        -0.18516E+08
 
   -0.18462E+08         0.15207E+06         0.00000E+00
    0.15207E+06        -0.19208E+07         0.00000E+00
    0.00000E+00         0.00000E+00        -0.18495E+08
 
   -0.18440E+08         0.16009E+06         0.00000E+00
    0.16009E+06        -0.19226E+07         0.00000E+00
    0.00000E+00         0.00000E+00        -0.18472E+08
 
   -0.18418E+08         0.16789E+06         0.00000E+00
    0.16789E+06        -0.19243E+07         0.00000E+00
    0.00000E+00         0.00000E+00        -0.18450E+08
 
   -0.18395E+08         0.17548E+06         0.00000E+00
    0.17548E+06        -0.19258E+07         0.00000E+00
    0.00000E+00         0.00000E+00        -0.18426E+08
 
   -0.18372E+08         0.18288E+06         0.00000E+00
    0.18288E+06        -0.19271E+07         0.00000E+00
    0.00000E+00         0.00000E+00        -0.18402E+08
 
   -0.18348E+08         0.19013E+06         0.00000E+00
    0.19013E+06        -0.19282E+07         0.00000E+00
    0.00000E+00         0.00000E+00        -0.18378E+08
 
   -0.18324E+08         0.19723E+06         0.00000E+00
    0.19723E+06        -0.19292E+07         0.00000E+00
    0.00000E+00         0.00000E+00        -0.18353E+08
 
   -0.18298E+08         0.20420E+06         0.00000E+00
    0.20420E+06        -0.19300E+07         0.00000E+00
    0.00000E+00         0.00000E+00        -0.18328E+08
 
   -0.18273E+08         0.21108E+06         0.00000E+00
    0.21108E+06        -0.19306E+07         0.00000E+00
    0.00000E+00         0.00000E+00        -0.18302E+08
 
   -0.18246E+08         0.21788E+06         0.00000E+00
    0.21788E+06        -0.19312E+07         0.00000E+00
    0.00000E+00         0.00000E+00        -0.18275E+08
 
   -0.18219E+08         0.22462E+06         0.00000E+00
    0.22462E+06        -0.19316E+07         0.00000E+00
    0.00000E+00         0.00000E+00        -0.18248E+08
 
   -0.18191E+08         0.23131E+06         0.00000E+00
    0.23131E+06        -0.19319E+07         0.00000E+00
    0.00000E+00         0.00000E+00        -0.18220E+08
 
   -0.18162E+08         0.23797E+06         0.00000E+00
    0.23797E+06        -0.19321E+07         0.00000E+00
    0.00000E+00         0.00000E+00        -0.18191E+08
 
   -0.18133E+08         0.24462E+06         0.00000E+00
    0.24462E+06        -0.19323E+07         0.00000E+00
    0.00000E+00         0.00000E+00        -0.18162E+08
 
   -0.18103E+08         0.25126E+06         0.00000E+00
    0.25126E+06        -0.19324E+07         0.00000E+00
    0.00000E+00         0.00000E+00        -0.18132E+08
 
   -0.18072E+08         0.25792E+06         0.00000E+00
    0.25792E+06        -0.19324E+07         0.00000E+00
    0.00000E+00         0.00000E+00        -0.18101E+08
 
   -0.18041E+08         0.26459E+06         0.00000E+00
    0.26459E+06        -0.19324E+07         0.00000E+00
    0.00000E+00         0.00000E+00        -0.18070E+08
 
   -0.18008E+08         0.27130E+06         0.00000E+00
    0.27130E+06        -0.19324E+07         0.00000E+00
    0.00000E+00         0.00000E+00        -0.18038E+08
 
   -0.17975E+08         0.27803E+06         0.00000E+00
    0.27803E+06        -0.19323E+07         0.00000E+00
    0.00000E+00         0.00000E+00        -0.18005E+08
 
   -0.17941E+08         0.28482E+06         0.00000E+00
    0.28482E+06        -0.19322E+07         0.00000E+00
    0.00000E+00         0.00000E+00        -0.17971E+08
 
   -0.17907E+08         0.29165E+06         0.00000E+00
    0.29165E+06        -0.19320E+07         0.00000E+00
    0.00000E+00         0.00000E+00        -0.17937E+08
 
   -0.17871E+08         0.29853E+06         0.00000E+00
    0.29853E+06        -0.19319E+07         0.00000E+00
    0.00000E+00         0.00000E+00        -0.17902E+08
 
   -0.17835E+08         0.30546E+06         0.00000E+00
    0.30546E+06        -0.19317E+07         0.00000E+00
    0.00000E+00         0.00000E+00        -0.17866E+08
 
   -0.17797E+08         0.31245E+06         0.00000E+00
    0.31245E+06        -0.19316E+07         0.00000E+00
    0.00000E+00         0.00000E+00        -0.17829E+08
 
   -0.17759E+08         0.31950E+06         0.00000E+00
    0.31950E+06        -0.19314E+07         0.00000E+00
    0.00000E+00         0.00000E+00        -0.17791E+08
 
   -0.17720E+08         0.32660E+06         0.00000E+00
    0.32660E+06        -0.19313E+07         0.00000E+00
    0.00000E+00         0.00000E+00        -0.17752E+08
 
   -0.17680E+08         0.33376E+06         0.00000E+00
    0.33376E+06        -0.19311E+07         0.00000E+00
    0.00000E+00         0.00000E+00        -0.17713E+08
 
   -0.17639E+08         0.34097E+06         0.00000E+00
    0.34097E+06        -0.19310E+07         0.00000E+00
    0.00000E+00         0.00000E+00        -0.17672E+08
 
   -0.17598E+08         0.34823E+06         0.00000E+00
    0.34823E+06        -0.19308E+07         0.00000E+00
    0.00000E+00         0.00000E+00        -0.17630E+08
 
   -0.17555E+08         0.35554E+06         0.00000E+00
    0.35554E+06        -0.19307E+07         0.00000E+00
    0.00000E+00         0.00000E+00        -0.17588E+08
 
   -0.17511E+08         0.36289E+06         0.00000E+00
    0.36289E+06        -0.19306E+07         0.00000E+00
    0.00000E+00         0.00000E+00        -0.17545E+08
 
   -0.17467E+08         0.37027E+06         0.00000E+00
    0.37027E+06        -0.19306E+07         0.00000E+00
    0.00000E+00         0.00000E+00        -0.17500E+08
 
   -0.17421E+08         0.37768E+06         0.00000E+00
    0.37768E+06        -0.19306E+07         0.00000E+00
    0.00000E+00         0.00000E+00        -0.17455E+08
 
   -0.17374E+08         0.38511E+06         0.00000E+00
    0.38511E+06        -0.19306E+07         0.00000E+00
    0.00000E+00         0.00000E+00        -0.17408E+08
 
   -0.17327E+08         0.39256E+06         0.00000E+00
    0.39256E+06        -0.19306E+07         0.00000E+00
    0.00000E+00         0.00000E+00        -0.17361E+08
 
   -0.17278E+08         0.40000E+06         0.00000E+00
    0.40000E+06        -0.19307E+07         0.00000E+00
    0.00000E+00         0.00000E+00        -0.17312E+08
 
   -0.17229E+08         0.40743E+06         0.00000E+00
    0.40743E+06        -0.19309E+07         0.00000E+00
    0.00000E+00         0.00000E+00        -0.17263E+08
 
   -0.17178E+08         0.41485E+06         0.00000E+00
    0.41485E+06        -0.19311E+07         0.00000E+00
    0.00000E+00         0.00000E+00        -0.17212E+08
 
   -0.17126E+08         0.42222E+06         0.00000E+00
    0.42222E+06        -0.19313E+07         0.00000E+00
    0.00000E+00         0.00000E+00        -0.17160E+08
 
   -0.17073E+08         0.42955E+06         0.00000E+00
    0.42955E+06        -0.19317E+07         0.00000E+00
    0.00000E+00         0.00000E+00        -0.17107E+08
 
   -0.17020E+08         0.43681E+06         0.00000E+00
    0.43681E+06        -0.19321E+07         0.00000E+00
    0.00000E+00         0.00000E+00        -0.17053E+08
 
   -0.16965E+08         0.44399E+06         0.00000E+00
    0.44399E+06        -0.19325E+07         0.00000E+00
    0.00000E+00         0.00000E+00        -0.16998E+08
 
   -0.16909E+08         0.45107E+06         0.00000E+00
    0.45107E+06        -0.19331E+07         0.00000E+00
    0.00000E+00         0.00000E+00        -0.16942E+08
 
   -0.16852E+08         0.45803E+06         0.00000E+00
    0.45803E+06        -0.19338E+07         0.00000E+00
    0.00000E+00         0.00000E+00        -0.16885E+08
 
   -0.16794E+08         0.46484E+06         0.00000E+00
    0.46484E+06        -0.19345E+07         0.00000E+00
    0.00000E+00         0.00000E+00        -0.16826E+08
 
   -0.16735E+08         0.47149E+06         0.00000E+00
    0.47149E+06        -0.19354E+07         0.00000E+00
    0.00000E+00         0.00000E+00        -0.16766E+08
 
   -0.16675E+08         0.47795E+06         0.00000E+00
    0.47795E+06        -0.19363E+07         0.00000E+00
    0.00000E+00         0.00000E+00        -0.16706E+08
 
   -0.16614E+08         0.48419E+06         0.00000E+00
    0.48419E+06        -0.19374E+07         0.00000E+00
    0.00000E+00         0.00000E+00        -0.16644E+08
 
   -0.16552E+08         0.49018E+06         0.00000E+00
    0.49018E+06        -0.19386E+07         0.00000E+00
    0.00000E+00         0.00000E+00        -0.16581E+08
 
   -0.16489E+08         0.49590E+06         0.00000E+00
    0.49590E+06        -0.19400E+07         0.00000E+00
    0.00000E+00         0.00000E+00        -0.16517E+08
 
   -0.16425E+08         0.50129E+06         0.00000E+00
    0.50129E+06        -0.19415E+07         0.00000E+00
    0.00000E+00         0.00000E+00        -0.16451E+08
 
   -0.16361E+08         0.50634E+06         0.00000E+00
    0.50634E+06        -0.19432E+07         0.00000E+00
    0.00000E+00         0.00000E+00        -0.16385E+08
 
   -0.16295E+08         0.51100E+06         0.00000E+00
    0.51100E+06        -0.19450E+07         0.00000E+00
    0.00000E+00         0.00000E+00        -0.16318E+08
 
   -0.16228E+08         0.51523E+06         0.00000E+00
    0.51523E+06        -0.19471E+07         0.00000E+00
    0.00000E+00         0.00000E+00        -0.16249E+08
 
   -0.16160E+08         0.51897E+06         0.00000E+00
    0.51897E+06        -0.19494E+07         0.00000E+00
    0.00000E+00         0.00000E+00        -0.16179E+08
 
   -0.16092E+08         0.52219E+06         0.00000E+00
    0.52219E+06        -0.19519E+07         0.00000E+00
    0.00000E+00         0.00000E+00        -0.16109E+08
 
   -0.16023E+08         0.52483E+06         0.00000E+00
    0.52483E+06        -0.19546E+07         0.00000E+00
    0.00000E+00         0.00000E+00        -0.16037E+08
 
   -0.15953E+08         0.52683E+06         0.00000E+00
    0.52683E+06        -0.19577E+07         0.00000E+00
    0.00000E+00         0.00000E+00        -0.15965E+08
 
   -0.15882E+08         0.52813E+06         0.00000E+00
    0.52813E+06        -0.19610E+07         0.00000E+00
    0.00000E+00         0.00000E+00        -0.15891E+08
 
   -0.15811E+08         0.52866E+06         0.00000E+00
    0.52866E+06        -0.19647E+07         0.00000E+00
    0.00000E+00         0.00000E+00        -0.15817E+08
 
   -0.15739E+08         0.52836E+06         0.00000E+00
    0.52836E+06        -0.19688E+07         0.00000E+00
    0.00000E+00         0.00000E+00        -0.15741E+08
 
   -0.15667E+08         0.52714E+06         0.00000E+00
    0.52714E+06        -0.19733E+07         0.00000E+00
    0.00000E+00         0.00000E+00        -0.15665E+08
 
   -0.15594E+08         0.52493E+06         0.00000E+00
    0.52493E+06        -0.19782E+07         0.00000E+00
    0.00000E+00         0.00000E+00        -0.15588E+08
 
   -0.15521E+08         0.52165E+06         0.00000E+00
    0.52165E+06        -0.19837E+07         0.00000E+00
    0.00000E+00         0.00000E+00        -0.15510E+08
 
   -0.15447E+08         0.51720E+06         0.00000E+00
    0.51720E+06        -0.19898E+07         0.00000E+00
    0.00000E+00         0.00000E+00        -0.15432E+08
 
   -0.15373E+08         0.51150E+06         0.00000E+00
    0.51150E+06        -0.19964E+07         0.00000E+00
    0.00000E+00         0.00000E+00        -0.15353E+08
 
   -0.15299E+08         0.50446E+06         0.00000E+00
    0.50446E+06        -0.20038E+07         0.00000E+00
    0.00000E+00         0.00000E+00        -0.15273E+08
 
   -0.15224E+08         0.49597E+06         0.00000E+00
    0.49597E+06        -0.20119E+07         0.00000E+00
    0.00000E+00         0.00000E+00        -0.15193E+08
 
   -0.15150E+08         0.48596E+06         0.00000E+00
    0.48596E+06        -0.20208E+07         0.00000E+00
    0.00000E+00         0.00000E+00        -0.15112E+08
 
   -0.15075E+08         0.47433E+06         0.00000E+00
    0.47433E+06        -0.20305E+07         0.00000E+00
    0.00000E+00         0.00000E+00        -0.15031E+08
 
   -0.15001E+08         0.46099E+06         0.00000E+00
    0.46099E+06        -0.20410E+07         0.00000E+00
    0.00000E+00         0.00000E+00        -0.14950E+08
 
   -0.14926E+08         0.44588E+06         0.00000E+00
    0.44588E+06        -0.20523E+07         0.00000E+00
    0.00000E+00         0.00000E+00        -0.14868E+08
 
   -0.14850E+08         0.42893E+06         0.00000E+00
    0.42893E+06        -0.20642E+07         0.00000E+00
    0.00000E+00         0.00000E+00        -0.14786E+08
 
   -0.14775E+08         0.41008E+06         0.00000E+00
    0.41008E+06        -0.20767E+07         0.00000E+00
    0.00000E+00         0.00000E+00        -0.14703E+08
 
   -0.14699E+08         0.38929E+06         0.00000E+00
    0.38929E+06        -0.20893E+07         0.00000E+00
    0.00000E+00         0.00000E+00        -0.14620E+08
 
   -0.14623E+08         0.36655E+06         0.00000E+00
    0.36655E+06        -0.21015E+07         0.00000E+00
    0.00000E+00         0.00000E+00        -0.14536E+08
 
   -0.14547E+08         0.34182E+06         0.00000E+00
    0.34182E+06        -0.21128E+07         0.00000E+00
    0.00000E+00         0.00000E+00        -0.14451E+08
 
   -0.14470E+08         0.31511E+06         0.00000E+00
    0.31511E+06        -0.21220E+07         0.00000E+00
    0.00000E+00         0.00000E+00        -0.14365E+08
 
   -0.14393E+08         0.28636E+06         0.00000E+00
    0.28636E+06        -0.21279E+07         0.00000E+00
    0.00000E+00         0.00000E+00        -0.14278E+08
 
   -0.14316E+08         0.25550E+06         0.00000E+00
    0.25550E+06        -0.21288E+07         0.00000E+00
    0.00000E+00         0.00000E+00        -0.14189E+08
 
   -0.14240E+08         0.22237E+06         0.00000E+00
    0.22237E+06        -0.21223E+07         0.00000E+00
    0.00000E+00         0.00000E+00        -0.14097E+08
 
   -0.14166E+08         0.18667E+06         0.00000E+00
    0.18667E+06        -0.21058E+07         0.00000E+00
    0.00000E+00         0.00000E+00        -0.14004E+08
 
   -0.14098E+08         0.14800E+06         0.00000E+00
    0.14800E+06        -0.20758E+07         0.00000E+00
    0.00000E+00         0.00000E+00        -0.13907E+08
 
   -0.14039E+08         0.10632E+06         0.00000E+00
    0.10632E+06        -0.20289E+07         0.00000E+00
    0.00000E+00         0.00000E+00        -0.13808E+08
 
   -0.13995E+08         0.63062E+05         0.00000E+00
    0.63062E+05        -0.19626E+07         0.00000E+00
    0.00000E+00         0.00000E+00        -0.13708E+08
 
   -0.13972E+08         0.20678E+05         0.00000E+00
    0.20678E+05        -0.18793E+07         0.00000E+00
    0.00000E+00         0.00000E+00        -0.13609E+08
 
   -0.18689E+08         0.56547E+04         0.00000E+00
    0.56547E+04        -0.19638E+07         0.00000E+00
    0.00000E+00         0.00000E+00        -0.18788E+08
 
   -0.18684E+08         0.17223E+05         0.00000E+00
    0.17223E+05        -0.19458E+07         0.00000E+00
    0.00000E+00         0.00000E+00        -0.18767E+08
 
   -0.18675E+08         0.29148E+05         0.00000E+00
    0.29148E+05        -0.19315E+07         0.00000E+00
    0.00000E+00         0.00000E+00        -0.18745E+08
 
   -0.18662E+08         0.41018E+05         0.00000E+00
    0.41018E+05        -0.19213E+07         0.00000E+00
    0.00000E+00         0.00000E+00        -0.18724E+08
 
   -0.18647E+08         0.52509E+05         0.00000E+00
    0.52509E+05        -0.19147E+07         0.00000E+00
    0.00000E+00         0.00000E+00        -0.18702E+08
 
   -0.18631E+08         0.63564E+05         0.00000E+00
    0.63564E+05        -0.19109E+07         0.00000E+00
    0.00000E+00         0.00000E+00        -0.18681E+08
 
   -0.18613E+08         0.74221E+05         0.00000E+00
    0.74221E+05        -0.19093E+07         0.00000E+00
    0.00000E+00         0.00000E+00        -0.18661E+08
 
   -0.18595E+08         0.84521E+05         0.00000E+00
    0.84521E+05        -0.19092E+07         0.00000E+00
    0.00000E+00         0.00000E+00        -0.18640E+08
 
   -0.18577E+08         0.94486E+05         0.00000E+00
    0.94486E+05        -0.19102E+07         0.00000E+00
    0.00000E+00         0.00000E+00        -0.18620E+08
 
   -0.18558E+08         0.10413E+06         0.00000E+00
    0.10413E+06        -0.19118E+07         0.00000E+00
    0.00000E+00         0.00000E+00        -0.18600E+08
 
   -0.18539E+08         0.11346E+06         0.00000E+00
    0.11346E+06        -0.19138E+07         0.00000E+00
    0.00000E+00         0.00000E+00        -0.18579E+08
 
   -0.18519E+08         0.12248E+06         0.00000E+00
    0.12248E+06        -0.19160E+07         0.00000E+00
    0.00000E+00         0.00000E+00        -0.18558E+08
 
   -0.18499E+08         0.13121E+06         0.00000E+00
    0.13121E+06        -0.19182E+07         0.00000E+00
    0.00000E+00         0.00000E+00        -0.18537E+08
 
   -0.18478E+08         0.13965E+06         0.00000E+00
    0.13965E+06        -0.19204E+07         0.00000E+00
    0.00000E+00         0.00000E+00        -0.18516E+08
 
   -0.18458E+08         0.14782E+06         0.00000E+00
    0.14782E+06        -0.19224E+07         0.00000E+00
    0.00000E+00         0.00000E+00        -0.18494E+08
 
   -0.18436E+08         0.15574E+06         0.00000E+00
    0.15574E+06        -0.19242E+07         0.00000E+00
    0.00000E+00         0.00000E+00        -0.18472E+08
 
   -0.18414E+08         0.16342E+06         0.00000E+00
    0.16342E+06        -0.19259E+07         0.00000E+00
    0.00000E+00         0.00000E+00        -0.18449E+08
 
   -0.18391E+08         0.17090E+06         0.00000E+00
    0.17090E+06        -0.19273E+07         0.00000E+00
    0.00000E+00         0.00000E+00        -0.18426E+08
 
   -0.18368E+08         0.17818E+06         0.00000E+00
    0.17818E+06        -0.19286E+07         0.00000E+00
    0.00000E+00         0.00000E+00        -0.18402E+08
 
   -0.18344E+08         0.18529E+06         0.00000E+00
    0.18529E+06        -0.19297E+07         0.00000E+00
    0.00000E+00         0.00000E+00        -0.18377E+08
 
   -0.18320E+08         0.19226E+06         0.00000E+00
    0.19226E+06        -0.19306E+07         0.00000E+00
    0.00000E+00         0.00000E+00        -0.18353E+08
 
   -0.18295E+08         0.19911E+06         0.00000E+00
    0.19911E+06        -0.19314E+07         0.00000E+00
    0.00000E+00         0.00000E+00        -0.18327E+08
 
   -0.18269E+08         0.20585E+06         0.00000E+00
    0.20585E+06        -0.19320E+07         0.00000E+00
    0.00000E+00         0.00000E+00        -0.18301E+08
 
   -0.18243E+08         0.21251E+06         0.00000E+00
    0.21251E+06        -0.19325E+07         0.00000E+00
    0.00000E+00         0.00000E+00        -0.18274E+08
 
   -0.18215E+08         0.21911E+06         0.00000E+00
    0.21911E+06        -0.19329E+07         0.00000E+00
    0.00000E+00         0.00000E+00        -0.18247E+08
 
   -0.18187E+08         0.22566E+06         0.00000E+00
    0.22566E+06        -0.19332E+07         0.00000E+00
    0.00000E+00         0.00000E+00        -0.18219E+08
 
   -0.18159E+08         0.23218E+06         0.00000E+00
    0.23218E+06        -0.19334E+07         0.00000E+00
    0.00000E+00         0.00000E+00        -0.18191E+08
 
   -0.18130E+08         0.23868E+06         0.00000E+00
    0.23868E+06        -0.19336E+07         0.00000E+00
    0.00000E+00         0.00000E+00        -0.18161E+08
 
   -0.18099E+08         0.24517E+06         0.00000E+00
    0.24517E+06        -0.19337E+07         0.00000E+00
    0.00000E+00         0.00000E+00        -0.18131E+08
 
   -0.18069E+08         0.25168E+06         0.00000E+00
    0.25168E+06        -0.19337E+07         0.00000E+00
    0.00000E+00         0.00000E+00        -0.18101E+08
 
   -0.18037E+08         0.25820E+06         0.00000E+00
    0.25820E+06        -0.19337E+07         0.00000E+00
    0.00000E+00         0.00000E+00        -0.18069E+08
 
   -0.18005E+08         0.26475E+06         0.00000E+00
    0.26475E+06        -0.19337E+07         0.00000E+00
    0.00000E+00         0.00000E+00        -0.18037E+08
 
   -0.17972E+08         0.27133E+06         0.00000E+00
    0.27133E+06        -0.19336E+07         0.00000E+00
    0.00000E+00         0.00000E+00        -0.18004E+08
 
   -0.17938E+08         0.27795E+06         0.00000E+00
    0.27795E+06        -0.19335E+07         0.00000E+00
    0.00000E+00         0.00000E+00        -0.17971E+08
 
   -0.17903E+08         0.28461E+06         0.00000E+00
    0.28461E+06        -0.19334E+07         0.00000E+00
    0.00000E+00         0.00000E+00        -0.17936E+08
 
   -0.17867E+08         0.29133E+06         0.00000E+00
    0.29133E+06        -0.19333E+07         0.00000E+00
    0.00000E+00         0.00000E+00        -0.17901E+08
 
   -0.17831E+08         0.29809E+06         0.00000E+00
    0.29809E+06        -0.19331E+07         0.00000E+00
    0.00000E+00         0.00000E+00        -0.17865E+08
 
   -0.17793E+08         0.30491E+06         0.00000E+00
    0.30491E+06        -0.19330E+07         0.00000E+00
    0.00000E+00         0.00000E+00        -0.17828E+08
 
   -0.17755E+08         0.31178E+06         0.00000E+00
    0.31178E+06        -0.19328E+07         0.00000E+00
    0.00000E+00         0.00000E+00        -0.17790E+08
 
   -0.17716E+08         0.31870E+06         0.00000E+00
    0.31870E+06        -0.19327E+07         0.00000E+00
    0.00000E+00         0.00000E+00        -0.17751E+08
 
   -0.17676E+08         0.32568E+06         0.00000E+00
    0.32568E+06        -0.19325E+07         0.00000E+00
    0.00000E+00         0.00000E+00        -0.17712E+08
 
   -0.17635E+08         0.33271E+06         0.00000E+00
    0.33271E+06        -0.19324E+07         0.00000E+00
    0.00000E+00         0.00000E+00        -0.17671E+08
 
   -0.17594E+08         0.33978E+06         0.00000E+00
    0.33978E+06        -0.19323E+07         0.00000E+00
    0.00000E+00         0.00000E+00        -0.17630E+08
 
   -0.17551E+08         0.34690E+06         0.00000E+00
    0.34690E+06        -0.19322E+07         0.00000E+00
    0.00000E+00         0.00000E+00        -0.17587E+08
 
   -0.17507E+08         0.35406E+06         0.00000E+00
    0.35406E+06        -0.19321E+07         0.00000E+00
    0.00000E+00         0.00000E+00        -0.17544E+08
 
   -0.17462E+08         0.36124E+06         0.00000E+00
    0.36124E+06        -0.19320E+07         0.00000E+00
    0.00000E+00         0.00000E+00        -0.17499E+08
 
   -0.17417E+08         0.36846E+06         0.00000E+00
    0.36846E+06        -0.19320E+07         0.00000E+00
    0.00000E+00         0.00000E+00        -0.17454E+08
 
   -0.17370E+08         0.37569E+06         0.00000E+00
    0.37569E+06        -0.19320E+07         0.00000E+00
    0.00000E+00         0.00000E+00        -0.17407E+08
 
   -0.17323E+08         0.38293E+06         0.00000E+00
    0.38293E+06        -0.19321E+07         0.00000E+00
    0.00000E+00         0.00000E+00        -0.17360E+08
 
   -0.17274E+08         0.39018E+06         0.00000E+00
    0.39018E+06        -0.19322E+07         0.00000E+00
    0.00000E+00         0.00000E+00        -0.17311E+08
 
   -0.17224E+08         0.39741E+06         0.00000E+00
    0.39741E+06        -0.19323E+07         0.00000E+00
    0.00000E+00         0.00000E+00        -0.17262E+08
 
   -0.17174E+08         0.40461E+06         0.00000E+00
    0.40461E+06        -0.19325E+07         0.00000E+00
    0.00000E+00         0.00000E+00        -0.17211E+08
 
   -0.17122E+08         0.41178E+06         0.00000E+00
    0.41178E+06        -0.19328E+07         0.00000E+00
    0.00000E+00         0.00000E+00        -0.17159E+08
 
   -0.17069E+08         0.41890E+06         0.00000E+00
    0.41890E+06        -0.19331E+07         0.00000E+00
    0.00000E+00         0.00000E+00        -0.17106E+08
 
   -0.17016E+08         0.42596E+06         0.00000E+00
    0.42596E+06        -0.19335E+07         0.00000E+00
    0.00000E+00         0.00000E+00        -0.17052E+08
 
   -0.16961E+08         0.43293E+06         0.00000E+00
    0.43293E+06        -0.19339E+07         0.00000E+00
    0.00000E+00         0.00000E+00        -0.16997E+08
 
   -0.16905E+08         0.43980E+06         0.00000E+00
    0.43980E+06        -0.19345E+07         0.00000E+00
    0.00000E+00         0.00000E+00        -0.16941E+08
 
   -0.16848E+08         0.44655E+06         0.00000E+00
    0.44655E+06        -0.19351E+07         0.00000E+00
    0.00000E+00         0.00000E+00        -0.16884E+08
 
   -0.16790E+08         0.45316E+06         0.00000E+00
    0.45316E+06        -0.19358E+07         0.00000E+00
    0.00000E+00         0.00000E+00        -0.16825E+08
 
   -0.16731E+08         0.45961E+06         0.00000E+00
    0.45961E+06        -0.19366E+07         0.00000E+00
    0.00000E+00         0.00000E+00        -0.16766E+08
 
   -0.16672E+08         0.46586E+06         0.00000E+00
    0.46586E+06        -0.19376E+07         0.00000E+00
    0.00000E+00         0.00000E+00        -0.16705E+08
 
   -0.16611E+08         0.47190E+06         0.00000E+00
    0.47190E+06        -0.19386E+07         0.00000E+00
    0.00000E+00         0.00000E+00        -0.16643E+08
 
   -0.16549E+08         0.47770E+06         0.00000E+00
    0.47770E+06        -0.19398E+07         0.00000E+00
    0.00000E+00         0.00000E+00        -0.16580E+08
 
   -0.16486E+08         0.48322E+06         0.00000E+00
    0.48322E+06        -0.19411E+07         0.00000E+00
    0.00000E+00         0.00000E+00        -0.16516E+08
 
   -0.16422E+08         0.48843E+06         0.00000E+00
    0.48843E+06        -0.19425E+07         0.00000E+00
    0.00000E+00         0.00000E+00        -0.16451E+08
 
   -0.16357E+08         0.49329E+06         0.00000E+00
    0.49329E+06        -0.19441E+07         0.00000E+00
    0.00000E+00         0.00000E+00        -0.16384E+08
 
   -0.16292E+08         0.49777E+06         0.00000E+00
    0.49777E+06        -0.19459E+07         0.00000E+00
    0.00000E+00         0.00000E+00        -0.16317E+08
 
   -0.16225E+08         0.50182E+06         0.00000E+00
    0.50182E+06        -0.19479E+07         0.00000E+00
    0.00000E+00         0.00000E+00        -0.16248E+08
 
   -0.16158E+08         0.50540E+06         0.00000E+00
    0.50540E+06        -0.19501E+07         0.00000E+00
    0.00000E+00         0.00000E+00        -0.16179E+08
 
   -0.16090E+08         0.50846E+06         0.00000E+00
    0.50846E+06        -0.19525E+07         0.00000E+00
    0.00000E+00         0.00000E+00        -0.16108E+08
 
   -0.16021E+08         0.51095E+06         0.00000E+00
    0.51095E+06        -0.19551E+07         0.00000E+00
    0.00000E+00         0.00000E+00        -0.16037E+08
 
   -0.15951E+08         0.51281E+06         0.00000E+00
    0.51281E+06        -0.19580E+07         0.00000E+00
    0.00000E+00         0.00000E+00        -0.15964E+08
 
   -0.15881E+08         0.51397E+06         0.00000E+00
    0.51397E+06        -0.19612E+07         0.00000E+00
    0.00000E+00         0.00000E+00        -0.15891E+08
 
   -0.15810E+08         0.51439E+06         0.00000E+00
    0.51439E+06        -0.19647E+07         0.00000E+00
    0.00000E+00         0.00000E+00        -0.15816E+08
 
   -0.15739E+08         0.51397E+06         0.00000E+00
    0.51397E+06        -0.19686E+07         0.00000E+00
    0.00000E+00         0.00000E+00        -0.15741E+08
 
   -0.15667E+08         0.51266E+06         0.00000E+00
    0.51266E+06        -0.19729E+07         0.00000E+00
    0.00000E+00         0.00000E+00        -0.15665E+08
 
   -0.15594E+08         0.51036E+06         0.00000E+00
    0.51036E+06        -0.19777E+07         0.00000E+00
    0.00000E+00         0.00000E+00        -0.15588E+08
 
   -0.15522E+08         0.50701E+06         0.00000E+00
    0.50701E+06        -0.19829E+07         0.00000E+00
    0.00000E+00         0.00000E+00        -0.15510E+08
 
   -0.15449E+08         0.50250E+06         0.00000E+00
    0.50250E+06        -0.19888E+07         0.00000E+00
    0.00000E+00         0.00000E+00        -0.15432E+08
 
   -0.15375E+08         0.49675E+06         0.00000E+00
    0.49675E+06        -0.19952E+07         0.00000E+00
    0.00000E+00         0.00000E+00        -0.15353E+08
 
   -0.15302E+08         0.48967E+06         0.00000E+00
    0.48967E+06        -0.20023E+07         0.00000E+00
    0.00000E+00         0.00000E+00        -0.15274E+08
 
   -0.15228E+08         0.48116E+06         0.00000E+00
    0.48116E+06        -0.20101E+07         0.00000E+00
    0.00000E+00         0.00000E+00        -0.15194E+08
 
   -0.15154E+08         0.47112E+06         0.00000E+00
    0.47112E+06        -0.20186E+07         0.00000E+00
    0.00000E+00         0.00000E+00        -0.15113E+08
 
   -0.15081E+08         0.45947E+06         0.00000E+00
    0.45947E+06        -0.20280E+07         0.00000E+00
    0.00000E+00         0.00000E+00        -0.15032E+08
 
   -0.15007E+08         0.44611E+06         0.00000E+00
    0.44611E+06        -0.20382E+07         0.00000E+00
    0.00000E+00         0.00000E+00        -0.14951E+08
 
   -0.14933E+08         0.43097E+06         0.00000E+00
    0.43097E+06        -0.20491E+07         0.00000E+00
    0.00000E+00         0.00000E+00        -0.14869E+08
 
   -0.14859E+08         0.41398E+06         0.00000E+00
    0.41398E+06        -0.20607E+07         0.00000E+00
    0.00000E+00         0.00000E+00        -0.14787E+08
 
   -0.14784E+08         0.39508E+06         0.00000E+00
    0.39508E+06        -0.20727E+07         0.00000E+00
    0.00000E+00         0.00000E+00        -0.14705E+08
 
   -0.14710E+08         0.37423E+06         0.00000E+00
    0.37423E+06        -0.20849E+07         0.00000E+00
    0.00000E+00         0.00000E+00        -0.14622E+08
 
   -0.14635E+08         0.35141E+06         0.00000E+00
    0.35141E+06        -0.20968E+07         0.00000E+00
    0.00000E+00         0.00000E+00        -0.14538E+08
 
   -0.14560E+08         0.32661E+06         0.00000E+00
    0.32661E+06        -0.21076E+07         0.00000E+00
    0.00000E+00         0.00000E+00        -0.14453E+08
 
   -0.14484E+08         0.29983E+06         0.00000E+00
    0.29983E+06        -0.21164E+07         0.00000E+00
    0.00000E+00         0.00000E+00        -0.14368E+08
 
   -0.14409E+08         0.27108E+06         0.00000E+00
    0.27108E+06        -0.21220E+07         0.00000E+00
    0.00000E+00         0.00000E+00        -0.14281E+08
 
   -0.14333E+08         0.24034E+06         0.00000E+00
    0.24034E+06        -0.21224E+07         0.00000E+00
    0.00000E+00         0.00000E+00        -0.14192E+08
 
   -0.14260E+08         0.20756E+06         0.00000E+00
    0.20756E+06        -0.21155E+07         0.00000E+00
    0.00000E+00         0.00000E+00        -0.14101E+08
 
   -0.14189E+08         0.17261E+06         0.00000E+00
    0.17261E+06        -0.20985E+07         0.00000E+00
    0.00000E+00         0.00000E+00        -0.14008E+08
 
   -0.14123E+08         0.13537E+06         0.00000E+00
    0.13537E+06        -0.20680E+07         0.00000E+00
    0.00000E+00         0.00000E+00        -0.13912E+08
 
   -0.14068E+08         0.96153E+05         0.00000E+00
    0.96153E+05        -0.20206E+07         0.00000E+00
    0.00000E+00         0.00000E+00        -0.13814E+08
 
   -0.14027E+08         0.56528E+05         0.00000E+00
    0.56528E+05        -0.19544E+07         0.00000E+00
    0.00000E+00         0.00000E+00        -0.13715E+08
 
   -0.14006E+08         0.18454E+05         0.00000E+00
    0.18454E+05        -0.18714E+07         0.00000E+00
    0.00000E+00         0.00000E+00        -0.13617E+08
 
   -0.18680E+08         0.51905E+04         0.00000E+00
    0.51905E+04        -0.19659E+07         0.00000E+00
    0.00000E+00         0.00000E+00        -0.18786E+08
 
   -0.18676E+08         0.15851E+05         0.00000E+00
    0.15851E+05        -0.19481E+07         0.00000E+00
    0.00000E+00         0.00000E+00        -0.18765E+08
 
   -0.18667E+08         0.26979E+05         0.00000E+00
    0.26979E+05        -0.19339E+07         0.00000E+00
    0.00000E+00         0.00000E+00        -0.18743E+08
 
   -0.18655E+08         0.38263E+05         0.00000E+00
    0.38263E+05        -0.19236E+07         0.00000E+00
    0.00000E+00         0.00000E+00        -0.18722E+08
 
   -0.18641E+08         0.49373E+05         0.00000E+00
    0.49373E+05        -0.19169E+07         0.00000E+00
    0.00000E+00         0.00000E+00        -0.18701E+08
 
   -0.18625E+08         0.60187E+05         0.00000E+00
    0.60187E+05        -0.19131E+07         0.00000E+00
    0.00000E+00         0.00000E+00        -0.18680E+08
 
   -0.18608E+08         0.70690E+05         0.00000E+00
    0.70690E+05        -0.19114E+07         0.00000E+00
    0.00000E+00         0.00000E+00        -0.18660E+08
 
   -0.18590E+08         0.80883E+05         0.00000E+00
    0.80883E+05        -0.19112E+07         0.00000E+00
    0.00000E+00         0.00000E+00        -0.18639E+08
 
   -0.18572E+08         0.90766E+05         0.00000E+00
    0.90766E+05        -0.19121E+07         0.00000E+00
    0.00000E+00         0.00000E+00        -0.18619E+08
 
   -0.18553E+08         0.10034E+06         0.00000E+00
    0.10034E+06        -0.19137E+07         0.00000E+00
    0.00000E+00         0.00000E+00        -0.18599E+08
 
   -0.18534E+08         0.10959E+06         0.00000E+00
    0.10959E+06        -0.19157E+07         0.00000E+00
    0.00000E+00         0.00000E+00        -0.18578E+08
 
   -0.18514E+08         0.11854E+06         0.00000E+00
    0.11854E+06        -0.19178E+07         0.00000E+00
    0.00000E+00         0.00000E+00        -0.18557E+08
 
   -0.18495E+08         0.12718E+06         0.00000E+00
    0.12718E+06        -0.19199E+07         0.00000E+00
    0.00000E+00         0.00000E+00        -0.18536E+08
 
   -0.18474E+08         0.13552E+06         0.00000E+00
    0.13552E+06        -0.19220E+07         0.00000E+00
    0.00000E+00         0.00000E+00        -0.18515E+08
 
   -0.18453E+08         0.14359E+06         0.00000E+00
    0.14359E+06        -0.19240E+07         0.00000E+00
    0.00000E+00         0.00000E+00        -0.18493E+08
 
   -0.18432E+08         0.15140E+06         0.00000E+00
    0.15140E+06        -0.19258E+07         0.00000E+00
    0.00000E+00         0.00000E+00        -0.18471E+08
 
   -0.18410E+08         0.15897E+06         0.00000E+00
    0.15897E+06        -0.19274E+07         0.00000E+00
    0.00000E+00         0.00000E+00        -0.18448E+08
 
   -0.18388E+08         0.16633E+06         0.00000E+00
    0.16633E+06        -0.19288E+07         0.00000E+00
    0.00000E+00         0.00000E+00        -0.18425E+08
 
   -0.18365E+08         0.17348E+06         0.00000E+00
    0.17348E+06        -0.19300E+07         0.00000E+00
    0.00000E+00         0.00000E+00        -0.18401E+08
 
   -0.18341E+08         0.18047E+06         0.00000E+00
    0.18047E+06        -0.19311E+07         0.00000E+00
    0.00000E+00         0.00000E+00        -0.18377E+08
 
   -0.18316E+08         0.18731E+06         0.00000E+00
    0.18731E+06        -0.19320E+07         0.00000E+00
    0.00000E+00         0.00000E+00        -0.18352E+08
 
   -0.18291E+08         0.19402E+06         0.00000E+00
    0.19402E+06        -0.19327E+07         0.00000E+00
    0.00000E+00         0.00000E+00        -0.18326E+08
 
   -0.18266E+08         0.20063E+06         0.00000E+00
    0.20063E+06        -0.19333E+07         0.00000E+00
    0.00000E+00         0.00000E+00        -0.18300E+08
 
   -0.18239E+08         0.20715E+06         0.00000E+00
    0.20715E+06        -0.19338E+07         0.00000E+00
    0.00000E+00         0.00000E+00        -0.18274E+08
 
   -0.18212E+08         0.21360E+06         0.00000E+00
    0.21360E+06        -0.19342E+07         0.00000E+00
    0.00000E+00         0.00000E+00        -0.18246E+08
 
   -0.18184E+08         0.22001E+06         0.00000E+00
    0.22001E+06        -0.19345E+07         0.00000E+00
    0.00000E+00         0.00000E+00        -0.18219E+08
 
   -0.18155E+08         0.22638E+06         0.00000E+00
    0.22638E+06        -0.19347E+07         0.00000E+00
    0.00000E+00         0.00000E+00        -0.18190E+08
 
   -0.18126E+08         0.23273E+06         0.00000E+00
    0.23273E+06        -0.19349E+07         0.00000E+00
    0.00000E+00         0.00000E+00        -0.18161E+08
 
   -0.18096E+08         0.23908E+06         0.00000E+00
    0.23908E+06        -0.19350E+07         0.00000E+00
    0.00000E+00         0.00000E+00        -0.18131E+08
 
   -0.18065E+08         0.24543E+06         0.00000E+00
    0.24543E+06        -0.19350E+07         0.00000E+00
    0.00000E+00         0.00000E+00        -0.18100E+08
 
   -0.18033E+08         0.25180E+06         0.00000E+00
    0.25180E+06        -0.19350E+07         0.00000E+00
    0.00000E+00         0.00000E+00        -0.18069E+08
 
   -0.18001E+08         0.25819E+06         0.00000E+00
    0.25819E+06        -0.19350E+07         0.00000E+00
    0.00000E+00         0.00000E+00        -0.18037E+08
 
   -0.17968E+08         0.26461E+06         0.00000E+00
    0.26461E+06        -0.19349E+07         0.00000E+00
    0.00000E+00         0.00000E+00        -0.18004E+08
 
   -0.17934E+08         0.27107E+06         0.00000E+00
    0.27107E+06        -0.19348E+07         0.00000E+00
    0.00000E+00         0.00000E+00        -0.17970E+08
 
   -0.17899E+08         0.27757E+06         0.00000E+00
    0.27757E+06        -0.19347E+07         0.00000E+00
    0.00000E+00         0.00000E+00        -0.17936E+08
 
   -0.17863E+08         0.28412E+06         0.00000E+00
    0.28412E+06        -0.19346E+07         0.00000E+00
    0.00000E+00         0.00000E+00        -0.17900E+08
 
   -0.17827E+08         0.29071E+06         0.00000E+00
    0.29071E+06        -0.19345E+07         0.00000E+00
    0.00000E+00         0.00000E+00        -0.17864E+08
 
   -0.17790E+08         0.29735E+06         0.00000E+00
    0.29735E+06        -0.19343E+07         0.00000E+00
    0.00000E+00         0.00000E+00        -0.17827E+08
 
   -0.17751E+08         0.30405E+06         0.00000E+00
    0.30405E+06        -0.19342E+07         0.00000E+00
    0.00000E+00         0.00000E+00        -0.17789E+08
 
   -0.17712E+08         0.31080E+06         0.00000E+00
    0.31080E+06        -0.19340E+07         0.00000E+00
    0.00000E+00         0.00000E+00        -0.17751E+08
 
   -0.17672E+08         0.31759E+06         0.00000E+00
    0.31759E+06        -0.19339E+07         0.00000E+00
    0.00000E+00         0.00000E+00        -0.17711E+08
 
   -0.17631E+08         0.32444E+06         0.00000E+00
    0.32444E+06        -0.19338E+07         0.00000E+00
    0.00000E+00         0.00000E+00        -0.17670E+08
 
   -0.17590E+08         0.33132E+06         0.00000E+00
    0.33132E+06        -0.19337E+07         0.00000E+00
    0.00000E+00         0.00000E+00        -0.17629E+08
 
   -0.17547E+08         0.33825E+06         0.00000E+00
    0.33825E+06        -0.19336E+07         0.00000E+00
    0.00000E+00         0.00000E+00        -0.17586E+08
 
   -0.17503E+08         0.34522E+06         0.00000E+00
    0.34522E+06        -0.19335E+07         0.00000E+00
    0.00000E+00         0.00000E+00        -0.17543E+08
 
   -0.17458E+08         0.35221E+06         0.00000E+00
    0.35221E+06        -0.19335E+07         0.00000E+00
    0.00000E+00         0.00000E+00        -0.17499E+08
 
   -0.17413E+08         0.35923E+06         0.00000E+00
    0.35923E+06        -0.19334E+07         0.00000E+00
    0.00000E+00         0.00000E+00        -0.17453E+08
 
   -0.17366E+08         0.36627E+06         0.00000E+00
    0.36627E+06        -0.19335E+07         0.00000E+00
    0.00000E+00         0.00000E+00        -0.17407E+08
 
   -0.17318E+08         0.37331E+06         0.00000E+00
    0.37331E+06        -0.19335E+07         0.00000E+00
    0.00000E+00         0.00000E+00        -0.17359E+08
 
   -0.17270E+08         0.38035E+06         0.00000E+00
    0.38035E+06        -0.19336E+07         0.00000E+00
    0.00000E+00         0.00000E+00        -0.17311E+08
 
   -0.17220E+08         0.38738E+06         0.00000E+00
    0.38738E+06        -0.19338E+07         0.00000E+00
    0.00000E+00         0.00000E+00        -0.17261E+08
 
   -0.17169E+08         0.39438E+06         0.00000E+00
    0.39438E+06        -0.19339E+07         0.00000E+00
    0.00000E+00         0.00000E+00        -0.17210E+08
 
   -0.17118E+08         0.40135E+06         0.00000E+00
    0.40135E+06        -0.19342E+07         0.00000E+00
    0.00000E+00         0.00000E+00        -0.17158E+08
 
   -0.17065E+08         0.40826E+06         0.00000E+00
    0.40826E+06        -0.19345E+07         0.00000E+00
    0.00000E+00         0.00000E+00        -0.17106E+08
 
   -0.17011E+08         0.41511E+06         0.00000E+00
    0.41511E+06        -0.19349E+07         0.00000E+00
    0.00000E+00         0.00000E+00        -0.17052E+08
 
   -0.16957E+08         0.42188E+06         0.00000E+00
    0.42188E+06        -0.19353E+07         0.00000E+00
    0.00000E+00         0.00000E+00        -0.16997E+08
 
   -0.16901E+08         0.42855E+06         0.00000E+00
    0.42855E+06        -0.19358E+07         0.00000E+00
    0.00000E+00         0.00000E+00        -0.16940E+08
 
   -0.16844E+08         0.43509E+06         0.00000E+00
    0.43509E+06        -0.19364E+07         0.00000E+00
    0.00000E+00         0.00000E+00        -0.16883E+08
 
   -0.16786E+08         0.44150E+06         0.00000E+00
    0.44150E+06        -0.19371E+07         0.00000E+00
    0.00000E+00         0.00000E+00        -0.16824E+08
 
   -0.16728E+08         0.44774E+06         0.00000E+00
    0.44774E+06        -0.19379E+07         0.00000E+00
    0.00000E+00         0.00000E+00        -0.16765E+08
 
   -0.16668E+08         0.45380E+06         0.00000E+00
    0.45380E+06        -0.19388E+07         0.00000E+00
    0.00000E+00         0.00000E+00        -0.16704E+08
 
   -0.16607E+08         0.45964E+06         0.00000E+00
    0.45964E+06        -0.19398E+07         0.00000E+00
    0.00000E+00         0.00000E+00        -0.16642E+08
 
   -0.16545E+08         0.46524E+06         0.00000E+00
    0.46524E+06        -0.19409E+07         0.00000E+00
    0.00000E+00         0.00000E+00        -0.16579E+08
 
   -0.16483E+08         0.47057E+06         0.00000E+00
    0.47057E+06        -0.19421E+07         0.00000E+00
    0.00000E+00         0.00000E+00        -0.16515E+08
 
   -0.16419E+08         0.47559E+06         0.00000E+00
    0.47559E+06        -0.19435E+07         0.00000E+00
    0.00000E+00         0.00000E+00        -0.16450E+08
 
   -0.16354E+08         0.48027E+06         0.00000E+00
    0.48027E+06        -0.19451E+07         0.00000E+00
    0.00000E+00         0.00000E+00        -0.16384E+08
 
   -0.16289E+08         0.48457E+06         0.00000E+00
    0.48457E+06        -0.19468E+07         0.00000E+00
    0.00000E+00         0.00000E+00        -0.16316E+08
 
   -0.16223E+08         0.48846E+06         0.00000E+00
    0.48846E+06        -0.19486E+07         0.00000E+00
    0.00000E+00         0.00000E+00        -0.16248E+08
 
   -0.16156E+08         0.49188E+06         0.00000E+00
    0.49188E+06        -0.19507E+07         0.00000E+00
    0.00000E+00         0.00000E+00        -0.16178E+08
 
   -0.16088E+08         0.49478E+06         0.00000E+00
    0.49478E+06        -0.19530E+07         0.00000E+00
    0.00000E+00         0.00000E+00        -0.16108E+08
 
   -0.16019E+08         0.49713E+06         0.00000E+00
    0.49713E+06        -0.19555E+07         0.00000E+00
    0.00000E+00         0.00000E+00        -0.16036E+08
 
   -0.15950E+08         0.49885E+06         0.00000E+00
    0.49885E+06        -0.19583E+07         0.00000E+00
    0.00000E+00         0.00000E+00        -0.15964E+08
 
   -0.15880E+08         0.49989E+06         0.00000E+00
    0.49989E+06        -0.19614E+07         0.00000E+00
    0.00000E+00         0.00000E+00        -0.15890E+08
 
   -0.15809E+08         0.50019E+06         0.00000E+00
    0.50019E+06        -0.19647E+07         0.00000E+00
    0.00000E+00         0.00000E+00        -0.15816E+08
 
   -0.15738E+08         0.49967E+06         0.00000E+00
    0.49967E+06        -0.19685E+07         0.00000E+00
    0.00000E+00         0.00000E+00        -0.15741E+08
 
   -0.15667E+08         0.49827E+06         0.00000E+00
    0.49827E+06        -0.19726E+07         0.00000E+00
    0.00000E+00         0.00000E+00        -0.15665E+08
 
   -0.15595E+08         0.49590E+06         0.00000E+00
    0.49590E+06        -0.19771E+07         0.00000E+00
    0.00000E+00         0.00000E+00        -0.15588E+08
 
   -0.15523E+08         0.49248E+06         0.00000E+00
    0.49248E+06        -0.19822E+07         0.00000E+00
    0.00000E+00         0.00000E+00        -0.15510E+08
 
   -0.15450E+08         0.48792E+06         0.00000E+00
    0.48792E+06        -0.19877E+07         0.00000E+00
    0.00000E+00         0.00000E+00        -0.15432E+08
 
   -0.15378E+08         0.48214E+06         0.00000E+00
    0.48214E+06        -0.19939E+07         0.00000E+00
    0.00000E+00         0.00000E+00        -0.15353E+08
 
   -0.15305E+08         0.47503E+06         0.00000E+00
    0.47503E+06        -0.20007E+07         0.00000E+00
    0.00000E+00         0.00000E+00        -0.15274E+08
 
   -0.15232E+08         0.46649E+06         0.00000E+00
    0.46649E+06        -0.20082E+07         0.00000E+00
    0.00000E+00         0.00000E+00        -0.15194E+08
 
   -0.15159E+08         0.45644E+06         0.00000E+00
    0.45644E+06        -0.20165E+07         0.00000E+00
    0.00000E+00         0.00000E+00        -0.15114E+08
 
   -0.15086E+08         0.44478E+06         0.00000E+00
    0.44478E+06        -0.20255E+07         0.00000E+00
    0.00000E+00         0.00000E+00        -0.15033E+08
 
   -0.15013E+08         0.43141E+06         0.00000E+00
    0.43141E+06        -0.20353E+07         0.00000E+00
    0.00000E+00         0.00000E+00        -0.14952E+08
 
   -0.14940E+08         0.41626E+06         0.00000E+00
    0.41626E+06        -0.20459E+07         0.00000E+00
    0.00000E+00         0.00000E+00        -0.14870E+08
 
   -0.14867E+08         0.39924E+06         0.00000E+00
    0.39924E+06        -0.20571E+07         0.00000E+00
    0.00000E+00         0.00000E+00        -0.14788E+08
 
   -0.14793E+08         0.38031E+06         0.00000E+00
    0.38031E+06        -0.20687E+07         0.00000E+00
    0.00000E+00         0.00000E+00        -0.14706E+08
 
   -0.14720E+08         0.35941E+06         0.00000E+00
    0.35941E+06        -0.20805E+07         0.00000E+00
    0.00000E+00         0.00000E+00        -0.14623E+08
 
   -0.14646E+08         0.33653E+06         0.00000E+00
    0.33653E+06        -0.20920E+07         0.00000E+00
    0.00000E+00         0.00000E+00        -0.14540E+08
 
   -0.14573E+08         0.31167E+06         0.00000E+00
    0.31167E+06        -0.21024E+07         0.00000E+00
    0.00000E+00         0.00000E+00        -0.14456E+08
 
   -0.14499E+08         0.28486E+06         0.00000E+00
    0.28486E+06        -0.21109E+07         0.00000E+00
    0.00000E+00         0.00000E+00        -0.14370E+08
 
   -0.14425E+08         0.25615E+06         0.00000E+00
    0.25615E+06        -0.21160E+07         0.00000E+00
    0.00000E+00         0.00000E+00        -0.14284E+08
 
   -0.14351E+08         0.22558E+06         0.00000E+00
    0.22558E+06        -0.21161E+07         0.00000E+00
    0.00000E+00         0.00000E+00        -0.14196E+08
 
   -0.14280E+08         0.19323E+06         0.00000E+00
    0.19323E+06        -0.21088E+07         0.00000E+00
    0.00000E+00         0.00000E+00        -0.14105E+08
 
   -0.14211E+08         0.15912E+06         0.00000E+00
    0.15912E+06        -0.20914E+07         0.00000E+00
    0.00000E+00         0.00000E+00        -0.14013E+08
 
   -0.14149E+08         0.12338E+06         0.00000E+00
    0.12338E+06        -0.20605E+07         0.00000E+00
    0.00000E+00         0.00000E+00        -0.13918E+08
 
   -0.14096E+08         0.86650E+05         0.00000E+00
    0.86650E+05        -0.20129E+07         0.00000E+00
    0.00000E+00         0.00000E+00        -0.13821E+08
 
   -0.14059E+08         0.50491E+05         0.00000E+00
    0.50491E+05        -0.19470E+07         0.00000E+00
    0.00000E+00         0.00000E+00        -0.13722E+08
 
   -0.14039E+08         0.16410E+05         0.00000E+00
    0.16410E+05        -0.18645E+07         0.00000E+00
    0.00000E+00         0.00000E+00        -0.13624E+08
 
   -0.18672E+08         0.47569E+04         0.00000E+00
    0.47569E+04        -0.19679E+07         0.00000E+00
    0.00000E+00         0.00000E+00        -0.18784E+08
 
   -0.18668E+08         0.14565E+05         0.00000E+00
    0.14565E+05        -0.19502E+07         0.00000E+00
    0.00000E+00         0.00000E+00        -0.18763E+08
 
   -0.18659E+08         0.24930E+05         0.00000E+00
    0.24930E+05        -0.19361E+07         0.00000E+00
    0.00000E+00         0.00000E+00        -0.18742E+08
 
   -0.18648E+08         0.35628E+05         0.00000E+00
    0.35628E+05        -0.19258E+07         0.00000E+00
    0.00000E+00         0.00000E+00        -0.18721E+08
 
   -0.18634E+08         0.46342E+05         0.00000E+00
    0.46342E+05        -0.19191E+07         0.00000E+00
    0.00000E+00         0.00000E+00        -0.18700E+08
 
   -0.18618E+08         0.56900E+05         0.00000E+00
    0.56900E+05        -0.19152E+07         0.00000E+00
    0.00000E+00         0.00000E+00        -0.18679E+08
 
   -0.18602E+08         0.67234E+05         0.00000E+00
    0.67234E+05        -0.19134E+07         0.00000E+00
    0.00000E+00         0.00000E+00        -0.18659E+08
 
   -0.18584E+08         0.77310E+05         0.00000E+00
    0.77310E+05        -0.19132E+07         0.00000E+00
    0.00000E+00         0.00000E+00        -0.18638E+08
 
   -0.18566E+08         0.87101E+05         0.00000E+00
    0.87101E+05        -0.19141E+07         0.00000E+00
    0.00000E+00         0.00000E+00        -0.18618E+08
 
   -0.18548E+08         0.96590E+05         0.00000E+00
    0.96590E+05        -0.19156E+07         0.00000E+00
    0.00000E+00         0.00000E+00        -0.18598E+08
 
   -0.18529E+08         0.10577E+06         0.00000E+00
    0.10577E+06        -0.19175E+07         0.00000E+00
    0.00000E+00         0.00000E+00        -0.18577E+08
 
   -0.18510E+08         0.11463E+06         0.00000E+00
    0.11463E+06        -0.19195E+07         0.00000E+00
    0.00000E+00         0.00000E+00        -0.18557E+08
 
   -0.18490E+08         0.12318E+06         0.00000E+00
    0.12318E+06        -0.19216E+07         0.00000E+00
    0.00000E+00         0.00000E+00        -0.18536E+08
 
   -0.18470E+08         0.13143E+06         0.00000E+00
    0.13143E+06        -0.19236E+07         0.00000E+00
    0.00000E+00         0.00000E+00        -0.18514E+08
 
   -0.18449E+08         0.13939E+06         0.00000E+00
    0.13939E+06        -0.19255E+07         0.00000E+00
    0.00000E+00         0.00000E+00        -0.18492E+08
 
   -0.18428E+08         0.14709E+06         0.00000E+00
    0.14709E+06        -0.19273E+07         0.00000E+00
    0.00000E+00         0.00000E+00        -0.18470E+08
 
   -0.18406E+08         0.15454E+06         0.00000E+00
    0.15454E+06        -0.19288E+07         0.00000E+00
    0.00000E+00         0.00000E+00        -0.18447E+08
 
   -0.18384E+08         0.16177E+06         0.00000E+00
    0.16177E+06        -0.19302E+07         0.00000E+00
    0.00000E+00         0.00000E+00        -0.18424E+08
 
   -0.18361E+08         0.16880E+06         0.00000E+00
    0.16880E+06        -0.19314E+07         0.00000E+00
    0.00000E+00         0.00000E+00        -0.18400E+08
 
   -0.18337E+08         0.17566E+06         0.00000E+00
    0.17566E+06        -0.19324E+07         0.00000E+00
    0.00000E+00         0.00000E+00        -0.18376E+08
 
   -0.18313E+08         0.18236E+06         0.00000E+00
    0.18236E+06        -0.19333E+07         0.00000E+00
    0.00000E+00         0.00000E+00        -0.18351E+08
 
   -0.18288E+08         0.18894E+06         0.00000E+00
    0.18894E+06        -0.19340E+07         0.00000E+00
    0.00000E+00         0.00000E+00        -0.18326E+08
 
   -0.18262E+08         0.19540E+06         0.00000E+00
    0.19540E+06        -0.19346E+07         0.00000E+00
    0.00000E+00         0.00000E+00        -0.18300E+08
 
   -0.18236E+08         0.20178E+06         0.00000E+00
    0.20178E+06        -0.19351E+07         0.00000E+00
    0.00000E+00         0.00000E+00        -0.18273E+08
 
   -0.18208E+08         0.20810E+06         0.00000E+00
    0.20810E+06        -0.19355E+07         0.00000E+00
    0.00000E+00         0.00000E+00        -0.18246E+08
 
   -0.18181E+08         0.21436E+06         0.00000E+00
    0.21436E+06        -0.19358E+07         0.00000E+00
    0.00000E+00         0.00000E+00        -0.18218E+08
 
   -0.18152E+08         0.22058E+06         0.00000E+00
    0.22058E+06        -0.19360E+07         0.00000E+00
    0.00000E+00         0.00000E+00        -0.18189E+08
 
   -0.18123E+08         0.22679E+06         0.00000E+00
    0.22679E+06        -0.19361E+07         0.00000E+00
    0.00000E+00         0.00000E+00        -0.18160E+08
 
   -0.18092E+08         0.23299E+06         0.00000E+00
    0.23299E+06        -0.19362E+07         0.00000E+00
    0.00000E+00         0.00000E+00        -0.18130E+08
 
   -0.18062E+08         0.23918E+06         0.00000E+00
    0.23918E+06        -0.19363E+07         0.00000E+00
    0.00000E+00         0.00000E+00        -0.18099E+08
 
   -0.18030E+08         0.24540E+06         0.00000E+00
    0.24540E+06        -0.19363E+07         0.00000E+00
    0.00000E+00         0.00000E+00        -0.18068E+08
 
   -0.17998E+08         0.25163E+06         0.00000E+00
    0.25163E+06        -0.19362E+07         0.00000E+00
    0.00000E+00         0.00000E+00        -0.18036E+08
 
   -0.17964E+08         0.25789E+06         0.00000E+00
    0.25789E+06        -0.19362E+07         0.00000E+00
    0.00000E+00         0.00000E+00        -0.18003E+08
 
   -0.17930E+08         0.26419E+06         0.00000E+00
    0.26419E+06        -0.19361E+07         0.00000E+00
    0.00000E+00         0.00000E+00        -0.17969E+08
 
   -0.17895E+08         0.27052E+06         0.00000E+00
    0.27052E+06        -0.19360E+07         0.00000E+00
    0.00000E+00         0.00000E+00        -0.17935E+08
 
   -0.17860E+08         0.27690E+06         0.00000E+00
    0.27690E+06        -0.19359E+07         0.00000E+00
    0.00000E+00         0.00000E+00        -0.17900E+08
 
   -0.17823E+08         0.28332E+06         0.00000E+00
    0.28332E+06        -0.19358E+07         0.00000E+00
    0.00000E+00         0.00000E+00        -0.17863E+08
 
   -0.17786E+08         0.28979E+06         0.00000E+00
    0.28979E+06        -0.19356E+07         0.00000E+00
    0.00000E+00         0.00000E+00        -0.17826E+08
 
   -0.17748E+08         0.29631E+06         0.00000E+00
    0.29631E+06        -0.19355E+07         0.00000E+00
    0.00000E+00         0.00000E+00        -0.17789E+08
 
   -0.17708E+08         0.30288E+06         0.00000E+00
    0.30288E+06        -0.19354E+07         0.00000E+00
    0.00000E+00         0.00000E+00        -0.17750E+08
 
   -0.17668E+08         0.30950E+06         0.00000E+00
    0.30950E+06        -0.19352E+07         0.00000E+00
    0.00000E+00         0.00000E+00        -0.17710E+08
 
   -0.17627E+08         0.31616E+06         0.00000E+00
    0.31616E+06        -0.19351E+07         0.00000E+00
    0.00000E+00         0.00000E+00        -0.17670E+08
 
   -0.17586E+08         0.32286E+06         0.00000E+00
    0.32286E+06        -0.19350E+07         0.00000E+00
    0.00000E+00         0.00000E+00        -0.17628E+08
 
   -0.17543E+08         0.32960E+06         0.00000E+00
    0.32960E+06        -0.19349E+07         0.00000E+00
    0.00000E+00         0.00000E+00        -0.17586E+08
 
   -0.17499E+08         0.33637E+06         0.00000E+00
    0.33637E+06        -0.19349E+07         0.00000E+00
    0.00000E+00         0.00000E+00        -0.17542E+08
 
   -0.17454E+08         0.34318E+06         0.00000E+00
    0.34318E+06        -0.19348E+07         0.00000E+00
    0.00000E+00         0.00000E+00        -0.17498E+08
 
   -0.17409E+08         0.35000E+06         0.00000E+00
    0.35000E+06        -0.19348E+07         0.00000E+00
    0.00000E+00         0.00000E+00        -0.17452E+08
 
   -0.17362E+08         0.35684E+06         0.00000E+00
    0.35684E+06        -0.19349E+07         0.00000E+00
    0.00000E+00         0.00000E+00        -0.17406E+08
 
   -0.17314E+08         0.36368E+06         0.00000E+00
    0.36368E+06        -0.19349E+07         0.00000E+00
    0.00000E+00         0.00000E+00        -0.17358E+08
 
   -0.17266E+08         0.37052E+06         0.00000E+00
    0.37052E+06        -0.19350E+07         0.00000E+00
    0.00000E+00         0.00000E+00        -0.17310E+08
 
   -0.17216E+08         0.37735E+06         0.00000E+00
    0.37735E+06        -0.19351E+07         0.00000E+00
    0.00000E+00         0.00000E+00        -0.17260E+08
 
   -0.17165E+08         0.38415E+06         0.00000E+00
    0.38415E+06        -0.19353E+07         0.00000E+00
    0.00000E+00         0.00000E+00        -0.17209E+08
 
   -0.17114E+08         0.39091E+06         0.00000E+00
    0.39091E+06        -0.19356E+07         0.00000E+00
    0.00000E+00         0.00000E+00        -0.17158E+08
 
   -0.17061E+08         0.39763E+06         0.00000E+00
    0.39763E+06        -0.19359E+07         0.00000E+00
    0.00000E+00         0.00000E+00        -0.17105E+08
 
   -0.17007E+08         0.40427E+06         0.00000E+00
    0.40427E+06        -0.19362E+07         0.00000E+00
    0.00000E+00         0.00000E+00        -0.17051E+08
 
   -0.16953E+08         0.41083E+06         0.00000E+00
    0.41083E+06        -0.19366E+07         0.00000E+00
    0.00000E+00         0.00000E+00        -0.16996E+08
 
   -0.16897E+08         0.41730E+06         0.00000E+00
    0.41730E+06        -0.19371E+07         0.00000E+00
    0.00000E+00         0.00000E+00        -0.16939E+08
 
   -0.16840E+08         0.42364E+06         0.00000E+00
    0.42364E+06        -0.19377E+07         0.00000E+00
    0.00000E+00         0.00000E+00        -0.16882E+08
 
   -0.16782E+08         0.42985E+06         0.00000E+00
    0.42985E+06        -0.19384E+07         0.00000E+00
    0.00000E+00         0.00000E+00        -0.16824E+08
 
   -0.16724E+08         0.43589E+06         0.00000E+00
    0.43589E+06        -0.19391E+07         0.00000E+00
    0.00000E+00         0.00000E+00        -0.16764E+08
 
   -0.16664E+08         0.44175E+06         0.00000E+00
    0.44175E+06        -0.19400E+07         0.00000E+00
    0.00000E+00         0.00000E+00        -0.16703E+08
 
   -0.16603E+08         0.44740E+06         0.00000E+00
    0.44740E+06        -0.19409E+07         0.00000E+00
    0.00000E+00         0.00000E+00        -0.16642E+08
 
   -0.16542E+08         0.45281E+06         0.00000E+00
    0.45281E+06        -0.19420E+07         0.00000E+00
    0.00000E+00         0.00000E+00        -0.16579E+08
 
   -0.16479E+08         0.45795E+06         0.00000E+00
    0.45795E+06        -0.19432E+07         0.00000E+00
    0.00000E+00         0.00000E+00        -0.16515E+08
 
   -0.16416E+08         0.46279E+06         0.00000E+00
    0.46279E+06        -0.19445E+07         0.00000E+00
    0.00000E+00         0.00000E+00        -0.16449E+08
 
   -0.16351E+08         0.46729E+06         0.00000E+00
    0.46729E+06        -0.19459E+07         0.00000E+00
    0.00000E+00         0.00000E+00        -0.16383E+08
 
   -0.16286E+08         0.47142E+06         0.00000E+00
    0.47142E+06        -0.19476E+07         0.00000E+00
    0.00000E+00         0.00000E+00        -0.16316E+08
 
   -0.16220E+08         0.47514E+06         0.00000E+00
    0.47514E+06        -0.19493E+07         0.00000E+00
    0.00000E+00         0.00000E+00        -0.16247E+08
 
   -0.16153E+08         0.47840E+06         0.00000E+00
    0.47840E+06        -0.19513E+07         0.00000E+00
    0.00000E+00         0.00000E+00        -0.16178E+08
 
   -0.16086E+08         0.48116E+06         0.00000E+00
    0.48116E+06        -0.19535E+07         0.00000E+00
    0.00000E+00         0.00000E+00        -0.16107E+08
 
   -0.16017E+08         0.48336E+06         0.00000E+00
    0.48336E+06        -0.19559E+07         0.00000E+00
    0.00000E+00         0.00000E+00        -0.16036E+08
 
   -0.15948E+08         0.48496E+06         0.00000E+00
    0.48496E+06        -0.19586E+07         0.00000E+00
    0.00000E+00         0.00000E+00        -0.15963E+08
 
   -0.15879E+08         0.48588E+06         0.00000E+00
    0.48588E+06        -0.19615E+07         0.00000E+00
    0.00000E+00         0.00000E+00        -0.15890E+08
 
   -0.15809E+08         0.48607E+06         0.00000E+00
    0.48607E+06        -0.19647E+07         0.00000E+00
    0.00000E+00         0.00000E+00        -0.15816E+08
 
   -0.15738E+08         0.48546E+06         0.00000E+00
    0.48546E+06        -0.19683E+07         0.00000E+00
    0.00000E+00         0.00000E+00        -0.15741E+08
 
   -0.15667E+08         0.48398E+06         0.00000E+00
    0.48398E+06        -0.19722E+07         0.00000E+00
    0.00000E+00         0.00000E+00        -0.15665E+08
 
   -0.15595E+08         0.48154E+06         0.00000E+00
    0.48154E+06        -0.19765E+07         0.00000E+00
    0.00000E+00         0.00000E+00        -0.15588E+08
 
   -0.15524E+08         0.47807E+06         0.00000E+00
    0.47807E+06        -0.19814E+07         0.00000E+00
    0.00000E+00         0.00000E+00        -0.15511E+08
 
   -0.15452E+08         0.47347E+06         0.00000E+00
    0.47347E+06        -0.19867E+07         0.00000E+00
    0.00000E+00         0.00000E+00        -0.15432E+08
 
   -0.15380E+08         0.46765E+06         0.00000E+00
    0.46765E+06        -0.19926E+07         0.00000E+00
    0.00000E+00         0.00000E+00        -0.15354E+08
 
   -0.15308E+08         0.46052E+06         0.00000E+00
    0.46052E+06        -0.19991E+07         0.00000E+00
    0.00000E+00         0.00000E+00        -0.15274E+08
 
   -0.15235E+08         0.45198E+06         0.00000E+00
    0.45198E+06        -0.20064E+07         0.00000E+00
    0.00000E+00         0.00000E+00        -0.15195E+08
 
   -0.15163E+08         0.44193E+06         0.00000E+00
    0.44193E+06        -0.20143E+07         0.00000E+00
    0.00000E+00         0.00000E+00        -0.15114E+08
 
   -0.15091E+08         0.43026E+06         0.00000E+00
    0.43026E+06        -0.20230E+07         0.00000E+00
    0.00000E+00         0.00000E+00        -0.15034E+08
 
   -0.15019E+08         0.41690E+06         0.00000E+00
    0.41690E+06        -0.20325E+07         0.00000E+00
    0.00000E+00         0.00000E+00        -0.14953E+08
 
   -0.14947E+08         0.40174E+06         0.00000E+00
    0.40174E+06        -0.20427E+07         0.00000E+00
    0.00000E+00         0.00000E+00        -0.14872E+08
 
   -0.14875E+08         0.38472E+06         0.00000E+00
    0.38472E+06        -0.20535E+07         0.00000E+00
    0.00000E+00         0.00000E+00        -0.14790E+08
 
   -0.14803E+08         0.36576E+06         0.00000E+00
    0.36576E+06        -0.20647E+07         0.00000E+00
    0.00000E+00         0.00000E+00        -0.14708E+08
 
   -0.14730E+08         0.34483E+06         0.00000E+00
    0.34483E+06        -0.20761E+07         0.00000E+00
    0.00000E+00         0.00000E+00        -0.14625E+08
 
   -0.14658E+08         0.32192E+06         0.00000E+00
    0.32192E+06        -0.20872E+07         0.00000E+00
    0.00000E+00         0.00000E+00        -0.14542E+08
 
   -0.14586E+08         0.29703E+06         0.00000E+00
    0.29703E+06        -0.20973E+07         0.00000E+00
    0.00000E+00         0.00000E+00        -0.14458E+08
 
   -0.14513E+08         0.27022E+06         0.00000E+00
    0.27022E+06        -0.21053E+07         0.00000E+00
    0.00000E+00         0.00000E+00        -0.14373E+08
 
   -0.14441E+08         0.24157E+06         0.00000E+00
    0.24157E+06        -0.21101E+07         0.00000E+00
    0.00000E+00         0.00000E+00        -0.14287E+08
 
   -0.14370E+08         0.21123E+06         0.00000E+00
    0.21123E+06        -0.21098E+07         0.00000E+00
    0.00000E+00         0.00000E+00        -0.14199E+08
 
   -0.14300E+08         0.17935E+06         0.00000E+00
    0.17935E+06        -0.21022E+07         0.00000E+00
    0.00000E+00         0.00000E+00        -0.14109E+08
 
   -0.14234E+08         0.14615E+06         0.00000E+00
    0.14615E+06        -0.20845E+07         0.00000E+00
    0.00000E+00         0.00000E+00        -0.14018E+08
 
   -0.14174E+08         0.11199E+06         0.00000E+00
    0.11199E+06        -0.20534E+07         0.00000E+00
    0.00000E+00         0.00000E+00        -0.13923E+08
 
   -0.14125E+08         0.77725E+05         0.00000E+00
    0.77725E+05        -0.20058E+07         0.00000E+00
    0.00000E+00         0.00000E+00        -0.13827E+08
 
   -0.14089E+08         0.44869E+05         0.00000E+00
    0.44869E+05        -0.19403E+07         0.00000E+00
    0.00000E+00         0.00000E+00        -0.13730E+08
 
   -0.14071E+08         0.14512E+05         0.00000E+00
    0.14512E+05        -0.18583E+07         0.00000E+00
    0.00000E+00         0.00000E+00        -0.13632E+08
 
   -0.18663E+08         0.43485E+04         0.00000E+00
    0.43485E+04        -0.19698E+07         0.00000E+00
    0.00000E+00         0.00000E+00        -0.18782E+08
 
   -0.18659E+08         0.13352E+05         0.00000E+00
    0.13352E+05        -0.19521E+07         0.00000E+00
    0.00000E+00         0.00000E+00        -0.18761E+08
 
   -0.18652E+08         0.22985E+05         0.00000E+00
    0.22985E+05        -0.19381E+07         0.00000E+00
    0.00000E+00         0.00000E+00        -0.18740E+08
 
   -0.18641E+08         0.33105E+05         0.00000E+00
    0.33105E+05        -0.19279E+07         0.00000E+00
    0.00000E+00         0.00000E+00        -0.18719E+08
 
   -0.18627E+08         0.43413E+05         0.00000E+00
    0.43413E+05        -0.19212E+07         0.00000E+00
    0.00000E+00         0.00000E+00        -0.18698E+08
 
   -0.18612E+08         0.53701E+05         0.00000E+00
    0.53701E+05        -0.19172E+07         0.00000E+00
    0.00000E+00         0.00000E+00        -0.18678E+08
 
   -0.18596E+08         0.63854E+05         0.00000E+00
    0.63854E+05        -0.19155E+07         0.00000E+00
    0.00000E+00         0.00000E+00        -0.18658E+08
 
   -0.18579E+08         0.73801E+05         0.00000E+00
    0.73801E+05        -0.19152E+07         0.00000E+00
    0.00000E+00         0.00000E+00        -0.18637E+08
 
   -0.18561E+08         0.83492E+05         0.00000E+00
    0.83492E+05        -0.19160E+07         0.00000E+00
    0.00000E+00         0.00000E+00        -0.18617E+08
 
   -0.18543E+08         0.92893E+05         0.00000E+00
    0.92893E+05        -0.19174E+07         0.00000E+00
    0.00000E+00         0.00000E+00        -0.18597E+08
 
   -0.18525E+08         0.10198E+06         0.00000E+00
    0.10198E+06        -0.19193E+07         0.00000E+00
    0.00000E+00         0.00000E+00        -0.18577E+08
 
   -0.18506E+08         0.11076E+06         0.00000E+00
    0.11076E+06        -0.19213E+07         0.00000E+00
    0.00000E+00         0.00000E+00        -0.18556E+08
 
   -0.18486E+08         0.11921E+06         0.00000E+00
    0.11921E+06        -0.19233E+07         0.00000E+00
    0.00000E+00         0.00000E+00        -0.18535E+08
 
   -0.18466E+08         0.12736E+06         0.00000E+00
    0.12736E+06        -0.19253E+07         0.00000E+00
    0.00000E+00         0.00000E+00        -0.18513E+08
 
   -0.18446E+08         0.13521E+06         0.00000E+00
    0.13521E+06        -0.19271E+07         0.00000E+00
    0.00000E+00         0.00000E+00        -0.18492E+08
 
   -0.18424E+08         0.14280E+06         0.00000E+00
    0.14280E+06        -0.19288E+07         0.00000E+00
    0.00000E+00         0.00000E+00        -0.18469E+08
 
   -0.18403E+08         0.15013E+06         0.00000E+00
    0.15013E+06        -0.19303E+07         0.00000E+00
    0.00000E+00         0.00000E+00        -0.18447E+08
 
   -0.18380E+08         0.15723E+06         0.00000E+00
    0.15723E+06        -0.19316E+07         0.00000E+00
    0.00000E+00         0.00000E+00        -0.18424E+08
 
   -0.18357E+08         0.16413E+06         0.00000E+00
    0.16413E+06        -0.19328E+07         0.00000E+00
    0.00000E+00         0.00000E+00        -0.18400E+08
 
   -0.18334E+08         0.17085E+06         0.00000E+00
    0.17085E+06        -0.19338E+07         0.00000E+00
    0.00000E+00         0.00000E+00        -0.18375E+08
 
   -0.18309E+08         0.17742E+06         0.00000E+00
    0.17742E+06        -0.19346E+07         0.00000E+00
    0.00000E+00         0.00000E+00        -0.18351E+08
 
   -0.18284E+08         0.18386E+06         0.00000E+00
    0.18386E+06        -0.19353E+07         0.00000E+00
    0.00000E+00         0.00000E+00        -0.18325E+08
 
   -0.18259E+08         0.19019E+06         0.00000E+00
    0.19019E+06        -0.19359E+07         0.00000E+00
    0.00000E+00         0.00000E+00        -0.18299E+08
 
   -0.18232E+08         0.19642E+06         0.00000E+00
    0.19642E+06        -0.19364E+07         0.00000E+00
    0.00000E+00         0.00000E+00        -0.18272E+08
 
   -0.18205E+08         0.20259E+06         0.00000E+00
    0.20259E+06        -0.19367E+07         0.00000E+00
    0.00000E+00         0.00000E+00        -0.18245E+08
 
   -0.18177E+08         0.20871E+06         0.00000E+00
    0.20871E+06        -0.19370E+07         0.00000E+00
    0.00000E+00         0.00000E+00        -0.18217E+08
 
   -0.18149E+08         0.21479E+06         0.00000E+00
    0.21479E+06        -0.19372E+07         0.00000E+00
    0.00000E+00         0.00000E+00        -0.18189E+08
 
   -0.18119E+08         0.22084E+06         0.00000E+00
    0.22084E+06        -0.19374E+07         0.00000E+00
    0.00000E+00         0.00000E+00        -0.18159E+08
 
   -0.18089E+08         0.22688E+06         0.00000E+00
    0.22688E+06        -0.19375E+07         0.00000E+00
    0.00000E+00         0.00000E+00        -0.18129E+08
 
   -0.18058E+08         0.23293E+06         0.00000E+00
    0.23293E+06        -0.19375E+07         0.00000E+00
    0.00000E+00         0.00000E+00        -0.18099E+08
 
   -0.18026E+08         0.23899E+06         0.00000E+00
    0.23899E+06        -0.19375E+07         0.00000E+00
    0.00000E+00         0.00000E+00        -0.18067E+08
 
   -0.17994E+08         0.24506E+06         0.00000E+00
    0.24506E+06        -0.19375E+07         0.00000E+00
    0.00000E+00         0.00000E+00        -0.18035E+08
 
   -0.17961E+08         0.25116E+06         0.00000E+00
    0.25116E+06        -0.19374E+07         0.00000E+00
    0.00000E+00         0.00000E+00        -0.18002E+08
 
   -0.17927E+08         0.25729E+06         0.00000E+00
    0.25729E+06        -0.19373E+07         0.00000E+00
    0.00000E+00         0.00000E+00        -0.17969E+08
 
   -0.17892E+08         0.26346E+06         0.00000E+00
    0.26346E+06        -0.19373E+07         0.00000E+00
    0.00000E+00         0.00000E+00        -0.17934E+08
 
   -0.17856E+08         0.26967E+06         0.00000E+00
    0.26967E+06        -0.19371E+07         0.00000E+00
    0.00000E+00         0.00000E+00        -0.17899E+08
 
   -0.17819E+08         0.27593E+06         0.00000E+00
    0.27593E+06        -0.19370E+07         0.00000E+00
    0.00000E+00         0.00000E+00        -0.17863E+08
 
   -0.17782E+08         0.28223E+06         0.00000E+00
    0.28223E+06        -0.19369E+07         0.00000E+00
    0.00000E+00         0.00000E+00        -0.17826E+08
 
   -0.17744E+08         0.28857E+06         0.00000E+00
    0.28857E+06        -0.19368E+07         0.00000E+00
    0.00000E+00         0.00000E+00        -0.17788E+08
 
   -0.17705E+08         0.29496E+06         0.00000E+00
    0.29496E+06        -0.19367E+07         0.00000E+00
    0.00000E+00         0.00000E+00        -0.17749E+08
 
   -0.17664E+08         0.30139E+06         0.00000E+00
    0.30139E+06        -0.19366E+07         0.00000E+00
    0.00000E+00         0.00000E+00        -0.17709E+08
 
   -0.17623E+08         0.30787E+06         0.00000E+00
    0.30787E+06        -0.19364E+07         0.00000E+00
    0.00000E+00         0.00000E+00        -0.17669E+08
 
   -0.17582E+08         0.31439E+06         0.00000E+00
    0.31439E+06        -0.19364E+07         0.00000E+00
    0.00000E+00         0.00000E+00        -0.17627E+08
 
   -0.17539E+08         0.32094E+06         0.00000E+00
    0.32094E+06        -0.19363E+07         0.00000E+00
    0.00000E+00         0.00000E+00        -0.17585E+08
 
   -0.17495E+08         0.32753E+06         0.00000E+00
    0.32753E+06        -0.19362E+07         0.00000E+00
    0.00000E+00         0.00000E+00        -0.17541E+08
 
   -0.17450E+08         0.33414E+06         0.00000E+00
    0.33414E+06        -0.19362E+07         0.00000E+00
    0.00000E+00         0.00000E+00        -0.17497E+08
 
   -0.17404E+08         0.34077E+06         0.00000E+00
    0.34077E+06        -0.19362E+07         0.00000E+00
    0.00000E+00         0.00000E+00        -0.17451E+08
 
   -0.17358E+08         0.34741E+06         0.00000E+00
    0.34741E+06        -0.19362E+07         0.00000E+00
    0.00000E+00         0.00000E+00        -0.17405E+08
 
   -0.17310E+08         0.35405E+06         0.00000E+00
    0.35405E+06        -0.19363E+07         0.00000E+00
    0.00000E+00         0.00000E+00        -0.17357E+08
 
   -0.17262E+08         0.36070E+06         0.00000E+00
    0.36070E+06        -0.19364E+07         0.00000E+00
    0.00000E+00         0.00000E+00        -0.17309E+08
 
   -0.17212E+08         0.36732E+06         0.00000E+00
    0.36732E+06        -0.19365E+07         0.00000E+00
    0.00000E+00         0.00000E+00        -0.17259E+08
 
   -0.17161E+08         0.37392E+06         0.00000E+00
    0.37392E+06        -0.19367E+07         0.00000E+00
    0.00000E+00         0.00000E+00        -0.17209E+08
 
   -0.17110E+08         0.38048E+06         0.00000E+00
    0.38048E+06        -0.19369E+07         0.00000E+00
    0.00000E+00         0.00000E+00        -0.17157E+08
 
   -0.17057E+08         0.38699E+06         0.00000E+00
    0.38699E+06        -0.19372E+07         0.00000E+00
    0.00000E+00         0.00000E+00        -0.17104E+08
 
   -0.17003E+08         0.39344E+06         0.00000E+00
    0.39344E+06        -0.19375E+07         0.00000E+00
    0.00000E+00         0.00000E+00        -0.17050E+08
 
   -0.16949E+08         0.39980E+06         0.00000E+00
    0.39980E+06        -0.19379E+07         0.00000E+00
    0.00000E+00         0.00000E+00        -0.16995E+08
 
   -0.16893E+08         0.40606E+06         0.00000E+00
    0.40606E+06        -0.19384E+07         0.00000E+00
    0.00000E+00         0.00000E+00        -0.16939E+08
 
   -0.16836E+08         0.41220E+06         0.00000E+00
    0.41220E+06        -0.19389E+07         0.00000E+00
    0.00000E+00         0.00000E+00        -0.16881E+08
 
   -0.16779E+08         0.41821E+06         0.00000E+00
    0.41821E+06        -0.19396E+07         0.00000E+00
    0.00000E+00         0.00000E+00        -0.16823E+08
 
   -0.16720E+08         0.42406E+06         0.00000E+00
    0.42406E+06        -0.19403E+07         0.00000E+00
    0.00000E+00         0.00000E+00        -0.16763E+08
 
   -0.16660E+08         0.42972E+06         0.00000E+00
    0.42972E+06        -0.19411E+07         0.00000E+00
    0.00000E+00         0.00000E+00        -0.16703E+08
 
   -0.16600E+08         0.43518E+06         0.00000E+00
    0.43518E+06        -0.19420E+07         0.00000E+00
    0.00000E+00         0.00000E+00        -0.16641E+08
 
   -0.16538E+08         0.44040E+06         0.00000E+00
    0.44040E+06        -0.19430E+07         0.00000E+00
    0.00000E+00         0.00000E+00        -0.16578E+08
 
   -0.16476E+08         0.44535E+06         0.00000E+00
    0.44535E+06        -0.19441E+07         0.00000E+00
    0.00000E+00         0.00000E+00        -0.16514E+08
 
   -0.16413E+08         0.45001E+06         0.00000E+00
    0.45001E+06        -0.19454E+07         0.00000E+00
    0.00000E+00         0.00000E+00        -0.16449E+08
 
   -0.16348E+08         0.45435E+06         0.00000E+00
    0.45435E+06        -0.19468E+07         0.00000E+00
    0.00000E+00         0.00000E+00        -0.16382E+08
 
   -0.16283E+08         0.45831E+06         0.00000E+00
    0.45831E+06        -0.19483E+07         0.00000E+00
    0.00000E+00         0.00000E+00        -0.16315E+08
 
   -0.16217E+08         0.46187E+06         0.00000E+00
    0.46187E+06        -0.19500E+07         0.00000E+00
    0.00000E+00         0.00000E+00        -0.16247E+08
 
   -0.16151E+08         0.46498E+06         0.00000E+00
    0.46498E+06        -0.19519E+07         0.00000E+00
    0.00000E+00         0.00000E+00        -0.16177E+08
 
   -0.16083E+08         0.46759E+06         0.00000E+00
    0.46759E+06        -0.19540E+07         0.00000E+00
    0.00000E+00         0.00000E+00        -0.16107E+08
 
   -0.16015E+08         0.46966E+06         0.00000E+00
    0.46966E+06        -0.19563E+07         0.00000E+00
    0.00000E+00         0.00000E+00        -0.16035E+08
 
   -0.15947E+08         0.47113E+06         0.00000E+00
    0.47113E+06        -0.19588E+07         0.00000E+00
    0.00000E+00         0.00000E+00        -0.15963E+08
 
   -0.15877E+08         0.47194E+06         0.00000E+00
    0.47194E+06        -0.19616E+07         0.00000E+00
    0.00000E+00         0.00000E+00        -0.15890E+08
 
   -0.15808E+08         0.47203E+06         0.00000E+00
    0.47203E+06        -0.19646E+07         0.00000E+00
    0.00000E+00         0.00000E+00        -0.15816E+08
 
   -0.15737E+08         0.47134E+06         0.00000E+00
    0.47134E+06        -0.19680E+07         0.00000E+00
    0.00000E+00         0.00000E+00        -0.15740E+08
 
   -0.15667E+08         0.46978E+06         0.00000E+00
    0.46978E+06        -0.19718E+07         0.00000E+00
    0.00000E+00         0.00000E+00        -0.15665E+08
 
   -0.15596E+08         0.46728E+06         0.00000E+00
    0.46728E+06        -0.19759E+07         0.00000E+00
    0.00000E+00         0.00000E+00        -0.15588E+08
 
   -0.15525E+08         0.46376E+06         0.00000E+00
    0.46376E+06        -0.19806E+07         0.00000E+00
    0.00000E+00         0.00000E+00        -0.15511E+08
 
   -0.15453E+08         0.45912E+06         0.00000E+00
    0.45912E+06        -0.19857E+07         0.00000E+00
    0.00000E+00         0.00000E+00        -0.15433E+08
 
   -0.15382E+08         0.45329E+06         0.00000E+00
    0.45329E+06        -0.19913E+07         0.00000E+00
    0.00000E+00         0.00000E+00        -0.15354E+08
 
   -0.15310E+08         0.44615E+06         0.00000E+00
    0.44615E+06        -0.19976E+07         0.00000E+00
    0.00000E+00         0.00000E+00        -0.15275E+08
 
   -0.15239E+08         0.43761E+06         0.00000E+00
    0.43761E+06        -0.20045E+07         0.00000E+00
    0.00000E+00         0.00000E+00        -0.15195E+08
 
   -0.15167E+08         0.42757E+06         0.00000E+00
    0.42757E+06        -0.20121E+07         0.00000E+00
    0.00000E+00         0.00000E+00        -0.15115E+08
 
   -0.15096E+08         0.41592E+06         0.00000E+00
    0.41592E+06        -0.20205E+07         0.00000E+00
    0.00000E+00         0.00000E+00        -0.15035E+08
 
   -0.15025E+08         0.40257E+06         0.00000E+00
    0.40257E+06        -0.20296E+07         0.00000E+00
    0.00000E+00         0.00000E+00        -0.14954E+08
 
   -0.14954E+08         0.38742E+06         0.00000E+00
    0.38742E+06        -0.20394E+07         0.00000E+00
    0.00000E+00         0.00000E+00        -0.14873E+08
 
   -0.14883E+08         0.37040E+06         0.00000E+00
    0.37040E+06        -0.20499E+07         0.00000E+00
    0.00000E+00         0.00000E+00        -0.14791E+08
 
   -0.14812E+08         0.35144E+06         0.00000E+00
    0.35144E+06        -0.20607E+07         0.00000E+00
    0.00000E+00         0.00000E+00        -0.14709E+08
 
   -0.14741E+08         0.33050E+06         0.00000E+00
    0.33050E+06        -0.20718E+07         0.00000E+00
    0.00000E+00         0.00000E+00        -0.14627E+08
 
   -0.14670E+08         0.30757E+06         0.00000E+00
    0.30757E+06        -0.20824E+07         0.00000E+00
    0.00000E+00         0.00000E+00        -0.14544E+08
 
   -0.14599E+08         0.28268E+06         0.00000E+00
    0.28268E+06        -0.20921E+07         0.00000E+00
    0.00000E+00         0.00000E+00        -0.14460E+08
 
   -0.14528E+08         0.25590E+06         0.00000E+00
    0.25590E+06        -0.20998E+07         0.00000E+00
    0.00000E+00         0.00000E+00        -0.14376E+08
 
   -0.14457E+08         0.22736E+06         0.00000E+00
    0.22736E+06        -0.21042E+07         0.00000E+00
    0.00000E+00         0.00000E+00        -0.14290E+08
 
   -0.14388E+08         0.19728E+06         0.00000E+00
    0.19728E+06        -0.21036E+07         0.00000E+00
    0.00000E+00         0.00000E+00        -0.14203E+08
 
   -0.14321E+08         0.16594E+06         0.00000E+00
    0.16594E+06        -0.20958E+07         0.00000E+00
    0.00000E+00         0.00000E+00        -0.14114E+08
 
   -0.14257E+08         0.13370E+06         0.00000E+00
    0.13370E+06        -0.20778E+07         0.00000E+00
    0.00000E+00         0.00000E+00        -0.14022E+08
 
   -0.14200E+08         0.10115E+06         0.00000E+00
    0.10115E+06        -0.20467E+07         0.00000E+00
    0.00000E+00         0.00000E+00        -0.13929E+08
 
   -0.14153E+08         0.69305E+05         0.00000E+00
    0.69305E+05        -0.19993E+07         0.00000E+00
    0.00000E+00         0.00000E+00        -0.13833E+08
 
   -0.14119E+08         0.39599E+05         0.00000E+00
    0.39599E+05        -0.19344E+07         0.00000E+00
    0.00000E+00         0.00000E+00        -0.13737E+08
 
   -0.14102E+08         0.12736E+05         0.00000E+00
    0.12736E+05        -0.18528E+07         0.00000E+00
    0.00000E+00         0.00000E+00        -0.13640E+08
 
   -0.18655E+08         0.39610E+04         0.00000E+00
    0.39610E+04        -0.19714E+07         0.00000E+00
    0.00000E+00         0.00000E+00        -0.18780E+08
 
   -0.18652E+08         0.12200E+05         0.00000E+00
    0.12200E+05        -0.19539E+07         0.00000E+00
    0.00000E+00         0.00000E+00        -0.18759E+08
 
   -0.18644E+08         0.21131E+05         0.00000E+00
    0.21131E+05        -0.19400E+07         0.00000E+00
    0.00000E+00         0.00000E+00        -0.18738E+08
 
   -0.18634E+08         0.30682E+05         0.00000E+00
    0.30682E+05        -0.19299E+07         0.00000E+00
    0.00000E+00         0.00000E+00        -0.18718E+08
 
   -0.18621E+08         0.40580E+05         0.00000E+00
    0.40580E+05        -0.19232E+07         0.00000E+00
    0.00000E+00         0.00000E+00        -0.18697E+08
 
   -0.18606E+08         0.50589E+05         0.00000E+00
    0.50589E+05        -0.19193E+07         0.00000E+00
    0.00000E+00         0.00000E+00        -0.18677E+08
 
   -0.18590E+08         0.60550E+05         0.00000E+00
    0.60550E+05        -0.19175E+07         0.00000E+00
    0.00000E+00         0.00000E+00        -0.18656E+08
 
   -0.18574E+08         0.70359E+05         0.00000E+00
    0.70359E+05        -0.19172E+07         0.00000E+00
    0.00000E+00         0.00000E+00        -0.18636E+08
 
   -0.18556E+08         0.79942E+05         0.00000E+00
    0.79942E+05        -0.19179E+07         0.00000E+00
    0.00000E+00         0.00000E+00        -0.18616E+08
 
   -0.18538E+08         0.89247E+05         0.00000E+00
    0.89247E+05        -0.19193E+07         0.00000E+00
    0.00000E+00         0.00000E+00        -0.18596E+08
 
   -0.18520E+08         0.98246E+05         0.00000E+00
    0.98246E+05        -0.19210E+07         0.00000E+00
    0.00000E+00         0.00000E+00        -0.18576E+08
 
   -0.18501E+08         0.10692E+06         0.00000E+00
    0.10692E+06        -0.19230E+07         0.00000E+00
    0.00000E+00         0.00000E+00        -0.18555E+08
 
   -0.18482E+08         0.11528E+06         0.00000E+00
    0.11528E+06        -0.19249E+07         0.00000E+00
    0.00000E+00         0.00000E+00        -0.18534E+08
 
   -0.18462E+08         0.12332E+06         0.00000E+00
    0.12332E+06        -0.19268E+07         0.00000E+00
    0.00000E+00         0.00000E+00        -0.18513E+08
 
   -0.18442E+08         0.13106E+06         0.00000E+00
    0.13106E+06        -0.19286E+07         0.00000E+00
    0.00000E+00         0.00000E+00        -0.18491E+08
 
   -0.18421E+08         0.13853E+06         0.00000E+00
    0.13853E+06        -0.19303E+07         0.00000E+00
    0.00000E+00         0.00000E+00        -0.18469E+08
 
   -0.18399E+08         0.14573E+06         0.00000E+00
    0.14573E+06        -0.19317E+07         0.00000E+00
    0.00000E+00         0.00000E+00        -0.18446E+08
 
   -0.18377E+08         0.15271E+06         0.00000E+00
    0.15271E+06        -0.19330E+07         0.00000E+00
    0.00000E+00         0.00000E+00        -0.18423E+08
 
   -0.18354E+08         0.15948E+06         0.00000E+00
    0.15948E+06        -0.19341E+07         0.00000E+00
    0.00000E+00         0.00000E+00        -0.18399E+08
 
   -0.18330E+08         0.16606E+06         0.00000E+00
    0.16606E+06        -0.19351E+07         0.00000E+00
    0.00000E+00         0.00000E+00        -0.18375E+08
 
   -0.18306E+08         0.17249E+06         0.00000E+00
    0.17249E+06        -0.19359E+07         0.00000E+00
    0.00000E+00         0.00000E+00        -0.18350E+08
 
   -0.18281E+08         0.17879E+06         0.00000E+00
    0.17879E+06        -0.19366E+07         0.00000E+00
    0.00000E+00         0.00000E+00        -0.18325E+08
 
   -0.18255E+08         0.18497E+06         0.00000E+00
    0.18497E+06        -0.19371E+07         0.00000E+00
    0.00000E+00         0.00000E+00        -0.18298E+08
 
   -0.18229E+08         0.19107E+06         0.00000E+00
    0.19107E+06        -0.19376E+07         0.00000E+00
    0.00000E+00         0.00000E+00        -0.18272E+08
 
   -0.18202E+08         0.19709E+06         0.00000E+00
    0.19709E+06        -0.19379E+07         0.00000E+00
    0.00000E+00         0.00000E+00        -0.18244E+08
 
   -0.18174E+08         0.20306E+06         0.00000E+00
    0.20306E+06        -0.19382E+07         0.00000E+00
    0.00000E+00         0.00000E+00        -0.18217E+08
 
   -0.18145E+08         0.20898E+06         0.00000E+00
    0.20898E+06        -0.19384E+07         0.00000E+00
    0.00000E+00         0.00000E+00        -0.18188E+08
 
   -0.18116E+08         0.21489E+06         0.00000E+00
    0.21489E+06        -0.19386E+07         0.00000E+00
    0.00000E+00         0.00000E+00        -0.18159E+08
 
   -0.18086E+08         0.22078E+06         0.00000E+00
    0.22078E+06        -0.19386E+07         0.00000E+00
    0.00000E+00         0.00000E+00        -0.18129E+08
 
   -0.18055E+08         0.22667E+06         0.00000E+00
    0.22667E+06        -0.19387E+07         0.00000E+00
    0.00000E+00         0.00000E+00        -0.18098E+08
 
   -0.18023E+08         0.23257E+06         0.00000E+00
    0.23257E+06        -0.19387E+07         0.00000E+00
    0.00000E+00         0.00000E+00        -0.18067E+08
 
   -0.17990E+08         0.23849E+06         0.00000E+00
    0.23849E+06        -0.19387E+07         0.00000E+00
    0.00000E+00         0.00000E+00        -0.18034E+08
 
   -0.17957E+08         0.24443E+06         0.00000E+00
    0.24443E+06        -0.19386E+07         0.00000E+00
    0.00000E+00         0.00000E+00        -0.18002E+08
 
   -0.17923E+08         0.25040E+06         0.00000E+00
    0.25040E+06        -0.19386E+07         0.00000E+00
    0.00000E+00         0.00000E+00        -0.17968E+08
 
   -0.17888E+08         0.25640E+06         0.00000E+00
    0.25640E+06        -0.19385E+07         0.00000E+00
    0.00000E+00         0.00000E+00        -0.17933E+08
 
   -0.17852E+08         0.26244E+06         0.00000E+00
    0.26244E+06        -0.19384E+07         0.00000E+00
    0.00000E+00         0.00000E+00        -0.17898E+08
 
   -0.17816E+08         0.26852E+06         0.00000E+00
    0.26852E+06        -0.19383E+07         0.00000E+00
    0.00000E+00         0.00000E+00        -0.17862E+08
 
   -0.17778E+08         0.27465E+06         0.00000E+00
    0.27465E+06        -0.19382E+07         0.00000E+00
    0.00000E+00         0.00000E+00        -0.17825E+08
 
   -0.17740E+08         0.28082E+06         0.00000E+00
    0.28082E+06        -0.19380E+07         0.00000E+00
    0.00000E+00         0.00000E+00        -0.17787E+08
 
   -0.17701E+08         0.28703E+06         0.00000E+00
    0.28703E+06        -0.19379E+07         0.00000E+00
    0.00000E+00         0.00000E+00        -0.17748E+08
 
   -0.17661E+08         0.29328E+06         0.00000E+00
    0.29328E+06        -0.19378E+07         0.00000E+00
    0.00000E+00         0.00000E+00        -0.17709E+08
 
   -0.17620E+08         0.29958E+06         0.00000E+00
    0.29958E+06        -0.19377E+07         0.00000E+00
    0.00000E+00         0.00000E+00        -0.17668E+08
 
   -0.17578E+08         0.30591E+06         0.00000E+00
    0.30591E+06        -0.19376E+07         0.00000E+00
    0.00000E+00         0.00000E+00        -0.17627E+08
 
   -0.17535E+08         0.31228E+06         0.00000E+00
    0.31228E+06        -0.19376E+07         0.00000E+00
    0.00000E+00         0.00000E+00        -0.17584E+08
 
   -0.17491E+08         0.31867E+06         0.00000E+00
    0.31867E+06        -0.19375E+07         0.00000E+00
    0.00000E+00         0.00000E+00        -0.17541E+08
 
   -0.17446E+08         0.32509E+06         0.00000E+00
    0.32509E+06        -0.19375E+07         0.00000E+00
    0.00000E+00         0.00000E+00        -0.17496E+08
 
   -0.17400E+08         0.33153E+06         0.00000E+00
    0.33153E+06        -0.19375E+07         0.00000E+00
    0.00000E+00         0.00000E+00        -0.17451E+08
 
   -0.17354E+08         0.33797E+06         0.00000E+00
    0.33797E+06        -0.19375E+07         0.00000E+00
    0.00000E+00         0.00000E+00        -0.17404E+08
 
   -0.17306E+08         0.34442E+06         0.00000E+00
    0.34442E+06        -0.19376E+07         0.00000E+00
    0.00000E+00         0.00000E+00        -0.17357E+08
 
   -0.17257E+08         0.35087E+06         0.00000E+00
    0.35087E+06        -0.19377E+07         0.00000E+00
    0.00000E+00         0.00000E+00        -0.17308E+08
 
   -0.17208E+08         0.35729E+06         0.00000E+00
    0.35729E+06        -0.19378E+07         0.00000E+00
    0.00000E+00         0.00000E+00        -0.17258E+08
 
   -0.17157E+08         0.36369E+06         0.00000E+00
    0.36369E+06        -0.19380E+07         0.00000E+00
    0.00000E+00         0.00000E+00        -0.17208E+08
 
   -0.17106E+08         0.37006E+06         0.00000E+00
    0.37006E+06        -0.19382E+07         0.00000E+00
    0.00000E+00         0.00000E+00        -0.17156E+08
 
   -0.17053E+08         0.37637E+06         0.00000E+00
    0.37637E+06        -0.19385E+07         0.00000E+00
    0.00000E+00         0.00000E+00        -0.17103E+08
 
   -0.16999E+08         0.38261E+06         0.00000E+00
    0.38261E+06        -0.19388E+07         0.00000E+00
    0.00000E+00         0.00000E+00        -0.17049E+08
 
   -0.16945E+08         0.38877E+06         0.00000E+00
    0.38877E+06        -0.19392E+07         0.00000E+00
    0.00000E+00         0.00000E+00        -0.16994E+08
 
   -0.16889E+08         0.39483E+06         0.00000E+00
    0.39483E+06        -0.19396E+07         0.00000E+00
    0.00000E+00         0.00000E+00        -0.16938E+08
 
   -0.16832E+08         0.40078E+06         0.00000E+00
    0.40078E+06        -0.19401E+07         0.00000E+00
    0.00000E+00         0.00000E+00        -0.16881E+08
 
   -0.16775E+08         0.40659E+06         0.00000E+00
    0.40659E+06        -0.19407E+07         0.00000E+00
    0.00000E+00         0.00000E+00        -0.16822E+08
 
   -0.16716E+08         0.41224E+06         0.00000E+00
    0.41224E+06        -0.19414E+07         0.00000E+00
    0.00000E+00         0.00000E+00        -0.16763E+08
 
   -0.16657E+08         0.41771E+06         0.00000E+00
    0.41771E+06        -0.19422E+07         0.00000E+00
    0.00000E+00         0.00000E+00        -0.16702E+08
 
   -0.16596E+08         0.42298E+06         0.00000E+00
    0.42298E+06        -0.19430E+07         0.00000E+00
    0.00000E+00         0.00000E+00        -0.16640E+08
 
   -0.16535E+08         0.42801E+06         0.00000E+00
    0.42801E+06        -0.19440E+07         0.00000E+00
    0.00000E+00         0.00000E+00        -0.16577E+08
 
   -0.16473E+08         0.43279E+06         0.00000E+00
    0.43279E+06        -0.19451E+07         0.00000E+00
    0.00000E+00         0.00000E+00        -0.16513E+08
 
   -0.16409E+08         0.43727E+06         0.00000E+00
    0.43727E+06        -0.19463E+07         0.00000E+00
    0.00000E+00         0.00000E+00        -0.16448E+08
 
   -0.16345E+08         0.44144E+06         0.00000E+00
    0.44144E+06        -0.19476E+07         0.00000E+00
    0.00000E+00         0.00000E+00        -0.16382E+08
 
   -0.16280E+08         0.44524E+06         0.00000E+00
    0.44524E+06        -0.19491E+07         0.00000E+00
    0.00000E+00         0.00000E+00        -0.16314E+08
 
   -0.16215E+08         0.44864E+06         0.00000E+00
    0.44864E+06        -0.19507E+07         0.00000E+00
    0.00000E+00         0.00000E+00        -0.16246E+08
 
   -0.16148E+08         0.45160E+06         0.00000E+00
    0.45160E+06        -0.19525E+07         0.00000E+00
    0.00000E+00         0.00000E+00        -0.16177E+08
 
   -0.16081E+08         0.45408E+06         0.00000E+00
    0.45408E+06        -0.19544E+07         0.00000E+00
    0.00000E+00         0.00000E+00        -0.16106E+08
 
   -0.16013E+08         0.45602E+06         0.00000E+00
    0.45602E+06        -0.19566E+07         0.00000E+00
    0.00000E+00         0.00000E+00        -0.16035E+08
 
   -0.15945E+08         0.45737E+06         0.00000E+00
    0.45737E+06        -0.19590E+07         0.00000E+00
    0.00000E+00         0.00000E+00        -0.15963E+08
 
   -0.15876E+08         0.45807E+06         0.00000E+00
    0.45807E+06        -0.19617E+07         0.00000E+00
    0.00000E+00         0.00000E+00        -0.15889E+08
 
   -0.15807E+08         0.45807E+06         0.00000E+00
    0.45807E+06        -0.19646E+07         0.00000E+00
    0.00000E+00         0.00000E+00        -0.15815E+08
 
   -0.15737E+08         0.45729E+06         0.00000E+00
    0.45729E+06        -0.19678E+07         0.00000E+00
    0.00000E+00         0.00000E+00        -0.15740E+08
 
   -0.15667E+08         0.45567E+06         0.00000E+00
    0.45567E+06        -0.19714E+07         0.00000E+00
    0.00000E+00         0.00000E+00        -0.15664E+08
 
   -0.15596E+08         0.45312E+06         0.00000E+00
    0.45312E+06        -0.19753E+07         0.00000E+00
    0.00000E+00         0.00000E+00        -0.15588E+08
 
   -0.15526E+08         0.44956E+06         0.00000E+00
    0.44956E+06        -0.19797E+07         0.00000E+00
    0.00000E+00         0.00000E+00        -0.15511E+08
 
   -0.15455E+08         0.44490E+06         0.00000E+00
    0.44490E+06        -0.19846E+07         0.00000E+00
    0.00000E+00         0.00000E+00        -0.15433E+08
 
   -0.15384E+08         0.43905E+06         0.00000E+00
    0.43905E+06        -0.19900E+07         0.00000E+00
    0.00000E+00         0.00000E+00        -0.15354E+08
 
   -0.15313E+08         0.43192E+06         0.00000E+00
    0.43192E+06        -0.19960E+07         0.00000E+00
    0.00000E+00         0.00000E+00        -0.15275E+08
 
   -0.15242E+08         0.42339E+06         0.00000E+00
    0.42339E+06        -0.20026E+07         0.00000E+00
    0.00000E+00         0.00000E+00        -0.15196E+08
 
   -0.15172E+08         0.41337E+06         0.00000E+00
    0.41337E+06        -0.20100E+07         0.00000E+00
    0.00000E+00         0.00000E+00        -0.15116E+08
 
   -0.15101E+08         0.40174E+06         0.00000E+00
    0.40174E+06        -0.20180E+07         0.00000E+00
    0.00000E+00         0.00000E+00        -0.15035E+08
 
   -0.15031E+08         0.38842E+06         0.00000E+00
    0.38842E+06        -0.20268E+07         0.00000E+00
    0.00000E+00         0.00000E+00        -0.14955E+08
 
   -0.14961E+08         0.37330E+06         0.00000E+00
    0.37330E+06        -0.20362E+07         0.00000E+00
    0.00000E+00         0.00000E+00        -0.14874E+08
 
   -0.14891E+08         0.35631E+06         0.00000E+00
    0.35631E+06        -0.20463E+07         0.00000E+00
    0.00000E+00         0.00000E+00        -0.14792E+08
 
   -0.14821E+08         0.33736E+06         0.00000E+00
    0.33736E+06        -0.20568E+07         0.00000E+00
    0.00000E+00         0.00000E+00        -0.14711E+08
 
   -0.14751E+08         0.31643E+06         0.00000E+00
    0.31643E+06        -0.20674E+07         0.00000E+00
    0.00000E+00         0.00000E+00        -0.14629E+08
 
   -0.14681E+08         0.29351E+06         0.00000E+00
    0.29351E+06        -0.20776E+07         0.00000E+00
    0.00000E+00         0.00000E+00        -0.14546E+08
 
   -0.14612E+08         0.26863E+06         0.00000E+00
    0.26863E+06        -0.20869E+07         0.00000E+00
    0.00000E+00         0.00000E+00        -0.14463E+08
 
   -0.14543E+08         0.24191E+06         0.00000E+00
    0.24191E+06        -0.20943E+07         0.00000E+00
    0.00000E+00         0.00000E+00        -0.14379E+08
 
   -0.14474E+08         0.21352E+06         0.00000E+00
    0.21352E+06        -0.20984E+07         0.00000E+00
    0.00000E+00         0.00000E+00        -0.14293E+08
 
   -0.14406E+08         0.18374E+06         0.00000E+00
    0.18374E+06        -0.20975E+07         0.00000E+00
    0.00000E+00         0.00000E+00        -0.14206E+08
 
   -0.14341E+08         0.15296E+06         0.00000E+00
    0.15296E+06        -0.20894E+07         0.00000E+00
    0.00000E+00         0.00000E+00        -0.14118E+08
 
   -0.14280E+08         0.12173E+06         0.00000E+00
    0.12173E+06        -0.20714E+07         0.00000E+00
    0.00000E+00         0.00000E+00        -0.14027E+08
 
   -0.14225E+08         0.90802E+05         0.00000E+00
    0.90802E+05        -0.20404E+07         0.00000E+00
    0.00000E+00         0.00000E+00        -0.13935E+08
 
   -0.14180E+08         0.61332E+05         0.00000E+00
    0.61332E+05        -0.19934E+07         0.00000E+00
    0.00000E+00         0.00000E+00        -0.13840E+08
 
   -0.14148E+08         0.34627E+05         0.00000E+00
    0.34627E+05        -0.19291E+07         0.00000E+00
    0.00000E+00         0.00000E+00        -0.13744E+08
 
   -0.14132E+08         0.11061E+05         0.00000E+00
    0.11061E+05        -0.18480E+07         0.00000E+00
    0.00000E+00         0.00000E+00        -0.13647E+08
 
   -0.18647E+08         0.35910E+04         0.00000E+00
    0.35910E+04        -0.19729E+07         0.00000E+00
    0.00000E+00         0.00000E+00        -0.18778E+08
 
   -0.18644E+08         0.11100E+05         0.00000E+00
    0.11100E+05        -0.19556E+07         0.00000E+00
    0.00000E+00         0.00000E+00        -0.18758E+08
 
   -0.18637E+08         0.19357E+05         0.00000E+00
    0.19357E+05        -0.19418E+07         0.00000E+00
    0.00000E+00         0.00000E+00        -0.18737E+08
 
   -0.18627E+08         0.28352E+05         0.00000E+00
    0.28352E+05        -0.19318E+07         0.00000E+00
    0.00000E+00         0.00000E+00        -0.18716E+08
 
   -0.18614E+08         0.37839E+05         0.00000E+00
    0.37839E+05        -0.19251E+07         0.00000E+00
    0.00000E+00         0.00000E+00        -0.18696E+08
 
   -0.18600E+08         0.47560E+05         0.00000E+00
    0.47560E+05        -0.19212E+07         0.00000E+00
    0.00000E+00         0.00000E+00        -0.18675E+08
 
   -0.18584E+08         0.57322E+05         0.00000E+00
    0.57322E+05        -0.19194E+07         0.00000E+00
    0.00000E+00         0.00000E+00        -0.18655E+08
 
   -0.18568E+08         0.66984E+05         0.00000E+00
    0.66984E+05        -0.19191E+07         0.00000E+00
    0.00000E+00         0.00000E+00        -0.18635E+08
 
   -0.18551E+08         0.76450E+05         0.00000E+00
    0.76450E+05        -0.19198E+07         0.00000E+00
    0.00000E+00         0.00000E+00        -0.18615E+08
 
   -0.18534E+08         0.85653E+05         0.00000E+00
    0.85653E+05        -0.19211E+07         0.00000E+00
    0.00000E+00         0.00000E+00        -0.18595E+08
 
   -0.18515E+08         0.94553E+05         0.00000E+00
    0.94553E+05        -0.19228E+07         0.00000E+00
    0.00000E+00         0.00000E+00        -0.18575E+08
 
   -0.18497E+08         0.10313E+06         0.00000E+00
    0.10313E+06        -0.19247E+07         0.00000E+00
    0.00000E+00         0.00000E+00        -0.18554E+08
 
   -0.18478E+08         0.11138E+06         0.00000E+00
    0.11138E+06        -0.19266E+07         0.00000E+00
    0.00000E+00         0.00000E+00        -0.18533E+08
 
   -0.18458E+08         0.11931E+06         0.00000E+00
    0.11931E+06        -0.19284E+07         0.00000E+00
    0.00000E+00         0.00000E+00        -0.18512E+08
 
   -0.18438E+08         0.12694E+06         0.00000E+00
    0.12694E+06        -0.19301E+07         0.00000E+00
    0.00000E+00         0.00000E+00        -0.18490E+08
 
   -0.18417E+08         0.13428E+06         0.00000E+00
    0.13428E+06        -0.19317E+07         0.00000E+00
    0.00000E+00         0.00000E+00        -0.18468E+08
 
   -0.18395E+08         0.14136E+06         0.00000E+00
    0.14136E+06        -0.19331E+07         0.00000E+00
    0.00000E+00         0.00000E+00        -0.18445E+08
 
   -0.18373E+08         0.14820E+06         0.00000E+00
    0.14820E+06        -0.19344E+07         0.00000E+00
    0.00000E+00         0.00000E+00        -0.18422E+08
 
   -0.18350E+08         0.15483E+06         0.00000E+00
    0.15483E+06        -0.19355E+07         0.00000E+00
    0.00000E+00         0.00000E+00        -0.18398E+08
 
   -0.18327E+08         0.16128E+06         0.00000E+00
    0.16128E+06        -0.19364E+07         0.00000E+00
    0.00000E+00         0.00000E+00        -0.18374E+08
 
   -0.18303E+08         0.16757E+06         0.00000E+00
    0.16757E+06        -0.19372E+07         0.00000E+00
    0.00000E+00         0.00000E+00        -0.18349E+08
 
   -0.18278E+08         0.17372E+06         0.00000E+00
    0.17372E+06        -0.19378E+07         0.00000E+00
    0.00000E+00         0.00000E+00        -0.18324E+08
 
   -0.18252E+08         0.17976E+06         0.00000E+00
    0.17976E+06        -0.19383E+07         0.00000E+00
    0.00000E+00         0.00000E+00        -0.18298E+08
 
   -0.18225E+08         0.18571E+06         0.00000E+00
    0.18571E+06        -0.19388E+07         0.00000E+00
    0.00000E+00         0.00000E+00        -0.18271E+08
 
   -0.18198E+08         0.19158E+06         0.00000E+00
    0.19158E+06        -0.19391E+07         0.00000E+00
    0.00000E+00         0.00000E+00        -0.18244E+08
 
   -0.18170E+08         0.19740E+06         0.00000E+00
    0.19740E+06        -0.19394E+07         0.00000E+00
    0.00000E+00         0.00000E+00        -0.18216E+08
 
   -0.18142E+08         0.20318E+06         0.00000E+00
    0.20318E+06        -0.19396E+07         0.00000E+00
    0.00000E+00         0.00000E+00        -0.18187E+08
 
   -0.18112E+08         0.20893E+06         0.00000E+00
    0.20893E+06        -0.19397E+07         0.00000E+00
    0.00000E+00         0.00000E+00        -0.18158E+08
 
   -0.18082E+08         0.21467E+06         0.00000E+00
    0.21467E+06        -0.19398E+07         0.00000E+00
    0.00000E+00         0.00000E+00        -0.18128E+08
 
   -0.18051E+08         0.22041E+06         0.00000E+00
    0.22041E+06        -0.19399E+07         0.00000E+00
    0.00000E+00         0.00000E+00        -0.18097E+08
 
   -0.18020E+08         0.22615E+06         0.00000E+00
    0.22615E+06        -0.19399E+07         0.00000E+00
    0.00000E+00         0.00000E+00        -0.18066E+08
 
   -0.17987E+08         0.23190E+06         0.00000E+00
    0.23190E+06        -0.19399E+07         0.00000E+00
    0.00000E+00         0.00000E+00        -0.18034E+08
 
   -0.17954E+08         0.23768E+06         0.00000E+00
    0.23768E+06        -0.19398E+07         0.00000E+00
    0.00000E+00         0.00000E+00        -0.18001E+08
 
   -0.17920E+08         0.24349E+06         0.00000E+00
    0.24349E+06        -0.19397E+07         0.00000E+00
    0.00000E+00         0.00000E+00        -0.17967E+08
 
   -0.17885E+08         0.24933E+06         0.00000E+00
    0.24933E+06        -0.19397E+07         0.00000E+00
    0.00000E+00         0.00000E+00        -0.17933E+08
 
   -0.17849E+08         0.25520E+06         0.00000E+00
    0.25520E+06        -0.19396E+07         0.00000E+00
    0.00000E+00         0.00000E+00        -0.17897E+08
 
   -0.17812E+08         0.26111E+06         0.00000E+00
    0.26111E+06        -0.19395E+07         0.00000E+00
    0.00000E+00         0.00000E+00        -0.17861E+08
 
   -0.17775E+08         0.26707E+06         0.00000E+00
    0.26707E+06        -0.19394E+07         0.00000E+00
    0.00000E+00         0.00000E+00        -0.17824E+08
 
   -0.17736E+08         0.27306E+06         0.00000E+00
    0.27306E+06        -0.19393E+07         0.00000E+00
    0.00000E+00         0.00000E+00        -0.17786E+08
 
   -0.17697E+08         0.27909E+06         0.00000E+00
    0.27909E+06        -0.19392E+07         0.00000E+00
    0.00000E+00         0.00000E+00        -0.17748E+08
 
   -0.17657E+08         0.28517E+06         0.00000E+00
    0.28517E+06        -0.19391E+07         0.00000E+00
    0.00000E+00         0.00000E+00        -0.17708E+08
 
   -0.17616E+08         0.29128E+06         0.00000E+00
    0.29128E+06        -0.19390E+07         0.00000E+00
    0.00000E+00         0.00000E+00        -0.17667E+08
 
   -0.17574E+08         0.29743E+06         0.00000E+00
    0.29743E+06        -0.19389E+07         0.00000E+00
    0.00000E+00         0.00000E+00        -0.17626E+08
 
   -0.17531E+08         0.30360E+06         0.00000E+00
    0.30360E+06        -0.19388E+07         0.00000E+00
    0.00000E+00         0.00000E+00        -0.17583E+08
 
   -0.17487E+08         0.30981E+06         0.00000E+00
    0.30981E+06        -0.19388E+07         0.00000E+00
    0.00000E+00         0.00000E+00        -0.17540E+08
 
   -0.17442E+08         0.31604E+06         0.00000E+00
    0.31604E+06        -0.19388E+07         0.00000E+00
    0.00000E+00         0.00000E+00        -0.17495E+08
 
   -0.17396E+08         0.32228E+06         0.00000E+00
    0.32228E+06        -0.19388E+07         0.00000E+00
    0.00000E+00         0.00000E+00        -0.17450E+08
 
   -0.17350E+08         0.32854E+06         0.00000E+00
    0.32854E+06        -0.19388E+07         0.00000E+00
    0.00000E+00         0.00000E+00        -0.17403E+08
 
   -0.17302E+08         0.33479E+06         0.00000E+00
    0.33479E+06        -0.19388E+07         0.00000E+00
    0.00000E+00         0.00000E+00        -0.17356E+08
 
   -0.17253E+08         0.34104E+06         0.00000E+00
    0.34104E+06        -0.19389E+07         0.00000E+00
    0.00000E+00         0.00000E+00        -0.17307E+08
 
   -0.17204E+08         0.34727E+06         0.00000E+00
    0.34727E+06        -0.19391E+07         0.00000E+00
    0.00000E+00         0.00000E+00        -0.17258E+08
 
   -0.17153E+08         0.35347E+06         0.00000E+00
    0.35347E+06        -0.19392E+07         0.00000E+00
    0.00000E+00         0.00000E+00        -0.17207E+08
 
   -0.17101E+08         0.35963E+06         0.00000E+00
    0.35963E+06        -0.19394E+07         0.00000E+00
    0.00000E+00         0.00000E+00        -0.17155E+08
 
   -0.17049E+08         0.36574E+06         0.00000E+00
    0.36574E+06        -0.19397E+07         0.00000E+00
    0.00000E+00         0.00000E+00        -0.17102E+08
 
   -0.16995E+08         0.37178E+06         0.00000E+00
    0.37178E+06        -0.19400E+07         0.00000E+00
    0.00000E+00         0.00000E+00        -0.17048E+08
 
   -0.16941E+08         0.37775E+06         0.00000E+00
    0.37775E+06        -0.19404E+07         0.00000E+00
    0.00000E+00         0.00000E+00        -0.16993E+08
 
   -0.16885E+08         0.38361E+06         0.00000E+00
    0.38361E+06        -0.19408E+07         0.00000E+00
    0.00000E+00         0.00000E+00        -0.16937E+08
 
   -0.16829E+08         0.38936E+06         0.00000E+00
    0.38936E+06        -0.19413E+07         0.00000E+00
    0.00000E+00         0.00000E+00        -0.16880E+08
 
   -0.16771E+08         0.39498E+06         0.00000E+00
    0.39498E+06        -0.19419E+07         0.00000E+00
    0.00000E+00         0.00000E+00        -0.16821E+08
 
   -0.16712E+08         0.40044E+06         0.00000E+00
    0.40044E+06        -0.19425E+07         0.00000E+00
    0.00000E+00         0.00000E+00        -0.16762E+08
 
   -0.16653E+08         0.40572E+06         0.00000E+00
    0.40572E+06        -0.19432E+07         0.00000E+00
    0.00000E+00         0.00000E+00        -0.16701E+08
 
   -0.16593E+08         0.41080E+06         0.00000E+00
    0.41080E+06        -0.19441E+07         0.00000E+00
    0.00000E+00         0.00000E+00        -0.16639E+08
 
   -0.16531E+08         0.41565E+06         0.00000E+00
    0.41565E+06        -0.19450E+07         0.00000E+00
    0.00000E+00         0.00000E+00        -0.16576E+08
 
   -0.16469E+08         0.42025E+06         0.00000E+00
    0.42025E+06        -0.19460E+07         0.00000E+00
    0.00000E+00         0.00000E+00        -0.16512E+08
 
   -0.16406E+08         0.42456E+06         0.00000E+00
    0.42456E+06        -0.19471E+07         0.00000E+00
    0.00000E+00         0.00000E+00        -0.16447E+08
 
   -0.16342E+08         0.42856E+06         0.00000E+00
    0.42856E+06        -0.19484E+07         0.00000E+00
    0.00000E+00         0.00000E+00        -0.16381E+08
 
   -0.16278E+08         0.43220E+06         0.00000E+00
    0.43220E+06        -0.19498E+07         0.00000E+00
    0.00000E+00         0.00000E+00        -0.16314E+08
 
   -0.16212E+08         0.43545E+06         0.00000E+00
    0.43545E+06        -0.19513E+07         0.00000E+00
    0.00000E+00         0.00000E+00        -0.16246E+08
 
   -0.16146E+08         0.43827E+06         0.00000E+00
    0.43827E+06        -0.19530E+07         0.00000E+00
    0.00000E+00         0.00000E+00        -0.16176E+08
 
   -0.16079E+08         0.44061E+06         0.00000E+00
    0.44061E+06        -0.19549E+07         0.00000E+00
    0.00000E+00         0.00000E+00        -0.16106E+08
 
   -0.16012E+08         0.44243E+06         0.00000E+00
    0.44243E+06        -0.19569E+07         0.00000E+00
    0.00000E+00         0.00000E+00        -0.16035E+08
 
   -0.15943E+08         0.44367E+06         0.00000E+00
    0.44367E+06        -0.19592E+07         0.00000E+00
    0.00000E+00         0.00000E+00        -0.15962E+08
 
   -0.15875E+08         0.44427E+06         0.00000E+00
    0.44427E+06        -0.19617E+07         0.00000E+00
    0.00000E+00         0.00000E+00        -0.15889E+08
 
   -0.15806E+08         0.44418E+06         0.00000E+00
    0.44418E+06        -0.19645E+07         0.00000E+00
    0.00000E+00         0.00000E+00        -0.15815E+08
 
   -0.15736E+08         0.44333E+06         0.00000E+00
    0.44333E+06        -0.19676E+07         0.00000E+00
    0.00000E+00         0.00000E+00        -0.15740E+08
 
   -0.15667E+08         0.44164E+06         0.00000E+00
    0.44164E+06        -0.19710E+07         0.00000E+00
    0.00000E+00         0.00000E+00        -0.15664E+08
 
   -0.15597E+08         0.43905E+06         0.00000E+00
    0.43905E+06        -0.19747E+07         0.00000E+00
    0.00000E+00         0.00000E+00        -0.15588E+08
 
   -0.15526E+08         0.43546E+06         0.00000E+00
    0.43546E+06        -0.19789E+07         0.00000E+00
    0.00000E+00         0.00000E+00        -0.15511E+08
 
   -0.15456E+08         0.43079E+06         0.00000E+00
    0.43079E+06        -0.19836E+07         0.00000E+00
    0.00000E+00         0.00000E+00        -0.15433E+08
 
   -0.15386E+08         0.42494E+06         0.00000E+00
    0.42494E+06        -0.19887E+07         0.00000E+00
    0.00000E+00         0.00000E+00        -0.15354E+08
 
   -0.15316E+08         0.41782E+06         0.00000E+00
    0.41782E+06        -0.19944E+07         0.00000E+00
    0.00000E+00         0.00000E+00        -0.15276E+08
 
   -0.15246E+08         0.40932E+06         0.00000E+00
    0.40932E+06        -0.20008E+07         0.00000E+00
    0.00000E+00         0.00000E+00        -0.15196E+08
 
   -0.15176E+08         0.39933E+06         0.00000E+00
    0.39933E+06        -0.20078E+07         0.00000E+00
    0.00000E+00         0.00000E+00        -0.15116E+08
 
   -0.15106E+08         0.38774E+06         0.00000E+00
    0.38774E+06        -0.20155E+07         0.00000E+00
    0.00000E+00         0.00000E+00        -0.15036E+08
 
   -0.15037E+08         0.37446E+06         0.00000E+00
    0.37446E+06        -0.20239E+07         0.00000E+00
    0.00000E+00         0.00000E+00        -0.14956E+08
 
   -0.14967E+08         0.35939E+06         0.00000E+00
    0.35939E+06        -0.20330E+07         0.00000E+00
    0.00000E+00         0.00000E+00        -0.14875E+08
 
   -0.14899E+08         0.34243E+06         0.00000E+00
    0.34243E+06        -0.20427E+07         0.00000E+00
    0.00000E+00         0.00000E+00        -0.14794E+08
 
   -0.14830E+08         0.32352E+06         0.00000E+00
    0.32352E+06        -0.20528E+07         0.00000E+00
    0.00000E+00         0.00000E+00        -0.14712E+08
 
   -0.14761E+08         0.30262E+06         0.00000E+00
    0.30262E+06        -0.20630E+07         0.00000E+00
    0.00000E+00         0.00000E+00        -0.14630E+08
 
   -0.14693E+08         0.27972E+06         0.00000E+00
    0.27972E+06        -0.20729E+07         0.00000E+00
    0.00000E+00         0.00000E+00        -0.14548E+08
 
   -0.14625E+08         0.25489E+06         0.00000E+00
    0.25489E+06        -0.20818E+07         0.00000E+00
    0.00000E+00         0.00000E+00        -0.14465E+08
 
   -0.14557E+08         0.22826E+06         0.00000E+00
    0.22826E+06        -0.20887E+07         0.00000E+00
    0.00000E+00         0.00000E+00        -0.14381E+08
 
   -0.14490E+08         0.20005E+06         0.00000E+00
    0.20005E+06        -0.20925E+07         0.00000E+00
    0.00000E+00         0.00000E+00        -0.14296E+08
 
   -0.14425E+08         0.17060E+06         0.00000E+00
    0.17060E+06        -0.20915E+07         0.00000E+00
    0.00000E+00         0.00000E+00        -0.14210E+08
 
   -0.14362E+08         0.14043E+06         0.00000E+00
    0.14043E+06        -0.20833E+07         0.00000E+00
    0.00000E+00         0.00000E+00        -0.14122E+08
 
   -0.14303E+08         0.11022E+06         0.00000E+00
    0.11022E+06        -0.20653E+07         0.00000E+00
    0.00000E+00         0.00000E+00        -0.14032E+08
 
   -0.14250E+08         0.80917E+05         0.00000E+00
    0.80917E+05        -0.20345E+07         0.00000E+00
    0.00000E+00         0.00000E+00        -0.13940E+08
 
   -0.14207E+08         0.53752E+05         0.00000E+00
    0.53752E+05        -0.19880E+07         0.00000E+00
    0.00000E+00         0.00000E+00        -0.13846E+08
 
   -0.14177E+08         0.29910E+05         0.00000E+00
    0.29910E+05        -0.19244E+07         0.00000E+00
    0.00000E+00         0.00000E+00        -0.13751E+08
 
   -0.14162E+08         0.94722E+04         0.00000E+00
    0.94722E+04        -0.18439E+07         0.00000E+00
    0.00000E+00         0.00000E+00        -0.13655E+08
 
   -0.18640E+08         0.32358E+04         0.00000E+00
    0.32358E+04        -0.19743E+07         0.00000E+00
    0.00000E+00         0.00000E+00        -0.18776E+08
 
   -0.18636E+08         0.10045E+05         0.00000E+00
    0.10045E+05        -0.19570E+07         0.00000E+00
    0.00000E+00         0.00000E+00        -0.18756E+08
 
   -0.18629E+08         0.17653E+05         0.00000E+00
    0.17653E+05        -0.19435E+07         0.00000E+00
    0.00000E+00         0.00000E+00        -0.18735E+08
 
   -0.18620E+08         0.26107E+05         0.00000E+00
    0.26107E+05        -0.19336E+07         0.00000E+00
    0.00000E+00         0.00000E+00        -0.18714E+08
 
   -0.18607E+08         0.35185E+05         0.00000E+00
    0.35185E+05        -0.19270E+07         0.00000E+00
    0.00000E+00         0.00000E+00        -0.18694E+08
 
   -0.18594E+08         0.44615E+05         0.00000E+00
    0.44615E+05        -0.19232E+07         0.00000E+00
    0.00000E+00         0.00000E+00        -0.18674E+08
 
   -0.18579E+08         0.54169E+05         0.00000E+00
    0.54169E+05        -0.19214E+07         0.00000E+00
    0.00000E+00         0.00000E+00        -0.18654E+08
 
   -0.18563E+08         0.63678E+05         0.00000E+00
    0.63678E+05        -0.19210E+07         0.00000E+00
    0.00000E+00         0.00000E+00        -0.18634E+08
 
   -0.18546E+08         0.73019E+05         0.00000E+00
    0.73019E+05        -0.19216E+07         0.00000E+00
    0.00000E+00         0.00000E+00        -0.18614E+08
 
   -0.18529E+08         0.82112E+05         0.00000E+00
    0.82112E+05        -0.19229E+07         0.00000E+00
    0.00000E+00         0.00000E+00        -0.18594E+08
 
   -0.18511E+08         0.90907E+05         0.00000E+00
    0.90907E+05        -0.19245E+07         0.00000E+00
    0.00000E+00         0.00000E+00        -0.18574E+08
 
   -0.18492E+08         0.99377E+05         0.00000E+00
    0.99377E+05        -0.19263E+07         0.00000E+00
    0.00000E+00         0.00000E+00        -0.18553E+08
 
   -0.18474E+08         0.10752E+06         0.00000E+00
    0.10752E+06        -0.19282E+07         0.00000E+00
    0.00000E+00         0.00000E+00        -0.18533E+08
 
   -0.18454E+08         0.11533E+06         0.00000E+00
    0.11533E+06        -0.19300E+07         0.00000E+00
    0.00000E+00         0.00000E+00        -0.18511E+08
 
   -0.18434E+08         0.12284E+06         0.00000E+00
    0.12284E+06        -0.19316E+07         0.00000E+00
    0.00000E+00         0.00000E+00        -0.18490E+08
 
   -0.18413E+08         0.13005E+06         0.00000E+00
    0.13005E+06        -0.19332E+07         0.00000E+00
    0.00000E+00         0.00000E+00        -0.18467E+08
 
   -0.18392E+08         0.13700E+06         0.00000E+00
    0.13700E+06        -0.19345E+07         0.00000E+00
    0.00000E+00         0.00000E+00        -0.18445E+08
 
   -0.18370E+08         0.14370E+06         0.00000E+00
    0.14370E+06        -0.19357E+07         0.00000E+00
    0.00000E+00         0.00000E+00        -0.18422E+08
 
   -0.18347E+08         0.15020E+06         0.00000E+00
    0.15020E+06        -0.19367E+07         0.00000E+00
    0.00000E+00         0.00000E+00        -0.18398E+08
 
   -0.18323E+08         0.15651E+06         0.00000E+00
    0.15651E+06        -0.19376E+07         0.00000E+00
    0.00000E+00         0.00000E+00        -0.18374E+08
 
   -0.18299E+08         0.16265E+06         0.00000E+00
    0.16265E+06        -0.19384E+07         0.00000E+00
    0.00000E+00         0.00000E+00        -0.18349E+08
 
   -0.18274E+08         0.16866E+06         0.00000E+00
    0.16866E+06        -0.19390E+07         0.00000E+00
    0.00000E+00         0.00000E+00        -0.18323E+08
 
   -0.18249E+08         0.17455E+06         0.00000E+00
    0.17455E+06        -0.19395E+07         0.00000E+00
    0.00000E+00         0.00000E+00        -0.18297E+08
 
   -0.18222E+08         0.18035E+06         0.00000E+00
    0.18035E+06        -0.19399E+07         0.00000E+00
    0.00000E+00         0.00000E+00        -0.18271E+08
 
   -0.18195E+08         0.18608E+06         0.00000E+00
    0.18608E+06        -0.19403E+07         0.00000E+00
    0.00000E+00         0.00000E+00        -0.18243E+08
 
   -0.18167E+08         0.19175E+06         0.00000E+00
    0.19175E+06        -0.19405E+07         0.00000E+00
    0.00000E+00         0.00000E+00        -0.18215E+08
 
   -0.18139E+08         0.19738E+06         0.00000E+00
    0.19738E+06        -0.19407E+07         0.00000E+00
    0.00000E+00         0.00000E+00        -0.18187E+08
 
   -0.18109E+08         0.20297E+06         0.00000E+00
    0.20297E+06        -0.19409E+07         0.00000E+00
    0.00000E+00         0.00000E+00        -0.18157E+08
 
   -0.18079E+08         0.20856E+06         0.00000E+00
    0.20856E+06        -0.19409E+07         0.00000E+00
    0.00000E+00         0.00000E+00        -0.18127E+08
 
   -0.18048E+08         0.21414E+06         0.00000E+00
    0.21414E+06        -0.19410E+07         0.00000E+00
    0.00000E+00         0.00000E+00        -0.18097E+08
 
   -0.18016E+08         0.21972E+06         0.00000E+00
    0.21972E+06        -0.19410E+07         0.00000E+00
    0.00000E+00         0.00000E+00        -0.18065E+08
 
   -0.17984E+08         0.22532E+06         0.00000E+00
    0.22532E+06        -0.19410E+07         0.00000E+00
    0.00000E+00         0.00000E+00        -0.18033E+08
 
   -0.17950E+08         0.23093E+06         0.00000E+00
    0.23093E+06        -0.19409E+07         0.00000E+00
    0.00000E+00         0.00000E+00        -0.18000E+08
 
   -0.17916E+08         0.23657E+06         0.00000E+00
    0.23657E+06        -0.19409E+07         0.00000E+00
    0.00000E+00         0.00000E+00        -0.17966E+08
 
   -0.17881E+08         0.24225E+06         0.00000E+00
    0.24225E+06        -0.19408E+07         0.00000E+00
    0.00000E+00         0.00000E+00        -0.17932E+08
 
   -0.17845E+08         0.24795E+06         0.00000E+00
    0.24795E+06        -0.19407E+07         0.00000E+00
    0.00000E+00         0.00000E+00        -0.17897E+08
 
   -0.17809E+08         0.25369E+06         0.00000E+00
    0.25369E+06        -0.19406E+07         0.00000E+00
    0.00000E+00         0.00000E+00        -0.17860E+08
 
   -0.17771E+08         0.25947E+06         0.00000E+00
    0.25947E+06        -0.19405E+07         0.00000E+00
    0.00000E+00         0.00000E+00        -0.17823E+08
 
   -0.17733E+08         0.26529E+06         0.00000E+00
    0.26529E+06        -0.19404E+07         0.00000E+00
    0.00000E+00         0.00000E+00        -0.17786E+08
 
   -0.17693E+08         0.27115E+06         0.00000E+00
    0.27115E+06        -0.19404E+07         0.00000E+00
    0.00000E+00         0.00000E+00        -0.17747E+08
 
   -0.17653E+08         0.27704E+06         0.00000E+00
    0.27704E+06        -0.19403E+07         0.00000E+00
    0.00000E+00         0.00000E+00        -0.17707E+08
 
   -0.17612E+08         0.28297E+06         0.00000E+00
    0.28297E+06        -0.19402E+07         0.00000E+00
    0.00000E+00         0.00000E+00        -0.17667E+08
 
   -0.17570E+08         0.28893E+06         0.00000E+00
    0.28893E+06        -0.19401E+07         0.00000E+00
    0.00000E+00         0.00000E+00        -0.17625E+08
 
   -0.17527E+08         0.29493E+06         0.00000E+00
    0.29493E+06        -0.19401E+07         0.00000E+00
    0.00000E+00         0.00000E+00        -0.17582E+08
 
   -0.17483E+08         0.30094E+06         0.00000E+00
    0.30094E+06        -0.19400E+07         0.00000E+00
    0.00000E+00         0.00000E+00        -0.17539E+08
 
   -0.17438E+08         0.30698E+06         0.00000E+00
    0.30698E+06        -0.19400E+07         0.00000E+00
    0.00000E+00         0.00000E+00        -0.17495E+08
 
   -0.17393E+08         0.31303E+06         0.00000E+00
    0.31303E+06        -0.19400E+07         0.00000E+00
    0.00000E+00         0.00000E+00        -0.17449E+08
 
   -0.17346E+08         0.31909E+06         0.00000E+00
    0.31909E+06        -0.19400E+07         0.00000E+00
    0.00000E+00         0.00000E+00        -0.17403E+08
 
   -0.17298E+08         0.32515E+06         0.00000E+00
    0.32515E+06        -0.19401E+07         0.00000E+00
    0.00000E+00         0.00000E+00        -0.17355E+08
 
   -0.17249E+08         0.33120E+06         0.00000E+00
    0.33120E+06        -0.19402E+07         0.00000E+00
    0.00000E+00         0.00000E+00        -0.17306E+08
 
   -0.17200E+08         0.33724E+06         0.00000E+00
    0.33724E+06        -0.19403E+07         0.00000E+00
    0.00000E+00         0.00000E+00        -0.17257E+08
 
   -0.17149E+08         0.34324E+06         0.00000E+00
    0.34324E+06        -0.19404E+07         0.00000E+00
    0.00000E+00         0.00000E+00        -0.17206E+08
 
   -0.17097E+08         0.34921E+06         0.00000E+00
    0.34921E+06        -0.19406E+07         0.00000E+00
    0.00000E+00         0.00000E+00        -0.17154E+08
 
   -0.17045E+08         0.35512E+06         0.00000E+00
    0.35512E+06        -0.19409E+07         0.00000E+00
    0.00000E+00         0.00000E+00        -0.17101E+08
 
   -0.16991E+08         0.36097E+06         0.00000E+00
    0.36097E+06        -0.19412E+07         0.00000E+00
    0.00000E+00         0.00000E+00        -0.17047E+08
 
   -0.16937E+08         0.36673E+06         0.00000E+00
    0.36673E+06        -0.19415E+07         0.00000E+00
    0.00000E+00         0.00000E+00        -0.16992E+08
 
   -0.16881E+08         0.37240E+06         0.00000E+00
    0.37240E+06        -0.19419E+07         0.00000E+00
    0.00000E+00         0.00000E+00        -0.16936E+08
 
   -0.16825E+08         0.37796E+06         0.00000E+00
    0.37796E+06        -0.19424E+07         0.00000E+00
    0.00000E+00         0.00000E+00        -0.16879E+08
 
   -0.16767E+08         0.38338E+06         0.00000E+00
    0.38338E+06        -0.19429E+07         0.00000E+00
    0.00000E+00         0.00000E+00        -0.16820E+08
 
   -0.16709E+08         0.38865E+06         0.00000E+00
    0.38865E+06        -0.19436E+07         0.00000E+00
    0.00000E+00         0.00000E+00        -0.16761E+08
 
   -0.16649E+08         0.39375E+06         0.00000E+00
    0.39375E+06        -0.19443E+07         0.00000E+00
    0.00000E+00         0.00000E+00        -0.16700E+08
 
   -0.16589E+08         0.39864E+06         0.00000E+00
    0.39864E+06        -0.19450E+07         0.00000E+00
    0.00000E+00         0.00000E+00        -0.16638E+08
 
   -0.16528E+08         0.40332E+06         0.00000E+00
    0.40332E+06        -0.19459E+07         0.00000E+00
    0.00000E+00         0.00000E+00        -0.16576E+08
 
   -0.16466E+08         0.40774E+06         0.00000E+00
    0.40774E+06        -0.19469E+07         0.00000E+00
    0.00000E+00         0.00000E+00        -0.16512E+08
 
   -0.16403E+08         0.41189E+06         0.00000E+00
    0.41189E+06        -0.19479E+07         0.00000E+00
    0.00000E+00         0.00000E+00        -0.16447E+08
 
   -0.16339E+08         0.41572E+06         0.00000E+00
    0.41572E+06        -0.19491E+07         0.00000E+00
    0.00000E+00         0.00000E+00        -0.16380E+08
 
   -0.16275E+08         0.41920E+06         0.00000E+00
    0.41920E+06        -0.19504E+07         0.00000E+00
    0.00000E+00         0.00000E+00        -0.16313E+08
 
   -0.16209E+08         0.42231E+06         0.00000E+00
    0.42231E+06        -0.19519E+07         0.00000E+00
    0.00000E+00         0.00000E+00        -0.16245E+08
 
   -0.16144E+08         0.42499E+06         0.00000E+00
    0.42499E+06        -0.19535E+07         0.00000E+00
    0.00000E+00         0.00000E+00        -0.16176E+08
 
   -0.16077E+08         0.42720E+06         0.00000E+00
    0.42720E+06        -0.19553E+07         0.00000E+00
    0.00000E+00         0.00000E+00        -0.16105E+08
 
   -0.16010E+08         0.42890E+06         0.00000E+00
    0.42890E+06        -0.19572E+07         0.00000E+00
    0.00000E+00         0.00000E+00        -0.16034E+08
 
   -0.15942E+08         0.43003E+06         0.00000E+00
    0.43003E+06        -0.19594E+07         0.00000E+00
    0.00000E+00         0.00000E+00        -0.15962E+08
 
   -0.15874E+08         0.43054E+06         0.00000E+00
    0.43054E+06        -0.19618E+07         0.00000E+00
    0.00000E+00         0.00000E+00        -0.15889E+08
 
   -0.15805E+08         0.43037E+06         0.00000E+00
    0.43037E+06        -0.19644E+07         0.00000E+00
    0.00000E+00         0.00000E+00        -0.15815E+08
 
   -0.15736E+08         0.42945E+06         0.00000E+00
    0.42945E+06        -0.19673E+07         0.00000E+00
    0.00000E+00         0.00000E+00        -0.15740E+08
 
   -0.15667E+08         0.42771E+06         0.00000E+00
    0.42771E+06        -0.19705E+07         0.00000E+00
    0.00000E+00         0.00000E+00        -0.15664E+08
 
   -0.15597E+08         0.42508E+06         0.00000E+00
    0.42508E+06        -0.19741E+07         0.00000E+00
    0.00000E+00         0.00000E+00        -0.15588E+08
 
   -0.15527E+08         0.42147E+06         0.00000E+00
    0.42147E+06        -0.19781E+07         0.00000E+00
    0.00000E+00         0.00000E+00        -0.15511E+08
 
   -0.15458E+08         0.41679E+06         0.00000E+00
    0.41679E+06        -0.19825E+07         0.00000E+00
    0.00000E+00         0.00000E+00        -0.15433E+08
 
   -0.15388E+08         0.41096E+06         0.00000E+00
    0.41096E+06        -0.19874E+07         0.00000E+00
    0.00000E+00         0.00000E+00        -0.15355E+08
 
   -0.15318E+08         0.40385E+06         0.00000E+00
    0.40385E+06        -0.19929E+07         0.00000E+00
    0.00000E+00         0.00000E+00        -0.15276E+08
 
   -0.15249E+08         0.39539E+06         0.00000E+00
    0.39539E+06        -0.19990E+07         0.00000E+00
    0.00000E+00         0.00000E+00        -0.15197E+08
 
   -0.15180E+08         0.38544E+06         0.00000E+00
    0.38544E+06        -0.20057E+07         0.00000E+00
    0.00000E+00         0.00000E+00        -0.15117E+08
 
   -0.15111E+08         0.37391E+06         0.00000E+00
    0.37391E+06        -0.20130E+07         0.00000E+00
    0.00000E+00         0.00000E+00        -0.15037E+08
 
   -0.15042E+08         0.36069E+06         0.00000E+00
    0.36069E+06        -0.20211E+07         0.00000E+00
    0.00000E+00         0.00000E+00        -0.14957E+08
 
   -0.14974E+08         0.34567E+06         0.00000E+00
    0.34567E+06        -0.20298E+07         0.00000E+00
    0.00000E+00         0.00000E+00        -0.14876E+08
 
   -0.14906E+08         0.32877E+06         0.00000E+00
    0.32877E+06        -0.20391E+07         0.00000E+00
    0.00000E+00         0.00000E+00        -0.14795E+08
 
   -0.14839E+08         0.30992E+06         0.00000E+00
    0.30992E+06        -0.20488E+07         0.00000E+00
    0.00000E+00         0.00000E+00        -0.14714E+08
 
   -0.14772E+08         0.28907E+06         0.00000E+00
    0.28907E+06        -0.20586E+07         0.00000E+00
    0.00000E+00         0.00000E+00        -0.14632E+08
 
   -0.14705E+08         0.26623E+06         0.00000E+00
    0.26623E+06        -0.20681E+07         0.00000E+00
    0.00000E+00         0.00000E+00        -0.14550E+08
 
   -0.14638E+08         0.24147E+06         0.00000E+00
    0.24147E+06        -0.20766E+07         0.00000E+00
    0.00000E+00         0.00000E+00        -0.14468E+08
 
   -0.14572E+08         0.21496E+06         0.00000E+00
    0.21496E+06        -0.20833E+07         0.00000E+00
    0.00000E+00         0.00000E+00        -0.14384E+08
 
   -0.14507E+08         0.18695E+06         0.00000E+00
    0.18695E+06        -0.20868E+07         0.00000E+00
    0.00000E+00         0.00000E+00        -0.14300E+08
 
   -0.14443E+08         0.15787E+06         0.00000E+00
    0.15787E+06        -0.20855E+07         0.00000E+00
    0.00000E+00         0.00000E+00        -0.14214E+08
 
   -0.14382E+08         0.12833E+06         0.00000E+00
    0.12833E+06        -0.20773E+07         0.00000E+00
    0.00000E+00         0.00000E+00        -0.14127E+08
 
   -0.14325E+08         0.99161E+05         0.00000E+00
    0.99161E+05        -0.20595E+07         0.00000E+00
    0.00000E+00         0.00000E+00        -0.14037E+08
 
   -0.14275E+08         0.71456E+05         0.00000E+00
    0.71456E+05        -0.20290E+07         0.00000E+00
    0.00000E+00         0.00000E+00        -0.13946E+08
 
   -0.14234E+08         0.46521E+05         0.00000E+00
    0.46521E+05        -0.19831E+07         0.00000E+00
    0.00000E+00         0.00000E+00        -0.13853E+08
 
   -0.14205E+08         0.25415E+05         0.00000E+00
    0.25415E+05        -0.19203E+07         0.00000E+00
    0.00000E+00         0.00000E+00        -0.13758E+08
 
   -0.14191E+08         0.79563E+04         0.00000E+00
    0.79563E+04        -0.18404E+07         0.00000E+00
    0.00000E+00         0.00000E+00        -0.13663E+08
 
   -0.18632E+08         0.28931E+04         0.00000E+00
    0.28931E+04        -0.19755E+07         0.00000E+00
    0.00000E+00         0.00000E+00        -0.18775E+08
 
   -0.18629E+08         0.90286E+04         0.00000E+00
    0.90286E+04        -0.19584E+07         0.00000E+00
    0.00000E+00         0.00000E+00        -0.18754E+08
 
   -0.18622E+08         0.16013E+05         0.00000E+00
    0.16013E+05        -0.19450E+07         0.00000E+00
    0.00000E+00         0.00000E+00        -0.18733E+08
 
   -0.18613E+08         0.23940E+05         0.00000E+00
    0.23940E+05        -0.19353E+07         0.00000E+00
    0.00000E+00         0.00000E+00        -0.18713E+08
 
   -0.18601E+08         0.32615E+05         0.00000E+00
    0.32615E+05        -0.19289E+07         0.00000E+00
    0.00000E+00         0.00000E+00        -0.18693E+08
 
   -0.18588E+08         0.41751E+05         0.00000E+00
    0.41751E+05        -0.19251E+07         0.00000E+00
    0.00000E+00         0.00000E+00        -0.18673E+08
 
   -0.18573E+08         0.51093E+05         0.00000E+00
    0.51093E+05        -0.19233E+07         0.00000E+00
    0.00000E+00         0.00000E+00        -0.18653E+08
 
   -0.18557E+08         0.60440E+05         0.00000E+00
    0.60440E+05        -0.19229E+07         0.00000E+00
    0.00000E+00         0.00000E+00        -0.18633E+08
 
   -0.18541E+08         0.69650E+05         0.00000E+00
    0.69650E+05        -0.19235E+07         0.00000E+00
    0.00000E+00         0.00000E+00        -0.18613E+08
 
   -0.18524E+08         0.78626E+05         0.00000E+00
    0.78626E+05        -0.19247E+07         0.00000E+00
    0.00000E+00         0.00000E+00        -0.18593E+08
 
   -0.18506E+08         0.87308E+05         0.00000E+00
    0.87308E+05        -0.19263E+07         0.00000E+00
    0.00000E+00         0.00000E+00        -0.18573E+08
 
   -0.18488E+08         0.95666E+05         0.00000E+00
    0.95666E+05        -0.19280E+07         0.00000E+00
    0.00000E+00         0.00000E+00        -0.18553E+08
 
   -0.18469E+08         0.10369E+06         0.00000E+00
    0.10369E+06        -0.19298E+07         0.00000E+00
    0.00000E+00         0.00000E+00        -0.18532E+08
 
   -0.18450E+08         0.11138E+06         0.00000E+00
    0.11138E+06        -0.19315E+07         0.00000E+00
    0.00000E+00         0.00000E+00        -0.18511E+08
 
   -0.18430E+08         0.11876E+06         0.00000E+00
    0.11876E+06        -0.19331E+07         0.00000E+00
    0.00000E+00         0.00000E+00        -0.18489E+08
 
   -0.18409E+08         0.12584E+06         0.00000E+00
    0.12584E+06        -0.19346E+07         0.00000E+00
    0.00000E+00         0.00000E+00        -0.18467E+08
 
   -0.18388E+08         0.13266E+06         0.00000E+00
    0.13266E+06        -0.19359E+07         0.00000E+00
    0.00000E+00         0.00000E+00        -0.18444E+08
 
   -0.18366E+08         0.13923E+06         0.00000E+00
    0.13923E+06        -0.19370E+07         0.00000E+00
    0.00000E+00         0.00000E+00        -0.18421E+08
 
   -0.18343E+08         0.14558E+06         0.00000E+00
    0.14558E+06        -0.19380E+07         0.00000E+00
    0.00000E+00         0.00000E+00        -0.18397E+08
 
   -0.18320E+08         0.15174E+06         0.00000E+00
    0.15174E+06        -0.19389E+07         0.00000E+00
    0.00000E+00         0.00000E+00        -0.18373E+08
 
   -0.18296E+08         0.15774E+06         0.00000E+00
    0.15774E+06        -0.19396E+07         0.00000E+00
    0.00000E+00         0.00000E+00        -0.18348E+08
 
   -0.18271E+08         0.16361E+06         0.00000E+00
    0.16361E+06        -0.19402E+07         0.00000E+00
    0.00000E+00         0.00000E+00        -0.18323E+08
 
   -0.18245E+08         0.16935E+06         0.00000E+00
    0.16935E+06        -0.19407E+07         0.00000E+00
    0.00000E+00         0.00000E+00        -0.18297E+08
 
   -0.18219E+08         0.17500E+06         0.00000E+00
    0.17500E+06        -0.19411E+07         0.00000E+00
    0.00000E+00         0.00000E+00        -0.18270E+08
 
   -0.18192E+08         0.18058E+06         0.00000E+00
    0.18058E+06        -0.19414E+07         0.00000E+00
    0.00000E+00         0.00000E+00        -0.18243E+08
 
   -0.18164E+08         0.18609E+06         0.00000E+00
    0.18609E+06        -0.19416E+07         0.00000E+00
    0.00000E+00         0.00000E+00        -0.18215E+08
 
   -0.18135E+08         0.19157E+06         0.00000E+00
    0.19157E+06        -0.19418E+07         0.00000E+00
    0.00000E+00         0.00000E+00        -0.18186E+08
 
   -0.18106E+08         0.19701E+06         0.00000E+00
    0.19701E+06        -0.19420E+07         0.00000E+00
    0.00000E+00         0.00000E+00        -0.18157E+08
 
   -0.18076E+08         0.20244E+06         0.00000E+00
    0.20244E+06        -0.19420E+07         0.00000E+00
    0.00000E+00         0.00000E+00        -0.18127E+08
 
   -0.18045E+08         0.20786E+06         0.00000E+00
    0.20786E+06        -0.19421E+07         0.00000E+00
    0.00000E+00         0.00000E+00        -0.18096E+08
 
   -0.18013E+08         0.21329E+06         0.00000E+00
    0.21329E+06        -0.19421E+07         0.00000E+00
    0.00000E+00         0.00000E+00        -0.18065E+08
 
   -0.17980E+08         0.21872E+06         0.00000E+00
    0.21872E+06        -0.19421E+07         0.00000E+00
    0.00000E+00         0.00000E+00        -0.18032E+08
 
   -0.17947E+08         0.22418E+06         0.00000E+00
    0.22418E+06        -0.19421E+07         0.00000E+00
    0.00000E+00         0.00000E+00        -0.17999E+08
 
   -0.17913E+08         0.22965E+06         0.00000E+00
    0.22965E+06        -0.19420E+07         0.00000E+00
    0.00000E+00         0.00000E+00        -0.17966E+08
 
   -0.17878E+08         0.23516E+06         0.00000E+00
    0.23516E+06        -0.19419E+07         0.00000E+00
    0.00000E+00         0.00000E+00        -0.17931E+08
 
   -0.17842E+08         0.24069E+06         0.00000E+00
    0.24069E+06        -0.19419E+07         0.00000E+00
    0.00000E+00         0.00000E+00        -0.17896E+08
 
   -0.17805E+08         0.24627E+06         0.00000E+00
    0.24627E+06        -0.19418E+07         0.00000E+00
    0.00000E+00         0.00000E+00        -0.17860E+08
 
   -0.17767E+08         0.25187E+06         0.00000E+00
    0.25187E+06        -0.19417E+07         0.00000E+00
    0.00000E+00         0.00000E+00        -0.17823E+08
 
   -0.17729E+08         0.25751E+06         0.00000E+00
    0.25751E+06        -0.19416E+07         0.00000E+00
    0.00000E+00         0.00000E+00        -0.17785E+08
 
   -0.17690E+08         0.26319E+06         0.00000E+00
    0.26319E+06        -0.19415E+07         0.00000E+00
    0.00000E+00         0.00000E+00        -0.17746E+08
 
   -0.17649E+08         0.26891E+06         0.00000E+00
    0.26891E+06        -0.19414E+07         0.00000E+00
    0.00000E+00         0.00000E+00        -0.17706E+08
 
   -0.17608E+08         0.27466E+06         0.00000E+00
    0.27466E+06        -0.19414E+07         0.00000E+00
    0.00000E+00         0.00000E+00        -0.17666E+08
 
   -0.17566E+08         0.28043E+06         0.00000E+00
    0.28043E+06        -0.19413E+07         0.00000E+00
    0.00000E+00         0.00000E+00        -0.17624E+08
 
   -0.17523E+08         0.28624E+06         0.00000E+00
    0.28624E+06        -0.19412E+07         0.00000E+00
    0.00000E+00         0.00000E+00        -0.17582E+08
 
   -0.17479E+08         0.29207E+06         0.00000E+00
    0.29207E+06        -0.19412E+07         0.00000E+00
    0.00000E+00         0.00000E+00        -0.17538E+08
 
   -0.17434E+08         0.29792E+06         0.00000E+00
    0.29792E+06        -0.19412E+07         0.00000E+00
    0.00000E+00         0.00000E+00        -0.17494E+08
 
   -0.17389E+08         0.30378E+06         0.00000E+00
    0.30378E+06        -0.19412E+07         0.00000E+00
    0.00000E+00         0.00000E+00        -0.17448E+08
 
   -0.17342E+08         0.30965E+06         0.00000E+00
    0.30965E+06        -0.19412E+07         0.00000E+00
    0.00000E+00         0.00000E+00        -0.17402E+08
 
   -0.17294E+08         0.31551E+06         0.00000E+00
    0.31551E+06        -0.19413E+07         0.00000E+00
    0.00000E+00         0.00000E+00        -0.17354E+08
 
   -0.17245E+08         0.32137E+06         0.00000E+00
    0.32137E+06        -0.19413E+07         0.00000E+00
    0.00000E+00         0.00000E+00        -0.17306E+08
 
   -0.17196E+08         0.32721E+06         0.00000E+00
    0.32721E+06        -0.19415E+07         0.00000E+00
    0.00000E+00         0.00000E+00        -0.17256E+08
 
   -0.17145E+08         0.33302E+06         0.00000E+00
    0.33302E+06        -0.19416E+07         0.00000E+00
    0.00000E+00         0.00000E+00        -0.17205E+08
 
   -0.17094E+08         0.33879E+06         0.00000E+00
    0.33879E+06        -0.19418E+07         0.00000E+00
    0.00000E+00         0.00000E+00        -0.17153E+08
 
   -0.17041E+08         0.34450E+06         0.00000E+00
    0.34450E+06        -0.19420E+07         0.00000E+00
    0.00000E+00         0.00000E+00        -0.17101E+08
 
   -0.16987E+08         0.35015E+06         0.00000E+00
    0.35015E+06        -0.19423E+07         0.00000E+00
    0.00000E+00         0.00000E+00        -0.17047E+08
 
   -0.16933E+08         0.35572E+06         0.00000E+00
    0.35572E+06        -0.19427E+07         0.00000E+00
    0.00000E+00         0.00000E+00        -0.16992E+08
 
   -0.16877E+08         0.36120E+06         0.00000E+00
    0.36120E+06        -0.19430E+07         0.00000E+00
    0.00000E+00         0.00000E+00        -0.16935E+08
 
   -0.16821E+08         0.36656E+06         0.00000E+00
    0.36656E+06        -0.19435E+07         0.00000E+00
    0.00000E+00         0.00000E+00        -0.16878E+08
 
   -0.16763E+08         0.37180E+06         0.00000E+00
    0.37180E+06        -0.19440E+07         0.00000E+00
    0.00000E+00         0.00000E+00        -0.16820E+08
 
   -0.16705E+08         0.37688E+06         0.00000E+00
    0.37688E+06        -0.19446E+07         0.00000E+00
    0.00000E+00         0.00000E+00        -0.16760E+08
 
   -0.16646E+08         0.38179E+06         0.00000E+00
    0.38179E+06        -0.19452E+07         0.00000E+00
    0.00000E+00         0.00000E+00        -0.16699E+08
 
   -0.16586E+08         0.38651E+06         0.00000E+00
    0.38651E+06        -0.19460E+07         0.00000E+00
    0.00000E+00         0.00000E+00        -0.16638E+08
 
   -0.16525E+08         0.39100E+06         0.00000E+00
    0.39100E+06        -0.19468E+07         0.00000E+00
    0.00000E+00         0.00000E+00        -0.16575E+08
 
   -0.16463E+08         0.39526E+06         0.00000E+00
    0.39526E+06        -0.19477E+07         0.00000E+00
    0.00000E+00         0.00000E+00        -0.16511E+08
 
   -0.16400E+08         0.39924E+06         0.00000E+00
    0.39924E+06        -0.19487E+07         0.00000E+00
    0.00000E+00         0.00000E+00        -0.16446E+08
 
   -0.16336E+08         0.40291E+06         0.00000E+00
    0.40291E+06        -0.19498E+07         0.00000E+00
    0.00000E+00         0.00000E+00        -0.16380E+08
 
   -0.16272E+08         0.40624E+06         0.00000E+00
    0.40624E+06        -0.19511E+07         0.00000E+00
    0.00000E+00         0.00000E+00        -0.16313E+08
 
   -0.16207E+08         0.40920E+06         0.00000E+00
    0.40920E+06        -0.19525E+07         0.00000E+00
    0.00000E+00         0.00000E+00        -0.16244E+08
 
   -0.16141E+08         0.41175E+06         0.00000E+00
    0.41175E+06        -0.19540E+07         0.00000E+00
    0.00000E+00         0.00000E+00        -0.16175E+08
 
   -0.16075E+08         0.41383E+06         0.00000E+00
    0.41383E+06        -0.19557E+07         0.00000E+00
    0.00000E+00         0.00000E+00        -0.16105E+08
 
   -0.16008E+08         0.41542E+06         0.00000E+00
    0.41542E+06        -0.19575E+07         0.00000E+00
    0.00000E+00         0.00000E+00        -0.16034E+08
 
   -0.15940E+08         0.41645E+06         0.00000E+00
    0.41645E+06        -0.19595E+07         0.00000E+00
    0.00000E+00         0.00000E+00        -0.15961E+08
 
   -0.15872E+08         0.41687E+06         0.00000E+00
    0.41687E+06        -0.19618E+07         0.00000E+00
    0.00000E+00         0.00000E+00        -0.15888E+08
 
   -0.15804E+08         0.41663E+06         0.00000E+00
    0.41663E+06        -0.19643E+07         0.00000E+00
    0.00000E+00         0.00000E+00        -0.15814E+08
 
   -0.15735E+08         0.41565E+06         0.00000E+00
    0.41565E+06        -0.19670E+07         0.00000E+00
    0.00000E+00         0.00000E+00        -0.15739E+08
 
   -0.15666E+08         0.41387E+06         0.00000E+00
    0.41387E+06        -0.19701E+07         0.00000E+00
    0.00000E+00         0.00000E+00        -0.15664E+08
 
   -0.15597E+08         0.41120E+06         0.00000E+00
    0.41120E+06        -0.19735E+07         0.00000E+00
    0.00000E+00         0.00000E+00        -0.15588E+08
 
   -0.15528E+08         0.40758E+06         0.00000E+00
    0.40758E+06        -0.19773E+07         0.00000E+00
    0.00000E+00         0.00000E+00        -0.15511E+08
 
   -0.15459E+08         0.40291E+06         0.00000E+00
    0.40291E+06        -0.19815E+07         0.00000E+00
    0.00000E+00         0.00000E+00        -0.15433E+08
 
   -0.15390E+08         0.39709E+06         0.00000E+00
    0.39709E+06        -0.19861E+07         0.00000E+00
    0.00000E+00         0.00000E+00        -0.15355E+08
 
   -0.15321E+08         0.39002E+06         0.00000E+00
    0.39002E+06        -0.19913E+07         0.00000E+00
    0.00000E+00         0.00000E+00        -0.15276E+08
 
   -0.15252E+08         0.38160E+06         0.00000E+00
    0.38160E+06        -0.19971E+07         0.00000E+00
    0.00000E+00         0.00000E+00        -0.15197E+08
 
   -0.15184E+08         0.37172E+06         0.00000E+00
    0.37172E+06        -0.20035E+07         0.00000E+00
    0.00000E+00         0.00000E+00        -0.15117E+08
 
   -0.15116E+08         0.36026E+06         0.00000E+00
    0.36026E+06        -0.20106E+07         0.00000E+00
    0.00000E+00         0.00000E+00        -0.15038E+08
 
   -0.15048E+08         0.34711E+06         0.00000E+00
    0.34711E+06        -0.20183E+07         0.00000E+00
    0.00000E+00         0.00000E+00        -0.14957E+08
 
   -0.14981E+08         0.33217E+06         0.00000E+00
    0.33217E+06        -0.20266E+07         0.00000E+00
    0.00000E+00         0.00000E+00        -0.14877E+08
 
   -0.14914E+08         0.31534E+06         0.00000E+00
    0.31534E+06        -0.20355E+07         0.00000E+00
    0.00000E+00         0.00000E+00        -0.14796E+08
 
   -0.14848E+08         0.29656E+06         0.00000E+00
    0.29656E+06        -0.20448E+07         0.00000E+00
    0.00000E+00         0.00000E+00        -0.14715E+08
 
   -0.14782E+08         0.27579E+06         0.00000E+00
    0.27579E+06        -0.20542E+07         0.00000E+00
    0.00000E+00         0.00000E+00        -0.14634E+08
 
   -0.14716E+08         0.25303E+06         0.00000E+00
    0.25303E+06        -0.20633E+07         0.00000E+00
    0.00000E+00         0.00000E+00        -0.14552E+08
 
   -0.14651E+08         0.22837E+06         0.00000E+00
    0.22837E+06        -0.20715E+07         0.00000E+00
    0.00000E+00         0.00000E+00        -0.14470E+08
 
   -0.14587E+08         0.20200E+06         0.00000E+00
    0.20200E+06        -0.20778E+07         0.00000E+00
    0.00000E+00         0.00000E+00        -0.14387E+08
 
   -0.14524E+08         0.17423E+06         0.00000E+00
    0.17423E+06        -0.20811E+07         0.00000E+00
    0.00000E+00         0.00000E+00        -0.14303E+08
 
   -0.14462E+08         0.14554E+06         0.00000E+00
    0.14554E+06        -0.20797E+07         0.00000E+00
    0.00000E+00         0.00000E+00        -0.14218E+08
 
   -0.14403E+08         0.11665E+06         0.00000E+00
    0.11665E+06        -0.20715E+07         0.00000E+00
    0.00000E+00         0.00000E+00        -0.14131E+08
 
   -0.14348E+08         0.88522E+05         0.00000E+00
    0.88522E+05        -0.20538E+07         0.00000E+00
    0.00000E+00         0.00000E+00        -0.14043E+08
 
   -0.14300E+08         0.62388E+05         0.00000E+00
    0.62388E+05        -0.20239E+07         0.00000E+00
    0.00000E+00         0.00000E+00        -0.13952E+08
 
   -0.14261E+08         0.39602E+05         0.00000E+00
    0.39602E+05        -0.19787E+07         0.00000E+00
    0.00000E+00         0.00000E+00        -0.13860E+08
 
   -0.14233E+08         0.21111E+05         0.00000E+00
    0.21111E+05        -0.19168E+07         0.00000E+00
    0.00000E+00         0.00000E+00        -0.13766E+08
 
   -0.14219E+08         0.65030E+04         0.00000E+00
    0.65030E+04        -0.18375E+07         0.00000E+00
    0.00000E+00         0.00000E+00        -0.13670E+08
 
   -0.18624E+08         0.25610E+04         0.00000E+00
    0.25610E+04        -0.19766E+07         0.00000E+00
    0.00000E+00         0.00000E+00        -0.18773E+08
 
   -0.18621E+08         0.80454E+04         0.00000E+00
    0.80454E+04        -0.19596E+07         0.00000E+00
    0.00000E+00         0.00000E+00        -0.18752E+08
 
   -0.18615E+08         0.14428E+05         0.00000E+00
    0.14428E+05        -0.19465E+07         0.00000E+00
    0.00000E+00         0.00000E+00        -0.18731E+08
 
   -0.18606E+08         0.21845E+05         0.00000E+00
    0.21845E+05        -0.19370E+07         0.00000E+00
    0.00000E+00         0.00000E+00        -0.18711E+08
 
   -0.18594E+08         0.30124E+05         0.00000E+00
    0.30124E+05        -0.19306E+07         0.00000E+00
    0.00000E+00         0.00000E+00        -0.18691E+08
 
   -0.18581E+08         0.38967E+05         0.00000E+00
    0.38967E+05        -0.19269E+07         0.00000E+00
    0.00000E+00         0.00000E+00        -0.18671E+08
 
   -0.18567E+08         0.48092E+05         0.00000E+00
    0.48092E+05        -0.19251E+07         0.00000E+00
    0.00000E+00         0.00000E+00        -0.18652E+08
 
   -0.18552E+08         0.57273E+05         0.00000E+00
    0.57273E+05        -0.19247E+07         0.00000E+00
    0.00000E+00         0.00000E+00        -0.18632E+08
 
   -0.18536E+08         0.66345E+05         0.00000E+00
    0.66345E+05        -0.19253E+07         0.00000E+00
    0.00000E+00         0.00000E+00        -0.18612E+08
 
   -0.18519E+08         0.75196E+05         0.00000E+00
    0.75196E+05        -0.19264E+07         0.00000E+00
    0.00000E+00         0.00000E+00        -0.18592E+08
 
   -0.18502E+08         0.83759E+05         0.00000E+00
    0.83759E+05        -0.19279E+07         0.00000E+00
    0.00000E+00         0.00000E+00        -0.18572E+08
 
   -0.18484E+08         0.91998E+05         0.00000E+00
    0.91998E+05        -0.19296E+07         0.00000E+00
    0.00000E+00         0.00000E+00        -0.18552E+08
 
   -0.18465E+08         0.99900E+05         0.00000E+00
    0.99900E+05        -0.19313E+07         0.00000E+00
    0.00000E+00         0.00000E+00        -0.18531E+08
 
   -0.18446E+08         0.10747E+06         0.00000E+00
    0.10747E+06        -0.19330E+07         0.00000E+00
    0.00000E+00         0.00000E+00        -0.18510E+08
 
   -0.18426E+08         0.11471E+06         0.00000E+00
    0.11471E+06        -0.19345E+07         0.00000E+00
    0.00000E+00         0.00000E+00        -0.18488E+08
 
   -0.18406E+08         0.12166E+06         0.00000E+00
    0.12166E+06        -0.19359E+07         0.00000E+00
    0.00000E+00         0.00000E+00        -0.18466E+08
 
   -0.18385E+08         0.12834E+06         0.00000E+00
    0.12834E+06        -0.19372E+07         0.00000E+00
    0.00000E+00         0.00000E+00        -0.18443E+08
 
   -0.18363E+08         0.13476E+06         0.00000E+00
    0.13476E+06        -0.19383E+07         0.00000E+00
    0.00000E+00         0.00000E+00        -0.18420E+08
 
   -0.18340E+08         0.14097E+06         0.00000E+00
    0.14097E+06        -0.19392E+07         0.00000E+00
    0.00000E+00         0.00000E+00        -0.18397E+08
 
   -0.18317E+08         0.14699E+06         0.00000E+00
    0.14699E+06        -0.19401E+07         0.00000E+00
    0.00000E+00         0.00000E+00        -0.18372E+08
 
   -0.18293E+08         0.15284E+06         0.00000E+00
    0.15284E+06        -0.19408E+07         0.00000E+00
    0.00000E+00         0.00000E+00        -0.18347E+08
 
   -0.18268E+08         0.15855E+06         0.00000E+00
    0.15855E+06        -0.19413E+07         0.00000E+00
    0.00000E+00         0.00000E+00        -0.18322E+08
 
   -0.18242E+08         0.16415E+06         0.00000E+00
    0.16415E+06        -0.19418E+07         0.00000E+00
    0.00000E+00         0.00000E+00        -0.18296E+08
 
   -0.18216E+08         0.16965E+06         0.00000E+00
    0.16965E+06        -0.19422E+07         0.00000E+00
    0.00000E+00         0.00000E+00        -0.18269E+08
 
   -0.18189E+08         0.17507E+06         0.00000E+00
    0.17507E+06        -0.19425E+07         0.00000E+00
    0.00000E+00         0.00000E+00        -0.18242E+08
 
   -0.18161E+08         0.18044E+06         0.00000E+00
    0.18044E+06        -0.19427E+07         0.00000E+00
    0.00000E+00         0.00000E+00        -0.18214E+08
 
   -0.18132E+08         0.18576E+06         0.00000E+00
    0.18576E+06        -0.19429E+07         0.00000E+00
    0.00000E+00         0.00000E+00        -0.18185E+08
 
   -0.18103E+08         0.19104E+06         0.00000E+00
    0.19104E+06        -0.19430E+07         0.00000E+00
    0.00000E+00         0.00000E+00        -0.18156E+08
 
   -0.18072E+08         0.19632E+06         0.00000E+00
    0.19632E+06        -0.19431E+07         0.00000E+00
    0.00000E+00         0.00000E+00        -0.18126E+08
 
   -0.18041E+08         0.20158E+06         0.00000E+00
    0.20158E+06        -0.19432E+07         0.00000E+00
    0.00000E+00         0.00000E+00        -0.18095E+08
 
   -0.18009E+08         0.20685E+06         0.00000E+00
    0.20685E+06        -0.19432E+07         0.00000E+00
    0.00000E+00         0.00000E+00        -0.18064E+08
 
   -0.17977E+08         0.21212E+06         0.00000E+00
    0.21212E+06        -0.19432E+07         0.00000E+00
    0.00000E+00         0.00000E+00        -0.18032E+08
 
   -0.17943E+08         0.21741E+06         0.00000E+00
    0.21741E+06        -0.19431E+07         0.00000E+00
    0.00000E+00         0.00000E+00        -0.17999E+08
 
   -0.17909E+08         0.22272E+06         0.00000E+00
    0.22272E+06        -0.19431E+07         0.00000E+00
    0.00000E+00         0.00000E+00        -0.17965E+08
 
   -0.17874E+08         0.22806E+06         0.00000E+00
    0.22806E+06        -0.19430E+07         0.00000E+00
    0.00000E+00         0.00000E+00        -0.17931E+08
 
   -0.17838E+08         0.23343E+06         0.00000E+00
    0.23343E+06        -0.19430E+07         0.00000E+00
    0.00000E+00         0.00000E+00        -0.17895E+08
 
   -0.17801E+08         0.23883E+06         0.00000E+00
    0.23883E+06        -0.19429E+07         0.00000E+00
    0.00000E+00         0.00000E+00        -0.17859E+08
 
   -0.17764E+08         0.24426E+06         0.00000E+00
    0.24426E+06        -0.19428E+07         0.00000E+00
    0.00000E+00         0.00000E+00        -0.17822E+08
 
   -0.17725E+08         0.24973E+06         0.00000E+00
    0.24973E+06        -0.19427E+07         0.00000E+00
    0.00000E+00         0.00000E+00        -0.17784E+08
 
   -0.17686E+08         0.25523E+06         0.00000E+00
    0.25523E+06        -0.19426E+07         0.00000E+00
    0.00000E+00         0.00000E+00        -0.17745E+08
 
   -0.17646E+08         0.26077E+06         0.00000E+00
    0.26077E+06        -0.19426E+07         0.00000E+00
    0.00000E+00         0.00000E+00        -0.17706E+08
 
   -0.17604E+08         0.26633E+06         0.00000E+00
    0.26633E+06        -0.19425E+07         0.00000E+00
    0.00000E+00         0.00000E+00        -0.17665E+08
 
   -0.17562E+08         0.27193E+06         0.00000E+00
    0.27193E+06        -0.19424E+07         0.00000E+00
    0.00000E+00         0.00000E+00        -0.17623E+08
 
   -0.17519E+08         0.27755E+06         0.00000E+00
    0.27755E+06        -0.19424E+07         0.00000E+00
    0.00000E+00         0.00000E+00        -0.17581E+08
 
   -0.17475E+08         0.28319E+06         0.00000E+00
    0.28319E+06        -0.19423E+07         0.00000E+00
    0.00000E+00         0.00000E+00        -0.17537E+08
 
   -0.17431E+08         0.28885E+06         0.00000E+00
    0.28885E+06        -0.19423E+07         0.00000E+00
    0.00000E+00         0.00000E+00        -0.17493E+08
 
   -0.17385E+08         0.29452E+06         0.00000E+00
    0.29452E+06        -0.19423E+07         0.00000E+00
    0.00000E+00         0.00000E+00        -0.17447E+08
 
   -0.17338E+08         0.30020E+06         0.00000E+00
    0.30020E+06        -0.19424E+07         0.00000E+00
    0.00000E+00         0.00000E+00        -0.17401E+08
 
   -0.17290E+08         0.30587E+06         0.00000E+00
    0.30587E+06        -0.19424E+07         0.00000E+00
    0.00000E+00         0.00000E+00        -0.17353E+08
 
   -0.17241E+08         0.31154E+06         0.00000E+00
    0.31154E+06        -0.19425E+07         0.00000E+00
    0.00000E+00         0.00000E+00        -0.17305E+08
 
   -0.17192E+08         0.31718E+06         0.00000E+00
    0.31718E+06        -0.19426E+07         0.00000E+00
    0.00000E+00         0.00000E+00        -0.17255E+08
 
   -0.17141E+08         0.32279E+06         0.00000E+00
    0.32279E+06        -0.19428E+07         0.00000E+00
    0.00000E+00         0.00000E+00        -0.17204E+08
 
   -0.17090E+08         0.32837E+06         0.00000E+00
    0.32837E+06        -0.19429E+07         0.00000E+00
    0.00000E+00         0.00000E+00        -0.17153E+08
 
   -0.17037E+08         0.33389E+06         0.00000E+00
    0.33389E+06        -0.19432E+07         0.00000E+00
    0.00000E+00         0.00000E+00        -0.17100E+08
 
   -0.16983E+08         0.33935E+06         0.00000E+00
    0.33935E+06        -0.19434E+07         0.00000E+00
    0.00000E+00         0.00000E+00        -0.17046E+08
 
   -0.16929E+08         0.34472E+06         0.00000E+00
    0.34472E+06        -0.19437E+07         0.00000E+00
    0.00000E+00         0.00000E+00        -0.16991E+08
 
   -0.16873E+08         0.35001E+06         0.00000E+00
    0.35001E+06        -0.19441E+07         0.00000E+00
    0.00000E+00         0.00000E+00        -0.16935E+08
 
   -0.16817E+08         0.35518E+06         0.00000E+00
    0.35518E+06        -0.19445E+07         0.00000E+00
    0.00000E+00         0.00000E+00        -0.16877E+08
 
   -0.16760E+08         0.36022E+06         0.00000E+00
    0.36022E+06        -0.19450E+07         0.00000E+00
    0.00000E+00         0.00000E+00        -0.16819E+08
 
   -0.16701E+08         0.36512E+06         0.00000E+00
    0.36512E+06        -0.19456E+07         0.00000E+00
    0.00000E+00         0.00000E+00        -0.16759E+08
 
   -0.16642E+08         0.36985E+06         0.00000E+00
    0.36985E+06        -0.19462E+07         0.00000E+00
    0.00000E+00         0.00000E+00        -0.16699E+08
 
   -0.16582E+08         0.37439E+06         0.00000E+00
    0.37439E+06        -0.19469E+07         0.00000E+00
    0.00000E+00         0.00000E+00        -0.16637E+08
 
   -0.16521E+08         0.37871E+06         0.00000E+00
    0.37871E+06        -0.19477E+07         0.00000E+00
    0.00000E+00         0.00000E+00        -0.16574E+08
 
   -0.16459E+08         0.38280E+06         0.00000E+00
    0.38280E+06        -0.19485E+07         0.00000E+00
    0.00000E+00         0.00000E+00        -0.16510E+08
 
   -0.16397E+08         0.38662E+06         0.00000E+00
    0.38662E+06        -0.19495E+07         0.00000E+00
    0.00000E+00         0.00000E+00        -0.16445E+08
 
   -0.16333E+08         0.39013E+06         0.00000E+00
    0.39013E+06        -0.19505E+07         0.00000E+00
    0.00000E+00         0.00000E+00        -0.16379E+08
 
   -0.16269E+08         0.39332E+06         0.00000E+00
    0.39332E+06        -0.19517E+07         0.00000E+00
    0.00000E+00         0.00000E+00        -0.16312E+08
 
   -0.16204E+08         0.39614E+06         0.00000E+00
    0.39614E+06        -0.19530E+07         0.00000E+00
    0.00000E+00         0.00000E+00        -0.16244E+08
 
   -0.16139E+08         0.39855E+06         0.00000E+00
    0.39855E+06        -0.19544E+07         0.00000E+00
    0.00000E+00         0.00000E+00        -0.16174E+08
 
   -0.16073E+08         0.40052E+06         0.00000E+00
    0.40052E+06        -0.19560E+07         0.00000E+00
    0.00000E+00         0.00000E+00        -0.16104E+08
 
   -0.16006E+08         0.40200E+06         0.00000E+00
    0.40200E+06        -0.19578E+07         0.00000E+00
    0.00000E+00         0.00000E+00        -0.16033E+08
 
   -0.15939E+08         0.40293E+06         0.00000E+00
    0.40293E+06        -0.19597E+07         0.00000E+00
    0.00000E+00         0.00000E+00        -0.15961E+08
 
   -0.15871E+08         0.40327E+06         0.00000E+00
    0.40327E+06        -0.19618E+07         0.00000E+00
    0.00000E+00         0.00000E+00        -0.15888E+08
 
   -0.15803E+08         0.40295E+06         0.00000E+00
    0.40295E+06        -0.19642E+07         0.00000E+00
    0.00000E+00         0.00000E+00        -0.15814E+08
 
   -0.15735E+08         0.40192E+06         0.00000E+00
    0.40192E+06        -0.19668E+07         0.00000E+00
    0.00000E+00         0.00000E+00        -0.15739E+08
 
   -0.15666E+08         0.40010E+06         0.00000E+00
    0.40010E+06        -0.19697E+07         0.00000E+00
    0.00000E+00         0.00000E+00        -0.15664E+08
 
   -0.15597E+08         0.39742E+06         0.00000E+00
    0.39742E+06        -0.19729E+07         0.00000E+00
    0.00000E+00         0.00000E+00        -0.15587E+08
 
   -0.15529E+08         0.39380E+06         0.00000E+00
    0.39380E+06        -0.19764E+07         0.00000E+00
    0.00000E+00         0.00000E+00        -0.15511E+08
 
   -0.15460E+08         0.38914E+06         0.00000E+00
    0.38914E+06        -0.19804E+07         0.00000E+00
    0.00000E+00         0.00000E+00        -0.15433E+08
 
   -0.15392E+08         0.38335E+06         0.00000E+00
    0.38335E+06        -0.19849E+07         0.00000E+00
    0.00000E+00         0.00000E+00        -0.15355E+08
 
   -0.15323E+08         0.37633E+06         0.00000E+00
    0.37633E+06        -0.19898E+07         0.00000E+00
    0.00000E+00         0.00000E+00        -0.15276E+08
 
   -0.15255E+08         0.36796E+06         0.00000E+00
    0.36796E+06        -0.19953E+07         0.00000E+00
    0.00000E+00         0.00000E+00        -0.15197E+08
 
   -0.15188E+08         0.35815E+06         0.00000E+00
    0.35815E+06        -0.20014E+07         0.00000E+00
    0.00000E+00         0.00000E+00        -0.15118E+08
 
   -0.15120E+08         0.34677E+06         0.00000E+00
    0.34677E+06        -0.20081E+07         0.00000E+00
    0.00000E+00         0.00000E+00        -0.15038E+08
 
   -0.15054E+08         0.33371E+06         0.00000E+00
    0.33371E+06        -0.20155E+07         0.00000E+00
    0.00000E+00         0.00000E+00        -0.14958E+08
 
   -0.14987E+08         0.31887E+06         0.00000E+00
    0.31887E+06        -0.20235E+07         0.00000E+00
    0.00000E+00         0.00000E+00        -0.14878E+08
 
   -0.14922E+08         0.30214E+06         0.00000E+00
    0.30214E+06        -0.20320E+07         0.00000E+00
    0.00000E+00         0.00000E+00        -0.14797E+08
 
   -0.14857E+08         0.28345E+06         0.00000E+00
    0.28345E+06        -0.20409E+07         0.00000E+00
    0.00000E+00         0.00000E+00        -0.14717E+08
 
   -0.14792E+08         0.26278E+06         0.00000E+00
    0.26278E+06        -0.20499E+07         0.00000E+00
    0.00000E+00         0.00000E+00        -0.14636E+08
 
   -0.14728E+08         0.24013E+06         0.00000E+00
    0.24013E+06        -0.20586E+07         0.00000E+00
    0.00000E+00         0.00000E+00        -0.14554E+08
 
   -0.14665E+08         0.21560E+06         0.00000E+00
    0.21560E+06        -0.20664E+07         0.00000E+00
    0.00000E+00         0.00000E+00        -0.14472E+08
 
   -0.14602E+08         0.18940E+06         0.00000E+00
    0.18940E+06        -0.20724E+07         0.00000E+00
    0.00000E+00         0.00000E+00        -0.14390E+08
 
   -0.14541E+08         0.16189E+06         0.00000E+00
    0.16189E+06        -0.20754E+07         0.00000E+00
    0.00000E+00         0.00000E+00        -0.14306E+08
 
   -0.14481E+08         0.13361E+06         0.00000E+00
    0.13361E+06        -0.20739E+07         0.00000E+00
    0.00000E+00         0.00000E+00        -0.14222E+08
 
   -0.14424E+08         0.10538E+06         0.00000E+00
    0.10538E+06        -0.20658E+07         0.00000E+00
    0.00000E+00         0.00000E+00        -0.14136E+08
 
   -0.14371E+08         0.78290E+05         0.00000E+00
    0.78290E+05        -0.20485E+07         0.00000E+00
    0.00000E+00         0.00000E+00        -0.14048E+08
 
   -0.14325E+08         0.53683E+05         0.00000E+00
    0.53683E+05        -0.20191E+07         0.00000E+00
    0.00000E+00         0.00000E+00        -0.13958E+08
 
   -0.14287E+08         0.32964E+05         0.00000E+00
    0.32964E+05        -0.19748E+07         0.00000E+00
    0.00000E+00         0.00000E+00        -0.13866E+08
 
   -0.14260E+08         0.16975E+05         0.00000E+00
    0.16975E+05        -0.19138E+07         0.00000E+00
    0.00000E+00         0.00000E+00        -0.13773E+08
 
   -0.14247E+08         0.51036E+04         0.00000E+00
    0.51036E+04        -0.18352E+07         0.00000E+00
    0.00000E+00         0.00000E+00        -0.13678E+08
 
   -0.18617E+08         0.22381E+04         0.00000E+00
    0.22381E+04        -0.19776E+07         0.00000E+00
    0.00000E+00         0.00000E+00        -0.18771E+08
 
   -0.18614E+08         0.70914E+04         0.00000E+00
    0.70914E+04        -0.19608E+07         0.00000E+00
    0.00000E+00         0.00000E+00        -0.18750E+08
 
   -0.18608E+08         0.12893E+05         0.00000E+00
    0.12893E+05        -0.19478E+07         0.00000E+00
    0.00000E+00         0.00000E+00        -0.18730E+08
 
   -0.18599E+08         0.19818E+05         0.00000E+00
    0.19818E+05        -0.19385E+07         0.00000E+00
    0.00000E+00         0.00000E+00        -0.18710E+08
 
   -0.18588E+08         0.27709E+05         0.00000E+00
    0.27709E+05        -0.19323E+07         0.00000E+00
    0.00000E+00         0.00000E+00        -0.18690E+08
 
   -0.18575E+08         0.36261E+05         0.00000E+00
    0.36261E+05        -0.19287E+07         0.00000E+00
    0.00000E+00         0.00000E+00        -0.18670E+08
 
   -0.18561E+08         0.45168E+05         0.00000E+00
    0.45168E+05        -0.19269E+07         0.00000E+00
    0.00000E+00         0.00000E+00        -0.18651E+08
 
   -0.18546E+08         0.54176E+05         0.00000E+00
    0.54176E+05        -0.19265E+07         0.00000E+00
    0.00000E+00         0.00000E+00        -0.18631E+08
 
   -0.18531E+08         0.63103E+05         0.00000E+00
    0.63103E+05        -0.19271E+07         0.00000E+00
    0.00000E+00         0.00000E+00        -0.18611E+08
 
   -0.18514E+08         0.71823E+05         0.00000E+00
    0.71823E+05        -0.19282E+07         0.00000E+00
    0.00000E+00         0.00000E+00        -0.18592E+08
 
   -0.18497E+08         0.80261E+05         0.00000E+00
    0.80261E+05        -0.19296E+07         0.00000E+00
    0.00000E+00         0.00000E+00        -0.18571E+08
 
   -0.18480E+08         0.88374E+05         0.00000E+00
    0.88374E+05        -0.19312E+07         0.00000E+00
    0.00000E+00         0.00000E+00        -0.18551E+08
 
   -0.18461E+08         0.96147E+05         0.00000E+00
    0.96147E+05        -0.19329E+07         0.00000E+00
    0.00000E+00         0.00000E+00        -0.18530E+08
 
   -0.18442E+08         0.10358E+06         0.00000E+00
    0.10358E+06        -0.19344E+07         0.00000E+00
    0.00000E+00         0.00000E+00        -0.18509E+08
 
   -0.18423E+08         0.11069E+06         0.00000E+00
    0.11069E+06        -0.19359E+07         0.00000E+00
    0.00000E+00         0.00000E+00        -0.18487E+08
 
   -0.18402E+08         0.11750E+06         0.00000E+00
    0.11750E+06        -0.19373E+07         0.00000E+00
    0.00000E+00         0.00000E+00        -0.18465E+08
 
   -0.18381E+08         0.12403E+06         0.00000E+00
    0.12403E+06        -0.19385E+07         0.00000E+00
    0.00000E+00         0.00000E+00        -0.18443E+08
 
   -0.18359E+08         0.13032E+06         0.00000E+00
    0.13032E+06        -0.19395E+07         0.00000E+00
    0.00000E+00         0.00000E+00        -0.18420E+08
 
   -0.18337E+08         0.13638E+06         0.00000E+00
    0.13638E+06        -0.19405E+07         0.00000E+00
    0.00000E+00         0.00000E+00        -0.18396E+08
 
   -0.18313E+08         0.14225E+06         0.00000E+00
    0.14225E+06        -0.19412E+07         0.00000E+00
    0.00000E+00         0.00000E+00        -0.18372E+08
 
   -0.18289E+08         0.14795E+06         0.00000E+00
    0.14795E+06        -0.19419E+07         0.00000E+00
    0.00000E+00         0.00000E+00        -0.18347E+08
 
   -0.18265E+08         0.15351E+06         0.00000E+00
    0.15351E+06        -0.19424E+07         0.00000E+00
    0.00000E+00         0.00000E+00        -0.18321E+08
 
   -0.18239E+08         0.15895E+06         0.00000E+00
    0.15895E+06        -0.19429E+07         0.00000E+00
    0.00000E+00         0.00000E+00        -0.18295E+08
 
   -0.18213E+08         0.16430E+06         0.00000E+00
    0.16430E+06        -0.19433E+07         0.00000E+00
    0.00000E+00         0.00000E+00        -0.18269E+08
 
   -0.18185E+08         0.16957E+06         0.00000E+00
    0.16957E+06        -0.19436E+07         0.00000E+00
    0.00000E+00         0.00000E+00        -0.18241E+08
 
   -0.18158E+08         0.17478E+06         0.00000E+00
    0.17478E+06        -0.19438E+07         0.00000E+00
    0.00000E+00         0.00000E+00        -0.18213E+08
 
   -0.18129E+08         0.17994E+06         0.00000E+00
    0.17994E+06        -0.19439E+07         0.00000E+00
    0.00000E+00         0.00000E+00        -0.18185E+08
 
   -0.18099E+08         0.18507E+06         0.00000E+00
    0.18507E+06        -0.19441E+07         0.00000E+00
    0.00000E+00         0.00000E+00        -0.18155E+08
 
   -0.18069E+08         0.19019E+06         0.00000E+00
    0.19019E+06        -0.19441E+07         0.00000E+00
    0.00000E+00         0.00000E+00        -0.18125E+08
 
   -0.18038E+08         0.19529E+06         0.00000E+00
    0.19529E+06        -0.19442E+07         0.00000E+00
    0.00000E+00         0.00000E+00        -0.18095E+08
 
   -0.18006E+08         0.20040E+06         0.00000E+00
    0.20040E+06        -0.19442E+07         0.00000E+00
    0.00000E+00         0.00000E+00        -0.18063E+08
 
   -0.17974E+08         0.20551E+06         0.00000E+00
    0.20551E+06        -0.19442E+07         0.00000E+00
    0.00000E+00         0.00000E+00        -0.18031E+08
 
   -0.17940E+08         0.21064E+06         0.00000E+00
    0.21064E+06        -0.19442E+07         0.00000E+00
    0.00000E+00         0.00000E+00        -0.17998E+08
 
   -0.17906E+08         0.21579E+06         0.00000E+00
    0.21579E+06        -0.19441E+07         0.00000E+00
    0.00000E+00         0.00000E+00        -0.17964E+08
 
   -0.17871E+08         0.22096E+06         0.00000E+00
    0.22096E+06        -0.19441E+07         0.00000E+00
    0.00000E+00         0.00000E+00        -0.17930E+08
 
   -0.17835E+08         0.22616E+06         0.00000E+00
    0.22616E+06        -0.19440E+07         0.00000E+00
    0.00000E+00         0.00000E+00        -0.17894E+08
 
   -0.17798E+08         0.23138E+06         0.00000E+00
    0.23138E+06        -0.19439E+07         0.00000E+00
    0.00000E+00         0.00000E+00        -0.17858E+08
 
   -0.17760E+08         0.23665E+06         0.00000E+00
    0.23665E+06        -0.19439E+07         0.00000E+00
    0.00000E+00         0.00000E+00        -0.17821E+08
 
   -0.17722E+08         0.24194E+06         0.00000E+00
    0.24194E+06        -0.19438E+07         0.00000E+00
    0.00000E+00         0.00000E+00        -0.17783E+08
 
   -0.17682E+08         0.24726E+06         0.00000E+00
    0.24726E+06        -0.19437E+07         0.00000E+00
    0.00000E+00         0.00000E+00        -0.17745E+08
 
   -0.17642E+08         0.25262E+06         0.00000E+00
    0.25262E+06        -0.19436E+07         0.00000E+00
    0.00000E+00         0.00000E+00        -0.17705E+08
 
   -0.17601E+08         0.25800E+06         0.00000E+00
    0.25800E+06        -0.19436E+07         0.00000E+00
    0.00000E+00         0.00000E+00        -0.17664E+08
 
   -0.17559E+08         0.26342E+06         0.00000E+00
    0.26342E+06        -0.19435E+07         0.00000E+00
    0.00000E+00         0.00000E+00        -0.17623E+08
 
   -0.17516E+08         0.26885E+06         0.00000E+00
    0.26885E+06        -0.19435E+07         0.00000E+00
    0.00000E+00         0.00000E+00        -0.17580E+08
 
   -0.17472E+08         0.27431E+06         0.00000E+00
    0.27431E+06        -0.19435E+07         0.00000E+00
    0.00000E+00         0.00000E+00        -0.17537E+08
 
   -0.17427E+08         0.27978E+06         0.00000E+00
    0.27978E+06        -0.19434E+07         0.00000E+00
    0.00000E+00         0.00000E+00        -0.17492E+08
 
   -0.17381E+08         0.28526E+06         0.00000E+00
    0.28526E+06        -0.19435E+07         0.00000E+00
    0.00000E+00         0.00000E+00        -0.17447E+08
 
   -0.17334E+08         0.29075E+06         0.00000E+00
    0.29075E+06        -0.19435E+07         0.00000E+00
    0.00000E+00         0.00000E+00        -0.17400E+08
 
   -0.17286E+08         0.29623E+06         0.00000E+00
    0.29623E+06        -0.19435E+07         0.00000E+00
    0.00000E+00         0.00000E+00        -0.17353E+08
 
   -0.17238E+08         0.30170E+06         0.00000E+00
    0.30170E+06        -0.19436E+07         0.00000E+00
    0.00000E+00         0.00000E+00        -0.17304E+08
 
   -0.17188E+08         0.30715E+06         0.00000E+00
    0.30715E+06        -0.19437E+07         0.00000E+00
    0.00000E+00         0.00000E+00        -0.17254E+08
 
   -0.17137E+08         0.31257E+06         0.00000E+00
    0.31257E+06        -0.19439E+07         0.00000E+00
    0.00000E+00         0.00000E+00        -0.17204E+08
 
   -0.17086E+08         0.31795E+06         0.00000E+00
    0.31795E+06        -0.19440E+07         0.00000E+00
    0.00000E+00         0.00000E+00        -0.17152E+08
 
   -0.17033E+08         0.32328E+06         0.00000E+00
    0.32328E+06        -0.19442E+07         0.00000E+00
    0.00000E+00         0.00000E+00        -0.17099E+08
 
   -0.16980E+08         0.32854E+06         0.00000E+00
    0.32854E+06        -0.19445E+07         0.00000E+00
    0.00000E+00         0.00000E+00        -0.17045E+08
 
   -0.16925E+08         0.33373E+06         0.00000E+00
    0.33373E+06        -0.19448E+07         0.00000E+00
    0.00000E+00         0.00000E+00        -0.16990E+08
 
   -0.16870E+08         0.33882E+06         0.00000E+00
    0.33882E+06        -0.19451E+07         0.00000E+00
    0.00000E+00         0.00000E+00        -0.16934E+08
 
   -0.16813E+08         0.34381E+06         0.00000E+00
    0.34381E+06        -0.19455E+07         0.00000E+00
    0.00000E+00         0.00000E+00        -0.16876E+08
 
   -0.16756E+08         0.34867E+06         0.00000E+00
    0.34867E+06        -0.19460E+07         0.00000E+00
    0.00000E+00         0.00000E+00        -0.16818E+08
 
   -0.16698E+08         0.35338E+06         0.00000E+00
    0.35338E+06        -0.19465E+07         0.00000E+00
    0.00000E+00         0.00000E+00        -0.16759E+08
 
   -0.16639E+08         0.35793E+06         0.00000E+00
    0.35793E+06        -0.19471E+07         0.00000E+00
    0.00000E+00         0.00000E+00        -0.16698E+08
 
   -0.16579E+08         0.36229E+06         0.00000E+00
    0.36229E+06        -0.19477E+07         0.00000E+00
    0.00000E+00         0.00000E+00        -0.16636E+08
 
   -0.16518E+08         0.36645E+06         0.00000E+00
    0.36645E+06        -0.19485E+07         0.00000E+00
    0.00000E+00         0.00000E+00        -0.16573E+08
 
   -0.16456E+08         0.37037E+06         0.00000E+00
    0.37037E+06        -0.19493E+07         0.00000E+00
    0.00000E+00         0.00000E+00        -0.16509E+08
 
   -0.16394E+08         0.37402E+06         0.00000E+00
    0.37402E+06        -0.19502E+07         0.00000E+00
    0.00000E+00         0.00000E+00        -0.16444E+08
 
   -0.16330E+08         0.37739E+06         0.00000E+00
    0.37739E+06        -0.19512E+07         0.00000E+00
    0.00000E+00         0.00000E+00        -0.16378E+08
 
   -0.16266E+08         0.38043E+06         0.00000E+00
    0.38043E+06        -0.19523E+07         0.00000E+00
    0.00000E+00         0.00000E+00        -0.16311E+08
 
   -0.16202E+08         0.38311E+06         0.00000E+00
    0.38311E+06        -0.19535E+07         0.00000E+00
    0.00000E+00         0.00000E+00        -0.16243E+08
 
   -0.16136E+08         0.38540E+06         0.00000E+00
    0.38540E+06        -0.19549E+07         0.00000E+00
    0.00000E+00         0.00000E+00        -0.16174E+08
 
   -0.16070E+08         0.38725E+06         0.00000E+00
    0.38725E+06        -0.19564E+07         0.00000E+00
    0.00000E+00         0.00000E+00        -0.16104E+08
 
   -0.16004E+08         0.38863E+06         0.00000E+00
    0.38863E+06        -0.19580E+07         0.00000E+00
    0.00000E+00         0.00000E+00        -0.16033E+08
 
   -0.15937E+08         0.38947E+06         0.00000E+00
    0.38947E+06        -0.19598E+07         0.00000E+00
    0.00000E+00         0.00000E+00        -0.15960E+08
 
   -0.15870E+08         0.38973E+06         0.00000E+00
    0.38973E+06        -0.19618E+07         0.00000E+00
    0.00000E+00         0.00000E+00        -0.15887E+08
 
   -0.15802E+08         0.38935E+06         0.00000E+00
    0.38935E+06        -0.19640E+07         0.00000E+00
    0.00000E+00         0.00000E+00        -0.15814E+08
 
   -0.15734E+08         0.38828E+06         0.00000E+00
    0.38828E+06        -0.19665E+07         0.00000E+00
    0.00000E+00         0.00000E+00        -0.15739E+08
 
   -0.15666E+08         0.38643E+06         0.00000E+00
    0.38643E+06        -0.19692E+07         0.00000E+00
    0.00000E+00         0.00000E+00        -0.15663E+08
 
   -0.15598E+08         0.38373E+06         0.00000E+00
    0.38373E+06        -0.19722E+07         0.00000E+00
    0.00000E+00         0.00000E+00        -0.15587E+08
 
   -0.15529E+08         0.38011E+06         0.00000E+00
    0.38011E+06        -0.19756E+07         0.00000E+00
    0.00000E+00         0.00000E+00        -0.15510E+08
 
   -0.15461E+08         0.37547E+06         0.00000E+00
    0.37547E+06        -0.19794E+07         0.00000E+00
    0.00000E+00         0.00000E+00        -0.15433E+08
 
   -0.15393E+08         0.36972E+06         0.00000E+00
    0.36972E+06        -0.19836E+07         0.00000E+00
    0.00000E+00         0.00000E+00        -0.15355E+08
 
   -0.15326E+08         0.36276E+06         0.00000E+00
    0.36276E+06        -0.19883E+07         0.00000E+00
    0.00000E+00         0.00000E+00        -0.15277E+08
 
   -0.15258E+08         0.35447E+06         0.00000E+00
    0.35447E+06        -0.19935E+07         0.00000E+00
    0.00000E+00         0.00000E+00        -0.15198E+08
 
   -0.15191E+08         0.34474E+06         0.00000E+00
    0.34474E+06        -0.19993E+07         0.00000E+00
    0.00000E+00         0.00000E+00        -0.15118E+08
 
   -0.15125E+08         0.33346E+06         0.00000E+00
    0.33346E+06        -0.20057E+07         0.00000E+00
    0.00000E+00         0.00000E+00        -0.15039E+08
 
   -0.15059E+08         0.32051E+06         0.00000E+00
    0.32051E+06        -0.20127E+07         0.00000E+00
    0.00000E+00         0.00000E+00        -0.14959E+08
 
   -0.14994E+08         0.30577E+06         0.00000E+00
    0.30577E+06        -0.20203E+07         0.00000E+00
    0.00000E+00         0.00000E+00        -0.14879E+08
 
   -0.14929E+08         0.28916E+06         0.00000E+00
    0.28916E+06        -0.20285E+07         0.00000E+00
    0.00000E+00         0.00000E+00        -0.14799E+08
 
   -0.14865E+08         0.27060E+06         0.00000E+00
    0.27060E+06        -0.20370E+07         0.00000E+00
    0.00000E+00         0.00000E+00        -0.14718E+08
 
   -0.14802E+08         0.25005E+06         0.00000E+00
    0.25005E+06        -0.20456E+07         0.00000E+00
    0.00000E+00         0.00000E+00        -0.14637E+08
 
   -0.14739E+08         0.22753E+06         0.00000E+00
    0.22753E+06        -0.20539E+07         0.00000E+00
    0.00000E+00         0.00000E+00        -0.14556E+08
 
   -0.14678E+08         0.20316E+06         0.00000E+00
    0.20316E+06        -0.20613E+07         0.00000E+00
    0.00000E+00         0.00000E+00        -0.14475E+08
 
   -0.14617E+08         0.17716E+06         0.00000E+00
    0.17716E+06        -0.20670E+07         0.00000E+00
    0.00000E+00         0.00000E+00        -0.14393E+08
 
   -0.14557E+08         0.14993E+06         0.00000E+00
    0.14993E+06        -0.20699E+07         0.00000E+00
    0.00000E+00         0.00000E+00        -0.14310E+08
 
   -0.14500E+08         0.12209E+06         0.00000E+00
    0.12209E+06        -0.20683E+07         0.00000E+00
    0.00000E+00         0.00000E+00        -0.14226E+08
 
   -0.14445E+08         0.94527E+05         0.00000E+00
    0.94527E+05        -0.20603E+07         0.00000E+00
    0.00000E+00         0.00000E+00        -0.14140E+08
 
   -0.14394E+08         0.68449E+05         0.00000E+00
    0.68449E+05        -0.20434E+07         0.00000E+00
    0.00000E+00         0.00000E+00        -0.14053E+08
 
   -0.14349E+08         0.45320E+05         0.00000E+00
    0.45320E+05        -0.20147E+07         0.00000E+00
    0.00000E+00         0.00000E+00        -0.13964E+08
 
   -0.14313E+08         0.26580E+05         0.00000E+00
    0.26580E+05        -0.19714E+07         0.00000E+00
    0.00000E+00         0.00000E+00        -0.13873E+08
 
   -0.14287E+08         0.12987E+05         0.00000E+00
    0.12987E+05        -0.19113E+07         0.00000E+00
    0.00000E+00         0.00000E+00        -0.13780E+08
 
   -0.14274E+08         0.37510E+04         0.00000E+00
    0.37510E+04        -0.18334E+07         0.00000E+00
    0.00000E+00         0.00000E+00        -0.13686E+08
 
   -0.18610E+08         0.19230E+04         0.00000E+00
    0.19230E+04        -0.19784E+07         0.00000E+00
    0.00000E+00         0.00000E+00        -0.18769E+08
 
   -0.18606E+08         0.61627E+04         0.00000E+00
    0.61627E+04        -0.19617E+07         0.00000E+00
    0.00000E+00         0.00000E+00        -0.18748E+08
 
   -0.18600E+08         0.11403E+05         0.00000E+00
    0.11403E+05        -0.19490E+07         0.00000E+00
    0.00000E+00         0.00000E+00        -0.18728E+08
 
   -0.18592E+08         0.17853E+05         0.00000E+00
    0.17853E+05        -0.19399E+07         0.00000E+00
    0.00000E+00         0.00000E+00        -0.18708E+08
 
   -0.18581E+08         0.25367E+05         0.00000E+00
    0.25367E+05        -0.19339E+07         0.00000E+00
    0.00000E+00         0.00000E+00        -0.18688E+08
 
   -0.18569E+08         0.33633E+05         0.00000E+00
    0.33633E+05        -0.19304E+07         0.00000E+00
    0.00000E+00         0.00000E+00        -0.18669E+08
 
   -0.18556E+08         0.42320E+05         0.00000E+00
    0.42320E+05        -0.19287E+07         0.00000E+00
    0.00000E+00         0.00000E+00        -0.18649E+08
 
   -0.18541E+08         0.51151E+05         0.00000E+00
    0.51151E+05        -0.19283E+07         0.00000E+00
    0.00000E+00         0.00000E+00        -0.18630E+08
 
   -0.18526E+08         0.59927E+05         0.00000E+00
    0.59927E+05        -0.19288E+07         0.00000E+00
    0.00000E+00         0.00000E+00        -0.18610E+08
 
   -0.18510E+08         0.68509E+05         0.00000E+00
    0.68509E+05        -0.19299E+07         0.00000E+00
    0.00000E+00         0.00000E+00        -0.18591E+08
 
   -0.18493E+08         0.76813E+05         0.00000E+00
    0.76813E+05        -0.19313E+07         0.00000E+00
    0.00000E+00         0.00000E+00        -0.18571E+08
 
   -0.18475E+08         0.84794E+05         0.00000E+00
    0.84794E+05        -0.19328E+07         0.00000E+00
    0.00000E+00         0.00000E+00        -0.18550E+08
 
   -0.18457E+08         0.92433E+05         0.00000E+00
    0.92433E+05        -0.19344E+07         0.00000E+00
    0.00000E+00         0.00000E+00        -0.18530E+08
 
   -0.18439E+08         0.99731E+05         0.00000E+00
    0.99731E+05        -0.19359E+07         0.00000E+00
    0.00000E+00         0.00000E+00        -0.18508E+08
 
   -0.18419E+08         0.10670E+06         0.00000E+00
    0.10670E+06        -0.19373E+07         0.00000E+00
    0.00000E+00         0.00000E+00        -0.18487E+08
 
   -0.18399E+08         0.11337E+06         0.00000E+00
    0.11337E+06        -0.19386E+07         0.00000E+00
    0.00000E+00         0.00000E+00        -0.18465E+08
 
   -0.18378E+08         0.11975E+06         0.00000E+00
    0.11975E+06        -0.19397E+07         0.00000E+00
    0.00000E+00         0.00000E+00        -0.18442E+08
 
   -0.18356E+08         0.12588E+06         0.00000E+00
    0.12588E+06        -0.19408E+07         0.00000E+00
    0.00000E+00         0.00000E+00        -0.18419E+08
 
   -0.18334E+08         0.13179E+06         0.00000E+00
    0.13179E+06        -0.19416E+07         0.00000E+00
    0.00000E+00         0.00000E+00        -0.18395E+08
 
   -0.18310E+08         0.13751E+06         0.00000E+00
    0.13751E+06        -0.19424E+07         0.00000E+00
    0.00000E+00         0.00000E+00        -0.18371E+08
 
   -0.18286E+08         0.14306E+06         0.00000E+00
    0.14306E+06        -0.19430E+07         0.00000E+00
    0.00000E+00         0.00000E+00        -0.18346E+08
 
   -0.18261E+08         0.14847E+06         0.00000E+00
    0.14847E+06        -0.19435E+07         0.00000E+00
    0.00000E+00         0.00000E+00        -0.18321E+08
 
   -0.18236E+08         0.15376E+06         0.00000E+00
    0.15376E+06        -0.19440E+07         0.00000E+00
    0.00000E+00         0.00000E+00        -0.18295E+08
 
   -0.18209E+08         0.15895E+06         0.00000E+00
    0.15895E+06        -0.19443E+07         0.00000E+00
    0.00000E+00         0.00000E+00        -0.18268E+08
 
   -0.18182E+08         0.16406E+06         0.00000E+00
    0.16406E+06        -0.19446E+07         0.00000E+00
    0.00000E+00         0.00000E+00        -0.18241E+08
 
   -0.18154E+08         0.16912E+06         0.00000E+00
    0.16912E+06        -0.19448E+07         0.00000E+00
    0.00000E+00         0.00000E+00        -0.18213E+08
 
   -0.18126E+08         0.17412E+06         0.00000E+00
    0.17412E+06        -0.19450E+07         0.00000E+00
    0.00000E+00         0.00000E+00        -0.18184E+08
 
   -0.18096E+08         0.17910E+06         0.00000E+00
    0.17910E+06        -0.19451E+07         0.00000E+00
    0.00000E+00         0.00000E+00        -0.18155E+08
 
   -0.18066E+08         0.18406E+06         0.00000E+00
    0.18406E+06        -0.19452E+07         0.00000E+00
    0.00000E+00         0.00000E+00        -0.18125E+08
 
   -0.18035E+08         0.18900E+06         0.00000E+00
    0.18900E+06        -0.19452E+07         0.00000E+00
    0.00000E+00         0.00000E+00        -0.18094E+08
 
   -0.18003E+08         0.19395E+06         0.00000E+00
    0.19395E+06        -0.19452E+07         0.00000E+00
    0.00000E+00         0.00000E+00        -0.18063E+08
 
   -0.17970E+08         0.19890E+06         0.00000E+00
    0.19890E+06        -0.19452E+07         0.00000E+00
    0.00000E+00         0.00000E+00        -0.18030E+08
 
   -0.17937E+08         0.20386E+06         0.00000E+00
    0.20386E+06        -0.19452E+07         0.00000E+00
    0.00000E+00         0.00000E+00        -0.17997E+08
 
   -0.17902E+08         0.20884E+06         0.00000E+00
    0.20884E+06        -0.19452E+07         0.00000E+00
    0.00000E+00         0.00000E+00        -0.17964E+08
 
   -0.17867E+08         0.21385E+06         0.00000E+00
    0.21385E+06        -0.19451E+07         0.00000E+00
    0.00000E+00         0.00000E+00        -0.17929E+08
 
   -0.17831E+08         0.21887E+06         0.00000E+00
    0.21887E+06        -0.19450E+07         0.00000E+00
    0.00000E+00         0.00000E+00        -0.17894E+08
 
   -0.17794E+08         0.22393E+06         0.00000E+00
    0.22393E+06        -0.19450E+07         0.00000E+00
    0.00000E+00         0.00000E+00        -0.17858E+08
 
   -0.17757E+08         0.22902E+06         0.00000E+00
    0.22902E+06        -0.19449E+07         0.00000E+00
    0.00000E+00         0.00000E+00        -0.17820E+08
 
   -0.17718E+08         0.23414E+06         0.00000E+00
    0.23414E+06        -0.19448E+07         0.00000E+00
    0.00000E+00         0.00000E+00        -0.17783E+08
 
   -0.17679E+08         0.23928E+06         0.00000E+00
    0.23928E+06        -0.19448E+07         0.00000E+00
    0.00000E+00         0.00000E+00        -0.17744E+08
 
   -0.17638E+08         0.24446E+06         0.00000E+00
    0.24446E+06        -0.19447E+07         0.00000E+00
    0.00000E+00         0.00000E+00        -0.17704E+08
 
   -0.17597E+08         0.24967E+06         0.00000E+00
    0.24967E+06        -0.19446E+07         0.00000E+00
    0.00000E+00         0.00000E+00        -0.17663E+08
 
   -0.17555E+08         0.25489E+06         0.00000E+00
    0.25489E+06        -0.19446E+07         0.00000E+00
    0.00000E+00         0.00000E+00        -0.17622E+08
 
   -0.17512E+08         0.26015E+06         0.00000E+00
    0.26015E+06        -0.19446E+07         0.00000E+00
    0.00000E+00         0.00000E+00        -0.17579E+08
 
   -0.17468E+08         0.26542E+06         0.00000E+00
    0.26542E+06        -0.19445E+07         0.00000E+00
    0.00000E+00         0.00000E+00        -0.17536E+08
 
   -0.17423E+08         0.27070E+06         0.00000E+00
    0.27070E+06        -0.19445E+07         0.00000E+00
    0.00000E+00         0.00000E+00        -0.17491E+08
 
   -0.17377E+08         0.27599E+06         0.00000E+00
    0.27599E+06        -0.19445E+07         0.00000E+00
    0.00000E+00         0.00000E+00        -0.17446E+08
 
   -0.17330E+08         0.28129E+06         0.00000E+00
    0.28129E+06        -0.19446E+07         0.00000E+00
    0.00000E+00         0.00000E+00        -0.17399E+08
 
   -0.17282E+08         0.28658E+06         0.00000E+00
    0.28658E+06        -0.19446E+07         0.00000E+00
    0.00000E+00         0.00000E+00        -0.17352E+08
 
   -0.17234E+08         0.29186E+06         0.00000E+00
    0.29186E+06        -0.19447E+07         0.00000E+00
    0.00000E+00         0.00000E+00        -0.17303E+08
 
   -0.17184E+08         0.29712E+06         0.00000E+00
    0.29712E+06        -0.19448E+07         0.00000E+00
    0.00000E+00         0.00000E+00        -0.17253E+08
 
   -0.17133E+08         0.30235E+06         0.00000E+00
    0.30235E+06        -0.19449E+07         0.00000E+00
    0.00000E+00         0.00000E+00        -0.17203E+08
 
   -0.17082E+08         0.30753E+06         0.00000E+00
    0.30753E+06        -0.19451E+07         0.00000E+00
    0.00000E+00         0.00000E+00        -0.17151E+08
 
   -0.17029E+08         0.31267E+06         0.00000E+00
    0.31267E+06        -0.19453E+07         0.00000E+00
    0.00000E+00         0.00000E+00        -0.17098E+08
 
   -0.16976E+08         0.31774E+06         0.00000E+00
    0.31774E+06        -0.19455E+07         0.00000E+00
    0.00000E+00         0.00000E+00        -0.17044E+08
 
   -0.16921E+08         0.32274E+06         0.00000E+00
    0.32274E+06        -0.19458E+07         0.00000E+00
    0.00000E+00         0.00000E+00        -0.16989E+08
 
   -0.16866E+08         0.32765E+06         0.00000E+00
    0.32765E+06        -0.19461E+07         0.00000E+00
    0.00000E+00         0.00000E+00        -0.16933E+08
 
   -0.16810E+08         0.33244E+06         0.00000E+00
    0.33244E+06        -0.19465E+07         0.00000E+00
    0.00000E+00         0.00000E+00        -0.16876E+08
 
   -0.16752E+08         0.33712E+06         0.00000E+00
    0.33712E+06        -0.19469E+07         0.00000E+00
    0.00000E+00         0.00000E+00        -0.16817E+08
 
   -0.16694E+08         0.34165E+06         0.00000E+00
    0.34165E+06        -0.19474E+07         0.00000E+00
    0.00000E+00         0.00000E+00        -0.16758E+08
 
   -0.16635E+08         0.34603E+06         0.00000E+00
    0.34603E+06        -0.19480E+07         0.00000E+00
    0.00000E+00         0.00000E+00        -0.16697E+08
 
   -0.16575E+08         0.35022E+06         0.00000E+00
    0.35022E+06        -0.19486E+07         0.00000E+00
    0.00000E+00         0.00000E+00        -0.16635E+08
 
   -0.16514E+08         0.35420E+06         0.00000E+00
    0.35420E+06        -0.19493E+07         0.00000E+00
    0.00000E+00         0.00000E+00        -0.16573E+08
 
   -0.16453E+08         0.35796E+06         0.00000E+00
    0.35796E+06        -0.19500E+07         0.00000E+00
    0.00000E+00         0.00000E+00        -0.16509E+08
 
   -0.16390E+08         0.36146E+06         0.00000E+00
    0.36146E+06        -0.19509E+07         0.00000E+00
    0.00000E+00         0.00000E+00        -0.16444E+08
 
   -0.16327E+08         0.36468E+06         0.00000E+00
    0.36468E+06        -0.19518E+07         0.00000E+00
    0.00000E+00         0.00000E+00        -0.16378E+08
 
   -0.16263E+08         0.36758E+06         0.00000E+00
    0.36758E+06        -0.19529E+07         0.00000E+00
    0.00000E+00         0.00000E+00        -0.16311E+08
 
   -0.16199E+08         0.37013E+06         0.00000E+00
    0.37013E+06        -0.19540E+07         0.00000E+00
    0.00000E+00         0.00000E+00        -0.16242E+08
 
   -0.16134E+08         0.37229E+06         0.00000E+00
    0.37229E+06        -0.19553E+07         0.00000E+00
    0.00000E+00         0.00000E+00        -0.16173E+08
 
   -0.16068E+08         0.37404E+06         0.00000E+00
    0.37404E+06        -0.19567E+07         0.00000E+00
    0.00000E+00         0.00000E+00        -0.16103E+08
 
   -0.16002E+08         0.37531E+06         0.00000E+00
    0.37531E+06        -0.19582E+07         0.00000E+00
    0.00000E+00         0.00000E+00        -0.16032E+08
 
   -0.15935E+08         0.37607E+06         0.00000E+00
    0.37607E+06        -0.19599E+07         0.00000E+00
    0.00000E+00         0.00000E+00        -0.15960E+08
 
   -0.15868E+08         0.37626E+06         0.00000E+00
    0.37626E+06        -0.19618E+07         0.00000E+00
    0.00000E+00         0.00000E+00        -0.15887E+08
 
   -0.15801E+08         0.37582E+06         0.00000E+00
    0.37582E+06        -0.19639E+07         0.00000E+00
    0.00000E+00         0.00000E+00        -0.15813E+08
 
   -0.15733E+08         0.37470E+06         0.00000E+00
    0.37470E+06        -0.19662E+07         0.00000E+00
    0.00000E+00         0.00000E+00        -0.15739E+08
 
   -0.15665E+08         0.37283E+06         0.00000E+00
    0.37283E+06        -0.19688E+07         0.00000E+00
    0.00000E+00         0.00000E+00        -0.15663E+08
 
   -0.15598E+08         0.37013E+06         0.00000E+00
    0.37013E+06        -0.19716E+07         0.00000E+00
    0.00000E+00         0.00000E+00        -0.15587E+08
 
   -0.15530E+08         0.36652E+06         0.00000E+00
    0.36652E+06        -0.19748E+07         0.00000E+00
    0.00000E+00         0.00000E+00        -0.15510E+08
 
   -0.15462E+08         0.36191E+06         0.00000E+00
    0.36191E+06        -0.19783E+07         0.00000E+00
    0.00000E+00         0.00000E+00        -0.15433E+08
 
   -0.15395E+08         0.35621E+06         0.00000E+00
    0.35621E+06        -0.19823E+07         0.00000E+00
    0.00000E+00         0.00000E+00        -0.15355E+08
 
   -0.15328E+08         0.34932E+06         0.00000E+00
    0.34932E+06        -0.19868E+07         0.00000E+00
    0.00000E+00         0.00000E+00        -0.15277E+08
 
   -0.15261E+08         0.34111E+06         0.00000E+00
    0.34111E+06        -0.19917E+07         0.00000E+00
    0.00000E+00         0.00000E+00        -0.15198E+08
 
   -0.15195E+08         0.33149E+06         0.00000E+00
    0.33149E+06        -0.19972E+07         0.00000E+00
    0.00000E+00         0.00000E+00        -0.15119E+08
 
   -0.15130E+08         0.32032E+06         0.00000E+00
    0.32032E+06        -0.20033E+07         0.00000E+00
    0.00000E+00         0.00000E+00        -0.15040E+08
 
   -0.15065E+08         0.30749E+06         0.00000E+00
    0.30749E+06        -0.20100E+07         0.00000E+00
    0.00000E+00         0.00000E+00        -0.14960E+08
 
   -0.15000E+08         0.29289E+06         0.00000E+00
    0.29289E+06        -0.20172E+07         0.00000E+00
    0.00000E+00         0.00000E+00        -0.14880E+08
 
   -0.14937E+08         0.27642E+06         0.00000E+00
    0.27642E+06        -0.20250E+07         0.00000E+00
    0.00000E+00         0.00000E+00        -0.14800E+08
 
   -0.14874E+08         0.25800E+06         0.00000E+00
    0.25800E+06        -0.20331E+07         0.00000E+00
    0.00000E+00         0.00000E+00        -0.14720E+08
 
   -0.14812E+08         0.23760E+06         0.00000E+00
    0.23760E+06        -0.20413E+07         0.00000E+00
    0.00000E+00         0.00000E+00        -0.14639E+08
 
   -0.14751E+08         0.21524E+06         0.00000E+00
    0.21524E+06        -0.20492E+07         0.00000E+00
    0.00000E+00         0.00000E+00        -0.14558E+08
 
   -0.14691E+08         0.19106E+06         0.00000E+00
    0.19106E+06        -0.20563E+07         0.00000E+00
    0.00000E+00         0.00000E+00        -0.14477E+08
 
   -0.14632E+08         0.16529E+06         0.00000E+00
    0.16529E+06        -0.20617E+07         0.00000E+00
    0.00000E+00         0.00000E+00        -0.14396E+08
 
   -0.14574E+08         0.13837E+06         0.00000E+00
    0.13837E+06        -0.20644E+07         0.00000E+00
    0.00000E+00         0.00000E+00        -0.14313E+08
 
   -0.14518E+08         0.11097E+06         0.00000E+00
    0.11097E+06        -0.20628E+07         0.00000E+00
    0.00000E+00         0.00000E+00        -0.14230E+08
 
   -0.14465E+08         0.84073E+05         0.00000E+00
    0.84073E+05        -0.20550E+07         0.00000E+00
    0.00000E+00         0.00000E+00        -0.14145E+08
 
   -0.14417E+08         0.58986E+05         0.00000E+00
    0.58986E+05        -0.20385E+07         0.00000E+00
    0.00000E+00         0.00000E+00        -0.14059E+08
 
   -0.14374E+08         0.37276E+05         0.00000E+00
    0.37276E+05        -0.20106E+07         0.00000E+00
    0.00000E+00         0.00000E+00        -0.13970E+08
 
   -0.14339E+08         0.20428E+05         0.00000E+00
    0.20428E+05        -0.19684E+07         0.00000E+00
    0.00000E+00         0.00000E+00        -0.13880E+08
 
   -0.14314E+08         0.91306E+04         0.00000E+00
    0.91306E+04        -0.19094E+07         0.00000E+00
    0.00000E+00         0.00000E+00        -0.13788E+08
 
   -0.14301E+08         0.24390E+04         0.00000E+00
    0.24390E+04        -0.18321E+07         0.00000E+00
    0.00000E+00         0.00000E+00        -0.13693E+08
 
   -0.18602E+08         0.16147E+04         0.00000E+00
    0.16147E+04        -0.19792E+07         0.00000E+00
    0.00000E+00         0.00000E+00        -0.18767E+08
 
   -0.18599E+08         0.52566E+04         0.00000E+00
    0.52566E+04        -0.19626E+07         0.00000E+00
    0.00000E+00         0.00000E+00        -0.18746E+08
 
   -0.18593E+08         0.99549E+04         0.00000E+00
    0.99549E+04        -0.19501E+07         0.00000E+00
    0.00000E+00         0.00000E+00        -0.18726E+08
 
   -0.18585E+08         0.15947E+05         0.00000E+00
    0.15947E+05        -0.19413E+07         0.00000E+00
    0.00000E+00         0.00000E+00        -0.18706E+08
 
   -0.18575E+08         0.23098E+05         0.00000E+00
    0.23098E+05        -0.19355E+07         0.00000E+00
    0.00000E+00         0.00000E+00        -0.18687E+08
 
   -0.18563E+08         0.31082E+05         0.00000E+00
    0.31082E+05        -0.19321E+07         0.00000E+00
    0.00000E+00         0.00000E+00        -0.18667E+08
 
   -0.18550E+08         0.39548E+05         0.00000E+00
    0.39548E+05        -0.19305E+07         0.00000E+00
    0.00000E+00         0.00000E+00        -0.18648E+08
 
   -0.18536E+08         0.48199E+05         0.00000E+00
    0.48199E+05        -0.19301E+07         0.00000E+00
    0.00000E+00         0.00000E+00        -0.18629E+08
 
   -0.18521E+08         0.56817E+05         0.00000E+00
    0.56817E+05        -0.19305E+07         0.00000E+00
    0.00000E+00         0.00000E+00        -0.18609E+08
 
   -0.18505E+08         0.65254E+05         0.00000E+00
    0.65254E+05        -0.19316E+07         0.00000E+00
    0.00000E+00         0.00000E+00        -0.18590E+08
 
   -0.18489E+08         0.73418E+05         0.00000E+00
    0.73418E+05        -0.19329E+07         0.00000E+00
    0.00000E+00         0.00000E+00        -0.18570E+08
 
   -0.18471E+08         0.81259E+05         0.00000E+00
    0.81259E+05        -0.19343E+07         0.00000E+00
    0.00000E+00         0.00000E+00        -0.18549E+08
 
   -0.18453E+08         0.88757E+05         0.00000E+00
    0.88757E+05        -0.19358E+07         0.00000E+00
    0.00000E+00         0.00000E+00        -0.18529E+08
 
   -0.18435E+08         0.95912E+05         0.00000E+00
    0.95912E+05        -0.19373E+07         0.00000E+00
    0.00000E+00         0.00000E+00        -0.18508E+08
 
   -0.18415E+08         0.10274E+06         0.00000E+00
    0.10274E+06        -0.19386E+07         0.00000E+00
    0.00000E+00         0.00000E+00        -0.18486E+08
 
   -0.18395E+08         0.10925E+06         0.00000E+00
    0.10925E+06        -0.19399E+07         0.00000E+00
    0.00000E+00         0.00000E+00        -0.18464E+08
 
   -0.18374E+08         0.11549E+06         0.00000E+00
    0.11549E+06        -0.19410E+07         0.00000E+00
    0.00000E+00         0.00000E+00        -0.18441E+08
 
   -0.18353E+08         0.12147E+06         0.00000E+00
    0.12147E+06        -0.19419E+07         0.00000E+00
    0.00000E+00         0.00000E+00        -0.18418E+08
 
   -0.18330E+08         0.12722E+06         0.00000E+00
    0.12722E+06        -0.19428E+07         0.00000E+00
    0.00000E+00         0.00000E+00        -0.18395E+08
 
   -0.18307E+08         0.13279E+06         0.00000E+00
    0.13279E+06        -0.19435E+07         0.00000E+00
    0.00000E+00         0.00000E+00        -0.18370E+08
 
   -0.18283E+08         0.13818E+06         0.00000E+00
    0.13818E+06        -0.19441E+07         0.00000E+00
    0.00000E+00         0.00000E+00        -0.18346E+08
 
   -0.18258E+08         0.14343E+06         0.00000E+00
    0.14343E+06        -0.19446E+07         0.00000E+00
    0.00000E+00         0.00000E+00        -0.18320E+08
 
   -0.18233E+08         0.14856E+06         0.00000E+00
    0.14856E+06        -0.19450E+07         0.00000E+00
    0.00000E+00         0.00000E+00        -0.18294E+08
 
   -0.18206E+08         0.15360E+06         0.00000E+00
    0.15360E+06        -0.19453E+07         0.00000E+00
    0.00000E+00         0.00000E+00        -0.18267E+08
 
   -0.18179E+08         0.15856E+06         0.00000E+00
    0.15856E+06        -0.19456E+07         0.00000E+00
    0.00000E+00         0.00000E+00        -0.18240E+08
 
   -0.18151E+08         0.16345E+06         0.00000E+00
    0.16345E+06        -0.19458E+07         0.00000E+00
    0.00000E+00         0.00000E+00        -0.18212E+08
 
   -0.18123E+08         0.16830E+06         0.00000E+00
    0.16830E+06        -0.19459E+07         0.00000E+00
    0.00000E+00         0.00000E+00        -0.18183E+08
 
   -0.18093E+08         0.17312E+06         0.00000E+00
    0.17312E+06        -0.19461E+07         0.00000E+00
    0.00000E+00         0.00000E+00        -0.18154E+08
 
   -0.18063E+08         0.17792E+06         0.00000E+00
    0.17792E+06        -0.19461E+07         0.00000E+00
    0.00000E+00         0.00000E+00        -0.18124E+08
 
   -0.18032E+08         0.18270E+06         0.00000E+00
    0.18270E+06        -0.19462E+07         0.00000E+00
    0.00000E+00         0.00000E+00        -0.18093E+08
 
   -0.18000E+08         0.18749E+06         0.00000E+00
    0.18749E+06        -0.19462E+07         0.00000E+00
    0.00000E+00         0.00000E+00        -0.18062E+08
 
   -0.17967E+08         0.19227E+06         0.00000E+00
    0.19227E+06        -0.19462E+07         0.00000E+00
    0.00000E+00         0.00000E+00        -0.18030E+08
 
   -0.17933E+08         0.19707E+06         0.00000E+00
    0.19707E+06        -0.19462E+07         0.00000E+00
    0.00000E+00         0.00000E+00        -0.17997E+08
 
   -0.17899E+08         0.20189E+06         0.00000E+00
    0.20189E+06        -0.19461E+07         0.00000E+00
    0.00000E+00         0.00000E+00        -0.17963E+08
 
   -0.17864E+08         0.20672E+06         0.00000E+00
    0.20672E+06        -0.19461E+07         0.00000E+00
    0.00000E+00         0.00000E+00        -0.17928E+08
 
   -0.17828E+08         0.21159E+06         0.00000E+00
    0.21159E+06        -0.19460E+07         0.00000E+00
    0.00000E+00         0.00000E+00        -0.17893E+08
 
   -0.17791E+08         0.21647E+06         0.00000E+00
    0.21647E+06        -0.19460E+07         0.00000E+00
    0.00000E+00         0.00000E+00        -0.17857E+08
 
   -0.17753E+08         0.22139E+06         0.00000E+00
    0.22139E+06        -0.19459E+07         0.00000E+00
    0.00000E+00         0.00000E+00        -0.17820E+08
 
   -0.17715E+08         0.22633E+06         0.00000E+00
    0.22633E+06        -0.19458E+07         0.00000E+00
    0.00000E+00         0.00000E+00        -0.17782E+08
 
   -0.17675E+08         0.23130E+06         0.00000E+00
    0.23130E+06        -0.19458E+07         0.00000E+00
    0.00000E+00         0.00000E+00        -0.17743E+08
 
   -0.17635E+08         0.23630E+06         0.00000E+00
    0.23630E+06        -0.19457E+07         0.00000E+00
    0.00000E+00         0.00000E+00        -0.17703E+08
 
   -0.17593E+08         0.24132E+06         0.00000E+00
    0.24132E+06        -0.19457E+07         0.00000E+00
    0.00000E+00         0.00000E+00        -0.17663E+08
 
   -0.17551E+08         0.24637E+06         0.00000E+00
    0.24637E+06        -0.19456E+07         0.00000E+00
    0.00000E+00         0.00000E+00        -0.17621E+08
 
   -0.17508E+08         0.25144E+06         0.00000E+00
    0.25144E+06        -0.19456E+07         0.00000E+00
    0.00000E+00         0.00000E+00        -0.17578E+08
 
   -0.17464E+08         0.25652E+06         0.00000E+00
    0.25652E+06        -0.19456E+07         0.00000E+00
    0.00000E+00         0.00000E+00        -0.17535E+08
 
   -0.17419E+08         0.26162E+06         0.00000E+00
    0.26162E+06        -0.19456E+07         0.00000E+00
    0.00000E+00         0.00000E+00        -0.17490E+08
 
   -0.17373E+08         0.26672E+06         0.00000E+00
    0.26672E+06        -0.19456E+07         0.00000E+00
    0.00000E+00         0.00000E+00        -0.17445E+08
 
   -0.17326E+08         0.27183E+06         0.00000E+00
    0.27183E+06        -0.19456E+07         0.00000E+00
    0.00000E+00         0.00000E+00        -0.17398E+08
 
   -0.17279E+08         0.27693E+06         0.00000E+00
    0.27693E+06        -0.19456E+07         0.00000E+00
    0.00000E+00         0.00000E+00        -0.17351E+08
 
   -0.17230E+08         0.28202E+06         0.00000E+00
    0.28202E+06        -0.19457E+07         0.00000E+00
    0.00000E+00         0.00000E+00        -0.17302E+08
 
   -0.17180E+08         0.28708E+06         0.00000E+00
    0.28708E+06        -0.19458E+07         0.00000E+00
    0.00000E+00         0.00000E+00        -0.17253E+08
 
   -0.17129E+08         0.29212E+06         0.00000E+00
    0.29212E+06        -0.19459E+07         0.00000E+00
    0.00000E+00         0.00000E+00        -0.17202E+08
 
   -0.17078E+08         0.29712E+06         0.00000E+00
    0.29712E+06        -0.19461E+07         0.00000E+00
    0.00000E+00         0.00000E+00        -0.17150E+08
 
   -0.17025E+08         0.30207E+06         0.00000E+00
    0.30207E+06        -0.19463E+07         0.00000E+00
    0.00000E+00         0.00000E+00        -0.17097E+08
 
   -0.16972E+08         0.30695E+06         0.00000E+00
    0.30695E+06        -0.19465E+07         0.00000E+00
    0.00000E+00         0.00000E+00        -0.17043E+08
 
   -0.16917E+08         0.31176E+06         0.00000E+00
    0.31176E+06        -0.19468E+07         0.00000E+00
    0.00000E+00         0.00000E+00        -0.16988E+08
 
   -0.16862E+08         0.31648E+06         0.00000E+00
    0.31648E+06        -0.19471E+07         0.00000E+00
    0.00000E+00         0.00000E+00        -0.16932E+08
 
   -0.16806E+08         0.32109E+06         0.00000E+00
    0.32109E+06        -0.19474E+07         0.00000E+00
    0.00000E+00         0.00000E+00        -0.16875E+08
 
   -0.16749E+08         0.32558E+06         0.00000E+00
    0.32558E+06        -0.19478E+07         0.00000E+00
    0.00000E+00         0.00000E+00        -0.16816E+08
 
   -0.16691E+08         0.32994E+06         0.00000E+00
    0.32994E+06        -0.19483E+07         0.00000E+00
    0.00000E+00         0.00000E+00        -0.16757E+08
 
   -0.16632E+08         0.33414E+06         0.00000E+00
    0.33414E+06        -0.19488E+07         0.00000E+00
    0.00000E+00         0.00000E+00        -0.16696E+08
 
   -0.16572E+08         0.33816E+06         0.00000E+00
    0.33816E+06        -0.19494E+07         0.00000E+00
    0.00000E+00         0.00000E+00        -0.16635E+08
 
   -0.16511E+08         0.34198E+06         0.00000E+00
    0.34198E+06        -0.19500E+07         0.00000E+00
    0.00000E+00         0.00000E+00        -0.16572E+08
 
   -0.16450E+08         0.34557E+06         0.00000E+00
    0.34557E+06        -0.19507E+07         0.00000E+00
    0.00000E+00         0.00000E+00        -0.16508E+08
 
   -0.16387E+08         0.34892E+06         0.00000E+00
    0.34892E+06        -0.19515E+07         0.00000E+00
    0.00000E+00         0.00000E+00        -0.16443E+08
 
   -0.16324E+08         0.35199E+06         0.00000E+00
    0.35199E+06        -0.19524E+07         0.00000E+00
    0.00000E+00         0.00000E+00        -0.16377E+08
 
   -0.16261E+08         0.35476E+06         0.00000E+00
    0.35476E+06        -0.19534E+07         0.00000E+00
    0.00000E+00         0.00000E+00        -0.16310E+08
 
   -0.16196E+08         0.35718E+06         0.00000E+00
    0.35718E+06        -0.19545E+07         0.00000E+00
    0.00000E+00         0.00000E+00        -0.16242E+08
 
   -0.16131E+08         0.35923E+06         0.00000E+00
    0.35923E+06        -0.19557E+07         0.00000E+00
    0.00000E+00         0.00000E+00        -0.16173E+08
 
   -0.16066E+08         0.36086E+06         0.00000E+00
    0.36086E+06        -0.19570E+07         0.00000E+00
    0.00000E+00         0.00000E+00        -0.16103E+08
 
   -0.16000E+08         0.36204E+06         0.00000E+00
    0.36204E+06        -0.19584E+07         0.00000E+00
    0.00000E+00         0.00000E+00        -0.16031E+08
 
   -0.15934E+08         0.36272E+06         0.00000E+00
    0.36272E+06        -0.19600E+07         0.00000E+00
    0.00000E+00         0.00000E+00        -0.15959E+08
 
   -0.15867E+08         0.36284E+06         0.00000E+00
    0.36284E+06        -0.19618E+07         0.00000E+00
    0.00000E+00         0.00000E+00        -0.15887E+08
 
   -0.15800E+08         0.36236E+06         0.00000E+00
    0.36236E+06        -0.19637E+07         0.00000E+00
    0.00000E+00         0.00000E+00        -0.15813E+08
 
   -0.15732E+08         0.36120E+06         0.00000E+00
    0.36120E+06        -0.19659E+07         0.00000E+00
    0.00000E+00         0.00000E+00        -0.15738E+08
 
   -0.15665E+08         0.35932E+06         0.00000E+00
    0.35932E+06        -0.19683E+07         0.00000E+00
    0.00000E+00         0.00000E+00        -0.15663E+08
 
   -0.15598E+08         0.35662E+06         0.00000E+00
    0.35662E+06        -0.19710E+07         0.00000E+00
    0.00000E+00         0.00000E+00        -0.15587E+08
 
   -0.15530E+08         0.35303E+06         0.00000E+00
    0.35303E+06        -0.19740E+07         0.00000E+00
    0.00000E+00         0.00000E+00        -0.15510E+08
 
   -0.15463E+08         0.34846E+06         0.00000E+00
    0.34846E+06        -0.19773E+07         0.00000E+00
    0.00000E+00         0.00000E+00        -0.15433E+08
 
   -0.15397E+08         0.34282E+06         0.00000E+00
    0.34282E+06        -0.19811E+07         0.00000E+00
    0.00000E+00         0.00000E+00        -0.15355E+08
 
   -0.15330E+08         0.33601E+06         0.00000E+00
    0.33601E+06        -0.19853E+07         0.00000E+00
    0.00000E+00         0.00000E+00        -0.15277E+08
 
   -0.15264E+08         0.32790E+06         0.00000E+00
    0.32790E+06        -0.19899E+07         0.00000E+00
    0.00000E+00         0.00000E+00        -0.15198E+08
 
   -0.15199E+08         0.31839E+06         0.00000E+00
    0.31839E+06        -0.19951E+07         0.00000E+00
    0.00000E+00         0.00000E+00        -0.15119E+08
 
   -0.15134E+08         0.30735E+06         0.00000E+00
    0.30735E+06        -0.20009E+07         0.00000E+00
    0.00000E+00         0.00000E+00        -0.15040E+08
 
   -0.15070E+08         0.29466E+06         0.00000E+00
    0.29466E+06        -0.20072E+07         0.00000E+00
    0.00000E+00         0.00000E+00        -0.14961E+08
 
   -0.15007E+08         0.28021E+06         0.00000E+00
    0.28021E+06        -0.20141E+07         0.00000E+00
    0.00000E+00         0.00000E+00        -0.14881E+08
 
   -0.14944E+08         0.26390E+06         0.00000E+00
    0.26390E+06        -0.20215E+07         0.00000E+00
    0.00000E+00         0.00000E+00        -0.14801E+08
 
   -0.14883E+08         0.24565E+06         0.00000E+00
    0.24565E+06        -0.20292E+07         0.00000E+00
    0.00000E+00         0.00000E+00        -0.14721E+08
 
   -0.14822E+08         0.22543E+06         0.00000E+00
    0.22543E+06        -0.20370E+07         0.00000E+00
    0.00000E+00         0.00000E+00        -0.14641E+08
 
   -0.14762E+08         0.20327E+06         0.00000E+00
    0.20327E+06        -0.20446E+07         0.00000E+00
    0.00000E+00         0.00000E+00        -0.14560E+08
 
   -0.14704E+08         0.17929E+06         0.00000E+00
    0.17929E+06        -0.20513E+07         0.00000E+00
    0.00000E+00         0.00000E+00        -0.14480E+08
 
   -0.14647E+08         0.15378E+06         0.00000E+00
    0.15378E+06        -0.20564E+07         0.00000E+00
    0.00000E+00         0.00000E+00        -0.14398E+08
 
   -0.14591E+08         0.12720E+06         0.00000E+00
    0.12720E+06        -0.20589E+07         0.00000E+00
    0.00000E+00         0.00000E+00        -0.14317E+08
 
   -0.14537E+08         0.10026E+06         0.00000E+00
    0.10026E+06        -0.20573E+07         0.00000E+00
    0.00000E+00         0.00000E+00        -0.14234E+08
 
   -0.14486E+08         0.74020E+05         0.00000E+00
    0.74020E+05        -0.20498E+07         0.00000E+00
    0.00000E+00         0.00000E+00        -0.14150E+08
 
   -0.14439E+08         0.49892E+05         0.00000E+00
    0.49892E+05        -0.20339E+07         0.00000E+00
    0.00000E+00         0.00000E+00        -0.14064E+08
 
   -0.14398E+08         0.29537E+05         0.00000E+00
    0.29537E+05        -0.20069E+07         0.00000E+00
    0.00000E+00         0.00000E+00        -0.13976E+08
 
   -0.14364E+08         0.14489E+05         0.00000E+00
    0.14489E+05        -0.19658E+07         0.00000E+00
    0.00000E+00         0.00000E+00        -0.13887E+08
 
   -0.14340E+08         0.53909E+04         0.00000E+00
    0.53909E+04        -0.19079E+07         0.00000E+00
    0.00000E+00         0.00000E+00        -0.13795E+08
 
   -0.14328E+08         0.11627E+04         0.00000E+00
    0.11627E+04        -0.18314E+07         0.00000E+00
    0.00000E+00         0.00000E+00        -0.13701E+08
 
   -0.18595E+08         0.13121E+04         0.00000E+00
    0.13121E+04        -0.19797E+07         0.00000E+00
    0.00000E+00         0.00000E+00        -0.18765E+08
 
   -0.18592E+08         0.43704E+04         0.00000E+00
    0.43704E+04        -0.19634E+07         0.00000E+00
    0.00000E+00         0.00000E+00        -0.18744E+08
 
   -0.18586E+08         0.85450E+04         0.00000E+00
    0.85450E+04        -0.19512E+07         0.00000E+00
    0.00000E+00         0.00000E+00        -0.18724E+08
 
   -0.18578E+08         0.14098E+05         0.00000E+00
    0.14098E+05        -0.19426E+07         0.00000E+00
    0.00000E+00         0.00000E+00        -0.18705E+08
 
   -0.18568E+08         0.20898E+05         0.00000E+00
    0.20898E+05        -0.19370E+07         0.00000E+00
    0.00000E+00         0.00000E+00        -0.18685E+08
 
   -0.18557E+08         0.28607E+05         0.00000E+00
    0.28607E+05        -0.19337E+07         0.00000E+00
    0.00000E+00         0.00000E+00        -0.18666E+08
 
   -0.18544E+08         0.36853E+05         0.00000E+00
    0.36853E+05        -0.19322E+07         0.00000E+00
    0.00000E+00         0.00000E+00        -0.18647E+08
 
   -0.18530E+08         0.45320E+05         0.00000E+00
    0.45320E+05        -0.19318E+07         0.00000E+00
    0.00000E+00         0.00000E+00        -0.18628E+08
 
   -0.18516E+08         0.53774E+05         0.00000E+00
    0.53774E+05        -0.19322E+07         0.00000E+00
    0.00000E+00         0.00000E+00        -0.18608E+08
 
   -0.18500E+08         0.62059E+05         0.00000E+00
    0.62059E+05        -0.19332E+07         0.00000E+00
    0.00000E+00         0.00000E+00        -0.18589E+08
 
   -0.18484E+08         0.70076E+05         0.00000E+00
    0.70076E+05        -0.19345E+07         0.00000E+00
    0.00000E+00         0.00000E+00        -0.18569E+08
 
   -0.18467E+08         0.77770E+05         0.00000E+00
    0.77770E+05        -0.19359E+07         0.00000E+00
    0.00000E+00         0.00000E+00        -0.18549E+08
 
   -0.18450E+08         0.85121E+05         0.00000E+00
    0.85121E+05        -0.19373E+07         0.00000E+00
    0.00000E+00         0.00000E+00        -0.18528E+08
 
   -0.18431E+08         0.92126E+05         0.00000E+00
    0.92126E+05        -0.19387E+07         0.00000E+00
    0.00000E+00         0.00000E+00        -0.18507E+08
 
   -0.18412E+08         0.98799E+05         0.00000E+00
    0.98799E+05        -0.19400E+07         0.00000E+00
    0.00000E+00         0.00000E+00        -0.18485E+08
 
   -0.18392E+08         0.10516E+06         0.00000E+00
    0.10516E+06        -0.19411E+07         0.00000E+00
    0.00000E+00         0.00000E+00        -0.18463E+08
 
   -0.18371E+08         0.11124E+06         0.00000E+00
    0.11124E+06        -0.19422E+07         0.00000E+00
    0.00000E+00         0.00000E+00        -0.18441E+08
 
   -0.18349E+08         0.11706E+06         0.00000E+00
    0.11706E+06        -0.19431E+07         0.00000E+00
    0.00000E+00         0.00000E+00        -0.18418E+08
 
   -0.18327E+08         0.12266E+06         0.00000E+00
    0.12266E+06        -0.19439E+07         0.00000E+00
    0.00000E+00         0.00000E+00        -0.18394E+08
 
   -0.18304E+08         0.12807E+06         0.00000E+00
    0.12807E+06        -0.19446E+07         0.00000E+00
    0.00000E+00         0.00000E+00        -0.18370E+08
 
   -0.18280E+08         0.13330E+06         0.00000E+00
    0.13330E+06        -0.19451E+07         0.00000E+00
    0.00000E+00         0.00000E+00        -0.18345E+08
 
   -0.18255E+08         0.13840E+06         0.00000E+00
    0.13840E+06        -0.19456E+07         0.00000E+00
    0.00000E+00         0.00000E+00        -0.18319E+08
 
   -0.18230E+08         0.14337E+06         0.00000E+00
    0.14337E+06        -0.19460E+07         0.00000E+00
    0.00000E+00         0.00000E+00        -0.18293E+08
 
   -0.18203E+08         0.14825E+06         0.00000E+00
    0.14825E+06        -0.19463E+07         0.00000E+00
    0.00000E+00         0.00000E+00        -0.18267E+08
 
   -0.18176E+08         0.15305E+06         0.00000E+00
    0.15305E+06        -0.19466E+07         0.00000E+00
    0.00000E+00         0.00000E+00        -0.18239E+08
 
   -0.18148E+08         0.15779E+06         0.00000E+00
    0.15779E+06        -0.19467E+07         0.00000E+00
    0.00000E+00         0.00000E+00        -0.18211E+08
 
   -0.18120E+08         0.16248E+06         0.00000E+00
    0.16248E+06        -0.19469E+07         0.00000E+00
    0.00000E+00         0.00000E+00        -0.18183E+08
 
   -0.18090E+08         0.16714E+06         0.00000E+00
    0.16714E+06        -0.19470E+07         0.00000E+00
    0.00000E+00         0.00000E+00        -0.18153E+08
 
   -0.18060E+08         0.17177E+06         0.00000E+00
    0.17177E+06        -0.19471E+07         0.00000E+00
    0.00000E+00         0.00000E+00        -0.18123E+08
 
   -0.18029E+08         0.17640E+06         0.00000E+00
    0.17640E+06        -0.19471E+07         0.00000E+00
    0.00000E+00         0.00000E+00        -0.18093E+08
 
   -0.17997E+08         0.18102E+06         0.00000E+00
    0.18102E+06        -0.19471E+07         0.00000E+00
    0.00000E+00         0.00000E+00        -0.18061E+08
 
   -0.17964E+08         0.18564E+06         0.00000E+00
    0.18564E+06        -0.19471E+07         0.00000E+00
    0.00000E+00         0.00000E+00        -0.18029E+08
 
   -0.17930E+08         0.19028E+06         0.00000E+00
    0.19028E+06        -0.19471E+07         0.00000E+00
    0.00000E+00         0.00000E+00        -0.17996E+08
 
   -0.17896E+08         0.19493E+06         0.00000E+00
    0.19493E+06        -0.19471E+07         0.00000E+00
    0.00000E+00         0.00000E+00        -0.17962E+08
 
   -0.17861E+08         0.19960E+06         0.00000E+00
    0.19960E+06        -0.19470E+07         0.00000E+00
    0.00000E+00         0.00000E+00        -0.17928E+08
 
   -0.17825E+08         0.20429E+06         0.00000E+00
    0.20429E+06        -0.19470E+07         0.00000E+00
    0.00000E+00         0.00000E+00        -0.17892E+08
 
   -0.17788E+08         0.20900E+06         0.00000E+00
    0.20900E+06        -0.19469E+07         0.00000E+00
    0.00000E+00         0.00000E+00        -0.17856E+08
 
   -0.17750E+08         0.21374E+06         0.00000E+00
    0.21374E+06        -0.19469E+07         0.00000E+00
    0.00000E+00         0.00000E+00        -0.17819E+08
 
   -0.17711E+08         0.21851E+06         0.00000E+00
    0.21851E+06        -0.19468E+07         0.00000E+00
    0.00000E+00         0.00000E+00        -0.17781E+08
 
   -0.17672E+08         0.22330E+06         0.00000E+00
    0.22330E+06        -0.19468E+07         0.00000E+00
    0.00000E+00         0.00000E+00        -0.17742E+08
 
   -0.17631E+08         0.22812E+06         0.00000E+00
    0.22812E+06        -0.19467E+07         0.00000E+00
    0.00000E+00         0.00000E+00        -0.17702E+08
 
   -0.17590E+08         0.23297E+06         0.00000E+00
    0.23297E+06        -0.19467E+07         0.00000E+00
    0.00000E+00         0.00000E+00        -0.17662E+08
 
   -0.17548E+08         0.23783E+06         0.00000E+00
    0.23783E+06        -0.19466E+07         0.00000E+00
    0.00000E+00         0.00000E+00        -0.17620E+08
 
   -0.17504E+08         0.24272E+06         0.00000E+00
    0.24272E+06        -0.19466E+07         0.00000E+00
    0.00000E+00         0.00000E+00        -0.17578E+08
 
   -0.17460E+08         0.24762E+06         0.00000E+00
    0.24762E+06        -0.19466E+07         0.00000E+00
    0.00000E+00         0.00000E+00        -0.17534E+08
 
   -0.17415E+08         0.25253E+06         0.00000E+00
    0.25253E+06        -0.19466E+07         0.00000E+00
    0.00000E+00         0.00000E+00        -0.17490E+08
 
   -0.17369E+08         0.25745E+06         0.00000E+00
    0.25745E+06        -0.19466E+07         0.00000E+00
    0.00000E+00         0.00000E+00        -0.17444E+08
 
   -0.17323E+08         0.26236E+06         0.00000E+00
    0.26236E+06        -0.19466E+07         0.00000E+00
    0.00000E+00         0.00000E+00        -0.17398E+08
 
   -0.17275E+08         0.26728E+06         0.00000E+00
    0.26728E+06        -0.19466E+07         0.00000E+00
    0.00000E+00         0.00000E+00        -0.17350E+08
 
   -0.17226E+08         0.27217E+06         0.00000E+00
    0.27217E+06        -0.19467E+07         0.00000E+00
    0.00000E+00         0.00000E+00        -0.17301E+08
 
   -0.17176E+08         0.27705E+06         0.00000E+00
    0.27705E+06        -0.19468E+07         0.00000E+00
    0.00000E+00         0.00000E+00        -0.17252E+08
 
   -0.17126E+08         0.28190E+06         0.00000E+00
    0.28190E+06        -0.19469E+07         0.00000E+00
    0.00000E+00         0.00000E+00        -0.17201E+08
 
   -0.17074E+08         0.28671E+06         0.00000E+00
    0.28671E+06        -0.19471E+07         0.00000E+00
    0.00000E+00         0.00000E+00        -0.17149E+08
 
   -0.17022E+08         0.29146E+06         0.00000E+00
    0.29146E+06        -0.19472E+07         0.00000E+00
    0.00000E+00         0.00000E+00        -0.17096E+08
 
   -0.16968E+08         0.29616E+06         0.00000E+00
    0.29616E+06        -0.19475E+07         0.00000E+00
    0.00000E+00         0.00000E+00        -0.17042E+08
 
   -0.16914E+08         0.30078E+06         0.00000E+00
    0.30078E+06        -0.19477E+07         0.00000E+00
    0.00000E+00         0.00000E+00        -0.16987E+08
 
   -0.16858E+08         0.30531E+06         0.00000E+00
    0.30531E+06        -0.19480E+07         0.00000E+00
    0.00000E+00         0.00000E+00        -0.16931E+08
 
   -0.16802E+08         0.30975E+06         0.00000E+00
    0.30975E+06        -0.19483E+07         0.00000E+00
    0.00000E+00         0.00000E+00        -0.16874E+08
 
   -0.16745E+08         0.31406E+06         0.00000E+00
    0.31406E+06        -0.19487E+07         0.00000E+00
    0.00000E+00         0.00000E+00        -0.16816E+08
 
   -0.16687E+08         0.31824E+06         0.00000E+00
    0.31824E+06        -0.19491E+07         0.00000E+00
    0.00000E+00         0.00000E+00        -0.16756E+08
 
   -0.16628E+08         0.32226E+06         0.00000E+00
    0.32226E+06        -0.19496E+07         0.00000E+00
    0.00000E+00         0.00000E+00        -0.16695E+08
 
   -0.16568E+08         0.32612E+06         0.00000E+00
    0.32612E+06        -0.19501E+07         0.00000E+00
    0.00000E+00         0.00000E+00        -0.16634E+08
 
   -0.16508E+08         0.32977E+06         0.00000E+00
    0.32977E+06        -0.19508E+07         0.00000E+00
    0.00000E+00         0.00000E+00        -0.16571E+08
 
   -0.16446E+08         0.33321E+06         0.00000E+00
    0.33321E+06        -0.19514E+07         0.00000E+00
    0.00000E+00         0.00000E+00        -0.16507E+08
 
   -0.16384E+08         0.33641E+06         0.00000E+00
    0.33641E+06        -0.19522E+07         0.00000E+00
    0.00000E+00         0.00000E+00        -0.16442E+08
 
   -0.16321E+08         0.33934E+06         0.00000E+00
    0.33934E+06        -0.19530E+07         0.00000E+00
    0.00000E+00         0.00000E+00        -0.16376E+08
 
   -0.16258E+08         0.34197E+06         0.00000E+00
    0.34197E+06        -0.19539E+07         0.00000E+00
    0.00000E+00         0.00000E+00        -0.16309E+08
 
   -0.16194E+08         0.34427E+06         0.00000E+00
    0.34427E+06        -0.19549E+07         0.00000E+00
    0.00000E+00         0.00000E+00        -0.16241E+08
 
   -0.16129E+08         0.34620E+06         0.00000E+00
    0.34620E+06        -0.19560E+07         0.00000E+00
    0.00000E+00         0.00000E+00        -0.16172E+08
 
   -0.16064E+08         0.34774E+06         0.00000E+00
    0.34774E+06        -0.19572E+07         0.00000E+00
    0.00000E+00         0.00000E+00        -0.16102E+08
 
   -0.15998E+08         0.34883E+06         0.00000E+00
    0.34883E+06        -0.19586E+07         0.00000E+00
    0.00000E+00         0.00000E+00        -0.16031E+08
 
   -0.15932E+08         0.34943E+06         0.00000E+00
    0.34943E+06        -0.19601E+07         0.00000E+00
    0.00000E+00         0.00000E+00        -0.15959E+08
 
   -0.15865E+08         0.34949E+06         0.00000E+00
    0.34949E+06        -0.19617E+07         0.00000E+00
    0.00000E+00         0.00000E+00        -0.15886E+08
 
   -0.15799E+08         0.34896E+06         0.00000E+00
    0.34896E+06        -0.19636E+07         0.00000E+00
    0.00000E+00         0.00000E+00        -0.15812E+08
 
   -0.15732E+08         0.34778E+06         0.00000E+00
    0.34778E+06        -0.19656E+07         0.00000E+00
    0.00000E+00         0.00000E+00        -0.15738E+08
 
   -0.15665E+08         0.34588E+06         0.00000E+00
    0.34588E+06        -0.19678E+07         0.00000E+00
    0.00000E+00         0.00000E+00        -0.15663E+08
 
   -0.15598E+08         0.34319E+06         0.00000E+00
    0.34319E+06        -0.19704E+07         0.00000E+00
    0.00000E+00         0.00000E+00        -0.15587E+08
 
   -0.15531E+08         0.33963E+06         0.00000E+00
    0.33963E+06        -0.19732E+07         0.00000E+00
    0.00000E+00         0.00000E+00        -0.15510E+08
 
   -0.15464E+08         0.33512E+06         0.00000E+00
    0.33512E+06        -0.19763E+07         0.00000E+00
    0.00000E+00         0.00000E+00        -0.15433E+08
 
   -0.15398E+08         0.32955E+06         0.00000E+00
    0.32955E+06        -0.19798E+07         0.00000E+00
    0.00000E+00         0.00000E+00        -0.15355E+08
 
   -0.15332E+08         0.32282E+06         0.00000E+00
    0.32282E+06        -0.19838E+07         0.00000E+00
    0.00000E+00         0.00000E+00        -0.15277E+08
 
   -0.15267E+08         0.31482E+06         0.00000E+00
    0.31482E+06        -0.19882E+07         0.00000E+00
    0.00000E+00         0.00000E+00        -0.15199E+08
 
   -0.15202E+08         0.30544E+06         0.00000E+00
    0.30544E+06        -0.19931E+07         0.00000E+00
    0.00000E+00         0.00000E+00        -0.15120E+08
 
   -0.15138E+08         0.29455E+06         0.00000E+00
    0.29455E+06        -0.19986E+07         0.00000E+00
    0.00000E+00         0.00000E+00        -0.15041E+08
 
   -0.15075E+08         0.28202E+06         0.00000E+00
    0.28202E+06        -0.20046E+07         0.00000E+00
    0.00000E+00         0.00000E+00        -0.14961E+08
 
   -0.15013E+08         0.26775E+06         0.00000E+00
    0.26775E+06        -0.20111E+07         0.00000E+00
    0.00000E+00         0.00000E+00        -0.14882E+08
 
   -0.14951E+08         0.25162E+06         0.00000E+00
    0.25162E+06        -0.20181E+07         0.00000E+00
    0.00000E+00         0.00000E+00        -0.14802E+08
 
   -0.14891E+08         0.23356E+06         0.00000E+00
    0.23356E+06        -0.20254E+07         0.00000E+00
    0.00000E+00         0.00000E+00        -0.14722E+08
 
   -0.14832E+08         0.21355E+06         0.00000E+00
    0.21355E+06        -0.20328E+07         0.00000E+00
    0.00000E+00         0.00000E+00        -0.14643E+08
 
   -0.14774E+08         0.19161E+06         0.00000E+00
    0.19161E+06        -0.20400E+07         0.00000E+00
    0.00000E+00         0.00000E+00        -0.14562E+08
 
   -0.14717E+08         0.16788E+06         0.00000E+00
    0.16788E+06        -0.20463E+07         0.00000E+00
    0.00000E+00         0.00000E+00        -0.14482E+08
 
   -0.14661E+08         0.14265E+06         0.00000E+00
    0.14265E+06        -0.20512E+07         0.00000E+00
    0.00000E+00         0.00000E+00        -0.14401E+08
 
   -0.14608E+08         0.11642E+06         0.00000E+00
    0.11642E+06        -0.20536E+07         0.00000E+00
    0.00000E+00         0.00000E+00        -0.14320E+08
 
   -0.14556E+08         0.89950E+05         0.00000E+00
    0.89950E+05        -0.20520E+07         0.00000E+00
    0.00000E+00         0.00000E+00        -0.14238E+08
 
   -0.14507E+08         0.64364E+05         0.00000E+00
    0.64364E+05        -0.20448E+07         0.00000E+00
    0.00000E+00         0.00000E+00        -0.14154E+08
 
   -0.14462E+08         0.41158E+05         0.00000E+00
    0.41158E+05        -0.20295E+07         0.00000E+00
    0.00000E+00         0.00000E+00        -0.14069E+08
 
   -0.14422E+08         0.22089E+05         0.00000E+00
    0.22089E+05        -0.20034E+07         0.00000E+00
    0.00000E+00         0.00000E+00        -0.13983E+08
 
   -0.14390E+08         0.87477E+04         0.00000E+00
    0.87477E+04        -0.19636E+07         0.00000E+00
    0.00000E+00         0.00000E+00        -0.13894E+08
 
   -0.14367E+08         0.17567E+04         0.00000E+00
    0.17567E+04        -0.19069E+07         0.00000E+00
    0.00000E+00         0.00000E+00        -0.13803E+08
 
   -0.14355E+08        -0.82399E+02         0.00000E+00
   -0.82399E+02        -0.18311E+07         0.00000E+00
    0.00000E+00         0.00000E+00        -0.13709E+08
 
   -0.18588E+08         0.10146E+04         0.00000E+00
    0.10146E+04        -0.19802E+07         0.00000E+00
    0.00000E+00         0.00000E+00        -0.18763E+08
 
   -0.18585E+08         0.35021E+04         0.00000E+00
    0.35021E+04        -0.19640E+07         0.00000E+00
    0.00000E+00         0.00000E+00        -0.18742E+08
 
   -0.18580E+08         0.71708E+04         0.00000E+00
    0.71708E+04        -0.19521E+07         0.00000E+00
    0.00000E+00         0.00000E+00        -0.18723E+08
 
   -0.18572E+08         0.12303E+05         0.00000E+00
    0.12303E+05        -0.19438E+07         0.00000E+00
    0.00000E+00         0.00000E+00        -0.18703E+08
 
   -0.18562E+08         0.18767E+05         0.00000E+00
    0.18767E+05        -0.19384E+07         0.00000E+00
    0.00000E+00         0.00000E+00        -0.18684E+08
 
   -0.18551E+08         0.26208E+05         0.00000E+00
    0.26208E+05        -0.19353E+07         0.00000E+00
    0.00000E+00         0.00000E+00        -0.18665E+08
 
   -0.18539E+08         0.34235E+05         0.00000E+00
    0.34235E+05        -0.19338E+07         0.00000E+00
    0.00000E+00         0.00000E+00        -0.18646E+08
 
   -0.18525E+08         0.42515E+05         0.00000E+00
    0.42515E+05        -0.19335E+07         0.00000E+00
    0.00000E+00         0.00000E+00        -0.18627E+08
 
   -0.18511E+08         0.50800E+05         0.00000E+00
    0.50800E+05        -0.19339E+07         0.00000E+00
    0.00000E+00         0.00000E+00        -0.18607E+08
 
   -0.18496E+08         0.58926E+05         0.00000E+00
    0.58926E+05        -0.19348E+07         0.00000E+00
    0.00000E+00         0.00000E+00        -0.18588E+08
 
   -0.18480E+08         0.66787E+05         0.00000E+00
    0.66787E+05        -0.19360E+07         0.00000E+00
    0.00000E+00         0.00000E+00        -0.18568E+08
 
   -0.18463E+08         0.74328E+05         0.00000E+00
    0.74328E+05        -0.19374E+07         0.00000E+00
    0.00000E+00         0.00000E+00        -0.18548E+08
 
   -0.18446E+08         0.81525E+05         0.00000E+00
    0.81525E+05        -0.19387E+07         0.00000E+00
    0.00000E+00         0.00000E+00        -0.18527E+08
 
   -0.18427E+08         0.88374E+05         0.00000E+00
    0.88374E+05        -0.19400E+07         0.00000E+00
    0.00000E+00         0.00000E+00        -0.18506E+08
 
   -0.18408E+08         0.94890E+05         0.00000E+00
    0.94890E+05        -0.19413E+07         0.00000E+00
    0.00000E+00         0.00000E+00        -0.18485E+08
 
   -0.18388E+08         0.10109E+06         0.00000E+00
    0.10109E+06        -0.19424E+07         0.00000E+00
    0.00000E+00         0.00000E+00        -0.18463E+08
 
   -0.18368E+08         0.10701E+06         0.00000E+00
    0.10701E+06        -0.19434E+07         0.00000E+00
    0.00000E+00         0.00000E+00        -0.18440E+08
 
   -0.18346E+08         0.11268E+06         0.00000E+00
    0.11268E+06        -0.19442E+07         0.00000E+00
    0.00000E+00         0.00000E+00        -0.18417E+08
 
   -0.18324E+08         0.11812E+06         0.00000E+00
    0.11812E+06        -0.19450E+07         0.00000E+00
    0.00000E+00         0.00000E+00        -0.18393E+08
 
   -0.18301E+08         0.12336E+06         0.00000E+00
    0.12336E+06        -0.19456E+07         0.00000E+00
    0.00000E+00         0.00000E+00        -0.18369E+08
 
   -0.18277E+08         0.12844E+06         0.00000E+00
    0.12844E+06        -0.19461E+07         0.00000E+00
    0.00000E+00         0.00000E+00        -0.18344E+08
 
   -0.18252E+08         0.13337E+06         0.00000E+00
    0.13337E+06        -0.19466E+07         0.00000E+00
    0.00000E+00         0.00000E+00        -0.18319E+08
 
   -0.18227E+08         0.13819E+06         0.00000E+00
    0.13819E+06        -0.19470E+07         0.00000E+00
    0.00000E+00         0.00000E+00        -0.18293E+08
 
   -0.18200E+08         0.14290E+06         0.00000E+00
    0.14290E+06        -0.19473E+07         0.00000E+00
    0.00000E+00         0.00000E+00        -0.18266E+08
 
   -0.18173E+08         0.14754E+06         0.00000E+00
    0.14754E+06        -0.19475E+07         0.00000E+00
    0.00000E+00         0.00000E+00        -0.18239E+08
 
   -0.18145E+08         0.15212E+06         0.00000E+00
    0.15212E+06        -0.19477E+07         0.00000E+00
    0.00000E+00         0.00000E+00        -0.18211E+08
 
   -0.18116E+08         0.15665E+06         0.00000E+00
    0.15665E+06        -0.19478E+07         0.00000E+00
    0.00000E+00         0.00000E+00        -0.18182E+08
 
   -0.18087E+08         0.16115E+06         0.00000E+00
    0.16115E+06        -0.19479E+07         0.00000E+00
    0.00000E+00         0.00000E+00        -0.18153E+08
 
   -0.18057E+08         0.16563E+06         0.00000E+00
    0.16563E+06        -0.19480E+07         0.00000E+00
    0.00000E+00         0.00000E+00        -0.18123E+08
 
   -0.18025E+08         0.17009E+06         0.00000E+00
    0.17009E+06        -0.19480E+07         0.00000E+00
    0.00000E+00         0.00000E+00        -0.18092E+08
 
   -0.17993E+08         0.17455E+06         0.00000E+00
    0.17455E+06        -0.19480E+07         0.00000E+00
    0.00000E+00         0.00000E+00        -0.18061E+08
 
   -0.17961E+08         0.17901E+06         0.00000E+00
    0.17901E+06        -0.19480E+07         0.00000E+00
    0.00000E+00         0.00000E+00        -0.18028E+08
 
   -0.17927E+08         0.18348E+06         0.00000E+00
    0.18348E+06        -0.19480E+07         0.00000E+00
    0.00000E+00         0.00000E+00        -0.17995E+08
 
   -0.17893E+08         0.18796E+06         0.00000E+00
    0.18796E+06        -0.19480E+07         0.00000E+00
    0.00000E+00         0.00000E+00        -0.17962E+08
 
   -0.17857E+08         0.19246E+06         0.00000E+00
    0.19246E+06        -0.19480E+07         0.00000E+00
    0.00000E+00         0.00000E+00        -0.17927E+08
 
   -0.17821E+08         0.19698E+06         0.00000E+00
    0.19698E+06        -0.19479E+07         0.00000E+00
    0.00000E+00         0.00000E+00        -0.17892E+08
 
   -0.17784E+08         0.20152E+06         0.00000E+00
    0.20152E+06        -0.19479E+07         0.00000E+00
    0.00000E+00         0.00000E+00        -0.17855E+08
 
   -0.17746E+08         0.20609E+06         0.00000E+00
    0.20609E+06        -0.19478E+07         0.00000E+00
    0.00000E+00         0.00000E+00        -0.17818E+08
 
   -0.17708E+08         0.21069E+06         0.00000E+00
    0.21069E+06        -0.19478E+07         0.00000E+00
    0.00000E+00         0.00000E+00        -0.17780E+08
 
   -0.17668E+08         0.21530E+06         0.00000E+00
    0.21530E+06        -0.19477E+07         0.00000E+00
    0.00000E+00         0.00000E+00        -0.17741E+08
 
   -0.17628E+08         0.21994E+06         0.00000E+00
    0.21994E+06        -0.19477E+07         0.00000E+00
    0.00000E+00         0.00000E+00        -0.17702E+08
 
   -0.17586E+08         0.22461E+06         0.00000E+00
    0.22461E+06        -0.19476E+07         0.00000E+00
    0.00000E+00         0.00000E+00        -0.17661E+08
 
   -0.17544E+08         0.22929E+06         0.00000E+00
    0.22929E+06        -0.19476E+07         0.00000E+00
    0.00000E+00         0.00000E+00        -0.17619E+08
 
   -0.17501E+08         0.23399E+06         0.00000E+00
    0.23399E+06        -0.19475E+07         0.00000E+00
    0.00000E+00         0.00000E+00        -0.17577E+08
 
   -0.17457E+08         0.23871E+06         0.00000E+00
    0.23871E+06        -0.19475E+07         0.00000E+00
    0.00000E+00         0.00000E+00        -0.17533E+08
 
   -0.17412E+08         0.24343E+06         0.00000E+00
    0.24343E+06        -0.19475E+07         0.00000E+00
    0.00000E+00         0.00000E+00        -0.17489E+08
 
   -0.17366E+08         0.24817E+06         0.00000E+00
    0.24817E+06        -0.19475E+07         0.00000E+00
    0.00000E+00         0.00000E+00        -0.17443E+08
 
   -0.17319E+08         0.25290E+06         0.00000E+00
    0.25290E+06        -0.19476E+07         0.00000E+00
    0.00000E+00         0.00000E+00        -0.17397E+08
 
   -0.17271E+08         0.25762E+06         0.00000E+00
    0.25762E+06        -0.19476E+07         0.00000E+00
    0.00000E+00         0.00000E+00        -0.17349E+08
 
   -0.17222E+08         0.26233E+06         0.00000E+00
    0.26233E+06        -0.19477E+07         0.00000E+00
    0.00000E+00         0.00000E+00        -0.17301E+08
 
   -0.17173E+08         0.26702E+06         0.00000E+00
    0.26702E+06        -0.19478E+07         0.00000E+00
    0.00000E+00         0.00000E+00        -0.17251E+08
 
   -0.17122E+08         0.27168E+06         0.00000E+00
    0.27168E+06        -0.19479E+07         0.00000E+00
    0.00000E+00         0.00000E+00        -0.17200E+08
 
   -0.17070E+08         0.27629E+06         0.00000E+00
    0.27629E+06        -0.19480E+07         0.00000E+00
    0.00000E+00         0.00000E+00        -0.17148E+08
 
   -0.17018E+08         0.28086E+06         0.00000E+00
    0.28086E+06        -0.19482E+07         0.00000E+00
    0.00000E+00         0.00000E+00        -0.17095E+08
 
   -0.16964E+08         0.28537E+06         0.00000E+00
    0.28537E+06        -0.19484E+07         0.00000E+00
    0.00000E+00         0.00000E+00        -0.17042E+08
 
   -0.16910E+08         0.28981E+06         0.00000E+00
    0.28981E+06        -0.19486E+07         0.00000E+00
    0.00000E+00         0.00000E+00        -0.16986E+08
 
   -0.16855E+08         0.29416E+06         0.00000E+00
    0.29416E+06        -0.19489E+07         0.00000E+00
    0.00000E+00         0.00000E+00        -0.16930E+08
 
   -0.16798E+08         0.29841E+06         0.00000E+00
    0.29841E+06        -0.19492E+07         0.00000E+00
    0.00000E+00         0.00000E+00        -0.16873E+08
 
   -0.16741E+08         0.30255E+06         0.00000E+00
    0.30255E+06        -0.19495E+07         0.00000E+00
    0.00000E+00         0.00000E+00        -0.16815E+08
 
   -0.16683E+08         0.30655E+06         0.00000E+00
    0.30655E+06        -0.19499E+07         0.00000E+00
    0.00000E+00         0.00000E+00        -0.16755E+08
 
   -0.16625E+08         0.31041E+06         0.00000E+00
    0.31041E+06        -0.19504E+07         0.00000E+00
    0.00000E+00         0.00000E+00        -0.16695E+08
 
   -0.16565E+08         0.31409E+06         0.00000E+00
    0.31409E+06        -0.19509E+07         0.00000E+00
    0.00000E+00         0.00000E+00        -0.16633E+08
 
   -0.16504E+08         0.31759E+06         0.00000E+00
    0.31759E+06        -0.19514E+07         0.00000E+00
    0.00000E+00         0.00000E+00        -0.16570E+08
 
   -0.16443E+08         0.32088E+06         0.00000E+00
    0.32088E+06        -0.19521E+07         0.00000E+00
    0.00000E+00         0.00000E+00        -0.16506E+08
 
   -0.16381E+08         0.32393E+06         0.00000E+00
    0.32393E+06        -0.19528E+07         0.00000E+00
    0.00000E+00         0.00000E+00        -0.16441E+08
 
   -0.16318E+08         0.32672E+06         0.00000E+00
    0.32672E+06        -0.19535E+07         0.00000E+00
    0.00000E+00         0.00000E+00        -0.16375E+08
 
   -0.16255E+08         0.32922E+06         0.00000E+00
    0.32922E+06        -0.19544E+07         0.00000E+00
    0.00000E+00         0.00000E+00        -0.16308E+08
 
   -0.16191E+08         0.33139E+06         0.00000E+00
    0.33139E+06        -0.19553E+07         0.00000E+00
    0.00000E+00         0.00000E+00        -0.16240E+08
 
   -0.16126E+08         0.33322E+06         0.00000E+00
    0.33322E+06        -0.19563E+07         0.00000E+00
    0.00000E+00         0.00000E+00        -0.16171E+08
 
   -0.16061E+08         0.33465E+06         0.00000E+00
    0.33465E+06        -0.19575E+07         0.00000E+00
    0.00000E+00         0.00000E+00        -0.16101E+08
 
   -0.15996E+08         0.33566E+06         0.00000E+00
    0.33566E+06        -0.19587E+07         0.00000E+00
    0.00000E+00         0.00000E+00        -0.16030E+08
 
   -0.15930E+08         0.33619E+06         0.00000E+00
    0.33619E+06        -0.19601E+07         0.00000E+00
    0.00000E+00         0.00000E+00        -0.15958E+08
 
   -0.15864E+08         0.33619E+06         0.00000E+00
    0.33619E+06        -0.19617E+07         0.00000E+00
    0.00000E+00         0.00000E+00        -0.15886E+08
 
   -0.15797E+08         0.33562E+06         0.00000E+00
    0.33562E+06        -0.19634E+07         0.00000E+00
    0.00000E+00         0.00000E+00        -0.15812E+08
 
   -0.15731E+08         0.33442E+06         0.00000E+00
    0.33442E+06        -0.19653E+07         0.00000E+00
    0.00000E+00         0.00000E+00        -0.15738E+08
 
   -0.15664E+08         0.33252E+06         0.00000E+00
    0.33252E+06        -0.19674E+07         0.00000E+00
    0.00000E+00         0.00000E+00        -0.15662E+08
 
   -0.15598E+08         0.32985E+06         0.00000E+00
    0.32985E+06        -0.19697E+07         0.00000E+00
    0.00000E+00         0.00000E+00        -0.15587E+08
 
   -0.15531E+08         0.32633E+06         0.00000E+00
    0.32633E+06        -0.19724E+07         0.00000E+00
    0.00000E+00         0.00000E+00        -0.15510E+08
 
   -0.15465E+08         0.32187E+06         0.00000E+00
    0.32187E+06        -0.19753E+07         0.00000E+00
    0.00000E+00         0.00000E+00        -0.15433E+08
 
   -0.15399E+08         0.31639E+06         0.00000E+00
    0.31639E+06        -0.19786E+07         0.00000E+00
    0.00000E+00         0.00000E+00        -0.15355E+08
 
   -0.15334E+08         0.30976E+06         0.00000E+00
    0.30976E+06        -0.19823E+07         0.00000E+00
    0.00000E+00         0.00000E+00        -0.15277E+08
 
   -0.15269E+08         0.30189E+06         0.00000E+00
    0.30189E+06        -0.19865E+07         0.00000E+00
    0.00000E+00         0.00000E+00        -0.15199E+08
 
   -0.15205E+08         0.29265E+06         0.00000E+00
    0.29265E+06        -0.19911E+07         0.00000E+00
    0.00000E+00         0.00000E+00        -0.15120E+08
 
   -0.15142E+08         0.28192E+06         0.00000E+00
    0.28192E+06        -0.19962E+07         0.00000E+00
    0.00000E+00         0.00000E+00        -0.15041E+08
 
   -0.15080E+08         0.26957E+06         0.00000E+00
    0.26957E+06        -0.20019E+07         0.00000E+00
    0.00000E+00         0.00000E+00        -0.14962E+08
 
   -0.15019E+08         0.25549E+06         0.00000E+00
    0.25549E+06        -0.20081E+07         0.00000E+00
    0.00000E+00         0.00000E+00        -0.14883E+08
 
   -0.14959E+08         0.23957E+06         0.00000E+00
    0.23957E+06        -0.20147E+07         0.00000E+00
    0.00000E+00         0.00000E+00        -0.14803E+08
 
   -0.14899E+08         0.22174E+06         0.00000E+00
    0.22174E+06        -0.20216E+07         0.00000E+00
    0.00000E+00         0.00000E+00        -0.14724E+08
 
   -0.14842E+08         0.20196E+06         0.00000E+00
    0.20196E+06        -0.20286E+07         0.00000E+00
    0.00000E+00         0.00000E+00        -0.14644E+08
 
   -0.14785E+08         0.18026E+06         0.00000E+00
    0.18026E+06        -0.20354E+07         0.00000E+00
    0.00000E+00         0.00000E+00        -0.14565E+08
 
   -0.14730E+08         0.15681E+06         0.00000E+00
    0.15681E+06        -0.20415E+07         0.00000E+00
    0.00000E+00         0.00000E+00        -0.14485E+08
 
   -0.14676E+08         0.13190E+06         0.00000E+00
    0.13190E+06        -0.20461E+07         0.00000E+00
    0.00000E+00         0.00000E+00        -0.14404E+08
 
   -0.14624E+08         0.10604E+06         0.00000E+00
    0.10604E+06        -0.20483E+07         0.00000E+00
    0.00000E+00         0.00000E+00        -0.14323E+08
 
   -0.14575E+08         0.80052E+05         0.00000E+00
    0.80052E+05        -0.20468E+07         0.00000E+00
    0.00000E+00         0.00000E+00        -0.14242E+08
 
   -0.14528E+08         0.55106E+05         0.00000E+00
    0.55106E+05        -0.20399E+07         0.00000E+00
    0.00000E+00         0.00000E+00        -0.14159E+08
 
   -0.14485E+08         0.32780E+05         0.00000E+00
    0.32780E+05        -0.20253E+07         0.00000E+00
    0.00000E+00         0.00000E+00        -0.14075E+08
 
   -0.14447E+08         0.14922E+05         0.00000E+00
    0.14922E+05        -0.20003E+07         0.00000E+00
    0.00000E+00         0.00000E+00        -0.13989E+08
 
   -0.14415E+08         0.31936E+04         0.00000E+00
    0.31936E+04        -0.19617E+07         0.00000E+00
    0.00000E+00         0.00000E+00        -0.13901E+08
 
   -0.14393E+08        -0.17816E+04         0.00000E+00
   -0.17816E+04        -0.19063E+07         0.00000E+00
    0.00000E+00         0.00000E+00        -0.13810E+08
 
   -0.14381E+08        -0.12999E+04         0.00000E+00
   -0.12999E+04        -0.18314E+07         0.00000E+00
    0.00000E+00         0.00000E+00        -0.13717E+08
 
   -0.18581E+08         0.72146E+03         0.00000E+00
    0.72146E+03        -0.19806E+07         0.00000E+00
    0.00000E+00         0.00000E+00        -0.18761E+08
 
   -0.18578E+08         0.26501E+04         0.00000E+00
    0.26501E+04        -0.19646E+07         0.00000E+00
    0.00000E+00         0.00000E+00        -0.18741E+08
 
   -0.18573E+08         0.58304E+04         0.00000E+00
    0.58304E+04        -0.19529E+07         0.00000E+00
    0.00000E+00         0.00000E+00        -0.18721E+08
 
   -0.18565E+08         0.10561E+05         0.00000E+00
    0.10561E+05        -0.19449E+07         0.00000E+00
    0.00000E+00         0.00000E+00        -0.18701E+08
 
   -0.18556E+08         0.16704E+05         0.00000E+00
    0.16704E+05        -0.19398E+07         0.00000E+00
    0.00000E+00         0.00000E+00        -0.18682E+08
 
   -0.18545E+08         0.23886E+05         0.00000E+00
    0.23886E+05        -0.19369E+07         0.00000E+00
    0.00000E+00         0.00000E+00        -0.18663E+08
 
   -0.18533E+08         0.31696E+05         0.00000E+00
    0.31696E+05        -0.19354E+07         0.00000E+00
    0.00000E+00         0.00000E+00        -0.18645E+08
 
   -0.18520E+08         0.39785E+05         0.00000E+00
    0.39785E+05        -0.19351E+07         0.00000E+00
    0.00000E+00         0.00000E+00        -0.18626E+08
 
   -0.18506E+08         0.47896E+05         0.00000E+00
    0.47896E+05        -0.19355E+07         0.00000E+00
    0.00000E+00         0.00000E+00        -0.18606E+08
 
   -0.18491E+08         0.55855E+05         0.00000E+00
    0.55855E+05        -0.19364E+07         0.00000E+00
    0.00000E+00         0.00000E+00        -0.18587E+08
 
   -0.18476E+08         0.63554E+05         0.00000E+00
    0.63554E+05        -0.19375E+07         0.00000E+00
    0.00000E+00         0.00000E+00        -0.18567E+08
 
   -0.18459E+08         0.70934E+05         0.00000E+00
    0.70934E+05        -0.19388E+07         0.00000E+00
    0.00000E+00         0.00000E+00        -0.18547E+08
 
   -0.18442E+08         0.77968E+05         0.00000E+00
    0.77968E+05        -0.19401E+07         0.00000E+00
    0.00000E+00         0.00000E+00        -0.18527E+08
 
   -0.18424E+08         0.84656E+05         0.00000E+00
    0.84656E+05        -0.19413E+07         0.00000E+00
    0.00000E+00         0.00000E+00        -0.18506E+08
 
   -0.18405E+08         0.91008E+05         0.00000E+00
    0.91008E+05        -0.19425E+07         0.00000E+00
    0.00000E+00         0.00000E+00        -0.18484E+08
 
   -0.18385E+08         0.97049E+05         0.00000E+00
    0.97049E+05        -0.19436E+07         0.00000E+00
    0.00000E+00         0.00000E+00        -0.18462E+08
 
   -0.18365E+08         0.10280E+06         0.00000E+00
    0.10280E+06        -0.19445E+07         0.00000E+00
    0.00000E+00         0.00000E+00        -0.18440E+08
 
   -0.18343E+08         0.10830E+06         0.00000E+00
    0.10830E+06        -0.19453E+07         0.00000E+00
    0.00000E+00         0.00000E+00        -0.18416E+08
 
   -0.18321E+08         0.11358E+06         0.00000E+00
    0.11358E+06        -0.19460E+07         0.00000E+00
    0.00000E+00         0.00000E+00        -0.18393E+08
 
   -0.18298E+08         0.11866E+06         0.00000E+00
    0.11866E+06        -0.19466E+07         0.00000E+00
    0.00000E+00         0.00000E+00        -0.18369E+08
 
   -0.18274E+08         0.12357E+06         0.00000E+00
    0.12357E+06        -0.19471E+07         0.00000E+00
    0.00000E+00         0.00000E+00        -0.18344E+08
 
   -0.18249E+08         0.12834E+06         0.00000E+00
    0.12834E+06        -0.19476E+07         0.00000E+00
    0.00000E+00         0.00000E+00        -0.18318E+08
 
   -0.18224E+08         0.13300E+06         0.00000E+00
    0.13300E+06        -0.19479E+07         0.00000E+00
    0.00000E+00         0.00000E+00        -0.18292E+08
 
   -0.18197E+08         0.13756E+06         0.00000E+00
    0.13756E+06        -0.19482E+07         0.00000E+00
    0.00000E+00         0.00000E+00        -0.18266E+08
 
   -0.18170E+08         0.14203E+06         0.00000E+00
    0.14203E+06        -0.19484E+07         0.00000E+00
    0.00000E+00         0.00000E+00        -0.18238E+08
 
   -0.18142E+08         0.14645E+06         0.00000E+00
    0.14645E+06        -0.19486E+07         0.00000E+00
    0.00000E+00         0.00000E+00        -0.18210E+08
 
   -0.18114E+08         0.15082E+06         0.00000E+00
    0.15082E+06        -0.19487E+07         0.00000E+00
    0.00000E+00         0.00000E+00        -0.18182E+08
 
   -0.18084E+08         0.15516E+06         0.00000E+00
    0.15516E+06        -0.19488E+07         0.00000E+00
    0.00000E+00         0.00000E+00        -0.18152E+08
 
   -0.18054E+08         0.15947E+06         0.00000E+00
    0.15947E+06        -0.19489E+07         0.00000E+00
    0.00000E+00         0.00000E+00        -0.18122E+08
 
   -0.18022E+08         0.16377E+06         0.00000E+00
    0.16377E+06        -0.19489E+07         0.00000E+00
    0.00000E+00         0.00000E+00        -0.18091E+08
 
   -0.17990E+08         0.16807E+06         0.00000E+00
    0.16807E+06        -0.19489E+07         0.00000E+00
    0.00000E+00         0.00000E+00        -0.18060E+08
 
   -0.17958E+08         0.17236E+06         0.00000E+00
    0.17236E+06        -0.19489E+07         0.00000E+00
    0.00000E+00         0.00000E+00        -0.18028E+08
 
   -0.17924E+08         0.17667E+06         0.00000E+00
    0.17667E+06        -0.19489E+07         0.00000E+00
    0.00000E+00         0.00000E+00        -0.17995E+08
 
   -0.17889E+08         0.18098E+06         0.00000E+00
    0.18098E+06        -0.19489E+07         0.00000E+00
    0.00000E+00         0.00000E+00        -0.17961E+08
 
   -0.17854E+08         0.18532E+06         0.00000E+00
    0.18532E+06        -0.19488E+07         0.00000E+00
    0.00000E+00         0.00000E+00        -0.17926E+08
 
   -0.17818E+08         0.18967E+06         0.00000E+00
    0.18967E+06        -0.19488E+07         0.00000E+00
    0.00000E+00         0.00000E+00        -0.17891E+08
 
   -0.17781E+08         0.19404E+06         0.00000E+00
    0.19404E+06        -0.19488E+07         0.00000E+00
    0.00000E+00         0.00000E+00        -0.17855E+08
 
   -0.17743E+08         0.19843E+06         0.00000E+00
    0.19843E+06        -0.19487E+07         0.00000E+00
    0.00000E+00         0.00000E+00        -0.17818E+08
 
   -0.17704E+08         0.20285E+06         0.00000E+00
    0.20285E+06        -0.19487E+07         0.00000E+00
    0.00000E+00         0.00000E+00        -0.17780E+08
 
   -0.17665E+08         0.20729E+06         0.00000E+00
    0.20729E+06        -0.19486E+07         0.00000E+00
    0.00000E+00         0.00000E+00        -0.17741E+08
 
   -0.17624E+08         0.21176E+06         0.00000E+00
    0.21176E+06        -0.19486E+07         0.00000E+00
    0.00000E+00         0.00000E+00        -0.17701E+08
 
   -0.17583E+08         0.21624E+06         0.00000E+00
    0.21624E+06        -0.19485E+07         0.00000E+00
    0.00000E+00         0.00000E+00        -0.17660E+08
 
   -0.17540E+08         0.22074E+06         0.00000E+00
    0.22074E+06        -0.19485E+07         0.00000E+00
    0.00000E+00         0.00000E+00        -0.17619E+08
 
   -0.17497E+08         0.22526E+06         0.00000E+00
    0.22526E+06        -0.19485E+07         0.00000E+00
    0.00000E+00         0.00000E+00        -0.17576E+08
 
   -0.17453E+08         0.22979E+06         0.00000E+00
    0.22979E+06        -0.19485E+07         0.00000E+00
    0.00000E+00         0.00000E+00        -0.17532E+08
 
   -0.17408E+08         0.23433E+06         0.00000E+00
    0.23433E+06        -0.19485E+07         0.00000E+00
    0.00000E+00         0.00000E+00        -0.17488E+08
 
   -0.17362E+08         0.23888E+06         0.00000E+00
    0.23888E+06        -0.19485E+07         0.00000E+00
    0.00000E+00         0.00000E+00        -0.17442E+08
 
   -0.17315E+08         0.24342E+06         0.00000E+00
    0.24342E+06        -0.19485E+07         0.00000E+00
    0.00000E+00         0.00000E+00        -0.17396E+08
 
   -0.17267E+08         0.24796E+06         0.00000E+00
    0.24796E+06        -0.19485E+07         0.00000E+00
    0.00000E+00         0.00000E+00        -0.17348E+08
 
   -0.17218E+08         0.25248E+06         0.00000E+00
    0.25248E+06        -0.19486E+07         0.00000E+00
    0.00000E+00         0.00000E+00        -0.17300E+08
 
   -0.17169E+08         0.25698E+06         0.00000E+00
    0.25698E+06        -0.19487E+07         0.00000E+00
    0.00000E+00         0.00000E+00        -0.17250E+08
 
   -0.17118E+08         0.26145E+06         0.00000E+00
    0.26145E+06        -0.19488E+07         0.00000E+00
    0.00000E+00         0.00000E+00        -0.17199E+08
 
   -0.17066E+08         0.26588E+06         0.00000E+00
    0.26588E+06        -0.19489E+07         0.00000E+00
    0.00000E+00         0.00000E+00        -0.17147E+08
 
   -0.17014E+08         0.27027E+06         0.00000E+00
    0.27027E+06        -0.19491E+07         0.00000E+00
    0.00000E+00         0.00000E+00        -0.17095E+08
 
   -0.16961E+08         0.27459E+06         0.00000E+00
    0.27459E+06        -0.19492E+07         0.00000E+00
    0.00000E+00         0.00000E+00        -0.17041E+08
 
   -0.16906E+08         0.27884E+06         0.00000E+00
    0.27884E+06        -0.19495E+07         0.00000E+00
    0.00000E+00         0.00000E+00        -0.16986E+08
 
   -0.16851E+08         0.28301E+06         0.00000E+00
    0.28301E+06        -0.19497E+07         0.00000E+00
    0.00000E+00         0.00000E+00        -0.16929E+08
 
   -0.16795E+08         0.28708E+06         0.00000E+00
    0.28708E+06        -0.19500E+07         0.00000E+00
    0.00000E+00         0.00000E+00        -0.16872E+08
 
   -0.16738E+08         0.29104E+06         0.00000E+00
    0.29104E+06        -0.19503E+07         0.00000E+00
    0.00000E+00         0.00000E+00        -0.16814E+08
 
   -0.16680E+08         0.29488E+06         0.00000E+00
    0.29488E+06        -0.19507E+07         0.00000E+00
    0.00000E+00         0.00000E+00        -0.16754E+08
 
   -0.16621E+08         0.29856E+06         0.00000E+00
    0.29856E+06        -0.19511E+07         0.00000E+00
    0.00000E+00         0.00000E+00        -0.16694E+08
 
   -0.16561E+08         0.30209E+06         0.00000E+00
    0.30209E+06        -0.19516E+07         0.00000E+00
    0.00000E+00         0.00000E+00        -0.16632E+08
 
   -0.16501E+08         0.30543E+06         0.00000E+00
    0.30543E+06        -0.19521E+07         0.00000E+00
    0.00000E+00         0.00000E+00        -0.16569E+08
 
   -0.16440E+08         0.30856E+06         0.00000E+00
    0.30856E+06        -0.19527E+07         0.00000E+00
    0.00000E+00         0.00000E+00        -0.16506E+08
 
   -0.16378E+08         0.31147E+06         0.00000E+00
    0.31147E+06        -0.19533E+07         0.00000E+00
    0.00000E+00         0.00000E+00        -0.16441E+08
 
   -0.16315E+08         0.31412E+06         0.00000E+00
    0.31412E+06        -0.19540E+07         0.00000E+00
    0.00000E+00         0.00000E+00        -0.16375E+08
 
   -0.16252E+08         0.31649E+06         0.00000E+00
    0.31649E+06        -0.19548E+07         0.00000E+00
    0.00000E+00         0.00000E+00        -0.16308E+08
 
   -0.16188E+08         0.31856E+06         0.00000E+00
    0.31856E+06        -0.19557E+07         0.00000E+00
    0.00000E+00         0.00000E+00        -0.16240E+08
 
   -0.16124E+08         0.32027E+06         0.00000E+00
    0.32027E+06        -0.19567E+07         0.00000E+00
    0.00000E+00         0.00000E+00        -0.16171E+08
 
   -0.16059E+08         0.32161E+06         0.00000E+00
    0.32161E+06        -0.19577E+07         0.00000E+00
    0.00000E+00         0.00000E+00        -0.16101E+08
 
   -0.15994E+08         0.32254E+06         0.00000E+00
    0.32254E+06        -0.19589E+07         0.00000E+00
    0.00000E+00         0.00000E+00        -0.16030E+08
 
   -0.15928E+08         0.32300E+06         0.00000E+00
    0.32300E+06        -0.19602E+07         0.00000E+00
    0.00000E+00         0.00000E+00        -0.15958E+08
 
   -0.15862E+08         0.32296E+06         0.00000E+00
    0.32296E+06        -0.19616E+07         0.00000E+00
    0.00000E+00         0.00000E+00        -0.15885E+08
 
   -0.15796E+08         0.32235E+06         0.00000E+00
    0.32235E+06        -0.19632E+07         0.00000E+00
    0.00000E+00         0.00000E+00        -0.15812E+08
 
   -0.15730E+08         0.32114E+06         0.00000E+00
    0.32114E+06        -0.19650E+07         0.00000E+00
    0.00000E+00         0.00000E+00        -0.15737E+08
 
   -0.15664E+08         0.31924E+06         0.00000E+00
    0.31924E+06        -0.19669E+07         0.00000E+00
    0.00000E+00         0.00000E+00        -0.15662E+08
 
   -0.15597E+08         0.31659E+06         0.00000E+00
    0.31659E+06        -0.19691E+07         0.00000E+00
    0.00000E+00         0.00000E+00        -0.15586E+08
 
   -0.15532E+08         0.31312E+06         0.00000E+00
    0.31312E+06        -0.19716E+07         0.00000E+00
    0.00000E+00         0.00000E+00        -0.15510E+08
 
   -0.15466E+08         0.30873E+06         0.00000E+00
    0.30873E+06        -0.19743E+07         0.00000E+00
    0.00000E+00         0.00000E+00        -0.15433E+08
 
   -0.15401E+08         0.30333E+06         0.00000E+00
    0.30333E+06        -0.19774E+07         0.00000E+00
    0.00000E+00         0.00000E+00        -0.15355E+08
 
   -0.15336E+08         0.29682E+06         0.00000E+00
    0.29682E+06        -0.19809E+07         0.00000E+00
    0.00000E+00         0.00000E+00        -0.15277E+08
 
   -0.15272E+08         0.28909E+06         0.00000E+00
    0.28909E+06        -0.19848E+07         0.00000E+00
    0.00000E+00         0.00000E+00        -0.15199E+08
 
   -0.15209E+08         0.28000E+06         0.00000E+00
    0.28000E+06        -0.19891E+07         0.00000E+00
    0.00000E+00         0.00000E+00        -0.15121E+08
 
   -0.15146E+08         0.26945E+06         0.00000E+00
    0.26945E+06        -0.19940E+07         0.00000E+00
    0.00000E+00         0.00000E+00        -0.15042E+08
 
   -0.15085E+08         0.25731E+06         0.00000E+00
    0.25731E+06        -0.19993E+07         0.00000E+00
    0.00000E+00         0.00000E+00        -0.14963E+08
 
   -0.15025E+08         0.24344E+06         0.00000E+00
    0.24344E+06        -0.20051E+07         0.00000E+00
    0.00000E+00         0.00000E+00        -0.14884E+08
 
   -0.14966E+08         0.22776E+06         0.00000E+00
    0.22776E+06        -0.20113E+07         0.00000E+00
    0.00000E+00         0.00000E+00        -0.14804E+08
 
   -0.14908E+08         0.21017E+06         0.00000E+00
    0.21017E+06        -0.20178E+07         0.00000E+00
    0.00000E+00         0.00000E+00        -0.14725E+08
 
   -0.14851E+08         0.19066E+06         0.00000E+00
    0.19066E+06        -0.20245E+07         0.00000E+00
    0.00000E+00         0.00000E+00        -0.14646E+08
 
   -0.14796E+08         0.16925E+06         0.00000E+00
    0.16925E+06        -0.20309E+07         0.00000E+00
    0.00000E+00         0.00000E+00        -0.14567E+08
 
   -0.14743E+08         0.14610E+06         0.00000E+00
    0.14610E+06        -0.20366E+07         0.00000E+00
    0.00000E+00         0.00000E+00        -0.14487E+08
 
   -0.14691E+08         0.12153E+06         0.00000E+00
    0.12153E+06        -0.20410E+07         0.00000E+00
    0.00000E+00         0.00000E+00        -0.14407E+08
 
   -0.14641E+08         0.96072E+05         0.00000E+00
    0.96072E+05        -0.20431E+07         0.00000E+00
    0.00000E+00         0.00000E+00        -0.14327E+08
 
   -0.14594E+08         0.70568E+05         0.00000E+00
    0.70568E+05        -0.20417E+07         0.00000E+00
    0.00000E+00         0.00000E+00        -0.14246E+08
 
   -0.14549E+08         0.46247E+05         0.00000E+00
    0.46247E+05        -0.20352E+07         0.00000E+00
    0.00000E+00         0.00000E+00        -0.14164E+08
 
   -0.14507E+08         0.24756E+05         0.00000E+00
    0.24756E+05        -0.20213E+07         0.00000E+00
    0.00000E+00         0.00000E+00        -0.14081E+08
 
   -0.14471E+08         0.80315E+04         0.00000E+00
    0.80315E+04        -0.19974E+07         0.00000E+00
    0.00000E+00         0.00000E+00        -0.13996E+08
 
   -0.14441E+08        -0.21827E+04         0.00000E+00
   -0.21827E+04        -0.19602E+07         0.00000E+00
    0.00000E+00         0.00000E+00        -0.13908E+08
 
   -0.14419E+08        -0.52318E+04         0.00000E+00
   -0.52318E+04        -0.19062E+07         0.00000E+00
    0.00000E+00         0.00000E+00        -0.13818E+08
 
   -0.14407E+08        -0.24929E+04         0.00000E+00
   -0.24929E+04        -0.18321E+07         0.00000E+00
    0.00000E+00         0.00000E+00        -0.13725E+08
 
   -0.18574E+08         0.43204E+03         0.00000E+00
    0.43204E+03        -0.19808E+07         0.00000E+00
    0.00000E+00         0.00000E+00        -0.18759E+08
 
   -0.18571E+08         0.18129E+04         0.00000E+00
    0.18129E+04        -0.19650E+07         0.00000E+00
    0.00000E+00         0.00000E+00        -0.18739E+08
 
   -0.18566E+08         0.45225E+04         0.00000E+00
    0.45225E+04        -0.19537E+07         0.00000E+00
    0.00000E+00         0.00000E+00        -0.18719E+08
 
   -0.18558E+08         0.88722E+04         0.00000E+00
    0.88722E+04        -0.19460E+07         0.00000E+00
    0.00000E+00         0.00000E+00        -0.18700E+08
 
   -0.18549E+08         0.14710E+05         0.00000E+00
    0.14710E+05        -0.19411E+07         0.00000E+00
    0.00000E+00         0.00000E+00        -0.18681E+08
 
   -0.18539E+08         0.21642E+05         0.00000E+00
    0.21642E+05        -0.19383E+07         0.00000E+00
    0.00000E+00         0.00000E+00        -0.18662E+08
 
   -0.18527E+08         0.29237E+05         0.00000E+00
    0.29237E+05        -0.19370E+07         0.00000E+00
    0.00000E+00         0.00000E+00        -0.18643E+08
 
   -0.18515E+08         0.37132E+05         0.00000E+00
    0.37132E+05        -0.19367E+07         0.00000E+00
    0.00000E+00         0.00000E+00        -0.18625E+08
 
   -0.18501E+08         0.45062E+05         0.00000E+00
    0.45062E+05        -0.19371E+07         0.00000E+00
    0.00000E+00         0.00000E+00        -0.18605E+08
 
   -0.18487E+08         0.52847E+05         0.00000E+00
    0.52847E+05        -0.19380E+07         0.00000E+00
    0.00000E+00         0.00000E+00        -0.18586E+08
 
   -0.18471E+08         0.60375E+05         0.00000E+00
    0.60375E+05        -0.19390E+07         0.00000E+00
    0.00000E+00         0.00000E+00        -0.18566E+08
 
   -0.18455E+08         0.67586E+05         0.00000E+00
    0.67586E+05        -0.19402E+07         0.00000E+00
    0.00000E+00         0.00000E+00        -0.18546E+08
 
   -0.18438E+08         0.74452E+05         0.00000E+00
    0.74452E+05        -0.19415E+07         0.00000E+00
    0.00000E+00         0.00000E+00        -0.18526E+08
 
   -0.18420E+08         0.80971E+05         0.00000E+00
    0.80971E+05        -0.19426E+07         0.00000E+00
    0.00000E+00         0.00000E+00        -0.18505E+08
 
   -0.18402E+08         0.87155E+05         0.00000E+00
    0.87155E+05        -0.19437E+07         0.00000E+00
    0.00000E+00         0.00000E+00        -0.18483E+08
 
   -0.18382E+08         0.93027E+05         0.00000E+00
    0.93027E+05        -0.19447E+07         0.00000E+00
    0.00000E+00         0.00000E+00        -0.18461E+08
 
   -0.18361E+08         0.98613E+05         0.00000E+00
    0.98613E+05        -0.19456E+07         0.00000E+00
    0.00000E+00         0.00000E+00        -0.18439E+08
 
   -0.18340E+08         0.10395E+06         0.00000E+00
    0.10395E+06        -0.19464E+07         0.00000E+00
    0.00000E+00         0.00000E+00        -0.18416E+08
 
   -0.18318E+08         0.10905E+06         0.00000E+00
    0.10905E+06        -0.19470E+07         0.00000E+00
    0.00000E+00         0.00000E+00        -0.18392E+08
 
   -0.18295E+08         0.11397E+06         0.00000E+00
    0.11397E+06        -0.19476E+07         0.00000E+00
    0.00000E+00         0.00000E+00        -0.18368E+08
 
   -0.18271E+08         0.11872E+06         0.00000E+00
    0.11872E+06        -0.19481E+07         0.00000E+00
    0.00000E+00         0.00000E+00        -0.18343E+08
 
   -0.18246E+08         0.12332E+06         0.00000E+00
    0.12332E+06        -0.19485E+07         0.00000E+00
    0.00000E+00         0.00000E+00        -0.18318E+08
 
   -0.18221E+08         0.12781E+06         0.00000E+00
    0.12781E+06        -0.19488E+07         0.00000E+00
    0.00000E+00         0.00000E+00        -0.18292E+08
 
   -0.18194E+08         0.13221E+06         0.00000E+00
    0.13221E+06        -0.19491E+07         0.00000E+00
    0.00000E+00         0.00000E+00        -0.18265E+08
 
   -0.18167E+08         0.13652E+06         0.00000E+00
    0.13652E+06        -0.19493E+07         0.00000E+00
    0.00000E+00         0.00000E+00        -0.18238E+08
 
   -0.18139E+08         0.14078E+06         0.00000E+00
    0.14078E+06        -0.19494E+07         0.00000E+00
    0.00000E+00         0.00000E+00        -0.18210E+08
 
   -0.18111E+08         0.14499E+06         0.00000E+00
    0.14499E+06        -0.19496E+07         0.00000E+00
    0.00000E+00         0.00000E+00        -0.18181E+08
 
   -0.18081E+08         0.14916E+06         0.00000E+00
    0.14916E+06        -0.19496E+07         0.00000E+00
    0.00000E+00         0.00000E+00        -0.18152E+08
 
   -0.18051E+08         0.15331E+06         0.00000E+00
    0.15331E+06        -0.19497E+07         0.00000E+00
    0.00000E+00         0.00000E+00        -0.18122E+08
 
   -0.18019E+08         0.15745E+06         0.00000E+00
    0.15745E+06        -0.19497E+07         0.00000E+00
    0.00000E+00         0.00000E+00        -0.18091E+08
 
   -0.17987E+08         0.16158E+06         0.00000E+00
    0.16158E+06        -0.19498E+07         0.00000E+00
    0.00000E+00         0.00000E+00        -0.18059E+08
 
   -0.17954E+08         0.16571E+06         0.00000E+00
    0.16571E+06        -0.19498E+07         0.00000E+00
    0.00000E+00         0.00000E+00        -0.18027E+08
 
   -0.17921E+08         0.16985E+06         0.00000E+00
    0.16985E+06        -0.19497E+07         0.00000E+00
    0.00000E+00         0.00000E+00        -0.17994E+08
 
   -0.17886E+08         0.17400E+06         0.00000E+00
    0.17400E+06        -0.19497E+07         0.00000E+00
    0.00000E+00         0.00000E+00        -0.17960E+08
 
   -0.17851E+08         0.17816E+06         0.00000E+00
    0.17816E+06        -0.19497E+07         0.00000E+00
    0.00000E+00         0.00000E+00        -0.17926E+08
 
   -0.17815E+08         0.18234E+06         0.00000E+00
    0.18234E+06        -0.19497E+07         0.00000E+00
    0.00000E+00         0.00000E+00        -0.17890E+08
 
   -0.17778E+08         0.18654E+06         0.00000E+00
    0.18654E+06        -0.19496E+07         0.00000E+00
    0.00000E+00         0.00000E+00        -0.17854E+08
 
   -0.17740E+08         0.19077E+06         0.00000E+00
    0.19077E+06        -0.19496E+07         0.00000E+00
    0.00000E+00         0.00000E+00        -0.17817E+08
 
   -0.17701E+08         0.19501E+06         0.00000E+00
    0.19501E+06        -0.19495E+07         0.00000E+00
    0.00000E+00         0.00000E+00        -0.17779E+08
 
   -0.17661E+08         0.19927E+06         0.00000E+00
    0.19927E+06        -0.19495E+07         0.00000E+00
    0.00000E+00         0.00000E+00        -0.17740E+08
 
   -0.17621E+08         0.20356E+06         0.00000E+00
    0.20356E+06        -0.19494E+07         0.00000E+00
    0.00000E+00         0.00000E+00        -0.17700E+08
 
   -0.17579E+08         0.20786E+06         0.00000E+00
    0.20786E+06        -0.19494E+07         0.00000E+00
    0.00000E+00         0.00000E+00        -0.17659E+08
 
   -0.17537E+08         0.21219E+06         0.00000E+00
    0.21219E+06        -0.19494E+07         0.00000E+00
    0.00000E+00         0.00000E+00        -0.17618E+08
 
   -0.17494E+08         0.21652E+06         0.00000E+00
    0.21652E+06        -0.19494E+07         0.00000E+00
    0.00000E+00         0.00000E+00        -0.17575E+08
 
   -0.17449E+08         0.22087E+06         0.00000E+00
    0.22087E+06        -0.19493E+07         0.00000E+00
    0.00000E+00         0.00000E+00        -0.17532E+08
 
   -0.17404E+08         0.22523E+06         0.00000E+00
    0.22523E+06        -0.19493E+07         0.00000E+00
    0.00000E+00         0.00000E+00        -0.17487E+08
 
   -0.17358E+08         0.22959E+06         0.00000E+00
    0.22959E+06        -0.19494E+07         0.00000E+00
    0.00000E+00         0.00000E+00        -0.17442E+08
 
   -0.17311E+08         0.23395E+06         0.00000E+00
    0.23395E+06        -0.19494E+07         0.00000E+00
    0.00000E+00         0.00000E+00        -0.17395E+08
 
   -0.17264E+08         0.23829E+06         0.00000E+00
    0.23829E+06        -0.19494E+07         0.00000E+00
    0.00000E+00         0.00000E+00        -0.17347E+08
 
   -0.17215E+08         0.24263E+06         0.00000E+00
    0.24263E+06        -0.19495E+07         0.00000E+00
    0.00000E+00         0.00000E+00        -0.17299E+08
 
   -0.17165E+08         0.24694E+06         0.00000E+00
    0.24694E+06        -0.19496E+07         0.00000E+00
    0.00000E+00         0.00000E+00        -0.17249E+08
 
   -0.17114E+08         0.25123E+06         0.00000E+00
    0.25123E+06        -0.19496E+07         0.00000E+00
    0.00000E+00         0.00000E+00        -0.17198E+08
 
   -0.17063E+08         0.25547E+06         0.00000E+00
    0.25547E+06        -0.19498E+07         0.00000E+00
    0.00000E+00         0.00000E+00        -0.17147E+08
 
   -0.17010E+08         0.25967E+06         0.00000E+00
    0.25967E+06        -0.19499E+07         0.00000E+00
    0.00000E+00         0.00000E+00        -0.17094E+08
 
   -0.16957E+08         0.26381E+06         0.00000E+00
    0.26381E+06        -0.19501E+07         0.00000E+00
    0.00000E+00         0.00000E+00        -0.17040E+08
 
   -0.16902E+08         0.26788E+06         0.00000E+00
    0.26788E+06        -0.19503E+07         0.00000E+00
    0.00000E+00         0.00000E+00        -0.16985E+08
 
   -0.16847E+08         0.27187E+06         0.00000E+00
    0.27187E+06        -0.19505E+07         0.00000E+00
    0.00000E+00         0.00000E+00        -0.16929E+08
 
   -0.16791E+08         0.27577E+06         0.00000E+00
    0.27577E+06        -0.19508E+07         0.00000E+00
    0.00000E+00         0.00000E+00        -0.16871E+08
 
   -0.16734E+08         0.27955E+06         0.00000E+00
    0.27955E+06        -0.19511E+07         0.00000E+00
    0.00000E+00         0.00000E+00        -0.16813E+08
 
   -0.16676E+08         0.28321E+06         0.00000E+00
    0.28321E+06        -0.19514E+07         0.00000E+00
    0.00000E+00         0.00000E+00        -0.16754E+08
 
   -0.16618E+08         0.28674E+06         0.00000E+00
    0.28674E+06        -0.19518E+07         0.00000E+00
    0.00000E+00         0.00000E+00        -0.16693E+08
 
   -0.16558E+08         0.29010E+06         0.00000E+00
    0.29010E+06        -0.19523E+07         0.00000E+00
    0.00000E+00         0.00000E+00        -0.16631E+08
 
   -0.16498E+08         0.29328E+06         0.00000E+00
    0.29328E+06        -0.19527E+07         0.00000E+00
    0.00000E+00         0.00000E+00        -0.16569E+08
 
   -0.16437E+08         0.29627E+06         0.00000E+00
    0.29627E+06        -0.19533E+07         0.00000E+00
    0.00000E+00         0.00000E+00        -0.16505E+08
 
   -0.16375E+08         0.29903E+06         0.00000E+00
    0.29903E+06        -0.19539E+07         0.00000E+00
    0.00000E+00         0.00000E+00        -0.16440E+08
 
   -0.16312E+08         0.30155E+06         0.00000E+00
    0.30155E+06        -0.19545E+07         0.00000E+00
    0.00000E+00         0.00000E+00        -0.16374E+08
 
   -0.16249E+08         0.30380E+06         0.00000E+00
    0.30380E+06        -0.19553E+07         0.00000E+00
    0.00000E+00         0.00000E+00        -0.16307E+08
 
   -0.16186E+08         0.30575E+06         0.00000E+00
    0.30575E+06        -0.19561E+07         0.00000E+00
    0.00000E+00         0.00000E+00        -0.16239E+08
 
   -0.16122E+08         0.30737E+06         0.00000E+00
    0.30737E+06        -0.19570E+07         0.00000E+00
    0.00000E+00         0.00000E+00        -0.16170E+08
 
   -0.16057E+08         0.30862E+06         0.00000E+00
    0.30862E+06        -0.19579E+07         0.00000E+00
    0.00000E+00         0.00000E+00        -0.16100E+08
 
   -0.15992E+08         0.30946E+06         0.00000E+00
    0.30946E+06        -0.19590E+07         0.00000E+00
    0.00000E+00         0.00000E+00        -0.16029E+08
 
   -0.15926E+08         0.30986E+06         0.00000E+00
    0.30986E+06        -0.19602E+07         0.00000E+00
    0.00000E+00         0.00000E+00        -0.15957E+08
 
   -0.15861E+08         0.30977E+06         0.00000E+00
    0.30977E+06        -0.19615E+07         0.00000E+00
    0.00000E+00         0.00000E+00        -0.15885E+08
 
   -0.15795E+08         0.30914E+06         0.00000E+00
    0.30914E+06        -0.19630E+07         0.00000E+00
    0.00000E+00         0.00000E+00        -0.15811E+08
 
   -0.15729E+08         0.30792E+06         0.00000E+00
    0.30792E+06        -0.19647E+07         0.00000E+00
    0.00000E+00         0.00000E+00        -0.15737E+08
 
   -0.15663E+08         0.30603E+06         0.00000E+00
    0.30603E+06        -0.19665E+07         0.00000E+00
    0.00000E+00         0.00000E+00        -0.15662E+08
 
   -0.15597E+08         0.30342E+06         0.00000E+00
    0.30342E+06        -0.19685E+07         0.00000E+00
    0.00000E+00         0.00000E+00        -0.15586E+08
 
   -0.15532E+08         0.30000E+06         0.00000E+00
    0.30000E+06        -0.19708E+07         0.00000E+00
    0.00000E+00         0.00000E+00        -0.15510E+08
 
   -0.15467E+08         0.29569E+06         0.00000E+00
    0.29569E+06        -0.19734E+07         0.00000E+00
    0.00000E+00         0.00000E+00        -0.15433E+08
 
   -0.15402E+08         0.29039E+06         0.00000E+00
    0.29039E+06        -0.19762E+07         0.00000E+00
    0.00000E+00         0.00000E+00        -0.15355E+08
 
   -0.15338E+08         0.28401E+06         0.00000E+00
    0.28401E+06        -0.19795E+07         0.00000E+00
    0.00000E+00         0.00000E+00        -0.15278E+08
 
   -0.15274E+08         0.27642E+06         0.00000E+00
    0.27642E+06        -0.19831E+07         0.00000E+00
    0.00000E+00         0.00000E+00        -0.15199E+08
 
   -0.15212E+08         0.26751E+06         0.00000E+00
    0.26751E+06        -0.19872E+07         0.00000E+00
    0.00000E+00         0.00000E+00        -0.15121E+08
 
   -0.15150E+08         0.25716E+06         0.00000E+00
    0.25716E+06        -0.19917E+07         0.00000E+00
    0.00000E+00         0.00000E+00        -0.15042E+08
 
   -0.15090E+08         0.24523E+06         0.00000E+00
    0.24523E+06        -0.19967E+07         0.00000E+00
    0.00000E+00         0.00000E+00        -0.14963E+08
 
   -0.15030E+08         0.23161E+06         0.00000E+00
    0.23161E+06        -0.20022E+07         0.00000E+00
    0.00000E+00         0.00000E+00        -0.14884E+08
 
   -0.14972E+08         0.21618E+06         0.00000E+00
    0.21618E+06        -0.20080E+07         0.00000E+00
    0.00000E+00         0.00000E+00        -0.14805E+08
 
   -0.14916E+08         0.19887E+06         0.00000E+00
    0.19887E+06        -0.20142E+07         0.00000E+00
    0.00000E+00         0.00000E+00        -0.14727E+08
 
   -0.14861E+08         0.17965E+06         0.00000E+00
    0.17965E+06        -0.20204E+07         0.00000E+00
    0.00000E+00         0.00000E+00        -0.14648E+08
 
   -0.14807E+08         0.15856E+06         0.00000E+00
    0.15856E+06        -0.20265E+07         0.00000E+00
    0.00000E+00         0.00000E+00        -0.14568E+08
 
   -0.14756E+08         0.13575E+06         0.00000E+00
    0.13575E+06        -0.20319E+07         0.00000E+00
    0.00000E+00         0.00000E+00        -0.14489E+08
 
   -0.14706E+08         0.11155E+06         0.00000E+00
    0.11155E+06        -0.20360E+07         0.00000E+00
    0.00000E+00         0.00000E+00        -0.14410E+08
 
   -0.14658E+08         0.86511E+05         0.00000E+00
    0.86511E+05        -0.20380E+07         0.00000E+00
    0.00000E+00         0.00000E+00        -0.14330E+08
 
   -0.14612E+08         0.61502E+05         0.00000E+00
    0.61502E+05        -0.20367E+07         0.00000E+00
    0.00000E+00         0.00000E+00        -0.14250E+08
 
   -0.14570E+08         0.37791E+05         0.00000E+00
    0.37791E+05        -0.20306E+07         0.00000E+00
    0.00000E+00         0.00000E+00        -0.14169E+08
 
   -0.14530E+08         0.17087E+05         0.00000E+00
    0.17087E+05        -0.20175E+07         0.00000E+00
    0.00000E+00         0.00000E+00        -0.14086E+08
 
   -0.14495E+08         0.14133E+04         0.00000E+00
    0.14133E+04        -0.19948E+07         0.00000E+00
    0.00000E+00         0.00000E+00        -0.14002E+08
 
   -0.14466E+08        -0.73868E+04         0.00000E+00
   -0.73868E+04        -0.19591E+07         0.00000E+00
    0.00000E+00         0.00000E+00        -0.13915E+08
 
   -0.14445E+08        -0.86002E+04         0.00000E+00
   -0.86002E+04        -0.19065E+07         0.00000E+00
    0.00000E+00         0.00000E+00        -0.13826E+08
 
   -0.14434E+08        -0.36641E+04         0.00000E+00
   -0.36641E+04        -0.18333E+07         0.00000E+00
    0.00000E+00         0.00000E+00        -0.13734E+08
 
   -0.18567E+08         0.14589E+03         0.00000E+00
    0.14589E+03        -0.19809E+07         0.00000E+00
    0.00000E+00         0.00000E+00        -0.18757E+08
 
   -0.18564E+08         0.98961E+03         0.00000E+00
    0.98961E+03        -0.19653E+07         0.00000E+00
    0.00000E+00         0.00000E+00        -0.18737E+08
 
   -0.18559E+08         0.32466E+04         0.00000E+00
    0.32466E+04        -0.19543E+07         0.00000E+00
    0.00000E+00         0.00000E+00        -0.18717E+08
 
   -0.18552E+08         0.72359E+04         0.00000E+00
    0.72359E+04        -0.19470E+07         0.00000E+00
    0.00000E+00         0.00000E+00        -0.18698E+08
 
   -0.18543E+08         0.12786E+05         0.00000E+00
    0.12786E+05        -0.19424E+07         0.00000E+00
    0.00000E+00         0.00000E+00        -0.18679E+08
 
   -0.18533E+08         0.19476E+05         0.00000E+00
    0.19476E+05        -0.19398E+07         0.00000E+00
    0.00000E+00         0.00000E+00        -0.18661E+08
 
   -0.18522E+08         0.26858E+05         0.00000E+00
    0.26858E+05        -0.19386E+07         0.00000E+00
    0.00000E+00         0.00000E+00        -0.18642E+08
 
   -0.18510E+08         0.34557E+05         0.00000E+00
    0.34557E+05        -0.19383E+07         0.00000E+00
    0.00000E+00         0.00000E+00        -0.18623E+08
 
   -0.18496E+08         0.42299E+05         0.00000E+00
    0.42299E+05        -0.19387E+07         0.00000E+00
    0.00000E+00         0.00000E+00        -0.18605E+08
 
   -0.18482E+08         0.49903E+05         0.00000E+00
    0.49903E+05        -0.19395E+07         0.00000E+00
    0.00000E+00         0.00000E+00        -0.18585E+08
 
   -0.18467E+08         0.57253E+05         0.00000E+00
    0.57253E+05        -0.19405E+07         0.00000E+00
    0.00000E+00         0.00000E+00        -0.18566E+08
 
   -0.18451E+08         0.64287E+05         0.00000E+00
    0.64287E+05        -0.19416E+07         0.00000E+00
    0.00000E+00         0.00000E+00        -0.18546E+08
 
   -0.18435E+08         0.70977E+05         0.00000E+00
    0.70977E+05        -0.19428E+07         0.00000E+00
    0.00000E+00         0.00000E+00        -0.18525E+08
 
   -0.18417E+08         0.77320E+05         0.00000E+00
    0.77320E+05        -0.19439E+07         0.00000E+00
    0.00000E+00         0.00000E+00        -0.18504E+08
 
   -0.18398E+08         0.83330E+05         0.00000E+00
    0.83330E+05        -0.19449E+07         0.00000E+00
    0.00000E+00         0.00000E+00        -0.18483E+08
 
   -0.18379E+08         0.89027E+05         0.00000E+00
    0.89027E+05        -0.19459E+07         0.00000E+00
    0.00000E+00         0.00000E+00        -0.18461E+08
 
   -0.18358E+08         0.94441E+05         0.00000E+00
    0.94441E+05        -0.19467E+07         0.00000E+00
    0.00000E+00         0.00000E+00        -0.18438E+08
 
   -0.18337E+08         0.99601E+05         0.00000E+00
    0.99601E+05        -0.19474E+07         0.00000E+00
    0.00000E+00         0.00000E+00        -0.18415E+08
 
   -0.18315E+08         0.10454E+06         0.00000E+00
    0.10454E+06        -0.19480E+07         0.00000E+00
    0.00000E+00         0.00000E+00        -0.18392E+08
 
   -0.18292E+08         0.10928E+06         0.00000E+00
    0.10928E+06        -0.19486E+07         0.00000E+00
    0.00000E+00         0.00000E+00        -0.18367E+08
 
   -0.18268E+08         0.11386E+06         0.00000E+00
    0.11386E+06        -0.19490E+07         0.00000E+00
    0.00000E+00         0.00000E+00        -0.18343E+08
 
   -0.18243E+08         0.11830E+06         0.00000E+00
    0.11830E+06        -0.19494E+07         0.00000E+00
    0.00000E+00         0.00000E+00        -0.18317E+08
 
   -0.18218E+08         0.12263E+06         0.00000E+00
    0.12263E+06        -0.19497E+07         0.00000E+00
    0.00000E+00         0.00000E+00        -0.18291E+08
 
   -0.18192E+08         0.12686E+06         0.00000E+00
    0.12686E+06        -0.19499E+07         0.00000E+00
    0.00000E+00         0.00000E+00        -0.18264E+08
 
   -0.18164E+08         0.13101E+06         0.00000E+00
    0.13101E+06        -0.19501E+07         0.00000E+00
    0.00000E+00         0.00000E+00        -0.18237E+08
 
   -0.18136E+08         0.13510E+06         0.00000E+00
    0.13510E+06        -0.19503E+07         0.00000E+00
    0.00000E+00         0.00000E+00        -0.18209E+08
 
   -0.18108E+08         0.13915E+06         0.00000E+00
    0.13915E+06        -0.19504E+07         0.00000E+00
    0.00000E+00         0.00000E+00        -0.18180E+08
 
   -0.18078E+08         0.14316E+06         0.00000E+00
    0.14316E+06        -0.19505E+07         0.00000E+00
    0.00000E+00         0.00000E+00        -0.18151E+08
 
   -0.18048E+08         0.14715E+06         0.00000E+00
    0.14715E+06        -0.19505E+07         0.00000E+00
    0.00000E+00         0.00000E+00        -0.18121E+08
 
   -0.18016E+08         0.15112E+06         0.00000E+00
    0.15112E+06        -0.19505E+07         0.00000E+00
    0.00000E+00         0.00000E+00        -0.18090E+08
 
   -0.17984E+08         0.15509E+06         0.00000E+00
    0.15509E+06        -0.19506E+07         0.00000E+00
    0.00000E+00         0.00000E+00        -0.18059E+08
 
   -0.17951E+08         0.15905E+06         0.00000E+00
    0.15905E+06        -0.19506E+07         0.00000E+00
    0.00000E+00         0.00000E+00        -0.18026E+08
 
   -0.17918E+08         0.16302E+06         0.00000E+00
    0.16302E+06        -0.19506E+07         0.00000E+00
    0.00000E+00         0.00000E+00        -0.17993E+08
 
   -0.17883E+08         0.16701E+06         0.00000E+00
    0.16701E+06        -0.19505E+07         0.00000E+00
    0.00000E+00         0.00000E+00        -0.17959E+08
 
   -0.17848E+08         0.17100E+06         0.00000E+00
    0.17100E+06        -0.19505E+07         0.00000E+00
    0.00000E+00         0.00000E+00        -0.17925E+08
 
   -0.17811E+08         0.17501E+06         0.00000E+00
    0.17501E+06        -0.19505E+07         0.00000E+00
    0.00000E+00         0.00000E+00        -0.17889E+08
 
   -0.17774E+08         0.17904E+06         0.00000E+00
    0.17904E+06        -0.19504E+07         0.00000E+00
    0.00000E+00         0.00000E+00        -0.17853E+08
 
   -0.17736E+08         0.18309E+06         0.00000E+00
    0.18309E+06        -0.19504E+07         0.00000E+00
    0.00000E+00         0.00000E+00        -0.17816E+08
 
   -0.17698E+08         0.18716E+06         0.00000E+00
    0.18716E+06        -0.19504E+07         0.00000E+00
    0.00000E+00         0.00000E+00        -0.17778E+08
 
   -0.17658E+08         0.19125E+06         0.00000E+00
    0.19125E+06        -0.19503E+07         0.00000E+00
    0.00000E+00         0.00000E+00        -0.17739E+08
 
   -0.17617E+08         0.19535E+06         0.00000E+00
    0.19535E+06        -0.19503E+07         0.00000E+00
    0.00000E+00         0.00000E+00        -0.17699E+08
 
   -0.17576E+08         0.19948E+06         0.00000E+00
    0.19948E+06        -0.19503E+07         0.00000E+00
    0.00000E+00         0.00000E+00        -0.17659E+08
 
   -0.17533E+08         0.20362E+06         0.00000E+00
    0.20362E+06        -0.19502E+07         0.00000E+00
    0.00000E+00         0.00000E+00        -0.17617E+08
 
   -0.17490E+08         0.20778E+06         0.00000E+00
    0.20778E+06        -0.19502E+07         0.00000E+00
    0.00000E+00         0.00000E+00        -0.17574E+08
 
   -0.17446E+08         0.21194E+06         0.00000E+00
    0.21194E+06        -0.19502E+07         0.00000E+00
    0.00000E+00         0.00000E+00        -0.17531E+08
 
   -0.17401E+08         0.21612E+06         0.00000E+00
    0.21612E+06        -0.19502E+07         0.00000E+00
    0.00000E+00         0.00000E+00        -0.17486E+08
 
   -0.17355E+08         0.22029E+06         0.00000E+00
    0.22029E+06        -0.19502E+07         0.00000E+00
    0.00000E+00         0.00000E+00        -0.17441E+08
 
   -0.17308E+08         0.22446E+06         0.00000E+00
    0.22446E+06        -0.19502E+07         0.00000E+00
    0.00000E+00         0.00000E+00        -0.17394E+08
 
   -0.17260E+08         0.22863E+06         0.00000E+00
    0.22863E+06        -0.19503E+07         0.00000E+00
    0.00000E+00         0.00000E+00        -0.17347E+08
 
   -0.17211E+08         0.23278E+06         0.00000E+00
    0.23278E+06        -0.19503E+07         0.00000E+00
    0.00000E+00         0.00000E+00        -0.17298E+08
 
   -0.17161E+08         0.23690E+06         0.00000E+00
    0.23690E+06        -0.19504E+07         0.00000E+00
    0.00000E+00         0.00000E+00        -0.17248E+08
 
   -0.17111E+08         0.24100E+06         0.00000E+00
    0.24100E+06        -0.19505E+07         0.00000E+00
    0.00000E+00         0.00000E+00        -0.17198E+08
 
   -0.17059E+08         0.24506E+06         0.00000E+00
    0.24506E+06        -0.19506E+07         0.00000E+00
    0.00000E+00         0.00000E+00        -0.17146E+08
 
   -0.17007E+08         0.24908E+06         0.00000E+00
    0.24908E+06        -0.19507E+07         0.00000E+00
    0.00000E+00         0.00000E+00        -0.17093E+08
 
   -0.16953E+08         0.25304E+06         0.00000E+00
    0.25304E+06        -0.19509E+07         0.00000E+00
    0.00000E+00         0.00000E+00        -0.17039E+08
 
   -0.16899E+08         0.25693E+06         0.00000E+00
    0.25693E+06        -0.19511E+07         0.00000E+00
    0.00000E+00         0.00000E+00        -0.16984E+08
 
   -0.16844E+08         0.26074E+06         0.00000E+00
    0.26074E+06        -0.19513E+07         0.00000E+00
    0.00000E+00         0.00000E+00        -0.16928E+08
 
   -0.16787E+08         0.26446E+06         0.00000E+00
    0.26446E+06        -0.19515E+07         0.00000E+00
    0.00000E+00         0.00000E+00        -0.16870E+08
 
   -0.16731E+08         0.26807E+06         0.00000E+00
    0.26807E+06        -0.19518E+07         0.00000E+00
    0.00000E+00         0.00000E+00        -0.16812E+08
 
   -0.16673E+08         0.27156E+06         0.00000E+00
    0.27156E+06        -0.19521E+07         0.00000E+00
    0.00000E+00         0.00000E+00        -0.16753E+08
 
   -0.16614E+08         0.27492E+06         0.00000E+00
    0.27492E+06        -0.19525E+07         0.00000E+00
    0.00000E+00         0.00000E+00        -0.16692E+08
 
   -0.16555E+08         0.27813E+06         0.00000E+00
    0.27813E+06        -0.19529E+07         0.00000E+00
    0.00000E+00         0.00000E+00        -0.16631E+08
 
   -0.16494E+08         0.28116E+06         0.00000E+00
    0.28116E+06        -0.19533E+07         0.00000E+00
    0.00000E+00         0.00000E+00        -0.16568E+08
 
   -0.16433E+08         0.28400E+06         0.00000E+00
    0.28400E+06        -0.19538E+07         0.00000E+00
    0.00000E+00         0.00000E+00        -0.16504E+08
 
   -0.16372E+08         0.28662E+06         0.00000E+00
    0.28662E+06        -0.19544E+07         0.00000E+00
    0.00000E+00         0.00000E+00        -0.16439E+08
 
   -0.16310E+08         0.28901E+06         0.00000E+00
    0.28901E+06        -0.19550E+07         0.00000E+00
    0.00000E+00         0.00000E+00        -0.16373E+08
 
   -0.16247E+08         0.29114E+06         0.00000E+00
    0.29114E+06        -0.19557E+07         0.00000E+00
    0.00000E+00         0.00000E+00        -0.16306E+08
 
   -0.16183E+08         0.29298E+06         0.00000E+00
    0.29298E+06        -0.19564E+07         0.00000E+00
    0.00000E+00         0.00000E+00        -0.16238E+08
 
   -0.16119E+08         0.29449E+06         0.00000E+00
    0.29449E+06        -0.19572E+07         0.00000E+00
    0.00000E+00         0.00000E+00        -0.16169E+08
 
   -0.16055E+08         0.29566E+06         0.00000E+00
    0.29566E+06        -0.19581E+07         0.00000E+00
    0.00000E+00         0.00000E+00        -0.16099E+08
 
   -0.15990E+08         0.29643E+06         0.00000E+00
    0.29643E+06        -0.19591E+07         0.00000E+00
    0.00000E+00         0.00000E+00        -0.16029E+08
 
   -0.15925E+08         0.29678E+06         0.00000E+00
    0.29678E+06        -0.19603E+07         0.00000E+00
    0.00000E+00         0.00000E+00        -0.15957E+08
 
   -0.15859E+08         0.29665E+06         0.00000E+00
    0.29665E+06        -0.19615E+07         0.00000E+00
    0.00000E+00         0.00000E+00        -0.15884E+08
 
   -0.15794E+08         0.29599E+06         0.00000E+00
    0.29599E+06        -0.19628E+07         0.00000E+00
    0.00000E+00         0.00000E+00        -0.15811E+08
 
   -0.15728E+08         0.29476E+06         0.00000E+00
    0.29476E+06        -0.19643E+07         0.00000E+00
    0.00000E+00         0.00000E+00        -0.15736E+08
 
   -0.15662E+08         0.29290E+06         0.00000E+00
    0.29290E+06        -0.19660E+07         0.00000E+00
    0.00000E+00         0.00000E+00        -0.15662E+08
 
   -0.15597E+08         0.29032E+06         0.00000E+00
    0.29032E+06        -0.19679E+07         0.00000E+00
    0.00000E+00         0.00000E+00        -0.15586E+08
 
   -0.15532E+08         0.28696E+06         0.00000E+00
    0.28696E+06        -0.19700E+07         0.00000E+00
    0.00000E+00         0.00000E+00        -0.15510E+08
 
   -0.15467E+08         0.28274E+06         0.00000E+00
    0.28274E+06        -0.19724E+07         0.00000E+00
    0.00000E+00         0.00000E+00        -0.15433E+08
 
   -0.15403E+08         0.27755E+06         0.00000E+00
    0.27755E+06        -0.19751E+07         0.00000E+00
    0.00000E+00         0.00000E+00        -0.15355E+08
 
   -0.15339E+08         0.27131E+06         0.00000E+00
    0.27131E+06        -0.19781E+07         0.00000E+00
    0.00000E+00         0.00000E+00        -0.15278E+08
 
   -0.15277E+08         0.26388E+06         0.00000E+00
    0.26388E+06        -0.19815E+07         0.00000E+00
    0.00000E+00         0.00000E+00        -0.15200E+08
 
   -0.15215E+08         0.25517E+06         0.00000E+00
    0.25517E+06        -0.19853E+07         0.00000E+00
    0.00000E+00         0.00000E+00        -0.15121E+08
 
   -0.15154E+08         0.24503E+06         0.00000E+00
    0.24503E+06        -0.19895E+07         0.00000E+00
    0.00000E+00         0.00000E+00        -0.15043E+08
 
   -0.15094E+08         0.23334E+06         0.00000E+00
    0.23334E+06        -0.19942E+07         0.00000E+00
    0.00000E+00         0.00000E+00        -0.14964E+08
 
   -0.15036E+08         0.21998E+06         0.00000E+00
    0.21998E+06        -0.19993E+07         0.00000E+00
    0.00000E+00         0.00000E+00        -0.14885E+08
 
   -0.14979E+08         0.20484E+06         0.00000E+00
    0.20484E+06        -0.20048E+07         0.00000E+00
    0.00000E+00         0.00000E+00        -0.14807E+08
 
   -0.14924E+08         0.18783E+06         0.00000E+00
    0.18783E+06        -0.20105E+07         0.00000E+00
    0.00000E+00         0.00000E+00        -0.14728E+08
 
   -0.14870E+08         0.16894E+06         0.00000E+00
    0.16894E+06        -0.20164E+07         0.00000E+00
    0.00000E+00         0.00000E+00        -0.14649E+08
 
   -0.14818E+08         0.14819E+06         0.00000E+00
    0.14819E+06        -0.20221E+07         0.00000E+00
    0.00000E+00         0.00000E+00        -0.14570E+08
 
   -0.14768E+08         0.12576E+06         0.00000E+00
    0.12576E+06        -0.20272E+07         0.00000E+00
    0.00000E+00         0.00000E+00        -0.14492E+08
 
   -0.14720E+08         0.10196E+06         0.00000E+00
    0.10196E+06        -0.20311E+07         0.00000E+00
    0.00000E+00         0.00000E+00        -0.14413E+08
 
   -0.14674E+08         0.77366E+05         0.00000E+00
    0.77366E+05        -0.20330E+07         0.00000E+00
    0.00000E+00         0.00000E+00        -0.14334E+08
 
   -0.14631E+08         0.52861E+05         0.00000E+00
    0.52861E+05        -0.20319E+07         0.00000E+00
    0.00000E+00         0.00000E+00        -0.14254E+08
 
   -0.14590E+08         0.29743E+05         0.00000E+00
    0.29743E+05        -0.20261E+07         0.00000E+00
    0.00000E+00         0.00000E+00        -0.14174E+08
 
   -0.14553E+08         0.97764E+04         0.00000E+00
    0.97764E+04        -0.20138E+07         0.00000E+00
    0.00000E+00         0.00000E+00        -0.14092E+08
 
   -0.14520E+08        -0.49314E+04         0.00000E+00
   -0.49314E+04        -0.19924E+07         0.00000E+00
    0.00000E+00         0.00000E+00        -0.14009E+08
 
   -0.14492E+08        -0.12422E+05         0.00000E+00
   -0.12422E+05        -0.19583E+07         0.00000E+00
    0.00000E+00         0.00000E+00        -0.13923E+08
 
   -0.14471E+08        -0.11892E+05         0.00000E+00
   -0.11892E+05        -0.19072E+07         0.00000E+00
    0.00000E+00         0.00000E+00        -0.13834E+08
 
   -0.14460E+08        -0.48159E+04         0.00000E+00
   -0.48159E+04        -0.18349E+07         0.00000E+00
    0.00000E+00         0.00000E+00        -0.13742E+08
 
   -0.18560E+08        -0.13743E+03         0.00000E+00
   -0.13743E+03        -0.19809E+07         0.00000E+00
    0.00000E+00         0.00000E+00        -0.18755E+08
 
   -0.18557E+08         0.17946E+03         0.00000E+00
    0.17946E+03        -0.19656E+07         0.00000E+00
    0.00000E+00         0.00000E+00        -0.18735E+08
 
   -0.18552E+08         0.20025E+04         0.00000E+00
    0.20025E+04        -0.19549E+07         0.00000E+00
    0.00000E+00         0.00000E+00        -0.18715E+08
 
   -0.18545E+08         0.56533E+04         0.00000E+00
    0.56533E+04        -0.19479E+07         0.00000E+00
    0.00000E+00         0.00000E+00        -0.18696E+08
 
   -0.18537E+08         0.10932E+05         0.00000E+00
    0.10932E+05        -0.19436E+07         0.00000E+00
    0.00000E+00         0.00000E+00        -0.18678E+08
 
   -0.18527E+08         0.17391E+05         0.00000E+00
    0.17391E+05        -0.19412E+07         0.00000E+00
    0.00000E+00         0.00000E+00        -0.18659E+08
 
   -0.18516E+08         0.24562E+05         0.00000E+00
    0.24562E+05        -0.19401E+07         0.00000E+00
    0.00000E+00         0.00000E+00        -0.18641E+08
 
   -0.18504E+08         0.32060E+05         0.00000E+00
    0.32060E+05        -0.19398E+07         0.00000E+00
    0.00000E+00         0.00000E+00        -0.18622E+08
 
   -0.18492E+08         0.39610E+05         0.00000E+00
    0.39610E+05        -0.19402E+07         0.00000E+00
    0.00000E+00         0.00000E+00        -0.18604E+08
 
   -0.18478E+08         0.47024E+05         0.00000E+00
    0.47024E+05        -0.19410E+07         0.00000E+00
    0.00000E+00         0.00000E+00        -0.18584E+08
 
   -0.18463E+08         0.54187E+05         0.00000E+00
    0.54187E+05        -0.19419E+07         0.00000E+00
    0.00000E+00         0.00000E+00        -0.18565E+08
 
   -0.18448E+08         0.61036E+05         0.00000E+00
    0.61036E+05        -0.19430E+07         0.00000E+00
    0.00000E+00         0.00000E+00        -0.18545E+08
 
   -0.18431E+08         0.67543E+05         0.00000E+00
    0.67543E+05        -0.19441E+07         0.00000E+00
    0.00000E+00         0.00000E+00        -0.18525E+08
 
   -0.18413E+08         0.73704E+05         0.00000E+00
    0.73704E+05        -0.19451E+07         0.00000E+00
    0.00000E+00         0.00000E+00        -0.18504E+08
 
   -0.18395E+08         0.79532E+05         0.00000E+00
    0.79532E+05        -0.19461E+07         0.00000E+00
    0.00000E+00         0.00000E+00        -0.18482E+08
 
   -0.18376E+08         0.85050E+05         0.00000E+00
    0.85050E+05        -0.19469E+07         0.00000E+00
    0.00000E+00         0.00000E+00        -0.18460E+08
 
   -0.18355E+08         0.90286E+05         0.00000E+00
    0.90286E+05        -0.19477E+07         0.00000E+00
    0.00000E+00         0.00000E+00        -0.18438E+08
 
   -0.18334E+08         0.95270E+05         0.00000E+00
    0.95270E+05        -0.19484E+07         0.00000E+00
    0.00000E+00         0.00000E+00        -0.18415E+08
 
   -0.18312E+08         0.10003E+06         0.00000E+00
    0.10003E+06        -0.19490E+07         0.00000E+00
    0.00000E+00         0.00000E+00        -0.18391E+08
 
   -0.18289E+08         0.10461E+06         0.00000E+00
    0.10461E+06        -0.19495E+07         0.00000E+00
    0.00000E+00         0.00000E+00        -0.18367E+08
 
   -0.18265E+08         0.10902E+06         0.00000E+00
    0.10902E+06        -0.19499E+07         0.00000E+00
    0.00000E+00         0.00000E+00        -0.18342E+08
 
   -0.18241E+08         0.11329E+06         0.00000E+00
    0.11329E+06        -0.19502E+07         0.00000E+00
    0.00000E+00         0.00000E+00        -0.18317E+08
 
   -0.18215E+08         0.11744E+06         0.00000E+00
    0.11744E+06        -0.19505E+07         0.00000E+00
    0.00000E+00         0.00000E+00        -0.18290E+08
 
   -0.18189E+08         0.12151E+06         0.00000E+00
    0.12151E+06        -0.19507E+07         0.00000E+00
    0.00000E+00         0.00000E+00        -0.18264E+08
 
   -0.18162E+08         0.12549E+06         0.00000E+00
    0.12549E+06        -0.19509E+07         0.00000E+00
    0.00000E+00         0.00000E+00        -0.18236E+08
 
   -0.18134E+08         0.12942E+06         0.00000E+00
    0.12942E+06        -0.19511E+07         0.00000E+00
    0.00000E+00         0.00000E+00        -0.18208E+08
 
   -0.18105E+08         0.13330E+06         0.00000E+00
    0.13330E+06        -0.19512E+07         0.00000E+00
    0.00000E+00         0.00000E+00        -0.18180E+08
 
   -0.18075E+08         0.13715E+06         0.00000E+00
    0.13715E+06        -0.19512E+07         0.00000E+00
    0.00000E+00         0.00000E+00        -0.18150E+08
 
   -0.18045E+08         0.14097E+06         0.00000E+00
    0.14097E+06        -0.19513E+07         0.00000E+00
    0.00000E+00         0.00000E+00        -0.18120E+08
 
   -0.18013E+08         0.14478E+06         0.00000E+00
    0.14478E+06        -0.19513E+07         0.00000E+00
    0.00000E+00         0.00000E+00        -0.18089E+08
 
   -0.17981E+08         0.14858E+06         0.00000E+00
    0.14858E+06        -0.19513E+07         0.00000E+00
    0.00000E+00         0.00000E+00        -0.18058E+08
 
   -0.17948E+08         0.15238E+06         0.00000E+00
    0.15238E+06        -0.19513E+07         0.00000E+00
    0.00000E+00         0.00000E+00        -0.18026E+08
 
   -0.17915E+08         0.15619E+06         0.00000E+00
    0.15619E+06        -0.19513E+07         0.00000E+00
    0.00000E+00         0.00000E+00        -0.17993E+08
 
   -0.17880E+08         0.16000E+06         0.00000E+00
    0.16000E+06        -0.19513E+07         0.00000E+00
    0.00000E+00         0.00000E+00        -0.17959E+08
 
   -0.17845E+08         0.16383E+06         0.00000E+00
    0.16383E+06        -0.19513E+07         0.00000E+00
    0.00000E+00         0.00000E+00        -0.17924E+08
 
   -0.17808E+08         0.16767E+06         0.00000E+00
    0.16767E+06        -0.19513E+07         0.00000E+00
    0.00000E+00         0.00000E+00        -0.17889E+08
 
   -0.17771E+08         0.17153E+06         0.00000E+00
    0.17153E+06        -0.19512E+07         0.00000E+00
    0.00000E+00         0.00000E+00        -0.17852E+08
 
   -0.17733E+08         0.17540E+06         0.00000E+00
    0.17540E+06        -0.19512E+07         0.00000E+00
    0.00000E+00         0.00000E+00        -0.17815E+08
 
   -0.17694E+08         0.17930E+06         0.00000E+00
    0.17930E+06        -0.19512E+07         0.00000E+00
    0.00000E+00         0.00000E+00        -0.17777E+08
 
   -0.17654E+08         0.18321E+06         0.00000E+00
    0.18321E+06        -0.19511E+07         0.00000E+00
    0.00000E+00         0.00000E+00        -0.17738E+08
 
   -0.17614E+08         0.18714E+06         0.00000E+00
    0.18714E+06        -0.19511E+07         0.00000E+00
    0.00000E+00         0.00000E+00        -0.17699E+08
 
   -0.17572E+08         0.19109E+06         0.00000E+00
    0.19109E+06        -0.19511E+07         0.00000E+00
    0.00000E+00         0.00000E+00        -0.17658E+08
 
   -0.17530E+08         0.19505E+06         0.00000E+00
    0.19505E+06        -0.19510E+07         0.00000E+00
    0.00000E+00         0.00000E+00        -0.17616E+08
 
   -0.17487E+08         0.19903E+06         0.00000E+00
    0.19903E+06        -0.19510E+07         0.00000E+00
    0.00000E+00         0.00000E+00        -0.17574E+08
 
   -0.17442E+08         0.20301E+06         0.00000E+00
    0.20301E+06        -0.19510E+07         0.00000E+00
    0.00000E+00         0.00000E+00        -0.17530E+08
 
   -0.17397E+08         0.20700E+06         0.00000E+00
    0.20700E+06        -0.19510E+07         0.00000E+00
    0.00000E+00         0.00000E+00        -0.17485E+08
 
   -0.17351E+08         0.21099E+06         0.00000E+00
    0.21099E+06        -0.19510E+07         0.00000E+00
    0.00000E+00         0.00000E+00        -0.17440E+08
 
   -0.17304E+08         0.21498E+06         0.00000E+00
    0.21498E+06        -0.19510E+07         0.00000E+00
    0.00000E+00         0.00000E+00        -0.17393E+08
 
   -0.17256E+08         0.21896E+06         0.00000E+00
    0.21896E+06        -0.19511E+07         0.00000E+00
    0.00000E+00         0.00000E+00        -0.17346E+08
 
   -0.17207E+08         0.22292E+06         0.00000E+00
    0.22292E+06        -0.19511E+07         0.00000E+00
    0.00000E+00         0.00000E+00        -0.17297E+08
 
   -0.17158E+08         0.22686E+06         0.00000E+00
    0.22686E+06        -0.19512E+07         0.00000E+00
    0.00000E+00         0.00000E+00        -0.17247E+08
 
   -0.17107E+08         0.23078E+06         0.00000E+00
    0.23078E+06        -0.19513E+07         0.00000E+00
    0.00000E+00         0.00000E+00        -0.17197E+08
 
   -0.17055E+08         0.23465E+06         0.00000E+00
    0.23465E+06        -0.19514E+07         0.00000E+00
    0.00000E+00         0.00000E+00        -0.17145E+08
 
   -0.17003E+08         0.23849E+06         0.00000E+00
    0.23849E+06        -0.19515E+07         0.00000E+00
    0.00000E+00         0.00000E+00        -0.17092E+08
 
   -0.16949E+08         0.24226E+06         0.00000E+00
    0.24226E+06        -0.19517E+07         0.00000E+00
    0.00000E+00         0.00000E+00        -0.17038E+08
 
   -0.16895E+08         0.24597E+06         0.00000E+00
    0.24597E+06        -0.19518E+07         0.00000E+00
    0.00000E+00         0.00000E+00        -0.16983E+08
 
   -0.16840E+08         0.24961E+06         0.00000E+00
    0.24961E+06        -0.19520E+07         0.00000E+00
    0.00000E+00         0.00000E+00        -0.16927E+08
 
   -0.16784E+08         0.25315E+06         0.00000E+00
    0.25315E+06        -0.19523E+07         0.00000E+00
    0.00000E+00         0.00000E+00        -0.16870E+08
 
   -0.16727E+08         0.25660E+06         0.00000E+00
    0.25660E+06        -0.19525E+07         0.00000E+00
    0.00000E+00         0.00000E+00        -0.16811E+08
 
   -0.16669E+08         0.25992E+06         0.00000E+00
    0.25992E+06        -0.19528E+07         0.00000E+00
    0.00000E+00         0.00000E+00        -0.16752E+08
 
   -0.16611E+08         0.26312E+06         0.00000E+00
    0.26312E+06        -0.19531E+07         0.00000E+00
    0.00000E+00         0.00000E+00        -0.16691E+08
 
   -0.16551E+08         0.26617E+06         0.00000E+00
    0.26617E+06        -0.19535E+07         0.00000E+00
    0.00000E+00         0.00000E+00        -0.16630E+08
 
   -0.16491E+08         0.26905E+06         0.00000E+00
    0.26905E+06        -0.19539E+07         0.00000E+00
    0.00000E+00         0.00000E+00        -0.16567E+08
 
   -0.16430E+08         0.27175E+06         0.00000E+00
    0.27175E+06        -0.19544E+07         0.00000E+00
    0.00000E+00         0.00000E+00        -0.16503E+08
 
   -0.16369E+08         0.27424E+06         0.00000E+00
    0.27424E+06        -0.19549E+07         0.00000E+00
    0.00000E+00         0.00000E+00        -0.16438E+08
 
   -0.16307E+08         0.27650E+06         0.00000E+00
    0.27650E+06        -0.19554E+07         0.00000E+00
    0.00000E+00         0.00000E+00        -0.16372E+08
 
   -0.16244E+08         0.27851E+06         0.00000E+00
    0.27851E+06        -0.19561E+07         0.00000E+00
    0.00000E+00         0.00000E+00        -0.16306E+08
 
   -0.16180E+08         0.28024E+06         0.00000E+00
    0.28024E+06        -0.19567E+07         0.00000E+00
    0.00000E+00         0.00000E+00        -0.16238E+08
 
   -0.16117E+08         0.28166E+06         0.00000E+00
    0.28166E+06        -0.19575E+07         0.00000E+00
    0.00000E+00         0.00000E+00        -0.16169E+08
 
   -0.16052E+08         0.28274E+06         0.00000E+00
    0.28274E+06        -0.19583E+07         0.00000E+00
    0.00000E+00         0.00000E+00        -0.16099E+08
 
   -0.15988E+08         0.28345E+06         0.00000E+00
    0.28345E+06        -0.19593E+07         0.00000E+00
    0.00000E+00         0.00000E+00        -0.16028E+08
 
   -0.15923E+08         0.28374E+06         0.00000E+00
    0.28374E+06        -0.19603E+07         0.00000E+00
    0.00000E+00         0.00000E+00        -0.15956E+08
 
   -0.15857E+08         0.28357E+06         0.00000E+00
    0.28357E+06        -0.19614E+07         0.00000E+00
    0.00000E+00         0.00000E+00        -0.15884E+08
 
   -0.15792E+08         0.28290E+06         0.00000E+00
    0.28290E+06        -0.19626E+07         0.00000E+00
    0.00000E+00         0.00000E+00        -0.15810E+08
 
   -0.15727E+08         0.28167E+06         0.00000E+00
    0.28167E+06        -0.19640E+07         0.00000E+00
    0.00000E+00         0.00000E+00        -0.15736E+08
 
   -0.15662E+08         0.27983E+06         0.00000E+00
    0.27983E+06        -0.19656E+07         0.00000E+00
    0.00000E+00         0.00000E+00        -0.15661E+08
 
   -0.15597E+08         0.27730E+06         0.00000E+00
    0.27730E+06        -0.19673E+07         0.00000E+00
    0.00000E+00         0.00000E+00        -0.15586E+08
 
   -0.15532E+08         0.27401E+06         0.00000E+00
    0.27401E+06        -0.19693E+07         0.00000E+00
    0.00000E+00         0.00000E+00        -0.15509E+08
 
   -0.15468E+08         0.26989E+06         0.00000E+00
    0.26989E+06        -0.19715E+07         0.00000E+00
    0.00000E+00         0.00000E+00        -0.15433E+08
 
   -0.15404E+08         0.26482E+06         0.00000E+00
    0.26482E+06        -0.19740E+07         0.00000E+00
    0.00000E+00         0.00000E+00        -0.15355E+08
 
   -0.15341E+08         0.25873E+06         0.00000E+00
    0.25873E+06        -0.19768E+07         0.00000E+00
    0.00000E+00         0.00000E+00        -0.15278E+08
 
   -0.15279E+08         0.25148E+06         0.00000E+00
    0.25148E+06        -0.19799E+07         0.00000E+00
    0.00000E+00         0.00000E+00        -0.15200E+08
 
   -0.15217E+08         0.24297E+06         0.00000E+00
    0.24297E+06        -0.19834E+07         0.00000E+00
    0.00000E+00         0.00000E+00        -0.15122E+08
 
   -0.15157E+08         0.23306E+06         0.00000E+00
    0.23306E+06        -0.19873E+07         0.00000E+00
    0.00000E+00         0.00000E+00        -0.15043E+08
 
   -0.15099E+08         0.22163E+06         0.00000E+00
    0.22163E+06        -0.19917E+07         0.00000E+00
    0.00000E+00         0.00000E+00        -0.14965E+08
 
   -0.15041E+08         0.20856E+06         0.00000E+00
    0.20856E+06        -0.19965E+07         0.00000E+00
    0.00000E+00         0.00000E+00        -0.14886E+08
 
   -0.14986E+08         0.19373E+06         0.00000E+00
    0.19373E+06        -0.20016E+07         0.00000E+00
    0.00000E+00         0.00000E+00        -0.14808E+08
 
   -0.14931E+08         0.17706E+06         0.00000E+00
    0.17706E+06        -0.20070E+07         0.00000E+00
    0.00000E+00         0.00000E+00        -0.14729E+08
 
   -0.14879E+08         0.15852E+06         0.00000E+00
    0.15852E+06        -0.20125E+07         0.00000E+00
    0.00000E+00         0.00000E+00        -0.14651E+08
 
   -0.14829E+08         0.13816E+06         0.00000E+00
    0.13816E+06        -0.20178E+07         0.00000E+00
    0.00000E+00         0.00000E+00        -0.14572E+08
 
   -0.14781E+08         0.11613E+06         0.00000E+00
    0.11613E+06        -0.20226E+07         0.00000E+00
    0.00000E+00         0.00000E+00        -0.14494E+08
 
   -0.14735E+08         0.92771E+05         0.00000E+00
    0.92771E+05        -0.20263E+07         0.00000E+00
    0.00000E+00         0.00000E+00        -0.14416E+08
 
   -0.14691E+08         0.68644E+05         0.00000E+00
    0.68644E+05        -0.20281E+07         0.00000E+00
    0.00000E+00         0.00000E+00        -0.14337E+08
 
   -0.14650E+08         0.44651E+05         0.00000E+00
    0.44651E+05        -0.20271E+07         0.00000E+00
    0.00000E+00         0.00000E+00        -0.14258E+08
 
   -0.14611E+08         0.22112E+05         0.00000E+00
    0.22112E+05        -0.20218E+07         0.00000E+00
    0.00000E+00         0.00000E+00        -0.14179E+08
 
   -0.14576E+08         0.28313E+04         0.00000E+00
    0.28313E+04        -0.20104E+07         0.00000E+00
    0.00000E+00         0.00000E+00        -0.14098E+08
 
   -0.14544E+08        -0.10999E+05         0.00000E+00
   -0.10999E+05        -0.19902E+07         0.00000E+00
    0.00000E+00         0.00000E+00        -0.14015E+08
 
   -0.14517E+08        -0.17288E+05         0.00000E+00
   -0.17288E+05        -0.19577E+07         0.00000E+00
    0.00000E+00         0.00000E+00        -0.13930E+08
 
   -0.14497E+08        -0.15109E+05         0.00000E+00
   -0.15109E+05        -0.19083E+07         0.00000E+00
    0.00000E+00         0.00000E+00        -0.13842E+08
 
   -0.14487E+08        -0.59502E+04         0.00000E+00
   -0.59502E+04        -0.18370E+07         0.00000E+00
    0.00000E+00         0.00000E+00        -0.13750E+08
 
   -0.18553E+08        -0.41827E+03         0.00000E+00
   -0.41827E+03        -0.19808E+07         0.00000E+00
    0.00000E+00         0.00000E+00        -0.18752E+08
 
   -0.18550E+08        -0.61794E+03         0.00000E+00
   -0.61794E+03        -0.19657E+07         0.00000E+00
    0.00000E+00         0.00000E+00        -0.18732E+08
 
   -0.18545E+08         0.79077E+03         0.00000E+00
    0.79077E+03        -0.19554E+07         0.00000E+00
    0.00000E+00         0.00000E+00        -0.18713E+08
 
   -0.18538E+08         0.41258E+04         0.00000E+00
    0.41258E+04        -0.19488E+07         0.00000E+00
    0.00000E+00         0.00000E+00        -0.18695E+08
 
   -0.18530E+08         0.91518E+04         0.00000E+00
    0.91518E+04        -0.19448E+07         0.00000E+00
    0.00000E+00         0.00000E+00        -0.18676E+08
 
   -0.18521E+08         0.15388E+05         0.00000E+00
    0.15388E+05        -0.19426E+07         0.00000E+00
    0.00000E+00         0.00000E+00        -0.18658E+08
 
   -0.18511E+08         0.22349E+05         0.00000E+00
    0.22349E+05        -0.19415E+07         0.00000E+00
    0.00000E+00         0.00000E+00        -0.18640E+08
 
   -0.18499E+08         0.29644E+05         0.00000E+00
    0.29644E+05        -0.19413E+07         0.00000E+00
    0.00000E+00         0.00000E+00        -0.18621E+08
 
   -0.18487E+08         0.36994E+05         0.00000E+00
    0.36994E+05        -0.19417E+07         0.00000E+00
    0.00000E+00         0.00000E+00        -0.18603E+08
 
   -0.18474E+08         0.44211E+05         0.00000E+00
    0.44211E+05        -0.19424E+07         0.00000E+00
    0.00000E+00         0.00000E+00        -0.18584E+08
 
   -0.18459E+08         0.51179E+05         0.00000E+00
    0.51179E+05        -0.19433E+07         0.00000E+00
    0.00000E+00         0.00000E+00        -0.18564E+08
 
   -0.18444E+08         0.57834E+05         0.00000E+00
    0.57834E+05        -0.19443E+07         0.00000E+00
    0.00000E+00         0.00000E+00        -0.18544E+08
 
   -0.18427E+08         0.64149E+05         0.00000E+00
    0.64149E+05        -0.19453E+07         0.00000E+00
    0.00000E+00         0.00000E+00        -0.18524E+08
 
   -0.18410E+08         0.70121E+05         0.00000E+00
    0.70121E+05        -0.19463E+07         0.00000E+00
    0.00000E+00         0.00000E+00        -0.18503E+08
 
   -0.18392E+08         0.75761E+05         0.00000E+00
    0.75761E+05        -0.19472E+07         0.00000E+00
    0.00000E+00         0.00000E+00        -0.18482E+08
 
   -0.18372E+08         0.81094E+05         0.00000E+00
    0.81094E+05        -0.19480E+07         0.00000E+00
    0.00000E+00         0.00000E+00        -0.18460E+08
 
   -0.18352E+08         0.86148E+05         0.00000E+00
    0.86148E+05        -0.19487E+07         0.00000E+00
    0.00000E+00         0.00000E+00        -0.18437E+08
 
   -0.18331E+08         0.90952E+05         0.00000E+00
    0.90952E+05        -0.19494E+07         0.00000E+00
    0.00000E+00         0.00000E+00        -0.18414E+08
 
   -0.18309E+08         0.95538E+05         0.00000E+00
    0.95538E+05        -0.19499E+07         0.00000E+00
    0.00000E+00         0.00000E+00        -0.18390E+08
 
   -0.18286E+08         0.99935E+05         0.00000E+00
    0.99935E+05        -0.19504E+07         0.00000E+00
    0.00000E+00         0.00000E+00        -0.18366E+08
 
   -0.18263E+08         0.10417E+06         0.00000E+00
    0.10417E+06        -0.19507E+07         0.00000E+00
    0.00000E+00         0.00000E+00        -0.18341E+08
 
   -0.18238E+08         0.10827E+06         0.00000E+00
    0.10827E+06        -0.19511E+07         0.00000E+00
    0.00000E+00         0.00000E+00        -0.18316E+08
 
   -0.18212E+08         0.11226E+06         0.00000E+00
    0.11226E+06        -0.19513E+07         0.00000E+00
    0.00000E+00         0.00000E+00        -0.18290E+08
 
   -0.18186E+08         0.11615E+06         0.00000E+00
    0.11615E+06        -0.19515E+07         0.00000E+00
    0.00000E+00         0.00000E+00        -0.18263E+08
 
   -0.18159E+08         0.11998E+06         0.00000E+00
    0.11998E+06        -0.19517E+07         0.00000E+00
    0.00000E+00         0.00000E+00        -0.18236E+08
 
   -0.18131E+08         0.12374E+06         0.00000E+00
    0.12374E+06        -0.19518E+07         0.00000E+00
    0.00000E+00         0.00000E+00        -0.18208E+08
 
   -0.18102E+08         0.12745E+06         0.00000E+00
    0.12745E+06        -0.19519E+07         0.00000E+00
    0.00000E+00         0.00000E+00        -0.18179E+08
 
   -0.18072E+08         0.13114E+06         0.00000E+00
    0.13114E+06        -0.19520E+07         0.00000E+00
    0.00000E+00         0.00000E+00        -0.18150E+08
 
   -0.18042E+08         0.13480E+06         0.00000E+00
    0.13480E+06        -0.19520E+07         0.00000E+00
    0.00000E+00         0.00000E+00        -0.18120E+08
 
   -0.18011E+08         0.13844E+06         0.00000E+00
    0.13844E+06        -0.19521E+07         0.00000E+00
    0.00000E+00         0.00000E+00        -0.18089E+08
 
   -0.17978E+08         0.14208E+06         0.00000E+00
    0.14208E+06        -0.19521E+07         0.00000E+00
    0.00000E+00         0.00000E+00        -0.18057E+08
 
   -0.17945E+08         0.14571E+06         0.00000E+00
    0.14571E+06        -0.19521E+07         0.00000E+00
    0.00000E+00         0.00000E+00        -0.18025E+08
 
   -0.17912E+08         0.14935E+06         0.00000E+00
    0.14935E+06        -0.19521E+07         0.00000E+00
    0.00000E+00         0.00000E+00        -0.17992E+08
 
   -0.17877E+08         0.15299E+06         0.00000E+00
    0.15299E+06        -0.19521E+07         0.00000E+00
    0.00000E+00         0.00000E+00        -0.17958E+08
 
   -0.17841E+08         0.15665E+06         0.00000E+00
    0.15665E+06        -0.19520E+07         0.00000E+00
    0.00000E+00         0.00000E+00        -0.17923E+08
 
   -0.17805E+08         0.16032E+06         0.00000E+00
    0.16032E+06        -0.19520E+07         0.00000E+00
    0.00000E+00         0.00000E+00        -0.17888E+08
 
   -0.17768E+08         0.16401E+06         0.00000E+00
    0.16401E+06        -0.19520E+07         0.00000E+00
    0.00000E+00         0.00000E+00        -0.17852E+08
 
   -0.17730E+08         0.16771E+06         0.00000E+00
    0.16771E+06        -0.19520E+07         0.00000E+00
    0.00000E+00         0.00000E+00        -0.17815E+08
 
   -0.17691E+08         0.17143E+06         0.00000E+00
    0.17143E+06        -0.19519E+07         0.00000E+00
    0.00000E+00         0.00000E+00        -0.17777E+08
 
   -0.17651E+08         0.17517E+06         0.00000E+00
    0.17517E+06        -0.19519E+07         0.00000E+00
    0.00000E+00         0.00000E+00        -0.17738E+08
 
   -0.17610E+08         0.17892E+06         0.00000E+00
    0.17892E+06        -0.19519E+07         0.00000E+00
    0.00000E+00         0.00000E+00        -0.17698E+08
 
   -0.17569E+08         0.18269E+06         0.00000E+00
    0.18269E+06        -0.19518E+07         0.00000E+00
    0.00000E+00         0.00000E+00        -0.17657E+08
 
   -0.17526E+08         0.18647E+06         0.00000E+00
    0.18647E+06        -0.19518E+07         0.00000E+00
    0.00000E+00         0.00000E+00        -0.17615E+08
 
   -0.17483E+08         0.19027E+06         0.00000E+00
    0.19027E+06        -0.19518E+07         0.00000E+00
    0.00000E+00         0.00000E+00        -0.17573E+08
 
   -0.17439E+08         0.19407E+06         0.00000E+00
    0.19407E+06        -0.19518E+07         0.00000E+00
    0.00000E+00         0.00000E+00        -0.17529E+08
 
   -0.17394E+08         0.19788E+06         0.00000E+00
    0.19788E+06        -0.19518E+07         0.00000E+00
    0.00000E+00         0.00000E+00        -0.17485E+08
 
   -0.17347E+08         0.20168E+06         0.00000E+00
    0.20168E+06        -0.19518E+07         0.00000E+00
    0.00000E+00         0.00000E+00        -0.17439E+08
 
   -0.17300E+08         0.20549E+06         0.00000E+00
    0.20549E+06        -0.19518E+07         0.00000E+00
    0.00000E+00         0.00000E+00        -0.17392E+08
 
   -0.17253E+08         0.20928E+06         0.00000E+00
    0.20928E+06        -0.19519E+07         0.00000E+00
    0.00000E+00         0.00000E+00        -0.17345E+08
 
   -0.17204E+08         0.21306E+06         0.00000E+00
    0.21306E+06        -0.19519E+07         0.00000E+00
    0.00000E+00         0.00000E+00        -0.17296E+08
 
   -0.17154E+08         0.21682E+06         0.00000E+00
    0.21682E+06        -0.19520E+07         0.00000E+00
    0.00000E+00         0.00000E+00        -0.17247E+08
 
   -0.17103E+08         0.22055E+06         0.00000E+00
    0.22055E+06        -0.19520E+07         0.00000E+00
    0.00000E+00         0.00000E+00        -0.17196E+08
 
   -0.17052E+08         0.22425E+06         0.00000E+00
    0.22425E+06        -0.19521E+07         0.00000E+00
    0.00000E+00         0.00000E+00        -0.17144E+08
 
   -0.16999E+08         0.22790E+06         0.00000E+00
    0.22790E+06        -0.19523E+07         0.00000E+00
    0.00000E+00         0.00000E+00        -0.17091E+08
 
   -0.16946E+08         0.23149E+06         0.00000E+00
    0.23149E+06        -0.19524E+07         0.00000E+00
    0.00000E+00         0.00000E+00        -0.17037E+08
 
   -0.16891E+08         0.23503E+06         0.00000E+00
    0.23503E+06        -0.19525E+07         0.00000E+00
    0.00000E+00         0.00000E+00        -0.16982E+08
 
   -0.16836E+08         0.23849E+06         0.00000E+00
    0.23849E+06        -0.19527E+07         0.00000E+00
    0.00000E+00         0.00000E+00        -0.16926E+08
 
   -0.16780E+08         0.24186E+06         0.00000E+00
    0.24186E+06        -0.19529E+07         0.00000E+00
    0.00000E+00         0.00000E+00        -0.16869E+08
 
   -0.16723E+08         0.24513E+06         0.00000E+00
    0.24513E+06        -0.19532E+07         0.00000E+00
    0.00000E+00         0.00000E+00        -0.16810E+08
 
   -0.16666E+08         0.24830E+06         0.00000E+00
    0.24830E+06        -0.19534E+07         0.00000E+00
    0.00000E+00         0.00000E+00        -0.16751E+08
 
   -0.16607E+08         0.25133E+06         0.00000E+00
    0.25133E+06        -0.19537E+07         0.00000E+00
    0.00000E+00         0.00000E+00        -0.16690E+08
 
   -0.16548E+08         0.25423E+06         0.00000E+00
    0.25423E+06        -0.19541E+07         0.00000E+00
    0.00000E+00         0.00000E+00        -0.16629E+08
 
   -0.16488E+08         0.25696E+06         0.00000E+00
    0.25696E+06        -0.19545E+07         0.00000E+00
    0.00000E+00         0.00000E+00        -0.16566E+08
 
   -0.16427E+08         0.25951E+06         0.00000E+00
    0.25951E+06        -0.19549E+07         0.00000E+00
    0.00000E+00         0.00000E+00        -0.16502E+08
 
   -0.16366E+08         0.26187E+06         0.00000E+00
    0.26187E+06        -0.19553E+07         0.00000E+00
    0.00000E+00         0.00000E+00        -0.16438E+08
 
   -0.16304E+08         0.26401E+06         0.00000E+00
    0.26401E+06        -0.19559E+07         0.00000E+00
    0.00000E+00         0.00000E+00        -0.16372E+08
 
   -0.16241E+08         0.26590E+06         0.00000E+00
    0.26590E+06        -0.19564E+07         0.00000E+00
    0.00000E+00         0.00000E+00        -0.16305E+08
 
   -0.16178E+08         0.26753E+06         0.00000E+00
    0.26753E+06        -0.19571E+07         0.00000E+00
    0.00000E+00         0.00000E+00        -0.16237E+08
 
   -0.16114E+08         0.26886E+06         0.00000E+00
    0.26886E+06        -0.19577E+07         0.00000E+00
    0.00000E+00         0.00000E+00        -0.16168E+08
 
   -0.16050E+08         0.26986E+06         0.00000E+00
    0.26986E+06        -0.19585E+07         0.00000E+00
    0.00000E+00         0.00000E+00        -0.16098E+08
 
   -0.15985E+08         0.27050E+06         0.00000E+00
    0.27050E+06        -0.19593E+07         0.00000E+00
    0.00000E+00         0.00000E+00        -0.16027E+08
 
   -0.15921E+08         0.27075E+06         0.00000E+00
    0.27075E+06        -0.19603E+07         0.00000E+00
    0.00000E+00         0.00000E+00        -0.15956E+08
 
   -0.15856E+08         0.27055E+06         0.00000E+00
    0.27055E+06        -0.19613E+07         0.00000E+00
    0.00000E+00         0.00000E+00        -0.15883E+08
 
   -0.15791E+08         0.26987E+06         0.00000E+00
    0.26987E+06        -0.19625E+07         0.00000E+00
    0.00000E+00         0.00000E+00        -0.15810E+08
 
   -0.15726E+08         0.26865E+06         0.00000E+00
    0.26865E+06        -0.19637E+07         0.00000E+00
    0.00000E+00         0.00000E+00        -0.15736E+08
 
   -0.15661E+08         0.26683E+06         0.00000E+00
    0.26683E+06        -0.19652E+07         0.00000E+00
    0.00000E+00         0.00000E+00        -0.15661E+08
 
   -0.15596E+08         0.26436E+06         0.00000E+00
    0.26436E+06        -0.19668E+07         0.00000E+00
    0.00000E+00         0.00000E+00        -0.15585E+08
 
   -0.15532E+08         0.26115E+06         0.00000E+00
    0.26115E+06        -0.19686E+07         0.00000E+00
    0.00000E+00         0.00000E+00        -0.15509E+08
 
   -0.15468E+08         0.25713E+06         0.00000E+00
    0.25713E+06        -0.19706E+07         0.00000E+00
    0.00000E+00         0.00000E+00        -0.15432E+08
 
   -0.15405E+08         0.25220E+06         0.00000E+00
    0.25220E+06        -0.19729E+07         0.00000E+00
    0.00000E+00         0.00000E+00        -0.15355E+08
 
   -0.15342E+08         0.24626E+06         0.00000E+00
    0.24626E+06        -0.19754E+07         0.00000E+00
    0.00000E+00         0.00000E+00        -0.15278E+08
 
   -0.15281E+08         0.23920E+06         0.00000E+00
    0.23920E+06        -0.19783E+07         0.00000E+00
    0.00000E+00         0.00000E+00        -0.15200E+08
 
   -0.15220E+08         0.23091E+06         0.00000E+00
    0.23091E+06        -0.19816E+07         0.00000E+00
    0.00000E+00         0.00000E+00        -0.15122E+08
 
   -0.15161E+08         0.22125E+06         0.00000E+00
    0.22125E+06        -0.19852E+07         0.00000E+00
    0.00000E+00         0.00000E+00        -0.15043E+08
 
   -0.15103E+08         0.21011E+06         0.00000E+00
    0.21011E+06        -0.19893E+07         0.00000E+00
    0.00000E+00         0.00000E+00        -0.14965E+08
 
   -0.15047E+08         0.19734E+06         0.00000E+00
    0.19734E+06        -0.19937E+07         0.00000E+00
    0.00000E+00         0.00000E+00        -0.14887E+08
 
   -0.14992E+08         0.18285E+06         0.00000E+00
    0.18285E+06        -0.19985E+07         0.00000E+00
    0.00000E+00         0.00000E+00        -0.14808E+08
 
   -0.14939E+08         0.16655E+06         0.00000E+00
    0.16655E+06        -0.20035E+07         0.00000E+00
    0.00000E+00         0.00000E+00        -0.14730E+08
 
   -0.14888E+08         0.14841E+06         0.00000E+00
    0.14841E+06        -0.20086E+07         0.00000E+00
    0.00000E+00         0.00000E+00        -0.14652E+08
 
   -0.14839E+08         0.12846E+06         0.00000E+00
    0.12846E+06        -0.20136E+07         0.00000E+00
    0.00000E+00         0.00000E+00        -0.14574E+08
 
   -0.14793E+08         0.10688E+06         0.00000E+00
    0.10688E+06        -0.20181E+07         0.00000E+00
    0.00000E+00         0.00000E+00        -0.14496E+08
 
   -0.14749E+08         0.83983E+05         0.00000E+00
    0.83983E+05        -0.20216E+07         0.00000E+00
    0.00000E+00         0.00000E+00        -0.14419E+08
 
   -0.14707E+08         0.60351E+05         0.00000E+00
    0.60351E+05        -0.20233E+07         0.00000E+00
    0.00000E+00         0.00000E+00        -0.14341E+08
 
   -0.14668E+08         0.36881E+05         0.00000E+00
    0.36881E+05        -0.20224E+07         0.00000E+00
    0.00000E+00         0.00000E+00        -0.14262E+08
 
   -0.14632E+08         0.14906E+05         0.00000E+00
    0.14906E+05        -0.20176E+07         0.00000E+00
    0.00000E+00         0.00000E+00        -0.14184E+08
 
   -0.14599E+08        -0.37383E+04         0.00000E+00
   -0.37383E+04        -0.20070E+07         0.00000E+00
    0.00000E+00         0.00000E+00        -0.14104E+08
 
   -0.14569E+08        -0.16780E+05         0.00000E+00
   -0.16780E+05        -0.19882E+07         0.00000E+00
    0.00000E+00         0.00000E+00        -0.14022E+08
 
   -0.14543E+08        -0.21983E+05         0.00000E+00
   -0.21983E+05        -0.19575E+07         0.00000E+00
    0.00000E+00         0.00000E+00        -0.13938E+08
 
   -0.14524E+08        -0.18254E+05         0.00000E+00
   -0.18254E+05        -0.19097E+07         0.00000E+00
    0.00000E+00         0.00000E+00        -0.13851E+08
 
   -0.14513E+08        -0.70687E+04         0.00000E+00
   -0.70687E+04        -0.18396E+07         0.00000E+00
    0.00000E+00         0.00000E+00        -0.13759E+08
 
   -0.18546E+08        -0.69692E+03         0.00000E+00
   -0.69692E+03        -0.19806E+07         0.00000E+00
    0.00000E+00         0.00000E+00        -0.18750E+08
 
   -0.18543E+08        -0.14027E+04         0.00000E+00
   -0.14027E+04        -0.19657E+07         0.00000E+00
    0.00000E+00         0.00000E+00        -0.18730E+08
 
   -0.18538E+08        -0.38725E+03         0.00000E+00
   -0.38725E+03        -0.19559E+07         0.00000E+00
    0.00000E+00         0.00000E+00        -0.18711E+08
 
   -0.18532E+08         0.26562E+04         0.00000E+00
    0.26562E+04        -0.19496E+07         0.00000E+00
    0.00000E+00         0.00000E+00        -0.18693E+08
 
   -0.18524E+08         0.74473E+04         0.00000E+00
    0.74473E+04        -0.19459E+07         0.00000E+00
    0.00000E+00         0.00000E+00        -0.18675E+08
 
   -0.18515E+08         0.13470E+05         0.00000E+00
    0.13470E+05        -0.19439E+07         0.00000E+00
    0.00000E+00         0.00000E+00        -0.18657E+08
 
   -0.18505E+08         0.20223E+05         0.00000E+00
    0.20223E+05        -0.19429E+07         0.00000E+00
    0.00000E+00         0.00000E+00        -0.18639E+08
 
   -0.18494E+08         0.27310E+05         0.00000E+00
    0.27310E+05        -0.19428E+07         0.00000E+00
    0.00000E+00         0.00000E+00        -0.18620E+08
 
   -0.18482E+08         0.34453E+05         0.00000E+00
    0.34453E+05        -0.19431E+07         0.00000E+00
    0.00000E+00         0.00000E+00        -0.18602E+08
 
   -0.18469E+08         0.41463E+05         0.00000E+00
    0.41463E+05        -0.19438E+07         0.00000E+00
    0.00000E+00         0.00000E+00        -0.18583E+08
 
   -0.18455E+08         0.48227E+05         0.00000E+00
    0.48227E+05        -0.19447E+07         0.00000E+00
    0.00000E+00         0.00000E+00        -0.18563E+08
 
   -0.18440E+08         0.54681E+05         0.00000E+00
    0.54681E+05        -0.19456E+07         0.00000E+00
    0.00000E+00         0.00000E+00        -0.18543E+08
 
   -0.18424E+08         0.60796E+05         0.00000E+00
    0.60796E+05        -0.19465E+07         0.00000E+00
    0.00000E+00         0.00000E+00        -0.18523E+08
 
   -0.18407E+08         0.66571E+05         0.00000E+00
    0.66571E+05        -0.19474E+07         0.00000E+00
    0.00000E+00         0.00000E+00        -0.18502E+08
 
   -0.18389E+08         0.72018E+05         0.00000E+00
    0.72018E+05        -0.19483E+07         0.00000E+00
    0.00000E+00         0.00000E+00        -0.18481E+08
 
   -0.18369E+08         0.77161E+05         0.00000E+00
    0.77161E+05        -0.19490E+07         0.00000E+00
    0.00000E+00         0.00000E+00        -0.18459E+08
 
   -0.18349E+08         0.82027E+05         0.00000E+00
    0.82027E+05        -0.19497E+07         0.00000E+00
    0.00000E+00         0.00000E+00        -0.18437E+08
 
   -0.18328E+08         0.86647E+05         0.00000E+00
    0.86647E+05        -0.19503E+07         0.00000E+00
    0.00000E+00         0.00000E+00        -0.18414E+08
 
   -0.18306E+08         0.91052E+05         0.00000E+00
    0.91052E+05        -0.19508E+07         0.00000E+00
    0.00000E+00         0.00000E+00        -0.18390E+08
 
   -0.18284E+08         0.95271E+05         0.00000E+00
    0.95271E+05        -0.19512E+07         0.00000E+00
    0.00000E+00         0.00000E+00        -0.18366E+08
 
   -0.18260E+08         0.99332E+05         0.00000E+00
    0.99332E+05        -0.19516E+07         0.00000E+00
    0.00000E+00         0.00000E+00        -0.18341E+08
 
   -0.18235E+08         0.10326E+06         0.00000E+00
    0.10326E+06        -0.19518E+07         0.00000E+00
    0.00000E+00         0.00000E+00        -0.18315E+08
 
   -0.18210E+08         0.10708E+06         0.00000E+00
    0.10708E+06        -0.19521E+07         0.00000E+00
    0.00000E+00         0.00000E+00        -0.18289E+08
 
   -0.18183E+08         0.11080E+06         0.00000E+00
    0.11080E+06        -0.19523E+07         0.00000E+00
    0.00000E+00         0.00000E+00        -0.18263E+08
 
   -0.18156E+08         0.11445E+06         0.00000E+00
    0.11445E+06        -0.19524E+07         0.00000E+00
    0.00000E+00         0.00000E+00        -0.18235E+08
 
   -0.18128E+08         0.11805E+06         0.00000E+00
    0.11805E+06        -0.19525E+07         0.00000E+00
    0.00000E+00         0.00000E+00        -0.18207E+08
 
   -0.18099E+08         0.12160E+06         0.00000E+00
    0.12160E+06        -0.19526E+07         0.00000E+00
    0.00000E+00         0.00000E+00        -0.18178E+08
 
   -0.18070E+08         0.12512E+06         0.00000E+00
    0.12512E+06        -0.19527E+07         0.00000E+00
    0.00000E+00         0.00000E+00        -0.18149E+08
 
   -0.18039E+08         0.12861E+06         0.00000E+00
    0.12861E+06        -0.19528E+07         0.00000E+00
    0.00000E+00         0.00000E+00        -0.18119E+08
 
   -0.18008E+08         0.13209E+06         0.00000E+00
    0.13209E+06        -0.19528E+07         0.00000E+00
    0.00000E+00         0.00000E+00        -0.18088E+08
 
   -0.17975E+08         0.13556E+06         0.00000E+00
    0.13556E+06        -0.19528E+07         0.00000E+00
    0.00000E+00         0.00000E+00        -0.18057E+08
 
   -0.17942E+08         0.13903E+06         0.00000E+00
    0.13903E+06        -0.19528E+07         0.00000E+00
    0.00000E+00         0.00000E+00        -0.18024E+08
 
   -0.17909E+08         0.14250E+06         0.00000E+00
    0.14250E+06        -0.19528E+07         0.00000E+00
    0.00000E+00         0.00000E+00        -0.17991E+08
 
   -0.17874E+08         0.14598E+06         0.00000E+00
    0.14598E+06        -0.19528E+07         0.00000E+00
    0.00000E+00         0.00000E+00        -0.17957E+08
 
   -0.17838E+08         0.14946E+06         0.00000E+00
    0.14946E+06        -0.19528E+07         0.00000E+00
    0.00000E+00         0.00000E+00        -0.17923E+08
 
   -0.17802E+08         0.15296E+06         0.00000E+00
    0.15296E+06        -0.19527E+07         0.00000E+00
    0.00000E+00         0.00000E+00        -0.17887E+08
 
   -0.17765E+08         0.15648E+06         0.00000E+00
    0.15648E+06        -0.19527E+07         0.00000E+00
    0.00000E+00         0.00000E+00        -0.17851E+08
 
   -0.17727E+08         0.16001E+06         0.00000E+00
    0.16001E+06        -0.19527E+07         0.00000E+00
    0.00000E+00         0.00000E+00        -0.17814E+08
 
   -0.17688E+08         0.16355E+06         0.00000E+00
    0.16355E+06        -0.19527E+07         0.00000E+00
    0.00000E+00         0.00000E+00        -0.17776E+08
 
   -0.17648E+08         0.16712E+06         0.00000E+00
    0.16712E+06        -0.19526E+07         0.00000E+00
    0.00000E+00         0.00000E+00        -0.17737E+08
 
   -0.17607E+08         0.17069E+06         0.00000E+00
    0.17069E+06        -0.19526E+07         0.00000E+00
    0.00000E+00         0.00000E+00        -0.17697E+08
 
   -0.17565E+08         0.17428E+06         0.00000E+00
    0.17428E+06        -0.19526E+07         0.00000E+00
    0.00000E+00         0.00000E+00        -0.17656E+08
 
   -0.17523E+08         0.17789E+06         0.00000E+00
    0.17789E+06        -0.19526E+07         0.00000E+00
    0.00000E+00         0.00000E+00        -0.17615E+08
 
   -0.17480E+08         0.18150E+06         0.00000E+00
    0.18150E+06        -0.19525E+07         0.00000E+00
    0.00000E+00         0.00000E+00        -0.17572E+08
 
   -0.17435E+08         0.18512E+06         0.00000E+00
    0.18512E+06        -0.19525E+07         0.00000E+00
    0.00000E+00         0.00000E+00        -0.17528E+08
 
   -0.17390E+08         0.18875E+06         0.00000E+00
    0.18875E+06        -0.19525E+07         0.00000E+00
    0.00000E+00         0.00000E+00        -0.17484E+08
 
   -0.17344E+08         0.19237E+06         0.00000E+00
    0.19237E+06        -0.19525E+07         0.00000E+00
    0.00000E+00         0.00000E+00        -0.17438E+08
 
   -0.17297E+08         0.19599E+06         0.00000E+00
    0.19599E+06        -0.19526E+07         0.00000E+00
    0.00000E+00         0.00000E+00        -0.17392E+08
 
   -0.17249E+08         0.19960E+06         0.00000E+00
    0.19960E+06        -0.19526E+07         0.00000E+00
    0.00000E+00         0.00000E+00        -0.17344E+08
 
   -0.17200E+08         0.20320E+06         0.00000E+00
    0.20320E+06        -0.19526E+07         0.00000E+00
    0.00000E+00         0.00000E+00        -0.17295E+08
 
   -0.17150E+08         0.20677E+06         0.00000E+00
    0.20677E+06        -0.19527E+07         0.00000E+00
    0.00000E+00         0.00000E+00        -0.17246E+08
 
   -0.17100E+08         0.21032E+06         0.00000E+00
    0.21032E+06        -0.19528E+07         0.00000E+00
    0.00000E+00         0.00000E+00        -0.17195E+08
 
   -0.17048E+08         0.21384E+06         0.00000E+00
    0.21384E+06        -0.19529E+07         0.00000E+00
    0.00000E+00         0.00000E+00        -0.17143E+08
 
   -0.16996E+08         0.21731E+06         0.00000E+00
    0.21731E+06        -0.19530E+07         0.00000E+00
    0.00000E+00         0.00000E+00        -0.17090E+08
 
   -0.16942E+08         0.22073E+06         0.00000E+00
    0.22073E+06        -0.19531E+07         0.00000E+00
    0.00000E+00         0.00000E+00        -0.17036E+08
 
   -0.16888E+08         0.22408E+06         0.00000E+00
    0.22408E+06        -0.19532E+07         0.00000E+00
    0.00000E+00         0.00000E+00        -0.16981E+08
 
   -0.16833E+08         0.22737E+06         0.00000E+00
    0.22737E+06        -0.19534E+07         0.00000E+00
    0.00000E+00         0.00000E+00        -0.16925E+08
 
   -0.16777E+08         0.23057E+06         0.00000E+00
    0.23057E+06        -0.19536E+07         0.00000E+00
    0.00000E+00         0.00000E+00        -0.16868E+08
 
   -0.16720E+08         0.23368E+06         0.00000E+00
    0.23368E+06        -0.19538E+07         0.00000E+00
    0.00000E+00         0.00000E+00        -0.16810E+08
 
   -0.16662E+08         0.23668E+06         0.00000E+00
    0.23668E+06        -0.19540E+07         0.00000E+00
    0.00000E+00         0.00000E+00        -0.16750E+08
 
   -0.16604E+08         0.23956E+06         0.00000E+00
    0.23956E+06        -0.19543E+07         0.00000E+00
    0.00000E+00         0.00000E+00        -0.16690E+08
 
   -0.16545E+08         0.24230E+06         0.00000E+00
    0.24230E+06        -0.19546E+07         0.00000E+00
    0.00000E+00         0.00000E+00        -0.16628E+08
 
   -0.16485E+08         0.24489E+06         0.00000E+00
    0.24489E+06        -0.19550E+07         0.00000E+00
    0.00000E+00         0.00000E+00        -0.16565E+08
 
   -0.16424E+08         0.24730E+06         0.00000E+00
    0.24730E+06        -0.19554E+07         0.00000E+00
    0.00000E+00         0.00000E+00        -0.16502E+08
 
   -0.16363E+08         0.24953E+06         0.00000E+00
    0.24953E+06        -0.19558E+07         0.00000E+00
    0.00000E+00         0.00000E+00        -0.16437E+08
 
   -0.16301E+08         0.25154E+06         0.00000E+00
    0.25154E+06        -0.19563E+07         0.00000E+00
    0.00000E+00         0.00000E+00        -0.16371E+08
 
   -0.16238E+08         0.25333E+06         0.00000E+00
    0.25333E+06        -0.19568E+07         0.00000E+00
    0.00000E+00         0.00000E+00        -0.16304E+08
 
   -0.16175E+08         0.25485E+06         0.00000E+00
    0.25485E+06        -0.19573E+07         0.00000E+00
    0.00000E+00         0.00000E+00        -0.16236E+08
 
   -0.16111E+08         0.25609E+06         0.00000E+00
    0.25609E+06        -0.19580E+07         0.00000E+00
    0.00000E+00         0.00000E+00        -0.16167E+08
 
   -0.16048E+08         0.25702E+06         0.00000E+00
    0.25702E+06        -0.19587E+07         0.00000E+00
    0.00000E+00         0.00000E+00        -0.16098E+08
 
   -0.15983E+08         0.25760E+06         0.00000E+00
    0.25760E+06        -0.19594E+07         0.00000E+00
    0.00000E+00         0.00000E+00        -0.16027E+08
 
   -0.15919E+08         0.25780E+06         0.00000E+00
    0.25780E+06        -0.19603E+07         0.00000E+00
    0.00000E+00         0.00000E+00        -0.15955E+08
 
   -0.15854E+08         0.25758E+06         0.00000E+00
    0.25758E+06        -0.19612E+07         0.00000E+00
    0.00000E+00         0.00000E+00        -0.15883E+08
 
   -0.15789E+08         0.25689E+06         0.00000E+00
    0.25689E+06        -0.19623E+07         0.00000E+00
    0.00000E+00         0.00000E+00        -0.15809E+08
 
   -0.15725E+08         0.25568E+06         0.00000E+00
    0.25568E+06        -0.19634E+07         0.00000E+00
    0.00000E+00         0.00000E+00        -0.15735E+08
 
   -0.15660E+08         0.25390E+06         0.00000E+00
    0.25390E+06        -0.19647E+07         0.00000E+00
    0.00000E+00         0.00000E+00        -0.15660E+08
 
   -0.15596E+08         0.25149E+06         0.00000E+00
    0.25149E+06        -0.19662E+07         0.00000E+00
    0.00000E+00         0.00000E+00        -0.15585E+08
 
   -0.15532E+08         0.24837E+06         0.00000E+00
    0.24837E+06        -0.19679E+07         0.00000E+00
    0.00000E+00         0.00000E+00        -0.15509E+08
 
   -0.15468E+08         0.24446E+06         0.00000E+00
    0.24446E+06        -0.19697E+07         0.00000E+00
    0.00000E+00         0.00000E+00        -0.15432E+08
 
   -0.15405E+08         0.23967E+06         0.00000E+00
    0.23967E+06        -0.19718E+07         0.00000E+00
    0.00000E+00         0.00000E+00        -0.15355E+08
 
   -0.15344E+08         0.23390E+06         0.00000E+00
    0.23390E+06        -0.19742E+07         0.00000E+00
    0.00000E+00         0.00000E+00        -0.15278E+08
 
   -0.15283E+08         0.22705E+06         0.00000E+00
    0.22705E+06        -0.19768E+07         0.00000E+00
    0.00000E+00         0.00000E+00        -0.15200E+08
 
   -0.15223E+08         0.21900E+06         0.00000E+00
    0.21900E+06        -0.19798E+07         0.00000E+00
    0.00000E+00         0.00000E+00        -0.15122E+08
 
   -0.15164E+08         0.20961E+06         0.00000E+00
    0.20961E+06        -0.19832E+07         0.00000E+00
    0.00000E+00         0.00000E+00        -0.15044E+08
 
   -0.15107E+08         0.19876E+06         0.00000E+00
    0.19876E+06        -0.19869E+07         0.00000E+00
    0.00000E+00         0.00000E+00        -0.14966E+08
 
   -0.15052E+08         0.18634E+06         0.00000E+00
    0.18634E+06        -0.19910E+07         0.00000E+00
    0.00000E+00         0.00000E+00        -0.14888E+08
 
   -0.14998E+08         0.17221E+06         0.00000E+00
    0.17221E+06        -0.19954E+07         0.00000E+00
    0.00000E+00         0.00000E+00        -0.14809E+08
 
   -0.14946E+08         0.15631E+06         0.00000E+00
    0.15631E+06        -0.20001E+07         0.00000E+00
    0.00000E+00         0.00000E+00        -0.14731E+08
 
   -0.14897E+08         0.13859E+06         0.00000E+00
    0.13859E+06        -0.20048E+07         0.00000E+00
    0.00000E+00         0.00000E+00        -0.14654E+08
 
   -0.14850E+08         0.11910E+06         0.00000E+00
    0.11910E+06        -0.20095E+07         0.00000E+00
    0.00000E+00         0.00000E+00        -0.14576E+08
 
   -0.14805E+08         0.97996E+05         0.00000E+00
    0.97996E+05        -0.20137E+07         0.00000E+00
    0.00000E+00         0.00000E+00        -0.14499E+08
 
   -0.14763E+08         0.75604E+05         0.00000E+00
    0.75604E+05        -0.20169E+07         0.00000E+00
    0.00000E+00         0.00000E+00        -0.14422E+08
 
   -0.14724E+08         0.52493E+05         0.00000E+00
    0.52493E+05        -0.20186E+07         0.00000E+00
    0.00000E+00         0.00000E+00        -0.14344E+08
 
   -0.14687E+08         0.29560E+05         0.00000E+00
    0.29560E+05        -0.20179E+07         0.00000E+00
    0.00000E+00         0.00000E+00        -0.14267E+08
 
   -0.14653E+08         0.81375E+04         0.00000E+00
    0.81375E+04        -0.20135E+07         0.00000E+00
    0.00000E+00         0.00000E+00        -0.14189E+08
 
   -0.14621E+08        -0.99190E+04         0.00000E+00
   -0.99190E+04        -0.20038E+07         0.00000E+00
    0.00000E+00         0.00000E+00        -0.14110E+08
 
   -0.14593E+08        -0.22265E+05         0.00000E+00
   -0.22265E+05        -0.19864E+07         0.00000E+00
    0.00000E+00         0.00000E+00        -0.14029E+08
 
   -0.14569E+08        -0.26501E+05         0.00000E+00
   -0.26501E+05        -0.19574E+07         0.00000E+00
    0.00000E+00         0.00000E+00        -0.13946E+08
 
   -0.14550E+08        -0.21327E+05         0.00000E+00
   -0.21327E+05        -0.19115E+07         0.00000E+00
    0.00000E+00         0.00000E+00        -0.13859E+08
 
   -0.14540E+08        -0.81725E+04         0.00000E+00
   -0.81725E+04        -0.18426E+07         0.00000E+00
    0.00000E+00         0.00000E+00        -0.13768E+08
 
   -0.18539E+08        -0.97363E+03         0.00000E+00
   -0.97363E+03        -0.19803E+07         0.00000E+00
    0.00000E+00         0.00000E+00        -0.18748E+08
 
   -0.18536E+08        -0.21744E+04         0.00000E+00
   -0.21744E+04        -0.19657E+07         0.00000E+00
    0.00000E+00         0.00000E+00        -0.18728E+08
 
   -0.18531E+08        -0.15296E+04         0.00000E+00
   -0.15296E+04        -0.19562E+07         0.00000E+00
    0.00000E+00         0.00000E+00        -0.18709E+08
 
   -0.18525E+08         0.12477E+04         0.00000E+00
    0.12477E+04        -0.19504E+07         0.00000E+00
    0.00000E+00         0.00000E+00        -0.18691E+08
 
   -0.18518E+08         0.58223E+04         0.00000E+00
    0.58223E+04        -0.19470E+07         0.00000E+00
    0.00000E+00         0.00000E+00        -0.18673E+08
 
   -0.18509E+08         0.11640E+05         0.00000E+00
    0.11640E+05        -0.19451E+07         0.00000E+00
    0.00000E+00         0.00000E+00        -0.18655E+08
 
   -0.18500E+08         0.18184E+05         0.00000E+00
    0.18184E+05        -0.19443E+07         0.00000E+00
    0.00000E+00         0.00000E+00        -0.18637E+08
 
   -0.18489E+08         0.25060E+05         0.00000E+00
    0.25060E+05        -0.19442E+07         0.00000E+00
    0.00000E+00         0.00000E+00        -0.18619E+08
 
   -0.18478E+08         0.31987E+05         0.00000E+00
    0.31987E+05        -0.19445E+07         0.00000E+00
    0.00000E+00         0.00000E+00        -0.18601E+08
 
   -0.18465E+08         0.38783E+05         0.00000E+00
    0.38783E+05        -0.19452E+07         0.00000E+00
    0.00000E+00         0.00000E+00        -0.18582E+08
 
   -0.18451E+08         0.45334E+05         0.00000E+00
    0.45334E+05        -0.19460E+07         0.00000E+00
    0.00000E+00         0.00000E+00        -0.18563E+08
 
   -0.18436E+08         0.51576E+05         0.00000E+00
    0.51576E+05        -0.19468E+07         0.00000E+00
    0.00000E+00         0.00000E+00        -0.18543E+08
 
   -0.18421E+08         0.57484E+05         0.00000E+00
    0.57484E+05        -0.19477E+07         0.00000E+00
    0.00000E+00         0.00000E+00        -0.18522E+08
 
   -0.18404E+08         0.63055E+05         0.00000E+00
    0.63055E+05        -0.19485E+07         0.00000E+00
    0.00000E+00         0.00000E+00        -0.18502E+08
 
   -0.18386E+08         0.68302E+05         0.00000E+00
    0.68302E+05        -0.19493E+07         0.00000E+00
    0.00000E+00         0.00000E+00        -0.18480E+08
 
   -0.18367E+08         0.73249E+05         0.00000E+00
    0.73249E+05        -0.19500E+07         0.00000E+00
    0.00000E+00         0.00000E+00        -0.18458E+08
 
   -0.18347E+08         0.77922E+05         0.00000E+00
    0.77922E+05        -0.19506E+07         0.00000E+00
    0.00000E+00         0.00000E+00        -0.18436E+08
 
   -0.18326E+08         0.82354E+05         0.00000E+00
    0.82354E+05        -0.19512E+07         0.00000E+00
    0.00000E+00         0.00000E+00        -0.18413E+08
 
   -0.18304E+08         0.86575E+05         0.00000E+00
    0.86575E+05        -0.19516E+07         0.00000E+00
    0.00000E+00         0.00000E+00        -0.18389E+08
 
   -0.18281E+08         0.90612E+05         0.00000E+00
    0.90612E+05        -0.19520E+07         0.00000E+00
    0.00000E+00         0.00000E+00        -0.18365E+08
 
   -0.18257E+08         0.94495E+05         0.00000E+00
    0.94495E+05        -0.19523E+07         0.00000E+00
    0.00000E+00         0.00000E+00        -0.18340E+08
 
   -0.18232E+08         0.98247E+05         0.00000E+00
    0.98247E+05        -0.19526E+07         0.00000E+00
    0.00000E+00         0.00000E+00        -0.18315E+08
 
   -0.18207E+08         0.10189E+06         0.00000E+00
    0.10189E+06        -0.19528E+07         0.00000E+00
    0.00000E+00         0.00000E+00        -0.18289E+08
 
   -0.18181E+08         0.10545E+06         0.00000E+00
    0.10545E+06        -0.19530E+07         0.00000E+00
    0.00000E+00         0.00000E+00        -0.18262E+08
 
   -0.18153E+08         0.10893E+06         0.00000E+00
    0.10893E+06        -0.19531E+07         0.00000E+00
    0.00000E+00         0.00000E+00        -0.18235E+08
 
   -0.18125E+08         0.11236E+06         0.00000E+00
    0.11236E+06        -0.19532E+07         0.00000E+00
    0.00000E+00         0.00000E+00        -0.18207E+08
 
   -0.18096E+08         0.11574E+06         0.00000E+00
    0.11574E+06        -0.19533E+07         0.00000E+00
    0.00000E+00         0.00000E+00        -0.18178E+08
 
   -0.18067E+08         0.11909E+06         0.00000E+00
    0.11909E+06        -0.19534E+07         0.00000E+00
    0.00000E+00         0.00000E+00        -0.18148E+08
 
   -0.18036E+08         0.12242E+06         0.00000E+00
    0.12242E+06        -0.19534E+07         0.00000E+00
    0.00000E+00         0.00000E+00        -0.18118E+08
 
   -0.18005E+08         0.12573E+06         0.00000E+00
    0.12573E+06        -0.19535E+07         0.00000E+00
    0.00000E+00         0.00000E+00        -0.18088E+08
 
   -0.17973E+08         0.12904E+06         0.00000E+00
    0.12904E+06        -0.19535E+07         0.00000E+00
    0.00000E+00         0.00000E+00        -0.18056E+08
 
   -0.17940E+08         0.13234E+06         0.00000E+00
    0.13234E+06        -0.19535E+07         0.00000E+00
    0.00000E+00         0.00000E+00        -0.18024E+08
 
   -0.17906E+08         0.13564E+06         0.00000E+00
    0.13564E+06        -0.19535E+07         0.00000E+00
    0.00000E+00         0.00000E+00        -0.17991E+08
 
   -0.17871E+08         0.13895E+06         0.00000E+00
    0.13895E+06        -0.19535E+07         0.00000E+00
    0.00000E+00         0.00000E+00        -0.17957E+08
 
   -0.17835E+08         0.14227E+06         0.00000E+00
    0.14227E+06        -0.19534E+07         0.00000E+00
    0.00000E+00         0.00000E+00        -0.17922E+08
 
   -0.17799E+08         0.14560E+06         0.00000E+00
    0.14560E+06        -0.19534E+07         0.00000E+00
    0.00000E+00         0.00000E+00        -0.17887E+08
 
   -0.17762E+08         0.14894E+06         0.00000E+00
    0.14894E+06        -0.19534E+07         0.00000E+00
    0.00000E+00         0.00000E+00        -0.17850E+08
 
   -0.17723E+08         0.15230E+06         0.00000E+00
    0.15230E+06        -0.19534E+07         0.00000E+00
    0.00000E+00         0.00000E+00        -0.17813E+08
 
   -0.17684E+08         0.15567E+06         0.00000E+00
    0.15567E+06        -0.19533E+07         0.00000E+00
    0.00000E+00         0.00000E+00        -0.17775E+08
 
   -0.17645E+08         0.15906E+06         0.00000E+00
    0.15906E+06        -0.19533E+07         0.00000E+00
    0.00000E+00         0.00000E+00        -0.17736E+08
 
   -0.17604E+08         0.16246E+06         0.00000E+00
    0.16246E+06        -0.19533E+07         0.00000E+00
    0.00000E+00         0.00000E+00        -0.17696E+08
 
   -0.17562E+08         0.16587E+06         0.00000E+00
    0.16587E+06        -0.19533E+07         0.00000E+00
    0.00000E+00         0.00000E+00        -0.17656E+08
 
   -0.17520E+08         0.16929E+06         0.00000E+00
    0.16929E+06        -0.19533E+07         0.00000E+00
    0.00000E+00         0.00000E+00        -0.17614E+08
 
   -0.17476E+08         0.17273E+06         0.00000E+00
    0.17273E+06        -0.19532E+07         0.00000E+00
    0.00000E+00         0.00000E+00        -0.17571E+08
 
   -0.17432E+08         0.17617E+06         0.00000E+00
    0.17617E+06        -0.19532E+07         0.00000E+00
    0.00000E+00         0.00000E+00        -0.17528E+08
 
   -0.17387E+08         0.17961E+06         0.00000E+00
    0.17961E+06        -0.19532E+07         0.00000E+00
    0.00000E+00         0.00000E+00        -0.17483E+08
 
   -0.17340E+08         0.18305E+06         0.00000E+00
    0.18305E+06        -0.19533E+07         0.00000E+00
    0.00000E+00         0.00000E+00        -0.17437E+08
 
   -0.17293E+08         0.18649E+06         0.00000E+00
    0.18649E+06        -0.19533E+07         0.00000E+00
    0.00000E+00         0.00000E+00        -0.17391E+08
 
   -0.17245E+08         0.18992E+06         0.00000E+00
    0.18992E+06        -0.19533E+07         0.00000E+00
    0.00000E+00         0.00000E+00        -0.17343E+08
 
   -0.17197E+08         0.19333E+06         0.00000E+00
    0.19333E+06        -0.19533E+07         0.00000E+00
    0.00000E+00         0.00000E+00        -0.17295E+08
 
   -0.17147E+08         0.19673E+06         0.00000E+00
    0.19673E+06        -0.19534E+07         0.00000E+00
    0.00000E+00         0.00000E+00        -0.17245E+08
 
   -0.17096E+08         0.20009E+06         0.00000E+00
    0.20009E+06        -0.19535E+07         0.00000E+00
    0.00000E+00         0.00000E+00        -0.17194E+08
 
   -0.17044E+08         0.20343E+06         0.00000E+00
    0.20343E+06        -0.19535E+07         0.00000E+00
    0.00000E+00         0.00000E+00        -0.17142E+08
 
   -0.16992E+08         0.20672E+06         0.00000E+00
    0.20672E+06        -0.19536E+07         0.00000E+00
    0.00000E+00         0.00000E+00        -0.17089E+08
 
   -0.16939E+08         0.20996E+06         0.00000E+00
    0.20996E+06        -0.19537E+07         0.00000E+00
    0.00000E+00         0.00000E+00        -0.17035E+08
 
   -0.16884E+08         0.21314E+06         0.00000E+00
    0.21314E+06        -0.19539E+07         0.00000E+00
    0.00000E+00         0.00000E+00        -0.16980E+08
 
   -0.16829E+08         0.21626E+06         0.00000E+00
    0.21626E+06        -0.19540E+07         0.00000E+00
    0.00000E+00         0.00000E+00        -0.16924E+08
 
   -0.16773E+08         0.21929E+06         0.00000E+00
    0.21929E+06        -0.19542E+07         0.00000E+00
    0.00000E+00         0.00000E+00        -0.16867E+08
 
   -0.16716E+08         0.22223E+06         0.00000E+00
    0.22223E+06        -0.19544E+07         0.00000E+00
    0.00000E+00         0.00000E+00        -0.16809E+08
 
   -0.16659E+08         0.22507E+06         0.00000E+00
    0.22507E+06        -0.19546E+07         0.00000E+00
    0.00000E+00         0.00000E+00        -0.16749E+08
 
   -0.16600E+08         0.22779E+06         0.00000E+00
    0.22779E+06        -0.19549E+07         0.00000E+00
    0.00000E+00         0.00000E+00        -0.16689E+08
 
   -0.16541E+08         0.23038E+06         0.00000E+00
    0.23038E+06        -0.19552E+07         0.00000E+00
    0.00000E+00         0.00000E+00        -0.16627E+08
 
   -0.16481E+08         0.23283E+06         0.00000E+00
    0.23283E+06        -0.19555E+07         0.00000E+00
    0.00000E+00         0.00000E+00        -0.16564E+08
 
   -0.16421E+08         0.23511E+06         0.00000E+00
    0.23511E+06        -0.19558E+07         0.00000E+00
    0.00000E+00         0.00000E+00        -0.16501E+08
 
   -0.16359E+08         0.23721E+06         0.00000E+00
    0.23721E+06        -0.19562E+07         0.00000E+00
    0.00000E+00         0.00000E+00        -0.16436E+08
 
   -0.16298E+08         0.23910E+06         0.00000E+00
    0.23910E+06        -0.19566E+07         0.00000E+00
    0.00000E+00         0.00000E+00        -0.16370E+08
 
   -0.16235E+08         0.24078E+06         0.00000E+00
    0.24078E+06        -0.19571E+07         0.00000E+00
    0.00000E+00         0.00000E+00        -0.16303E+08
 
   -0.16172E+08         0.24220E+06         0.00000E+00
    0.24220E+06        -0.19576E+07         0.00000E+00
    0.00000E+00         0.00000E+00        -0.16235E+08
 
   -0.16109E+08         0.24336E+06         0.00000E+00
    0.24336E+06        -0.19582E+07         0.00000E+00
    0.00000E+00         0.00000E+00        -0.16167E+08
 
   -0.16045E+08         0.24422E+06         0.00000E+00
    0.24422E+06        -0.19588E+07         0.00000E+00
    0.00000E+00         0.00000E+00        -0.16097E+08
 
   -0.15981E+08         0.24474E+06         0.00000E+00
    0.24474E+06        -0.19595E+07         0.00000E+00
    0.00000E+00         0.00000E+00        -0.16026E+08
 
   -0.15917E+08         0.24490E+06         0.00000E+00
    0.24490E+06        -0.19603E+07         0.00000E+00
    0.00000E+00         0.00000E+00        -0.15955E+08
 
   -0.15852E+08         0.24465E+06         0.00000E+00
    0.24465E+06        -0.19611E+07         0.00000E+00
    0.00000E+00         0.00000E+00        -0.15882E+08
 
   -0.15788E+08         0.24396E+06         0.00000E+00
    0.24396E+06        -0.19621E+07         0.00000E+00
    0.00000E+00         0.00000E+00        -0.15809E+08
 
   -0.15723E+08         0.24277E+06         0.00000E+00
    0.24277E+06        -0.19631E+07         0.00000E+00
    0.00000E+00         0.00000E+00        -0.15735E+08
 
   -0.15659E+08         0.24104E+06         0.00000E+00
    0.24104E+06        -0.19643E+07         0.00000E+00
    0.00000E+00         0.00000E+00        -0.15660E+08
 
   -0.15595E+08         0.23869E+06         0.00000E+00
    0.23869E+06        -0.19657E+07         0.00000E+00
    0.00000E+00         0.00000E+00        -0.15585E+08
 
   -0.15531E+08         0.23566E+06         0.00000E+00
    0.23566E+06        -0.19672E+07         0.00000E+00
    0.00000E+00         0.00000E+00        -0.15509E+08
 
   -0.15468E+08         0.23187E+06         0.00000E+00
    0.23187E+06        -0.19689E+07         0.00000E+00
    0.00000E+00         0.00000E+00        -0.15432E+08
 
   -0.15406E+08         0.22724E+06         0.00000E+00
    0.22724E+06        -0.19708E+07         0.00000E+00
    0.00000E+00         0.00000E+00        -0.15355E+08
 
   -0.15345E+08         0.22166E+06         0.00000E+00
    0.22166E+06        -0.19729E+07         0.00000E+00
    0.00000E+00         0.00000E+00        -0.15278E+08
 
   -0.15284E+08         0.21502E+06         0.00000E+00
    0.21502E+06        -0.19754E+07         0.00000E+00
    0.00000E+00         0.00000E+00        -0.15200E+08
 
   -0.15225E+08         0.20722E+06         0.00000E+00
    0.20722E+06        -0.19781E+07         0.00000E+00
    0.00000E+00         0.00000E+00        -0.15122E+08
 
   -0.15167E+08         0.19812E+06         0.00000E+00
    0.19812E+06        -0.19812E+07         0.00000E+00
    0.00000E+00         0.00000E+00        -0.15044E+08
 
   -0.15111E+08         0.18760E+06         0.00000E+00
    0.18760E+06        -0.19846E+07         0.00000E+00
    0.00000E+00         0.00000E+00        -0.14966E+08
 
   -0.15057E+08         0.17553E+06         0.00000E+00
    0.17553E+06        -0.19884E+07         0.00000E+00
    0.00000E+00         0.00000E+00        -0.14888E+08
 
   -0.15004E+08         0.16180E+06         0.00000E+00
    0.16180E+06        -0.19925E+07         0.00000E+00
    0.00000E+00         0.00000E+00        -0.14810E+08
 
   -0.14954E+08         0.14633E+06         0.00000E+00
    0.14633E+06        -0.19968E+07         0.00000E+00
    0.00000E+00         0.00000E+00        -0.14733E+08
 
   -0.14906E+08         0.12907E+06         0.00000E+00
    0.12907E+06        -0.20012E+07         0.00000E+00
    0.00000E+00         0.00000E+00        -0.14655E+08
 
   -0.14860E+08         0.11008E+06         0.00000E+00
    0.11008E+06        -0.20055E+07         0.00000E+00
    0.00000E+00         0.00000E+00        -0.14578E+08
 
   -0.14817E+08         0.89490E+05         0.00000E+00
    0.89490E+05        -0.20093E+07         0.00000E+00
    0.00000E+00         0.00000E+00        -0.14501E+08
 
   -0.14777E+08         0.67638E+05         0.00000E+00
    0.67638E+05        -0.20124E+07         0.00000E+00
    0.00000E+00         0.00000E+00        -0.14424E+08
 
   -0.14740E+08         0.45078E+05         0.00000E+00
    0.45078E+05        -0.20140E+07         0.00000E+00
    0.00000E+00         0.00000E+00        -0.14348E+08
 
   -0.14705E+08         0.22699E+05         0.00000E+00
    0.22699E+05        -0.20134E+07         0.00000E+00
    0.00000E+00         0.00000E+00        -0.14271E+08
 
   -0.14673E+08         0.18207E+04         0.00000E+00
    0.18207E+04        -0.20095E+07         0.00000E+00
    0.00000E+00         0.00000E+00        -0.14194E+08
 
   -0.14644E+08        -0.15694E+05         0.00000E+00
   -0.15694E+05        -0.20007E+07         0.00000E+00
    0.00000E+00         0.00000E+00        -0.14115E+08
 
   -0.14618E+08        -0.27437E+05         0.00000E+00
   -0.27437E+05        -0.19847E+07         0.00000E+00
    0.00000E+00         0.00000E+00        -0.14036E+08
 
   -0.14595E+08        -0.30831E+05         0.00000E+00
   -0.30831E+05        -0.19576E+07         0.00000E+00
    0.00000E+00         0.00000E+00        -0.13954E+08
 
   -0.14577E+08        -0.24328E+05         0.00000E+00
   -0.24328E+05        -0.19136E+07         0.00000E+00
    0.00000E+00         0.00000E+00        -0.13868E+08
 
   -0.14567E+08        -0.92629E+04         0.00000E+00
   -0.92629E+04        -0.18460E+07         0.00000E+00
    0.00000E+00         0.00000E+00        -0.13777E+08
 
   -0.18532E+08        -0.12486E+04         0.00000E+00
   -0.12486E+04        -0.19799E+07         0.00000E+00
    0.00000E+00         0.00000E+00        -0.18746E+08
 
   -0.18529E+08        -0.29325E+04         0.00000E+00
   -0.29325E+04        -0.19656E+07         0.00000E+00
    0.00000E+00         0.00000E+00        -0.18726E+08
 
   -0.18524E+08        -0.26333E+04         0.00000E+00
   -0.26333E+04        -0.19565E+07         0.00000E+00
    0.00000E+00         0.00000E+00        -0.18707E+08
 
   -0.18518E+08        -0.95349E+02         0.00000E+00
   -0.95349E+02        -0.19512E+07         0.00000E+00
    0.00000E+00         0.00000E+00        -0.18689E+08
 
   -0.18511E+08         0.42811E+04         0.00000E+00
    0.42811E+04        -0.19480E+07         0.00000E+00
    0.00000E+00         0.00000E+00        -0.18672E+08
 
   -0.18503E+08         0.99010E+04         0.00000E+00
    0.99010E+04        -0.19464E+07         0.00000E+00
    0.00000E+00         0.00000E+00        -0.18654E+08
 
   -0.18495E+08         0.16237E+05         0.00000E+00
    0.16237E+05        -0.19457E+07         0.00000E+00
    0.00000E+00         0.00000E+00        -0.18636E+08
 
   -0.18484E+08         0.22894E+05         0.00000E+00
    0.22894E+05        -0.19456E+07         0.00000E+00
    0.00000E+00         0.00000E+00        -0.18618E+08
 
   -0.18473E+08         0.29599E+05         0.00000E+00
    0.29599E+05        -0.19459E+07         0.00000E+00
    0.00000E+00         0.00000E+00        -0.18600E+08
 
   -0.18461E+08         0.36171E+05         0.00000E+00
    0.36171E+05        -0.19465E+07         0.00000E+00
    0.00000E+00         0.00000E+00        -0.18581E+08
 
   -0.18447E+08         0.42498E+05         0.00000E+00
    0.42498E+05        -0.19472E+07         0.00000E+00
    0.00000E+00         0.00000E+00        -0.18562E+08
 
   -0.18433E+08         0.48521E+05         0.00000E+00
    0.48521E+05        -0.19480E+07         0.00000E+00
    0.00000E+00         0.00000E+00        -0.18542E+08
 
   -0.18417E+08         0.54213E+05         0.00000E+00
    0.54213E+05        -0.19488E+07         0.00000E+00
    0.00000E+00         0.00000E+00        -0.18522E+08
 
   -0.18400E+08         0.59572E+05         0.00000E+00
    0.59572E+05        -0.19496E+07         0.00000E+00
    0.00000E+00         0.00000E+00        -0.18501E+08
 
   -0.18383E+08         0.64612E+05         0.00000E+00
    0.64612E+05        -0.19503E+07         0.00000E+00
    0.00000E+00         0.00000E+00        -0.18480E+08
 
   -0.18364E+08         0.69357E+05         0.00000E+00
    0.69357E+05        -0.19509E+07         0.00000E+00
    0.00000E+00         0.00000E+00        -0.18458E+08
 
   -0.18344E+08         0.73834E+05         0.00000E+00
    0.73834E+05        -0.19515E+07         0.00000E+00
    0.00000E+00         0.00000E+00        -0.18435E+08
 
   -0.18323E+08         0.78073E+05         0.00000E+00
    0.78073E+05        -0.19520E+07         0.00000E+00
    0.00000E+00         0.00000E+00        -0.18412E+08
 
   -0.18301E+08         0.82106E+05         0.00000E+00
    0.82106E+05        -0.19524E+07         0.00000E+00
    0.00000E+00         0.00000E+00        -0.18389E+08
 
   -0.18278E+08         0.85959E+05         0.00000E+00
    0.85959E+05        -0.19528E+07         0.00000E+00
    0.00000E+00         0.00000E+00        -0.18365E+08
 
   -0.18254E+08         0.89662E+05         0.00000E+00
    0.89662E+05        -0.19531E+07         0.00000E+00
    0.00000E+00         0.00000E+00        -0.18340E+08
 
   -0.18230E+08         0.93237E+05         0.00000E+00
    0.93237E+05        -0.19533E+07         0.00000E+00
    0.00000E+00         0.00000E+00        -0.18314E+08
 
   -0.18204E+08         0.96706E+05         0.00000E+00
    0.96706E+05        -0.19535E+07         0.00000E+00
    0.00000E+00         0.00000E+00        -0.18288E+08
 
   -0.18178E+08         0.10009E+06         0.00000E+00
    0.10009E+06        -0.19537E+07         0.00000E+00
    0.00000E+00         0.00000E+00        -0.18261E+08
 
   -0.18151E+08         0.10340E+06         0.00000E+00
    0.10340E+06        -0.19538E+07         0.00000E+00
    0.00000E+00         0.00000E+00        -0.18234E+08
 
   -0.18123E+08         0.10666E+06         0.00000E+00
    0.10666E+06        -0.19539E+07         0.00000E+00
    0.00000E+00         0.00000E+00        -0.18206E+08
 
   -0.18094E+08         0.10988E+06         0.00000E+00
    0.10988E+06        -0.19540E+07         0.00000E+00
    0.00000E+00         0.00000E+00        -0.18177E+08
 
   -0.18064E+08         0.11306E+06         0.00000E+00
    0.11306E+06        -0.19540E+07         0.00000E+00
    0.00000E+00         0.00000E+00        -0.18148E+08
 
   -0.18033E+08         0.11622E+06         0.00000E+00
    0.11622E+06        -0.19541E+07         0.00000E+00
    0.00000E+00         0.00000E+00        -0.18118E+08
 
   -0.18002E+08         0.11937E+06         0.00000E+00
    0.11937E+06        -0.19541E+07         0.00000E+00
    0.00000E+00         0.00000E+00        -0.18087E+08
 
   -0.17970E+08         0.12250E+06         0.00000E+00
    0.12250E+06        -0.19541E+07         0.00000E+00
    0.00000E+00         0.00000E+00        -0.18055E+08
 
   -0.17937E+08         0.12564E+06         0.00000E+00
    0.12564E+06        -0.19541E+07         0.00000E+00
    0.00000E+00         0.00000E+00        -0.18023E+08
 
   -0.17903E+08         0.12877E+06         0.00000E+00
    0.12877E+06        -0.19541E+07         0.00000E+00
    0.00000E+00         0.00000E+00        -0.17990E+08
 
   -0.17868E+08         0.13191E+06         0.00000E+00
    0.13191E+06        -0.19541E+07         0.00000E+00
    0.00000E+00         0.00000E+00        -0.17956E+08
 
   -0.17832E+08         0.13506E+06         0.00000E+00
    0.13506E+06        -0.19541E+07         0.00000E+00
    0.00000E+00         0.00000E+00        -0.17921E+08
 
   -0.17796E+08         0.13822E+06         0.00000E+00
    0.13822E+06        -0.19541E+07         0.00000E+00
    0.00000E+00         0.00000E+00        -0.17886E+08
 
   -0.17759E+08         0.14139E+06         0.00000E+00
    0.14139E+06        -0.19540E+07         0.00000E+00
    0.00000E+00         0.00000E+00        -0.17850E+08
 
   -0.17720E+08         0.14458E+06         0.00000E+00
    0.14458E+06        -0.19540E+07         0.00000E+00
    0.00000E+00         0.00000E+00        -0.17812E+08
 
   -0.17681E+08         0.14777E+06         0.00000E+00
    0.14777E+06        -0.19540E+07         0.00000E+00
    0.00000E+00         0.00000E+00        -0.17774E+08
 
   -0.17641E+08         0.15099E+06         0.00000E+00
    0.15099E+06        -0.19540E+07         0.00000E+00
    0.00000E+00         0.00000E+00        -0.17735E+08
 
   -0.17601E+08         0.15421E+06         0.00000E+00
    0.15421E+06        -0.19540E+07         0.00000E+00
    0.00000E+00         0.00000E+00        -0.17695E+08
 
   -0.17559E+08         0.15745E+06         0.00000E+00
    0.15745E+06        -0.19539E+07         0.00000E+00
    0.00000E+00         0.00000E+00        -0.17655E+08
 
   -0.17516E+08         0.16069E+06         0.00000E+00
    0.16069E+06        -0.19539E+07         0.00000E+00
    0.00000E+00         0.00000E+00        -0.17613E+08
 
   -0.17473E+08         0.16394E+06         0.00000E+00
    0.16394E+06        -0.19539E+07         0.00000E+00
    0.00000E+00         0.00000E+00        -0.17570E+08
 
   -0.17428E+08         0.16720E+06         0.00000E+00
    0.16720E+06        -0.19539E+07         0.00000E+00
    0.00000E+00         0.00000E+00        -0.17527E+08
 
   -0.17383E+08         0.17047E+06         0.00000E+00
    0.17047E+06        -0.19539E+07         0.00000E+00
    0.00000E+00         0.00000E+00        -0.17482E+08
 
   -0.17337E+08         0.17373E+06         0.00000E+00
    0.17373E+06        -0.19539E+07         0.00000E+00
    0.00000E+00         0.00000E+00        -0.17437E+08
 
   -0.17290E+08         0.17698E+06         0.00000E+00
    0.17698E+06        -0.19539E+07         0.00000E+00
    0.00000E+00         0.00000E+00        -0.17390E+08
 
   -0.17242E+08         0.18023E+06         0.00000E+00
    0.18023E+06        -0.19540E+07         0.00000E+00
    0.00000E+00         0.00000E+00        -0.17342E+08
 
   -0.17193E+08         0.18346E+06         0.00000E+00
    0.18346E+06        -0.19540E+07         0.00000E+00
    0.00000E+00         0.00000E+00        -0.17294E+08
 
   -0.17143E+08         0.18668E+06         0.00000E+00
    0.18668E+06        -0.19540E+07         0.00000E+00
    0.00000E+00         0.00000E+00        -0.17244E+08
 
   -0.17092E+08         0.18986E+06         0.00000E+00
    0.18986E+06        -0.19541E+07         0.00000E+00
    0.00000E+00         0.00000E+00        -0.17193E+08
 
   -0.17041E+08         0.19302E+06         0.00000E+00
    0.19302E+06        -0.19542E+07         0.00000E+00
    0.00000E+00         0.00000E+00        -0.17141E+08
 
   -0.16988E+08         0.19613E+06         0.00000E+00
    0.19613E+06        -0.19543E+07         0.00000E+00
    0.00000E+00         0.00000E+00        -0.17088E+08
 
   -0.16935E+08         0.19920E+06         0.00000E+00
    0.19920E+06        -0.19544E+07         0.00000E+00
    0.00000E+00         0.00000E+00        -0.17035E+08
 
   -0.16881E+08         0.20221E+06         0.00000E+00
    0.20221E+06        -0.19545E+07         0.00000E+00
    0.00000E+00         0.00000E+00        -0.16979E+08
 
   -0.16826E+08         0.20515E+06         0.00000E+00
    0.20515E+06        -0.19546E+07         0.00000E+00
    0.00000E+00         0.00000E+00        -0.16923E+08
 
   -0.16770E+08         0.20801E+06         0.00000E+00
    0.20801E+06        -0.19548E+07         0.00000E+00
    0.00000E+00         0.00000E+00        -0.16866E+08
 
   -0.16713E+08         0.21079E+06         0.00000E+00
    0.21079E+06        -0.19550E+07         0.00000E+00
    0.00000E+00         0.00000E+00        -0.16808E+08
 
   -0.16655E+08         0.21347E+06         0.00000E+00
    0.21347E+06        -0.19552E+07         0.00000E+00
    0.00000E+00         0.00000E+00        -0.16748E+08
 
   -0.16597E+08         0.21604E+06         0.00000E+00
    0.21604E+06        -0.19554E+07         0.00000E+00
    0.00000E+00         0.00000E+00        -0.16688E+08
 
   -0.16538E+08         0.21848E+06         0.00000E+00
    0.21848E+06        -0.19556E+07         0.00000E+00
    0.00000E+00         0.00000E+00        -0.16626E+08
 
   -0.16478E+08         0.22079E+06         0.00000E+00
    0.22079E+06        -0.19559E+07         0.00000E+00
    0.00000E+00         0.00000E+00        -0.16564E+08
 
   -0.16418E+08         0.22293E+06         0.00000E+00
    0.22293E+06        -0.19562E+07         0.00000E+00
    0.00000E+00         0.00000E+00        -0.16500E+08
 
   -0.16356E+08         0.22491E+06         0.00000E+00
    0.22491E+06        -0.19566E+07         0.00000E+00
    0.00000E+00         0.00000E+00        -0.16435E+08
 
   -0.16295E+08         0.22669E+06         0.00000E+00
    0.22669E+06        -0.19570E+07         0.00000E+00
    0.00000E+00         0.00000E+00        -0.16369E+08
 
   -0.16232E+08         0.22825E+06         0.00000E+00
    0.22825E+06        -0.19574E+07         0.00000E+00
    0.00000E+00         0.00000E+00        -0.16303E+08
 
   -0.16170E+08         0.22959E+06         0.00000E+00
    0.22959E+06        -0.19579E+07         0.00000E+00
    0.00000E+00         0.00000E+00        -0.16235E+08
 
   -0.16106E+08         0.23066E+06         0.00000E+00
    0.23066E+06        -0.19584E+07         0.00000E+00
    0.00000E+00         0.00000E+00        -0.16166E+08
 
   -0.16043E+08         0.23145E+06         0.00000E+00
    0.23145E+06        -0.19589E+07         0.00000E+00
    0.00000E+00         0.00000E+00        -0.16096E+08
 
   -0.15979E+08         0.23192E+06         0.00000E+00
    0.23192E+06        -0.19596E+07         0.00000E+00
    0.00000E+00         0.00000E+00        -0.16025E+08
 
   -0.15915E+08         0.23204E+06         0.00000E+00
    0.23204E+06        -0.19603E+07         0.00000E+00
    0.00000E+00         0.00000E+00        -0.15954E+08
 
   -0.15850E+08         0.23178E+06         0.00000E+00
    0.23178E+06        -0.19610E+07         0.00000E+00
    0.00000E+00         0.00000E+00        -0.15881E+08
 
   -0.15786E+08         0.23109E+06         0.00000E+00
    0.23109E+06        -0.19619E+07         0.00000E+00
    0.00000E+00         0.00000E+00        -0.15808E+08
 
   -0.15722E+08         0.22992E+06         0.00000E+00
    0.22992E+06        -0.19629E+07         0.00000E+00
    0.00000E+00         0.00000E+00        -0.15734E+08
 
   -0.15658E+08         0.22824E+06         0.00000E+00
    0.22824E+06        -0.19639E+07         0.00000E+00
    0.00000E+00         0.00000E+00        -0.15660E+08
 
   -0.15594E+08         0.22596E+06         0.00000E+00
    0.22596E+06        -0.19651E+07         0.00000E+00
    0.00000E+00         0.00000E+00        -0.15584E+08
 
   -0.15531E+08         0.22303E+06         0.00000E+00
    0.22303E+06        -0.19665E+07         0.00000E+00
    0.00000E+00         0.00000E+00        -0.15508E+08
 
   -0.15468E+08         0.21938E+06         0.00000E+00
    0.21938E+06        -0.19680E+07         0.00000E+00
    0.00000E+00         0.00000E+00        -0.15432E+08
 
   -0.15407E+08         0.21490E+06         0.00000E+00
    0.21490E+06        -0.19698E+07         0.00000E+00
    0.00000E+00         0.00000E+00        -0.15355E+08
 
   -0.15346E+08         0.20952E+06         0.00000E+00
    0.20952E+06        -0.19717E+07         0.00000E+00
    0.00000E+00         0.00000E+00        -0.15278E+08
 
   -0.15286E+08         0.20312E+06         0.00000E+00
    0.20312E+06        -0.19740E+07         0.00000E+00
    0.00000E+00         0.00000E+00        -0.15200E+08
 
   -0.15227E+08         0.19558E+06         0.00000E+00
    0.19558E+06        -0.19765E+07         0.00000E+00
    0.00000E+00         0.00000E+00        -0.15122E+08
 
   -0.15170E+08         0.18679E+06         0.00000E+00
    0.18679E+06        -0.19793E+07         0.00000E+00
    0.00000E+00         0.00000E+00        -0.15044E+08
 
   -0.15115E+08         0.17661E+06         0.00000E+00
    0.17661E+06        -0.19824E+07         0.00000E+00
    0.00000E+00         0.00000E+00        -0.14967E+08
 
   -0.15061E+08         0.16493E+06         0.00000E+00
    0.16493E+06        -0.19859E+07         0.00000E+00
    0.00000E+00         0.00000E+00        -0.14889E+08
 
   -0.15010E+08         0.15162E+06         0.00000E+00
    0.15162E+06        -0.19896E+07         0.00000E+00
    0.00000E+00         0.00000E+00        -0.14811E+08
 
   -0.14961E+08         0.13661E+06         0.00000E+00
    0.13661E+06        -0.19935E+07         0.00000E+00
    0.00000E+00         0.00000E+00        -0.14734E+08
 
   -0.14914E+08         0.11986E+06         0.00000E+00
    0.11986E+06        -0.19976E+07         0.00000E+00
    0.00000E+00         0.00000E+00        -0.14657E+08
 
   -0.14870E+08         0.10139E+06         0.00000E+00
    0.10139E+06        -0.20015E+07         0.00000E+00
    0.00000E+00         0.00000E+00        -0.14580E+08
 
   -0.14829E+08         0.81363E+05         0.00000E+00
    0.81363E+05        -0.20051E+07         0.00000E+00
    0.00000E+00         0.00000E+00        -0.14503E+08
 
   -0.14791E+08         0.60089E+05         0.00000E+00
    0.60089E+05        -0.20080E+07         0.00000E+00
    0.00000E+00         0.00000E+00        -0.14427E+08
 
   -0.14756E+08         0.38115E+05         0.00000E+00
    0.38115E+05        -0.20095E+07         0.00000E+00
    0.00000E+00         0.00000E+00        -0.14351E+08
 
   -0.14723E+08         0.16309E+05         0.00000E+00
    0.16309E+05        -0.20091E+07         0.00000E+00
    0.00000E+00         0.00000E+00        -0.14275E+08
 
   -0.14694E+08        -0.40284E+04         0.00000E+00
   -0.40284E+04        -0.20056E+07         0.00000E+00
    0.00000E+00         0.00000E+00        -0.14199E+08
 
   -0.14667E+08        -0.21043E+05         0.00000E+00
   -0.21043E+05        -0.19978E+07         0.00000E+00
    0.00000E+00         0.00000E+00        -0.14121E+08
 
   -0.14643E+08        -0.32275E+05         0.00000E+00
   -0.32275E+05        -0.19832E+07         0.00000E+00
    0.00000E+00         0.00000E+00        -0.14043E+08
 
   -0.14621E+08        -0.34961E+05         0.00000E+00
   -0.34961E+05        -0.19580E+07         0.00000E+00
    0.00000E+00         0.00000E+00        -0.13962E+08
 
   -0.14604E+08        -0.27251E+05         0.00000E+00
   -0.27251E+05        -0.19161E+07         0.00000E+00
    0.00000E+00         0.00000E+00        -0.13877E+08
 
   -0.14594E+08        -0.10341E+05         0.00000E+00
   -0.10341E+05        -0.18499E+07         0.00000E+00
    0.00000E+00         0.00000E+00        -0.13787E+08
 
   -0.18524E+08        -0.15218E+04         0.00000E+00
   -0.15218E+04        -0.19793E+07         0.00000E+00
    0.00000E+00         0.00000E+00        -0.18743E+08
 
   -0.18522E+08        -0.36758E+04         0.00000E+00
   -0.36758E+04        -0.19654E+07         0.00000E+00
    0.00000E+00         0.00000E+00        -0.18724E+08
 
   -0.18517E+08        -0.36946E+04         0.00000E+00
   -0.36946E+04        -0.19568E+07         0.00000E+00
    0.00000E+00         0.00000E+00        -0.18705E+08
 
   -0.18512E+08        -0.13675E+04         0.00000E+00
   -0.13675E+04        -0.19518E+07         0.00000E+00
    0.00000E+00         0.00000E+00        -0.18688E+08
 
   -0.18505E+08         0.28287E+04         0.00000E+00
    0.28287E+04        -0.19491E+07         0.00000E+00
    0.00000E+00         0.00000E+00        -0.18670E+08
 
   -0.18498E+08         0.82571E+04         0.00000E+00
    0.82571E+04        -0.19476E+07         0.00000E+00
    0.00000E+00         0.00000E+00        -0.18653E+08
 
   -0.18489E+08         0.14383E+05         0.00000E+00
    0.14383E+05        -0.19470E+07         0.00000E+00
    0.00000E+00         0.00000E+00        -0.18635E+08
 
   -0.18480E+08         0.20815E+05         0.00000E+00
    0.20815E+05        -0.19469E+07         0.00000E+00
    0.00000E+00         0.00000E+00        -0.18617E+08
 
   -0.18469E+08         0.27288E+05         0.00000E+00
    0.27288E+05        -0.19472E+07         0.00000E+00
    0.00000E+00         0.00000E+00        -0.18599E+08
 
   -0.18457E+08         0.33626E+05         0.00000E+00
    0.33626E+05        -0.19478E+07         0.00000E+00
    0.00000E+00         0.00000E+00        -0.18580E+08
 
   -0.18444E+08         0.39720E+05         0.00000E+00
    0.39720E+05        -0.19484E+07         0.00000E+00
    0.00000E+00         0.00000E+00        -0.18561E+08
 
   -0.18429E+08         0.45514E+05         0.00000E+00
    0.45514E+05        -0.19492E+07         0.00000E+00
    0.00000E+00         0.00000E+00        -0.18541E+08
 
   -0.18414E+08         0.50981E+05         0.00000E+00
    0.50981E+05        -0.19499E+07         0.00000E+00
    0.00000E+00         0.00000E+00        -0.18521E+08
 
   -0.18397E+08         0.56121E+05         0.00000E+00
    0.56121E+05        -0.19506E+07         0.00000E+00
    0.00000E+00         0.00000E+00        -0.18500E+08
 
   -0.18380E+08         0.60949E+05         0.00000E+00
    0.60949E+05        -0.19513E+07         0.00000E+00
    0.00000E+00         0.00000E+00        -0.18479E+08
 
   -0.18361E+08         0.65486E+05         0.00000E+00
    0.65486E+05        -0.19518E+07         0.00000E+00
    0.00000E+00         0.00000E+00        -0.18457E+08
 
   -0.18341E+08         0.69761E+05         0.00000E+00
    0.69761E+05        -0.19524E+07         0.00000E+00
    0.00000E+00         0.00000E+00        -0.18435E+08
 
   -0.18320E+08         0.73804E+05         0.00000E+00
    0.73804E+05        -0.19528E+07         0.00000E+00
    0.00000E+00         0.00000E+00        -0.18412E+08
 
   -0.18298E+08         0.77644E+05         0.00000E+00
    0.77644E+05        -0.19532E+07         0.00000E+00
    0.00000E+00         0.00000E+00        -0.18388E+08
 
   -0.18276E+08         0.81311E+05         0.00000E+00
    0.81311E+05        -0.19535E+07         0.00000E+00
    0.00000E+00         0.00000E+00        -0.18364E+08
 
   -0.18252E+08         0.84831E+05         0.00000E+00
    0.84831E+05        -0.19538E+07         0.00000E+00
    0.00000E+00         0.00000E+00        -0.18339E+08
 
   -0.18227E+08         0.88226E+05         0.00000E+00
    0.88226E+05        -0.19540E+07         0.00000E+00
    0.00000E+00         0.00000E+00        -0.18314E+08
 
   -0.18202E+08         0.91519E+05         0.00000E+00
    0.91519E+05        -0.19542E+07         0.00000E+00
    0.00000E+00         0.00000E+00        -0.18288E+08
 
   -0.18175E+08         0.94729E+05         0.00000E+00
    0.94729E+05        -0.19543E+07         0.00000E+00
    0.00000E+00         0.00000E+00        -0.18261E+08
 
   -0.18148E+08         0.97870E+05         0.00000E+00
    0.97870E+05        -0.19545E+07         0.00000E+00
    0.00000E+00         0.00000E+00        -0.18233E+08
 
   -0.18120E+08         0.10096E+06         0.00000E+00
    0.10096E+06        -0.19545E+07         0.00000E+00
    0.00000E+00         0.00000E+00        -0.18205E+08
 
   -0.18091E+08         0.10401E+06         0.00000E+00
    0.10401E+06        -0.19546E+07         0.00000E+00
    0.00000E+00         0.00000E+00        -0.18177E+08
 
   -0.18061E+08         0.10702E+06         0.00000E+00
    0.10702E+06        -0.19547E+07         0.00000E+00
    0.00000E+00         0.00000E+00        -0.18147E+08
 
   -0.18031E+08         0.11001E+06         0.00000E+00
    0.11001E+06        -0.19547E+07         0.00000E+00
    0.00000E+00         0.00000E+00        -0.18117E+08
 
   -0.17999E+08         0.11299E+06         0.00000E+00
    0.11299E+06        -0.19547E+07         0.00000E+00
    0.00000E+00         0.00000E+00        -0.18086E+08
 
   -0.17967E+08         0.11596E+06         0.00000E+00
    0.11596E+06        -0.19547E+07         0.00000E+00
    0.00000E+00         0.00000E+00        -0.18055E+08
 
   -0.17934E+08         0.11893E+06         0.00000E+00
    0.11893E+06        -0.19547E+07         0.00000E+00
    0.00000E+00         0.00000E+00        -0.18022E+08
 
   -0.17900E+08         0.12190E+06         0.00000E+00
    0.12190E+06        -0.19547E+07         0.00000E+00
    0.00000E+00         0.00000E+00        -0.17989E+08
 
   -0.17865E+08         0.12487E+06         0.00000E+00
    0.12487E+06        -0.19547E+07         0.00000E+00
    0.00000E+00         0.00000E+00        -0.17955E+08
 
   -0.17829E+08         0.12785E+06         0.00000E+00
    0.12785E+06        -0.19547E+07         0.00000E+00
    0.00000E+00         0.00000E+00        -0.17921E+08
 
   -0.17793E+08         0.13084E+06         0.00000E+00
    0.13084E+06        -0.19547E+07         0.00000E+00
    0.00000E+00         0.00000E+00        -0.17885E+08
 
   -0.17755E+08         0.13384E+06         0.00000E+00
    0.13384E+06        -0.19547E+07         0.00000E+00
    0.00000E+00         0.00000E+00        -0.17849E+08
 
   -0.17717E+08         0.13685E+06         0.00000E+00
    0.13685E+06        -0.19546E+07         0.00000E+00
    0.00000E+00         0.00000E+00        -0.17812E+08
 
   -0.17678E+08         0.13987E+06         0.00000E+00
    0.13987E+06        -0.19546E+07         0.00000E+00
    0.00000E+00         0.00000E+00        -0.17774E+08
 
   -0.17638E+08         0.14291E+06         0.00000E+00
    0.14291E+06        -0.19546E+07         0.00000E+00
    0.00000E+00         0.00000E+00        -0.17735E+08
 
   -0.17597E+08         0.14596E+06         0.00000E+00
    0.14596E+06        -0.19546E+07         0.00000E+00
    0.00000E+00         0.00000E+00        -0.17695E+08
 
   -0.17556E+08         0.14901E+06         0.00000E+00
    0.14901E+06        -0.19546E+07         0.00000E+00
    0.00000E+00         0.00000E+00        -0.17654E+08
 
   -0.17513E+08         0.15208E+06         0.00000E+00
    0.15208E+06        -0.19546E+07         0.00000E+00
    0.00000E+00         0.00000E+00        -0.17612E+08
 
   -0.17469E+08         0.15516E+06         0.00000E+00
    0.15516E+06        -0.19546E+07         0.00000E+00
    0.00000E+00         0.00000E+00        -0.17570E+08
 
   -0.17425E+08         0.15824E+06         0.00000E+00
    0.15824E+06        -0.19545E+07         0.00000E+00
    0.00000E+00         0.00000E+00        -0.17526E+08
 
   -0.17380E+08         0.16132E+06         0.00000E+00
    0.16132E+06        -0.19545E+07         0.00000E+00
    0.00000E+00         0.00000E+00        -0.17481E+08
 
   -0.17333E+08         0.16440E+06         0.00000E+00
    0.16440E+06        -0.19546E+07         0.00000E+00
    0.00000E+00         0.00000E+00        -0.17436E+08
 
   -0.17286E+08         0.16747E+06         0.00000E+00
    0.16747E+06        -0.19546E+07         0.00000E+00
    0.00000E+00         0.00000E+00        -0.17389E+08
 
   -0.17238E+08         0.17054E+06         0.00000E+00
    0.17054E+06        -0.19546E+07         0.00000E+00
    0.00000E+00         0.00000E+00        -0.17341E+08
 
   -0.17189E+08         0.17359E+06         0.00000E+00
    0.17359E+06        -0.19546E+07         0.00000E+00
    0.00000E+00         0.00000E+00        -0.17293E+08
 
   -0.17140E+08         0.17662E+06         0.00000E+00
    0.17662E+06        -0.19547E+07         0.00000E+00
    0.00000E+00         0.00000E+00        -0.17243E+08
 
   -0.17089E+08         0.17963E+06         0.00000E+00
    0.17963E+06        -0.19547E+07         0.00000E+00
    0.00000E+00         0.00000E+00        -0.17192E+08
 
   -0.17037E+08         0.18261E+06         0.00000E+00
    0.18261E+06        -0.19548E+07         0.00000E+00
    0.00000E+00         0.00000E+00        -0.17140E+08
 
   -0.16985E+08         0.18554E+06         0.00000E+00
    0.18554E+06        -0.19549E+07         0.00000E+00
    0.00000E+00         0.00000E+00        -0.17088E+08
 
   -0.16931E+08         0.18843E+06         0.00000E+00
    0.18843E+06        -0.19550E+07         0.00000E+00
    0.00000E+00         0.00000E+00        -0.17034E+08
 
   -0.16877E+08         0.19127E+06         0.00000E+00
    0.19127E+06        -0.19551E+07         0.00000E+00
    0.00000E+00         0.00000E+00        -0.16979E+08
 
   -0.16822E+08         0.19404E+06         0.00000E+00
    0.19404E+06        -0.19552E+07         0.00000E+00
    0.00000E+00         0.00000E+00        -0.16922E+08
 
   -0.16766E+08         0.19674E+06         0.00000E+00
    0.19674E+06        -0.19553E+07         0.00000E+00
    0.00000E+00         0.00000E+00        -0.16865E+08
 
   -0.16709E+08         0.19936E+06         0.00000E+00
    0.19936E+06        -0.19555E+07         0.00000E+00
    0.00000E+00         0.00000E+00        -0.16807E+08
 
   -0.16652E+08         0.20188E+06         0.00000E+00
    0.20188E+06        -0.19557E+07         0.00000E+00
    0.00000E+00         0.00000E+00        -0.16747E+08
 
   -0.16594E+08         0.20430E+06         0.00000E+00
    0.20430E+06        -0.19559E+07         0.00000E+00
    0.00000E+00         0.00000E+00        -0.16687E+08
 
   -0.16535E+08         0.20660E+06         0.00000E+00
    0.20660E+06        -0.19561E+07         0.00000E+00
    0.00000E+00         0.00000E+00        -0.16625E+08
 
   -0.16475E+08         0.20876E+06         0.00000E+00
    0.20876E+06        -0.19564E+07         0.00000E+00
    0.00000E+00         0.00000E+00        -0.16563E+08
 
   -0.16414E+08         0.21077E+06         0.00000E+00
    0.21077E+06        -0.19566E+07         0.00000E+00
    0.00000E+00         0.00000E+00        -0.16499E+08
 
   -0.16353E+08         0.21262E+06         0.00000E+00
    0.21262E+06        -0.19569E+07         0.00000E+00
    0.00000E+00         0.00000E+00        -0.16434E+08
 
   -0.16292E+08         0.21429E+06         0.00000E+00
    0.21429E+06        -0.19573E+07         0.00000E+00
    0.00000E+00         0.00000E+00        -0.16369E+08
 
   -0.16229E+08         0.21575E+06         0.00000E+00
    0.21575E+06        -0.19577E+07         0.00000E+00
    0.00000E+00         0.00000E+00        -0.16302E+08
 
   -0.16167E+08         0.21699E+06         0.00000E+00
    0.21699E+06        -0.19581E+07         0.00000E+00
    0.00000E+00         0.00000E+00        -0.16234E+08
 
   -0.16104E+08         0.21799E+06         0.00000E+00
    0.21799E+06        -0.19586E+07         0.00000E+00
    0.00000E+00         0.00000E+00        -0.16165E+08
 
   -0.16040E+08         0.21871E+06         0.00000E+00
    0.21871E+06        -0.19591E+07         0.00000E+00
    0.00000E+00         0.00000E+00        -0.16095E+08
 
   -0.15977E+08         0.21913E+06         0.00000E+00
    0.21913E+06        -0.19596E+07         0.00000E+00
    0.00000E+00         0.00000E+00        -0.16025E+08
 
   -0.15913E+08         0.21922E+06         0.00000E+00
    0.21922E+06        -0.19603E+07         0.00000E+00
    0.00000E+00         0.00000E+00        -0.15953E+08
 
   -0.15849E+08         0.21895E+06         0.00000E+00
    0.21895E+06        -0.19609E+07         0.00000E+00
    0.00000E+00         0.00000E+00        -0.15881E+08
 
   -0.15785E+08         0.21826E+06         0.00000E+00
    0.21826E+06        -0.19617E+07         0.00000E+00
    0.00000E+00         0.00000E+00        -0.15808E+08
 
   -0.15721E+08         0.21713E+06         0.00000E+00
    0.21713E+06        -0.19626E+07         0.00000E+00
    0.00000E+00         0.00000E+00        -0.15734E+08
 
   -0.15657E+08         0.21549E+06         0.00000E+00
    0.21549E+06        -0.19635E+07         0.00000E+00
    0.00000E+00         0.00000E+00        -0.15659E+08
 
   -0.15594E+08         0.21330E+06         0.00000E+00
    0.21330E+06        -0.19646E+07         0.00000E+00
    0.00000E+00         0.00000E+00        -0.15584E+08
 
   -0.15531E+08         0.21048E+06         0.00000E+00
    0.21048E+06        -0.19659E+07         0.00000E+00
    0.00000E+00         0.00000E+00        -0.15508E+08
 
   -0.15468E+08         0.20696E+06         0.00000E+00
    0.20696E+06        -0.19672E+07         0.00000E+00
    0.00000E+00         0.00000E+00        -0.15432E+08
 
   -0.15407E+08         0.20266E+06         0.00000E+00
    0.20266E+06        -0.19688E+07         0.00000E+00
    0.00000E+00         0.00000E+00        -0.15355E+08
 
   -0.15347E+08         0.19748E+06         0.00000E+00
    0.19748E+06        -0.19706E+07         0.00000E+00
    0.00000E+00         0.00000E+00        -0.15278E+08
 
   -0.15287E+08         0.19133E+06         0.00000E+00
    0.19133E+06        -0.19726E+07         0.00000E+00
    0.00000E+00         0.00000E+00        -0.15200E+08
 
   -0.15229E+08         0.18407E+06         0.00000E+00
    0.18407E+06        -0.19749E+07         0.00000E+00
    0.00000E+00         0.00000E+00        -0.15122E+08
 
   -0.15173E+08         0.17561E+06         0.00000E+00
    0.17561E+06        -0.19774E+07         0.00000E+00
    0.00000E+00         0.00000E+00        -0.15045E+08
 
   -0.15118E+08         0.16580E+06         0.00000E+00
    0.16580E+06        -0.19803E+07         0.00000E+00
    0.00000E+00         0.00000E+00        -0.14967E+08
 
   -0.15066E+08         0.15452E+06         0.00000E+00
    0.15452E+06        -0.19834E+07         0.00000E+00
    0.00000E+00         0.00000E+00        -0.14889E+08
 
   -0.15015E+08         0.14167E+06         0.00000E+00
    0.14167E+06        -0.19868E+07         0.00000E+00
    0.00000E+00         0.00000E+00        -0.14812E+08
 
   -0.14967E+08         0.12716E+06         0.00000E+00
    0.12716E+06        -0.19904E+07         0.00000E+00
    0.00000E+00         0.00000E+00        -0.14735E+08
 
   -0.14922E+08         0.11094E+06         0.00000E+00
    0.11094E+06        -0.19941E+07         0.00000E+00
    0.00000E+00         0.00000E+00        -0.14658E+08
 
   -0.14880E+08         0.93043E+05         0.00000E+00
    0.93043E+05        -0.19977E+07         0.00000E+00
    0.00000E+00         0.00000E+00        -0.14582E+08
 
   -0.14840E+08         0.73618E+05         0.00000E+00
    0.73618E+05        -0.20010E+07         0.00000E+00
    0.00000E+00         0.00000E+00        -0.14506E+08
 
   -0.14804E+08         0.52964E+05         0.00000E+00
    0.52964E+05        -0.20037E+07         0.00000E+00
    0.00000E+00         0.00000E+00        -0.14430E+08
 
   -0.14771E+08         0.31611E+05         0.00000E+00
    0.31611E+05        -0.20052E+07         0.00000E+00
    0.00000E+00         0.00000E+00        -0.14355E+08
 
   -0.14742E+08         0.10403E+05         0.00000E+00
    0.10403E+05        -0.20049E+07         0.00000E+00
    0.00000E+00         0.00000E+00        -0.14279E+08
 
   -0.14715E+08        -0.93920E+04         0.00000E+00
   -0.93920E+04        -0.20019E+07         0.00000E+00
    0.00000E+00         0.00000E+00        -0.14204E+08
 
   -0.14690E+08        -0.25943E+05         0.00000E+00
   -0.25943E+05        -0.19949E+07         0.00000E+00
    0.00000E+00         0.00000E+00        -0.14128E+08
 
   -0.14668E+08        -0.36755E+05         0.00000E+00
   -0.36755E+05        -0.19817E+07         0.00000E+00
    0.00000E+00         0.00000E+00        -0.14050E+08
 
   -0.14648E+08        -0.38872E+05         0.00000E+00
   -0.38872E+05        -0.19586E+07         0.00000E+00
    0.00000E+00         0.00000E+00        -0.13970E+08
 
   -0.14631E+08        -0.30092E+05         0.00000E+00
   -0.30092E+05        -0.19189E+07         0.00000E+00
    0.00000E+00         0.00000E+00        -0.13886E+08
 
   -0.14622E+08        -0.11406E+05         0.00000E+00
   -0.11406E+05        -0.18542E+07         0.00000E+00
    0.00000E+00         0.00000E+00        -0.13796E+08
 
   -0.18517E+08        -0.17935E+04         0.00000E+00
   -0.17935E+04        -0.19787E+07         0.00000E+00
    0.00000E+00         0.00000E+00        -0.18741E+08
 
   -0.18515E+08        -0.44027E+04         0.00000E+00
   -0.44027E+04        -0.19651E+07         0.00000E+00
    0.00000E+00         0.00000E+00        -0.18722E+08
 
   -0.18510E+08        -0.47085E+04         0.00000E+00
   -0.47085E+04        -0.19570E+07         0.00000E+00
    0.00000E+00         0.00000E+00        -0.18703E+08
 
   -0.18505E+08        -0.25621E+04         0.00000E+00
   -0.25621E+04        -0.19525E+07         0.00000E+00
    0.00000E+00         0.00000E+00        -0.18686E+08
 
   -0.18499E+08         0.14709E+04         0.00000E+00
    0.14709E+04        -0.19500E+07         0.00000E+00
    0.00000E+00         0.00000E+00        -0.18668E+08
 
   -0.18492E+08         0.67125E+04         0.00000E+00
    0.67125E+04        -0.19487E+07         0.00000E+00
    0.00000E+00         0.00000E+00        -0.18651E+08
 
   -0.18484E+08         0.12624E+05         0.00000E+00
    0.12624E+05        -0.19482E+07         0.00000E+00
    0.00000E+00         0.00000E+00        -0.18634E+08
 
   -0.18475E+08         0.18825E+05         0.00000E+00
    0.18825E+05        -0.19482E+07         0.00000E+00
    0.00000E+00         0.00000E+00        -0.18616E+08
 
   -0.18465E+08         0.25056E+05         0.00000E+00
    0.25056E+05        -0.19485E+07         0.00000E+00
    0.00000E+00         0.00000E+00        -0.18598E+08
 
   -0.18453E+08         0.31149E+05         0.00000E+00
    0.31149E+05        -0.19490E+07         0.00000E+00
    0.00000E+00         0.00000E+00        -0.18579E+08
 
   -0.18440E+08         0.37001E+05         0.00000E+00
    0.37001E+05        -0.19496E+07         0.00000E+00
    0.00000E+00         0.00000E+00        -0.18560E+08
 
   -0.18426E+08         0.42555E+05         0.00000E+00
    0.42555E+05        -0.19503E+07         0.00000E+00
    0.00000E+00         0.00000E+00        -0.18541E+08
 
   -0.18411E+08         0.47789E+05         0.00000E+00
    0.47789E+05        -0.19509E+07         0.00000E+00
    0.00000E+00         0.00000E+00        -0.18521E+08
 
   -0.18394E+08         0.52703E+05         0.00000E+00
    0.52703E+05        -0.19516E+07         0.00000E+00
    0.00000E+00         0.00000E+00        -0.18500E+08
 
   -0.18377E+08         0.57310E+05         0.00000E+00
    0.57310E+05        -0.19522E+07         0.00000E+00
    0.00000E+00         0.00000E+00        -0.18479E+08
 
   -0.18358E+08         0.61634E+05         0.00000E+00
    0.61634E+05        -0.19527E+07         0.00000E+00
    0.00000E+00         0.00000E+00        -0.18457E+08
 
   -0.18338E+08         0.65702E+05         0.00000E+00
    0.65702E+05        -0.19532E+07         0.00000E+00
    0.00000E+00         0.00000E+00        -0.18434E+08
 
   -0.18318E+08         0.69545E+05         0.00000E+00
    0.69545E+05        -0.19536E+07         0.00000E+00
    0.00000E+00         0.00000E+00        -0.18411E+08
 
   -0.18296E+08         0.73190E+05         0.00000E+00
    0.73190E+05        -0.19539E+07         0.00000E+00
    0.00000E+00         0.00000E+00        -0.18388E+08
 
   -0.18273E+08         0.76667E+05         0.00000E+00
    0.76667E+05        -0.19542E+07         0.00000E+00
    0.00000E+00         0.00000E+00        -0.18363E+08
 
   -0.18249E+08         0.80002E+05         0.00000E+00
    0.80002E+05        -0.19545E+07         0.00000E+00
    0.00000E+00         0.00000E+00        -0.18339E+08
 
   -0.18225E+08         0.83216E+05         0.00000E+00
    0.83216E+05        -0.19547E+07         0.00000E+00
    0.00000E+00         0.00000E+00        -0.18313E+08
 
   -0.18199E+08         0.86331E+05         0.00000E+00
    0.86331E+05        -0.19548E+07         0.00000E+00
    0.00000E+00         0.00000E+00        -0.18287E+08
 
   -0.18173E+08         0.89365E+05         0.00000E+00
    0.89365E+05        -0.19550E+07         0.00000E+00
    0.00000E+00         0.00000E+00        -0.18260E+08
 
   -0.18146E+08         0.92334E+05         0.00000E+00
    0.92334E+05        -0.19551E+07         0.00000E+00
    0.00000E+00         0.00000E+00        -0.18233E+08
 
   -0.18118E+08         0.95252E+05         0.00000E+00
    0.95252E+05        -0.19551E+07         0.00000E+00
    0.00000E+00         0.00000E+00        -0.18205E+08
 
   -0.18089E+08         0.98129E+05         0.00000E+00
    0.98129E+05        -0.19552E+07         0.00000E+00
    0.00000E+00         0.00000E+00        -0.18176E+08
 
   -0.18059E+08         0.10098E+06         0.00000E+00
    0.10098E+06        -0.19552E+07         0.00000E+00
    0.00000E+00         0.00000E+00        -0.18147E+08
 
   -0.18028E+08         0.10380E+06         0.00000E+00
    0.10380E+06        -0.19553E+07         0.00000E+00
    0.00000E+00         0.00000E+00        -0.18116E+08
 
   -0.17997E+08         0.10661E+06         0.00000E+00
    0.10661E+06        -0.19553E+07         0.00000E+00
    0.00000E+00         0.00000E+00        -0.18086E+08
 
   -0.17964E+08         0.10942E+06         0.00000E+00
    0.10942E+06        -0.19553E+07         0.00000E+00
    0.00000E+00         0.00000E+00        -0.18054E+08
 
   -0.17931E+08         0.11221E+06         0.00000E+00
    0.11221E+06        -0.19553E+07         0.00000E+00
    0.00000E+00         0.00000E+00        -0.18022E+08
 
   -0.17897E+08         0.11501E+06         0.00000E+00
    0.11501E+06        -0.19553E+07         0.00000E+00
    0.00000E+00         0.00000E+00        -0.17989E+08
 
   -0.17862E+08         0.11782E+06         0.00000E+00
    0.11782E+06        -0.19553E+07         0.00000E+00
    0.00000E+00         0.00000E+00        -0.17955E+08
 
   -0.17826E+08         0.12063E+06         0.00000E+00
    0.12063E+06        -0.19553E+07         0.00000E+00
    0.00000E+00         0.00000E+00        -0.17920E+08
 
   -0.17790E+08         0.12344E+06         0.00000E+00
    0.12344E+06        -0.19553E+07         0.00000E+00
    0.00000E+00         0.00000E+00        -0.17884E+08
 
   -0.17752E+08         0.12627E+06         0.00000E+00
    0.12627E+06        -0.19553E+07         0.00000E+00
    0.00000E+00         0.00000E+00        -0.17848E+08
 
   -0.17714E+08         0.12911E+06         0.00000E+00
    0.12911E+06        -0.19552E+07         0.00000E+00
    0.00000E+00         0.00000E+00        -0.17811E+08
 
   -0.17675E+08         0.13196E+06         0.00000E+00
    0.13196E+06        -0.19552E+07         0.00000E+00
    0.00000E+00         0.00000E+00        -0.17773E+08
 
   -0.17635E+08         0.13482E+06         0.00000E+00
    0.13482E+06        -0.19552E+07         0.00000E+00
    0.00000E+00         0.00000E+00        -0.17734E+08
 
   -0.17594E+08         0.13769E+06         0.00000E+00
    0.13769E+06        -0.19552E+07         0.00000E+00
    0.00000E+00         0.00000E+00        -0.17694E+08
 
   -0.17552E+08         0.14057E+06         0.00000E+00
    0.14057E+06        -0.19552E+07         0.00000E+00
    0.00000E+00         0.00000E+00        -0.17653E+08
 
   -0.17510E+08         0.14346E+06         0.00000E+00
    0.14346E+06        -0.19552E+07         0.00000E+00
    0.00000E+00         0.00000E+00        -0.17611E+08
 
   -0.17466E+08         0.14636E+06         0.00000E+00
    0.14636E+06        -0.19551E+07         0.00000E+00
    0.00000E+00         0.00000E+00        -0.17569E+08
 
   -0.17422E+08         0.14926E+06         0.00000E+00
    0.14926E+06        -0.19551E+07         0.00000E+00
    0.00000E+00         0.00000E+00        -0.17525E+08
 
   -0.17376E+08         0.15216E+06         0.00000E+00
    0.15216E+06        -0.19551E+07         0.00000E+00
    0.00000E+00         0.00000E+00        -0.17480E+08
 
   -0.17330E+08         0.15506E+06         0.00000E+00
    0.15506E+06        -0.19552E+07         0.00000E+00
    0.00000E+00         0.00000E+00        -0.17435E+08
 
   -0.17283E+08         0.15796E+06         0.00000E+00
    0.15796E+06        -0.19552E+07         0.00000E+00
    0.00000E+00         0.00000E+00        -0.17388E+08
 
   -0.17235E+08         0.16084E+06         0.00000E+00
    0.16084E+06        -0.19552E+07         0.00000E+00
    0.00000E+00         0.00000E+00        -0.17341E+08
 
   -0.17186E+08         0.16371E+06         0.00000E+00
    0.16371E+06        -0.19552E+07         0.00000E+00
    0.00000E+00         0.00000E+00        -0.17292E+08
 
   -0.17136E+08         0.16657E+06         0.00000E+00
    0.16657E+06        -0.19553E+07         0.00000E+00
    0.00000E+00         0.00000E+00        -0.17242E+08
 
   -0.17085E+08         0.16940E+06         0.00000E+00
    0.16940E+06        -0.19553E+07         0.00000E+00
    0.00000E+00         0.00000E+00        -0.17191E+08
 
   -0.17034E+08         0.17219E+06         0.00000E+00
    0.17219E+06        -0.19554E+07         0.00000E+00
    0.00000E+00         0.00000E+00        -0.17140E+08
 
   -0.16981E+08         0.17496E+06         0.00000E+00
    0.17496E+06        -0.19554E+07         0.00000E+00
    0.00000E+00         0.00000E+00        -0.17087E+08
 
   -0.16928E+08         0.17767E+06         0.00000E+00
    0.17767E+06        -0.19555E+07         0.00000E+00
    0.00000E+00         0.00000E+00        -0.17033E+08
 
   -0.16874E+08         0.18034E+06         0.00000E+00
    0.18034E+06        -0.19556E+07         0.00000E+00
    0.00000E+00         0.00000E+00        -0.16978E+08
 
   -0.16819E+08         0.18294E+06         0.00000E+00
    0.18294E+06        -0.19557E+07         0.00000E+00
    0.00000E+00         0.00000E+00        -0.16922E+08
 
   -0.16763E+08         0.18548E+06         0.00000E+00
    0.18548E+06        -0.19558E+07         0.00000E+00
    0.00000E+00         0.00000E+00        -0.16864E+08
 
   -0.16706E+08         0.18794E+06         0.00000E+00
    0.18794E+06        -0.19560E+07         0.00000E+00
    0.00000E+00         0.00000E+00        -0.16806E+08
 
   -0.16648E+08         0.19030E+06         0.00000E+00
    0.19030E+06        -0.19562E+07         0.00000E+00
    0.00000E+00         0.00000E+00        -0.16747E+08
 
   -0.16590E+08         0.19257E+06         0.00000E+00
    0.19257E+06        -0.19563E+07         0.00000E+00
    0.00000E+00         0.00000E+00        -0.16686E+08
 
   -0.16531E+08         0.19472E+06         0.00000E+00
    0.19472E+06        -0.19565E+07         0.00000E+00
    0.00000E+00         0.00000E+00        -0.16625E+08
 
   -0.16471E+08         0.19675E+06         0.00000E+00
    0.19675E+06        -0.19568E+07         0.00000E+00
    0.00000E+00         0.00000E+00        -0.16562E+08
 
   -0.16411E+08         0.19863E+06         0.00000E+00
    0.19863E+06        -0.19570E+07         0.00000E+00
    0.00000E+00         0.00000E+00        -0.16498E+08
 
   -0.16350E+08         0.20036E+06         0.00000E+00
    0.20036E+06        -0.19573E+07         0.00000E+00
    0.00000E+00         0.00000E+00        -0.16434E+08
 
   -0.16289E+08         0.20191E+06         0.00000E+00
    0.20191E+06        -0.19576E+07         0.00000E+00
    0.00000E+00         0.00000E+00        -0.16368E+08
 
   -0.16227E+08         0.20328E+06         0.00000E+00
    0.20328E+06        -0.19579E+07         0.00000E+00
    0.00000E+00         0.00000E+00        -0.16301E+08
 
   -0.16164E+08         0.20443E+06         0.00000E+00
    0.20443E+06        -0.19583E+07         0.00000E+00
    0.00000E+00         0.00000E+00        -0.16233E+08
 
   -0.16101E+08         0.20535E+06         0.00000E+00
    0.20535E+06        -0.19587E+07         0.00000E+00
    0.00000E+00         0.00000E+00        -0.16164E+08
 
   -0.16038E+08         0.20601E+06         0.00000E+00
    0.20601E+06        -0.19592E+07         0.00000E+00
    0.00000E+00         0.00000E+00        -0.16095E+08
 
   -0.15974E+08         0.20638E+06         0.00000E+00
    0.20638E+06        -0.19597E+07         0.00000E+00
    0.00000E+00         0.00000E+00        -0.16024E+08
 
   -0.15910E+08         0.20645E+06         0.00000E+00
    0.20645E+06        -0.19602E+07         0.00000E+00
    0.00000E+00         0.00000E+00        -0.15953E+08
 
   -0.15847E+08         0.20616E+06         0.00000E+00
    0.20616E+06        -0.19609E+07         0.00000E+00
    0.00000E+00         0.00000E+00        -0.15880E+08
 
   -0.15783E+08         0.20549E+06         0.00000E+00
    0.20549E+06        -0.19615E+07         0.00000E+00
    0.00000E+00         0.00000E+00        -0.15807E+08
 
   -0.15719E+08         0.20439E+06         0.00000E+00
    0.20439E+06        -0.19623E+07         0.00000E+00
    0.00000E+00         0.00000E+00        -0.15733E+08
 
   -0.15656E+08         0.20281E+06         0.00000E+00
    0.20281E+06        -0.19632E+07         0.00000E+00
    0.00000E+00         0.00000E+00        -0.15659E+08
 
   -0.15593E+08         0.20070E+06         0.00000E+00
    0.20070E+06        -0.19641E+07         0.00000E+00
    0.00000E+00         0.00000E+00        -0.15583E+08
 
   -0.15530E+08         0.19800E+06         0.00000E+00
    0.19800E+06        -0.19652E+07         0.00000E+00
    0.00000E+00         0.00000E+00        -0.15508E+08
 
   -0.15468E+08         0.19463E+06         0.00000E+00
    0.19463E+06        -0.19665E+07         0.00000E+00
    0.00000E+00         0.00000E+00        -0.15431E+08
 
   -0.15407E+08         0.19051E+06         0.00000E+00
    0.19051E+06        -0.19679E+07         0.00000E+00
    0.00000E+00         0.00000E+00        -0.15355E+08
 
   -0.15347E+08         0.18555E+06         0.00000E+00
    0.18555E+06        -0.19695E+07         0.00000E+00
    0.00000E+00         0.00000E+00        -0.15277E+08
 
   -0.15288E+08         0.17965E+06         0.00000E+00
    0.17965E+06        -0.19713E+07         0.00000E+00
    0.00000E+00         0.00000E+00        -0.15200E+08
 
   -0.15231E+08         0.17270E+06         0.00000E+00
    0.17270E+06        -0.19733E+07         0.00000E+00
    0.00000E+00         0.00000E+00        -0.15123E+08
 
   -0.15175E+08         0.16457E+06         0.00000E+00
    0.16457E+06        -0.19756E+07         0.00000E+00
    0.00000E+00         0.00000E+00        -0.15045E+08
 
   -0.15122E+08         0.15515E+06         0.00000E+00
    0.15515E+06        -0.19782E+07         0.00000E+00
    0.00000E+00         0.00000E+00        -0.14967E+08
 
   -0.15070E+08         0.14431E+06         0.00000E+00
    0.14431E+06        -0.19810E+07         0.00000E+00
    0.00000E+00         0.00000E+00        -0.14890E+08
 
   -0.15021E+08         0.13195E+06         0.00000E+00
    0.13195E+06        -0.19841E+07         0.00000E+00
    0.00000E+00         0.00000E+00        -0.14813E+08
 
   -0.14974E+08         0.11796E+06         0.00000E+00
    0.11796E+06        -0.19874E+07         0.00000E+00
    0.00000E+00         0.00000E+00        -0.14736E+08
 
   -0.14930E+08         0.10231E+06         0.00000E+00
    0.10231E+06        -0.19908E+07         0.00000E+00
    0.00000E+00         0.00000E+00        -0.14659E+08
 
   -0.14889E+08         0.85035E+05         0.00000E+00
    0.85035E+05        -0.19941E+07         0.00000E+00
    0.00000E+00         0.00000E+00        -0.14583E+08
 
   -0.14852E+08         0.66256E+05         0.00000E+00
    0.66256E+05        -0.19971E+07         0.00000E+00
    0.00000E+00         0.00000E+00        -0.14508E+08
 
   -0.14818E+08         0.46266E+05         0.00000E+00
    0.46266E+05        -0.19995E+07         0.00000E+00
    0.00000E+00         0.00000E+00        -0.14433E+08
 
   -0.14787E+08         0.25574E+05         0.00000E+00
    0.25574E+05        -0.20009E+07         0.00000E+00
    0.00000E+00         0.00000E+00        -0.14358E+08
 
   -0.14760E+08         0.49931E+04         0.00000E+00
    0.49931E+04        -0.20007E+07         0.00000E+00
    0.00000E+00         0.00000E+00        -0.14283E+08
 
   -0.14735E+08        -0.14250E+05         0.00000E+00
   -0.14250E+05        -0.19982E+07         0.00000E+00
    0.00000E+00         0.00000E+00        -0.14209E+08
 
   -0.14713E+08        -0.30366E+05         0.00000E+00
   -0.30366E+05        -0.19921E+07         0.00000E+00
    0.00000E+00         0.00000E+00        -0.14134E+08
 
   -0.14693E+08        -0.40844E+05         0.00000E+00
   -0.40844E+05        -0.19804E+07         0.00000E+00
    0.00000E+00         0.00000E+00        -0.14057E+08
 
   -0.14675E+08        -0.42540E+05         0.00000E+00
   -0.42540E+05        -0.19593E+07         0.00000E+00
    0.00000E+00         0.00000E+00        -0.13978E+08
 
   -0.14659E+08        -0.32843E+05         0.00000E+00
   -0.32843E+05        -0.19219E+07         0.00000E+00
    0.00000E+00         0.00000E+00        -0.13895E+08
 
   -0.14650E+08        -0.12459E+05         0.00000E+00
   -0.12459E+05        -0.18589E+07         0.00000E+00
    0.00000E+00         0.00000E+00        -0.13806E+08
 
   -0.18510E+08        -0.20635E+04         0.00000E+00
   -0.20635E+04        -0.19779E+07         0.00000E+00
    0.00000E+00         0.00000E+00        -0.18739E+08
 
   -0.18507E+08        -0.51106E+04         0.00000E+00
   -0.51106E+04        -0.19647E+07         0.00000E+00
    0.00000E+00         0.00000E+00        -0.18719E+08
 
   -0.18503E+08        -0.56685E+04         0.00000E+00
   -0.56685E+04        -0.19572E+07         0.00000E+00
    0.00000E+00         0.00000E+00        -0.18701E+08
 
   -0.18498E+08        -0.36714E+04         0.00000E+00
   -0.36714E+04        -0.19531E+07         0.00000E+00
    0.00000E+00         0.00000E+00        -0.18684E+08
 
   -0.18493E+08         0.21416E+03         0.00000E+00
    0.21416E+03        -0.19510E+07         0.00000E+00
    0.00000E+00         0.00000E+00        -0.18667E+08
 
   -0.18486E+08         0.52716E+04         0.00000E+00
    0.52716E+04        -0.19498E+07         0.00000E+00
    0.00000E+00         0.00000E+00        -0.18650E+08
 
   -0.18479E+08         0.10965E+05         0.00000E+00
    0.10965E+05        -0.19494E+07         0.00000E+00
    0.00000E+00         0.00000E+00        -0.18633E+08
 
   -0.18470E+08         0.16925E+05         0.00000E+00
    0.16925E+05        -0.19494E+07         0.00000E+00
    0.00000E+00         0.00000E+00        -0.18615E+08
 
   -0.18460E+08         0.22904E+05         0.00000E+00
    0.22904E+05        -0.19497E+07         0.00000E+00
    0.00000E+00         0.00000E+00        -0.18597E+08
 
   -0.18449E+08         0.28742E+05         0.00000E+00
    0.28742E+05        -0.19501E+07         0.00000E+00
    0.00000E+00         0.00000E+00        -0.18578E+08
 
   -0.18437E+08         0.34340E+05         0.00000E+00
    0.34340E+05        -0.19507E+07         0.00000E+00
    0.00000E+00         0.00000E+00        -0.18560E+08
 
   -0.18423E+08         0.39645E+05         0.00000E+00
    0.39645E+05        -0.19513E+07         0.00000E+00
    0.00000E+00         0.00000E+00        -0.18540E+08
 
   -0.18408E+08         0.44637E+05         0.00000E+00
    0.44637E+05        -0.19519E+07         0.00000E+00
    0.00000E+00         0.00000E+00        -0.18520E+08
 
   -0.18391E+08         0.49316E+05         0.00000E+00
    0.49316E+05        -0.19525E+07         0.00000E+00
    0.00000E+00         0.00000E+00        -0.18499E+08
 
   -0.18374E+08         0.53696E+05         0.00000E+00
    0.53696E+05        -0.19530E+07         0.00000E+00
    0.00000E+00         0.00000E+00        -0.18478E+08
 
   -0.18355E+08         0.57801E+05         0.00000E+00
    0.57801E+05        -0.19535E+07         0.00000E+00
    0.00000E+00         0.00000E+00        -0.18456E+08
 
   -0.18336E+08         0.61658E+05         0.00000E+00
    0.61658E+05        -0.19539E+07         0.00000E+00
    0.00000E+00         0.00000E+00        -0.18434E+08
 
   -0.18315E+08         0.65295E+05         0.00000E+00
    0.65295E+05        -0.19543E+07         0.00000E+00
    0.00000E+00         0.00000E+00        -0.18411E+08
 
   -0.18293E+08         0.68743E+05         0.00000E+00
    0.68743E+05        -0.19546E+07         0.00000E+00
    0.00000E+00         0.00000E+00        -0.18387E+08
 
   -0.18271E+08         0.72027E+05         0.00000E+00
    0.72027E+05        -0.19549E+07         0.00000E+00
    0.00000E+00         0.00000E+00        -0.18363E+08
 
   -0.18247E+08         0.75174E+05         0.00000E+00
    0.75174E+05        -0.19551E+07         0.00000E+00
    0.00000E+00         0.00000E+00        -0.18338E+08
 
   -0.18222E+08         0.78205E+05         0.00000E+00
    0.78205E+05        -0.19553E+07         0.00000E+00
    0.00000E+00         0.00000E+00        -0.18313E+08
 
   -0.18197E+08         0.81141E+05         0.00000E+00
    0.81141E+05        -0.19554E+07         0.00000E+00
    0.00000E+00         0.00000E+00        -0.18286E+08
 
   -0.18170E+08         0.83998E+05         0.00000E+00
    0.83998E+05        -0.19555E+07         0.00000E+00
    0.00000E+00         0.00000E+00        -0.18260E+08
 
   -0.18143E+08         0.86794E+05         0.00000E+00
    0.86794E+05        -0.19556E+07         0.00000E+00
    0.00000E+00         0.00000E+00        -0.18232E+08
 
   -0.18115E+08         0.89539E+05         0.00000E+00
    0.89539E+05        -0.19557E+07         0.00000E+00
    0.00000E+00         0.00000E+00        -0.18204E+08
 
   -0.18086E+08         0.92246E+05         0.00000E+00
    0.92246E+05        -0.19558E+07         0.00000E+00
    0.00000E+00         0.00000E+00        -0.18175E+08
 
   -0.18056E+08         0.94924E+05         0.00000E+00
    0.94924E+05        -0.19558E+07         0.00000E+00
    0.00000E+00         0.00000E+00        -0.18146E+08
 
   -0.18025E+08         0.97581E+05         0.00000E+00
    0.97581E+05        -0.19558E+07         0.00000E+00
    0.00000E+00         0.00000E+00        -0.18116E+08
 
   -0.17994E+08         0.10022E+06         0.00000E+00
    0.10022E+06        -0.19558E+07         0.00000E+00
    0.00000E+00         0.00000E+00        -0.18085E+08
 
   -0.17962E+08         0.10286E+06         0.00000E+00
    0.10286E+06        -0.19558E+07         0.00000E+00
    0.00000E+00         0.00000E+00        -0.18053E+08
 
   -0.17928E+08         0.10549E+06         0.00000E+00
    0.10549E+06        -0.19558E+07         0.00000E+00
    0.00000E+00         0.00000E+00        -0.18021E+08
 
   -0.17894E+08         0.10812E+06         0.00000E+00
    0.10812E+06        -0.19558E+07         0.00000E+00
    0.00000E+00         0.00000E+00        -0.17988E+08
 
   -0.17859E+08         0.11075E+06         0.00000E+00
    0.11075E+06        -0.19558E+07         0.00000E+00
    0.00000E+00         0.00000E+00        -0.17954E+08
 
   -0.17824E+08         0.11339E+06         0.00000E+00
    0.11339E+06        -0.19558E+07         0.00000E+00
    0.00000E+00         0.00000E+00        -0.17919E+08
 
   -0.17787E+08         0.11604E+06         0.00000E+00
    0.11604E+06        -0.19558E+07         0.00000E+00
    0.00000E+00         0.00000E+00        -0.17884E+08
 
   -0.17749E+08         0.11870E+06         0.00000E+00
    0.11870E+06        -0.19558E+07         0.00000E+00
    0.00000E+00         0.00000E+00        -0.17847E+08
 
   -0.17711E+08         0.12136E+06         0.00000E+00
    0.12136E+06        -0.19558E+07         0.00000E+00
    0.00000E+00         0.00000E+00        -0.17810E+08
 
   -0.17672E+08         0.12404E+06         0.00000E+00
    0.12404E+06        -0.19558E+07         0.00000E+00
    0.00000E+00         0.00000E+00        -0.17772E+08
 
   -0.17632E+08         0.12672E+06         0.00000E+00
    0.12672E+06        -0.19558E+07         0.00000E+00
    0.00000E+00         0.00000E+00        -0.17733E+08
 
   -0.17591E+08         0.12942E+06         0.00000E+00
    0.12942E+06        -0.19557E+07         0.00000E+00
    0.00000E+00         0.00000E+00        -0.17693E+08
 
   -0.17549E+08         0.13213E+06         0.00000E+00
    0.13213E+06        -0.19557E+07         0.00000E+00
    0.00000E+00         0.00000E+00        -0.17652E+08
 
   -0.17506E+08         0.13484E+06         0.00000E+00
    0.13484E+06        -0.19557E+07         0.00000E+00
    0.00000E+00         0.00000E+00        -0.17611E+08
 
   -0.17463E+08         0.13756E+06         0.00000E+00
    0.13756E+06        -0.19557E+07         0.00000E+00
    0.00000E+00         0.00000E+00        -0.17568E+08
 
   -0.17418E+08         0.14028E+06         0.00000E+00
    0.14028E+06        -0.19557E+07         0.00000E+00
    0.00000E+00         0.00000E+00        -0.17524E+08
 
   -0.17373E+08         0.14300E+06         0.00000E+00
    0.14300E+06        -0.19557E+07         0.00000E+00
    0.00000E+00         0.00000E+00        -0.17480E+08
 
   -0.17327E+08         0.14572E+06         0.00000E+00
    0.14572E+06        -0.19557E+07         0.00000E+00
    0.00000E+00         0.00000E+00        -0.17434E+08
 
   -0.17279E+08         0.14843E+06         0.00000E+00
    0.14843E+06        -0.19557E+07         0.00000E+00
    0.00000E+00         0.00000E+00        -0.17387E+08
 
   -0.17231E+08         0.15114E+06         0.00000E+00
    0.15114E+06        -0.19557E+07         0.00000E+00
    0.00000E+00         0.00000E+00        -0.17340E+08
 
   -0.17182E+08         0.15383E+06         0.00000E+00
    0.15383E+06        -0.19558E+07         0.00000E+00
    0.00000E+00         0.00000E+00        -0.17291E+08
 
   -0.17133E+08         0.15651E+06         0.00000E+00
    0.15651E+06        -0.19558E+07         0.00000E+00
    0.00000E+00         0.00000E+00        -0.17241E+08
 
   -0.17082E+08         0.15916E+06         0.00000E+00
    0.15916E+06        -0.19558E+07         0.00000E+00
    0.00000E+00         0.00000E+00        -0.17191E+08
 
   -0.17030E+08         0.16178E+06         0.00000E+00
    0.16178E+06        -0.19559E+07         0.00000E+00
    0.00000E+00         0.00000E+00        -0.17139E+08
 
   -0.16978E+08         0.16437E+06         0.00000E+00
    0.16437E+06        -0.19560E+07         0.00000E+00
    0.00000E+00         0.00000E+00        -0.17086E+08
 
   -0.16924E+08         0.16691E+06         0.00000E+00
    0.16691E+06        -0.19560E+07         0.00000E+00
    0.00000E+00         0.00000E+00        -0.17032E+08
 
   -0.16870E+08         0.16941E+06         0.00000E+00
    0.16941E+06        -0.19561E+07         0.00000E+00
    0.00000E+00         0.00000E+00        -0.16977E+08
 
   -0.16815E+08         0.17185E+06         0.00000E+00
    0.17185E+06        -0.19562E+07         0.00000E+00
    0.00000E+00         0.00000E+00        -0.16921E+08
 
   -0.16759E+08         0.17422E+06         0.00000E+00
    0.17422E+06        -0.19563E+07         0.00000E+00
    0.00000E+00         0.00000E+00        -0.16863E+08
 
   -0.16702E+08         0.17652E+06         0.00000E+00
    0.17652E+06        -0.19565E+07         0.00000E+00
    0.00000E+00         0.00000E+00        -0.16805E+08
 
   -0.16645E+08         0.17873E+06         0.00000E+00
    0.17873E+06        -0.19566E+07         0.00000E+00
    0.00000E+00         0.00000E+00        -0.16746E+08
 
   -0.16587E+08         0.18085E+06         0.00000E+00
    0.18085E+06        -0.19568E+07         0.00000E+00
    0.00000E+00         0.00000E+00        -0.16685E+08
 
   -0.16528E+08         0.18286E+06         0.00000E+00
    0.18286E+06        -0.19569E+07         0.00000E+00
    0.00000E+00         0.00000E+00        -0.16624E+08
 
   -0.16468E+08         0.18475E+06         0.00000E+00
    0.18475E+06        -0.19571E+07         0.00000E+00
    0.00000E+00         0.00000E+00        -0.16561E+08
 
   -0.16408E+08         0.18650E+06         0.00000E+00
    0.18650E+06        -0.19574E+07         0.00000E+00
    0.00000E+00         0.00000E+00        -0.16497E+08
 
   -0.16347E+08         0.18811E+06         0.00000E+00
    0.18811E+06        -0.19576E+07         0.00000E+00
    0.00000E+00         0.00000E+00        -0.16433E+08
 
   -0.16286E+08         0.18956E+06         0.00000E+00
    0.18956E+06        -0.19579E+07         0.00000E+00
    0.00000E+00         0.00000E+00        -0.16367E+08
 
   -0.16224E+08         0.19082E+06         0.00000E+00
    0.19082E+06        -0.19582E+07         0.00000E+00
    0.00000E+00         0.00000E+00        -0.16300E+08
 
   -0.16161E+08         0.19189E+06         0.00000E+00
    0.19189E+06        -0.19585E+07         0.00000E+00
    0.00000E+00         0.00000E+00        -0.16232E+08
 
   -0.16098E+08         0.19273E+06         0.00000E+00
    0.19273E+06        -0.19589E+07         0.00000E+00
    0.00000E+00         0.00000E+00        -0.16164E+08
 
   -0.16035E+08         0.19334E+06         0.00000E+00
    0.19334E+06        -0.19593E+07         0.00000E+00
    0.00000E+00         0.00000E+00        -0.16094E+08
 
   -0.15972E+08         0.19367E+06         0.00000E+00
    0.19367E+06        -0.19597E+07         0.00000E+00
    0.00000E+00         0.00000E+00        -0.16023E+08
 
   -0.15908E+08         0.19371E+06         0.00000E+00
    0.19371E+06        -0.19602E+07         0.00000E+00
    0.00000E+00         0.00000E+00        -0.15952E+08
 
   -0.15845E+08         0.19341E+06         0.00000E+00
    0.19341E+06        -0.19608E+07         0.00000E+00
    0.00000E+00         0.00000E+00        -0.15880E+08
 
   -0.15781E+08         0.19276E+06         0.00000E+00
    0.19276E+06        -0.19614E+07         0.00000E+00
    0.00000E+00         0.00000E+00        -0.15807E+08
 
   -0.15718E+08         0.19170E+06         0.00000E+00
    0.19170E+06        -0.19620E+07         0.00000E+00
    0.00000E+00         0.00000E+00        -0.15733E+08
 
   -0.15654E+08         0.19018E+06         0.00000E+00
    0.19018E+06        -0.19628E+07         0.00000E+00
    0.00000E+00         0.00000E+00        -0.15658E+08
 
   -0.15592E+08         0.18817E+06         0.00000E+00
    0.18817E+06        -0.19637E+07         0.00000E+00
    0.00000E+00         0.00000E+00        -0.15583E+08
 
   -0.15530E+08         0.18559E+06         0.00000E+00
    0.18559E+06        -0.19646E+07         0.00000E+00
    0.00000E+00         0.00000E+00        -0.15507E+08
 
   -0.15468E+08         0.18237E+06         0.00000E+00
    0.18237E+06        -0.19657E+07         0.00000E+00
    0.00000E+00         0.00000E+00        -0.15431E+08
 
   -0.15407E+08         0.17844E+06         0.00000E+00
    0.17844E+06        -0.19670E+07         0.00000E+00
    0.00000E+00         0.00000E+00        -0.15354E+08
 
   -0.15348E+08         0.17371E+06         0.00000E+00
    0.17371E+06        -0.19684E+07         0.00000E+00
    0.00000E+00         0.00000E+00        -0.15277E+08
 
   -0.15290E+08         0.16809E+06         0.00000E+00
    0.16809E+06        -0.19700E+07         0.00000E+00
    0.00000E+00         0.00000E+00        -0.15200E+08
 
   -0.15233E+08         0.16145E+06         0.00000E+00
    0.16145E+06        -0.19719E+07         0.00000E+00
    0.00000E+00         0.00000E+00        -0.15123E+08
 
   -0.15178E+08         0.15369E+06         0.00000E+00
    0.15369E+06        -0.19739E+07         0.00000E+00
    0.00000E+00         0.00000E+00        -0.15045E+08
 
   -0.15125E+08         0.14468E+06         0.00000E+00
    0.14468E+06        -0.19762E+07         0.00000E+00
    0.00000E+00         0.00000E+00        -0.14968E+08
 
   -0.15074E+08         0.13430E+06         0.00000E+00
    0.13430E+06        -0.19788E+07         0.00000E+00
    0.00000E+00         0.00000E+00        -0.14891E+08
 
   -0.15026E+08         0.12244E+06         0.00000E+00
    0.12244E+06        -0.19815E+07         0.00000E+00
    0.00000E+00         0.00000E+00        -0.14814E+08
 
   -0.14980E+08         0.10902E+06         0.00000E+00
    0.10902E+06        -0.19845E+07         0.00000E+00
    0.00000E+00         0.00000E+00        -0.14737E+08
 
   -0.14938E+08         0.93990E+05         0.00000E+00
    0.93990E+05        -0.19875E+07         0.00000E+00
    0.00000E+00         0.00000E+00        -0.14661E+08
 
   -0.14898E+08         0.77367E+05         0.00000E+00
    0.77367E+05        -0.19905E+07         0.00000E+00
    0.00000E+00         0.00000E+00        -0.14585E+08
 
   -0.14863E+08         0.59280E+05         0.00000E+00
    0.59280E+05        -0.19933E+07         0.00000E+00
    0.00000E+00         0.00000E+00        -0.14510E+08
 
   -0.14831E+08         0.40001E+05         0.00000E+00
    0.40001E+05        -0.19955E+07         0.00000E+00
    0.00000E+00         0.00000E+00        -0.14435E+08
 
   -0.14802E+08         0.20014E+05         0.00000E+00
    0.20014E+05        -0.19968E+07         0.00000E+00
    0.00000E+00         0.00000E+00        -0.14361E+08
 
   -0.14777E+08         0.94567E+02         0.00000E+00
    0.94567E+02        -0.19968E+07         0.00000E+00
    0.00000E+00         0.00000E+00        -0.14288E+08
 
   -0.14756E+08        -0.18581E+05         0.00000E+00
   -0.18581E+05        -0.19946E+07         0.00000E+00
    0.00000E+00         0.00000E+00        -0.14214E+08
 
   -0.14737E+08        -0.34282E+05         0.00000E+00
   -0.34282E+05        -0.19893E+07         0.00000E+00
    0.00000E+00         0.00000E+00        -0.14140E+08
 
   -0.14719E+08        -0.44508E+05         0.00000E+00
   -0.44508E+05        -0.19790E+07         0.00000E+00
    0.00000E+00         0.00000E+00        -0.14064E+08
 
   -0.14702E+08        -0.45937E+05         0.00000E+00
   -0.45937E+05        -0.19600E+07         0.00000E+00
    0.00000E+00         0.00000E+00        -0.13987E+08
 
   -0.14688E+08        -0.35493E+05         0.00000E+00
   -0.35493E+05        -0.19252E+07         0.00000E+00
    0.00000E+00         0.00000E+00        -0.13905E+08
 
   -0.14679E+08        -0.13500E+05         0.00000E+00
   -0.13500E+05        -0.18640E+07         0.00000E+00
    0.00000E+00         0.00000E+00        -0.13816E+08
 
   -0.18502E+08        -0.23318E+04         0.00000E+00
   -0.23318E+04        -0.19771E+07         0.00000E+00
    0.00000E+00         0.00000E+00        -0.18736E+08
 
   -0.18500E+08        -0.57964E+04         0.00000E+00
   -0.57964E+04        -0.19643E+07         0.00000E+00
    0.00000E+00         0.00000E+00        -0.18717E+08
 
   -0.18496E+08        -0.65667E+04         0.00000E+00
   -0.65667E+04        -0.19574E+07         0.00000E+00
    0.00000E+00         0.00000E+00        -0.18699E+08
 
   -0.18492E+08        -0.46863E+04         0.00000E+00
   -0.46863E+04        -0.19538E+07         0.00000E+00
    0.00000E+00         0.00000E+00        -0.18682E+08
 
   -0.18487E+08        -0.93420E+03         0.00000E+00
   -0.93420E+03        -0.19519E+07         0.00000E+00
    0.00000E+00         0.00000E+00        -0.18665E+08
 
   -0.18481E+08         0.39394E+04         0.00000E+00
    0.39394E+04        -0.19509E+07         0.00000E+00
    0.00000E+00         0.00000E+00        -0.18648E+08
 
   -0.18474E+08         0.94072E+04         0.00000E+00
    0.94072E+04        -0.19506E+07         0.00000E+00
    0.00000E+00         0.00000E+00        -0.18631E+08
 
   -0.18466E+08         0.15116E+05         0.00000E+00
    0.15116E+05        -0.19506E+07         0.00000E+00
    0.00000E+00         0.00000E+00        -0.18614E+08
 
   -0.18456E+08         0.20832E+05         0.00000E+00
    0.20832E+05        -0.19508E+07         0.00000E+00
    0.00000E+00         0.00000E+00        -0.18596E+08
 
   -0.18445E+08         0.26403E+05         0.00000E+00
    0.26403E+05        -0.19513E+07         0.00000E+00
    0.00000E+00         0.00000E+00        -0.18578E+08
 
   -0.18433E+08         0.31736E+05         0.00000E+00
    0.31736E+05        -0.19518E+07         0.00000E+00
    0.00000E+00         0.00000E+00        -0.18559E+08
 
   -0.18420E+08         0.36783E+05         0.00000E+00
    0.36783E+05        -0.19523E+07         0.00000E+00
    0.00000E+00         0.00000E+00        -0.18539E+08
 
   -0.18405E+08         0.41523E+05         0.00000E+00
    0.41523E+05        -0.19529E+07         0.00000E+00
    0.00000E+00         0.00000E+00        -0.18519E+08
 
   -0.18389E+08         0.45960E+05         0.00000E+00
    0.45960E+05        -0.19534E+07         0.00000E+00
    0.00000E+00         0.00000E+00        -0.18499E+08
 
   -0.18371E+08         0.50106E+05         0.00000E+00
    0.50106E+05        -0.19539E+07         0.00000E+00
    0.00000E+00         0.00000E+00        -0.18477E+08
 
   -0.18353E+08         0.53986E+05         0.00000E+00
    0.53986E+05        -0.19543E+07         0.00000E+00
    0.00000E+00         0.00000E+00        -0.18456E+08
 
   -0.18333E+08         0.57626E+05         0.00000E+00
    0.57626E+05        -0.19547E+07         0.00000E+00
    0.00000E+00         0.00000E+00        -0.18433E+08
 
   -0.18313E+08         0.61055E+05         0.00000E+00
    0.61055E+05        -0.19550E+07         0.00000E+00
    0.00000E+00         0.00000E+00        -0.18410E+08
 
   -0.18291E+08         0.64301E+05         0.00000E+00
    0.64301E+05        -0.19553E+07         0.00000E+00
    0.00000E+00         0.00000E+00        -0.18387E+08
 
   -0.18268E+08         0.67390E+05         0.00000E+00
    0.67390E+05        -0.19555E+07         0.00000E+00
    0.00000E+00         0.00000E+00        -0.18362E+08
 
   -0.18245E+08         0.70347E+05         0.00000E+00
    0.70347E+05        -0.19557E+07         0.00000E+00
    0.00000E+00         0.00000E+00        -0.18337E+08
 
   -0.18220E+08         0.73193E+05         0.00000E+00
    0.73193E+05        -0.19559E+07         0.00000E+00
    0.00000E+00         0.00000E+00        -0.18312E+08
 
   -0.18194E+08         0.75947E+05         0.00000E+00
    0.75947E+05        -0.19560E+07         0.00000E+00
    0.00000E+00         0.00000E+00        -0.18286E+08
 
   -0.18168E+08         0.78628E+05         0.00000E+00
    0.78628E+05        -0.19561E+07         0.00000E+00
    0.00000E+00         0.00000E+00        -0.18259E+08
 
   -0.18141E+08         0.81248E+05         0.00000E+00
    0.81248E+05        -0.19562E+07         0.00000E+00
    0.00000E+00         0.00000E+00        -0.18232E+08
 
   -0.18113E+08         0.83821E+05         0.00000E+00
    0.83821E+05        -0.19562E+07         0.00000E+00
    0.00000E+00         0.00000E+00        -0.18204E+08
 
   -0.18083E+08         0.86357E+05         0.00000E+00
    0.86357E+05        -0.19563E+07         0.00000E+00
    0.00000E+00         0.00000E+00        -0.18175E+08
 
   -0.18054E+08         0.88865E+05         0.00000E+00
    0.88865E+05        -0.19563E+07         0.00000E+00
    0.00000E+00         0.00000E+00        -0.18145E+08
 
   -0.18023E+08         0.91353E+05         0.00000E+00
    0.91353E+05        -0.19563E+07         0.00000E+00
    0.00000E+00         0.00000E+00        -0.18115E+08
 
   -0.17991E+08         0.93827E+05         0.00000E+00
    0.93827E+05        -0.19563E+07         0.00000E+00
    0.00000E+00         0.00000E+00        -0.18084E+08
 
   -0.17959E+08         0.96293E+05         0.00000E+00
    0.96293E+05        -0.19564E+07         0.00000E+00
    0.00000E+00         0.00000E+00        -0.18053E+08
 
   -0.17926E+08         0.98755E+05         0.00000E+00
    0.98755E+05        -0.19564E+07         0.00000E+00
    0.00000E+00         0.00000E+00        -0.18020E+08
 
   -0.17891E+08         0.10122E+06         0.00000E+00
    0.10122E+06        -0.19564E+07         0.00000E+00
    0.00000E+00         0.00000E+00        -0.17987E+08
 
   -0.17857E+08         0.10368E+06         0.00000E+00
    0.10368E+06        -0.19564E+07         0.00000E+00
    0.00000E+00         0.00000E+00        -0.17953E+08
 
   -0.17821E+08         0.10615E+06         0.00000E+00
    0.10615E+06        -0.19563E+07         0.00000E+00
    0.00000E+00         0.00000E+00        -0.17919E+08
 
   -0.17784E+08         0.10863E+06         0.00000E+00
    0.10863E+06        -0.19563E+07         0.00000E+00
    0.00000E+00         0.00000E+00        -0.17883E+08
 
   -0.17747E+08         0.11111E+06         0.00000E+00
    0.11111E+06        -0.19563E+07         0.00000E+00
    0.00000E+00         0.00000E+00        -0.17847E+08
 
   -0.17708E+08         0.11361E+06         0.00000E+00
    0.11361E+06        -0.19563E+07         0.00000E+00
    0.00000E+00         0.00000E+00        -0.17809E+08
 
   -0.17669E+08         0.11611E+06         0.00000E+00
    0.11611E+06        -0.19563E+07         0.00000E+00
    0.00000E+00         0.00000E+00        -0.17771E+08
 
   -0.17629E+08         0.11862E+06         0.00000E+00
    0.11862E+06        -0.19563E+07         0.00000E+00
    0.00000E+00         0.00000E+00        -0.17732E+08
 
   -0.17588E+08         0.12114E+06         0.00000E+00
    0.12114E+06        -0.19563E+07         0.00000E+00
    0.00000E+00         0.00000E+00        -0.17692E+08
 
   -0.17546E+08         0.12367E+06         0.00000E+00
    0.12367E+06        -0.19563E+07         0.00000E+00
    0.00000E+00         0.00000E+00        -0.17652E+08
 
   -0.17503E+08         0.12620E+06         0.00000E+00
    0.12620E+06        -0.19562E+07         0.00000E+00
    0.00000E+00         0.00000E+00        -0.17610E+08
 
   -0.17460E+08         0.12874E+06         0.00000E+00
    0.12874E+06        -0.19562E+07         0.00000E+00
    0.00000E+00         0.00000E+00        -0.17567E+08
 
   -0.17415E+08         0.13129E+06         0.00000E+00
    0.13129E+06        -0.19562E+07         0.00000E+00
    0.00000E+00         0.00000E+00        -0.17523E+08
 
   -0.17370E+08         0.13383E+06         0.00000E+00
    0.13383E+06        -0.19562E+07         0.00000E+00
    0.00000E+00         0.00000E+00        -0.17479E+08
 
   -0.17323E+08         0.13637E+06         0.00000E+00
    0.13637E+06        -0.19562E+07         0.00000E+00
    0.00000E+00         0.00000E+00        -0.17433E+08
 
   -0.17276E+08         0.13891E+06         0.00000E+00
    0.13891E+06        -0.19563E+07         0.00000E+00
    0.00000E+00         0.00000E+00        -0.17387E+08
 
   -0.17228E+08         0.14143E+06         0.00000E+00
    0.14143E+06        -0.19563E+07         0.00000E+00
    0.00000E+00         0.00000E+00        -0.17339E+08
 
   -0.17179E+08         0.14395E+06         0.00000E+00
    0.14395E+06        -0.19563E+07         0.00000E+00
    0.00000E+00         0.00000E+00        -0.17290E+08
 
   -0.17129E+08         0.14645E+06         0.00000E+00
    0.14645E+06        -0.19563E+07         0.00000E+00
    0.00000E+00         0.00000E+00        -0.17240E+08
 
   -0.17078E+08         0.14892E+06         0.00000E+00
    0.14892E+06        -0.19564E+07         0.00000E+00
    0.00000E+00         0.00000E+00        -0.17190E+08
 
   -0.17027E+08         0.15137E+06         0.00000E+00
    0.15137E+06        -0.19564E+07         0.00000E+00
    0.00000E+00         0.00000E+00        -0.17138E+08
 
   -0.16974E+08         0.15378E+06         0.00000E+00
    0.15378E+06        -0.19565E+07         0.00000E+00
    0.00000E+00         0.00000E+00        -0.17085E+08
 
   -0.16921E+08         0.15615E+06         0.00000E+00
    0.15615E+06        -0.19565E+07         0.00000E+00
    0.00000E+00         0.00000E+00        -0.17031E+08
 
   -0.16867E+08         0.15848E+06         0.00000E+00
    0.15848E+06        -0.19566E+07         0.00000E+00
    0.00000E+00         0.00000E+00        -0.16976E+08
 
   -0.16812E+08         0.16075E+06         0.00000E+00
    0.16075E+06        -0.19567E+07         0.00000E+00
    0.00000E+00         0.00000E+00        -0.16920E+08
 
   -0.16756E+08         0.16297E+06         0.00000E+00
    0.16297E+06        -0.19568E+07         0.00000E+00
    0.00000E+00         0.00000E+00        -0.16863E+08
 
   -0.16699E+08         0.16511E+06         0.00000E+00
    0.16511E+06        -0.19569E+07         0.00000E+00
    0.00000E+00         0.00000E+00        -0.16804E+08
 
   -0.16642E+08         0.16717E+06         0.00000E+00
    0.16717E+06        -0.19570E+07         0.00000E+00
    0.00000E+00         0.00000E+00        -0.16745E+08
 
   -0.16583E+08         0.16914E+06         0.00000E+00
    0.16914E+06        -0.19572E+07         0.00000E+00
    0.00000E+00         0.00000E+00        -0.16684E+08
 
   -0.16525E+08         0.17100E+06         0.00000E+00
    0.17100E+06        -0.19573E+07         0.00000E+00
    0.00000E+00         0.00000E+00        -0.16623E+08
 
   -0.16465E+08         0.17276E+06         0.00000E+00
    0.17276E+06        -0.19575E+07         0.00000E+00
    0.00000E+00         0.00000E+00        -0.16560E+08
 
   -0.16405E+08         0.17439E+06         0.00000E+00
    0.17439E+06        -0.19577E+07         0.00000E+00
    0.00000E+00         0.00000E+00        -0.16497E+08
 
   -0.16344E+08         0.17589E+06         0.00000E+00
    0.17589E+06        -0.19579E+07         0.00000E+00
    0.00000E+00         0.00000E+00        -0.16432E+08
 
   -0.16283E+08         0.17722E+06         0.00000E+00
    0.17722E+06        -0.19581E+07         0.00000E+00
    0.00000E+00         0.00000E+00        -0.16366E+08
 
   -0.16221E+08         0.17839E+06         0.00000E+00
    0.17839E+06        -0.19584E+07         0.00000E+00
    0.00000E+00         0.00000E+00        -0.16299E+08
 
   -0.16158E+08         0.17937E+06         0.00000E+00
    0.17937E+06        -0.19587E+07         0.00000E+00
    0.00000E+00         0.00000E+00        -0.16232E+08
 
   -0.16096E+08         0.18015E+06         0.00000E+00
    0.18015E+06        -0.19590E+07         0.00000E+00
    0.00000E+00         0.00000E+00        -0.16163E+08
 
   -0.16033E+08         0.18069E+06         0.00000E+00
    0.18069E+06        -0.19594E+07         0.00000E+00
    0.00000E+00         0.00000E+00        -0.16093E+08
 
   -0.15969E+08         0.18099E+06         0.00000E+00
    0.18099E+06        -0.19598E+07         0.00000E+00
    0.00000E+00         0.00000E+00        -0.16023E+08
 
   -0.15906E+08         0.18100E+06         0.00000E+00
    0.18100E+06        -0.19602E+07         0.00000E+00
    0.00000E+00         0.00000E+00        -0.15951E+08
 
   -0.15843E+08         0.18071E+06         0.00000E+00
    0.18071E+06        -0.19607E+07         0.00000E+00
    0.00000E+00         0.00000E+00        -0.15879E+08
 
   -0.15779E+08         0.18007E+06         0.00000E+00
    0.18007E+06        -0.19612E+07         0.00000E+00
    0.00000E+00         0.00000E+00        -0.15806E+08
 
   -0.15716E+08         0.17906E+06         0.00000E+00
    0.17906E+06        -0.19618E+07         0.00000E+00
    0.00000E+00         0.00000E+00        -0.15732E+08
 
   -0.15653E+08         0.17761E+06         0.00000E+00
    0.17761E+06        -0.19625E+07         0.00000E+00
    0.00000E+00         0.00000E+00        -0.15658E+08
 
   -0.15591E+08         0.17569E+06         0.00000E+00
    0.17569E+06        -0.19632E+07         0.00000E+00
    0.00000E+00         0.00000E+00        -0.15583E+08
 
   -0.15529E+08         0.17324E+06         0.00000E+00
    0.17324E+06        -0.19641E+07         0.00000E+00
    0.00000E+00         0.00000E+00        -0.15507E+08
 
   -0.15468E+08         0.17019E+06         0.00000E+00
    0.17019E+06        -0.19651E+07         0.00000E+00
    0.00000E+00         0.00000E+00        -0.15431E+08
 
   -0.15407E+08         0.16646E+06         0.00000E+00
    0.16646E+06        -0.19662E+07         0.00000E+00
    0.00000E+00         0.00000E+00        -0.15354E+08
 
   -0.15348E+08         0.16197E+06         0.00000E+00
    0.16197E+06        -0.19674E+07         0.00000E+00
    0.00000E+00         0.00000E+00        -0.15277E+08
 
   -0.15291E+08         0.15663E+06         0.00000E+00
    0.15663E+06        -0.19688E+07         0.00000E+00
    0.00000E+00         0.00000E+00        -0.15200E+08
 
   -0.15234E+08         0.15032E+06         0.00000E+00
    0.15032E+06        -0.19705E+07         0.00000E+00
    0.00000E+00         0.00000E+00        -0.15123E+08
 
   -0.15180E+08         0.14294E+06         0.00000E+00
    0.14294E+06        -0.19723E+07         0.00000E+00
    0.00000E+00         0.00000E+00        -0.15045E+08
 
   -0.15128E+08         0.13436E+06         0.00000E+00
    0.13436E+06        -0.19743E+07         0.00000E+00
    0.00000E+00         0.00000E+00        -0.14968E+08
 
   -0.15078E+08         0.12447E+06         0.00000E+00
    0.12447E+06        -0.19766E+07         0.00000E+00
    0.00000E+00         0.00000E+00        -0.14891E+08
 
   -0.15030E+08         0.11316E+06         0.00000E+00
    0.11316E+06        -0.19791E+07         0.00000E+00
    0.00000E+00         0.00000E+00        -0.14814E+08
 
   -0.14986E+08         0.10034E+06         0.00000E+00
    0.10034E+06        -0.19817E+07         0.00000E+00
    0.00000E+00         0.00000E+00        -0.14738E+08
 
   -0.14945E+08         0.85960E+05         0.00000E+00
    0.85960E+05        -0.19844E+07         0.00000E+00
    0.00000E+00         0.00000E+00        -0.14662E+08
 
   -0.14907E+08         0.70039E+05         0.00000E+00
    0.70039E+05        -0.19871E+07         0.00000E+00
    0.00000E+00         0.00000E+00        -0.14587E+08
 
   -0.14873E+08         0.52691E+05         0.00000E+00
    0.52691E+05        -0.19896E+07         0.00000E+00
    0.00000E+00         0.00000E+00        -0.14512E+08
 
   -0.14843E+08         0.34172E+05         0.00000E+00
    0.34172E+05        -0.19916E+07         0.00000E+00
    0.00000E+00         0.00000E+00        -0.14438E+08
 
   -0.14817E+08         0.14938E+05         0.00000E+00
    0.14938E+05        -0.19929E+07         0.00000E+00
    0.00000E+00         0.00000E+00        -0.14365E+08
 
   -0.14795E+08        -0.42787E+04         0.00000E+00
   -0.42787E+04        -0.19929E+07         0.00000E+00
    0.00000E+00         0.00000E+00        -0.14292E+08
 
   -0.14776E+08        -0.22363E+05         0.00000E+00
   -0.22363E+05        -0.19911E+07         0.00000E+00
    0.00000E+00         0.00000E+00        -0.14219E+08
 
   -0.14760E+08        -0.37656E+05         0.00000E+00
   -0.37656E+05        -0.19866E+07         0.00000E+00
    0.00000E+00         0.00000E+00        -0.14146E+08
 
   -0.14745E+08        -0.47702E+05         0.00000E+00
   -0.47702E+05        -0.19777E+07         0.00000E+00
    0.00000E+00         0.00000E+00        -0.14072E+08
 
   -0.14730E+08        -0.49024E+05         0.00000E+00
   -0.49024E+05        -0.19609E+07         0.00000E+00
    0.00000E+00         0.00000E+00        -0.13995E+08
 
   -0.14717E+08        -0.38025E+05         0.00000E+00
   -0.38025E+05        -0.19287E+07         0.00000E+00
    0.00000E+00         0.00000E+00        -0.13914E+08
 
   -0.14708E+08        -0.14528E+05         0.00000E+00
   -0.14528E+05        -0.18695E+07         0.00000E+00
    0.00000E+00         0.00000E+00        -0.13827E+08
 
   -0.18495E+08        -0.25981E+04         0.00000E+00
   -0.25981E+04        -0.19761E+07         0.00000E+00
    0.00000E+00         0.00000E+00        -0.18734E+08
 
   -0.18493E+08        -0.64555E+04         0.00000E+00
   -0.64555E+04        -0.19638E+07         0.00000E+00
    0.00000E+00         0.00000E+00        -0.18715E+08
 
   -0.18489E+08        -0.73932E+04         0.00000E+00
   -0.73932E+04        -0.19575E+07         0.00000E+00
    0.00000E+00         0.00000E+00        -0.18697E+08
 
   -0.18485E+08        -0.55960E+04         0.00000E+00
   -0.55960E+04        -0.19543E+07         0.00000E+00
    0.00000E+00         0.00000E+00        -0.18680E+08
 
   -0.18480E+08        -0.19663E+04         0.00000E+00
   -0.19663E+04        -0.19527E+07         0.00000E+00
    0.00000E+00         0.00000E+00        -0.18664E+08
 
   -0.18475E+08         0.27208E+04         0.00000E+00
    0.27208E+04        -0.19520E+07         0.00000E+00
    0.00000E+00         0.00000E+00        -0.18647E+08
 
   -0.18469E+08         0.79546E+04         0.00000E+00
    0.79546E+04        -0.19517E+07         0.00000E+00
    0.00000E+00         0.00000E+00        -0.18630E+08
 
   -0.18461E+08         0.13402E+05         0.00000E+00
    0.13402E+05        -0.19517E+07         0.00000E+00
    0.00000E+00         0.00000E+00        -0.18613E+08
 
   -0.18452E+08         0.18842E+05         0.00000E+00
    0.18842E+05        -0.19519E+07         0.00000E+00
    0.00000E+00         0.00000E+00        -0.18595E+08
 
   -0.18442E+08         0.24133E+05         0.00000E+00
    0.24133E+05        -0.19523E+07         0.00000E+00
    0.00000E+00         0.00000E+00        -0.18577E+08
 
   -0.18430E+08         0.29190E+05         0.00000E+00
    0.29190E+05        -0.19528E+07         0.00000E+00
    0.00000E+00         0.00000E+00        -0.18558E+08
 
   -0.18416E+08         0.33967E+05         0.00000E+00
    0.33967E+05        -0.19533E+07         0.00000E+00
    0.00000E+00         0.00000E+00        -0.18539E+08
 
   -0.18402E+08         0.38448E+05         0.00000E+00
    0.38448E+05        -0.19538E+07         0.00000E+00
    0.00000E+00         0.00000E+00        -0.18519E+08
 
   -0.18386E+08         0.42633E+05         0.00000E+00
    0.42633E+05        -0.19542E+07         0.00000E+00
    0.00000E+00         0.00000E+00        -0.18498E+08
 
   -0.18369E+08         0.46539E+05         0.00000E+00
    0.46539E+05        -0.19546E+07         0.00000E+00
    0.00000E+00         0.00000E+00        -0.18477E+08
 
   -0.18350E+08         0.50188E+05         0.00000E+00
    0.50188E+05        -0.19550E+07         0.00000E+00
    0.00000E+00         0.00000E+00        -0.18455E+08
 
   -0.18331E+08         0.53607E+05         0.00000E+00
    0.53607E+05        -0.19554E+07         0.00000E+00
    0.00000E+00         0.00000E+00        -0.18433E+08
 
   -0.18310E+08         0.56824E+05         0.00000E+00
    0.56824E+05        -0.19556E+07         0.00000E+00
    0.00000E+00         0.00000E+00        -0.18410E+08
 
   -0.18289E+08         0.59864E+05         0.00000E+00
    0.59864E+05        -0.19559E+07         0.00000E+00
    0.00000E+00         0.00000E+00        -0.18386E+08
 
   -0.18266E+08         0.62755E+05         0.00000E+00
    0.62755E+05        -0.19561E+07         0.00000E+00
    0.00000E+00         0.00000E+00        -0.18362E+08
 
   -0.18242E+08         0.65520E+05         0.00000E+00
    0.65520E+05        -0.19563E+07         0.00000E+00
    0.00000E+00         0.00000E+00        -0.18337E+08
 
   -0.18218E+08         0.68179E+05         0.00000E+00
    0.68179E+05        -0.19564E+07         0.00000E+00
    0.00000E+00         0.00000E+00        -0.18311E+08
 
   -0.18192E+08         0.70751E+05         0.00000E+00
    0.70751E+05        -0.19565E+07         0.00000E+00
    0.00000E+00         0.00000E+00        -0.18285E+08
 
   -0.18166E+08         0.73252E+05         0.00000E+00
    0.73252E+05        -0.19566E+07         0.00000E+00
    0.00000E+00         0.00000E+00        -0.18259E+08
 
   -0.18138E+08         0.75697E+05         0.00000E+00
    0.75697E+05        -0.19567E+07         0.00000E+00
    0.00000E+00         0.00000E+00        -0.18231E+08
 
   -0.18110E+08         0.78096E+05         0.00000E+00
    0.78096E+05        -0.19567E+07         0.00000E+00
    0.00000E+00         0.00000E+00        -0.18203E+08
 
   -0.18081E+08         0.80460E+05         0.00000E+00
    0.80460E+05        -0.19568E+07         0.00000E+00
    0.00000E+00         0.00000E+00        -0.18174E+08
 
   -0.18051E+08         0.82798E+05         0.00000E+00
    0.82798E+05        -0.19568E+07         0.00000E+00
    0.00000E+00         0.00000E+00        -0.18145E+08
 
   -0.18020E+08         0.85117E+05         0.00000E+00
    0.85117E+05        -0.19568E+07         0.00000E+00
    0.00000E+00         0.00000E+00        -0.18115E+08
 
   -0.17989E+08         0.87422E+05         0.00000E+00
    0.87422E+05        -0.19568E+07         0.00000E+00
    0.00000E+00         0.00000E+00        -0.18084E+08
 
   -0.17956E+08         0.89719E+05         0.00000E+00
    0.89719E+05        -0.19568E+07         0.00000E+00
    0.00000E+00         0.00000E+00        -0.18052E+08
 
   -0.17923E+08         0.92013E+05         0.00000E+00
    0.92013E+05        -0.19568E+07         0.00000E+00
    0.00000E+00         0.00000E+00        -0.18020E+08
 
   -0.17889E+08         0.94305E+05         0.00000E+00
    0.94305E+05        -0.19568E+07         0.00000E+00
    0.00000E+00         0.00000E+00        -0.17986E+08
 
   -0.17854E+08         0.96600E+05         0.00000E+00
    0.96600E+05        -0.19568E+07         0.00000E+00
    0.00000E+00         0.00000E+00        -0.17953E+08
 
   -0.17818E+08         0.98900E+05         0.00000E+00
    0.98900E+05        -0.19568E+07         0.00000E+00
    0.00000E+00         0.00000E+00        -0.17918E+08
 
   -0.17781E+08         0.10121E+06         0.00000E+00
    0.10121E+06        -0.19568E+07         0.00000E+00
    0.00000E+00         0.00000E+00        -0.17882E+08
 
   -0.17744E+08         0.10352E+06         0.00000E+00
    0.10352E+06        -0.19568E+07         0.00000E+00
    0.00000E+00         0.00000E+00        -0.17846E+08
 
   -0.17705E+08         0.10584E+06         0.00000E+00
    0.10584E+06        -0.19568E+07         0.00000E+00
    0.00000E+00         0.00000E+00        -0.17809E+08
 
   -0.17666E+08         0.10817E+06         0.00000E+00
    0.10817E+06        -0.19568E+07         0.00000E+00
    0.00000E+00         0.00000E+00        -0.17770E+08
 
   -0.17626E+08         0.11051E+06         0.00000E+00
    0.11051E+06        -0.19568E+07         0.00000E+00
    0.00000E+00         0.00000E+00        -0.17731E+08
 
   -0.17585E+08         0.11285E+06         0.00000E+00
    0.11285E+06        -0.19568E+07         0.00000E+00
    0.00000E+00         0.00000E+00        -0.17692E+08
 
   -0.17543E+08         0.11520E+06         0.00000E+00
    0.11520E+06        -0.19567E+07         0.00000E+00
    0.00000E+00         0.00000E+00        -0.17651E+08
 
   -0.17500E+08         0.11756E+06         0.00000E+00
    0.11756E+06        -0.19567E+07         0.00000E+00
    0.00000E+00         0.00000E+00        -0.17609E+08
 
   -0.17456E+08         0.11992E+06         0.00000E+00
    0.11992E+06        -0.19567E+07         0.00000E+00
    0.00000E+00         0.00000E+00        -0.17566E+08
 
   -0.17412E+08         0.12229E+06         0.00000E+00
    0.12229E+06        -0.19567E+07         0.00000E+00
    0.00000E+00         0.00000E+00        -0.17523E+08
 
   -0.17366E+08         0.12465E+06         0.00000E+00
    0.12465E+06        -0.19567E+07         0.00000E+00
    0.00000E+00         0.00000E+00        -0.17478E+08
 
   -0.17320E+08         0.12702E+06         0.00000E+00
    0.12702E+06        -0.19567E+07         0.00000E+00
    0.00000E+00         0.00000E+00        -0.17432E+08
 
   -0.17273E+08         0.12937E+06         0.00000E+00
    0.12937E+06        -0.19567E+07         0.00000E+00
    0.00000E+00         0.00000E+00        -0.17386E+08
 
   -0.17225E+08         0.13172E+06         0.00000E+00
    0.13172E+06        -0.19568E+07         0.00000E+00
    0.00000E+00         0.00000E+00        -0.17338E+08
 
   -0.17176E+08         0.13406E+06         0.00000E+00
    0.13406E+06        -0.19568E+07         0.00000E+00
    0.00000E+00         0.00000E+00        -0.17289E+08
 
   -0.17126E+08         0.13638E+06         0.00000E+00
    0.13638E+06        -0.19568E+07         0.00000E+00
    0.00000E+00         0.00000E+00        -0.17240E+08
 
   -0.17075E+08         0.13868E+06         0.00000E+00
    0.13868E+06        -0.19568E+07         0.00000E+00
    0.00000E+00         0.00000E+00        -0.17189E+08
 
   -0.17023E+08         0.14095E+06         0.00000E+00
    0.14095E+06        -0.19569E+07         0.00000E+00
    0.00000E+00         0.00000E+00        -0.17137E+08
 
   -0.16971E+08         0.14319E+06         0.00000E+00
    0.14319E+06        -0.19569E+07         0.00000E+00
    0.00000E+00         0.00000E+00        -0.17084E+08
 
   -0.16917E+08         0.14539E+06         0.00000E+00
    0.14539E+06        -0.19570E+07         0.00000E+00
    0.00000E+00         0.00000E+00        -0.17030E+08
 
   -0.16863E+08         0.14755E+06         0.00000E+00
    0.14755E+06        -0.19570E+07         0.00000E+00
    0.00000E+00         0.00000E+00        -0.16975E+08
 
   -0.16808E+08         0.14966E+06         0.00000E+00
    0.14966E+06        -0.19571E+07         0.00000E+00
    0.00000E+00         0.00000E+00        -0.16919E+08
 
   -0.16752E+08         0.15171E+06         0.00000E+00
    0.15171E+06        -0.19572E+07         0.00000E+00
    0.00000E+00         0.00000E+00        -0.16862E+08
 
   -0.16696E+08         0.15370E+06         0.00000E+00
    0.15370E+06        -0.19573E+07         0.00000E+00
    0.00000E+00         0.00000E+00        -0.16803E+08
 
   -0.16638E+08         0.15561E+06         0.00000E+00
    0.15561E+06        -0.19574E+07         0.00000E+00
    0.00000E+00         0.00000E+00        -0.16744E+08
 
   -0.16580E+08         0.15743E+06         0.00000E+00
    0.15743E+06        -0.19575E+07         0.00000E+00
    0.00000E+00         0.00000E+00        -0.16683E+08
 
   -0.16521E+08         0.15916E+06         0.00000E+00
    0.15916E+06        -0.19577E+07         0.00000E+00
    0.00000E+00         0.00000E+00        -0.16622E+08
 
   -0.16462E+08         0.16079E+06         0.00000E+00
    0.16079E+06        -0.19578E+07         0.00000E+00
    0.00000E+00         0.00000E+00        -0.16559E+08
 
   -0.16402E+08         0.16230E+06         0.00000E+00
    0.16230E+06        -0.19580E+07         0.00000E+00
    0.00000E+00         0.00000E+00        -0.16496E+08
 
   -0.16341E+08         0.16367E+06         0.00000E+00
    0.16367E+06        -0.19582E+07         0.00000E+00
    0.00000E+00         0.00000E+00        -0.16431E+08
 
   -0.16280E+08         0.16491E+06         0.00000E+00
    0.16491E+06        -0.19584E+07         0.00000E+00
    0.00000E+00         0.00000E+00        -0.16365E+08
 
   -0.16218E+08         0.16598E+06         0.00000E+00
    0.16598E+06        -0.19586E+07         0.00000E+00
    0.00000E+00         0.00000E+00        -0.16299E+08
 
   -0.16156E+08         0.16688E+06         0.00000E+00
    0.16688E+06        -0.19589E+07         0.00000E+00
    0.00000E+00         0.00000E+00        -0.16231E+08
 
   -0.16093E+08         0.16759E+06         0.00000E+00
    0.16759E+06        -0.19591E+07         0.00000E+00
    0.00000E+00         0.00000E+00        -0.16162E+08
 
   -0.16030E+08         0.16808E+06         0.00000E+00
    0.16808E+06        -0.19594E+07         0.00000E+00
    0.00000E+00         0.00000E+00        -0.16093E+08
 
   -0.15967E+08         0.16834E+06         0.00000E+00
    0.16834E+06        -0.19598E+07         0.00000E+00
    0.00000E+00         0.00000E+00        -0.16022E+08
 
   -0.15904E+08         0.16834E+06         0.00000E+00
    0.16834E+06        -0.19602E+07         0.00000E+00
    0.00000E+00         0.00000E+00        -0.15951E+08
 
   -0.15841E+08         0.16804E+06         0.00000E+00
    0.16804E+06        -0.19606E+07         0.00000E+00
    0.00000E+00         0.00000E+00        -0.15878E+08
 
   -0.15777E+08         0.16743E+06         0.00000E+00
    0.16743E+06        -0.19610E+07         0.00000E+00
    0.00000E+00         0.00000E+00        -0.15805E+08
 
   -0.15714E+08         0.16646E+06         0.00000E+00
    0.16646E+06        -0.19616E+07         0.00000E+00
    0.00000E+00         0.00000E+00        -0.15732E+08
 
   -0.15652E+08         0.16509E+06         0.00000E+00
    0.16509E+06        -0.19621E+07         0.00000E+00
    0.00000E+00         0.00000E+00        -0.15657E+08
 
   -0.15590E+08         0.16328E+06         0.00000E+00
    0.16328E+06        -0.19628E+07         0.00000E+00
    0.00000E+00         0.00000E+00        -0.15582E+08
 
   -0.15528E+08         0.16096E+06         0.00000E+00
    0.16096E+06        -0.19636E+07         0.00000E+00
    0.00000E+00         0.00000E+00        -0.15506E+08
 
   -0.15467E+08         0.15808E+06         0.00000E+00
    0.15808E+06        -0.19644E+07         0.00000E+00
    0.00000E+00         0.00000E+00        -0.15430E+08
 
   -0.15407E+08         0.15456E+06         0.00000E+00
    0.15456E+06        -0.19654E+07         0.00000E+00
    0.00000E+00         0.00000E+00        -0.15354E+08
 
   -0.15349E+08         0.15032E+06         0.00000E+00
    0.15032E+06        -0.19665E+07         0.00000E+00
    0.00000E+00         0.00000E+00        -0.15277E+08
 
   -0.15291E+08         0.14528E+06         0.00000E+00
    0.14528E+06        -0.19677E+07         0.00000E+00
    0.00000E+00         0.00000E+00        -0.15200E+08
 
   -0.15236E+08         0.13931E+06         0.00000E+00
    0.13931E+06        -0.19691E+07         0.00000E+00
    0.00000E+00         0.00000E+00        -0.15123E+08
 
   -0.15182E+08         0.13233E+06         0.00000E+00
    0.13233E+06        -0.19707E+07         0.00000E+00
    0.00000E+00         0.00000E+00        -0.15045E+08
 
   -0.15130E+08         0.12421E+06         0.00000E+00
    0.12421E+06        -0.19725E+07         0.00000E+00
    0.00000E+00         0.00000E+00        -0.14968E+08
 
   -0.15081E+08         0.11483E+06         0.00000E+00
    0.11483E+06        -0.19745E+07         0.00000E+00
    0.00000E+00         0.00000E+00        -0.14891E+08
 
   -0.15035E+08         0.10409E+06         0.00000E+00
    0.10409E+06        -0.19767E+07         0.00000E+00
    0.00000E+00         0.00000E+00        -0.14815E+08
 
   -0.14992E+08         0.91908E+05         0.00000E+00
    0.91908E+05        -0.19790E+07         0.00000E+00
    0.00000E+00         0.00000E+00        -0.14739E+08
 
   -0.14952E+08         0.78222E+05         0.00000E+00
    0.78222E+05        -0.19814E+07         0.00000E+00
    0.00000E+00         0.00000E+00        -0.14663E+08
 
   -0.14916E+08         0.63048E+05         0.00000E+00
    0.63048E+05        -0.19838E+07         0.00000E+00
    0.00000E+00         0.00000E+00        -0.14588E+08
 
   -0.14884E+08         0.46490E+05         0.00000E+00
    0.46490E+05        -0.19861E+07         0.00000E+00
    0.00000E+00         0.00000E+00        -0.14514E+08
 
   -0.14856E+08         0.28783E+05         0.00000E+00
    0.28783E+05        -0.19879E+07         0.00000E+00
    0.00000E+00         0.00000E+00        -0.14441E+08
 
   -0.14832E+08         0.10355E+05         0.00000E+00
    0.10355E+05        -0.19891E+07         0.00000E+00
    0.00000E+00         0.00000E+00        -0.14368E+08
 
   -0.14813E+08        -0.81118E+04         0.00000E+00
   -0.81118E+04        -0.19892E+07         0.00000E+00
    0.00000E+00         0.00000E+00        -0.14296E+08
 
   -0.14796E+08        -0.25570E+05         0.00000E+00
   -0.25570E+05        -0.19878E+07         0.00000E+00
    0.00000E+00         0.00000E+00        -0.14224E+08
 
   -0.14783E+08        -0.40452E+05         0.00000E+00
   -0.40452E+05        -0.19840E+07         0.00000E+00
    0.00000E+00         0.00000E+00        -0.14152E+08
 
   -0.14771E+08        -0.50377E+05         0.00000E+00
   -0.50377E+05        -0.19764E+07         0.00000E+00
    0.00000E+00         0.00000E+00        -0.14079E+08
 
   -0.14759E+08        -0.51755E+05         0.00000E+00
   -0.51755E+05        -0.19618E+07         0.00000E+00
    0.00000E+00         0.00000E+00        -0.14004E+08
 
   -0.14747E+08        -0.40420E+05         0.00000E+00
   -0.40420E+05        -0.19323E+07         0.00000E+00
    0.00000E+00         0.00000E+00        -0.13924E+08
 
   -0.14739E+08        -0.15542E+05         0.00000E+00
   -0.15542E+05        -0.18754E+07         0.00000E+00
    0.00000E+00         0.00000E+00        -0.13838E+08
 
   -0.18487E+08        -0.28621E+04         0.00000E+00
   -0.28621E+04        -0.19751E+07         0.00000E+00
    0.00000E+00         0.00000E+00        -0.18731E+08
 
   -0.18485E+08        -0.70823E+04         0.00000E+00
   -0.70823E+04        -0.19633E+07         0.00000E+00
    0.00000E+00         0.00000E+00        -0.18712E+08
 
   -0.18482E+08        -0.81356E+04         0.00000E+00
   -0.81356E+04        -0.19576E+07         0.00000E+00
    0.00000E+00         0.00000E+00        -0.18695E+08
 
   -0.18478E+08        -0.63885E+04         0.00000E+00
   -0.63885E+04        -0.19549E+07         0.00000E+00
    0.00000E+00         0.00000E+00        -0.18678E+08
 
   -0.18474E+08        -0.28737E+04         0.00000E+00
   -0.28737E+04        -0.19536E+07         0.00000E+00
    0.00000E+00         0.00000E+00        -0.18662E+08
 
   -0.18470E+08         0.16211E+04         0.00000E+00
    0.16211E+04        -0.19529E+07         0.00000E+00
    0.00000E+00         0.00000E+00        -0.18646E+08
 
   -0.18464E+08         0.66099E+04         0.00000E+00
    0.66099E+04        -0.19527E+07         0.00000E+00
    0.00000E+00         0.00000E+00        -0.18629E+08
 
   -0.18457E+08         0.11782E+05         0.00000E+00
    0.11782E+05        -0.19528E+07         0.00000E+00
    0.00000E+00         0.00000E+00        -0.18612E+08
 
   -0.18448E+08         0.16933E+05         0.00000E+00
    0.16933E+05        -0.19530E+07         0.00000E+00
    0.00000E+00         0.00000E+00        -0.18594E+08
 
   -0.18438E+08         0.21933E+05         0.00000E+00
    0.21933E+05        -0.19533E+07         0.00000E+00
    0.00000E+00         0.00000E+00        -0.18576E+08
 
   -0.18426E+08         0.26702E+05         0.00000E+00
    0.26702E+05        -0.19537E+07         0.00000E+00
    0.00000E+00         0.00000E+00        -0.18557E+08
 
   -0.18413E+08         0.31199E+05         0.00000E+00
    0.31199E+05        -0.19542E+07         0.00000E+00
    0.00000E+00         0.00000E+00        -0.18538E+08
 
   -0.18399E+08         0.35409E+05         0.00000E+00
    0.35409E+05        -0.19546E+07         0.00000E+00
    0.00000E+00         0.00000E+00        -0.18518E+08
 
   -0.18383E+08         0.39336E+05         0.00000E+00
    0.39336E+05        -0.19550E+07         0.00000E+00
    0.00000E+00         0.00000E+00        -0.18498E+08
 
   -0.18366E+08         0.42994E+05         0.00000E+00
    0.42994E+05        -0.19554E+07         0.00000E+00
    0.00000E+00         0.00000E+00        -0.18476E+08
 
   -0.18348E+08         0.46407E+05         0.00000E+00
    0.46407E+05        -0.19557E+07         0.00000E+00
    0.00000E+00         0.00000E+00        -0.18455E+08
 
   -0.18328E+08         0.49600E+05         0.00000E+00
    0.49600E+05        -0.19560E+07         0.00000E+00
    0.00000E+00         0.00000E+00        -0.18432E+08
 
   -0.18308E+08         0.52600E+05         0.00000E+00
    0.52600E+05        -0.19562E+07         0.00000E+00
    0.00000E+00         0.00000E+00        -0.18409E+08
 
   -0.18286E+08         0.55432E+05         0.00000E+00
    0.55432E+05        -0.19565E+07         0.00000E+00
    0.00000E+00         0.00000E+00        -0.18386E+08
 
   -0.18264E+08         0.58122E+05         0.00000E+00
    0.58122E+05        -0.19566E+07         0.00000E+00
    0.00000E+00         0.00000E+00        -0.18361E+08
 
   -0.18240E+08         0.60692E+05         0.00000E+00
    0.60692E+05        -0.19568E+07         0.00000E+00
    0.00000E+00         0.00000E+00        -0.18336E+08
 
   -0.18215E+08         0.63163E+05         0.00000E+00
    0.63163E+05        -0.19569E+07         0.00000E+00
    0.00000E+00         0.00000E+00        -0.18311E+08
 
   -0.18190E+08         0.65551E+05         0.00000E+00
    0.65551E+05        -0.19570E+07         0.00000E+00
    0.00000E+00         0.00000E+00        -0.18285E+08
 
   -0.18163E+08         0.67872E+05         0.00000E+00
    0.67872E+05        -0.19571E+07         0.00000E+00
    0.00000E+00         0.00000E+00        -0.18258E+08
 
   -0.18136E+08         0.70140E+05         0.00000E+00
    0.70140E+05        -0.19571E+07         0.00000E+00
    0.00000E+00         0.00000E+00        -0.18231E+08
 
   -0.18108E+08         0.72365E+05         0.00000E+00
    0.72365E+05        -0.19572E+07         0.00000E+00
    0.00000E+00         0.00000E+00        -0.18202E+08
 
   -0.18079E+08         0.74556E+05         0.00000E+00
    0.74556E+05        -0.19572E+07         0.00000E+00
    0.00000E+00         0.00000E+00        -0.18174E+08
 
   -0.18049E+08         0.76723E+05         0.00000E+00
    0.76723E+05        -0.19572E+07         0.00000E+00
    0.00000E+00         0.00000E+00        -0.18144E+08
 
   -0.18018E+08         0.78872E+05         0.00000E+00
    0.78872E+05        -0.19573E+07         0.00000E+00
    0.00000E+00         0.00000E+00        -0.18114E+08
 
   -0.17986E+08         0.81008E+05         0.00000E+00
    0.81008E+05        -0.19573E+07         0.00000E+00
    0.00000E+00         0.00000E+00        -0.18083E+08
 
   -0.17954E+08         0.83136E+05         0.00000E+00
    0.83136E+05        -0.19573E+07         0.00000E+00
    0.00000E+00         0.00000E+00        -0.18051E+08
 
   -0.17920E+08         0.85261E+05         0.00000E+00
    0.85261E+05        -0.19573E+07         0.00000E+00
    0.00000E+00         0.00000E+00        -0.18019E+08
 
   -0.17886E+08         0.87384E+05         0.00000E+00
    0.87384E+05        -0.19573E+07         0.00000E+00
    0.00000E+00         0.00000E+00        -0.17986E+08
 
   -0.17851E+08         0.89509E+05         0.00000E+00
    0.89509E+05        -0.19573E+07         0.00000E+00
    0.00000E+00         0.00000E+00        -0.17952E+08
 
   -0.17815E+08         0.91639E+05         0.00000E+00
    0.91639E+05        -0.19573E+07         0.00000E+00
    0.00000E+00         0.00000E+00        -0.17917E+08
 
   -0.17778E+08         0.93773E+05         0.00000E+00
    0.93773E+05        -0.19573E+07         0.00000E+00
    0.00000E+00         0.00000E+00        -0.17882E+08
 
   -0.17741E+08         0.95914E+05         0.00000E+00
    0.95914E+05        -0.19572E+07         0.00000E+00
    0.00000E+00         0.00000E+00        -0.17845E+08
 
   -0.17702E+08         0.98063E+05         0.00000E+00
    0.98063E+05        -0.19572E+07         0.00000E+00
    0.00000E+00         0.00000E+00        -0.17808E+08
 
   -0.17663E+08         0.10022E+06         0.00000E+00
    0.10022E+06        -0.19572E+07         0.00000E+00
    0.00000E+00         0.00000E+00        -0.17770E+08
 
   -0.17623E+08         0.10238E+06         0.00000E+00
    0.10238E+06        -0.19572E+07         0.00000E+00
    0.00000E+00         0.00000E+00        -0.17731E+08
 
   -0.17582E+08         0.10455E+06         0.00000E+00
    0.10455E+06        -0.19572E+07         0.00000E+00
    0.00000E+00         0.00000E+00        -0.17691E+08
 
   -0.17540E+08         0.10673E+06         0.00000E+00
    0.10673E+06        -0.19572E+07         0.00000E+00
    0.00000E+00         0.00000E+00        -0.17650E+08
 
   -0.17497E+08         0.10891E+06         0.00000E+00
    0.10891E+06        -0.19572E+07         0.00000E+00
    0.00000E+00         0.00000E+00        -0.17608E+08
 
   -0.17453E+08         0.11110E+06         0.00000E+00
    0.11110E+06        -0.19572E+07         0.00000E+00
    0.00000E+00         0.00000E+00        -0.17565E+08
 
   -0.17409E+08         0.11328E+06         0.00000E+00
    0.11328E+06        -0.19572E+07         0.00000E+00
    0.00000E+00         0.00000E+00        -0.17522E+08
 
   -0.17363E+08         0.11547E+06         0.00000E+00
    0.11547E+06        -0.19572E+07         0.00000E+00
    0.00000E+00         0.00000E+00        -0.17477E+08
 
   -0.17317E+08         0.11765E+06         0.00000E+00
    0.11765E+06        -0.19572E+07         0.00000E+00
    0.00000E+00         0.00000E+00        -0.17431E+08
 
   -0.17269E+08         0.11983E+06         0.00000E+00
    0.11983E+06        -0.19572E+07         0.00000E+00
    0.00000E+00         0.00000E+00        -0.17385E+08
 
   -0.17221E+08         0.12201E+06         0.00000E+00
    0.12201E+06        -0.19572E+07         0.00000E+00
    0.00000E+00         0.00000E+00        -0.17337E+08
 
   -0.17172E+08         0.12416E+06         0.00000E+00
    0.12416E+06        -0.19572E+07         0.00000E+00
    0.00000E+00         0.00000E+00        -0.17288E+08
 
   -0.17122E+08         0.12631E+06         0.00000E+00
    0.12631E+06        -0.19572E+07         0.00000E+00
    0.00000E+00         0.00000E+00        -0.17239E+08
 
   -0.17071E+08         0.12843E+06         0.00000E+00
    0.12843E+06        -0.19573E+07         0.00000E+00
    0.00000E+00         0.00000E+00        -0.17188E+08
 
   -0.17020E+08         0.13053E+06         0.00000E+00
    0.13053E+06        -0.19573E+07         0.00000E+00
    0.00000E+00         0.00000E+00        -0.17136E+08
 
   -0.16967E+08         0.13260E+06         0.00000E+00
    0.13260E+06        -0.19573E+07         0.00000E+00
    0.00000E+00         0.00000E+00        -0.17083E+08
 
   -0.16914E+08         0.13464E+06         0.00000E+00
    0.13464E+06        -0.19574E+07         0.00000E+00
    0.00000E+00         0.00000E+00        -0.17029E+08
 
   -0.16860E+08         0.13663E+06         0.00000E+00
    0.13663E+06        -0.19575E+07         0.00000E+00
    0.00000E+00         0.00000E+00        -0.16974E+08
 
   -0.16805E+08         0.13858E+06         0.00000E+00
    0.13858E+06        -0.19575E+07         0.00000E+00
    0.00000E+00         0.00000E+00        -0.16918E+08
 
   -0.16749E+08         0.14047E+06         0.00000E+00
    0.14047E+06        -0.19576E+07         0.00000E+00
    0.00000E+00         0.00000E+00        -0.16861E+08
 
   -0.16692E+08         0.14230E+06         0.00000E+00
    0.14230E+06        -0.19577E+07         0.00000E+00
    0.00000E+00         0.00000E+00        -0.16802E+08
 
   -0.16635E+08         0.14406E+06         0.00000E+00
    0.14406E+06        -0.19578E+07         0.00000E+00
    0.00000E+00         0.00000E+00        -0.16743E+08
 
   -0.16577E+08         0.14574E+06         0.00000E+00
    0.14574E+06        -0.19579E+07         0.00000E+00
    0.00000E+00         0.00000E+00        -0.16683E+08
 
   -0.16518E+08         0.14733E+06         0.00000E+00
    0.14733E+06        -0.19580E+07         0.00000E+00
    0.00000E+00         0.00000E+00        -0.16621E+08
 
   -0.16458E+08         0.14883E+06         0.00000E+00
    0.14883E+06        -0.19581E+07         0.00000E+00
    0.00000E+00         0.00000E+00        -0.16558E+08
 
   -0.16398E+08         0.15021E+06         0.00000E+00
    0.15021E+06        -0.19583E+07         0.00000E+00
    0.00000E+00         0.00000E+00        -0.16495E+08
 
   -0.16338E+08         0.15148E+06         0.00000E+00
    0.15148E+06        -0.19584E+07         0.00000E+00
    0.00000E+00         0.00000E+00        -0.16430E+08
 
   -0.16276E+08         0.15261E+06         0.00000E+00
    0.15261E+06        -0.19586E+07         0.00000E+00
    0.00000E+00         0.00000E+00        -0.16364E+08
 
   -0.16215E+08         0.15359E+06         0.00000E+00
    0.15359E+06        -0.19588E+07         0.00000E+00
    0.00000E+00         0.00000E+00        -0.16298E+08
 
   -0.16153E+08         0.15441E+06         0.00000E+00
    0.15441E+06        -0.19590E+07         0.00000E+00
    0.00000E+00         0.00000E+00        -0.16230E+08
 
   -0.16090E+08         0.15505E+06         0.00000E+00
    0.15505E+06        -0.19593E+07         0.00000E+00
    0.00000E+00         0.00000E+00        -0.16161E+08
 
   -0.16028E+08         0.15550E+06         0.00000E+00
    0.15550E+06        -0.19595E+07         0.00000E+00
    0.00000E+00         0.00000E+00        -0.16092E+08
 
   -0.15965E+08         0.15572E+06         0.00000E+00
    0.15572E+06        -0.19598E+07         0.00000E+00
    0.00000E+00         0.00000E+00        -0.16021E+08
 
   -0.15902E+08         0.15570E+06         0.00000E+00
    0.15570E+06        -0.19601E+07         0.00000E+00
    0.00000E+00         0.00000E+00        -0.15950E+08
 
   -0.15838E+08         0.15542E+06         0.00000E+00
    0.15542E+06        -0.19605E+07         0.00000E+00
    0.00000E+00         0.00000E+00        -0.15878E+08
 
   -0.15775E+08         0.15483E+06         0.00000E+00
    0.15483E+06        -0.19609E+07         0.00000E+00
    0.00000E+00         0.00000E+00        -0.15805E+08
 
   -0.15713E+08         0.15391E+06         0.00000E+00
    0.15391E+06        -0.19613E+07         0.00000E+00
    0.00000E+00         0.00000E+00        -0.15731E+08
 
   -0.15650E+08         0.15262E+06         0.00000E+00
    0.15262E+06        -0.19618E+07         0.00000E+00
    0.00000E+00         0.00000E+00        -0.15657E+08
 
   -0.15588E+08         0.15092E+06         0.00000E+00
    0.15092E+06        -0.19624E+07         0.00000E+00
    0.00000E+00         0.00000E+00        -0.15582E+08
 
   -0.15527E+08         0.14874E+06         0.00000E+00
    0.14874E+06        -0.19630E+07         0.00000E+00
    0.00000E+00         0.00000E+00        -0.15506E+08
 
   -0.15466E+08         0.14604E+06         0.00000E+00
    0.14604E+06        -0.19638E+07         0.00000E+00
    0.00000E+00         0.00000E+00        -0.15430E+08
 
   -0.15407E+08         0.14274E+06         0.00000E+00
    0.14274E+06        -0.19646E+07         0.00000E+00
    0.00000E+00         0.00000E+00        -0.15353E+08
 
   -0.15349E+08         0.13876E+06         0.00000E+00
    0.13876E+06        -0.19656E+07         0.00000E+00
    0.00000E+00         0.00000E+00        -0.15277E+08
 
   -0.15292E+08         0.13402E+06         0.00000E+00
    0.13402E+06        -0.19667E+07         0.00000E+00
    0.00000E+00         0.00000E+00        -0.15200E+08
 
   -0.15237E+08         0.12842E+06         0.00000E+00
    0.12842E+06        -0.19679E+07         0.00000E+00
    0.00000E+00         0.00000E+00        -0.15123E+08
 
   -0.15184E+08         0.12186E+06         0.00000E+00
    0.12186E+06        -0.19693E+07         0.00000E+00
    0.00000E+00         0.00000E+00        -0.15046E+08
 
   -0.15133E+08         0.11421E+06         0.00000E+00
    0.11421E+06        -0.19708E+07         0.00000E+00
    0.00000E+00         0.00000E+00        -0.14969E+08
 
   -0.15085E+08         0.10537E+06         0.00000E+00
    0.10537E+06        -0.19726E+07         0.00000E+00
    0.00000E+00         0.00000E+00        -0.14892E+08
 
   -0.15039E+08         0.95240E+05         0.00000E+00
    0.95240E+05        -0.19745E+07         0.00000E+00
    0.00000E+00         0.00000E+00        -0.14815E+08
 
   -0.14997E+08         0.83725E+05         0.00000E+00
    0.83725E+05        -0.19765E+07         0.00000E+00
    0.00000E+00         0.00000E+00        -0.14740E+08
 
   -0.14959E+08         0.70774E+05         0.00000E+00
    0.70774E+05        -0.19786E+07         0.00000E+00
    0.00000E+00         0.00000E+00        -0.14664E+08
 
   -0.14924E+08         0.56395E+05         0.00000E+00
    0.56395E+05        -0.19807E+07         0.00000E+00
    0.00000E+00         0.00000E+00        -0.14590E+08
 
   -0.14894E+08         0.40677E+05         0.00000E+00
    0.40677E+05        -0.19827E+07         0.00000E+00
    0.00000E+00         0.00000E+00        -0.14516E+08
 
   -0.14868E+08         0.23839E+05         0.00000E+00
    0.23839E+05        -0.19843E+07         0.00000E+00
    0.00000E+00         0.00000E+00        -0.14443E+08
 
   -0.14847E+08         0.62725E+04         0.00000E+00
    0.62725E+04        -0.19854E+07         0.00000E+00
    0.00000E+00         0.00000E+00        -0.14371E+08
 
   -0.14830E+08        -0.11390E+05         0.00000E+00
   -0.11390E+05        -0.19856E+07         0.00000E+00
    0.00000E+00         0.00000E+00        -0.14300E+08
 
   -0.14817E+08        -0.28178E+05         0.00000E+00
   -0.28178E+05        -0.19845E+07         0.00000E+00
    0.00000E+00         0.00000E+00        -0.14229E+08
 
   -0.14806E+08        -0.42628E+05         0.00000E+00
   -0.42628E+05        -0.19814E+07         0.00000E+00
    0.00000E+00         0.00000E+00        -0.14158E+08
 
   -0.14797E+08        -0.52476E+05         0.00000E+00
   -0.52476E+05        -0.19751E+07         0.00000E+00
    0.00000E+00         0.00000E+00        -0.14087E+08
 
   -0.14788E+08        -0.54072E+05         0.00000E+00
   -0.54072E+05        -0.19626E+07         0.00000E+00
    0.00000E+00         0.00000E+00        -0.14013E+08
 
   -0.14778E+08        -0.42650E+05         0.00000E+00
   -0.42650E+05        -0.19362E+07         0.00000E+00
    0.00000E+00         0.00000E+00        -0.13935E+08
 
   -0.14770E+08        -0.16540E+05         0.00000E+00
   -0.16540E+05        -0.18816E+07         0.00000E+00
    0.00000E+00         0.00000E+00        -0.13849E+08
 
   -0.18479E+08        -0.31234E+04         0.00000E+00
   -0.31234E+04        -0.19739E+07         0.00000E+00
    0.00000E+00         0.00000E+00        -0.18728E+08
 
   -0.18477E+08        -0.76686E+04         0.00000E+00
   -0.76686E+04        -0.19627E+07         0.00000E+00
    0.00000E+00         0.00000E+00        -0.18710E+08
 
   -0.18474E+08        -0.87787E+04         0.00000E+00
   -0.87787E+04        -0.19577E+07         0.00000E+00
    0.00000E+00         0.00000E+00        -0.18693E+08
 
   -0.18471E+08        -0.70499E+04         0.00000E+00
   -0.70499E+04        -0.19555E+07         0.00000E+00
    0.00000E+00         0.00000E+00        -0.18676E+08
 
   -0.18468E+08        -0.36475E+04         0.00000E+00
   -0.36475E+04        -0.19544E+07         0.00000E+00
    0.00000E+00         0.00000E+00        -0.18661E+08
 
   -0.18464E+08         0.64561E+03         0.00000E+00
    0.64561E+03        -0.19539E+07         0.00000E+00
    0.00000E+00         0.00000E+00        -0.18644E+08
 
   -0.18459E+08         0.53763E+04         0.00000E+00
    0.53763E+04        -0.19537E+07         0.00000E+00
    0.00000E+00         0.00000E+00        -0.18628E+08
 
   -0.18452E+08         0.10259E+05         0.00000E+00
    0.10259E+05        -0.19538E+07         0.00000E+00
    0.00000E+00         0.00000E+00        -0.18611E+08
 
   -0.18444E+08         0.15107E+05         0.00000E+00
    0.15107E+05        -0.19540E+07         0.00000E+00
    0.00000E+00         0.00000E+00        -0.18593E+08
 
   -0.18434E+08         0.19801E+05         0.00000E+00
    0.19801E+05        -0.19543E+07         0.00000E+00
    0.00000E+00         0.00000E+00        -0.18575E+08
 
   -0.18423E+08         0.24270E+05         0.00000E+00
    0.24270E+05        -0.19546E+07         0.00000E+00
    0.00000E+00         0.00000E+00        -0.18557E+08
 
   -0.18410E+08         0.28475E+05         0.00000E+00
    0.28475E+05        -0.19550E+07         0.00000E+00
    0.00000E+00         0.00000E+00        -0.18537E+08
 
   -0.18396E+08         0.32406E+05         0.00000E+00
    0.32406E+05        -0.19554E+07         0.00000E+00
    0.00000E+00         0.00000E+00        -0.18518E+08
 
   -0.18381E+08         0.36066E+05         0.00000E+00
    0.36066E+05        -0.19557E+07         0.00000E+00
    0.00000E+00         0.00000E+00        -0.18497E+08
 
   -0.18364E+08         0.39470E+05         0.00000E+00
    0.39470E+05        -0.19561E+07         0.00000E+00
    0.00000E+00         0.00000E+00        -0.18476E+08
 
   -0.18346E+08         0.42641E+05         0.00000E+00
    0.42641E+05        -0.19563E+07         0.00000E+00
    0.00000E+00         0.00000E+00        -0.18454E+08
 
   -0.18326E+08         0.45603E+05         0.00000E+00
    0.45603E+05        -0.19566E+07         0.00000E+00
    0.00000E+00         0.00000E+00        -0.18432E+08
 
   -0.18306E+08         0.48382E+05         0.00000E+00
    0.48382E+05        -0.19568E+07         0.00000E+00
    0.00000E+00         0.00000E+00        -0.18409E+08
 
   -0.18284E+08         0.51003E+05         0.00000E+00
    0.51003E+05        -0.19570E+07         0.00000E+00
    0.00000E+00         0.00000E+00        -0.18385E+08
 
   -0.18261E+08         0.53490E+05         0.00000E+00
    0.53490E+05        -0.19571E+07         0.00000E+00
    0.00000E+00         0.00000E+00        -0.18361E+08
 
   -0.18238E+08         0.55864E+05         0.00000E+00
    0.55864E+05        -0.19573E+07         0.00000E+00
    0.00000E+00         0.00000E+00        -0.18336E+08
 
   -0.18213E+08         0.58144E+05         0.00000E+00
    0.58144E+05        -0.19574E+07         0.00000E+00
    0.00000E+00         0.00000E+00        -0.18310E+08
 
   -0.18188E+08         0.60347E+05         0.00000E+00
    0.60347E+05        -0.19574E+07         0.00000E+00
    0.00000E+00         0.00000E+00        -0.18284E+08
 
   -0.18161E+08         0.62487E+05         0.00000E+00
    0.62487E+05        -0.19575E+07         0.00000E+00
    0.00000E+00         0.00000E+00        -0.18257E+08
 
   -0.18134E+08         0.64576E+05         0.00000E+00
    0.64576E+05        -0.19576E+07         0.00000E+00
    0.00000E+00         0.00000E+00        -0.18230E+08
 
   -0.18105E+08         0.66626E+05         0.00000E+00
    0.66626E+05        -0.19576E+07         0.00000E+00
    0.00000E+00         0.00000E+00        -0.18202E+08
 
   -0.18076E+08         0.68645E+05         0.00000E+00
    0.68645E+05        -0.19576E+07         0.00000E+00
    0.00000E+00         0.00000E+00        -0.18173E+08
 
   -0.18046E+08         0.70640E+05         0.00000E+00
    0.70640E+05        -0.19577E+07         0.00000E+00
    0.00000E+00         0.00000E+00        -0.18144E+08
 
   -0.18015E+08         0.72619E+05         0.00000E+00
    0.72619E+05        -0.19577E+07         0.00000E+00
    0.00000E+00         0.00000E+00        -0.18113E+08
 
   -0.17984E+08         0.74585E+05         0.00000E+00
    0.74585E+05        -0.19577E+07         0.00000E+00
    0.00000E+00         0.00000E+00        -0.18082E+08
 
   -0.17951E+08         0.76544E+05         0.00000E+00
    0.76544E+05        -0.19577E+07         0.00000E+00
    0.00000E+00         0.00000E+00        -0.18051E+08
 
   -0.17918E+08         0.78499E+05         0.00000E+00
    0.78499E+05        -0.19577E+07         0.00000E+00
    0.00000E+00         0.00000E+00        -0.18018E+08
 
   -0.17883E+08         0.80453E+05         0.00000E+00
    0.80453E+05        -0.19577E+07         0.00000E+00
    0.00000E+00         0.00000E+00        -0.17985E+08
 
   -0.17848E+08         0.82409E+05         0.00000E+00
    0.82409E+05        -0.19577E+07         0.00000E+00
    0.00000E+00         0.00000E+00        -0.17951E+08
 
   -0.17812E+08         0.84368E+05         0.00000E+00
    0.84368E+05        -0.19577E+07         0.00000E+00
    0.00000E+00         0.00000E+00        -0.17916E+08
 
   -0.17776E+08         0.86332E+05         0.00000E+00
    0.86332E+05        -0.19577E+07         0.00000E+00
    0.00000E+00         0.00000E+00        -0.17881E+08
 
   -0.17738E+08         0.88301E+05         0.00000E+00
    0.88301E+05        -0.19577E+07         0.00000E+00
    0.00000E+00         0.00000E+00        -0.17844E+08
 
   -0.17699E+08         0.90277E+05         0.00000E+00
    0.90277E+05        -0.19576E+07         0.00000E+00
    0.00000E+00         0.00000E+00        -0.17807E+08
 
   -0.17660E+08         0.92260E+05         0.00000E+00
    0.92260E+05        -0.19576E+07         0.00000E+00
    0.00000E+00         0.00000E+00        -0.17769E+08
 
   -0.17620E+08         0.94249E+05         0.00000E+00
    0.94249E+05        -0.19576E+07         0.00000E+00
    0.00000E+00         0.00000E+00        -0.17730E+08
 
   -0.17579E+08         0.96244E+05         0.00000E+00
    0.96244E+05        -0.19576E+07         0.00000E+00
    0.00000E+00         0.00000E+00        -0.17690E+08
 
   -0.17537E+08         0.98245E+05         0.00000E+00
    0.98245E+05        -0.19576E+07         0.00000E+00
    0.00000E+00         0.00000E+00        -0.17649E+08
 
   -0.17494E+08         0.10025E+06         0.00000E+00
    0.10025E+06        -0.19576E+07         0.00000E+00
    0.00000E+00         0.00000E+00        -0.17607E+08
 
   -0.17450E+08         0.10226E+06         0.00000E+00
    0.10226E+06        -0.19576E+07         0.00000E+00
    0.00000E+00         0.00000E+00        -0.17565E+08
 
   -0.17405E+08         0.10427E+06         0.00000E+00
    0.10427E+06        -0.19576E+07         0.00000E+00
    0.00000E+00         0.00000E+00        -0.17521E+08
 
   -0.17360E+08         0.10628E+06         0.00000E+00
    0.10628E+06        -0.19576E+07         0.00000E+00
    0.00000E+00         0.00000E+00        -0.17476E+08
 
   -0.17313E+08         0.10829E+06         0.00000E+00
    0.10829E+06        -0.19576E+07         0.00000E+00
    0.00000E+00         0.00000E+00        -0.17431E+08
 
   -0.17266E+08         0.11029E+06         0.00000E+00
    0.11029E+06        -0.19576E+07         0.00000E+00
    0.00000E+00         0.00000E+00        -0.17384E+08
 
   -0.17218E+08         0.11228E+06         0.00000E+00
    0.11228E+06        -0.19576E+07         0.00000E+00
    0.00000E+00         0.00000E+00        -0.17336E+08
 
   -0.17169E+08         0.11427E+06         0.00000E+00
    0.11427E+06        -0.19576E+07         0.00000E+00
    0.00000E+00         0.00000E+00        -0.17288E+08
 
   -0.17119E+08         0.11623E+06         0.00000E+00
    0.11623E+06        -0.19577E+07         0.00000E+00
    0.00000E+00         0.00000E+00        -0.17238E+08
 
   -0.17068E+08         0.11818E+06         0.00000E+00
    0.11818E+06        -0.19577E+07         0.00000E+00
    0.00000E+00         0.00000E+00        -0.17187E+08
 
   -0.17016E+08         0.12011E+06         0.00000E+00
    0.12011E+06        -0.19577E+07         0.00000E+00
    0.00000E+00         0.00000E+00        -0.17135E+08
 
   -0.16964E+08         0.12201E+06         0.00000E+00
    0.12201E+06        -0.19577E+07         0.00000E+00
    0.00000E+00         0.00000E+00        -0.17082E+08
 
   -0.16910E+08         0.12388E+06         0.00000E+00
    0.12388E+06        -0.19578E+07         0.00000E+00
    0.00000E+00         0.00000E+00        -0.17028E+08
 
   -0.16856E+08         0.12570E+06         0.00000E+00
    0.12570E+06        -0.19578E+07         0.00000E+00
    0.00000E+00         0.00000E+00        -0.16973E+08
 
   -0.16801E+08         0.12749E+06         0.00000E+00
    0.12749E+06        -0.19579E+07         0.00000E+00
    0.00000E+00         0.00000E+00        -0.16917E+08
 
   -0.16745E+08         0.12922E+06         0.00000E+00
    0.12922E+06        -0.19579E+07         0.00000E+00
    0.00000E+00         0.00000E+00        -0.16860E+08
 
   -0.16689E+08         0.13090E+06         0.00000E+00
    0.13090E+06        -0.19580E+07         0.00000E+00
    0.00000E+00         0.00000E+00        -0.16801E+08
 
   -0.16631E+08         0.13251E+06         0.00000E+00
    0.13251E+06        -0.19581E+07         0.00000E+00
    0.00000E+00         0.00000E+00        -0.16742E+08
 
   -0.16573E+08         0.13405E+06         0.00000E+00
    0.13405E+06        -0.19582E+07         0.00000E+00
    0.00000E+00         0.00000E+00        -0.16682E+08
 
   -0.16515E+08         0.13551E+06         0.00000E+00
    0.13551E+06        -0.19583E+07         0.00000E+00
    0.00000E+00         0.00000E+00        -0.16620E+08
 
   -0.16455E+08         0.13687E+06         0.00000E+00
    0.13687E+06        -0.19584E+07         0.00000E+00
    0.00000E+00         0.00000E+00        -0.16558E+08
 
   -0.16395E+08         0.13814E+06         0.00000E+00
    0.13814E+06        -0.19585E+07         0.00000E+00
    0.00000E+00         0.00000E+00        -0.16494E+08
 
   -0.16335E+08         0.13930E+06         0.00000E+00
    0.13930E+06        -0.19587E+07         0.00000E+00
    0.00000E+00         0.00000E+00        -0.16429E+08
 
   -0.16273E+08         0.14033E+06         0.00000E+00
    0.14033E+06        -0.19588E+07         0.00000E+00
    0.00000E+00         0.00000E+00        -0.16364E+08
 
   -0.16212E+08         0.14122E+06         0.00000E+00
    0.14122E+06        -0.19590E+07         0.00000E+00
    0.00000E+00         0.00000E+00        -0.16297E+08
 
   -0.16150E+08         0.14197E+06         0.00000E+00
    0.14197E+06        -0.19592E+07         0.00000E+00
    0.00000E+00         0.00000E+00        -0.16229E+08
 
   -0.16087E+08         0.14254E+06         0.00000E+00
    0.14254E+06        -0.19594E+07         0.00000E+00
    0.00000E+00         0.00000E+00        -0.16161E+08
 
   -0.16025E+08         0.14294E+06         0.00000E+00
    0.14294E+06        -0.19596E+07         0.00000E+00
    0.00000E+00         0.00000E+00        -0.16091E+08
 
   -0.15962E+08         0.14313E+06         0.00000E+00
    0.14313E+06        -0.19598E+07         0.00000E+00
    0.00000E+00         0.00000E+00        -0.16021E+08
 
   -0.15899E+08         0.14310E+06         0.00000E+00
    0.14310E+06        -0.19601E+07         0.00000E+00
    0.00000E+00         0.00000E+00        -0.15949E+08
 
   -0.15836E+08         0.14282E+06         0.00000E+00
    0.14282E+06        -0.19604E+07         0.00000E+00
    0.00000E+00         0.00000E+00        -0.15877E+08
 
   -0.15773E+08         0.14227E+06         0.00000E+00
    0.14227E+06        -0.19607E+07         0.00000E+00
    0.00000E+00         0.00000E+00        -0.15804E+08
 
   -0.15711E+08         0.14141E+06         0.00000E+00
    0.14141E+06        -0.19611E+07         0.00000E+00
    0.00000E+00         0.00000E+00        -0.15730E+08
 
   -0.15649E+08         0.14020E+06         0.00000E+00
    0.14020E+06        -0.19615E+07         0.00000E+00
    0.00000E+00         0.00000E+00        -0.15656E+08
 
   -0.15587E+08         0.13861E+06         0.00000E+00
    0.13861E+06        -0.19620E+07         0.00000E+00
    0.00000E+00         0.00000E+00        -0.15581E+08
 
   -0.15526E+08         0.13658E+06         0.00000E+00
    0.13658E+06        -0.19626E+07         0.00000E+00
    0.00000E+00         0.00000E+00        -0.15506E+08
 
   -0.15466E+08         0.13406E+06         0.00000E+00
    0.13406E+06        -0.19632E+07         0.00000E+00
    0.00000E+00         0.00000E+00        -0.15430E+08
 
   -0.15407E+08         0.13099E+06         0.00000E+00
    0.13099E+06        -0.19639E+07         0.00000E+00
    0.00000E+00         0.00000E+00        -0.15353E+08
 
   -0.15349E+08         0.12729E+06         0.00000E+00
    0.12729E+06        -0.19647E+07         0.00000E+00
    0.00000E+00         0.00000E+00        -0.15276E+08
 
   -0.15292E+08         0.12287E+06         0.00000E+00
    0.12287E+06        -0.19657E+07         0.00000E+00
    0.00000E+00         0.00000E+00        -0.15200E+08
 
   -0.15238E+08         0.11764E+06         0.00000E+00
    0.11764E+06        -0.19667E+07         0.00000E+00
    0.00000E+00         0.00000E+00        -0.15123E+08
 
   -0.15185E+08         0.11151E+06         0.00000E+00
    0.11151E+06        -0.19679E+07         0.00000E+00
    0.00000E+00         0.00000E+00        -0.15046E+08
 
   -0.15135E+08         0.10436E+06         0.00000E+00
    0.10436E+06        -0.19693E+07         0.00000E+00
    0.00000E+00         0.00000E+00        -0.14969E+08
 
   -0.15087E+08         0.96090E+05         0.00000E+00
    0.96090E+05        -0.19708E+07         0.00000E+00
    0.00000E+00         0.00000E+00        -0.14892E+08
 
   -0.15043E+08         0.86593E+05         0.00000E+00
    0.86593E+05        -0.19724E+07         0.00000E+00
    0.00000E+00         0.00000E+00        -0.14816E+08
 
   -0.15002E+08         0.75785E+05         0.00000E+00
    0.75785E+05        -0.19741E+07         0.00000E+00
    0.00000E+00         0.00000E+00        -0.14740E+08
 
   -0.14965E+08         0.63613E+05         0.00000E+00
    0.63613E+05        -0.19760E+07         0.00000E+00
    0.00000E+00         0.00000E+00        -0.14665E+08
 
   -0.14932E+08         0.50075E+05         0.00000E+00
    0.50075E+05        -0.19778E+07         0.00000E+00
    0.00000E+00         0.00000E+00        -0.14591E+08
 
   -0.14904E+08         0.35253E+05         0.00000E+00
    0.35253E+05        -0.19795E+07         0.00000E+00
    0.00000E+00         0.00000E+00        -0.14518E+08
 
   -0.14880E+08         0.19342E+05         0.00000E+00
    0.19342E+05        -0.19810E+07         0.00000E+00
    0.00000E+00         0.00000E+00        -0.14446E+08
 
   -0.14861E+08         0.26989E+04         0.00000E+00
    0.26989E+04        -0.19819E+07         0.00000E+00
    0.00000E+00         0.00000E+00        -0.14374E+08
 
   -0.14847E+08        -0.14098E+05         0.00000E+00
   -0.14098E+05        -0.19822E+07         0.00000E+00
    0.00000E+00         0.00000E+00        -0.14304E+08
 
   -0.14837E+08        -0.30161E+05         0.00000E+00
   -0.30161E+05        -0.19814E+07         0.00000E+00
    0.00000E+00         0.00000E+00        -0.14234E+08
 
   -0.14830E+08        -0.44144E+05         0.00000E+00
   -0.44144E+05        -0.19789E+07         0.00000E+00
    0.00000E+00         0.00000E+00        -0.14165E+08
 
   -0.14824E+08        -0.53935E+05         0.00000E+00
   -0.53935E+05        -0.19738E+07         0.00000E+00
    0.00000E+00         0.00000E+00        -0.14094E+08
 
   -0.14818E+08        -0.55905E+05         0.00000E+00
   -0.55905E+05        -0.19633E+07         0.00000E+00
    0.00000E+00         0.00000E+00        -0.14022E+08
 
   -0.14809E+08        -0.44677E+05         0.00000E+00
   -0.44677E+05        -0.19401E+07         0.00000E+00
    0.00000E+00         0.00000E+00        -0.13945E+08
 
   -0.14802E+08        -0.17519E+05         0.00000E+00
   -0.17519E+05        -0.18883E+07         0.00000E+00
    0.00000E+00         0.00000E+00        -0.13860E+08
 
   -0.18471E+08        -0.33811E+04         0.00000E+00
   -0.33811E+04        -0.19726E+07         0.00000E+00
    0.00000E+00         0.00000E+00        -0.18725E+08
 
   -0.18469E+08        -0.82040E+04         0.00000E+00
   -0.82040E+04        -0.19621E+07         0.00000E+00
    0.00000E+00         0.00000E+00        -0.18707E+08
 
   -0.18467E+08        -0.93041E+04         0.00000E+00
   -0.93041E+04        -0.19578E+07         0.00000E+00
    0.00000E+00         0.00000E+00        -0.18690E+08
 
   -0.18465E+08        -0.75651E+04         0.00000E+00
   -0.75651E+04        -0.19560E+07         0.00000E+00
    0.00000E+00         0.00000E+00        -0.18675E+08
 
   -0.18462E+08        -0.42784E+04         0.00000E+00
   -0.42784E+04        -0.19552E+07         0.00000E+00
    0.00000E+00         0.00000E+00        -0.18659E+08
 
   -0.18459E+08        -0.20026E+03         0.00000E+00
   -0.20026E+03        -0.19548E+07         0.00000E+00
    0.00000E+00         0.00000E+00        -0.18643E+08
 
   -0.18454E+08         0.42567E+04         0.00000E+00
    0.42567E+04        -0.19547E+07         0.00000E+00
    0.00000E+00         0.00000E+00        -0.18627E+08
 
   -0.18448E+08         0.88338E+04         0.00000E+00
    0.88338E+04        -0.19547E+07         0.00000E+00
    0.00000E+00         0.00000E+00        -0.18610E+08
 
   -0.18440E+08         0.13363E+05         0.00000E+00
    0.13363E+05        -0.19549E+07         0.00000E+00
    0.00000E+00         0.00000E+00        -0.18593E+08
 
   -0.18431E+08         0.17738E+05         0.00000E+00
    0.17738E+05        -0.19552E+07         0.00000E+00
    0.00000E+00         0.00000E+00        -0.18575E+08
 
   -0.18420E+08         0.21893E+05         0.00000E+00
    0.21893E+05        -0.19555E+07         0.00000E+00
    0.00000E+00         0.00000E+00        -0.18556E+08
 
   -0.18408E+08         0.25797E+05         0.00000E+00
    0.25797E+05        -0.19558E+07         0.00000E+00
    0.00000E+00         0.00000E+00        -0.18537E+08
 
   -0.18394E+08         0.29439E+05         0.00000E+00
    0.29439E+05        -0.19561E+07         0.00000E+00
    0.00000E+00         0.00000E+00        -0.18517E+08
 
   -0.18378E+08         0.32823E+05         0.00000E+00
    0.32823E+05        -0.19564E+07         0.00000E+00
    0.00000E+00         0.00000E+00        -0.18496E+08
 
   -0.18361E+08         0.35966E+05         0.00000E+00
    0.35966E+05        -0.19567E+07         0.00000E+00
    0.00000E+00         0.00000E+00        -0.18475E+08
 
   -0.18343E+08         0.38889E+05         0.00000E+00
    0.38889E+05        -0.19569E+07         0.00000E+00
    0.00000E+00         0.00000E+00        -0.18454E+08
 
   -0.18324E+08         0.41616E+05         0.00000E+00
    0.41616E+05        -0.19571E+07         0.00000E+00
    0.00000E+00         0.00000E+00        -0.18431E+08
 
   -0.18303E+08         0.44170E+05         0.00000E+00
    0.44170E+05        -0.19573E+07         0.00000E+00
    0.00000E+00         0.00000E+00        -0.18408E+08
 
   -0.18282E+08         0.46577E+05         0.00000E+00
    0.46577E+05        -0.19575E+07         0.00000E+00
    0.00000E+00         0.00000E+00        -0.18385E+08
 
   -0.18259E+08         0.48858E+05         0.00000E+00
    0.48858E+05        -0.19576E+07         0.00000E+00
    0.00000E+00         0.00000E+00        -0.18360E+08
 
   -0.18236E+08         0.51034E+05         0.00000E+00
    0.51034E+05        -0.19577E+07         0.00000E+00
    0.00000E+00         0.00000E+00        -0.18335E+08
 
   -0.18211E+08         0.53122E+05         0.00000E+00
    0.53122E+05        -0.19578E+07         0.00000E+00
    0.00000E+00         0.00000E+00        -0.18310E+08
 
   -0.18185E+08         0.55138E+05         0.00000E+00
    0.55138E+05        -0.19579E+07         0.00000E+00
    0.00000E+00         0.00000E+00        -0.18284E+08
 
   -0.18159E+08         0.57096E+05         0.00000E+00
    0.57096E+05        -0.19579E+07         0.00000E+00
    0.00000E+00         0.00000E+00        -0.18257E+08
 
   -0.18131E+08         0.59006E+05         0.00000E+00
    0.59006E+05        -0.19580E+07         0.00000E+00
    0.00000E+00         0.00000E+00        -0.18229E+08
 
   -0.18103E+08         0.60880E+05         0.00000E+00
    0.60880E+05        -0.19580E+07         0.00000E+00
    0.00000E+00         0.00000E+00        -0.18201E+08
 
   -0.18074E+08         0.62726E+05         0.00000E+00
    0.62726E+05        -0.19580E+07         0.00000E+00
    0.00000E+00         0.00000E+00        -0.18172E+08
 
   -0.18044E+08         0.64549E+05         0.00000E+00
    0.64549E+05        -0.19580E+07         0.00000E+00
    0.00000E+00         0.00000E+00        -0.18143E+08
 
   -0.18013E+08         0.66357E+05         0.00000E+00
    0.66357E+05        -0.19580E+07         0.00000E+00
    0.00000E+00         0.00000E+00        -0.18113E+08
 
   -0.17981E+08         0.68153E+05         0.00000E+00
    0.68153E+05        -0.19581E+07         0.00000E+00
    0.00000E+00         0.00000E+00        -0.18082E+08
 
   -0.17949E+08         0.69942E+05         0.00000E+00
    0.69942E+05        -0.19581E+07         0.00000E+00
    0.00000E+00         0.00000E+00        -0.18050E+08
 
   -0.17915E+08         0.71728E+05         0.00000E+00
    0.71728E+05        -0.19581E+07         0.00000E+00
    0.00000E+00         0.00000E+00        -0.18018E+08
 
   -0.17881E+08         0.73513E+05         0.00000E+00
    0.73513E+05        -0.19581E+07         0.00000E+00
    0.00000E+00         0.00000E+00        -0.17984E+08
 
   -0.17846E+08         0.75299E+05         0.00000E+00
    0.75299E+05        -0.19581E+07         0.00000E+00
    0.00000E+00         0.00000E+00        -0.17950E+08
 
   -0.17810E+08         0.77087E+05         0.00000E+00
    0.77087E+05        -0.19580E+07         0.00000E+00
    0.00000E+00         0.00000E+00        -0.17916E+08
 
   -0.17773E+08         0.78880E+05         0.00000E+00
    0.78880E+05        -0.19580E+07         0.00000E+00
    0.00000E+00         0.00000E+00        -0.17880E+08
 
   -0.17735E+08         0.80678E+05         0.00000E+00
    0.80678E+05        -0.19580E+07         0.00000E+00
    0.00000E+00         0.00000E+00        -0.17844E+08
 
   -0.17697E+08         0.82482E+05         0.00000E+00
    0.82482E+05        -0.19580E+07         0.00000E+00
    0.00000E+00         0.00000E+00        -0.17806E+08
 
   -0.17657E+08         0.84291E+05         0.00000E+00
    0.84291E+05        -0.19580E+07         0.00000E+00
    0.00000E+00         0.00000E+00        -0.17768E+08
 
   -0.17617E+08         0.86106E+05         0.00000E+00
    0.86106E+05        -0.19580E+07         0.00000E+00
    0.00000E+00         0.00000E+00        -0.17729E+08
 
   -0.17576E+08         0.87927E+05         0.00000E+00
    0.87927E+05        -0.19580E+07         0.00000E+00
    0.00000E+00         0.00000E+00        -0.17689E+08
 
   -0.17534E+08         0.89753E+05         0.00000E+00
    0.89753E+05        -0.19580E+07         0.00000E+00
    0.00000E+00         0.00000E+00        -0.17648E+08
 
   -0.17491E+08         0.91582E+05         0.00000E+00
    0.91582E+05        -0.19580E+07         0.00000E+00
    0.00000E+00         0.00000E+00        -0.17607E+08
 
   -0.17447E+08         0.93414E+05         0.00000E+00
    0.93414E+05        -0.19580E+07         0.00000E+00
    0.00000E+00         0.00000E+00        -0.17564E+08
 
   -0.17402E+08         0.95248E+05         0.00000E+00
    0.95248E+05        -0.19580E+07         0.00000E+00
    0.00000E+00         0.00000E+00        -0.17520E+08
 
   -0.17357E+08         0.97080E+05         0.00000E+00
    0.97080E+05        -0.19580E+07         0.00000E+00
    0.00000E+00         0.00000E+00        -0.17475E+08
 
   -0.17310E+08         0.98911E+05         0.00000E+00
    0.98911E+05        -0.19580E+07         0.00000E+00
    0.00000E+00         0.00000E+00        -0.17430E+08
 
   -0.17263E+08         0.10074E+06         0.00000E+00
    0.10074E+06        -0.19580E+07         0.00000E+00
    0.00000E+00         0.00000E+00        -0.17383E+08
 
   -0.17215E+08         0.10255E+06         0.00000E+00
    0.10255E+06        -0.19580E+07         0.00000E+00
    0.00000E+00         0.00000E+00        -0.17335E+08
 
   -0.17165E+08         0.10436E+06         0.00000E+00
    0.10436E+06        -0.19580E+07         0.00000E+00
    0.00000E+00         0.00000E+00        -0.17287E+08
 
   -0.17115E+08         0.10615E+06         0.00000E+00
    0.10615E+06        -0.19580E+07         0.00000E+00
    0.00000E+00         0.00000E+00        -0.17237E+08
 
   -0.17065E+08         0.10793E+06         0.00000E+00
    0.10793E+06        -0.19580E+07         0.00000E+00
    0.00000E+00         0.00000E+00        -0.17186E+08
 
   -0.17013E+08         0.10969E+06         0.00000E+00
    0.10969E+06        -0.19581E+07         0.00000E+00
    0.00000E+00         0.00000E+00        -0.17134E+08
 
   -0.16960E+08         0.11142E+06         0.00000E+00
    0.11142E+06        -0.19581E+07         0.00000E+00
    0.00000E+00         0.00000E+00        -0.17081E+08
 
   -0.16907E+08         0.11312E+06         0.00000E+00
    0.11312E+06        -0.19581E+07         0.00000E+00
    0.00000E+00         0.00000E+00        -0.17027E+08
 
   -0.16853E+08         0.11478E+06         0.00000E+00
    0.11478E+06        -0.19582E+07         0.00000E+00
    0.00000E+00         0.00000E+00        -0.16972E+08
 
   -0.16798E+08         0.11640E+06         0.00000E+00
    0.11640E+06        -0.19582E+07         0.00000E+00
    0.00000E+00         0.00000E+00        -0.16916E+08
 
   -0.16742E+08         0.11798E+06         0.00000E+00
    0.11798E+06        -0.19583E+07         0.00000E+00
    0.00000E+00         0.00000E+00        -0.16859E+08
 
   -0.16685E+08         0.11951E+06         0.00000E+00
    0.11951E+06        -0.19583E+07         0.00000E+00
    0.00000E+00         0.00000E+00        -0.16801E+08
 
   -0.16628E+08         0.12097E+06         0.00000E+00
    0.12097E+06        -0.19584E+07         0.00000E+00
    0.00000E+00         0.00000E+00        -0.16741E+08
 
   -0.16570E+08         0.12237E+06         0.00000E+00
    0.12237E+06        -0.19585E+07         0.00000E+00
    0.00000E+00         0.00000E+00        -0.16681E+08
 
   -0.16511E+08         0.12369E+06         0.00000E+00
    0.12369E+06        -0.19586E+07         0.00000E+00
    0.00000E+00         0.00000E+00        -0.16619E+08
 
   -0.16452E+08         0.12493E+06         0.00000E+00
    0.12493E+06        -0.19586E+07         0.00000E+00
    0.00000E+00         0.00000E+00        -0.16557E+08
 
   -0.16392E+08         0.12608E+06         0.00000E+00
    0.12608E+06        -0.19587E+07         0.00000E+00
    0.00000E+00         0.00000E+00        -0.16493E+08
 
   -0.16331E+08         0.12713E+06         0.00000E+00
    0.12713E+06        -0.19589E+07         0.00000E+00
    0.00000E+00         0.00000E+00        -0.16428E+08
 
   -0.16270E+08         0.12806E+06         0.00000E+00
    0.12806E+06        -0.19590E+07         0.00000E+00
    0.00000E+00         0.00000E+00        -0.16363E+08
 
   -0.16209E+08         0.12887E+06         0.00000E+00
    0.12887E+06        -0.19591E+07         0.00000E+00
    0.00000E+00         0.00000E+00        -0.16296E+08
 
   -0.16147E+08         0.12954E+06         0.00000E+00
    0.12954E+06        -0.19593E+07         0.00000E+00
    0.00000E+00         0.00000E+00        -0.16228E+08
 
   -0.16085E+08         0.13006E+06         0.00000E+00
    0.13006E+06        -0.19594E+07         0.00000E+00
    0.00000E+00         0.00000E+00        -0.16160E+08
 
   -0.16022E+08         0.13041E+06         0.00000E+00
    0.13041E+06        -0.19596E+07         0.00000E+00
    0.00000E+00         0.00000E+00        -0.16090E+08
 
   -0.15960E+08         0.13057E+06         0.00000E+00
    0.13057E+06        -0.19598E+07         0.00000E+00
    0.00000E+00         0.00000E+00        -0.16020E+08
 
   -0.15897E+08         0.13053E+06         0.00000E+00
    0.13053E+06        -0.19601E+07         0.00000E+00
    0.00000E+00         0.00000E+00        -0.15948E+08
 
   -0.15834E+08         0.13026E+06         0.00000E+00
    0.13026E+06        -0.19603E+07         0.00000E+00
    0.00000E+00         0.00000E+00        -0.15876E+08
 
   -0.15771E+08         0.12974E+06         0.00000E+00
    0.12974E+06        -0.19606E+07         0.00000E+00
    0.00000E+00         0.00000E+00        -0.15803E+08
 
   -0.15709E+08         0.12894E+06         0.00000E+00
    0.12894E+06        -0.19609E+07         0.00000E+00
    0.00000E+00         0.00000E+00        -0.15730E+08
 
   -0.15647E+08         0.12782E+06         0.00000E+00
    0.12782E+06        -0.19613E+07         0.00000E+00
    0.00000E+00         0.00000E+00        -0.15655E+08
 
   -0.15585E+08         0.12635E+06         0.00000E+00
    0.12635E+06        -0.19617E+07         0.00000E+00
    0.00000E+00         0.00000E+00        -0.15581E+08
 
   -0.15525E+08         0.12448E+06         0.00000E+00
    0.12448E+06        -0.19621E+07         0.00000E+00
    0.00000E+00         0.00000E+00        -0.15505E+08
 
   -0.15465E+08         0.12215E+06         0.00000E+00
    0.12215E+06        -0.19627E+07         0.00000E+00
    0.00000E+00         0.00000E+00        -0.15429E+08
 
   -0.15406E+08         0.11931E+06         0.00000E+00
    0.11931E+06        -0.19633E+07         0.00000E+00
    0.00000E+00         0.00000E+00        -0.15353E+08
 
   -0.15348E+08         0.11589E+06         0.00000E+00
    0.11589E+06        -0.19639E+07         0.00000E+00
    0.00000E+00         0.00000E+00        -0.15276E+08
 
   -0.15292E+08         0.11180E+06         0.00000E+00
    0.11180E+06        -0.19647E+07         0.00000E+00
    0.00000E+00         0.00000E+00        -0.15199E+08
 
   -0.15238E+08         0.10697E+06         0.00000E+00
    0.10697E+06        -0.19656E+07         0.00000E+00
    0.00000E+00         0.00000E+00        -0.15122E+08
 
   -0.15186E+08         0.10129E+06         0.00000E+00
    0.10129E+06        -0.19666E+07         0.00000E+00
    0.00000E+00         0.00000E+00        -0.15046E+08
 
   -0.15137E+08         0.94658E+05         0.00000E+00
    0.94658E+05        -0.19678E+07         0.00000E+00
    0.00000E+00         0.00000E+00        -0.14969E+08
 
   -0.15090E+08         0.86978E+05         0.00000E+00
    0.86978E+05        -0.19690E+07         0.00000E+00
    0.00000E+00         0.00000E+00        -0.14892E+08
 
   -0.15047E+08         0.78148E+05         0.00000E+00
    0.78148E+05        -0.19704E+07         0.00000E+00
    0.00000E+00         0.00000E+00        -0.14817E+08
 
   -0.15007E+08         0.68085E+05         0.00000E+00
    0.68085E+05        -0.19719E+07         0.00000E+00
    0.00000E+00         0.00000E+00        -0.14741E+08
 
   -0.14971E+08         0.56733E+05         0.00000E+00
    0.56733E+05        -0.19735E+07         0.00000E+00
    0.00000E+00         0.00000E+00        -0.14667E+08
 
   -0.14940E+08         0.44088E+05         0.00000E+00
    0.44088E+05        -0.19750E+07         0.00000E+00
    0.00000E+00         0.00000E+00        -0.14593E+08
 
   -0.14913E+08         0.30217E+05         0.00000E+00
    0.30217E+05        -0.19765E+07         0.00000E+00
    0.00000E+00         0.00000E+00        -0.14520E+08
 
   -0.14891E+08         0.15294E+05         0.00000E+00
    0.15294E+05        -0.19778E+07         0.00000E+00
    0.00000E+00         0.00000E+00        -0.14448E+08
 
   -0.14875E+08        -0.35885E+03         0.00000E+00
   -0.35885E+03        -0.19787E+07         0.00000E+00
    0.00000E+00         0.00000E+00        -0.14378E+08
 
   -0.14863E+08        -0.16221E+05         0.00000E+00
   -0.16221E+05        -0.19789E+07         0.00000E+00
    0.00000E+00         0.00000E+00        -0.14308E+08
 
   -0.14856E+08        -0.31493E+05         0.00000E+00
   -0.31493E+05        -0.19784E+07         0.00000E+00
    0.00000E+00         0.00000E+00        -0.14239E+08
 
   -0.14853E+08        -0.44955E+05         0.00000E+00
   -0.44955E+05        -0.19764E+07         0.00000E+00
    0.00000E+00         0.00000E+00        -0.14171E+08
 
   -0.14851E+08        -0.54682E+05         0.00000E+00
   -0.54682E+05        -0.19724E+07         0.00000E+00
    0.00000E+00         0.00000E+00        -0.14102E+08
 
   -0.14848E+08        -0.57168E+05         0.00000E+00
   -0.57168E+05        -0.19640E+07         0.00000E+00
    0.00000E+00         0.00000E+00        -0.14032E+08
 
   -0.14842E+08        -0.46452E+05         0.00000E+00
   -0.46452E+05        -0.19440E+07         0.00000E+00
    0.00000E+00         0.00000E+00        -0.13956E+08
 
   -0.14836E+08        -0.18477E+05         0.00000E+00
   -0.18477E+05        -0.18953E+07         0.00000E+00
    0.00000E+00         0.00000E+00        -0.13873E+08
 
   -0.18463E+08        -0.36344E+04         0.00000E+00
   -0.36344E+04        -0.19713E+07         0.00000E+00
    0.00000E+00         0.00000E+00        -0.18722E+08
 
   -0.18461E+08        -0.86741E+04         0.00000E+00
   -0.86741E+04        -0.19615E+07         0.00000E+00
    0.00000E+00         0.00000E+00        -0.18704E+08
 
   -0.18459E+08        -0.96890E+04         0.00000E+00
   -0.96890E+04        -0.19579E+07         0.00000E+00
    0.00000E+00         0.00000E+00        -0.18688E+08
 
   -0.18458E+08        -0.79177E+04         0.00000E+00
   -0.79177E+04        -0.19566E+07         0.00000E+00
    0.00000E+00         0.00000E+00        -0.18673E+08
 
   -0.18456E+08        -0.47572E+04         0.00000E+00
   -0.47572E+04        -0.19559E+07         0.00000E+00
    0.00000E+00         0.00000E+00        -0.18657E+08
 
   -0.18454E+08        -0.91123E+03         0.00000E+00
   -0.91123E+03        -0.19556E+07         0.00000E+00
    0.00000E+00         0.00000E+00        -0.18642E+08
 
   -0.18450E+08         0.32538E+04         0.00000E+00
    0.32538E+04        -0.19555E+07         0.00000E+00
    0.00000E+00         0.00000E+00        -0.18626E+08
 
   -0.18444E+08         0.75078E+04         0.00000E+00
    0.75078E+04        -0.19556E+07         0.00000E+00
    0.00000E+00         0.00000E+00        -0.18609E+08
 
   -0.18437E+08         0.11702E+05         0.00000E+00
    0.11702E+05        -0.19558E+07         0.00000E+00
    0.00000E+00         0.00000E+00        -0.18592E+08
 
   -0.18428E+08         0.15743E+05         0.00000E+00
    0.15743E+05        -0.19560E+07         0.00000E+00
    0.00000E+00         0.00000E+00        -0.18574E+08
 
   -0.18417E+08         0.19572E+05         0.00000E+00
    0.19572E+05        -0.19563E+07         0.00000E+00
    0.00000E+00         0.00000E+00        -0.18555E+08
 
   -0.18405E+08         0.23162E+05         0.00000E+00
    0.23162E+05        -0.19565E+07         0.00000E+00
    0.00000E+00         0.00000E+00        -0.18536E+08
 
   -0.18391E+08         0.26505E+05         0.00000E+00
    0.26505E+05        -0.19568E+07         0.00000E+00
    0.00000E+00         0.00000E+00        -0.18516E+08
 
   -0.18376E+08         0.29606E+05         0.00000E+00
    0.29606E+05        -0.19570E+07         0.00000E+00
    0.00000E+00         0.00000E+00        -0.18496E+08
 
   -0.18359E+08         0.32481E+05         0.00000E+00
    0.32481E+05        -0.19573E+07         0.00000E+00
    0.00000E+00         0.00000E+00        -0.18475E+08
 
   -0.18341E+08         0.35150E+05         0.00000E+00
    0.35150E+05        -0.19575E+07         0.00000E+00
    0.00000E+00         0.00000E+00        -0.18453E+08
 
   -0.18322E+08         0.37637E+05         0.00000E+00
    0.37637E+05        -0.19576E+07         0.00000E+00
    0.00000E+00         0.00000E+00        -0.18431E+08
 
   -0.18301E+08         0.39963E+05         0.00000E+00
    0.39963E+05        -0.19578E+07         0.00000E+00
    0.00000E+00         0.00000E+00        -0.18408E+08
 
   -0.18280E+08         0.42152E+05         0.00000E+00
    0.42152E+05        -0.19579E+07         0.00000E+00
    0.00000E+00         0.00000E+00        -0.18384E+08
 
   -0.18257E+08         0.44225E+05         0.00000E+00
    0.44225E+05        -0.19580E+07         0.00000E+00
    0.00000E+00         0.00000E+00        -0.18360E+08
 
   -0.18233E+08         0.46201E+05         0.00000E+00
    0.46201E+05        -0.19581E+07         0.00000E+00
    0.00000E+00         0.00000E+00        -0.18335E+08
 
   -0.18209E+08         0.48095E+05         0.00000E+00
    0.48095E+05        -0.19582E+07         0.00000E+00
    0.00000E+00         0.00000E+00        -0.18309E+08
 
   -0.18183E+08         0.49924E+05         0.00000E+00
    0.49924E+05        -0.19582E+07         0.00000E+00
    0.00000E+00         0.00000E+00        -0.18283E+08
 
   -0.18157E+08         0.51698E+05         0.00000E+00
    0.51698E+05        -0.19583E+07         0.00000E+00
    0.00000E+00         0.00000E+00        -0.18256E+08
 
   -0.18129E+08         0.53430E+05         0.00000E+00
    0.53430E+05        -0.19583E+07         0.00000E+00
    0.00000E+00         0.00000E+00        -0.18229E+08
 
   -0.18101E+08         0.55127E+05         0.00000E+00
    0.55127E+05        -0.19583E+07         0.00000E+00
    0.00000E+00         0.00000E+00        -0.18201E+08
 
   -0.18072E+08         0.56798E+05         0.00000E+00
    0.56798E+05        -0.19584E+07         0.00000E+00
    0.00000E+00         0.00000E+00        -0.18172E+08
 
   -0.18041E+08         0.58449E+05         0.00000E+00
    0.58449E+05        -0.19584E+07         0.00000E+00
    0.00000E+00         0.00000E+00        -0.18142E+08
 
   -0.18011E+08         0.60086E+05         0.00000E+00
    0.60086E+05        -0.19584E+07         0.00000E+00
    0.00000E+00         0.00000E+00        -0.18112E+08
 
   -0.17979E+08         0.61712E+05         0.00000E+00
    0.61712E+05        -0.19584E+07         0.00000E+00
    0.00000E+00         0.00000E+00        -0.18081E+08
 
   -0.17946E+08         0.63331E+05         0.00000E+00
    0.63331E+05        -0.19584E+07         0.00000E+00
    0.00000E+00         0.00000E+00        -0.18049E+08
 
   -0.17913E+08         0.64947E+05         0.00000E+00
    0.64947E+05        -0.19584E+07         0.00000E+00
    0.00000E+00         0.00000E+00        -0.18017E+08
 
   -0.17878E+08         0.66562E+05         0.00000E+00
    0.66562E+05        -0.19584E+07         0.00000E+00
    0.00000E+00         0.00000E+00        -0.17984E+08
 
   -0.17843E+08         0.68178E+05         0.00000E+00
    0.68178E+05        -0.19584E+07         0.00000E+00
    0.00000E+00         0.00000E+00        -0.17950E+08
 
   -0.17807E+08         0.69797E+05         0.00000E+00
    0.69797E+05        -0.19584E+07         0.00000E+00
    0.00000E+00         0.00000E+00        -0.17915E+08
 
   -0.17770E+08         0.71419E+05         0.00000E+00
    0.71419E+05        -0.19584E+07         0.00000E+00
    0.00000E+00         0.00000E+00        -0.17879E+08
 
   -0.17732E+08         0.73045E+05         0.00000E+00
    0.73045E+05        -0.19584E+07         0.00000E+00
    0.00000E+00         0.00000E+00        -0.17843E+08
 
   -0.17694E+08         0.74676E+05         0.00000E+00
    0.74676E+05        -0.19584E+07         0.00000E+00
    0.00000E+00         0.00000E+00        -0.17806E+08
 
   -0.17654E+08         0.76313E+05         0.00000E+00
    0.76313E+05        -0.19584E+07         0.00000E+00
    0.00000E+00         0.00000E+00        -0.17767E+08
 
   -0.17614E+08         0.77954E+05         0.00000E+00
    0.77954E+05        -0.19584E+07         0.00000E+00
    0.00000E+00         0.00000E+00        -0.17728E+08
 
   -0.17573E+08         0.79601E+05         0.00000E+00
    0.79601E+05        -0.19583E+07         0.00000E+00
    0.00000E+00         0.00000E+00        -0.17688E+08
 
   -0.17531E+08         0.81251E+05         0.00000E+00
    0.81251E+05        -0.19583E+07         0.00000E+00
    0.00000E+00         0.00000E+00        -0.17648E+08
 
   -0.17488E+08         0.82905E+05         0.00000E+00
    0.82905E+05        -0.19583E+07         0.00000E+00
    0.00000E+00         0.00000E+00        -0.17606E+08
 
   -0.17444E+08         0.84561E+05         0.00000E+00
    0.84561E+05        -0.19583E+07         0.00000E+00
    0.00000E+00         0.00000E+00        -0.17563E+08
 
   -0.17399E+08         0.86218E+05         0.00000E+00
    0.86218E+05        -0.19583E+07         0.00000E+00
    0.00000E+00         0.00000E+00        -0.17519E+08
 
   -0.17353E+08         0.87874E+05         0.00000E+00
    0.87874E+05        -0.19583E+07         0.00000E+00
    0.00000E+00         0.00000E+00        -0.17475E+08
 
   -0.17307E+08         0.89528E+05         0.00000E+00
    0.89528E+05        -0.19583E+07         0.00000E+00
    0.00000E+00         0.00000E+00        -0.17429E+08
 
   -0.17260E+08         0.91177E+05         0.00000E+00
    0.91177E+05        -0.19583E+07         0.00000E+00
    0.00000E+00         0.00000E+00        -0.17382E+08
 
   -0.17211E+08         0.92819E+05         0.00000E+00
    0.92819E+05        -0.19583E+07         0.00000E+00
    0.00000E+00         0.00000E+00        -0.17334E+08
 
   -0.17162E+08         0.94452E+05         0.00000E+00
    0.94452E+05        -0.19584E+07         0.00000E+00
    0.00000E+00         0.00000E+00        -0.17286E+08
 
   -0.17112E+08         0.96072E+05         0.00000E+00
    0.96072E+05        -0.19584E+07         0.00000E+00
    0.00000E+00         0.00000E+00        -0.17236E+08
 
   -0.17061E+08         0.97675E+05         0.00000E+00
    0.97675E+05        -0.19584E+07         0.00000E+00
    0.00000E+00         0.00000E+00        -0.17185E+08
 
   -0.17010E+08         0.99260E+05         0.00000E+00
    0.99260E+05        -0.19584E+07         0.00000E+00
    0.00000E+00         0.00000E+00        -0.17133E+08
 
   -0.16957E+08         0.10082E+06         0.00000E+00
    0.10082E+06        -0.19584E+07         0.00000E+00
    0.00000E+00         0.00000E+00        -0.17080E+08
 
   -0.16904E+08         0.10235E+06         0.00000E+00
    0.10235E+06        -0.19585E+07         0.00000E+00
    0.00000E+00         0.00000E+00        -0.17026E+08
 
   -0.16849E+08         0.10386E+06         0.00000E+00
    0.10386E+06        -0.19585E+07         0.00000E+00
    0.00000E+00         0.00000E+00        -0.16971E+08
 
   -0.16794E+08         0.10532E+06         0.00000E+00
    0.10532E+06        -0.19585E+07         0.00000E+00
    0.00000E+00         0.00000E+00        -0.16915E+08
 
   -0.16739E+08         0.10674E+06         0.00000E+00
    0.10674E+06        -0.19586E+07         0.00000E+00
    0.00000E+00         0.00000E+00        -0.16858E+08
 
   -0.16682E+08         0.10812E+06         0.00000E+00
    0.10812E+06        -0.19586E+07         0.00000E+00
    0.00000E+00         0.00000E+00        -0.16800E+08
 
   -0.16625E+08         0.10944E+06         0.00000E+00
    0.10944E+06        -0.19587E+07         0.00000E+00
    0.00000E+00         0.00000E+00        -0.16740E+08
 
   -0.16567E+08         0.11070E+06         0.00000E+00
    0.11070E+06        -0.19587E+07         0.00000E+00
    0.00000E+00         0.00000E+00        -0.16680E+08
 
   -0.16508E+08         0.11189E+06         0.00000E+00
    0.11189E+06        -0.19588E+07         0.00000E+00
    0.00000E+00         0.00000E+00        -0.16618E+08
 
   -0.16449E+08         0.11300E+06         0.00000E+00
    0.11300E+06        -0.19589E+07         0.00000E+00
    0.00000E+00         0.00000E+00        -0.16556E+08
 
   -0.16389E+08         0.11403E+06         0.00000E+00
    0.11403E+06        -0.19590E+07         0.00000E+00
    0.00000E+00         0.00000E+00        -0.16492E+08
 
   -0.16328E+08         0.11497E+06         0.00000E+00
    0.11497E+06        -0.19591E+07         0.00000E+00
    0.00000E+00         0.00000E+00        -0.16427E+08
 
   -0.16267E+08         0.11581E+06         0.00000E+00
    0.11581E+06        -0.19592E+07         0.00000E+00
    0.00000E+00         0.00000E+00        -0.16362E+08
 
   -0.16206E+08         0.11653E+06         0.00000E+00
    0.11653E+06        -0.19593E+07         0.00000E+00
    0.00000E+00         0.00000E+00        -0.16295E+08
 
   -0.16144E+08         0.11713E+06         0.00000E+00
    0.11713E+06        -0.19594E+07         0.00000E+00
    0.00000E+00         0.00000E+00        -0.16228E+08
 
   -0.16082E+08         0.11759E+06         0.00000E+00
    0.11759E+06        -0.19595E+07         0.00000E+00
    0.00000E+00         0.00000E+00        -0.16159E+08
 
   -0.16019E+08         0.11790E+06         0.00000E+00
    0.11790E+06        -0.19597E+07         0.00000E+00
    0.00000E+00         0.00000E+00        -0.16089E+08
 
   -0.15957E+08         0.11804E+06         0.00000E+00
    0.11804E+06        -0.19599E+07         0.00000E+00
    0.00000E+00         0.00000E+00        -0.16019E+08
 
   -0.15894E+08         0.11799E+06         0.00000E+00
    0.11799E+06        -0.19600E+07         0.00000E+00
    0.00000E+00         0.00000E+00        -0.15948E+08
 
   -0.15832E+08         0.11774E+06         0.00000E+00
    0.11774E+06        -0.19602E+07         0.00000E+00
    0.00000E+00         0.00000E+00        -0.15876E+08
 
   -0.15769E+08         0.11726E+06         0.00000E+00
    0.11726E+06        -0.19605E+07         0.00000E+00
    0.00000E+00         0.00000E+00        -0.15803E+08
 
   -0.15707E+08         0.11652E+06         0.00000E+00
    0.11652E+06        -0.19607E+07         0.00000E+00
    0.00000E+00         0.00000E+00        -0.15729E+08
 
   -0.15645E+08         0.11549E+06         0.00000E+00
    0.11549E+06        -0.19610E+07         0.00000E+00
    0.00000E+00         0.00000E+00        -0.15655E+08
 
   -0.15584E+08         0.11414E+06         0.00000E+00
    0.11414E+06        -0.19614E+07         0.00000E+00
    0.00000E+00         0.00000E+00        -0.15580E+08
 
   -0.15523E+08         0.11243E+06         0.00000E+00
    0.11243E+06        -0.19617E+07         0.00000E+00
    0.00000E+00         0.00000E+00        -0.15505E+08
 
   -0.15464E+08         0.11030E+06         0.00000E+00
    0.11030E+06        -0.19622E+07         0.00000E+00
    0.00000E+00         0.00000E+00        -0.15429E+08
 
   -0.15405E+08         0.10770E+06         0.00000E+00
    0.10770E+06        -0.19627E+07         0.00000E+00
    0.00000E+00         0.00000E+00        -0.15352E+08
 
   -0.15348E+08         0.10457E+06         0.00000E+00
    0.10457E+06        -0.19632E+07         0.00000E+00
    0.00000E+00         0.00000E+00        -0.15276E+08
 
   -0.15293E+08         0.10083E+06         0.00000E+00
    0.10083E+06        -0.19639E+07         0.00000E+00
    0.00000E+00         0.00000E+00        -0.15199E+08
 
   -0.15239E+08         0.96395E+05         0.00000E+00
    0.96395E+05        -0.19646E+07         0.00000E+00
    0.00000E+00         0.00000E+00        -0.15122E+08
 
   -0.15187E+08         0.91184E+05         0.00000E+00
    0.91184E+05        -0.19655E+07         0.00000E+00
    0.00000E+00         0.00000E+00        -0.15046E+08
 
   -0.15139E+08         0.85095E+05         0.00000E+00
    0.85095E+05        -0.19664E+07         0.00000E+00
    0.00000E+00         0.00000E+00        -0.14969E+08
 
   -0.15093E+08         0.78032E+05         0.00000E+00
    0.78032E+05        -0.19675E+07         0.00000E+00
    0.00000E+00         0.00000E+00        -0.14893E+08
 
   -0.15050E+08         0.69900E+05         0.00000E+00
    0.69900E+05        -0.19686E+07         0.00000E+00
    0.00000E+00         0.00000E+00        -0.14817E+08
 
   -0.15011E+08         0.60618E+05         0.00000E+00
    0.60618E+05        -0.19699E+07         0.00000E+00
    0.00000E+00         0.00000E+00        -0.14742E+08
 
   -0.14977E+08         0.50131E+05         0.00000E+00
    0.50131E+05        -0.19712E+07         0.00000E+00
    0.00000E+00         0.00000E+00        -0.14668E+08
 
   -0.14947E+08         0.38428E+05         0.00000E+00
    0.38428E+05        -0.19725E+07         0.00000E+00
    0.00000E+00         0.00000E+00        -0.14594E+08
 
   -0.14922E+08         0.25566E+05         0.00000E+00
    0.25566E+05        -0.19737E+07         0.00000E+00
    0.00000E+00         0.00000E+00        -0.14522E+08
 
   -0.14902E+08         0.11697E+05         0.00000E+00
    0.11697E+05        -0.19748E+07         0.00000E+00
    0.00000E+00         0.00000E+00        -0.14451E+08
 
   -0.14888E+08        -0.28943E+04         0.00000E+00
   -0.28943E+04        -0.19756E+07         0.00000E+00
    0.00000E+00         0.00000E+00        -0.14381E+08
 
   -0.14879E+08        -0.17746E+05         0.00000E+00
   -0.17746E+05        -0.19759E+07         0.00000E+00
    0.00000E+00         0.00000E+00        -0.14312E+08
 
   -0.14876E+08        -0.32149E+05         0.00000E+00
   -0.32149E+05        -0.19755E+07         0.00000E+00
    0.00000E+00         0.00000E+00        -0.14244E+08
 
   -0.14876E+08        -0.45018E+05         0.00000E+00
   -0.45018E+05        -0.19740E+07         0.00000E+00
    0.00000E+00         0.00000E+00        -0.14177E+08
 
   -0.14878E+08        -0.54640E+05         0.00000E+00
   -0.54640E+05        -0.19709E+07         0.00000E+00
    0.00000E+00         0.00000E+00        -0.14110E+08
 
   -0.14879E+08        -0.57754E+05         0.00000E+00
   -0.57754E+05        -0.19644E+07         0.00000E+00
    0.00000E+00         0.00000E+00        -0.14041E+08
 
   -0.14876E+08        -0.47909E+05         0.00000E+00
   -0.47909E+05        -0.19478E+07         0.00000E+00
    0.00000E+00         0.00000E+00        -0.13968E+08
 
   -0.14871E+08        -0.19409E+05         0.00000E+00
   -0.19409E+05        -0.19027E+07         0.00000E+00
    0.00000E+00         0.00000E+00        -0.13885E+08
 
   -0.18454E+08        -0.38817E+04         0.00000E+00
   -0.38817E+04        -0.19698E+07         0.00000E+00
    0.00000E+00         0.00000E+00        -0.18719E+08
 
   -0.18452E+08        -0.90591E+04         0.00000E+00
   -0.90591E+04        -0.19609E+07         0.00000E+00
    0.00000E+00         0.00000E+00        -0.18702E+08
 
   -0.18451E+08        -0.99062E+04         0.00000E+00
   -0.99062E+04        -0.19581E+07         0.00000E+00
    0.00000E+00         0.00000E+00        -0.18686E+08
 
   -0.18451E+08        -0.80902E+04         0.00000E+00
   -0.80902E+04        -0.19571E+07         0.00000E+00
    0.00000E+00         0.00000E+00        -0.18671E+08
 
   -0.18450E+08        -0.50749E+04         0.00000E+00
   -0.50749E+04        -0.19566E+07         0.00000E+00
    0.00000E+00         0.00000E+00        -0.18656E+08
 
   -0.18448E+08        -0.14821E+04         0.00000E+00
   -0.14821E+04        -0.19564E+07         0.00000E+00
    0.00000E+00         0.00000E+00        -0.18640E+08
 
   -0.18445E+08         0.23705E+04         0.00000E+00
    0.23705E+04        -0.19564E+07         0.00000E+00
    0.00000E+00         0.00000E+00        -0.18624E+08
 
   -0.18440E+08         0.62821E+04         0.00000E+00
    0.62821E+04        -0.19564E+07         0.00000E+00
    0.00000E+00         0.00000E+00        -0.18608E+08
 
   -0.18433E+08         0.10125E+05         0.00000E+00
    0.10125E+05        -0.19566E+07         0.00000E+00
    0.00000E+00         0.00000E+00        -0.18591E+08
 
   -0.18425E+08         0.13815E+05         0.00000E+00
    0.13815E+05        -0.19568E+07         0.00000E+00
    0.00000E+00         0.00000E+00        -0.18573E+08
 
   -0.18414E+08         0.17305E+05         0.00000E+00
    0.17305E+05        -0.19570E+07         0.00000E+00
    0.00000E+00         0.00000E+00        -0.18555E+08
 
   -0.18402E+08         0.20569E+05         0.00000E+00
    0.20569E+05        -0.19572E+07         0.00000E+00
    0.00000E+00         0.00000E+00        -0.18536E+08
 
   -0.18389E+08         0.23603E+05         0.00000E+00
    0.23603E+05        -0.19574E+07         0.00000E+00
    0.00000E+00         0.00000E+00        -0.18516E+08
 
   -0.18374E+08         0.26413E+05         0.00000E+00
    0.26413E+05        -0.19576E+07         0.00000E+00
    0.00000E+00         0.00000E+00        -0.18495E+08
 
   -0.18357E+08         0.29013E+05         0.00000E+00
    0.29013E+05        -0.19578E+07         0.00000E+00
    0.00000E+00         0.00000E+00        -0.18474E+08
 
   -0.18339E+08         0.31423E+05         0.00000E+00
    0.31423E+05        -0.19580E+07         0.00000E+00
    0.00000E+00         0.00000E+00        -0.18453E+08
 
   -0.18320E+08         0.33665E+05         0.00000E+00
    0.33665E+05        -0.19581E+07         0.00000E+00
    0.00000E+00         0.00000E+00        -0.18430E+08
 
   -0.18299E+08         0.35760E+05         0.00000E+00
    0.35760E+05        -0.19582E+07         0.00000E+00
    0.00000E+00         0.00000E+00        -0.18407E+08
 
   -0.18278E+08         0.37729E+05         0.00000E+00
    0.37729E+05        -0.19583E+07         0.00000E+00
    0.00000E+00         0.00000E+00        -0.18384E+08
 
   -0.18255E+08         0.39591E+05         0.00000E+00
    0.39591E+05        -0.19584E+07         0.00000E+00
    0.00000E+00         0.00000E+00        -0.18359E+08
 
   -0.18231E+08         0.41364E+05         0.00000E+00
    0.41364E+05        -0.19585E+07         0.00000E+00
    0.00000E+00         0.00000E+00        -0.18334E+08
 
   -0.18207E+08         0.43064E+05         0.00000E+00
    0.43064E+05        -0.19585E+07         0.00000E+00
    0.00000E+00         0.00000E+00        -0.18309E+08
 
   -0.18181E+08         0.44703E+05         0.00000E+00
    0.44703E+05        -0.19586E+07         0.00000E+00
    0.00000E+00         0.00000E+00        -0.18283E+08
 
   -0.18154E+08         0.46294E+05         0.00000E+00
    0.46294E+05        -0.19586E+07         0.00000E+00
    0.00000E+00         0.00000E+00        -0.18256E+08
 
   -0.18127E+08         0.47845E+05         0.00000E+00
    0.47845E+05        -0.19586E+07         0.00000E+00
    0.00000E+00         0.00000E+00        -0.18228E+08
 
   -0.18099E+08         0.49365E+05         0.00000E+00
    0.49365E+05        -0.19587E+07         0.00000E+00
    0.00000E+00         0.00000E+00        -0.18200E+08
 
   -0.18069E+08         0.50862E+05         0.00000E+00
    0.50862E+05        -0.19587E+07         0.00000E+00
    0.00000E+00         0.00000E+00        -0.18171E+08
 
   -0.18039E+08         0.52340E+05         0.00000E+00
    0.52340E+05        -0.19587E+07         0.00000E+00
    0.00000E+00         0.00000E+00        -0.18142E+08
 
   -0.18008E+08         0.53805E+05         0.00000E+00
    0.53805E+05        -0.19587E+07         0.00000E+00
    0.00000E+00         0.00000E+00        -0.18112E+08
 
   -0.17976E+08         0.55261E+05         0.00000E+00
    0.55261E+05        -0.19587E+07         0.00000E+00
    0.00000E+00         0.00000E+00        -0.18081E+08
 
   -0.17944E+08         0.56710E+05         0.00000E+00
    0.56710E+05        -0.19587E+07         0.00000E+00
    0.00000E+00         0.00000E+00        -0.18049E+08
 
   -0.17910E+08         0.58157E+05         0.00000E+00
    0.58157E+05        -0.19587E+07         0.00000E+00
    0.00000E+00         0.00000E+00        -0.18016E+08
 
   -0.17876E+08         0.59602E+05         0.00000E+00
    0.59602E+05        -0.19587E+07         0.00000E+00
    0.00000E+00         0.00000E+00        -0.17983E+08
 
   -0.17840E+08         0.61048E+05         0.00000E+00
    0.61048E+05        -0.19587E+07         0.00000E+00
    0.00000E+00         0.00000E+00        -0.17949E+08
 
   -0.17804E+08         0.62496E+05         0.00000E+00
    0.62496E+05        -0.19587E+07         0.00000E+00
    0.00000E+00         0.00000E+00        -0.17914E+08
 
   -0.17767E+08         0.63947E+05         0.00000E+00
    0.63947E+05        -0.19587E+07         0.00000E+00
    0.00000E+00         0.00000E+00        -0.17879E+08
 
   -0.17730E+08         0.65402E+05         0.00000E+00
    0.65402E+05        -0.19587E+07         0.00000E+00
    0.00000E+00         0.00000E+00        -0.17842E+08
 
   -0.17691E+08         0.66861E+05         0.00000E+00
    0.66861E+05        -0.19587E+07         0.00000E+00
    0.00000E+00         0.00000E+00        -0.17805E+08
 
   -0.17651E+08         0.68324E+05         0.00000E+00
    0.68324E+05        -0.19587E+07         0.00000E+00
    0.00000E+00         0.00000E+00        -0.17767E+08
 
   -0.17611E+08         0.69792E+05         0.00000E+00
    0.69792E+05        -0.19587E+07         0.00000E+00
    0.00000E+00         0.00000E+00        -0.17728E+08
 
   -0.17570E+08         0.71265E+05         0.00000E+00
    0.71265E+05        -0.19587E+07         0.00000E+00
    0.00000E+00         0.00000E+00        -0.17688E+08
 
   -0.17528E+08         0.72740E+05         0.00000E+00
    0.72740E+05        -0.19587E+07         0.00000E+00
    0.00000E+00         0.00000E+00        -0.17647E+08
 
   -0.17485E+08         0.74219E+05         0.00000E+00
    0.74219E+05        -0.19587E+07         0.00000E+00
    0.00000E+00         0.00000E+00        -0.17605E+08
 
   -0.17441E+08         0.75699E+05         0.00000E+00
    0.75699E+05        -0.19586E+07         0.00000E+00
    0.00000E+00         0.00000E+00        -0.17562E+08
 
   -0.17396E+08         0.77180E+05         0.00000E+00
    0.77180E+05        -0.19586E+07         0.00000E+00
    0.00000E+00         0.00000E+00        -0.17518E+08
 
   -0.17350E+08         0.78661E+05         0.00000E+00
    0.78661E+05        -0.19586E+07         0.00000E+00
    0.00000E+00         0.00000E+00        -0.17474E+08
 
   -0.17304E+08         0.80138E+05         0.00000E+00
    0.80138E+05        -0.19586E+07         0.00000E+00
    0.00000E+00         0.00000E+00        -0.17428E+08
 
   -0.17256E+08         0.81612E+05         0.00000E+00
    0.81612E+05        -0.19587E+07         0.00000E+00
    0.00000E+00         0.00000E+00        -0.17381E+08
 
   -0.17208E+08         0.83079E+05         0.00000E+00
    0.83079E+05        -0.19587E+07         0.00000E+00
    0.00000E+00         0.00000E+00        -0.17334E+08
 
   -0.17159E+08         0.84537E+05         0.00000E+00
    0.84537E+05        -0.19587E+07         0.00000E+00
    0.00000E+00         0.00000E+00        -0.17285E+08
 
   -0.17109E+08         0.85983E+05         0.00000E+00
    0.85983E+05        -0.19587E+07         0.00000E+00
    0.00000E+00         0.00000E+00        -0.17235E+08
 
   -0.17058E+08         0.87416E+05         0.00000E+00
    0.87416E+05        -0.19587E+07         0.00000E+00
    0.00000E+00         0.00000E+00        -0.17184E+08
 
   -0.17006E+08         0.88830E+05         0.00000E+00
    0.88830E+05        -0.19587E+07         0.00000E+00
    0.00000E+00         0.00000E+00        -0.17132E+08
 
   -0.16954E+08         0.90223E+05         0.00000E+00
    0.90223E+05        -0.19587E+07         0.00000E+00
    0.00000E+00         0.00000E+00        -0.17079E+08
 
   -0.16900E+08         0.91592E+05         0.00000E+00
    0.91592E+05        -0.19587E+07         0.00000E+00
    0.00000E+00         0.00000E+00        -0.17025E+08
 
   -0.16846E+08         0.92931E+05         0.00000E+00
    0.92931E+05        -0.19588E+07         0.00000E+00
    0.00000E+00         0.00000E+00        -0.16970E+08
 
   -0.16791E+08         0.94237E+05         0.00000E+00
    0.94237E+05        -0.19588E+07         0.00000E+00
    0.00000E+00         0.00000E+00        -0.16914E+08
 
   -0.16735E+08         0.95506E+05         0.00000E+00
    0.95506E+05        -0.19588E+07         0.00000E+00
    0.00000E+00         0.00000E+00        -0.16857E+08
 
   -0.16679E+08         0.96730E+05         0.00000E+00
    0.96730E+05        -0.19589E+07         0.00000E+00
    0.00000E+00         0.00000E+00        -0.16799E+08
 
   -0.16621E+08         0.97906E+05         0.00000E+00
    0.97906E+05        -0.19589E+07         0.00000E+00
    0.00000E+00         0.00000E+00        -0.16739E+08
 
   -0.16563E+08         0.99028E+05         0.00000E+00
    0.99028E+05        -0.19590E+07         0.00000E+00
    0.00000E+00         0.00000E+00        -0.16679E+08
 
   -0.16505E+08         0.10009E+06         0.00000E+00
    0.10009E+06        -0.19590E+07         0.00000E+00
    0.00000E+00         0.00000E+00        -0.16617E+08
 
   -0.16445E+08         0.10108E+06         0.00000E+00
    0.10108E+06        -0.19591E+07         0.00000E+00
    0.00000E+00         0.00000E+00        -0.16555E+08
 
   -0.16386E+08         0.10200E+06         0.00000E+00
    0.10200E+06        -0.19591E+07         0.00000E+00
    0.00000E+00         0.00000E+00        -0.16491E+08
 
   -0.16325E+08         0.10283E+06         0.00000E+00
    0.10283E+06        -0.19592E+07         0.00000E+00
    0.00000E+00         0.00000E+00        -0.16427E+08
 
   -0.16264E+08         0.10357E+06         0.00000E+00
    0.10357E+06        -0.19593E+07         0.00000E+00
    0.00000E+00         0.00000E+00        -0.16361E+08
 
   -0.16203E+08         0.10421E+06         0.00000E+00
    0.10421E+06        -0.19594E+07         0.00000E+00
    0.00000E+00         0.00000E+00        -0.16294E+08
 
   -0.16141E+08         0.10474E+06         0.00000E+00
    0.10474E+06        -0.19595E+07         0.00000E+00
    0.00000E+00         0.00000E+00        -0.16227E+08
 
   -0.16079E+08         0.10514E+06         0.00000E+00
    0.10514E+06        -0.19596E+07         0.00000E+00
    0.00000E+00         0.00000E+00        -0.16158E+08
 
   -0.16017E+08         0.10541E+06         0.00000E+00
    0.10541E+06        -0.19597E+07         0.00000E+00
    0.00000E+00         0.00000E+00        -0.16089E+08
 
   -0.15954E+08         0.10553E+06         0.00000E+00
    0.10553E+06        -0.19599E+07         0.00000E+00
    0.00000E+00         0.00000E+00        -0.16018E+08
 
   -0.15892E+08         0.10548E+06         0.00000E+00
    0.10548E+06        -0.19600E+07         0.00000E+00
    0.00000E+00         0.00000E+00        -0.15947E+08
 
   -0.15829E+08         0.10524E+06         0.00000E+00
    0.10524E+06        -0.19602E+07         0.00000E+00
    0.00000E+00         0.00000E+00        -0.15875E+08
 
   -0.15767E+08         0.10480E+06         0.00000E+00
    0.10480E+06        -0.19604E+07         0.00000E+00
    0.00000E+00         0.00000E+00        -0.15802E+08
 
   -0.15705E+08         0.10413E+06         0.00000E+00
    0.10413E+06        -0.19606E+07         0.00000E+00
    0.00000E+00         0.00000E+00        -0.15728E+08
 
   -0.15643E+08         0.10320E+06         0.00000E+00
    0.10320E+06        -0.19608E+07         0.00000E+00
    0.00000E+00         0.00000E+00        -0.15654E+08
 
   -0.15582E+08         0.10198E+06         0.00000E+00
    0.10198E+06        -0.19611E+07         0.00000E+00
    0.00000E+00         0.00000E+00        -0.15579E+08
 
   -0.15522E+08         0.10043E+06         0.00000E+00
    0.10043E+06        -0.19614E+07         0.00000E+00
    0.00000E+00         0.00000E+00        -0.15504E+08
 
   -0.15463E+08         0.98502E+05         0.00000E+00
    0.98502E+05        -0.19617E+07         0.00000E+00
    0.00000E+00         0.00000E+00        -0.15428E+08
 
   -0.15404E+08         0.96153E+05         0.00000E+00
    0.96153E+05        -0.19621E+07         0.00000E+00
    0.00000E+00         0.00000E+00        -0.15352E+08
 
   -0.15348E+08         0.93319E+05         0.00000E+00
    0.93319E+05        -0.19626E+07         0.00000E+00
    0.00000E+00         0.00000E+00        -0.15275E+08
 
   -0.15292E+08         0.89934E+05         0.00000E+00
    0.89934E+05        -0.19631E+07         0.00000E+00
    0.00000E+00         0.00000E+00        -0.15199E+08
 
   -0.15239E+08         0.85920E+05         0.00000E+00
    0.85920E+05        -0.19637E+07         0.00000E+00
    0.00000E+00         0.00000E+00        -0.15122E+08
 
   -0.15188E+08         0.81194E+05         0.00000E+00
    0.81194E+05        -0.19644E+07         0.00000E+00
    0.00000E+00         0.00000E+00        -0.15045E+08
 
   -0.15140E+08         0.75667E+05         0.00000E+00
    0.75667E+05        -0.19651E+07         0.00000E+00
    0.00000E+00         0.00000E+00        -0.14969E+08
 
   -0.15095E+08         0.69246E+05         0.00000E+00
    0.69246E+05        -0.19660E+07         0.00000E+00
    0.00000E+00         0.00000E+00        -0.14893E+08
 
   -0.15053E+08         0.61842E+05         0.00000E+00
    0.61842E+05        -0.19670E+07         0.00000E+00
    0.00000E+00         0.00000E+00        -0.14817E+08
 
   -0.15015E+08         0.53378E+05         0.00000E+00
    0.53378E+05        -0.19680E+07         0.00000E+00
    0.00000E+00         0.00000E+00        -0.14742E+08
 
   -0.14982E+08         0.43800E+05         0.00000E+00
    0.43800E+05        -0.19690E+07         0.00000E+00
    0.00000E+00         0.00000E+00        -0.14668E+08
 
   -0.14953E+08         0.33092E+05         0.00000E+00
    0.33092E+05        -0.19701E+07         0.00000E+00
    0.00000E+00         0.00000E+00        -0.14595E+08
 
   -0.14930E+08         0.21299E+05         0.00000E+00
    0.21299E+05        -0.19712E+07         0.00000E+00
    0.00000E+00         0.00000E+00        -0.14524E+08
 
   -0.14913E+08         0.85523E+04         0.00000E+00
    0.85523E+04        -0.19721E+07         0.00000E+00
    0.00000E+00         0.00000E+00        -0.14453E+08
 
   -0.14901E+08        -0.49017E+04         0.00000E+00
   -0.49017E+04        -0.19727E+07         0.00000E+00
    0.00000E+00         0.00000E+00        -0.14384E+08
 
   -0.14895E+08        -0.18659E+05         0.00000E+00
   -0.18659E+05        -0.19730E+07         0.00000E+00
    0.00000E+00         0.00000E+00        -0.14316E+08
 
   -0.14895E+08        -0.32104E+05         0.00000E+00
   -0.32104E+05        -0.19728E+07         0.00000E+00
    0.00000E+00         0.00000E+00        -0.14249E+08
 
   -0.14899E+08        -0.44289E+05         0.00000E+00
   -0.44289E+05        -0.19718E+07         0.00000E+00
    0.00000E+00         0.00000E+00        -0.14183E+08
 
   -0.14905E+08        -0.53728E+05         0.00000E+00
   -0.53728E+05        -0.19694E+07         0.00000E+00
    0.00000E+00         0.00000E+00        -0.14117E+08
 
   -0.14911E+08        -0.57536E+05         0.00000E+00
   -0.57536E+05        -0.19646E+07         0.00000E+00
    0.00000E+00         0.00000E+00        -0.14051E+08
 
   -0.14911E+08        -0.48954E+05         0.00000E+00
   -0.48954E+05        -0.19516E+07         0.00000E+00
    0.00000E+00         0.00000E+00        -0.13980E+08
 
   -0.14907E+08        -0.20307E+05         0.00000E+00
   -0.20307E+05        -0.19104E+07         0.00000E+00
    0.00000E+00         0.00000E+00        -0.13899E+08
 
   -0.18445E+08        -0.41210E+04         0.00000E+00
   -0.41210E+04        -0.19683E+07         0.00000E+00
    0.00000E+00         0.00000E+00        -0.18716E+08
 
   -0.18444E+08        -0.93318E+04         0.00000E+00
   -0.93318E+04        -0.19604E+07         0.00000E+00
    0.00000E+00         0.00000E+00        -0.18699E+08
 
   -0.18443E+08        -0.99231E+04         0.00000E+00
   -0.99231E+04        -0.19583E+07         0.00000E+00
    0.00000E+00         0.00000E+00        -0.18684E+08
 
   -0.18444E+08        -0.80653E+04         0.00000E+00
   -0.80653E+04        -0.19576E+07         0.00000E+00
    0.00000E+00         0.00000E+00        -0.18669E+08
 
   -0.18444E+08        -0.52226E+04         0.00000E+00
   -0.52226E+04        -0.19573E+07         0.00000E+00
    0.00000E+00         0.00000E+00        -0.18654E+08
 
   -0.18443E+08        -0.19078E+04         0.00000E+00
   -0.19078E+04        -0.19571E+07         0.00000E+00
    0.00000E+00         0.00000E+00        -0.18639E+08
 
   -0.18441E+08         0.16089E+04         0.00000E+00
    0.16089E+04        -0.19571E+07         0.00000E+00
    0.00000E+00         0.00000E+00        -0.18623E+08
 
   -0.18436E+08         0.51574E+04         0.00000E+00
    0.51574E+04        -0.19572E+07         0.00000E+00
    0.00000E+00         0.00000E+00        -0.18607E+08
 
   -0.18430E+08         0.86292E+04         0.00000E+00
    0.86292E+04        -0.19573E+07         0.00000E+00
    0.00000E+00         0.00000E+00        -0.18590E+08
 
   -0.18422E+08         0.11954E+05         0.00000E+00
    0.11954E+05        -0.19574E+07         0.00000E+00
    0.00000E+00         0.00000E+00        -0.18572E+08
 
   -0.18412E+08         0.15090E+05         0.00000E+00
    0.15090E+05        -0.19576E+07         0.00000E+00
    0.00000E+00         0.00000E+00        -0.18554E+08
 
   -0.18400E+08         0.18017E+05         0.00000E+00
    0.18017E+05        -0.19578E+07         0.00000E+00
    0.00000E+00         0.00000E+00        -0.18535E+08
 
   -0.18386E+08         0.20733E+05         0.00000E+00
    0.20733E+05        -0.19580E+07         0.00000E+00
    0.00000E+00         0.00000E+00        -0.18515E+08
 
   -0.18371E+08         0.23242E+05         0.00000E+00
    0.23242E+05        -0.19581E+07         0.00000E+00
    0.00000E+00         0.00000E+00        -0.18495E+08
 
   -0.18355E+08         0.25561E+05         0.00000E+00
    0.25561E+05        -0.19583E+07         0.00000E+00
    0.00000E+00         0.00000E+00        -0.18474E+08
 
   -0.18337E+08         0.27707E+05         0.00000E+00
    0.27707E+05        -0.19584E+07         0.00000E+00
    0.00000E+00         0.00000E+00        -0.18452E+08
 
   -0.18318E+08         0.29699E+05         0.00000E+00
    0.29699E+05        -0.19585E+07         0.00000E+00
    0.00000E+00         0.00000E+00        -0.18430E+08
 
   -0.18297E+08         0.31559E+05         0.00000E+00
    0.31559E+05        -0.19586E+07         0.00000E+00
    0.00000E+00         0.00000E+00        -0.18407E+08
 
   -0.18276E+08         0.33305E+05         0.00000E+00
    0.33305E+05        -0.19587E+07         0.00000E+00
    0.00000E+00         0.00000E+00        -0.18383E+08
 
   -0.18253E+08         0.34955E+05         0.00000E+00
    0.34955E+05        -0.19588E+07         0.00000E+00
    0.00000E+00         0.00000E+00        -0.18359E+08
 
   -0.18229E+08         0.36524E+05         0.00000E+00
    0.36524E+05        -0.19588E+07         0.00000E+00
    0.00000E+00         0.00000E+00        -0.18334E+08
 
   -0.18205E+08         0.38028E+05         0.00000E+00
    0.38028E+05        -0.19588E+07         0.00000E+00
    0.00000E+00         0.00000E+00        -0.18308E+08
 
   -0.18179E+08         0.39477E+05         0.00000E+00
    0.39477E+05        -0.19589E+07         0.00000E+00
    0.00000E+00         0.00000E+00        -0.18282E+08
 
   -0.18152E+08         0.40882E+05         0.00000E+00
    0.40882E+05        -0.19589E+07         0.00000E+00
    0.00000E+00         0.00000E+00        -0.18255E+08
 
   -0.18125E+08         0.42253E+05         0.00000E+00
    0.42253E+05        -0.19589E+07         0.00000E+00
    0.00000E+00         0.00000E+00        -0.18228E+08
 
   -0.18096E+08         0.43595E+05         0.00000E+00
    0.43595E+05        -0.19589E+07         0.00000E+00
    0.00000E+00         0.00000E+00        -0.18200E+08
 
   -0.18067E+08         0.44917E+05         0.00000E+00
    0.44917E+05        -0.19590E+07         0.00000E+00
    0.00000E+00         0.00000E+00        -0.18171E+08
 
   -0.18037E+08         0.46222E+05         0.00000E+00
    0.46222E+05        -0.19590E+07         0.00000E+00
    0.00000E+00         0.00000E+00        -0.18141E+08
 
   -0.18006E+08         0.47515E+05         0.00000E+00
    0.47515E+05        -0.19590E+07         0.00000E+00
    0.00000E+00         0.00000E+00        -0.18111E+08
 
   -0.17974E+08         0.48800E+05         0.00000E+00
    0.48800E+05        -0.19590E+07         0.00000E+00
    0.00000E+00         0.00000E+00        -0.18080E+08
 
   -0.17941E+08         0.50080E+05         0.00000E+00
    0.50080E+05        -0.19590E+07         0.00000E+00
    0.00000E+00         0.00000E+00        -0.18048E+08
 
   -0.17908E+08         0.51356E+05         0.00000E+00
    0.51356E+05        -0.19590E+07         0.00000E+00
    0.00000E+00         0.00000E+00        -0.18016E+08
 
   -0.17873E+08         0.52631E+05         0.00000E+00
    0.52631E+05        -0.19590E+07         0.00000E+00
    0.00000E+00         0.00000E+00        -0.17982E+08
 
   -0.17838E+08         0.53907E+05         0.00000E+00
    0.53907E+05        -0.19590E+07         0.00000E+00
    0.00000E+00         0.00000E+00        -0.17948E+08
 
   -0.17802E+08         0.55185E+05         0.00000E+00
    0.55185E+05        -0.19590E+07         0.00000E+00
    0.00000E+00         0.00000E+00        -0.17914E+08
 
   -0.17765E+08         0.56465E+05         0.00000E+00
    0.56465E+05        -0.19590E+07         0.00000E+00
    0.00000E+00         0.00000E+00        -0.17878E+08
 
   -0.17727E+08         0.57748E+05         0.00000E+00
    0.57748E+05        -0.19590E+07         0.00000E+00
    0.00000E+00         0.00000E+00        -0.17841E+08
 
   -0.17688E+08         0.59035E+05         0.00000E+00
    0.59035E+05        -0.19590E+07         0.00000E+00
    0.00000E+00         0.00000E+00        -0.17804E+08
 
   -0.17649E+08         0.60326E+05         0.00000E+00
    0.60326E+05        -0.19589E+07         0.00000E+00
    0.00000E+00         0.00000E+00        -0.17766E+08
 
   -0.17608E+08         0.61621E+05         0.00000E+00
    0.61621E+05        -0.19589E+07         0.00000E+00
    0.00000E+00         0.00000E+00        -0.17727E+08
 
   -0.17567E+08         0.62919E+05         0.00000E+00
    0.62919E+05        -0.19589E+07         0.00000E+00
    0.00000E+00         0.00000E+00        -0.17687E+08
 
   -0.17525E+08         0.64220E+05         0.00000E+00
    0.64220E+05        -0.19589E+07         0.00000E+00
    0.00000E+00         0.00000E+00        -0.17646E+08
 
   -0.17482E+08         0.65524E+05         0.00000E+00
    0.65524E+05        -0.19589E+07         0.00000E+00
    0.00000E+00         0.00000E+00        -0.17604E+08
 
   -0.17438E+08         0.66829E+05         0.00000E+00
    0.66829E+05        -0.19589E+07         0.00000E+00
    0.00000E+00         0.00000E+00        -0.17561E+08
 
   -0.17393E+08         0.68134E+05         0.00000E+00
    0.68134E+05        -0.19589E+07         0.00000E+00
    0.00000E+00         0.00000E+00        -0.17518E+08
 
   -0.17347E+08         0.69439E+05         0.00000E+00
    0.69439E+05        -0.19589E+07         0.00000E+00
    0.00000E+00         0.00000E+00        -0.17473E+08
 
   -0.17301E+08         0.70741E+05         0.00000E+00
    0.70741E+05        -0.19589E+07         0.00000E+00
    0.00000E+00         0.00000E+00        -0.17427E+08
 
   -0.17253E+08         0.72040E+05         0.00000E+00
    0.72040E+05        -0.19589E+07         0.00000E+00
    0.00000E+00         0.00000E+00        -0.17380E+08
 
   -0.17205E+08         0.73332E+05         0.00000E+00
    0.73332E+05        -0.19589E+07         0.00000E+00
    0.00000E+00         0.00000E+00        -0.17333E+08
 
   -0.17156E+08         0.74616E+05         0.00000E+00
    0.74616E+05        -0.19589E+07         0.00000E+00
    0.00000E+00         0.00000E+00        -0.17284E+08
 
   -0.17106E+08         0.75890E+05         0.00000E+00
    0.75890E+05        -0.19589E+07         0.00000E+00
    0.00000E+00         0.00000E+00        -0.17234E+08
 
   -0.17055E+08         0.77151E+05         0.00000E+00
    0.77151E+05        -0.19590E+07         0.00000E+00
    0.00000E+00         0.00000E+00        -0.17183E+08
 
   -0.17003E+08         0.78397E+05         0.00000E+00
    0.78397E+05        -0.19590E+07         0.00000E+00
    0.00000E+00         0.00000E+00        -0.17131E+08
 
   -0.16950E+08         0.79623E+05         0.00000E+00
    0.79623E+05        -0.19590E+07         0.00000E+00
    0.00000E+00         0.00000E+00        -0.17078E+08
 
   -0.16897E+08         0.80827E+05         0.00000E+00
    0.80827E+05        -0.19590E+07         0.00000E+00
    0.00000E+00         0.00000E+00        -0.17024E+08
 
   -0.16843E+08         0.82006E+05         0.00000E+00
    0.82006E+05        -0.19590E+07         0.00000E+00
    0.00000E+00         0.00000E+00        -0.16969E+08
 
   -0.16788E+08         0.83155E+05         0.00000E+00
    0.83155E+05        -0.19590E+07         0.00000E+00
    0.00000E+00         0.00000E+00        -0.16913E+08
 
   -0.16732E+08         0.84270E+05         0.00000E+00
    0.84270E+05        -0.19591E+07         0.00000E+00
    0.00000E+00         0.00000E+00        -0.16856E+08
 
   -0.16675E+08         0.85347E+05         0.00000E+00
    0.85347E+05        -0.19591E+07         0.00000E+00
    0.00000E+00         0.00000E+00        -0.16798E+08
 
   -0.16618E+08         0.86380E+05         0.00000E+00
    0.86380E+05        -0.19591E+07         0.00000E+00
    0.00000E+00         0.00000E+00        -0.16738E+08
 
   -0.16560E+08         0.87365E+05         0.00000E+00
    0.87365E+05        -0.19592E+07         0.00000E+00
    0.00000E+00         0.00000E+00        -0.16678E+08
 
   -0.16501E+08         0.88296E+05         0.00000E+00
    0.88296E+05        -0.19592E+07         0.00000E+00
    0.00000E+00         0.00000E+00        -0.16616E+08
 
   -0.16442E+08         0.89166E+05         0.00000E+00
    0.89166E+05        -0.19593E+07         0.00000E+00
    0.00000E+00         0.00000E+00        -0.16554E+08
 
   -0.16382E+08         0.89970E+05         0.00000E+00
    0.89970E+05        -0.19593E+07         0.00000E+00
    0.00000E+00         0.00000E+00        -0.16490E+08
 
   -0.16322E+08         0.90700E+05         0.00000E+00
    0.90700E+05        -0.19594E+07         0.00000E+00
    0.00000E+00         0.00000E+00        -0.16426E+08
 
   -0.16261E+08         0.91348E+05         0.00000E+00
    0.91348E+05        -0.19594E+07         0.00000E+00
    0.00000E+00         0.00000E+00        -0.16360E+08
 
   -0.16200E+08         0.91906E+05         0.00000E+00
    0.91906E+05        -0.19595E+07         0.00000E+00
    0.00000E+00         0.00000E+00        -0.16293E+08
 
   -0.16138E+08         0.92365E+05         0.00000E+00
    0.92365E+05        -0.19596E+07         0.00000E+00
    0.00000E+00         0.00000E+00        -0.16226E+08
 
   -0.16076E+08         0.92715E+05         0.00000E+00
    0.92715E+05        -0.19597E+07         0.00000E+00
    0.00000E+00         0.00000E+00        -0.16157E+08
 
   -0.16014E+08         0.92944E+05         0.00000E+00
    0.92944E+05        -0.19598E+07         0.00000E+00
    0.00000E+00         0.00000E+00        -0.16088E+08
 
   -0.15952E+08         0.93040E+05         0.00000E+00
    0.93040E+05        -0.19599E+07         0.00000E+00
    0.00000E+00         0.00000E+00        -0.16017E+08
 
   -0.15889E+08         0.92988E+05         0.00000E+00
    0.92988E+05        -0.19600E+07         0.00000E+00
    0.00000E+00         0.00000E+00        -0.15946E+08
 
   -0.15827E+08         0.92773E+05         0.00000E+00
    0.92773E+05        -0.19601E+07         0.00000E+00
    0.00000E+00         0.00000E+00        -0.15874E+08
 
   -0.15765E+08         0.92375E+05         0.00000E+00
    0.92375E+05        -0.19603E+07         0.00000E+00
    0.00000E+00         0.00000E+00        -0.15801E+08
 
   -0.15703E+08         0.91773E+05         0.00000E+00
    0.91773E+05        -0.19604E+07         0.00000E+00
    0.00000E+00         0.00000E+00        -0.15728E+08
 
   -0.15641E+08         0.90943E+05         0.00000E+00
    0.90943E+05        -0.19606E+07         0.00000E+00
    0.00000E+00         0.00000E+00        -0.15654E+08
 
   -0.15581E+08         0.89853E+05         0.00000E+00
    0.89853E+05        -0.19608E+07         0.00000E+00
    0.00000E+00         0.00000E+00        -0.15579E+08
 
   -0.15520E+08         0.88472E+05         0.00000E+00
    0.88472E+05        -0.19611E+07         0.00000E+00
    0.00000E+00         0.00000E+00        -0.15503E+08
 
   -0.15461E+08         0.86758E+05         0.00000E+00
    0.86758E+05        -0.19613E+07         0.00000E+00
    0.00000E+00         0.00000E+00        -0.15428E+08
 
   -0.15403E+08         0.84665E+05         0.00000E+00
    0.84665E+05        -0.19616E+07         0.00000E+00
    0.00000E+00         0.00000E+00        -0.15352E+08
 
   -0.15347E+08         0.82139E+05         0.00000E+00
    0.82139E+05        -0.19620E+07         0.00000E+00
    0.00000E+00         0.00000E+00        -0.15275E+08
 
   -0.15292E+08         0.79119E+05         0.00000E+00
    0.79119E+05        -0.19624E+07         0.00000E+00
    0.00000E+00         0.00000E+00        -0.15198E+08
 
   -0.15239E+08         0.75536E+05         0.00000E+00
    0.75536E+05        -0.19629E+07         0.00000E+00
    0.00000E+00         0.00000E+00        -0.15122E+08
 
   -0.15189E+08         0.71312E+05         0.00000E+00
    0.71312E+05        -0.19634E+07         0.00000E+00
    0.00000E+00         0.00000E+00        -0.15045E+08
 
   -0.15141E+08         0.66366E+05         0.00000E+00
    0.66366E+05        -0.19640E+07         0.00000E+00
    0.00000E+00         0.00000E+00        -0.14969E+08
 
   -0.15097E+08         0.60612E+05         0.00000E+00
    0.60612E+05        -0.19647E+07         0.00000E+00
    0.00000E+00         0.00000E+00        -0.14893E+08
 
   -0.15056E+08         0.53968E+05         0.00000E+00
    0.53968E+05        -0.19654E+07         0.00000E+00
    0.00000E+00         0.00000E+00        -0.14818E+08
 
   -0.15019E+08         0.46360E+05         0.00000E+00
    0.46360E+05        -0.19663E+07         0.00000E+00
    0.00000E+00         0.00000E+00        -0.14743E+08
 
   -0.14987E+08         0.37735E+05         0.00000E+00
    0.37735E+05        -0.19671E+07         0.00000E+00
    0.00000E+00         0.00000E+00        -0.14669E+08
 
   -0.14960E+08         0.28075E+05         0.00000E+00
    0.28075E+05        -0.19680E+07         0.00000E+00
    0.00000E+00         0.00000E+00        -0.14597E+08
 
   -0.14938E+08         0.17413E+05         0.00000E+00
    0.17413E+05        -0.19688E+07         0.00000E+00
    0.00000E+00         0.00000E+00        -0.14525E+08
 
   -0.14923E+08         0.58591E+04         0.00000E+00
    0.58591E+04        -0.19695E+07         0.00000E+00
    0.00000E+00         0.00000E+00        -0.14455E+08
 
   -0.14914E+08        -0.63764E+04         0.00000E+00
   -0.63764E+04        -0.19701E+07         0.00000E+00
    0.00000E+00         0.00000E+00        -0.14387E+08
 
   -0.14911E+08        -0.18948E+05         0.00000E+00
   -0.18948E+05        -0.19704E+07         0.00000E+00
    0.00000E+00         0.00000E+00        -0.14320E+08
 
   -0.14914E+08        -0.31333E+05         0.00000E+00
   -0.31333E+05        -0.19703E+07         0.00000E+00
    0.00000E+00         0.00000E+00        -0.14254E+08
 
   -0.14922E+08        -0.42727E+05         0.00000E+00
   -0.42727E+05        -0.19696E+07         0.00000E+00
    0.00000E+00         0.00000E+00        -0.14189E+08
 
   -0.14933E+08        -0.51864E+05         0.00000E+00
   -0.51864E+05        -0.19679E+07         0.00000E+00
    0.00000E+00         0.00000E+00        -0.14125E+08
 
   -0.14944E+08        -0.56364E+05         0.00000E+00
   -0.56364E+05        -0.19646E+07         0.00000E+00
    0.00000E+00         0.00000E+00        -0.14060E+08
 
   -0.14948E+08        -0.49463E+05         0.00000E+00
   -0.49463E+05        -0.19550E+07         0.00000E+00
    0.00000E+00         0.00000E+00        -0.13992E+08
 
   -0.14946E+08        -0.21162E+05         0.00000E+00
   -0.21162E+05        -0.19183E+07         0.00000E+00
    0.00000E+00         0.00000E+00        -0.13913E+08
 
   -0.18435E+08        -0.43488E+04         0.00000E+00
   -0.43488E+04        -0.19667E+07         0.00000E+00
    0.00000E+00         0.00000E+00        -0.18713E+08
 
   -0.18434E+08        -0.94538E+04         0.00000E+00
   -0.94538E+04        -0.19599E+07         0.00000E+00
    0.00000E+00         0.00000E+00        -0.18696E+08
 
   -0.18435E+08        -0.97019E+04         0.00000E+00
   -0.97019E+04        -0.19586E+07         0.00000E+00
    0.00000E+00         0.00000E+00        -0.18681E+08
 
   -0.18437E+08        -0.78265E+04         0.00000E+00
   -0.78265E+04        -0.19581E+07         0.00000E+00
    0.00000E+00         0.00000E+00        -0.18667E+08
 
   -0.18439E+08        -0.51919E+04         0.00000E+00
   -0.51919E+04        -0.19579E+07         0.00000E+00
    0.00000E+00         0.00000E+00        -0.18653E+08
 
   -0.18438E+08        -0.21837E+04         0.00000E+00
   -0.21837E+04        -0.19578E+07         0.00000E+00
    0.00000E+00         0.00000E+00        -0.18638E+08
 
   -0.18436E+08         0.97104E+03         0.00000E+00
    0.97104E+03        -0.19578E+07         0.00000E+00
    0.00000E+00         0.00000E+00        -0.18622E+08
 
   -0.18433E+08         0.41341E+04         0.00000E+00
    0.41341E+04        -0.19578E+07         0.00000E+00
    0.00000E+00         0.00000E+00        -0.18606E+08
 
   -0.18427E+08         0.72161E+04         0.00000E+00
    0.72161E+04        -0.19579E+07         0.00000E+00
    0.00000E+00         0.00000E+00        -0.18589E+08
 
   -0.18419E+08         0.10158E+05         0.00000E+00
    0.10158E+05        -0.19581E+07         0.00000E+00
    0.00000E+00         0.00000E+00        -0.18572E+08
 
   -0.18409E+08         0.12926E+05         0.00000E+00
    0.12926E+05        -0.19582E+07         0.00000E+00
    0.00000E+00         0.00000E+00        -0.18554E+08
 
   -0.18398E+08         0.15505E+05         0.00000E+00
    0.15505E+05        -0.19583E+07         0.00000E+00
    0.00000E+00         0.00000E+00        -0.18535E+08
 
   -0.18384E+08         0.17891E+05         0.00000E+00
    0.17891E+05        -0.19585E+07         0.00000E+00
    0.00000E+00         0.00000E+00        -0.18515E+08
 
   -0.18369E+08         0.20093E+05         0.00000E+00
    0.20093E+05        -0.19586E+07         0.00000E+00
    0.00000E+00         0.00000E+00        -0.18494E+08
 
   -0.18353E+08         0.22123E+05         0.00000E+00
    0.22123E+05        -0.19587E+07         0.00000E+00
    0.00000E+00         0.00000E+00        -0.18473E+08
 
   -0.18335E+08         0.23999E+05         0.00000E+00
    0.23999E+05        -0.19588E+07         0.00000E+00
    0.00000E+00         0.00000E+00        -0.18452E+08
 
   -0.18316E+08         0.25738E+05         0.00000E+00
    0.25738E+05        -0.19589E+07         0.00000E+00
    0.00000E+00         0.00000E+00        -0.18429E+08
 
   -0.18295E+08         0.27359E+05         0.00000E+00
    0.27359E+05        -0.19589E+07         0.00000E+00
    0.00000E+00         0.00000E+00        -0.18406E+08
 
   -0.18274E+08         0.28880E+05         0.00000E+00
    0.28880E+05        -0.19590E+07         0.00000E+00
    0.00000E+00         0.00000E+00        -0.18383E+08
 
   -0.18251E+08         0.30315E+05         0.00000E+00
    0.30315E+05        -0.19591E+07         0.00000E+00
    0.00000E+00         0.00000E+00        -0.18358E+08
 
   -0.18227E+08         0.31679E+05         0.00000E+00
    0.31679E+05        -0.19591E+07         0.00000E+00
    0.00000E+00         0.00000E+00        -0.18333E+08
 
   -0.18203E+08         0.32985E+05         0.00000E+00
    0.32985E+05        -0.19591E+07         0.00000E+00
    0.00000E+00         0.00000E+00        -0.18308E+08
 
   -0.18177E+08         0.34243E+05         0.00000E+00
    0.34243E+05        -0.19591E+07         0.00000E+00
    0.00000E+00         0.00000E+00        -0.18282E+08
 
   -0.18150E+08         0.35463E+05         0.00000E+00
    0.35463E+05        -0.19592E+07         0.00000E+00
    0.00000E+00         0.00000E+00        -0.18255E+08
 
   -0.18123E+08         0.36652E+05         0.00000E+00
    0.36652E+05        -0.19592E+07         0.00000E+00
    0.00000E+00         0.00000E+00        -0.18227E+08
 
   -0.18094E+08         0.37816E+05         0.00000E+00
    0.37816E+05        -0.19592E+07         0.00000E+00
    0.00000E+00         0.00000E+00        -0.18199E+08
 
   -0.18065E+08         0.38962E+05         0.00000E+00
    0.38962E+05        -0.19592E+07         0.00000E+00
    0.00000E+00         0.00000E+00        -0.18170E+08
 
   -0.18035E+08         0.40094E+05         0.00000E+00
    0.40094E+05        -0.19592E+07         0.00000E+00
    0.00000E+00         0.00000E+00        -0.18141E+08
 
   -0.18004E+08         0.41215E+05         0.00000E+00
    0.41215E+05        -0.19592E+07         0.00000E+00
    0.00000E+00         0.00000E+00        -0.18110E+08
 
   -0.17972E+08         0.42329E+05         0.00000E+00
    0.42329E+05        -0.19592E+07         0.00000E+00
    0.00000E+00         0.00000E+00        -0.18079E+08
 
   -0.17939E+08         0.43438E+05         0.00000E+00
    0.43438E+05        -0.19592E+07         0.00000E+00
    0.00000E+00         0.00000E+00        -0.18048E+08
 
   -0.17905E+08         0.44545E+05         0.00000E+00
    0.44545E+05        -0.19592E+07         0.00000E+00
    0.00000E+00         0.00000E+00        -0.18015E+08
 
   -0.17871E+08         0.45650E+05         0.00000E+00
    0.45650E+05        -0.19592E+07         0.00000E+00
    0.00000E+00         0.00000E+00        -0.17982E+08
 
   -0.17835E+08         0.46756E+05         0.00000E+00
    0.46756E+05        -0.19592E+07         0.00000E+00
    0.00000E+00         0.00000E+00        -0.17948E+08
 
   -0.17799E+08         0.47863E+05         0.00000E+00
    0.47863E+05        -0.19592E+07         0.00000E+00
    0.00000E+00         0.00000E+00        -0.17913E+08
 
   -0.17762E+08         0.48972E+05         0.00000E+00
    0.48972E+05        -0.19592E+07         0.00000E+00
    0.00000E+00         0.00000E+00        -0.17877E+08
 
   -0.17724E+08         0.50084E+05         0.00000E+00
    0.50084E+05        -0.19592E+07         0.00000E+00
    0.00000E+00         0.00000E+00        -0.17841E+08
 
   -0.17685E+08         0.51200E+05         0.00000E+00
    0.51200E+05        -0.19592E+07         0.00000E+00
    0.00000E+00         0.00000E+00        -0.17803E+08
 
   -0.17646E+08         0.52318E+05         0.00000E+00
    0.52318E+05        -0.19592E+07         0.00000E+00
    0.00000E+00         0.00000E+00        -0.17765E+08
 
   -0.17605E+08         0.53439E+05         0.00000E+00
    0.53439E+05        -0.19592E+07         0.00000E+00
    0.00000E+00         0.00000E+00        -0.17726E+08
 
   -0.17564E+08         0.54564E+05         0.00000E+00
    0.54564E+05        -0.19592E+07         0.00000E+00
    0.00000E+00         0.00000E+00        -0.17686E+08
 
   -0.17522E+08         0.55691E+05         0.00000E+00
    0.55691E+05        -0.19592E+07         0.00000E+00
    0.00000E+00         0.00000E+00        -0.17645E+08
 
   -0.17479E+08         0.56820E+05         0.00000E+00
    0.56820E+05        -0.19592E+07         0.00000E+00
    0.00000E+00         0.00000E+00        -0.17603E+08
 
   -0.17435E+08         0.57950E+05         0.00000E+00
    0.57950E+05        -0.19592E+07         0.00000E+00
    0.00000E+00         0.00000E+00        -0.17560E+08
 
   -0.17390E+08         0.59080E+05         0.00000E+00
    0.59080E+05        -0.19592E+07         0.00000E+00
    0.00000E+00         0.00000E+00        -0.17517E+08
 
   -0.17344E+08         0.60209E+05         0.00000E+00
    0.60209E+05        -0.19592E+07         0.00000E+00
    0.00000E+00         0.00000E+00        -0.17472E+08
 
   -0.17297E+08         0.61336E+05         0.00000E+00
    0.61336E+05        -0.19592E+07         0.00000E+00
    0.00000E+00         0.00000E+00        -0.17426E+08
 
   -0.17250E+08         0.62460E+05         0.00000E+00
    0.62460E+05        -0.19592E+07         0.00000E+00
    0.00000E+00         0.00000E+00        -0.17380E+08
 
   -0.17202E+08         0.63578E+05         0.00000E+00
    0.63578E+05        -0.19592E+07         0.00000E+00
    0.00000E+00         0.00000E+00        -0.17332E+08
 
   -0.17152E+08         0.64690E+05         0.00000E+00
    0.64690E+05        -0.19592E+07         0.00000E+00
    0.00000E+00         0.00000E+00        -0.17283E+08
 
   -0.17102E+08         0.65792E+05         0.00000E+00
    0.65792E+05        -0.19592E+07         0.00000E+00
    0.00000E+00         0.00000E+00        -0.17233E+08
 
   -0.17051E+08         0.66882E+05         0.00000E+00
    0.66882E+05        -0.19592E+07         0.00000E+00
    0.00000E+00         0.00000E+00        -0.17182E+08
 
   -0.17000E+08         0.67959E+05         0.00000E+00
    0.67959E+05        -0.19592E+07         0.00000E+00
    0.00000E+00         0.00000E+00        -0.17130E+08
 
   -0.16947E+08         0.69020E+05         0.00000E+00
    0.69020E+05        -0.19592E+07         0.00000E+00
    0.00000E+00         0.00000E+00        -0.17078E+08
 
   -0.16893E+08         0.70061E+05         0.00000E+00
    0.70061E+05        -0.19592E+07         0.00000E+00
    0.00000E+00         0.00000E+00        -0.17024E+08
 
   -0.16839E+08         0.71080E+05         0.00000E+00
    0.71080E+05        -0.19592E+07         0.00000E+00
    0.00000E+00         0.00000E+00        -0.16968E+08
 
   -0.16784E+08         0.72072E+05         0.00000E+00
    0.72072E+05        -0.19593E+07         0.00000E+00
    0.00000E+00         0.00000E+00        -0.16912E+08
 
   -0.16728E+08         0.73035E+05         0.00000E+00
    0.73035E+05        -0.19593E+07         0.00000E+00
    0.00000E+00         0.00000E+00        -0.16855E+08
 
   -0.16672E+08         0.73965E+05         0.00000E+00
    0.73965E+05        -0.19593E+07         0.00000E+00
    0.00000E+00         0.00000E+00        -0.16797E+08
 
   -0.16615E+08         0.74857E+05         0.00000E+00
    0.74857E+05        -0.19593E+07         0.00000E+00
    0.00000E+00         0.00000E+00        -0.16737E+08
 
   -0.16557E+08         0.75707E+05         0.00000E+00
    0.75707E+05        -0.19593E+07         0.00000E+00
    0.00000E+00         0.00000E+00        -0.16677E+08
 
   -0.16498E+08         0.76509E+05         0.00000E+00
    0.76509E+05        -0.19594E+07         0.00000E+00
    0.00000E+00         0.00000E+00        -0.16615E+08
 
   -0.16439E+08         0.77260E+05         0.00000E+00
    0.77260E+05        -0.19594E+07         0.00000E+00
    0.00000E+00         0.00000E+00        -0.16553E+08
 
   -0.16379E+08         0.77952E+05         0.00000E+00
    0.77952E+05        -0.19595E+07         0.00000E+00
    0.00000E+00         0.00000E+00        -0.16489E+08
 
   -0.16319E+08         0.78580E+05         0.00000E+00
    0.78580E+05        -0.19595E+07         0.00000E+00
    0.00000E+00         0.00000E+00        -0.16425E+08
 
   -0.16258E+08         0.79137E+05         0.00000E+00
    0.79137E+05        -0.19595E+07         0.00000E+00
    0.00000E+00         0.00000E+00        -0.16359E+08
 
   -0.16197E+08         0.79615E+05         0.00000E+00
    0.79615E+05        -0.19596E+07         0.00000E+00
    0.00000E+00         0.00000E+00        -0.16293E+08
 
   -0.16135E+08         0.80008E+05         0.00000E+00
    0.80008E+05        -0.19597E+07         0.00000E+00
    0.00000E+00         0.00000E+00        -0.16225E+08
 
   -0.16073E+08         0.80306E+05         0.00000E+00
    0.80306E+05        -0.19597E+07         0.00000E+00
    0.00000E+00         0.00000E+00        -0.16156E+08
 
   -0.16011E+08         0.80499E+05         0.00000E+00
    0.80499E+05        -0.19598E+07         0.00000E+00
    0.00000E+00         0.00000E+00        -0.16087E+08
 
   -0.15949E+08         0.80576E+05         0.00000E+00
    0.80576E+05        -0.19599E+07         0.00000E+00
    0.00000E+00         0.00000E+00        -0.16017E+08
 
   -0.15887E+08         0.80525E+05         0.00000E+00
    0.80525E+05        -0.19600E+07         0.00000E+00
    0.00000E+00         0.00000E+00        -0.15945E+08
 
   -0.15824E+08         0.80332E+05         0.00000E+00
    0.80332E+05        -0.19601E+07         0.00000E+00
    0.00000E+00         0.00000E+00        -0.15873E+08
 
   -0.15762E+08         0.79980E+05         0.00000E+00
    0.79980E+05        -0.19602E+07         0.00000E+00
    0.00000E+00         0.00000E+00        -0.15801E+08
 
   -0.15701E+08         0.79451E+05         0.00000E+00
    0.79451E+05        -0.19603E+07         0.00000E+00
    0.00000E+00         0.00000E+00        -0.15727E+08
 
   -0.15639E+08         0.78723E+05         0.00000E+00
    0.78723E+05        -0.19604E+07         0.00000E+00
    0.00000E+00         0.00000E+00        -0.15653E+08
 
   -0.15579E+08         0.77770E+05         0.00000E+00
    0.77770E+05        -0.19606E+07         0.00000E+00
    0.00000E+00         0.00000E+00        -0.15578E+08
 
   -0.15519E+08         0.76561E+05         0.00000E+00
    0.76561E+05        -0.19608E+07         0.00000E+00
    0.00000E+00         0.00000E+00        -0.15503E+08
 
   -0.15460E+08         0.75063E+05         0.00000E+00
    0.75063E+05        -0.19610E+07         0.00000E+00
    0.00000E+00         0.00000E+00        -0.15427E+08
 
   -0.15402E+08         0.73232E+05         0.00000E+00
    0.73232E+05        -0.19612E+07         0.00000E+00
    0.00000E+00         0.00000E+00        -0.15351E+08
 
   -0.15346E+08         0.71022E+05         0.00000E+00
    0.71022E+05        -0.19615E+07         0.00000E+00
    0.00000E+00         0.00000E+00        -0.15275E+08
 
   -0.15291E+08         0.68378E+05         0.00000E+00
    0.68378E+05        -0.19618E+07         0.00000E+00
    0.00000E+00         0.00000E+00        -0.15198E+08
 
   -0.15239E+08         0.65237E+05         0.00000E+00
    0.65237E+05        -0.19621E+07         0.00000E+00
    0.00000E+00         0.00000E+00        -0.15122E+08
 
   -0.15189E+08         0.61532E+05         0.00000E+00
    0.61532E+05        -0.19625E+07         0.00000E+00
    0.00000E+00         0.00000E+00        -0.15045E+08
 
   -0.15142E+08         0.57187E+05         0.00000E+00
    0.57187E+05        -0.19630E+07         0.00000E+00
    0.00000E+00         0.00000E+00        -0.14969E+08
 
   -0.15098E+08         0.52125E+05         0.00000E+00
    0.52125E+05        -0.19635E+07         0.00000E+00
    0.00000E+00         0.00000E+00        -0.14893E+08
 
   -0.15058E+08         0.46270E+05         0.00000E+00
    0.46270E+05        -0.19641E+07         0.00000E+00
    0.00000E+00         0.00000E+00        -0.14818E+08
 
   -0.15022E+08         0.39555E+05         0.00000E+00
    0.39555E+05        -0.19647E+07         0.00000E+00
    0.00000E+00         0.00000E+00        -0.14744E+08
 
   -0.14991E+08         0.31929E+05         0.00000E+00
    0.31929E+05        -0.19654E+07         0.00000E+00
    0.00000E+00         0.00000E+00        -0.14670E+08
 
   -0.14965E+08         0.23370E+05         0.00000E+00
    0.23370E+05        -0.19660E+07         0.00000E+00
    0.00000E+00         0.00000E+00        -0.14598E+08
 
   -0.14946E+08         0.13903E+05         0.00000E+00
    0.13903E+05        -0.19667E+07         0.00000E+00
    0.00000E+00         0.00000E+00        -0.14527E+08
 
   -0.14932E+08         0.36166E+04         0.00000E+00
    0.36166E+04        -0.19673E+07         0.00000E+00
    0.00000E+00         0.00000E+00        -0.14457E+08
 
   -0.14926E+08        -0.73148E+04         0.00000E+00
   -0.73148E+04        -0.19677E+07         0.00000E+00
    0.00000E+00         0.00000E+00        -0.14390E+08
 
   -0.14926E+08        -0.18602E+05         0.00000E+00
   -0.18602E+05        -0.19680E+07         0.00000E+00
    0.00000E+00         0.00000E+00        -0.14323E+08
 
   -0.14932E+08        -0.29812E+05         0.00000E+00
   -0.29812E+05        -0.19679E+07         0.00000E+00
    0.00000E+00         0.00000E+00        -0.14259E+08
 
   -0.14944E+08        -0.40290E+05         0.00000E+00
   -0.40290E+05        -0.19675E+07         0.00000E+00
    0.00000E+00         0.00000E+00        -0.14195E+08
 
   -0.14960E+08        -0.48971E+05         0.00000E+00
   -0.48971E+05        -0.19664E+07         0.00000E+00
    0.00000E+00         0.00000E+00        -0.14133E+08
 
   -0.14977E+08        -0.54060E+05         0.00000E+00
   -0.54060E+05        -0.19642E+07         0.00000E+00
    0.00000E+00         0.00000E+00        -0.14070E+08
 
   -0.14987E+08        -0.49256E+05         0.00000E+00
   -0.49256E+05        -0.19581E+07         0.00000E+00
    0.00000E+00         0.00000E+00        -0.14004E+08
 
   -0.14987E+08        -0.21957E+05         0.00000E+00
   -0.21957E+05        -0.19266E+07         0.00000E+00
    0.00000E+00         0.00000E+00        -0.13927E+08
 
   -0.18425E+08        -0.45594E+04         0.00000E+00
   -0.45594E+04        -0.19650E+07         0.00000E+00
    0.00000E+00         0.00000E+00        -0.18709E+08
 
   -0.18425E+08        -0.93706E+04         0.00000E+00
   -0.93706E+04        -0.19595E+07         0.00000E+00
    0.00000E+00         0.00000E+00        -0.18693E+08
 
   -0.18427E+08        -0.92003E+04         0.00000E+00
   -0.92003E+04        -0.19589E+07         0.00000E+00
    0.00000E+00         0.00000E+00        -0.18679E+08
 
   -0.18431E+08        -0.73596E+04         0.00000E+00
   -0.73596E+04        -0.19586E+07         0.00000E+00
    0.00000E+00         0.00000E+00        -0.18665E+08
 
   -0.18433E+08        -0.49747E+04         0.00000E+00
   -0.49747E+04        -0.19584E+07         0.00000E+00
    0.00000E+00         0.00000E+00        -0.18651E+08
 
   -0.18434E+08        -0.23053E+04         0.00000E+00
   -0.23053E+04        -0.19584E+07         0.00000E+00
    0.00000E+00         0.00000E+00        -0.18637E+08
 
   -0.18432E+08         0.45861E+03         0.00000E+00
    0.45861E+03        -0.19584E+07         0.00000E+00
    0.00000E+00         0.00000E+00        -0.18621E+08
 
   -0.18429E+08         0.32127E+04         0.00000E+00
    0.32127E+04        -0.19584E+07         0.00000E+00
    0.00000E+00         0.00000E+00        -0.18605E+08
 
   -0.18424E+08         0.58844E+04         0.00000E+00
    0.58844E+04        -0.19585E+07         0.00000E+00
    0.00000E+00         0.00000E+00        -0.18589E+08
 
   -0.18416E+08         0.84268E+04         0.00000E+00
    0.84268E+04        -0.19586E+07         0.00000E+00
    0.00000E+00         0.00000E+00        -0.18571E+08
 
   -0.18407E+08         0.10813E+05         0.00000E+00
    0.10813E+05        -0.19587E+07         0.00000E+00
    0.00000E+00         0.00000E+00        -0.18553E+08
 
   -0.18395E+08         0.13030E+05         0.00000E+00
    0.13030E+05        -0.19588E+07         0.00000E+00
    0.00000E+00         0.00000E+00        -0.18534E+08
 
   -0.18382E+08         0.15077E+05         0.00000E+00
    0.15077E+05        -0.19589E+07         0.00000E+00
    0.00000E+00         0.00000E+00        -0.18514E+08
 
   -0.18367E+08         0.16962E+05         0.00000E+00
    0.16962E+05        -0.19590E+07         0.00000E+00
    0.00000E+00         0.00000E+00        -0.18494E+08
 
   -0.18351E+08         0.18698E+05         0.00000E+00
    0.18698E+05        -0.19591E+07         0.00000E+00
    0.00000E+00         0.00000E+00        -0.18473E+08
 
   -0.18333E+08         0.20299E+05         0.00000E+00
    0.20299E+05        -0.19591E+07         0.00000E+00
    0.00000E+00         0.00000E+00        -0.18451E+08
 
   -0.18314E+08         0.21781E+05         0.00000E+00
    0.21781E+05        -0.19592E+07         0.00000E+00
    0.00000E+00         0.00000E+00        -0.18429E+08
 
   -0.18294E+08         0.23160E+05         0.00000E+00
    0.23160E+05        -0.19592E+07         0.00000E+00
    0.00000E+00         0.00000E+00        -0.18406E+08
 
   -0.18272E+08         0.24452E+05         0.00000E+00
    0.24452E+05        -0.19593E+07         0.00000E+00
    0.00000E+00         0.00000E+00        -0.18382E+08
 
   -0.18249E+08         0.25671E+05         0.00000E+00
    0.25671E+05        -0.19593E+07         0.00000E+00
    0.00000E+00         0.00000E+00        -0.18358E+08
 
   -0.18226E+08         0.26828E+05         0.00000E+00
    0.26828E+05        -0.19593E+07         0.00000E+00
    0.00000E+00         0.00000E+00        -0.18333E+08
 
   -0.18201E+08         0.27935E+05         0.00000E+00
    0.27935E+05        -0.19594E+07         0.00000E+00
    0.00000E+00         0.00000E+00        -0.18307E+08
 
   -0.18175E+08         0.29002E+05         0.00000E+00
    0.29002E+05        -0.19594E+07         0.00000E+00
    0.00000E+00         0.00000E+00        -0.18281E+08
 
   -0.18148E+08         0.30035E+05         0.00000E+00
    0.30035E+05        -0.19594E+07         0.00000E+00
    0.00000E+00         0.00000E+00        -0.18254E+08
 
   -0.18121E+08         0.31042E+05         0.00000E+00
    0.31042E+05        -0.19594E+07         0.00000E+00
    0.00000E+00         0.00000E+00        -0.18227E+08
 
   -0.18092E+08         0.32028E+05         0.00000E+00
    0.32028E+05        -0.19594E+07         0.00000E+00
    0.00000E+00         0.00000E+00        -0.18198E+08
 
   -0.18063E+08         0.32998E+05         0.00000E+00
    0.32998E+05        -0.19594E+07         0.00000E+00
    0.00000E+00         0.00000E+00        -0.18170E+08
 
   -0.18033E+08         0.33956E+05         0.00000E+00
    0.33956E+05        -0.19594E+07         0.00000E+00
    0.00000E+00         0.00000E+00        -0.18140E+08
 
   -0.18001E+08         0.34905E+05         0.00000E+00
    0.34905E+05        -0.19594E+07         0.00000E+00
    0.00000E+00         0.00000E+00        -0.18110E+08
 
   -0.17969E+08         0.35848E+05         0.00000E+00
    0.35848E+05        -0.19594E+07         0.00000E+00
    0.00000E+00         0.00000E+00        -0.18079E+08
 
   -0.17937E+08         0.36787E+05         0.00000E+00
    0.36787E+05        -0.19594E+07         0.00000E+00
    0.00000E+00         0.00000E+00        -0.18047E+08
 
   -0.17903E+08         0.37723E+05         0.00000E+00
    0.37723E+05        -0.19594E+07         0.00000E+00
    0.00000E+00         0.00000E+00        -0.18014E+08
 
   -0.17868E+08         0.38659E+05         0.00000E+00
    0.38659E+05        -0.19594E+07         0.00000E+00
    0.00000E+00         0.00000E+00        -0.17981E+08
 
   -0.17833E+08         0.39594E+05         0.00000E+00
    0.39594E+05        -0.19594E+07         0.00000E+00
    0.00000E+00         0.00000E+00        -0.17947E+08
 
   -0.17797E+08         0.40531E+05         0.00000E+00
    0.40531E+05        -0.19594E+07         0.00000E+00
    0.00000E+00         0.00000E+00        -0.17912E+08
 
   -0.17760E+08         0.41469E+05         0.00000E+00
    0.41469E+05        -0.19594E+07         0.00000E+00
    0.00000E+00         0.00000E+00        -0.17877E+08
 
   -0.17722E+08         0.42410E+05         0.00000E+00
    0.42410E+05        -0.19594E+07         0.00000E+00
    0.00000E+00         0.00000E+00        -0.17840E+08
 
   -0.17683E+08         0.43353E+05         0.00000E+00
    0.43353E+05        -0.19594E+07         0.00000E+00
    0.00000E+00         0.00000E+00        -0.17803E+08
 
   -0.17643E+08         0.44299E+05         0.00000E+00
    0.44299E+05        -0.19594E+07         0.00000E+00
    0.00000E+00         0.00000E+00        -0.17764E+08
 
   -0.17602E+08         0.45248E+05         0.00000E+00
    0.45248E+05        -0.19594E+07         0.00000E+00
    0.00000E+00         0.00000E+00        -0.17725E+08
 
   -0.17561E+08         0.46199E+05         0.00000E+00
    0.46199E+05        -0.19594E+07         0.00000E+00
    0.00000E+00         0.00000E+00        -0.17685E+08
 
   -0.17519E+08         0.47151E+05         0.00000E+00
    0.47151E+05        -0.19594E+07         0.00000E+00
    0.00000E+00         0.00000E+00        -0.17644E+08
 
   -0.17476E+08         0.48106E+05         0.00000E+00
    0.48106E+05        -0.19594E+07         0.00000E+00
    0.00000E+00         0.00000E+00        -0.17602E+08
 
   -0.17432E+08         0.49061E+05         0.00000E+00
    0.49061E+05        -0.19594E+07         0.00000E+00
    0.00000E+00         0.00000E+00        -0.17560E+08
 
   -0.17387E+08         0.50017E+05         0.00000E+00
    0.50017E+05        -0.19594E+07         0.00000E+00
    0.00000E+00         0.00000E+00        -0.17516E+08
 
   -0.17341E+08         0.50971E+05         0.00000E+00
    0.50971E+05        -0.19594E+07         0.00000E+00
    0.00000E+00         0.00000E+00        -0.17471E+08
 
   -0.17294E+08         0.51924E+05         0.00000E+00
    0.51924E+05        -0.19594E+07         0.00000E+00
    0.00000E+00         0.00000E+00        -0.17425E+08
 
   -0.17247E+08         0.52873E+05         0.00000E+00
    0.52873E+05        -0.19594E+07         0.00000E+00
    0.00000E+00         0.00000E+00        -0.17379E+08
 
   -0.17198E+08         0.53818E+05         0.00000E+00
    0.53818E+05        -0.19594E+07         0.00000E+00
    0.00000E+00         0.00000E+00        -0.17331E+08
 
   -0.17149E+08         0.54757E+05         0.00000E+00
    0.54757E+05        -0.19594E+07         0.00000E+00
    0.00000E+00         0.00000E+00        -0.17282E+08
 
   -0.17099E+08         0.55688E+05         0.00000E+00
    0.55688E+05        -0.19594E+07         0.00000E+00
    0.00000E+00         0.00000E+00        -0.17232E+08
 
   -0.17048E+08         0.56609E+05         0.00000E+00
    0.56609E+05        -0.19594E+07         0.00000E+00
    0.00000E+00         0.00000E+00        -0.17181E+08
 
   -0.16996E+08         0.57518E+05         0.00000E+00
    0.57518E+05        -0.19594E+07         0.00000E+00
    0.00000E+00         0.00000E+00        -0.17130E+08
 
   -0.16944E+08         0.58413E+05         0.00000E+00
    0.58413E+05        -0.19594E+07         0.00000E+00
    0.00000E+00         0.00000E+00        -0.17077E+08
 
   -0.16890E+08         0.59292E+05         0.00000E+00
    0.59292E+05        -0.19594E+07         0.00000E+00
    0.00000E+00         0.00000E+00        -0.17023E+08
 
   -0.16836E+08         0.60152E+05         0.00000E+00
    0.60152E+05        -0.19594E+07         0.00000E+00
    0.00000E+00         0.00000E+00        -0.16968E+08
 
   -0.16781E+08         0.60989E+05         0.00000E+00
    0.60989E+05        -0.19594E+07         0.00000E+00
    0.00000E+00         0.00000E+00        -0.16911E+08
 
   -0.16725E+08         0.61801E+05         0.00000E+00
    0.61801E+05        -0.19594E+07         0.00000E+00
    0.00000E+00         0.00000E+00        -0.16854E+08
 
   -0.16669E+08         0.62585E+05         0.00000E+00
    0.62585E+05        -0.19595E+07         0.00000E+00
    0.00000E+00         0.00000E+00        -0.16796E+08
 
   -0.16611E+08         0.63337E+05         0.00000E+00
    0.63337E+05        -0.19595E+07         0.00000E+00
    0.00000E+00         0.00000E+00        -0.16736E+08
 
   -0.16553E+08         0.64053E+05         0.00000E+00
    0.64053E+05        -0.19595E+07         0.00000E+00
    0.00000E+00         0.00000E+00        -0.16676E+08
 
   -0.16495E+08         0.64728E+05         0.00000E+00
    0.64728E+05        -0.19595E+07         0.00000E+00
    0.00000E+00         0.00000E+00        -0.16615E+08
 
   -0.16436E+08         0.65360E+05         0.00000E+00
    0.65360E+05        -0.19595E+07         0.00000E+00
    0.00000E+00         0.00000E+00        -0.16552E+08
 
   -0.16376E+08         0.65942E+05         0.00000E+00
    0.65942E+05        -0.19596E+07         0.00000E+00
    0.00000E+00         0.00000E+00        -0.16488E+08
 
   -0.16316E+08         0.66469E+05         0.00000E+00
    0.66469E+05        -0.19596E+07         0.00000E+00
    0.00000E+00         0.00000E+00        -0.16424E+08
 
   -0.16255E+08         0.66936E+05         0.00000E+00
    0.66936E+05        -0.19596E+07         0.00000E+00
    0.00000E+00         0.00000E+00        -0.16358E+08
 
   -0.16194E+08         0.67337E+05         0.00000E+00
    0.67337E+05        -0.19597E+07         0.00000E+00
    0.00000E+00         0.00000E+00        -0.16292E+08
 
   -0.16132E+08         0.67665E+05         0.00000E+00
    0.67665E+05        -0.19597E+07         0.00000E+00
    0.00000E+00         0.00000E+00        -0.16224E+08
 
   -0.16070E+08         0.67913E+05         0.00000E+00
    0.67913E+05        -0.19598E+07         0.00000E+00
    0.00000E+00         0.00000E+00        -0.16156E+08
 
   -0.16008E+08         0.68071E+05         0.00000E+00
    0.68071E+05        -0.19598E+07         0.00000E+00
    0.00000E+00         0.00000E+00        -0.16086E+08
 
   -0.15946E+08         0.68132E+05         0.00000E+00
    0.68132E+05        -0.19599E+07         0.00000E+00
    0.00000E+00         0.00000E+00        -0.16016E+08
 
   -0.15884E+08         0.68084E+05         0.00000E+00
    0.68084E+05        -0.19599E+07         0.00000E+00
    0.00000E+00         0.00000E+00        -0.15945E+08
 
   -0.15822E+08         0.67916E+05         0.00000E+00
    0.67916E+05        -0.19600E+07         0.00000E+00
    0.00000E+00         0.00000E+00        -0.15873E+08
 
   -0.15760E+08         0.67613E+05         0.00000E+00
    0.67613E+05        -0.19601E+07         0.00000E+00
    0.00000E+00         0.00000E+00        -0.15800E+08
 
   -0.15698E+08         0.67159E+05         0.00000E+00
    0.67159E+05        -0.19602E+07         0.00000E+00
    0.00000E+00         0.00000E+00        -0.15726E+08
 
   -0.15637E+08         0.66537E+05         0.00000E+00
    0.66537E+05        -0.19603E+07         0.00000E+00
    0.00000E+00         0.00000E+00        -0.15652E+08
 
   -0.15577E+08         0.65723E+05         0.00000E+00
    0.65723E+05        -0.19604E+07         0.00000E+00
    0.00000E+00         0.00000E+00        -0.15578E+08
 
   -0.15517E+08         0.64692E+05         0.00000E+00
    0.64692E+05        -0.19605E+07         0.00000E+00
    0.00000E+00         0.00000E+00        -0.15502E+08
 
   -0.15458E+08         0.63413E+05         0.00000E+00
    0.63413E+05        -0.19607E+07         0.00000E+00
    0.00000E+00         0.00000E+00        -0.15427E+08
 
   -0.15401E+08         0.61851E+05         0.00000E+00
    0.61851E+05        -0.19608E+07         0.00000E+00
    0.00000E+00         0.00000E+00        -0.15351E+08
 
   -0.15345E+08         0.59964E+05         0.00000E+00
    0.59964E+05        -0.19610E+07         0.00000E+00
    0.00000E+00         0.00000E+00        -0.15274E+08
 
   -0.15291E+08         0.57705E+05         0.00000E+00
    0.57705E+05        -0.19613E+07         0.00000E+00
    0.00000E+00         0.00000E+00        -0.15198E+08
 
   -0.15239E+08         0.55019E+05         0.00000E+00
    0.55019E+05        -0.19615E+07         0.00000E+00
    0.00000E+00         0.00000E+00        -0.15121E+08
 
   -0.15189E+08         0.51847E+05         0.00000E+00
    0.51847E+05        -0.19618E+07         0.00000E+00
    0.00000E+00         0.00000E+00        -0.15045E+08
 
   -0.15142E+08         0.48122E+05         0.00000E+00
    0.48122E+05        -0.19621E+07         0.00000E+00
    0.00000E+00         0.00000E+00        -0.14969E+08
 
   -0.15099E+08         0.43776E+05         0.00000E+00
    0.43776E+05        -0.19625E+07         0.00000E+00
    0.00000E+00         0.00000E+00        -0.14893E+08
 
   -0.15060E+08         0.38741E+05         0.00000E+00
    0.38741E+05        -0.19629E+07         0.00000E+00
    0.00000E+00         0.00000E+00        -0.14818E+08
 
   -0.15025E+08         0.32956E+05         0.00000E+00
    0.32956E+05        -0.19634E+07         0.00000E+00
    0.00000E+00         0.00000E+00        -0.14744E+08
 
   -0.14995E+08         0.26374E+05         0.00000E+00
    0.26374E+05        -0.19639E+07         0.00000E+00
    0.00000E+00         0.00000E+00        -0.14671E+08
 
   -0.14971E+08         0.18972E+05         0.00000E+00
    0.18972E+05        -0.19644E+07         0.00000E+00
    0.00000E+00         0.00000E+00        -0.14599E+08
 
   -0.14953E+08         0.10765E+05         0.00000E+00
    0.10765E+05        -0.19648E+07         0.00000E+00
    0.00000E+00         0.00000E+00        -0.14528E+08
 
   -0.14941E+08         0.18223E+04         0.00000E+00
    0.18223E+04        -0.19653E+07         0.00000E+00
    0.00000E+00         0.00000E+00        -0.14460E+08
 
   -0.14937E+08        -0.77143E+04         0.00000E+00
   -0.77143E+04        -0.19656E+07         0.00000E+00
    0.00000E+00         0.00000E+00        -0.14392E+08
 
   -0.14940E+08        -0.17612E+05         0.00000E+00
   -0.17612E+05        -0.19658E+07         0.00000E+00
    0.00000E+00         0.00000E+00        -0.14327E+08
 
   -0.14950E+08        -0.27520E+05         0.00000E+00
   -0.27520E+05        -0.19658E+07         0.00000E+00
    0.00000E+00         0.00000E+00        -0.14264E+08
 
   -0.14966E+08        -0.36940E+05         0.00000E+00
   -0.36940E+05        -0.19656E+07         0.00000E+00
    0.00000E+00         0.00000E+00        -0.14202E+08
 
   -0.14988E+08        -0.44980E+05         0.00000E+00
   -0.44980E+05        -0.19649E+07         0.00000E+00
    0.00000E+00         0.00000E+00        -0.14141E+08
 
   -0.15010E+08        -0.50429E+05         0.00000E+00
   -0.50429E+05        -0.19636E+07         0.00000E+00
    0.00000E+00         0.00000E+00        -0.14080E+08
 
   -0.15027E+08        -0.48081E+05         0.00000E+00
   -0.48081E+05        -0.19605E+07         0.00000E+00
    0.00000E+00         0.00000E+00        -0.14017E+08
 
   -0.15030E+08        -0.22665E+05         0.00000E+00
   -0.22665E+05        -0.19350E+07         0.00000E+00
    0.00000E+00         0.00000E+00        -0.13943E+08
 
   -0.18414E+08        -0.47416E+04         0.00000E+00
   -0.47416E+04        -0.19633E+07         0.00000E+00
    0.00000E+00         0.00000E+00        -0.18705E+08
 
   -0.18415E+08        -0.90038E+04         0.00000E+00
   -0.90038E+04        -0.19593E+07         0.00000E+00
    0.00000E+00         0.00000E+00        -0.18690E+08
 
   -0.18419E+08        -0.83751E+04         0.00000E+00
   -0.83751E+04        -0.19592E+07         0.00000E+00
    0.00000E+00         0.00000E+00        -0.18677E+08
 
   -0.18424E+08        -0.66539E+04         0.00000E+00
   -0.66539E+04        -0.19590E+07         0.00000E+00
    0.00000E+00         0.00000E+00        -0.18663E+08
 
   -0.18427E+08        -0.45623E+04         0.00000E+00
   -0.45623E+04        -0.19589E+07         0.00000E+00
    0.00000E+00         0.00000E+00        -0.18650E+08
 
   -0.18429E+08        -0.22694E+04         0.00000E+00
   -0.22694E+04        -0.19589E+07         0.00000E+00
    0.00000E+00         0.00000E+00        -0.18635E+08
 
   -0.18428E+08         0.72822E+02         0.00000E+00
    0.72822E+02        -0.19589E+07         0.00000E+00
    0.00000E+00         0.00000E+00        -0.18620E+08
 
   -0.18426E+08         0.23929E+04         0.00000E+00
    0.23929E+04        -0.19589E+07         0.00000E+00
    0.00000E+00         0.00000E+00        -0.18604E+08
 
   -0.18421E+08         0.46331E+04         0.00000E+00
    0.46331E+04        -0.19590E+07         0.00000E+00
    0.00000E+00         0.00000E+00        -0.18588E+08
 
   -0.18414E+08         0.67580E+04         0.00000E+00
    0.67580E+04        -0.19590E+07         0.00000E+00
    0.00000E+00         0.00000E+00        -0.18571E+08
 
   -0.18404E+08         0.87465E+04         0.00000E+00
    0.87465E+04        -0.19591E+07         0.00000E+00
    0.00000E+00         0.00000E+00        -0.18552E+08
 
   -0.18393E+08         0.10590E+05         0.00000E+00
    0.10590E+05        -0.19592E+07         0.00000E+00
    0.00000E+00         0.00000E+00        -0.18534E+08
 
   -0.18380E+08         0.12288E+05         0.00000E+00
    0.12288E+05        -0.19592E+07         0.00000E+00
    0.00000E+00         0.00000E+00        -0.18514E+08
 
   -0.18366E+08         0.13849E+05         0.00000E+00
    0.13849E+05        -0.19593E+07         0.00000E+00
    0.00000E+00         0.00000E+00        -0.18494E+08
 
   -0.18349E+08         0.15284E+05         0.00000E+00
    0.15284E+05        -0.19594E+07         0.00000E+00
    0.00000E+00         0.00000E+00        -0.18472E+08
 
   -0.18331E+08         0.16604E+05         0.00000E+00
    0.16604E+05        -0.19594E+07         0.00000E+00
    0.00000E+00         0.00000E+00        -0.18451E+08
 
   -0.18312E+08         0.17825E+05         0.00000E+00
    0.17825E+05        -0.19594E+07         0.00000E+00
    0.00000E+00         0.00000E+00        -0.18428E+08
 
   -0.18292E+08         0.18959E+05         0.00000E+00
    0.18959E+05        -0.19595E+07         0.00000E+00
    0.00000E+00         0.00000E+00        -0.18405E+08
 
   -0.18270E+08         0.20021E+05         0.00000E+00
    0.20021E+05        -0.19595E+07         0.00000E+00
    0.00000E+00         0.00000E+00        -0.18382E+08
 
   -0.18248E+08         0.21021E+05         0.00000E+00
    0.21021E+05        -0.19595E+07         0.00000E+00
    0.00000E+00         0.00000E+00        -0.18357E+08
 
   -0.18224E+08         0.21971E+05         0.00000E+00
    0.21971E+05        -0.19595E+07         0.00000E+00
    0.00000E+00         0.00000E+00        -0.18332E+08
 
   -0.18199E+08         0.22878E+05         0.00000E+00
    0.22878E+05        -0.19596E+07         0.00000E+00
    0.00000E+00         0.00000E+00        -0.18307E+08
 
   -0.18173E+08         0.23752E+05         0.00000E+00
    0.23752E+05        -0.19596E+07         0.00000E+00
    0.00000E+00         0.00000E+00        -0.18281E+08
 
   -0.18146E+08         0.24598E+05         0.00000E+00
    0.24598E+05        -0.19596E+07         0.00000E+00
    0.00000E+00         0.00000E+00        -0.18254E+08
 
   -0.18119E+08         0.25423E+05         0.00000E+00
    0.25423E+05        -0.19596E+07         0.00000E+00
    0.00000E+00         0.00000E+00        -0.18226E+08
 
   -0.18090E+08         0.26230E+05         0.00000E+00
    0.26230E+05        -0.19596E+07         0.00000E+00
    0.00000E+00         0.00000E+00        -0.18198E+08
 
   -0.18061E+08         0.27024E+05         0.00000E+00
    0.27024E+05        -0.19596E+07         0.00000E+00
    0.00000E+00         0.00000E+00        -0.18169E+08
 
   -0.18030E+08         0.27808E+05         0.00000E+00
    0.27808E+05        -0.19596E+07         0.00000E+00
    0.00000E+00         0.00000E+00        -0.18139E+08
 
   -0.17999E+08         0.28585E+05         0.00000E+00
    0.28585E+05        -0.19596E+07         0.00000E+00
    0.00000E+00         0.00000E+00        -0.18109E+08
 
   -0.17967E+08         0.29357E+05         0.00000E+00
    0.29357E+05        -0.19596E+07         0.00000E+00
    0.00000E+00         0.00000E+00        -0.18078E+08
 
   -0.17934E+08         0.30125E+05         0.00000E+00
    0.30125E+05        -0.19596E+07         0.00000E+00
    0.00000E+00         0.00000E+00        -0.18046E+08
 
   -0.17901E+08         0.30891E+05         0.00000E+00
    0.30891E+05        -0.19596E+07         0.00000E+00
    0.00000E+00         0.00000E+00        -0.18014E+08
 
   -0.17866E+08         0.31656E+05         0.00000E+00
    0.31656E+05        -0.19596E+07         0.00000E+00
    0.00000E+00         0.00000E+00        -0.17980E+08
 
   -0.17830E+08         0.32422E+05         0.00000E+00
    0.32422E+05        -0.19596E+07         0.00000E+00
    0.00000E+00         0.00000E+00        -0.17946E+08
 
   -0.17794E+08         0.33188E+05         0.00000E+00
    0.33188E+05        -0.19596E+07         0.00000E+00
    0.00000E+00         0.00000E+00        -0.17912E+08
 
   -0.17757E+08         0.33956E+05         0.00000E+00
    0.33956E+05        -0.19596E+07         0.00000E+00
    0.00000E+00         0.00000E+00        -0.17876E+08
 
   -0.17719E+08         0.34725E+05         0.00000E+00
    0.34725E+05        -0.19596E+07         0.00000E+00
    0.00000E+00         0.00000E+00        -0.17839E+08
 
   -0.17680E+08         0.35497E+05         0.00000E+00
    0.35497E+05        -0.19596E+07         0.00000E+00
    0.00000E+00         0.00000E+00        -0.17802E+08
 
   -0.17640E+08         0.36270E+05         0.00000E+00
    0.36270E+05        -0.19596E+07         0.00000E+00
    0.00000E+00         0.00000E+00        -0.17764E+08
 
   -0.17600E+08         0.37046E+05         0.00000E+00
    0.37046E+05        -0.19596E+07         0.00000E+00
    0.00000E+00         0.00000E+00        -0.17725E+08
 
   -0.17558E+08         0.37823E+05         0.00000E+00
    0.37823E+05        -0.19596E+07         0.00000E+00
    0.00000E+00         0.00000E+00        -0.17684E+08
 
   -0.17516E+08         0.38602E+05         0.00000E+00
    0.38602E+05        -0.19596E+07         0.00000E+00
    0.00000E+00         0.00000E+00        -0.17644E+08
 
   -0.17473E+08         0.39383E+05         0.00000E+00
    0.39383E+05        -0.19596E+07         0.00000E+00
    0.00000E+00         0.00000E+00        -0.17602E+08
 
   -0.17429E+08         0.40164E+05         0.00000E+00
    0.40164E+05        -0.19596E+07         0.00000E+00
    0.00000E+00         0.00000E+00        -0.17559E+08
 
   -0.17384E+08         0.40944E+05         0.00000E+00
    0.40944E+05        -0.19596E+07         0.00000E+00
    0.00000E+00         0.00000E+00        -0.17515E+08
 
   -0.17338E+08         0.41725E+05         0.00000E+00
    0.41725E+05        -0.19596E+07         0.00000E+00
    0.00000E+00         0.00000E+00        -0.17470E+08
 
   -0.17291E+08         0.42503E+05         0.00000E+00
    0.42503E+05        -0.19595E+07         0.00000E+00
    0.00000E+00         0.00000E+00        -0.17425E+08
 
   -0.17244E+08         0.43279E+05         0.00000E+00
    0.43279E+05        -0.19595E+07         0.00000E+00
    0.00000E+00         0.00000E+00        -0.17378E+08
 
   -0.17195E+08         0.44051E+05         0.00000E+00
    0.44051E+05        -0.19595E+07         0.00000E+00
    0.00000E+00         0.00000E+00        -0.17330E+08
 
   -0.17146E+08         0.44818E+05         0.00000E+00
    0.44818E+05        -0.19596E+07         0.00000E+00
    0.00000E+00         0.00000E+00        -0.17281E+08
 
   -0.17096E+08         0.45578E+05         0.00000E+00
    0.45578E+05        -0.19596E+07         0.00000E+00
    0.00000E+00         0.00000E+00        -0.17231E+08
 
   -0.17045E+08         0.46330E+05         0.00000E+00
    0.46330E+05        -0.19596E+07         0.00000E+00
    0.00000E+00         0.00000E+00        -0.17181E+08
 
   -0.16993E+08         0.47072E+05         0.00000E+00
    0.47072E+05        -0.19596E+07         0.00000E+00
    0.00000E+00         0.00000E+00        -0.17129E+08
 
   -0.16940E+08         0.47803E+05         0.00000E+00
    0.47803E+05        -0.19596E+07         0.00000E+00
    0.00000E+00         0.00000E+00        -0.17076E+08
 
   -0.16887E+08         0.48520E+05         0.00000E+00
    0.48520E+05        -0.19596E+07         0.00000E+00
    0.00000E+00         0.00000E+00        -0.17022E+08
 
   -0.16833E+08         0.49222E+05         0.00000E+00
    0.49222E+05        -0.19596E+07         0.00000E+00
    0.00000E+00         0.00000E+00        -0.16967E+08
 
   -0.16778E+08         0.49905E+05         0.00000E+00
    0.49905E+05        -0.19596E+07         0.00000E+00
    0.00000E+00         0.00000E+00        -0.16910E+08
 
   -0.16722E+08         0.50567E+05         0.00000E+00
    0.50567E+05        -0.19596E+07         0.00000E+00
    0.00000E+00         0.00000E+00        -0.16853E+08
 
   -0.16665E+08         0.51206E+05         0.00000E+00
    0.51206E+05        -0.19596E+07         0.00000E+00
    0.00000E+00         0.00000E+00        -0.16795E+08
 
   -0.16608E+08         0.51819E+05         0.00000E+00
    0.51819E+05        -0.19596E+07         0.00000E+00
    0.00000E+00         0.00000E+00        -0.16736E+08
 
   -0.16550E+08         0.52402E+05         0.00000E+00
    0.52402E+05        -0.19596E+07         0.00000E+00
    0.00000E+00         0.00000E+00        -0.16675E+08
 
   -0.16491E+08         0.52952E+05         0.00000E+00
    0.52952E+05        -0.19596E+07         0.00000E+00
    0.00000E+00         0.00000E+00        -0.16614E+08
 
   -0.16432E+08         0.53466E+05         0.00000E+00
    0.53466E+05        -0.19597E+07         0.00000E+00
    0.00000E+00         0.00000E+00        -0.16551E+08
 
   -0.16373E+08         0.53939E+05         0.00000E+00
    0.53939E+05        -0.19597E+07         0.00000E+00
    0.00000E+00         0.00000E+00        -0.16487E+08
 
   -0.16312E+08         0.54368E+05         0.00000E+00
    0.54368E+05        -0.19597E+07         0.00000E+00
    0.00000E+00         0.00000E+00        -0.16423E+08
 
   -0.16252E+08         0.54747E+05         0.00000E+00
    0.54747E+05        -0.19597E+07         0.00000E+00
    0.00000E+00         0.00000E+00        -0.16357E+08
 
   -0.16191E+08         0.55071E+05         0.00000E+00
    0.55071E+05        -0.19597E+07         0.00000E+00
    0.00000E+00         0.00000E+00        -0.16291E+08
 
   -0.16129E+08         0.55336E+05         0.00000E+00
    0.55336E+05        -0.19598E+07         0.00000E+00
    0.00000E+00         0.00000E+00        -0.16223E+08
 
   -0.16067E+08         0.55535E+05         0.00000E+00
    0.55535E+05        -0.19598E+07         0.00000E+00
    0.00000E+00         0.00000E+00        -0.16155E+08
 
   -0.16005E+08         0.55661E+05         0.00000E+00
    0.55661E+05        -0.19598E+07         0.00000E+00
    0.00000E+00         0.00000E+00        -0.16085E+08
 
   -0.15943E+08         0.55707E+05         0.00000E+00
    0.55707E+05        -0.19599E+07         0.00000E+00
    0.00000E+00         0.00000E+00        -0.16015E+08
 
   -0.15881E+08         0.55664E+05         0.00000E+00
    0.55664E+05        -0.19599E+07         0.00000E+00
    0.00000E+00         0.00000E+00        -0.15944E+08
 
   -0.15819E+08         0.55523E+05         0.00000E+00
    0.55523E+05        -0.19600E+07         0.00000E+00
    0.00000E+00         0.00000E+00        -0.15872E+08
 
   -0.15757E+08         0.55271E+05         0.00000E+00
    0.55271E+05        -0.19600E+07         0.00000E+00
    0.00000E+00         0.00000E+00        -0.15799E+08
 
   -0.15696E+08         0.54895E+05         0.00000E+00
    0.54895E+05        -0.19601E+07         0.00000E+00
    0.00000E+00         0.00000E+00        -0.15726E+08
 
   -0.15635E+08         0.54381E+05         0.00000E+00
    0.54381E+05        -0.19601E+07         0.00000E+00
    0.00000E+00         0.00000E+00        -0.15652E+08
 
   -0.15575E+08         0.53710E+05         0.00000E+00
    0.53710E+05        -0.19602E+07         0.00000E+00
    0.00000E+00         0.00000E+00        -0.15577E+08
 
   -0.15515E+08         0.52859E+05         0.00000E+00
    0.52859E+05        -0.19603E+07         0.00000E+00
    0.00000E+00         0.00000E+00        -0.15502E+08
 
   -0.15457E+08         0.51805E+05         0.00000E+00
    0.51805E+05        -0.19604E+07         0.00000E+00
    0.00000E+00         0.00000E+00        -0.15426E+08
 
   -0.15399E+08         0.50517E+05         0.00000E+00
    0.50517E+05        -0.19605E+07         0.00000E+00
    0.00000E+00         0.00000E+00        -0.15350E+08
 
   -0.15344E+08         0.48961E+05         0.00000E+00
    0.48961E+05        -0.19606E+07         0.00000E+00
    0.00000E+00         0.00000E+00        -0.15274E+08
 
   -0.15290E+08         0.47096E+05         0.00000E+00
    0.47096E+05        -0.19608E+07         0.00000E+00
    0.00000E+00         0.00000E+00        -0.15197E+08
 
   -0.15238E+08         0.44876E+05         0.00000E+00
    0.44876E+05        -0.19610E+07         0.00000E+00
    0.00000E+00         0.00000E+00        -0.15121E+08
 
   -0.15189E+08         0.42251E+05         0.00000E+00
    0.42251E+05        -0.19612E+07         0.00000E+00
    0.00000E+00         0.00000E+00        -0.15045E+08
 
   -0.15143E+08         0.39164E+05         0.00000E+00
    0.39164E+05        -0.19614E+07         0.00000E+00
    0.00000E+00         0.00000E+00        -0.14969E+08
 
   -0.15100E+08         0.35557E+05         0.00000E+00
    0.35557E+05        -0.19617E+07         0.00000E+00
    0.00000E+00         0.00000E+00        -0.14893E+08
 
   -0.15061E+08         0.31372E+05         0.00000E+00
    0.31372E+05        -0.19619E+07         0.00000E+00
    0.00000E+00         0.00000E+00        -0.14818E+08
 
   -0.15027E+08         0.26554E+05         0.00000E+00
    0.26554E+05        -0.19623E+07         0.00000E+00
    0.00000E+00         0.00000E+00        -0.14744E+08
 
   -0.14998E+08         0.21062E+05         0.00000E+00
    0.21062E+05        -0.19626E+07         0.00000E+00
    0.00000E+00         0.00000E+00        -0.14671E+08
 
   -0.14975E+08         0.14871E+05         0.00000E+00
    0.14871E+05        -0.19629E+07         0.00000E+00
    0.00000E+00         0.00000E+00        -0.14600E+08
 
   -0.14959E+08         0.79911E+04         0.00000E+00
    0.79911E+04        -0.19632E+07         0.00000E+00
    0.00000E+00         0.00000E+00        -0.14530E+08
 
   -0.14950E+08         0.47273E+03         0.00000E+00
    0.47273E+03        -0.19636E+07         0.00000E+00
    0.00000E+00         0.00000E+00        -0.14462E+08
 
   -0.14948E+08        -0.75739E+04         0.00000E+00
   -0.75739E+04        -0.19638E+07         0.00000E+00
    0.00000E+00         0.00000E+00        -0.14395E+08
 
   -0.14954E+08        -0.15972E+05         0.00000E+00
   -0.15972E+05        -0.19640E+07         0.00000E+00
    0.00000E+00         0.00000E+00        -0.14331E+08
 
   -0.14968E+08        -0.24440E+05         0.00000E+00
   -0.24440E+05        -0.19640E+07         0.00000E+00
    0.00000E+00         0.00000E+00        -0.14268E+08
 
   -0.14988E+08        -0.32635E+05         0.00000E+00
   -0.32635E+05        -0.19639E+07         0.00000E+00
    0.00000E+00         0.00000E+00        -0.14208E+08
 
   -0.15015E+08        -0.39842E+05         0.00000E+00
   -0.39842E+05        -0.19636E+07         0.00000E+00
    0.00000E+00         0.00000E+00        -0.14149E+08
 
   -0.15044E+08        -0.45269E+05         0.00000E+00
   -0.45269E+05        -0.19626E+07         0.00000E+00
    0.00000E+00         0.00000E+00        -0.14090E+08
 
   -0.15069E+08        -0.45575E+05         0.00000E+00
   -0.45575E+05        -0.19622E+07         0.00000E+00
    0.00000E+00         0.00000E+00        -0.14030E+08
 
   -0.15078E+08        -0.23234E+05         0.00000E+00
   -0.23234E+05        -0.19435E+07         0.00000E+00
    0.00000E+00         0.00000E+00        -0.13960E+08
 
   -0.18402E+08        -0.48728E+04         0.00000E+00
   -0.48728E+04        -0.19616E+07         0.00000E+00
    0.00000E+00         0.00000E+00        -0.18701E+08
 
   -0.18405E+08        -0.82400E+04         0.00000E+00
   -0.82400E+04        -0.19592E+07         0.00000E+00
    0.00000E+00         0.00000E+00        -0.18687E+08
 
   -0.18411E+08        -0.71894E+04         0.00000E+00
   -0.71894E+04        -0.19595E+07         0.00000E+00
    0.00000E+00         0.00000E+00        -0.18674E+08
 
   -0.18417E+08        -0.57022E+04         0.00000E+00
   -0.57022E+04        -0.19593E+07         0.00000E+00
    0.00000E+00         0.00000E+00        -0.18661E+08
 
   -0.18422E+08        -0.39457E+04         0.00000E+00
   -0.39457E+04        -0.19593E+07         0.00000E+00
    0.00000E+00         0.00000E+00        -0.18648E+08
 
   -0.18424E+08        -0.20738E+04         0.00000E+00
   -0.20738E+04        -0.19593E+07         0.00000E+00
    0.00000E+00         0.00000E+00        -0.18634E+08
 
   -0.18425E+08        -0.18522E+03         0.00000E+00
   -0.18522E+03        -0.19593E+07         0.00000E+00
    0.00000E+00         0.00000E+00        -0.18619E+08
 
   -0.18423E+08         0.16744E+04         0.00000E+00
    0.16744E+04        -0.19593E+07         0.00000E+00
    0.00000E+00         0.00000E+00        -0.18604E+08
 
   -0.18418E+08         0.34609E+04         0.00000E+00
    0.34609E+04        -0.19594E+07         0.00000E+00
    0.00000E+00         0.00000E+00        -0.18587E+08
 
   -0.18411E+08         0.51501E+04         0.00000E+00
    0.51501E+04        -0.19594E+07         0.00000E+00
    0.00000E+00         0.00000E+00        -0.18570E+08
 
   -0.18402E+08         0.67260E+04         0.00000E+00
    0.67260E+04        -0.19595E+07         0.00000E+00
    0.00000E+00         0.00000E+00        -0.18552E+08
 
   -0.18391E+08         0.81833E+04         0.00000E+00
    0.81833E+04        -0.19595E+07         0.00000E+00
    0.00000E+00         0.00000E+00        -0.18533E+08
 
   -0.18378E+08         0.95231E+04         0.00000E+00
    0.95231E+04        -0.19595E+07         0.00000E+00
    0.00000E+00         0.00000E+00        -0.18513E+08
 
   -0.18364E+08         0.10752E+05         0.00000E+00
    0.10752E+05        -0.19596E+07         0.00000E+00
    0.00000E+00         0.00000E+00        -0.18493E+08
 
   -0.18348E+08         0.11878E+05         0.00000E+00
    0.11878E+05        -0.19596E+07         0.00000E+00
    0.00000E+00         0.00000E+00        -0.18472E+08
 
   -0.18330E+08         0.12914E+05         0.00000E+00
    0.12914E+05        -0.19596E+07         0.00000E+00
    0.00000E+00         0.00000E+00        -0.18450E+08
 
   -0.18311E+08         0.13869E+05         0.00000E+00
    0.13869E+05        -0.19597E+07         0.00000E+00
    0.00000E+00         0.00000E+00        -0.18428E+08
 
   -0.18290E+08         0.14756E+05         0.00000E+00
    0.14756E+05        -0.19597E+07         0.00000E+00
    0.00000E+00         0.00000E+00        -0.18405E+08
 
   -0.18269E+08         0.15585E+05         0.00000E+00
    0.15585E+05        -0.19597E+07         0.00000E+00
    0.00000E+00         0.00000E+00        -0.18381E+08
 
   -0.18246E+08         0.16366E+05         0.00000E+00
    0.16366E+05        -0.19597E+07         0.00000E+00
    0.00000E+00         0.00000E+00        -0.18357E+08
 
   -0.18222E+08         0.17106E+05         0.00000E+00
    0.17106E+05        -0.19597E+07         0.00000E+00
    0.00000E+00         0.00000E+00        -0.18332E+08
 
   -0.18197E+08         0.17813E+05         0.00000E+00
    0.17813E+05        -0.19597E+07         0.00000E+00
    0.00000E+00         0.00000E+00        -0.18306E+08
 
   -0.18171E+08         0.18493E+05         0.00000E+00
    0.18493E+05        -0.19597E+07         0.00000E+00
    0.00000E+00         0.00000E+00        -0.18280E+08
 
   -0.18145E+08         0.19152E+05         0.00000E+00
    0.19152E+05        -0.19597E+07         0.00000E+00
    0.00000E+00         0.00000E+00        -0.18253E+08
 
   -0.18117E+08         0.19794E+05         0.00000E+00
    0.19794E+05        -0.19597E+07         0.00000E+00
    0.00000E+00         0.00000E+00        -0.18226E+08
 
   -0.18088E+08         0.20422E+05         0.00000E+00
    0.20422E+05        -0.19597E+07         0.00000E+00
    0.00000E+00         0.00000E+00        -0.18197E+08
 
   -0.18059E+08         0.21040E+05         0.00000E+00
    0.21040E+05        -0.19597E+07         0.00000E+00
    0.00000E+00         0.00000E+00        -0.18168E+08
 
   -0.18028E+08         0.21650E+05         0.00000E+00
    0.21650E+05        -0.19597E+07         0.00000E+00
    0.00000E+00         0.00000E+00        -0.18139E+08
 
   -0.17997E+08         0.22254E+05         0.00000E+00
    0.22254E+05        -0.19597E+07         0.00000E+00
    0.00000E+00         0.00000E+00        -0.18109E+08
 
   -0.17965E+08         0.22854E+05         0.00000E+00
    0.22854E+05        -0.19597E+07         0.00000E+00
    0.00000E+00         0.00000E+00        -0.18077E+08
 
   -0.17932E+08         0.23452E+05         0.00000E+00
    0.23452E+05        -0.19597E+07         0.00000E+00
    0.00000E+00         0.00000E+00        -0.18046E+08
 
   -0.17898E+08         0.24048E+05         0.00000E+00
    0.24048E+05        -0.19597E+07         0.00000E+00
    0.00000E+00         0.00000E+00        -0.18013E+08
 
   -0.17864E+08         0.24643E+05         0.00000E+00
    0.24643E+05        -0.19597E+07         0.00000E+00
    0.00000E+00         0.00000E+00        -0.17980E+08
 
   -0.17828E+08         0.25238E+05         0.00000E+00
    0.25238E+05        -0.19597E+07         0.00000E+00
    0.00000E+00         0.00000E+00        -0.17946E+08
 
   -0.17792E+08         0.25834E+05         0.00000E+00
    0.25834E+05        -0.19597E+07         0.00000E+00
    0.00000E+00         0.00000E+00        -0.17911E+08
 
   -0.17754E+08         0.26431E+05         0.00000E+00
    0.26431E+05        -0.19597E+07         0.00000E+00
    0.00000E+00         0.00000E+00        -0.17875E+08
 
   -0.17716E+08         0.27029E+05         0.00000E+00
    0.27029E+05        -0.19597E+07         0.00000E+00
    0.00000E+00         0.00000E+00        -0.17839E+08
 
   -0.17677E+08         0.27629E+05         0.00000E+00
    0.27629E+05        -0.19597E+07         0.00000E+00
    0.00000E+00         0.00000E+00        -0.17801E+08
 
   -0.17638E+08         0.28231E+05         0.00000E+00
    0.28231E+05        -0.19597E+07         0.00000E+00
    0.00000E+00         0.00000E+00        -0.17763E+08
 
   -0.17597E+08         0.28834E+05         0.00000E+00
    0.28834E+05        -0.19597E+07         0.00000E+00
    0.00000E+00         0.00000E+00        -0.17724E+08
 
   -0.17555E+08         0.29438E+05         0.00000E+00
    0.29438E+05        -0.19597E+07         0.00000E+00
    0.00000E+00         0.00000E+00        -0.17684E+08
 
   -0.17513E+08         0.30043E+05         0.00000E+00
    0.30043E+05        -0.19597E+07         0.00000E+00
    0.00000E+00         0.00000E+00        -0.17643E+08
 
   -0.17470E+08         0.30650E+05         0.00000E+00
    0.30650E+05        -0.19597E+07         0.00000E+00
    0.00000E+00         0.00000E+00        -0.17601E+08
 
   -0.17426E+08         0.31257E+05         0.00000E+00
    0.31257E+05        -0.19597E+07         0.00000E+00
    0.00000E+00         0.00000E+00        -0.17558E+08
 
   -0.17381E+08         0.31863E+05         0.00000E+00
    0.31863E+05        -0.19597E+07         0.00000E+00
    0.00000E+00         0.00000E+00        -0.17514E+08
 
   -0.17335E+08         0.32469E+05         0.00000E+00
    0.32469E+05        -0.19597E+07         0.00000E+00
    0.00000E+00         0.00000E+00        -0.17469E+08
 
   -0.17288E+08         0.33074E+05         0.00000E+00
    0.33074E+05        -0.19597E+07         0.00000E+00
    0.00000E+00         0.00000E+00        -0.17424E+08
 
   -0.17241E+08         0.33677E+05         0.00000E+00
    0.33677E+05        -0.19597E+07         0.00000E+00
    0.00000E+00         0.00000E+00        -0.17377E+08
 
   -0.17192E+08         0.34276E+05         0.00000E+00
    0.34276E+05        -0.19597E+07         0.00000E+00
    0.00000E+00         0.00000E+00        -0.17329E+08
 
   -0.17143E+08         0.34872E+05         0.00000E+00
    0.34872E+05        -0.19597E+07         0.00000E+00
    0.00000E+00         0.00000E+00        -0.17280E+08
 
   -0.17093E+08         0.35462E+05         0.00000E+00
    0.35462E+05        -0.19597E+07         0.00000E+00
    0.00000E+00         0.00000E+00        -0.17230E+08
 
   -0.17042E+08         0.36046E+05         0.00000E+00
    0.36046E+05        -0.19597E+07         0.00000E+00
    0.00000E+00         0.00000E+00        -0.17180E+08
 
   -0.16990E+08         0.36622E+05         0.00000E+00
    0.36622E+05        -0.19597E+07         0.00000E+00
    0.00000E+00         0.00000E+00        -0.17128E+08
 
   -0.16937E+08         0.37189E+05         0.00000E+00
    0.37189E+05        -0.19597E+07         0.00000E+00
    0.00000E+00         0.00000E+00        -0.17075E+08
 
   -0.16884E+08         0.37746E+05         0.00000E+00
    0.37746E+05        -0.19597E+07         0.00000E+00
    0.00000E+00         0.00000E+00        -0.17021E+08
 
   -0.16829E+08         0.38289E+05         0.00000E+00
    0.38289E+05        -0.19597E+07         0.00000E+00
    0.00000E+00         0.00000E+00        -0.16966E+08
 
   -0.16774E+08         0.38819E+05         0.00000E+00
    0.38819E+05        -0.19597E+07         0.00000E+00
    0.00000E+00         0.00000E+00        -0.16909E+08
 
   -0.16718E+08         0.39333E+05         0.00000E+00
    0.39333E+05        -0.19597E+07         0.00000E+00
    0.00000E+00         0.00000E+00        -0.16852E+08
 
   -0.16662E+08         0.39828E+05         0.00000E+00
    0.39828E+05        -0.19597E+07         0.00000E+00
    0.00000E+00         0.00000E+00        -0.16794E+08
 
   -0.16605E+08         0.40303E+05         0.00000E+00
    0.40303E+05        -0.19597E+07         0.00000E+00
    0.00000E+00         0.00000E+00        -0.16735E+08
 
   -0.16547E+08         0.40754E+05         0.00000E+00
    0.40754E+05        -0.19597E+07         0.00000E+00
    0.00000E+00         0.00000E+00        -0.16674E+08
 
   -0.16488E+08         0.41180E+05         0.00000E+00
    0.41180E+05        -0.19597E+07         0.00000E+00
    0.00000E+00         0.00000E+00        -0.16613E+08
 
   -0.16429E+08         0.41577E+05         0.00000E+00
    0.41577E+05        -0.19597E+07         0.00000E+00
    0.00000E+00         0.00000E+00        -0.16550E+08
 
   -0.16369E+08         0.41943E+05         0.00000E+00
    0.41943E+05        -0.19598E+07         0.00000E+00
    0.00000E+00         0.00000E+00        -0.16487E+08
 
   -0.16309E+08         0.42274E+05         0.00000E+00
    0.42274E+05        -0.19598E+07         0.00000E+00
    0.00000E+00         0.00000E+00        -0.16422E+08
 
   -0.16248E+08         0.42566E+05         0.00000E+00
    0.42566E+05        -0.19598E+07         0.00000E+00
    0.00000E+00         0.00000E+00        -0.16356E+08
 
   -0.16187E+08         0.42816E+05         0.00000E+00
    0.42816E+05        -0.19598E+07         0.00000E+00
    0.00000E+00         0.00000E+00        -0.16290E+08
 
   -0.16126E+08         0.43020E+05         0.00000E+00
    0.43020E+05        -0.19598E+07         0.00000E+00
    0.00000E+00         0.00000E+00        -0.16222E+08
 
   -0.16064E+08         0.43172E+05         0.00000E+00
    0.43172E+05        -0.19598E+07         0.00000E+00
    0.00000E+00         0.00000E+00        -0.16154E+08
 
   -0.16002E+08         0.43267E+05         0.00000E+00
    0.43267E+05        -0.19599E+07         0.00000E+00
    0.00000E+00         0.00000E+00        -0.16084E+08
 
   -0.15940E+08         0.43300E+05         0.00000E+00
    0.43300E+05        -0.19599E+07         0.00000E+00
    0.00000E+00         0.00000E+00        -0.16014E+08
 
   -0.15879E+08         0.43264E+05         0.00000E+00
    0.43264E+05        -0.19599E+07         0.00000E+00
    0.00000E+00         0.00000E+00        -0.15943E+08
 
   -0.15817E+08         0.43151E+05         0.00000E+00
    0.43151E+05        -0.19599E+07         0.00000E+00
    0.00000E+00         0.00000E+00        -0.15871E+08
 
   -0.15755E+08         0.42952E+05         0.00000E+00
    0.42952E+05        -0.19600E+07         0.00000E+00
    0.00000E+00         0.00000E+00        -0.15798E+08
 
   -0.15694E+08         0.42657E+05         0.00000E+00
    0.42657E+05        -0.19600E+07         0.00000E+00
    0.00000E+00         0.00000E+00        -0.15725E+08
 
   -0.15633E+08         0.42253E+05         0.00000E+00
    0.42253E+05        -0.19600E+07         0.00000E+00
    0.00000E+00         0.00000E+00        -0.15651E+08
 
   -0.15573E+08         0.41727E+05         0.00000E+00
    0.41727E+05        -0.19601E+07         0.00000E+00
    0.00000E+00         0.00000E+00        -0.15576E+08
 
   -0.15513E+08         0.41061E+05         0.00000E+00
    0.41061E+05        -0.19601E+07         0.00000E+00
    0.00000E+00         0.00000E+00        -0.15501E+08
 
   -0.15455E+08         0.40236E+05         0.00000E+00
    0.40236E+05        -0.19602E+07         0.00000E+00
    0.00000E+00         0.00000E+00        -0.15425E+08
 
   -0.15398E+08         0.39227E+05         0.00000E+00
    0.39227E+05        -0.19603E+07         0.00000E+00
    0.00000E+00         0.00000E+00        -0.15349E+08
 
   -0.15342E+08         0.38007E+05         0.00000E+00
    0.38007E+05        -0.19603E+07         0.00000E+00
    0.00000E+00         0.00000E+00        -0.15273E+08
 
   -0.15289E+08         0.36543E+05         0.00000E+00
    0.36543E+05        -0.19604E+07         0.00000E+00
    0.00000E+00         0.00000E+00        -0.15197E+08
 
   -0.15237E+08         0.34800E+05         0.00000E+00
    0.34800E+05        -0.19605E+07         0.00000E+00
    0.00000E+00         0.00000E+00        -0.15121E+08
 
   -0.15188E+08         0.32736E+05         0.00000E+00
    0.32736E+05        -0.19607E+07         0.00000E+00
    0.00000E+00         0.00000E+00        -0.15044E+08
 
   -0.15142E+08         0.30305E+05         0.00000E+00
    0.30305E+05        -0.19608E+07         0.00000E+00
    0.00000E+00         0.00000E+00        -0.14968E+08
 
   -0.15100E+08         0.27461E+05         0.00000E+00
    0.27461E+05        -0.19610E+07         0.00000E+00
    0.00000E+00         0.00000E+00        -0.14893E+08
 
   -0.15062E+08         0.24154E+05         0.00000E+00
    0.24154E+05        -0.19611E+07         0.00000E+00
    0.00000E+00         0.00000E+00        -0.14818E+08
 
   -0.15029E+08         0.20340E+05         0.00000E+00
    0.20340E+05        -0.19613E+07         0.00000E+00
    0.00000E+00         0.00000E+00        -0.14745E+08
 
   -0.15001E+08         0.15983E+05         0.00000E+00
    0.15983E+05        -0.19615E+07         0.00000E+00
    0.00000E+00         0.00000E+00        -0.14672E+08
 
   -0.14980E+08         0.11060E+05         0.00000E+00
    0.11060E+05        -0.19617E+07         0.00000E+00
    0.00000E+00         0.00000E+00        -0.14601E+08
 
   -0.14965E+08         0.55755E+04         0.00000E+00
    0.55755E+04        -0.19619E+07         0.00000E+00
    0.00000E+00         0.00000E+00        -0.14531E+08
 
   -0.14958E+08        -0.43707E+03         0.00000E+00
   -0.43707E+03        -0.19621E+07         0.00000E+00
    0.00000E+00         0.00000E+00        -0.14463E+08
 
   -0.14958E+08        -0.68944E+04         0.00000E+00
   -0.68944E+04        -0.19623E+07         0.00000E+00
    0.00000E+00         0.00000E+00        -0.14398E+08
 
   -0.14967E+08        -0.13674E+05         0.00000E+00
   -0.13674E+05        -0.19624E+07         0.00000E+00
    0.00000E+00         0.00000E+00        -0.14334E+08
 
   -0.14984E+08        -0.20560E+05         0.00000E+00
   -0.20560E+05        -0.19625E+07         0.00000E+00
    0.00000E+00         0.00000E+00        -0.14273E+08
 
   -0.15010E+08        -0.27332E+05         0.00000E+00
   -0.27332E+05        -0.19624E+07         0.00000E+00
    0.00000E+00         0.00000E+00        -0.14214E+08
 
   -0.15042E+08        -0.33520E+05         0.00000E+00
   -0.33520E+05        -0.19624E+07         0.00000E+00
    0.00000E+00         0.00000E+00        -0.14156E+08
 
   -0.15078E+08        -0.38407E+05         0.00000E+00
   -0.38407E+05        -0.19616E+07         0.00000E+00
    0.00000E+00         0.00000E+00        -0.14100E+08
 
   -0.15113E+08        -0.41211E+05         0.00000E+00
   -0.41211E+05        -0.19627E+07         0.00000E+00
    0.00000E+00         0.00000E+00        -0.14044E+08
 
   -0.15129E+08        -0.23560E+05         0.00000E+00
   -0.23560E+05        -0.19519E+07         0.00000E+00
    0.00000E+00         0.00000E+00        -0.13978E+08
 
   -0.18389E+08        -0.49030E+04         0.00000E+00
   -0.49030E+04        -0.19599E+07         0.00000E+00
    0.00000E+00         0.00000E+00        -0.18697E+08
 
   -0.18394E+08        -0.69151E+04         0.00000E+00
   -0.69151E+04        -0.19595E+07         0.00000E+00
    0.00000E+00         0.00000E+00        -0.18684E+08
 
   -0.18403E+08        -0.56293E+04         0.00000E+00
   -0.56293E+04        -0.19598E+07         0.00000E+00
    0.00000E+00         0.00000E+00        -0.18672E+08
 
   -0.18411E+08        -0.44961E+04         0.00000E+00
   -0.44961E+04        -0.19596E+07         0.00000E+00
    0.00000E+00         0.00000E+00        -0.18660E+08
 
   -0.18417E+08        -0.31159E+04         0.00000E+00
   -0.31159E+04        -0.19597E+07         0.00000E+00
    0.00000E+00         0.00000E+00        -0.18647E+08
 
   -0.18420E+08        -0.17185E+04         0.00000E+00
   -0.17185E+04        -0.19596E+07         0.00000E+00
    0.00000E+00         0.00000E+00        -0.18633E+08
 
   -0.18421E+08        -0.31414E+03         0.00000E+00
   -0.31414E+03        -0.19597E+07         0.00000E+00
    0.00000E+00         0.00000E+00        -0.18618E+08
 
   -0.18420E+08         0.10559E+04         0.00000E+00
    0.10559E+04        -0.19597E+07         0.00000E+00
    0.00000E+00         0.00000E+00        -0.18603E+08
 
   -0.18415E+08         0.23664E+04         0.00000E+00
    0.23664E+04        -0.19597E+07         0.00000E+00
    0.00000E+00         0.00000E+00        -0.18587E+08
 
   -0.18409E+08         0.36008E+04         0.00000E+00
    0.36008E+04        -0.19597E+07         0.00000E+00
    0.00000E+00         0.00000E+00        -0.18569E+08
 
   -0.18400E+08         0.47489E+04         0.00000E+00
    0.47489E+04        -0.19597E+07         0.00000E+00
    0.00000E+00         0.00000E+00        -0.18551E+08
 
   -0.18389E+08         0.58077E+04         0.00000E+00
    0.58077E+04        -0.19597E+07         0.00000E+00
    0.00000E+00         0.00000E+00        -0.18533E+08
 
   -0.18377E+08         0.67787E+04         0.00000E+00
    0.67787E+04        -0.19598E+07         0.00000E+00
    0.00000E+00         0.00000E+00        -0.18513E+08
 
   -0.18362E+08         0.76670E+04         0.00000E+00
    0.76670E+04        -0.19598E+07         0.00000E+00
    0.00000E+00         0.00000E+00        -0.18493E+08
 
   -0.18346E+08         0.84799E+04         0.00000E+00
    0.84799E+04        -0.19598E+07         0.00000E+00
    0.00000E+00         0.00000E+00        -0.18472E+08
 
   -0.18328E+08         0.92256E+04         0.00000E+00
    0.92256E+04        -0.19598E+07         0.00000E+00
    0.00000E+00         0.00000E+00        -0.18450E+08
 
   -0.18309E+08         0.99127E+04         0.00000E+00
    0.99127E+04        -0.19598E+07         0.00000E+00
    0.00000E+00         0.00000E+00        -0.18428E+08
 
   -0.18289E+08         0.10550E+05         0.00000E+00
    0.10550E+05        -0.19598E+07         0.00000E+00
    0.00000E+00         0.00000E+00        -0.18404E+08
 
   -0.18267E+08         0.11144E+05         0.00000E+00
    0.11144E+05        -0.19598E+07         0.00000E+00
    0.00000E+00         0.00000E+00        -0.18381E+08
 
   -0.18244E+08         0.11703E+05         0.00000E+00
    0.11703E+05        -0.19598E+07         0.00000E+00
    0.00000E+00         0.00000E+00        -0.18356E+08
 
   -0.18220E+08         0.12233E+05         0.00000E+00
    0.12233E+05        -0.19598E+07         0.00000E+00
    0.00000E+00         0.00000E+00        -0.18331E+08
 
   -0.18196E+08         0.12739E+05         0.00000E+00
    0.12739E+05        -0.19598E+07         0.00000E+00
    0.00000E+00         0.00000E+00        -0.18306E+08
 
   -0.18170E+08         0.13225E+05         0.00000E+00
    0.13225E+05        -0.19598E+07         0.00000E+00
    0.00000E+00         0.00000E+00        -0.18280E+08
 
   -0.18143E+08         0.13696E+05         0.00000E+00
    0.13696E+05        -0.19598E+07         0.00000E+00
    0.00000E+00         0.00000E+00        -0.18253E+08
 
   -0.18115E+08         0.14154E+05         0.00000E+00
    0.14154E+05        -0.19598E+07         0.00000E+00
    0.00000E+00         0.00000E+00        -0.18225E+08
 
   -0.18086E+08         0.14603E+05         0.00000E+00
    0.14603E+05        -0.19598E+07         0.00000E+00
    0.00000E+00         0.00000E+00        -0.18197E+08
 
   -0.18057E+08         0.15045E+05         0.00000E+00
    0.15045E+05        -0.19598E+07         0.00000E+00
    0.00000E+00         0.00000E+00        -0.18168E+08
 
   -0.18026E+08         0.15481E+05         0.00000E+00
    0.15481E+05        -0.19598E+07         0.00000E+00
    0.00000E+00         0.00000E+00        -0.18138E+08
 
   -0.17995E+08         0.15912E+05         0.00000E+00
    0.15912E+05        -0.19598E+07         0.00000E+00
    0.00000E+00         0.00000E+00        -0.18108E+08
 
   -0.17963E+08         0.16341E+05         0.00000E+00
    0.16341E+05        -0.19598E+07         0.00000E+00
    0.00000E+00         0.00000E+00        -0.18077E+08
 
   -0.17930E+08         0.16768E+05         0.00000E+00
    0.16768E+05        -0.19598E+07         0.00000E+00
    0.00000E+00         0.00000E+00        -0.18045E+08
 
   -0.17896E+08         0.17193E+05         0.00000E+00
    0.17193E+05        -0.19598E+07         0.00000E+00
    0.00000E+00         0.00000E+00        -0.18012E+08
 
   -0.17861E+08         0.17618E+05         0.00000E+00
    0.17618E+05        -0.19598E+07         0.00000E+00
    0.00000E+00         0.00000E+00        -0.17979E+08
 
   -0.17826E+08         0.18044E+05         0.00000E+00
    0.18044E+05        -0.19598E+07         0.00000E+00
    0.00000E+00         0.00000E+00        -0.17945E+08
 
   -0.17789E+08         0.18469E+05         0.00000E+00
    0.18469E+05        -0.19598E+07         0.00000E+00
    0.00000E+00         0.00000E+00        -0.17910E+08
 
   -0.17752E+08         0.18895E+05         0.00000E+00
    0.18895E+05        -0.19598E+07         0.00000E+00
    0.00000E+00         0.00000E+00        -0.17874E+08
 
   -0.17714E+08         0.19323E+05         0.00000E+00
    0.19323E+05        -0.19598E+07         0.00000E+00
    0.00000E+00         0.00000E+00        -0.17838E+08
 
   -0.17675E+08         0.19751E+05         0.00000E+00
    0.19751E+05        -0.19598E+07         0.00000E+00
    0.00000E+00         0.00000E+00        -0.17800E+08
 
   -0.17635E+08         0.20180E+05         0.00000E+00
    0.20180E+05        -0.19598E+07         0.00000E+00
    0.00000E+00         0.00000E+00        -0.17762E+08
 
   -0.17594E+08         0.20611E+05         0.00000E+00
    0.20611E+05        -0.19598E+07         0.00000E+00
    0.00000E+00         0.00000E+00        -0.17723E+08
 
   -0.17553E+08         0.21042E+05         0.00000E+00
    0.21042E+05        -0.19598E+07         0.00000E+00
    0.00000E+00         0.00000E+00        -0.17683E+08
 
   -0.17510E+08         0.21474E+05         0.00000E+00
    0.21474E+05        -0.19598E+07         0.00000E+00
    0.00000E+00         0.00000E+00        -0.17642E+08
 
   -0.17467E+08         0.21907E+05         0.00000E+00
    0.21907E+05        -0.19598E+07         0.00000E+00
    0.00000E+00         0.00000E+00        -0.17600E+08
 
   -0.17423E+08         0.22340E+05         0.00000E+00
    0.22340E+05        -0.19598E+07         0.00000E+00
    0.00000E+00         0.00000E+00        -0.17557E+08
 
   -0.17378E+08         0.22773E+05         0.00000E+00
    0.22773E+05        -0.19598E+07         0.00000E+00
    0.00000E+00         0.00000E+00        -0.17513E+08
 
   -0.17332E+08         0.23206E+05         0.00000E+00
    0.23206E+05        -0.19598E+07         0.00000E+00
    0.00000E+00         0.00000E+00        -0.17469E+08
 
   -0.17285E+08         0.23637E+05         0.00000E+00
    0.23637E+05        -0.19598E+07         0.00000E+00
    0.00000E+00         0.00000E+00        -0.17423E+08
 
   -0.17237E+08         0.24067E+05         0.00000E+00
    0.24067E+05        -0.19598E+07         0.00000E+00
    0.00000E+00         0.00000E+00        -0.17376E+08
 
   -0.17189E+08         0.24494E+05         0.00000E+00
    0.24494E+05        -0.19598E+07         0.00000E+00
    0.00000E+00         0.00000E+00        -0.17328E+08
 
   -0.17140E+08         0.24919E+05         0.00000E+00
    0.24919E+05        -0.19598E+07         0.00000E+00
    0.00000E+00         0.00000E+00        -0.17279E+08
 
   -0.17089E+08         0.25340E+05         0.00000E+00
    0.25340E+05        -0.19598E+07         0.00000E+00
    0.00000E+00         0.00000E+00        -0.17230E+08
 
   -0.17038E+08         0.25756E+05         0.00000E+00
    0.25756E+05        -0.19598E+07         0.00000E+00
    0.00000E+00         0.00000E+00        -0.17179E+08
 
   -0.16986E+08         0.26167E+05         0.00000E+00
    0.26167E+05        -0.19598E+07         0.00000E+00
    0.00000E+00         0.00000E+00        -0.17127E+08
 
   -0.16934E+08         0.26571E+05         0.00000E+00
    0.26571E+05        -0.19598E+07         0.00000E+00
    0.00000E+00         0.00000E+00        -0.17074E+08
 
   -0.16880E+08         0.26967E+05         0.00000E+00
    0.26967E+05        -0.19598E+07         0.00000E+00
    0.00000E+00         0.00000E+00        -0.17020E+08
 
   -0.16826E+08         0.27355E+05         0.00000E+00
    0.27355E+05        -0.19598E+07         0.00000E+00
    0.00000E+00         0.00000E+00        -0.16965E+08
 
   -0.16771E+08         0.27732E+05         0.00000E+00
    0.27732E+05        -0.19598E+07         0.00000E+00
    0.00000E+00         0.00000E+00        -0.16908E+08
 
   -0.16715E+08         0.28097E+05         0.00000E+00
    0.28097E+05        -0.19598E+07         0.00000E+00
    0.00000E+00         0.00000E+00        -0.16851E+08
 
   -0.16659E+08         0.28450E+05         0.00000E+00
    0.28450E+05        -0.19598E+07         0.00000E+00
    0.00000E+00         0.00000E+00        -0.16793E+08
 
   -0.16601E+08         0.28787E+05         0.00000E+00
    0.28787E+05        -0.19598E+07         0.00000E+00
    0.00000E+00         0.00000E+00        -0.16734E+08
 
   -0.16543E+08         0.29108E+05         0.00000E+00
    0.29108E+05        -0.19598E+07         0.00000E+00
    0.00000E+00         0.00000E+00        -0.16673E+08
 
   -0.16485E+08         0.29411E+05         0.00000E+00
    0.29411E+05        -0.19598E+07         0.00000E+00
    0.00000E+00         0.00000E+00        -0.16612E+08
 
   -0.16426E+08         0.29693E+05         0.00000E+00
    0.29693E+05        -0.19598E+07         0.00000E+00
    0.00000E+00         0.00000E+00        -0.16549E+08
 
   -0.16366E+08         0.29953E+05         0.00000E+00
    0.29953E+05        -0.19598E+07         0.00000E+00
    0.00000E+00         0.00000E+00        -0.16486E+08
 
   -0.16306E+08         0.30188E+05         0.00000E+00
    0.30188E+05        -0.19598E+07         0.00000E+00
    0.00000E+00         0.00000E+00        -0.16421E+08
 
   -0.16245E+08         0.30395E+05         0.00000E+00
    0.30395E+05        -0.19598E+07         0.00000E+00
    0.00000E+00         0.00000E+00        -0.16355E+08
 
   -0.16184E+08         0.30571E+05         0.00000E+00
    0.30571E+05        -0.19598E+07         0.00000E+00
    0.00000E+00         0.00000E+00        -0.16289E+08
 
   -0.16123E+08         0.30715E+05         0.00000E+00
    0.30715E+05        -0.19598E+07         0.00000E+00
    0.00000E+00         0.00000E+00        -0.16221E+08
 
   -0.16061E+08         0.30822E+05         0.00000E+00
    0.30822E+05        -0.19599E+07         0.00000E+00
    0.00000E+00         0.00000E+00        -0.16153E+08
 
   -0.15999E+08         0.30888E+05         0.00000E+00
    0.30888E+05        -0.19599E+07         0.00000E+00
    0.00000E+00         0.00000E+00        -0.16083E+08
 
   -0.15938E+08         0.30909E+05         0.00000E+00
    0.30909E+05        -0.19599E+07         0.00000E+00
    0.00000E+00         0.00000E+00        -0.16013E+08
 
   -0.15876E+08         0.30882E+05         0.00000E+00
    0.30882E+05        -0.19599E+07         0.00000E+00
    0.00000E+00         0.00000E+00        -0.15942E+08
 
   -0.15814E+08         0.30799E+05         0.00000E+00
    0.30799E+05        -0.19599E+07         0.00000E+00
    0.00000E+00         0.00000E+00        -0.15870E+08
 
   -0.15752E+08         0.30655E+05         0.00000E+00
    0.30655E+05        -0.19599E+07         0.00000E+00
    0.00000E+00         0.00000E+00        -0.15797E+08
 
   -0.15691E+08         0.30442E+05         0.00000E+00
    0.30442E+05        -0.19599E+07         0.00000E+00
    0.00000E+00         0.00000E+00        -0.15724E+08
 
   -0.15630E+08         0.30151E+05         0.00000E+00
    0.30151E+05        -0.19600E+07         0.00000E+00
    0.00000E+00         0.00000E+00        -0.15650E+08
 
   -0.15570E+08         0.29773E+05         0.00000E+00
    0.29773E+05        -0.19600E+07         0.00000E+00
    0.00000E+00         0.00000E+00        -0.15575E+08
 
   -0.15511E+08         0.29294E+05         0.00000E+00
    0.29294E+05        -0.19600E+07         0.00000E+00
    0.00000E+00         0.00000E+00        -0.15500E+08
 
   -0.15453E+08         0.28700E+05         0.00000E+00
    0.28700E+05        -0.19600E+07         0.00000E+00
    0.00000E+00         0.00000E+00        -0.15425E+08
 
   -0.15396E+08         0.27975E+05         0.00000E+00
    0.27975E+05        -0.19601E+07         0.00000E+00
    0.00000E+00         0.00000E+00        -0.15349E+08
 
   -0.15341E+08         0.27097E+05         0.00000E+00
    0.27097E+05        -0.19601E+07         0.00000E+00
    0.00000E+00         0.00000E+00        -0.15273E+08
 
   -0.15287E+08         0.26043E+05         0.00000E+00
    0.26043E+05        -0.19602E+07         0.00000E+00
    0.00000E+00         0.00000E+00        -0.15196E+08
 
   -0.15236E+08         0.24786E+05         0.00000E+00
    0.24786E+05        -0.19602E+07         0.00000E+00
    0.00000E+00         0.00000E+00        -0.15120E+08
 
   -0.15187E+08         0.23296E+05         0.00000E+00
    0.23296E+05        -0.19603E+07         0.00000E+00
    0.00000E+00         0.00000E+00        -0.15044E+08
 
   -0.15142E+08         0.21538E+05         0.00000E+00
    0.21538E+05        -0.19603E+07         0.00000E+00
    0.00000E+00         0.00000E+00        -0.14968E+08
 
   -0.15100E+08         0.19477E+05         0.00000E+00
    0.19477E+05        -0.19604E+07         0.00000E+00
    0.00000E+00         0.00000E+00        -0.14893E+08
 
   -0.15063E+08         0.17077E+05         0.00000E+00
    0.17077E+05        -0.19605E+07         0.00000E+00
    0.00000E+00         0.00000E+00        -0.14818E+08
 
   -0.15031E+08         0.14303E+05         0.00000E+00
    0.14303E+05        -0.19606E+07         0.00000E+00
    0.00000E+00         0.00000E+00        -0.14745E+08
 
   -0.15004E+08         0.11126E+05         0.00000E+00
    0.11126E+05        -0.19607E+07         0.00000E+00
    0.00000E+00         0.00000E+00        -0.14673E+08
 
   -0.14983E+08         0.75285E+04         0.00000E+00
    0.75285E+04        -0.19608E+07         0.00000E+00
    0.00000E+00         0.00000E+00        -0.14602E+08
 
   -0.14970E+08         0.35089E+04         0.00000E+00
    0.35089E+04        -0.19609E+07         0.00000E+00
    0.00000E+00         0.00000E+00        -0.14532E+08
 
   -0.14965E+08        -0.91248E+03         0.00000E+00
   -0.91248E+03        -0.19610E+07         0.00000E+00
    0.00000E+00         0.00000E+00        -0.14465E+08
 
   -0.14968E+08        -0.56803E+04         0.00000E+00
   -0.56803E+04        -0.19611E+07         0.00000E+00
    0.00000E+00         0.00000E+00        -0.14400E+08
 
   -0.14980E+08        -0.10711E+05         0.00000E+00
   -0.10711E+05        -0.19612E+07         0.00000E+00
    0.00000E+00         0.00000E+00        -0.14338E+08
 
   -0.15001E+08        -0.15879E+05         0.00000E+00
   -0.15879E+05        -0.19613E+07         0.00000E+00
    0.00000E+00         0.00000E+00        -0.14277E+08
 
   -0.15030E+08        -0.20986E+05         0.00000E+00
   -0.20986E+05        -0.19612E+07         0.00000E+00
    0.00000E+00         0.00000E+00        -0.14219E+08
 
   -0.15068E+08        -0.25974E+05         0.00000E+00
   -0.25974E+05        -0.19614E+07         0.00000E+00
    0.00000E+00         0.00000E+00        -0.14164E+08
 
   -0.15112E+08        -0.29778E+05         0.00000E+00
   -0.29778E+05        -0.19608E+07         0.00000E+00
    0.00000E+00         0.00000E+00        -0.14110E+08
 
   -0.15159E+08        -0.34232E+05         0.00000E+00
   -0.34232E+05        -0.19619E+07         0.00000E+00
    0.00000E+00         0.00000E+00        -0.14057E+08
 
   -0.15186E+08        -0.23410E+05         0.00000E+00
   -0.23410E+05        -0.19601E+07         0.00000E+00
    0.00000E+00         0.00000E+00        -0.13997E+08
 
   -0.18375E+08        -0.47140E+04         0.00000E+00
   -0.47140E+04        -0.19583E+07         0.00000E+00
    0.00000E+00         0.00000E+00        -0.18692E+08
 
   -0.18384E+08        -0.47982E+04         0.00000E+00
   -0.47982E+04        -0.19601E+07         0.00000E+00
    0.00000E+00         0.00000E+00        -0.18681E+08
 
   -0.18395E+08        -0.37362E+04         0.00000E+00
   -0.37362E+04        -0.19598E+07         0.00000E+00
    0.00000E+00         0.00000E+00        -0.18670E+08
 
   -0.18405E+08        -0.30087E+04         0.00000E+00
   -0.30087E+04        -0.19599E+07         0.00000E+00
    0.00000E+00         0.00000E+00        -0.18658E+08
 
   -0.18412E+08        -0.20724E+04         0.00000E+00
   -0.20724E+04        -0.19599E+07         0.00000E+00
    0.00000E+00         0.00000E+00        -0.18645E+08
 
   -0.18416E+08        -0.12023E+04         0.00000E+00
   -0.12023E+04        -0.19599E+07         0.00000E+00
    0.00000E+00         0.00000E+00        -0.18632E+08
 
   -0.18418E+08        -0.31327E+03         0.00000E+00
   -0.31327E+03        -0.19599E+07         0.00000E+00
    0.00000E+00         0.00000E+00        -0.18617E+08
 
   -0.18417E+08         0.53548E+03         0.00000E+00
    0.53548E+03        -0.19599E+07         0.00000E+00
    0.00000E+00         0.00000E+00        -0.18602E+08
 
   -0.18413E+08         0.13479E+04         0.00000E+00
    0.13479E+04        -0.19599E+07         0.00000E+00
    0.00000E+00         0.00000E+00        -0.18586E+08
 
   -0.18407E+08         0.21077E+04         0.00000E+00
    0.21077E+04        -0.19599E+07         0.00000E+00
    0.00000E+00         0.00000E+00        -0.18569E+08
 
   -0.18398E+08         0.28128E+04         0.00000E+00
    0.28128E+04        -0.19599E+07         0.00000E+00
    0.00000E+00         0.00000E+00        -0.18551E+08
 
   -0.18388E+08         0.34604E+04         0.00000E+00
    0.34604E+04        -0.19599E+07         0.00000E+00
    0.00000E+00         0.00000E+00        -0.18532E+08
 
   -0.18375E+08         0.40528E+04         0.00000E+00
    0.40528E+04        -0.19599E+07         0.00000E+00
    0.00000E+00         0.00000E+00        -0.18513E+08
 
   -0.18361E+08         0.45932E+04         0.00000E+00
    0.45932E+04        -0.19599E+07         0.00000E+00
    0.00000E+00         0.00000E+00        -0.18492E+08
 
   -0.18345E+08         0.50864E+04         0.00000E+00
    0.50864E+04        -0.19599E+07         0.00000E+00
    0.00000E+00         0.00000E+00        -0.18471E+08
 
   -0.18327E+08         0.55379E+04         0.00000E+00
    0.55379E+04        -0.19599E+07         0.00000E+00
    0.00000E+00         0.00000E+00        -0.18450E+08
 
   -0.18308E+08         0.59531E+04         0.00000E+00
    0.59531E+04        -0.19599E+07         0.00000E+00
    0.00000E+00         0.00000E+00        -0.18427E+08
 
   -0.18287E+08         0.63374E+04         0.00000E+00
    0.63374E+04        -0.19599E+07         0.00000E+00
    0.00000E+00         0.00000E+00        -0.18404E+08
 
   -0.18266E+08         0.66955E+04         0.00000E+00
    0.66955E+04        -0.19599E+07         0.00000E+00
    0.00000E+00         0.00000E+00        -0.18380E+08
 
   -0.18243E+08         0.70319E+04         0.00000E+00
    0.70319E+04        -0.19599E+07         0.00000E+00
    0.00000E+00         0.00000E+00        -0.18356E+08
 
   -0.18219E+08         0.73503E+04         0.00000E+00
    0.73503E+04        -0.19599E+07         0.00000E+00
    0.00000E+00         0.00000E+00        -0.18331E+08
 
   -0.18194E+08         0.76542E+04         0.00000E+00
    0.76542E+04        -0.19599E+07         0.00000E+00
    0.00000E+00         0.00000E+00        -0.18305E+08
 
   -0.18168E+08         0.79464E+04         0.00000E+00
    0.79464E+04        -0.19599E+07         0.00000E+00
    0.00000E+00         0.00000E+00        -0.18279E+08
 
   -0.18141E+08         0.82291E+04         0.00000E+00
    0.82291E+04        -0.19599E+07         0.00000E+00
    0.00000E+00         0.00000E+00        -0.18252E+08
 
   -0.18113E+08         0.85043E+04         0.00000E+00
    0.85043E+04        -0.19599E+07         0.00000E+00
    0.00000E+00         0.00000E+00        -0.18225E+08
 
   -0.18084E+08         0.87737E+04         0.00000E+00
    0.87737E+04        -0.19599E+07         0.00000E+00
    0.00000E+00         0.00000E+00        -0.18196E+08
 
   -0.18055E+08         0.90386E+04         0.00000E+00
    0.90386E+04        -0.19599E+07         0.00000E+00
    0.00000E+00         0.00000E+00        -0.18167E+08
 
   -0.18024E+08         0.93001E+04         0.00000E+00
    0.93001E+04        -0.19599E+07         0.00000E+00
    0.00000E+00         0.00000E+00        -0.18138E+08
 
   -0.17993E+08         0.95591E+04         0.00000E+00
    0.95591E+04        -0.19599E+07         0.00000E+00
    0.00000E+00         0.00000E+00        -0.18107E+08
 
   -0.17961E+08         0.98163E+04         0.00000E+00
    0.98163E+04        -0.19599E+07         0.00000E+00
    0.00000E+00         0.00000E+00        -0.18076E+08
 
   -0.17928E+08         0.10072E+05         0.00000E+00
    0.10072E+05        -0.19599E+07         0.00000E+00
    0.00000E+00         0.00000E+00        -0.18044E+08
 
   -0.17894E+08         0.10328E+05         0.00000E+00
    0.10328E+05        -0.19599E+07         0.00000E+00
    0.00000E+00         0.00000E+00        -0.18012E+08
 
   -0.17859E+08         0.10583E+05         0.00000E+00
    0.10583E+05        -0.19599E+07         0.00000E+00
    0.00000E+00         0.00000E+00        -0.17978E+08
 
   -0.17823E+08         0.10838E+05         0.00000E+00
    0.10838E+05        -0.19599E+07         0.00000E+00
    0.00000E+00         0.00000E+00        -0.17944E+08
 
   -0.17787E+08         0.11093E+05         0.00000E+00
    0.11093E+05        -0.19599E+07         0.00000E+00
    0.00000E+00         0.00000E+00        -0.17909E+08
 
   -0.17750E+08         0.11349E+05         0.00000E+00
    0.11349E+05        -0.19599E+07         0.00000E+00
    0.00000E+00         0.00000E+00        -0.17874E+08
 
   -0.17711E+08         0.11605E+05         0.00000E+00
    0.11605E+05        -0.19599E+07         0.00000E+00
    0.00000E+00         0.00000E+00        -0.17837E+08
 
   -0.17672E+08         0.11862E+05         0.00000E+00
    0.11862E+05        -0.19599E+07         0.00000E+00
    0.00000E+00         0.00000E+00        -0.17800E+08
 
   -0.17632E+08         0.12119E+05         0.00000E+00
    0.12119E+05        -0.19599E+07         0.00000E+00
    0.00000E+00         0.00000E+00        -0.17761E+08
 
   -0.17592E+08         0.12377E+05         0.00000E+00
    0.12377E+05        -0.19599E+07         0.00000E+00
    0.00000E+00         0.00000E+00        -0.17722E+08
 
   -0.17550E+08         0.12636E+05         0.00000E+00
    0.12636E+05        -0.19599E+07         0.00000E+00
    0.00000E+00         0.00000E+00        -0.17682E+08
 
   -0.17508E+08         0.12895E+05         0.00000E+00
    0.12895E+05        -0.19599E+07         0.00000E+00
    0.00000E+00         0.00000E+00        -0.17641E+08
 
   -0.17464E+08         0.13155E+05         0.00000E+00
    0.13155E+05        -0.19599E+07         0.00000E+00
    0.00000E+00         0.00000E+00        -0.17599E+08
 
   -0.17420E+08         0.13414E+05         0.00000E+00
    0.13414E+05        -0.19599E+07         0.00000E+00
    0.00000E+00         0.00000E+00        -0.17556E+08
 
   -0.17375E+08         0.13674E+05         0.00000E+00
    0.13674E+05        -0.19599E+07         0.00000E+00
    0.00000E+00         0.00000E+00        -0.17512E+08
 
   -0.17329E+08         0.13933E+05         0.00000E+00
    0.13933E+05        -0.19599E+07         0.00000E+00
    0.00000E+00         0.00000E+00        -0.17468E+08
 
   -0.17282E+08         0.14191E+05         0.00000E+00
    0.14191E+05        -0.19599E+07         0.00000E+00
    0.00000E+00         0.00000E+00        -0.17422E+08
 
   -0.17234E+08         0.14449E+05         0.00000E+00
    0.14449E+05        -0.19599E+07         0.00000E+00
    0.00000E+00         0.00000E+00        -0.17375E+08
 
   -0.17186E+08         0.14705E+05         0.00000E+00
    0.14705E+05        -0.19599E+07         0.00000E+00
    0.00000E+00         0.00000E+00        -0.17327E+08
 
   -0.17136E+08         0.14959E+05         0.00000E+00
    0.14959E+05        -0.19599E+07         0.00000E+00
    0.00000E+00         0.00000E+00        -0.17278E+08
 
   -0.17086E+08         0.15211E+05         0.00000E+00
    0.15211E+05        -0.19599E+07         0.00000E+00
    0.00000E+00         0.00000E+00        -0.17229E+08
 
   -0.17035E+08         0.15460E+05         0.00000E+00
    0.15460E+05        -0.19599E+07         0.00000E+00
    0.00000E+00         0.00000E+00        -0.17178E+08
 
   -0.16983E+08         0.15706E+05         0.00000E+00
    0.15706E+05        -0.19599E+07         0.00000E+00
    0.00000E+00         0.00000E+00        -0.17126E+08
 
   -0.16931E+08         0.15948E+05         0.00000E+00
    0.15948E+05        -0.19599E+07         0.00000E+00
    0.00000E+00         0.00000E+00        -0.17073E+08
 
   -0.16877E+08         0.16185E+05         0.00000E+00
    0.16185E+05        -0.19598E+07         0.00000E+00
    0.00000E+00         0.00000E+00        -0.17019E+08
 
   -0.16823E+08         0.16417E+05         0.00000E+00
    0.16417E+05        -0.19598E+07         0.00000E+00
    0.00000E+00         0.00000E+00        -0.16964E+08
 
   -0.16768E+08         0.16642E+05         0.00000E+00
    0.16642E+05        -0.19598E+07         0.00000E+00
    0.00000E+00         0.00000E+00        -0.16907E+08
 
   -0.16712E+08         0.16861E+05         0.00000E+00
    0.16861E+05        -0.19598E+07         0.00000E+00
    0.00000E+00         0.00000E+00        -0.16850E+08
 
   -0.16655E+08         0.17071E+05         0.00000E+00
    0.17071E+05        -0.19598E+07         0.00000E+00
    0.00000E+00         0.00000E+00        -0.16792E+08
 
   -0.16598E+08         0.17273E+05         0.00000E+00
    0.17273E+05        -0.19598E+07         0.00000E+00
    0.00000E+00         0.00000E+00        -0.16733E+08
 
   -0.16540E+08         0.17464E+05         0.00000E+00
    0.17464E+05        -0.19598E+07         0.00000E+00
    0.00000E+00         0.00000E+00        -0.16672E+08
 
   -0.16482E+08         0.17645E+05         0.00000E+00
    0.17645E+05        -0.19599E+07         0.00000E+00
    0.00000E+00         0.00000E+00        -0.16611E+08
 
   -0.16422E+08         0.17813E+05         0.00000E+00
    0.17813E+05        -0.19599E+07         0.00000E+00
    0.00000E+00         0.00000E+00        -0.16548E+08
 
   -0.16363E+08         0.17968E+05         0.00000E+00
    0.17968E+05        -0.19599E+07         0.00000E+00
    0.00000E+00         0.00000E+00        -0.16485E+08
 
   -0.16303E+08         0.18108E+05         0.00000E+00
    0.18108E+05        -0.19599E+07         0.00000E+00
    0.00000E+00         0.00000E+00        -0.16420E+08
 
   -0.16242E+08         0.18231E+05         0.00000E+00
    0.18231E+05        -0.19599E+07         0.00000E+00
    0.00000E+00         0.00000E+00        -0.16354E+08
 
   -0.16181E+08         0.18335E+05         0.00000E+00
    0.18335E+05        -0.19599E+07         0.00000E+00
    0.00000E+00         0.00000E+00        -0.16288E+08
 
   -0.16120E+08         0.18420E+05         0.00000E+00
    0.18420E+05        -0.19599E+07         0.00000E+00
    0.00000E+00         0.00000E+00        -0.16220E+08
 
   -0.16058E+08         0.18483E+05         0.00000E+00
    0.18483E+05        -0.19599E+07         0.00000E+00
    0.00000E+00         0.00000E+00        -0.16152E+08
 
   -0.15996E+08         0.18522E+05         0.00000E+00
    0.18522E+05        -0.19599E+07         0.00000E+00
    0.00000E+00         0.00000E+00        -0.16083E+08
 
   -0.15935E+08         0.18533E+05         0.00000E+00
    0.18533E+05        -0.19599E+07         0.00000E+00
    0.00000E+00         0.00000E+00        -0.16012E+08
 
   -0.15873E+08         0.18515E+05         0.00000E+00
    0.18515E+05        -0.19599E+07         0.00000E+00
    0.00000E+00         0.00000E+00        -0.15941E+08
 
   -0.15811E+08         0.18464E+05         0.00000E+00
    0.18464E+05        -0.19599E+07         0.00000E+00
    0.00000E+00         0.00000E+00        -0.15869E+08
 
   -0.15750E+08         0.18376E+05         0.00000E+00
    0.18376E+05        -0.19599E+07         0.00000E+00
    0.00000E+00         0.00000E+00        -0.15797E+08
 
   -0.15688E+08         0.18247E+05         0.00000E+00
    0.18247E+05        -0.19599E+07         0.00000E+00
    0.00000E+00         0.00000E+00        -0.15723E+08
 
   -0.15628E+08         0.18072E+05         0.00000E+00
    0.18072E+05        -0.19599E+07         0.00000E+00
    0.00000E+00         0.00000E+00        -0.15649E+08
 
   -0.15568E+08         0.17843E+05         0.00000E+00
    0.17843E+05        -0.19599E+07         0.00000E+00
    0.00000E+00         0.00000E+00        -0.15575E+08
 
   -0.15509E+08         0.17554E+05         0.00000E+00
    0.17554E+05        -0.19599E+07         0.00000E+00
    0.00000E+00         0.00000E+00        -0.15500E+08
 
   -0.15451E+08         0.17196E+05         0.00000E+00
    0.17196E+05        -0.19599E+07         0.00000E+00
    0.00000E+00         0.00000E+00        -0.15424E+08
 
   -0.15394E+08         0.16757E+05         0.00000E+00
    0.16757E+05        -0.19599E+07         0.00000E+00
    0.00000E+00         0.00000E+00        -0.15348E+08
 
   -0.15339E+08         0.16227E+05         0.00000E+00
    0.16227E+05        -0.19600E+07         0.00000E+00
    0.00000E+00         0.00000E+00        -0.15272E+08
 
   -0.15285E+08         0.15589E+05         0.00000E+00
    0.15589E+05        -0.19600E+07         0.00000E+00
    0.00000E+00         0.00000E+00        -0.15196E+08
 
   -0.15235E+08         0.14827E+05         0.00000E+00
    0.14827E+05        -0.19600E+07         0.00000E+00
    0.00000E+00         0.00000E+00        -0.15120E+08
 
   -0.15186E+08         0.13922E+05         0.00000E+00
    0.13922E+05        -0.19600E+07         0.00000E+00
    0.00000E+00         0.00000E+00        -0.15044E+08
 
   -0.15141E+08         0.12854E+05         0.00000E+00
    0.12854E+05        -0.19600E+07         0.00000E+00
    0.00000E+00         0.00000E+00        -0.14968E+08
 
   -0.15100E+08         0.11598E+05         0.00000E+00
    0.11598E+05        -0.19601E+07         0.00000E+00
    0.00000E+00         0.00000E+00        -0.14893E+08
 
   -0.15063E+08         0.10131E+05         0.00000E+00
    0.10131E+05        -0.19601E+07         0.00000E+00
    0.00000E+00         0.00000E+00        -0.14818E+08
 
   -0.15031E+08         0.84326E+04         0.00000E+00
    0.84326E+04        -0.19601E+07         0.00000E+00
    0.00000E+00         0.00000E+00        -0.14745E+08
 
   -0.15006E+08         0.64815E+04         0.00000E+00
    0.64815E+04        -0.19602E+07         0.00000E+00
    0.00000E+00         0.00000E+00        -0.14673E+08
 
   -0.14986E+08         0.42661E+04         0.00000E+00
    0.42661E+04        -0.19602E+07         0.00000E+00
    0.00000E+00         0.00000E+00        -0.14602E+08
 
   -0.14975E+08         0.17804E+04         0.00000E+00
    0.17804E+04        -0.19602E+07         0.00000E+00
    0.00000E+00         0.00000E+00        -0.14534E+08
 
   -0.14971E+08        -0.95929E+03         0.00000E+00
   -0.95929E+03        -0.19603E+07         0.00000E+00
    0.00000E+00         0.00000E+00        -0.14467E+08
 
   -0.14976E+08        -0.39387E+04         0.00000E+00
   -0.39387E+04        -0.19603E+07         0.00000E+00
    0.00000E+00         0.00000E+00        -0.14403E+08
 
   -0.14991E+08        -0.70772E+04         0.00000E+00
   -0.70772E+04        -0.19603E+07         0.00000E+00
    0.00000E+00         0.00000E+00        -0.14341E+08
 
   -0.15016E+08        -0.10388E+05         0.00000E+00
   -0.10388E+05        -0.19604E+07         0.00000E+00
    0.00000E+00         0.00000E+00        -0.14282E+08
 
   -0.15050E+08        -0.13592E+05         0.00000E+00
   -0.13592E+05        -0.19603E+07         0.00000E+00
    0.00000E+00         0.00000E+00        -0.14225E+08
 
   -0.15095E+08        -0.17078E+05         0.00000E+00
   -0.17078E+05        -0.19605E+07         0.00000E+00
    0.00000E+00         0.00000E+00        -0.14172E+08
 
   -0.15146E+08        -0.19569E+05         0.00000E+00
   -0.19569E+05        -0.19606E+07         0.00000E+00
    0.00000E+00         0.00000E+00        -0.14120E+08
 
   -0.15205E+08        -0.23569E+05         0.00000E+00
   -0.23569E+05        -0.19593E+07         0.00000E+00
    0.00000E+00         0.00000E+00        -0.14070E+08
 
   -0.15250E+08        -0.22239E+05         0.00000E+00
   -0.22239E+05        -0.19678E+07         0.00000E+00
    0.00000E+00         0.00000E+00        -0.14019E+08
 
   -0.18358E+08        -0.40134E+04         0.00000E+00
   -0.40134E+04        -0.19569E+07         0.00000E+00
    0.00000E+00         0.00000E+00        -0.18687E+08
 
   -0.18374E+08        -0.15886E+04         0.00000E+00
   -0.15886E+04        -0.19612E+07         0.00000E+00
    0.00000E+00         0.00000E+00        -0.18678E+08
 
   -0.18388E+08        -0.16635E+04         0.00000E+00
   -0.16635E+04        -0.19595E+07         0.00000E+00
    0.00000E+00         0.00000E+00        -0.18667E+08
 
   -0.18399E+08        -0.11468E+04         0.00000E+00
   -0.11468E+04        -0.19602E+07         0.00000E+00
    0.00000E+00         0.00000E+00        -0.18656E+08
 
   -0.18407E+08        -0.85399E+03         0.00000E+00
   -0.85399E+03        -0.19599E+07         0.00000E+00
    0.00000E+00         0.00000E+00        -0.18644E+08
 
   -0.18412E+08        -0.50545E+03         0.00000E+00
   -0.50545E+03        -0.19600E+07         0.00000E+00
    0.00000E+00         0.00000E+00        -0.18631E+08
 
   -0.18415E+08        -0.19191E+03         0.00000E+00
   -0.19191E+03        -0.19600E+07         0.00000E+00
    0.00000E+00         0.00000E+00        -0.18616E+08
 
   -0.18414E+08         0.11526E+03         0.00000E+00
    0.11526E+03        -0.19600E+07         0.00000E+00
    0.00000E+00         0.00000E+00        -0.18601E+08
 
   -0.18411E+08         0.40160E+03         0.00000E+00
    0.40160E+03        -0.19600E+07         0.00000E+00
    0.00000E+00         0.00000E+00        -0.18585E+08
 
   -0.18405E+08         0.66889E+03         0.00000E+00
    0.66889E+03        -0.19600E+07         0.00000E+00
    0.00000E+00         0.00000E+00        -0.18568E+08
 
   -0.18397E+08         0.91443E+03         0.00000E+00
    0.91443E+03        -0.19600E+07         0.00000E+00
    0.00000E+00         0.00000E+00        -0.18550E+08
 
   -0.18386E+08         0.11388E+04         0.00000E+00
    0.11388E+04        -0.19600E+07         0.00000E+00
    0.00000E+00         0.00000E+00        -0.18532E+08
 
   -0.18374E+08         0.13427E+04         0.00000E+00
    0.13427E+04        -0.19600E+07         0.00000E+00
    0.00000E+00         0.00000E+00        -0.18512E+08
 
   -0.18359E+08         0.15277E+04         0.00000E+00
    0.15277E+04        -0.19600E+07         0.00000E+00
    0.00000E+00         0.00000E+00        -0.18492E+08
 
   -0.18343E+08         0.16957E+04         0.00000E+00
    0.16957E+04        -0.19600E+07         0.00000E+00
    0.00000E+00         0.00000E+00        -0.18471E+08
 
   -0.18325E+08         0.18488E+04         0.00000E+00
    0.18488E+04        -0.19600E+07         0.00000E+00
    0.00000E+00         0.00000E+00        -0.18449E+08
 
   -0.18306E+08         0.19890E+04         0.00000E+00
    0.19890E+04        -0.19600E+07         0.00000E+00
    0.00000E+00         0.00000E+00        -0.18427E+08
 
   -0.18286E+08         0.21184E+04         0.00000E+00
    0.21184E+04        -0.19600E+07         0.00000E+00
    0.00000E+00         0.00000E+00        -0.18404E+08
 
   -0.18264E+08         0.22386E+04         0.00000E+00
    0.22386E+04        -0.19600E+07         0.00000E+00
    0.00000E+00         0.00000E+00        -0.18380E+08
 
   -0.18241E+08         0.23513E+04         0.00000E+00
    0.23513E+04        -0.19600E+07         0.00000E+00
    0.00000E+00         0.00000E+00        -0.18356E+08
 
   -0.18217E+08         0.24578E+04         0.00000E+00
    0.24578E+04        -0.19600E+07         0.00000E+00
    0.00000E+00         0.00000E+00        -0.18331E+08
 
   -0.18192E+08         0.25593E+04         0.00000E+00
    0.25593E+04        -0.19600E+07         0.00000E+00
    0.00000E+00         0.00000E+00        -0.18305E+08
 
   -0.18166E+08         0.26568E+04         0.00000E+00
    0.26568E+04        -0.19600E+07         0.00000E+00
    0.00000E+00         0.00000E+00        -0.18279E+08
 
   -0.18139E+08         0.27511E+04         0.00000E+00
    0.27511E+04        -0.19599E+07         0.00000E+00
    0.00000E+00         0.00000E+00        -0.18252E+08
 
   -0.18111E+08         0.28429E+04         0.00000E+00
    0.28429E+04        -0.19599E+07         0.00000E+00
    0.00000E+00         0.00000E+00        -0.18224E+08
 
   -0.18083E+08         0.29327E+04         0.00000E+00
    0.29327E+04        -0.19599E+07         0.00000E+00
    0.00000E+00         0.00000E+00        -0.18196E+08
 
   -0.18053E+08         0.30209E+04         0.00000E+00
    0.30209E+04        -0.19599E+07         0.00000E+00
    0.00000E+00         0.00000E+00        -0.18167E+08
 
   -0.18022E+08         0.31081E+04         0.00000E+00
    0.31081E+04        -0.19599E+07         0.00000E+00
    0.00000E+00         0.00000E+00        -0.18137E+08
 
   -0.17991E+08         0.31944E+04         0.00000E+00
    0.31944E+04        -0.19599E+07         0.00000E+00
    0.00000E+00         0.00000E+00        -0.18107E+08
 
   -0.17959E+08         0.32801E+04         0.00000E+00
    0.32801E+04        -0.19599E+07         0.00000E+00
    0.00000E+00         0.00000E+00        -0.18076E+08
 
   -0.17926E+08         0.33654E+04         0.00000E+00
    0.33654E+04        -0.19599E+07         0.00000E+00
    0.00000E+00         0.00000E+00        -0.18044E+08
 
   -0.17892E+08         0.34505E+04         0.00000E+00
    0.34505E+04        -0.19599E+07         0.00000E+00
    0.00000E+00         0.00000E+00        -0.18011E+08
 
   -0.17857E+08         0.35355E+04         0.00000E+00
    0.35355E+04        -0.19599E+07         0.00000E+00
    0.00000E+00         0.00000E+00        -0.17978E+08
 
   -0.17821E+08         0.36205E+04         0.00000E+00
    0.36205E+04        -0.19599E+07         0.00000E+00
    0.00000E+00         0.00000E+00        -0.17944E+08
 
   -0.17785E+08         0.37055E+04         0.00000E+00
    0.37055E+04        -0.19599E+07         0.00000E+00
    0.00000E+00         0.00000E+00        -0.17909E+08
 
   -0.17747E+08         0.37907E+04         0.00000E+00
    0.37907E+04        -0.19599E+07         0.00000E+00
    0.00000E+00         0.00000E+00        -0.17873E+08
 
   -0.17709E+08         0.38761E+04         0.00000E+00
    0.38761E+04        -0.19599E+07         0.00000E+00
    0.00000E+00         0.00000E+00        -0.17836E+08
 
   -0.17670E+08         0.39616E+04         0.00000E+00
    0.39616E+04        -0.19599E+07         0.00000E+00
    0.00000E+00         0.00000E+00        -0.17799E+08
 
   -0.17630E+08         0.40473E+04         0.00000E+00
    0.40473E+04        -0.19599E+07         0.00000E+00
    0.00000E+00         0.00000E+00        -0.17761E+08
 
   -0.17589E+08         0.41332E+04         0.00000E+00
    0.41332E+04        -0.19599E+07         0.00000E+00
    0.00000E+00         0.00000E+00        -0.17721E+08
 
   -0.17547E+08         0.42193E+04         0.00000E+00
    0.42193E+04        -0.19599E+07         0.00000E+00
    0.00000E+00         0.00000E+00        -0.17681E+08
 
   -0.17505E+08         0.43055E+04         0.00000E+00
    0.43055E+04        -0.19599E+07         0.00000E+00
    0.00000E+00         0.00000E+00        -0.17640E+08
 
   -0.17461E+08         0.43918E+04         0.00000E+00
    0.43918E+04        -0.19599E+07         0.00000E+00
    0.00000E+00         0.00000E+00        -0.17598E+08
 
   -0.17417E+08         0.44782E+04         0.00000E+00
    0.44782E+04        -0.19599E+07         0.00000E+00
    0.00000E+00         0.00000E+00        -0.17555E+08
 
   -0.17372E+08         0.45644E+04         0.00000E+00
    0.45644E+04        -0.19599E+07         0.00000E+00
    0.00000E+00         0.00000E+00        -0.17512E+08
 
   -0.17326E+08         0.46506E+04         0.00000E+00
    0.46506E+04        -0.19599E+07         0.00000E+00
    0.00000E+00         0.00000E+00        -0.17467E+08
 
   -0.17279E+08         0.47365E+04         0.00000E+00
    0.47365E+04        -0.19599E+07         0.00000E+00
    0.00000E+00         0.00000E+00        -0.17421E+08
 
   -0.17231E+08         0.48220E+04         0.00000E+00
    0.48220E+04        -0.19599E+07         0.00000E+00
    0.00000E+00         0.00000E+00        -0.17374E+08
 
   -0.17183E+08         0.49071E+04         0.00000E+00
    0.49071E+04        -0.19599E+07         0.00000E+00
    0.00000E+00         0.00000E+00        -0.17326E+08
 
   -0.17133E+08         0.49915E+04         0.00000E+00
    0.49915E+04        -0.19599E+07         0.00000E+00
    0.00000E+00         0.00000E+00        -0.17278E+08
 
   -0.17083E+08         0.50752E+04         0.00000E+00
    0.50752E+04        -0.19599E+07         0.00000E+00
    0.00000E+00         0.00000E+00        -0.17228E+08
 
   -0.17032E+08         0.51579E+04         0.00000E+00
    0.51579E+04        -0.19599E+07         0.00000E+00
    0.00000E+00         0.00000E+00        -0.17177E+08
 
   -0.16980E+08         0.52394E+04         0.00000E+00
    0.52394E+04        -0.19599E+07         0.00000E+00
    0.00000E+00         0.00000E+00        -0.17125E+08
 
   -0.16927E+08         0.53196E+04         0.00000E+00
    0.53196E+04        -0.19599E+07         0.00000E+00
    0.00000E+00         0.00000E+00        -0.17072E+08
 
   -0.16874E+08         0.53982E+04         0.00000E+00
    0.53982E+04        -0.19599E+07         0.00000E+00
    0.00000E+00         0.00000E+00        -0.17018E+08
 
   -0.16819E+08         0.54749E+04         0.00000E+00
    0.54749E+04        -0.19599E+07         0.00000E+00
    0.00000E+00         0.00000E+00        -0.16963E+08
 
   -0.16764E+08         0.55496E+04         0.00000E+00
    0.55496E+04        -0.19599E+07         0.00000E+00
    0.00000E+00         0.00000E+00        -0.16907E+08
 
   -0.16708E+08         0.56219E+04         0.00000E+00
    0.56219E+04        -0.19599E+07         0.00000E+00
    0.00000E+00         0.00000E+00        -0.16849E+08
 
   -0.16652E+08         0.56915E+04         0.00000E+00
    0.56915E+04        -0.19599E+07         0.00000E+00
    0.00000E+00         0.00000E+00        -0.16791E+08
 
   -0.16595E+08         0.57581E+04         0.00000E+00
    0.57581E+04        -0.19599E+07         0.00000E+00
    0.00000E+00         0.00000E+00        -0.16732E+08
 
   -0.16537E+08         0.58214E+04         0.00000E+00
    0.58214E+04        -0.19599E+07         0.00000E+00
    0.00000E+00         0.00000E+00        -0.16671E+08
 
   -0.16478E+08         0.58809E+04         0.00000E+00
    0.58809E+04        -0.19599E+07         0.00000E+00
    0.00000E+00         0.00000E+00        -0.16610E+08
 
   -0.16419E+08         0.59363E+04         0.00000E+00
    0.59363E+04        -0.19599E+07         0.00000E+00
    0.00000E+00         0.00000E+00        -0.16547E+08
 
   -0.16360E+08         0.59871E+04         0.00000E+00
    0.59871E+04        -0.19599E+07         0.00000E+00
    0.00000E+00         0.00000E+00        -0.16484E+08
 
   -0.16299E+08         0.60329E+04         0.00000E+00
    0.60329E+04        -0.19599E+07         0.00000E+00
    0.00000E+00         0.00000E+00        -0.16419E+08
 
   -0.16239E+08         0.60731E+04         0.00000E+00
    0.60731E+04        -0.19599E+07         0.00000E+00
    0.00000E+00         0.00000E+00        -0.16354E+08
 
   -0.16178E+08         0.61073E+04         0.00000E+00
    0.61073E+04        -0.19599E+07         0.00000E+00
    0.00000E+00         0.00000E+00        -0.16287E+08
 
   -0.16117E+08         0.61348E+04         0.00000E+00
    0.61348E+04        -0.19599E+07         0.00000E+00
    0.00000E+00         0.00000E+00        -0.16219E+08
 
   -0.16055E+08         0.61549E+04         0.00000E+00
    0.61549E+04        -0.19599E+07         0.00000E+00
    0.00000E+00         0.00000E+00        -0.16151E+08
 
   -0.15993E+08         0.61670E+04         0.00000E+00
    0.61670E+04        -0.19599E+07         0.00000E+00
    0.00000E+00         0.00000E+00        -0.16082E+08
 
   -0.15932E+08         0.61701E+04         0.00000E+00
    0.61701E+04        -0.19599E+07         0.00000E+00
    0.00000E+00         0.00000E+00        -0.16011E+08
 
   -0.15870E+08         0.61633E+04         0.00000E+00
    0.61633E+04        -0.19599E+07         0.00000E+00
    0.00000E+00         0.00000E+00        -0.15940E+08
 
   -0.15808E+08         0.61455E+04         0.00000E+00
    0.61455E+04        -0.19599E+07         0.00000E+00
    0.00000E+00         0.00000E+00        -0.15868E+08
 
   -0.15747E+08         0.61155E+04         0.00000E+00
    0.61155E+04        -0.19599E+07         0.00000E+00
    0.00000E+00         0.00000E+00        -0.15796E+08
 
   -0.15686E+08         0.60717E+04         0.00000E+00
    0.60717E+04        -0.19599E+07         0.00000E+00
    0.00000E+00         0.00000E+00        -0.15722E+08
 
   -0.15625E+08         0.60124E+04         0.00000E+00
    0.60124E+04        -0.19599E+07         0.00000E+00
    0.00000E+00         0.00000E+00        -0.15648E+08
 
   -0.15565E+08         0.59353E+04         0.00000E+00
    0.59353E+04        -0.19599E+07         0.00000E+00
    0.00000E+00         0.00000E+00        -0.15574E+08
 
   -0.15506E+08         0.58380E+04         0.00000E+00
    0.58380E+04        -0.19599E+07         0.00000E+00
    0.00000E+00         0.00000E+00        -0.15499E+08
 
   -0.15448E+08         0.57173E+04         0.00000E+00
    0.57173E+04        -0.19599E+07         0.00000E+00
    0.00000E+00         0.00000E+00        -0.15423E+08
 
   -0.15392E+08         0.55695E+04         0.00000E+00
    0.55695E+04        -0.19599E+07         0.00000E+00
    0.00000E+00         0.00000E+00        -0.15347E+08
 
   -0.15337E+08         0.53903E+04         0.00000E+00
    0.53903E+04        -0.19599E+07         0.00000E+00
    0.00000E+00         0.00000E+00        -0.15271E+08
 
   -0.15284E+08         0.51745E+04         0.00000E+00
    0.51745E+04        -0.19599E+07         0.00000E+00
    0.00000E+00         0.00000E+00        -0.15195E+08
 
   -0.15233E+08         0.49160E+04         0.00000E+00
    0.49160E+04        -0.19599E+07         0.00000E+00
    0.00000E+00         0.00000E+00        -0.15119E+08
 
   -0.15185E+08         0.46079E+04         0.00000E+00
    0.46079E+04        -0.19599E+07         0.00000E+00
    0.00000E+00         0.00000E+00        -0.15043E+08
 
   -0.15140E+08         0.42426E+04         0.00000E+00
    0.42426E+04        -0.19599E+07         0.00000E+00
    0.00000E+00         0.00000E+00        -0.14968E+08
 
   -0.15099E+08         0.38115E+04         0.00000E+00
    0.38115E+04        -0.19599E+07         0.00000E+00
    0.00000E+00         0.00000E+00        -0.14892E+08
 
   -0.15063E+08         0.33058E+04         0.00000E+00
    0.33058E+04        -0.19599E+07         0.00000E+00
    0.00000E+00         0.00000E+00        -0.14818E+08
 
   -0.15032E+08         0.27167E+04         0.00000E+00
    0.27167E+04        -0.19599E+07         0.00000E+00
    0.00000E+00         0.00000E+00        -0.14745E+08
 
   -0.15007E+08         0.20367E+04         0.00000E+00
    0.20367E+04        -0.19599E+07         0.00000E+00
    0.00000E+00         0.00000E+00        -0.14673E+08
 
   -0.14989E+08         0.12592E+04         0.00000E+00
    0.12592E+04        -0.19599E+07         0.00000E+00
    0.00000E+00         0.00000E+00        -0.14603E+08
 
   -0.14978E+08         0.38250E+03         0.00000E+00
    0.38250E+03        -0.19599E+07         0.00000E+00
    0.00000E+00         0.00000E+00        -0.14535E+08
 
   -0.14977E+08        -0.59464E+03         0.00000E+00
   -0.59464E+03        -0.19599E+07         0.00000E+00
    0.00000E+00         0.00000E+00        -0.14469E+08
 
   -0.14984E+08        -0.16581E+04         0.00000E+00
   -0.16581E+04        -0.19599E+07         0.00000E+00
    0.00000E+00         0.00000E+00        -0.14405E+08
 
   -0.15002E+08        -0.28143E+04         0.00000E+00
   -0.28143E+04        -0.19600E+07         0.00000E+00
    0.00000E+00         0.00000E+00        -0.14344E+08
 
   -0.15031E+08        -0.39945E+04         0.00000E+00
   -0.39945E+04        -0.19597E+07         0.00000E+00
    0.00000E+00         0.00000E+00        -0.14286E+08
 
   -0.15070E+08        -0.53289E+04         0.00000E+00
   -0.53289E+04        -0.19603E+07         0.00000E+00
    0.00000E+00         0.00000E+00        -0.14231E+08
 
   -0.15120E+08        -0.63965E+04         0.00000E+00
   -0.63965E+04        -0.19590E+07         0.00000E+00
    0.00000E+00         0.00000E+00        -0.14179E+08
 
   -0.15180E+08        -0.84859E+04         0.00000E+00
   -0.84859E+04        -0.19622E+07         0.00000E+00
    0.00000E+00         0.00000E+00        -0.14131E+08
 
   -0.15248E+08        -0.78306E+04         0.00000E+00
   -0.78306E+04        -0.19546E+07         0.00000E+00
    0.00000E+00         0.00000E+00        -0.14081E+08
 
   -0.15325E+08        -0.18695E+05         0.00000E+00
   -0.18695E+05        -0.19743E+07         0.00000E+00
    0.00000E+00         0.00000E+00        -0.14043E+08
 
SCALARS stresss double 
LOOKUP_TABLE default
  -13181030.8789328     
  -13159380.3724744     
  -13139990.8839205     
  -13122001.6342427     
  -13105563.5491296     
  -13090262.3777132     
  -13075883.6220936     
  -13062140.7190929     
  -13048812.7461905     
  -13035698.4319179     
  -13022638.7326436     
  -13009504.7472232     
  -12996197.4911781     
  -12982641.3681823     
  -12968780.2783180     
  -12954573.0897597     
  -12939990.1785999     
  -12925010.3735207     
  -12909618.5710994     
  -12893803.8246057     
  -12877557.8906797     
  -12860874.1333631     
  -12843746.7278339     
  -12826170.0973211     
  -12808138.5329136     
  -12789645.9513991     
  -12770685.7559163     
  -12751250.7708082     
  -12731333.2286412     
  -12710924.7924750     
  -12690016.6008342     
  -12668599.3262465     
  -12646663.2409223     
  -12624198.2852089     
  -12601194.1360020     
  -12577640.2734321     
  -12553526.0449470     
  -12528840.7264689     
  -12503573.5806702     
  -12477713.9126444     
  -12451251.1233743     
  -12424174.7614666     
  -12396474.5736370     
  -12368140.5544176     
  -12339162.9955362     
  -12309532.5353805     
  -12279240.2089267     
  -12248277.4984845     
  -12216636.3855832     
  -12184309.4043126     
  -12151289.6964253     
  -12117571.0685180     
  -12083148.0516276     
  -12048015.9636196     
  -12012170.9747950     
  -11975610.1772208     
  -11938331.6583763     
  -11900334.5798253     
  -11861619.2617589     
  -11822187.2744041     
  -11782041.5374614     
  -11741186.4289015     
  -11699627.9046076     
  -11657373.6304589     
  -11614433.1284877     
  -11570817.9386386     
  -11526541.7973430     
  -11481620.8334877     
  -11436073.7812652     
  -11389922.2076636     
  -11343190.7497598     
  -11295907.3532328     
  -11248103.4982856     
  -11199814.3920221     
  -11151079.0968746     
  -11101940.5522840     
  -11052445.4312573     
  -11002643.7535696     
  -10952588.1541495     
  -10902332.6754571     
  -10851930.9229875     
  -10801433.3796348     
  -10750883.6510696     
  -10700313.3412316     
  -10649735.3003276     
  -10599134.7927187     
  -10548458.5274542     
  -10497600.6603627     
  -10446387.0176910     
  -10394554.5077785     
  -10341733.6209892     
  -10287418.9452067     
  -10230968.9918740     
  -10171551.5360195     
  -10108249.2041353     
  -10039848.8542741     
  -9965478.98901389     
  -9883357.12121473     
  -9794322.01692833     
  -9694556.82811539     
  -13176689.6217890     
  -13156967.4218293     
  -13137838.8444828     
  -13120280.6214253     
  -13103988.2519470     
  -13088831.3363665     
  -13074523.6336780     
  -13060839.0789961     
  -13047548.9319026     
  -13034466.8245994     
  -13021434.0448823     
  -13008325.3985784     
  -12995042.1837024     
  -12981509.4191496     
  -12967670.7942868     
  -12953484.9855453     
  -12938922.0282801     
  -12923960.4616596     
  -12908584.9244565     
  -12892784.2866203     
  -12876550.1881177     
  -12859875.9441900     
  -12842755.7386609     
  -12825184.0520900     
  -12807155.2710478     
  -12788663.4367545     
  -12769702.0973356     
  -12750264.2357356     
  -12730342.2510712     
  -12709927.9765221     
  -12689012.7210285     
  -12667587.3255171     
  -12645642.2270553     
  -12623167.5264142     
  -12600153.0560828     
  -12576588.4469320     
  -12552463.1925490     
  -12527766.7108421     
  -12502488.4028989     
  -12476617.7093229     
  -12450144.1644213     
  -12423057.4486845     
  -12395347.4400277     
  -12367004.2642565     
  -12338018.3452012     
  -12308380.4549324     
  -12278081.7644408     
  -12247113.8951364     
  -12215468.9714998     
  -12183139.6752066     
  -12150119.3010405     
  -12116401.8149223     
  -12081981.9144040     
  -12046855.0920121     
  -12011017.7018833     
  -11974467.0302043     
  -11937201.3700610     
  -11899220.1014155     
  -11860523.7770587     
  -11821114.2155353     
  -11780994.6021952     
  -11740169.5996819     
  -11698645.4693076     
  -11656430.2048539     
  -11613533.6803441     
  -11569967.8131935     
  -11525746.7437796     
  -11480887.0317888     
  -11435407.8685316     
  -11389331.3026142     
  -11342682.4736724     
  -11295489.8450401     
  -11247785.4208955     
  -11199604.9262460     
  -11150987.9185585     
  -11101977.7876047     
  -11052621.5843488     
  -11002969.6007471     
  -10953074.5982175     
  -10902990.5566705     
  -10852770.7808623     
  -10802465.1742282     
  -10752116.4365574     
  -10701754.9461382     
  -10651391.9731808     
  -10601011.0472884     
  -10550556.9004899     
  -10499922.3960791     
  -10448931.9791384     
  -10397324.9884516     
  -10344732.8061039     
  -10290666.7060032     
  -10234486.2770796     
  -10175427.5680665     
  -10112536.4921379     
  -10044878.2970774     
  -9971249.17075521     
  -9891174.94049299     
  -9803389.57031494     
  -9712551.85606386     
  -13172737.8522920     
  -13154311.0351378     
  -13135712.6599551     
  -13118463.3102624     
  -13102383.9832575     
  -13087354.1482738     
  -13073138.9990697     
  -13059515.5418758     
  -13046272.7347183     
  -13033227.3399092     
  -13020226.3794673     
  -13007146.1098246     
  -12993889.3846391     
  -12980381.5193193     
  -12966566.3791620     
  -12952402.4864502     
  -12937859.6987950     
  -12922916.3392617     
  -12907556.8730695     
  -12891770.0400941     
  -12875547.4089735     
  -12858882.2770172     
  -12841768.8596609     
  -12824201.7099937     
  -12806175.3200848     
  -12787683.8614275     
  -12768721.0300995     
  -12749279.9685309     
  -12729353.2418998     
  -12708932.8521278     
  -12688010.2766771     
  -12666576.5227201     
  -12644622.1899461     
  -12622137.5373486     
  -12599112.5509126     
  -12575537.0102928     
  -12551400.5534159     
  -12526692.7385340     
  -12501403.1036543     
  -12475521.2235286     
  -12449036.7645417     
  -12421939.5379182     
  -12394219.5517021     
  -12365867.0619631     
  -12336872.6236692     
  -12307227.1416394     
  -12276921.9219589     
  -12245948.7242204     
  -12214299.8149262     
  -12181968.0223831     
  -12148946.7934121     
  -12115230.2522108     
  -12080813.2617268     
  -12045691.4879389     
  -12009861.4674965     
  -11973320.6792437     
  -11936067.6202396     
  -11898101.8870022     
  -11859424.2628278     
  -11820036.8121818     
  -11779942.9833065     
  -11739147.7203374     
  -11697657.5863427     
  -11655480.8987725     
  -11612627.8787806     
  -11569110.8157123     
  -11524944.2476459     
  -11480145.1581328     
  -11434733.1880649     
  -11388730.8597187     
  -11342163.8072709     
  -11295061.0041664     
  -11247454.9723297     
  -11199381.9509465     
  -11150881.9930281     
  -11101998.9456541     
  -11052780.2544459     
  -11003276.5135935     
  -10953540.6603629     
  -10903626.6853274     
  -10853587.7013750     
  -10803473.1774405     
  -10753325.1185498     
  -10703172.9239259     
  -10653026.6719906     
  -10602868.4936878     
  -10552641.8907595     
  -10502238.5981670     
  -10451483.4502120     
  -10400116.7248601     
  -10347776.5443827     
  -10293980.4179846     
  -10238113.9021855     
  -10179426.9220775     
  -10117046.3813775     
  -10050050.7903212     
  -9977472.47354295     
  -9898880.94731952     
  -9813586.59986536     
  -9728753.08664386     
  -13169058.5028174     
  -13151558.4614480     
  -13133543.8910642     
  -13116593.5030729     
  -13100733.6964089     
  -13085842.0132047     
  -13071726.1513332     
  -13058172.8779184     
  -13044983.4862379     
  -13031980.6547007     
  -13019015.6293915     
  -13005967.0578481     
  -12992739.1032593     
  -12979257.7465950     
  -12965467.0841328     
  -12951325.6673047     
  -12936803.2667341     
  -12921878.0934193     
  -12906534.5077350     
  -12890761.1793682     
  -12874549.6479047     
  -12857893.2252997     
  -12840786.1812231     
  -12823223.1571441     
  -12805198.7608312     
  -12786707.3002459     
  -12767742.6225987     
  -12748298.0309015     
  -12728366.2560525     
  -12707939.4674548     
  -12687009.3092784     
  -12665566.9528406     
  -12643603.1582477     
  -12621108.3405258     
  -12598072.6370568     
  -12574485.9743111     
  -12550338.1327371     
  -12525618.8092645     
  -12500317.6772983     
  -12474424.4443482     
  -12447928.9076009     
  -12420821.0078360     
  -12393090.8821260     
  -12364728.9157655     
  -12335725.7938667     
  -12306072.5530321     
  -12275760.6334928     
  -12244781.9320757     
  -12213128.8563451     
  -12180794.3802522     
  -12147772.1016288     
  -12114056.3018664     
  -12079642.0081521     
  -12044525.0586671     
  -12008702.1712083     
  -11972171.0157678     
  -11934930.2916937     
  -11896979.8101629     
  -11858320.5828240     
  -11818954.9176035     
  -11778886.5228138     
  -11738120.6208342     
  -11696664.0727499     
  -11654525.5153817     
  -11611715.5120978     
  -11568246.7185930     
  -11524134.0643812     
  -11479394.9499589     
  -11434049.4583237     
  -11388120.5775979     
  -11341634.4286853     
  -11294620.4879123     
  -11247111.7891545     
  -11199145.0826613     
  -11150760.9182455     
  -11102003.6083135     
  -11052921.0108904     
  -11003564.0541411     
  -10953985.9014238     
  -10904240.6302244     
  -10854381.2688554     
  -10804457.0045883     
  -10754509.3446233     
  -10704566.9862941     
  -10654639.1326468     
  -10604706.9933393     
  -10554713.2530743     
  -10504549.3551198     
  -10454040.7629181     
  -10402930.3768196     
  -10350861.8959444     
  -10297363.3698953     
  -10241839.3073816     
  -10183566.3142648     
  -10121727.4671012     
  -10055445.3497330     
  -9983947.13171389     
  -9906791.54303160     
  -9824234.13492184     
  -9743701.98331375     
  -13165580.6496632     
  -13148775.2454102     
  -13131321.6144929     
  -13114680.4289438     
  -13099039.0830790     
  -13084296.3532766     
  -13070286.5074265     
  -13056811.4515763     
  -13043681.7701225     
  -13030726.9133359     
  -13017802.0098696     
  -13004788.3224152     
  -12991591.4415770     
  -12978138.1720490     
  -12964372.9922567     
  -12950254.6094567     
  -12935752.8212865     
  -12920845.8163028     
  -12905517.9242098     
  -12889757.8010266     
  -12873557.0010250     
  -12856908.8828357     
  -12839807.7935705     
  -12822248.4790436     
  -12804225.6732707     
  -12785733.8270861     
  -12766766.9422407     
  -12747318.4835881     
  -12727381.3475435     
  -12706947.8698293     
  -12686009.8595803     
  -12664558.6502032     
  -12642585.1600406     
  -12620079.9579714     
  -12597033.3306714     
  -12573435.3494475     
  -12549275.9354324     
  -12524544.9225441     
  -12499232.1180386     
  -12473327.3607652     
  -12446820.5774081     
  -12419701.8370940     
  -12391961.4047944     
  -12363589.7939611     
  -12334577.8188274     
  -12304916.6467865     
  -12274597.8512368     
  -12243613.4652627     
  -12211956.0364994     
  -12179618.6835256     
  -12146595.1541240     
  -12112879.8857628     
  -12078468.0686761     
  -12043355.7119588     
  -12007539.7131470     
  -11971017.9318268     
  -11933789.2679015     
  -11895853.7452572     
  -11857212.6016849     
  -11817868.3860527     
  -11777825.0638572     
  -11737088.1324095     
  -11695664.7470080     
  -11653563.8594864     
  -11610796.3704578     
  -11567375.2963453     
  -11523315.9518147     
  -11478636.1473976     
  -11433356.4007742     
  -11387500.1581981     
  -11341094.0196707     
  -11294167.9574457     
  -11246755.5119512     
  -11198893.9419063     
  -11150624.2958859     
  -11101991.3604597     
  -11053043.4249107     
  -11003831.7841356     
  -10954409.8794758     
  -10904831.9521396     
  -10855151.0558792     
  -10805416.2466194     
  -10755668.7374029     
  -10705936.7852980     
  -10656229.0595712     
  -10606526.2594077     
  -10556770.7729698     
  -10506854.3271229     
  -10456603.6980614     
  -10405765.1185506     
  -10353988.3816782     
  -10300813.0764127     
  -10245661.0436520     
  -10187839.4670602     
  -10126573.4862936     
  -10061054.5178325     
  -9990630.97414691     
  -9914957.67014903     
  -9835030.36001935     
  -9757726.93334116     
  -13162257.3884474     
  -13145991.3527056     
  -13129051.4320308     
  -13112726.3264370     
  -13097304.0210812     
  -13082718.0421440     
  -13068821.5112634     
  -13055431.7903297     
  -13042368.1071401     
  -13029466.3828819     
  -13016585.7308719     
  -13003610.0451731     
  -12990446.5158507     
  -12977022.8973534     
  -12963284.2001592     
  -12949189.4094620     
  -12934708.4601122     
  -12919819.6072078     
  -12904507.2223428     
  -12888760.0044165     
  -12872569.5657587     
  -12855929.3439208     
  -12838833.7867558     
  -12821277.7606392     
  -12803256.1365767     
  -12784763.5148922     
  -12765794.0554547     
  -12746341.3863677     
  -12726398.5694732     
  -12705958.1057367     
  -12685011.9675741     
  -12663551.6484639     
  -12641568.2228250     
  -12619052.4112150     
  -12595994.6474964     
  -12572385.1458194     
  -12548213.9661458     
  -12523471.0776701     
  -12498146.4199262     
  -12472229.9616583     
  -12445711.7577159     
  -12418582.0043366     
  -12390831.0932331     
  -12362449.6649184     
  -12333428.6616959     
  -12303759.3807282     
  -12273433.5275744     
  -12242443.2705699     
  -12210781.2964010     
  -12178440.8672256     
  -12145415.8796862     
  -12111700.9261766     
  -12077291.3587493     
  -12042183.3560860     
  -12006373.9940135     
  -11969861.3201123     
  -11932644.4330603     
  -11894723.5674517     
  -11856100.1849553     
  -11816777.0728033     
  -11776758.4507306     
  -11736050.0876054     
  -11694659.4290746     
  -11652595.7375685     
  -11609870.2459242     
  -11566496.3256326     
  -11522489.6702064     
  -11477868.4933093     
  -11432653.7399255     
  -11386869.3068200     
  -11340542.2656232     
  -11293703.0778059     
  -11246385.7852920     
  -11198628.1531402     
  -11150471.7312345     
  -11101961.7898909     
  -11053147.0693496     
  -11004079.2650295     
  -10954812.1490947     
  -10905400.2044809     
  -10855896.6208469     
  -10806350.4740959     
  -10756802.8850938     
  -10707281.9323873     
  -10657796.0855906     
  -10608325.9412490     
  -10558814.0939273     
  -10509153.1083498     
  -10459171.7513500     
  -10408620.1500716     
  -10357154.9590937     
  -10304327.3472700     
  -10249576.9163081     
  -10192239.9879329     
  -10131580.7189245     
  -10066860.7620343     
  -9997514.10968648     
  -9923354.01582273     
  -9845837.69247784     
  -9771045.39196568     
  -13159055.5587672     
  -13143220.1755438     
  -13126742.2492971     
  -13110733.0236679     
  -13095531.7369829     
  -13081108.4211466     
  -13067332.3330416     
  -13054034.6137780     
  -13041042.9885790     
  -13028199.4076298     
  -13015367.0281684     
  -13002432.4076276     
  -12989304.4685362     
  -12975912.0473482     
  -12962200.8217571     
  -12948130.1769547     
  -12933670.2904303     
  -12918799.5720341     
  -12903502.5064114     
  -12887767.8915592     
  -12871587.4409634     
  -12854954.7033563     
  -12837864.2507150     
  -12820311.0863404     
  -12802290.2291343     
  -12783796.4356846     
  -12764824.0276979     
  -12745366.7980539     
  -12725417.9740259     
  -12704970.2208163     
  -12684015.6724875     
  -12662545.9806031     
  -12640552.3735135     
  -12618025.7212833     
  -12594956.6028484     
  -12571335.3731956     
  -12547152.2292413     
  -12522397.2737221     
  -12497060.5768521     
  -12471132.2357993     
  -12444602.4322192     
  -12417461.4881964     
  -12389699.9209999     
  -12361308.4970800     
  -12332278.2857318     
  -12302600.7128379     
  -12272267.6150840     
  -12241271.2950216     
  -12209604.5773394     
  -12177260.8666960     
  -12144234.2074710     
  -12110519.3458002     
  -12076111.7942908     
  -12041007.8998474     
  -12005204.9150979     
  -11968701.0739763     
  -11931495.6721074     
  -11893589.1527431     
  -11854983.1991128     
  -11815680.8341792     
  -11775686.5289117     
  -11735006.3203022     
  -11693647.9404218     
  -11651620.9578246     
  -11608936.9325018     
  -11565609.5853119     
  -11521654.9822875     
  -11477091.7333233     
  -11431941.2033641     
  -11386227.7321470     
  -11339978.8555998     
  -11293225.5179082     
  -11246002.2577294     
  -11198347.3447230     
  -11150302.8331309     
  -11101914.4872073     
  -11053231.5185642     
  -11004306.0577184     
  -10955192.2612958     
  -10905944.9326948     
  -10856617.5083675     
  -10807259.2356157     
  -10757911.3438629     
  -10708601.9933581     
  -10659339.7817430     
  -10610105.6072041     
  -10560842.7516510     
  -10511445.1717633     
  -10461744.2350073     
  -10411494.5538542     
  -10360360.2321775     
  -10307904.1328729     
  -10253583.8505774     
  -10196762.7566975     
  -10136743.2976260     
  -10072849.5695792     
  -10004588.5554510     
  -9931940.03482525     
  -9856595.04887127     
  -9783811.32598958     
  -13155950.5026656     
  -13140466.9464410     
  -13124402.2372278     
  -13108702.9658207     
  -13093724.7783383     
  -13079469.0735495     
  -13065820.0515602     
  -13052620.7092396     
  -13039706.9390145     
  -13026926.3736135     
  -13014146.1776101     
  -13001255.6231238     
  -12988165.4706724     
  -12974805.7685016     
  -12961122.9884912     
  -12947077.0344295     
  -12932638.4290177     
  -12917785.8233058     
  -12902503.8851393     
  -12886781.5671994     
  -12870610.7269604     
  -12853985.0564868     
  -12836899.2752903     
  -12819348.5400408     
  -12801328.0285530     
  -12782832.6605684     
  -12763856.9234579     
  -12744394.7764964     
  -12724439.6124658     
  -12703984.2598556     
  -12683021.0127782     
  -12661541.6789182     
  -12639537.6384233     
  -12616999.9086930     
  -12593919.2116145     
  -12570286.0409902     
  -12546090.7287975     
  -12521323.5095581     
  -12495974.5825446     
  -12470034.1718515     
  -12443492.5845548     
  -12416340.2672955     
  -12388567.8616868     
  -12360166.2589655     
  -12331126.6543130     
  -12301440.6012562     
  -12271100.0665450     
  -12240097.4858851     
  -12208425.8208897     
  -12176078.6176108     
  -12143050.0670118     
  -12109335.0677541     
  -12074929.2917022     
  -12039829.2525829     
  -12004032.3782979     
  -11967537.0874506     
  -11930342.8707414     
  -11892450.3779815     
  -11853861.5115929     
  -11814579.5275821     
  -11774609.1450931     
  -11733956.6657509     
  -11692630.1040703     
  -11650639.3302032     
  -11607996.2261749     
  -11564714.8564737     
  -11520811.6533001     
  -11476305.6158758     
  -11431218.5217896     
  -11385575.1462753     
  -11339403.4823397     
  -11292734.9505543     
  -11245604.5817903     
  -11198051.1488926     
  -11150117.2139162     
  -11101849.0457360     
  -11053296.3483075     
  -11004511.7224094     
  -10955549.7633380     
  -10906465.6741041     
  -10857313.2490085     
  -10808142.0577057     
  -10758993.6377164     
  -10709896.4883306     
  -10660859.6582548     
  -10611864.7434961     
  -10562856.1811465     
  -10513729.8580703     
  -10464320.3147382     
  -10414387.2288470     
  -10363602.6150589     
  -10311541.2344533     
  -10257678.4655811     
  -10201403.0836460     
  -10142054.2493349     
  -10079009.5746253     
  -10011843.4938191     
  -9940678.58691877     
  -9867279.00511590     
  -9796139.41822118     
  -13152923.1563520     
  -13137732.7151198     
  -13122037.8462100     
  -13106638.9936810     
  -13091885.3115242     
  -13077801.6154724     
  -13064285.7472478     
  -13051190.8862312     
  -13038360.5281873     
  -13025647.7024305     
  -13012923.4941890     
  -13000079.9363689     
  -12987029.7207375     
  -12973704.2289085     
  -12960050.8488730     
  -12946030.1172521     
  -12931613.0020911     
  -12916778.4801933     
  -12901511.4716900     
  -12885801.1388321     
  -12869639.5255537     
  -12853020.4992235     
  -12835938.9502484     
  -12818390.2051312     
  -12800369.6116752     
  -12781872.2597375     
  -12762892.8062539     
  -12743425.3785779     
  -12723463.5351327     
  -12703000.2667846     
  -12682028.0261268     
  -12660538.7750167     
  -12638524.0432690     
  -12615974.9934436     
  -12592882.4882460     
  -12569237.1582575     
  -12545029.4686032     
  -12520249.7838114     
  -12494888.4305667     
  -12468935.7583682     
  -12442382.1983007     
  -12415218.3202453     
  -12387434.8889208     
  -12359022.9191739     
  -12329973.7309403     
  -12300279.0042883     
  -12269930.8349441     
  -12238921.7906776     
  -12207244.9689212     
  -12174894.0559843     
  -12141863.3882303     
  -12108148.0155990     
  -12073743.7678809     
  -12038647.3241895     
  -12002856.2861344     
  -11966369.2552653     
  -11929185.9154427     
  -11891307.1208930     
  -11852734.9908141     
  -11813473.0115182     
  -11773526.1472108     
  -11732900.9606047     
  -11691605.7446242     
  -11649650.6664398     
  -11607047.9249450     
  -11563811.9224798     
  -11519959.4510354     
  -11475509.8922480     
  -11430485.4290497     
  -11384911.2647444     
  -11338815.8422884     
  -11292231.0524470     
  -11245192.4139779     
  -11197739.2017493     
  -11149914.4893996     
  -11101765.0614738     
  -11053341.1356464     
  -11004695.8185182     
  -10955884.1985934     
  -10906961.9577922     
  -10857983.3591414     
  -10808998.4448230     
  -10760049.2583718     
  -10711164.8922681     
  -10662355.1644626     
  -10613602.7562875     
  -10564853.7166897     
  -10516006.3809552     
  -10466899.0118750     
  -10417296.8947349     
  -10366880.3604258     
  -10315236.2490932     
  -10261857.2842003     
  -10206156.2798450     
  -10147506.4598092     
  -10085331.1827453     
  -10019266.2939856     
  -9949540.48450268     
  -9877885.43856675     
  -9808118.49945472     
  -13149958.3166487     
  -13135016.3364748     
  -13119653.7997686     
  -13104543.9933735     
  -13090015.3086611     
  -13076107.6093209     
  -13062730.5196552     
  -13049745.9702586     
  -13037004.3660665     
  -13024363.8517528     
  -13011699.3291157     
  -12998905.6233631     
  -12985897.4436089     
  -12972607.6180756     
  -12958984.5681583     
  -12944989.5735416     
  -12930594.1452180     
  -12915777.6684792     
  -12900525.3836566     
  -12884826.7167060     
  -12868673.9400401     
  -12852061.1280543     
  -12834983.3652897     
  -12817436.1645068     
  -12799415.0545803     
  -12780915.3024758     
  -12761931.7386342     
  -12742458.6602111     
  -12722489.7914364     
  -12702018.2846689     
  -12681036.7494298     
  -12659537.2998081     
  -12637511.6131558     
  -12614950.9950108     
  -12591846.4467521     
  -12568188.7336862     
  -12543968.4521531     
  -12519176.0948865     
  -12493802.1143135     
  -12467836.9837910     
  -12441271.2569762     
  -12414095.6256479     
  -12386300.9763668     
  -12357878.4463868     
  -12328819.4792404     
  -12299115.8804094     
  -12268759.8734809     
  -12237744.1571733     
  -12206061.9636060     
  -12173707.1181803     
  -12140674.1014476     
  -12106958.1133478     
  -12072555.1402339     
  -12037462.0251359     
  -12001676.5417693     
  -11965197.4728670     
  -11928024.6934934     
  -11890159.2601017     
  -11851603.5062020     
  -11812361.1456247     
  -11772437.3844727     
  -11731839.0429499     
  -11690574.6883029     
  -11648654.7800921     
  -11606091.8288668     
  -11562900.5690015     
  -11519098.1458719     
  -11474704.3166028     
  -11429741.6621755     
  -11384235.8065696     
  -11338215.6356248     
  -11291713.5042085     
  -11244765.4147802     
  -11197411.1432524     
  -11149694.2788391     
  -11101662.1330528     
  -11053365.4589102     
  -11004857.9046031     
  -10956195.1064745     
  -10907433.3045312     
  -10858627.3409016     
  -10809827.8793732     
  -10761077.6653819     
  -10712406.6353501     
  -10663825.6893181     
  -10615318.9731502     
  -10566834.5927706     
  -10518273.8318254     
  -10469479.2036300     
  -10420222.1053424     
  -10370191.5570425     
  -10318986.5923462     
  -10266116.7614975     
  -10211017.5760764     
  -10153093.0726982     
  -10091805.7075103     
  -10026844.1278041     
  -9958504.51957921     
  -9888420.35183561     
  -9819819.55639375     
  -13147043.5444572     
  -13132315.5096969     
  -13117253.3595782     
  -13102420.6521662     
  -13088116.6209027     
  -13074388.5434650     
  -13061155.4793290     
  -13048286.8050295     
  -13035639.0971432     
  -13023075.3152148     
  -13010474.0678701     
  -12997732.9907341     
  -12984768.8898746     
  -12971516.1465086     
  -12957924.3280797     
  -12943955.5639904     
  -12929582.0032191     
  -12914783.5204969     
  -12899545.7430326     
  -12883858.4138086     
  -12867714.0752055     
  -12851107.0400440     
  -12834032.6100499     
  -12816486.5005681     
  -12798464.4325839     
  -12779961.8571543     
  -12760973.7821725     
  -12741494.6763326     
  -12721518.4298503     
  -12701038.3557027     
  -12680047.2187919     
  -12658537.2834971     
  -12636500.3725721     
  -12613927.9323401     
  -12590811.1006941     
  -12567140.7755944     
  -12542907.6826431     
  -12518102.4409562     
  -12492715.6270101     
  -12466737.8364491     
  -12440159.7440412     
  -12412972.1620964     
  -12385166.0977283     
  -12356732.8093707     
  -12327663.8629704     
  -12297951.1882689     
  -12267587.1355743     
  -12236564.5334112     
  -12204876.7474263     
  -12172517.7409217     
  -12139482.1373951     
  -12105765.2854778     
  -12071363.3266910     
  -12036273.2664773     
  -12000493.0490207     
  -11964021.6364369     
  -11926859.0929975     
  -11889006.6751515     
  -11850466.9282127     
  -11811243.7906954     
  -11771342.7073871     
  -11730770.7523355     
  -11689536.7629734     
  -11647651.4865737     
  -11605127.7400834     
  -11561980.5840555     
  -11518227.5108125     
  -11473888.6460223     
  -11428986.9614175     
  -11383548.4942747     
  -11337602.5662898     
  -11291181.9904049     
  -11244323.2486868     
  -11197066.6172278     
  -11149456.2049390     
  -11101539.8617262     
  -11053368.8976689     
  -11004997.5383370     
  -10956482.0224114     
  -10907879.2267738     
  -10859244.6822259     
  -10810629.8218125     
  -10762078.2863881     
  -10713621.1033899     
  -10665270.5621826     
  -10617012.6442524     
  -10568797.9459514     
  -10520531.1829301     
  -10472059.6260880     
  -10423161.2575289     
  -10373534.1301359     
  -10322789.5243960     
  -10270453.2742555     
  -10215982.1600187     
  -10158807.5828636     
  -10098425.0316182     
  -10034565.0960179     
  -9967556.23896699     
  -9898895.07691005     
  -9831300.79798009     
  -13144168.4365106     
  -13129627.3393090     
  -13114838.6250270     
  -13100271.3291071     
  -13086190.9913059     
  -13072645.8349326     
  -13059561.7371025     
  -13046814.2536051     
  -13034265.3969166     
  -13021782.6212456     
  -13009248.1289507     
  -12996562.3748287     
  -12983644.3352454     
  -12970430.0452497     
  -12956870.3265627     
  -12942928.2616585     
  -12928576.7300414     
  -12913796.1750471     
  -12898572.6761627     
  -12882896.3458363     
  -12866760.0373070     
  -12850158.3328233     
  -12833086.7740930     
  -12815541.2952146     
  -12797517.8202321     
  -12779011.9912260     
  -12760018.9974617     
  -12740533.4808961     
  -12720549.4979038     
  -12700060.5212013     
  -12679059.4695186     
  -12657538.7555760     
  -12635490.3453824     
  -12612905.8238400     
  -12589776.4631795     
  -12566093.2919253     
  -12541847.1629672     
  -12517028.8199587     
  -12491628.9617100     
  -12465638.3045578     
  -12439047.6428964     
  -12411847.9081760     
  -12384030.2267501     
  -12355585.9769806     
  -12326506.8460217     
  -12296784.8866963     
  -12266412.5748682     
  -12235382.8677011     
  -12203689.2631837     
  -12171325.8612997     
  -12138287.4272239     
  -12104569.4569421     
  -12070168.2457178     
  -12035080.9598701     
  -11999305.7123798     
  -11962841.6429084     
  -11925689.0028997     
  -11887849.2465268     
  -11849325.1283558     
  -11810120.8087056     
  -11770241.9677886     
  -11729695.9298024     
  -11688491.7981811     
  -11646640.6031866     
  -11604155.4628613     
  -11561051.7580400     
  -11517347.3215206     
  -11473062.6405439     
  -11428221.0702816     
  -11382849.0539273     
  -11336976.3420189     
  -11290636.1995741     
  -11243865.5842119     
  -11196705.2713857     
  -11149199.8938628     
  -11101397.8513775     
  -11053351.0327396     
  -11005114.2765183     
  -10956744.4778768     
  -10908299.2287077     
  -10859834.8569617     
  -10811403.7108446     
  -10763050.5174653     
  -10714807.6383777     
  -10666689.0537282     
  -10618682.9436214     
  -10570742.8169383     
  -10522777.2900024     
  -10474638.8783111     
  -10426112.5968515     
  -10376905.8466413     
  -10326642.1660896     
  -10274863.1154131     
  -10221045.2253443     
  -10164643.8234939     
  -10105181.5469398     
  -10042418.8245158     
  -9976686.56053904     
  -9909323.68637396     
  -9842611.02090476     
  -13141324.1218301     
  -13126948.6438958     
  -13112410.7956314     
  -13098098.0059016     
  -13084240.0451893     
  -13070880.8361210     
  -13057950.3970034     
  -13045329.1976827     
  -13032883.9699182     
  -13020486.3315650     
  -13008021.9628601     
  -12995394.1408099     
  -12982524.0799593     
  -12969349.5654156     
  -12955822.7774095     
  -12941907.8517506     
  -12927578.4886061     
  -12912815.7772955     
  -12897606.3136731     
  -12881940.6311485     
  -12865811.9340420     
  -12849215.1045676     
  -12832145.9468952     
  -12814600.6298333     
  -12796575.2912920     
  -12778065.7712158     
  -12759067.4441047     
  -12739575.1268640     
  -12719583.0421741     
  -12699084.8215927     
  -12678073.5361082     
  -12656541.7448172     
  -12634481.5548208     
  -12611884.6873762     
  -12588742.5468572     
  -12565046.2902417     
  -12540786.8957129     
  -12515955.2295945     
  -12490542.1112920     
  -12464538.3762177     
  -12437934.9368833     
  -12410722.8424651     
  -12382893.3372199     
  -12354437.9181625     
  -12325348.3924235     
  -12295616.9347051     
  -12265236.1452376     
  -12234199.1086312     
  -12202499.4540062     
  -12170131.4167827     
  -12137089.9025164     
  -12103370.5531815     
  -12068969.8163284     
  -12033885.0175857     
  -11998114.4370257     
  -11961657.3899842     
  -11924514.3130046     
  -11886686.8556737     
  -11848177.9792170     
  -11808992.0628362     
  -11769135.0188651     
  -11728614.4179109     
  -11687439.6251800     
  -11645621.9491532     
  -11603174.8036231     
  -11560113.8837692     
  -11516457.3563566     
  -11472226.0631973     
  -11427443.7355656     
  -11382137.2151739     
  -11336336.6743766     
  -11290075.8242590     
  -11243392.0939267     
  -11196326.7573509     
  -11148924.9752621     
  -11101235.7085505     
  -11053311.4462235     
  -11005207.6751210     
  -10956982.0004588     
  -10908692.8063711     
  -10860397.3250489     
  -10812148.9637058     
  -10763993.7235601     
  -10715965.5391424     
  -10668080.3769218     
  -10620328.9705438     
  -10572668.1526509     
  -10525010.8949271     
  -10477215.4264132     
  -10429074.2221250     
  -10380304.3219907     
  -10330541.5078520     
  -10279342.4971200     
  -10226202.0041220     
  -10170595.9347020     
  -10112068.1984952     
  -10050396.6903267     
  -9985890.56132260     
  -9919721.56939497     
  -9853791.93727069     
  -13138502.9015567     
  -13124276.1265234     
  -13109970.3817240     
  -13095902.2856607     
  -13082265.2772845     
  -13069094.8398761     
  -13056322.5528415     
  -13043832.5360881     
  -13031495.5484482     
  -13019187.0397788     
  -13006796.0511477     
  -12994228.6818175     
  -12981408.4481692     
  -12968274.9777326     
  -12954781.9099592     
  -12940894.5313703     
  -12926587.4506321     
  -12911842.4786478     
  -12896646.7903837     
  -12880991.3907054     
  -12864869.8745038     
  -12848277.4539653     
  -12831210.2178216     
  -12813664.5852802     
  -12795636.9187361     
  -12777123.2627087     
  -12758119.1807035     
  -12738619.6661969     
  -12718619.1082765     
  -12698111.2964088     
  -12677089.4522438     
  -12655546.2792658     
  -12633474.0234839     
  -12610864.5402653     
  -12587709.3639112     
  -12563999.7777222     
  -12539726.8831580     
  -12514881.6673240     
  -12489455.0684598     
  -12463438.0394138     
  -12436821.6092842     
  -12409596.9435361     
  -12381755.4029705     
  -12353288.6019563     
  -12324188.4663471     
  -12294447.2914986     
  -12264057.8007945     
  -12233013.2050751     
  -12201307.2633568     
  -12168934.3452258     
  -12135889.4952957     
  -12102168.5001354     
  -12067767.9580984     
  -12032685.3525248     
  -11996919.1288416     
  -11960468.7761531     
  -11923334.9139950     
  -11885519.3850191     
  -11847025.3544796     
  -11807857.4174975     
  -11768021.7151824     
  -11727526.0607687     
  -11686380.0769609     
  -11644595.3456468     
  -11602185.5709805     
  -11559166.7565071     
  -11515557.3964124     
  -11471378.6800405     
  -11426654.7073959     
  -11381412.7112780     
  -11335683.2787945     
  -11289500.5610457     
  -11242902.4544969     
  -11195930.7307027     
  -11148631.0823210     
  -11101053.0425017     
  -11053249.7215701     
  -11005277.2893811     
  -10957194.1139837     
  -10909059.4478278     
  -10860931.5327732     
  -10812864.9765358     
  -10764907.2390241     
  -10717094.0621179     
  -10669443.6881042     
  -10621949.7510762     
  -10574572.8082953     
  -10527230.6284816     
  -10479787.6073227     
  -10432044.0897100     
  -10383727.0264286     
  -10334484.4153128     
  -10283887.5574321     
  -10231447.7822349     
  -10176658.3396724     
  -10119078.5432705     
  -10058491.8267762     
  -9995166.50466302     
  -9930104.64620392     
  -9864879.83997197     
  -13135697.9837066     
  -13121606.4670067     
  -13107517.3673041     
  -13093685.4171415     
  -13080268.0434393     
  -13067289.0826007     
  -13054679.2872476     
  -13042325.1833630     
  -13030100.8916174     
  -13017885.3702032     
  -13005570.9054877     
  -12993066.4181888     
  -12980297.7873262     
  -12967206.5720636     
  -12953747.9687270     
  -12939888.5092534     
  -12925603.7964383     
  -12910876.4366049     
  -12895694.2452017     
  -12880048.7479906     
  -12863933.9691250     
  -12847345.4801754     
  -12830279.6760949     
  -12812733.2418556     
  -12794702.7747234     
  -12776184.5303332     
  -12757174.2648456     
  -12737667.1498423     
  -12717657.7408543     
  -12697139.9842762     
  -12676107.2507845     
  -12654552.3862318     
  -12632467.7733240     
  -12609845.3992691     
  -12586676.9260568     
  -12562953.7611570     
  -12538667.1272675     
  -12513808.1303646     
  -12488367.8257398     
  -12462337.2820151     
  -12435707.6433226     
  -12408470.1899571     
  -12380616.3978819     
  -12352137.9974993     
  -12323027.0321098     
  -12293275.9164742     
  -12262877.4958934     
  -12231825.1061982     
  -12200112.6350414     
  -12167734.5848794     
  -12134686.1380356     
  -12100963.2242535     
  -12066562.5911771     
  -12031481.8782310     
  -11995719.6944291     
  -11959275.7007066     
  -11922150.6974495     
  -11884346.7179913     
  -11845867.1289456     
  -11806716.7383518     
  -11766901.9127096     
  -11726430.7040566     
  -11685312.9882806     
  -11643560.6158216     
  -11601187.5757651     
  -11558210.1740011     
  -11514647.2255461     
  -11470520.2601951     
  -11425853.7392651     
  -11380675.2791582     
  -11335015.8746113     
  -11288910.1106062     
  -11242396.3467298     
  -11195516.8510271     
  -11148317.8518162     
  -11100849.4652732     
  -11053165.4436715     
  -11005322.6739203     
  -10957380.3386835     
  -10909398.6333998     
  -10861436.9130911     
  -10813551.1248299     
  -10765790.3682422     
  -10718192.4222102     
  -10670778.0881683     
  -10623544.2396418     
  -10576455.5494665     
  -10529435.0130887     
  -10482353.6322690     
  -10435020.0176228     
  -10387171.2902642     
  -10338467.6335109     
  -10288494.3665633     
  -10236777.9034929     
  -10182825.7299324     
  -10126206.7880644     
  -10066699.0111115     
  -10004515.0884186     
  -9940488.94333908     
  -9875906.82954527     
  -13132903.2827099     
  -13118936.3689757     
  -13105051.3336458     
  -13091448.3306864     
  -13078249.5588427     
  -13065464.7464973     
  -13053021.6721520     
  -13040808.0688617     
  -13028700.7845852     
  -13016581.9769112     
  -13004347.0668170     
  -12991907.7967200     
  -12979192.4675668     
  -12966144.6569254     
  -12952721.2130266     
  -12938890.0054772     
  -12924627.7147231     
  -12909917.8145973     
  -12894748.8209978     
  -12879112.8289181     
  -12863004.3296082     
  -12846419.2827755     
  -12829354.4107552     
  -12811806.6792744     
  -12793772.9305752     
  -12775249.6377424     
  -12756232.7530883     
  -12736717.6277207     
  -12716698.9835672     
  -12696170.9229061     
  -12675126.9637572     
  -12653560.0922829     
  -12631462.8256426     
  -12608827.2805882     
  -12585645.2445345     
  -12561908.2469433     
  -12537607.6296902     
  -12512734.6156891     
  -12487280.3754795     
  -12461236.0917740     
  -12434593.0221638     
  -12407342.5602926     
  -12379476.2958830     
  -12350986.0740290     
  -12321864.0541788     
  -12292102.7692287     
  -12261695.1851380     
  -12230634.7614650     
  -12198915.5132160     
  -12166532.0743984     
  -12133479.7636711     
  -12099754.6525065     
  -12065353.6362996     
  -12030274.5089041     
  -11994516.0411235     
  -11958078.0637549     
  -11920961.5558606     
  -11883168.7390381     
  -11844703.1785565     
  -11805569.8923357     
  -11765775.4688419     
  -11725328.1950539     
  -11684238.1956880     
  -11642517.5848415     
  -11600180.6310592     
  -11557243.9365132     
  -11513726.6304162     
  -11469650.5758829     
  -11425040.5880692     
  -11379924.6594287     
  -11334334.1851160     
  -11288304.1777454     
  -11241873.4556273     
  -11195084.7819788     
  -11147984.9241926     
  -11100624.5917874     
  -11053058.1989837     
  -11005343.3829073     
  -10957540.1914117     
  -10909709.8359589     
  -10861912.8860243     
  -10814206.7639720     
  -10766642.3863504     
  -10719259.7937592     
  -10672082.6238344     
  -10625111.3207037     
  -10578315.0542954     
  -10531622.4655409     
  -10484911.5900645     
  -10437999.6893698     
  -10390634.3080868     
  -10342487.7901842     
  -10293158.9307840     
  -10242187.7670975     
  -10189093.0546279     
  -10133447.7972764     
  -10075014.4982369     
  -10013938.8744642     
  -9950890.37753410     
  -9886901.74170073     
  -13130113.2642674     
  -13116262.5803474     
  -13102571.5522792     
  -13089191.6779556     
  -13076210.9022786     
  -13063622.9620560     
  -13051350.7701497     
  -13039282.1364621     
  -13027296.0380016     
  -13015277.5429662     
  -13003125.1045440     
  -12990753.2899617     
  -12978092.8811083     
  -12965089.5589941     
  -12951701.9165751     
  -12937899.2511516     
  -12923659.4023244     
  -12908966.7817997     
  -12893810.6644649     
  -12878183.7617253     
  -12862081.0688441     
  -12845498.9616996     
  -12828434.5106125     
  -12810884.9766284     
  -12792847.4567467     
  -12774318.6475917     
  -12755294.7009404     
  -12735771.1487113     
  -12715742.8790790     
  -12695204.1490840     
  -12674148.6223471     
  -12652569.4232364     
  -12630459.2010839     
  -12607810.1998575     
  -12584614.3301062     
  -12560863.2410824     
  -12536548.3917557     
  -12511661.1200235     
  -12486192.7098472     
  -12460134.4563260     
  -12433477.7289150     
  -12406214.0331054     
  -12378335.0709550     
  -12349832.8008859     
  -12320699.4971754     
  -12290927.8095631     
  -12260510.8233861     
  -12229442.1206453     
  -12197715.8423951     
  -12165326.7528502     
  -12132270.3056077     
  -12098542.7123969     
  -12064141.0147988     
  -12029063.1594133     
  -11993308.0770079     
  -11956875.7662426     
  -11919767.3826514     
  -11881985.3336458     
  -11843533.3804132     
  -11804416.7476813     
  -11764642.2424246     
  -11724218.3826634     
  -11683155.5375510     
  -11641466.0799079     
  -11599164.5522259     
  -11556267.8468522     
  -11512795.4005143     
  -11468769.4024606     
  -11424215.0141463     
  -11379160.5964409     
  -11333637.9375941     
  -11287682.4714538     
  -11241333.4704471     
  -11194634.1913545     
  -11147631.9436535     
  -11100378.0399618     
  -11052927.5756762     
  -11005338.9702540     
  -10957673.1859040     
  -10909992.5212729     
  -10862358.8591210     
  -10814831.2298478     
  -10767462.5400440     
  -10720295.3115946     
  -10673356.2890172     
  -10626649.8105108     
  -10580149.9156359     
  -10533791.2996805     
  -10487459.4502219     
  -10440980.6574285     
  -10394113.1421067     
  -10346541.3981123     
  -10297877.1934761     
  -10247672.8210248     
  -10195455.5086936     
  -10140797.0729124     
  -10083435.8370575     
  -10023441.8596962     
  -9961324.66234782     
  -9897890.86544617     
  -13127322.8225345     
  -13113581.8979705     
  -13100077.0546243     
  -13086915.8712200     
  -13074153.0251172     
  -13061764.8115027     
  -13049667.6365178     
  -13037748.3448616     
  -13025887.4876794     
  -13013972.7798151     
  -13001905.6158416     
  -12989603.3955472     
  -12976999.4416527     
  -12964041.6226030     
  -12950690.3670817     
  -12936916.4880883     
  -12922699.0639583     
  -12908023.5129274     
  -12892879.9259592     
  -12877261.6768499     
  -12861164.3008173     
  -12844584.6171661     
  -12827520.0641920     
  -12809968.2123448     
  -12791926.4227945     
  -12773391.6215129     
  -12754360.1628422     
  -12734827.7606356     
  -12714789.4690442     
  -12694239.6986587     
  -12673172.2568893     
  -12651580.4041517     
  -12629456.9196281     
  -12606794.1721398     
  -12583584.1930501     
  -12559818.7491754     
  -12535489.4144720     
  -12510587.6398446     
  -12485104.8208300     
  -12459032.3631895     
  -12432361.7466263     
  -12405084.5869577     
  -12377192.6971326     
  -12348678.1475175     
  -12319533.3258788     
  -12289750.9974871     
  -12259324.3657559     
  -12228247.1338218     
  -12196513.5674590     
  -12164118.5597243     
  -12131057.6977310     
  -12097327.3319701     
  -12062924.6486173     
  -12027847.7453103     
  -11992095.7109270     
  -11955668.7099641     
  -11918568.0721920     
  -11880796.3883567     
  -11842357.6127949     
  -11803257.1739374     
  -11763502.0937743     
  -11723101.1174350     
  -11682064.8540812     
  -11640405.9302861     
  -11598139.1569363     
  -11555281.7104038     
  -11511853.3281980     
  -11467876.5184555     
  -11423376.7813143     
  -11378382.8383250     
  -11332926.8633759     
  -11287044.7049637     
  -11240776.0847704     
  -11194164.7511767     
  -11147258.5582667     
  -11100109.4308452     
  -11052773.1638086     
  -11005308.9898469     
  -10957778.8330836     
  -10910246.1484085     
  -10862774.2279843     
  -10815423.8395334     
  -10768250.0484715     
  -10721298.0721834     
  -10674598.0262822     
  -10628158.4589161     
  -10581958.6432889     
  -10535939.7290373     
  -10489995.0659185     
  -10443960.3463506     
  -10397604.7247545     
  -10350624.8563834     
  -10302645.0334851     
  -10253228.5523938     
  -10201908.5165987     
  -10148250.7127676     
  -10091961.6889362     
  -10033029.1549020     
  -9971807.28783319     
  -9908898.51181712     
  -13124527.1807025     
  -13110891.1627844     
  -13097566.6840382     
  -13084621.1201847     
  -13072076.7636979     
  -13059891.3335534     
  -13047973.3218256     
  -13036207.6683869     
  -13024475.9945145     
  -13012668.4268209     
  -13000689.2250134     
  -12988458.6355481     
  -12975912.5837955     
  -12963001.2092301     
  -12949686.8658191     
  -12935941.9684510     
  -12921746.9119378     
  -12907088.1880125     
  -12891956.7593253     
  -12876346.7067941     
  -12860254.1405012     
  -12843676.3495962     
  -12826611.1596711     
  -12809056.4641379     
  -12791009.8973389     
  -12772468.6200853     
  -12753429.1921427     
  -12733887.5102394     
  -12713838.7940941     
  -12693277.6065307     
  -12672197.8968582     
  -12650593.0593221     
  -12628456.0005847     
  -12605779.2119208     
  -12582554.8431571     
  -12558774.7764203     
  -12534430.6985230     
  -12509514.1713791     
  -12484016.7002337     
  -12457929.7997656     
  -12431245.0582914     
  -12403954.2004130     
  -12376049.1485068     
  -12347522.0834807     
  -12318365.5052306     
  -12288572.2932248     
  -12258135.7676315     
  -12227049.7513956     
  -12195308.6336615     
  -12162907.4349399     
  -12129841.8744165     
  -12096108.4398243     
  -12061704.4603190     
  -12026628.1828417     
  -11990878.8525018     
  -11954456.7975783     
  -11917363.5198163     
  -11879601.7907870     
  -11841175.7551781     
  -11802091.0419887     
  -11762354.8847013     
  -11721976.2515882     
  -11680965.9873589     
  -11639336.9673320     
  -11597104.2651984     
  -11554285.3351599     
  -11510900.2087230     
  -11466971.7056001     
  -11422525.6569105     
  -11377591.1370355     
  -11332200.6978881     
  -11286390.5958108     
  -11240200.9965767     
  -11193676.1377874     
  -11146864.4200842     
  -11099818.3887727     
  -11052594.5555339     
  -11005252.9958146     
  -10957856.6414103     
  -10910470.1701873     
  -10863158.3768656     
  -10815983.8920616     
  -10769004.1042122     
  -10722267.1348661     
  -10675806.7283875     
  -10629635.9512659     
  -10583739.6662619     
  -10538065.8694295     
  -10492516.1768151     
  -10446936.0554985     
  -10401105.8606214     
  -10354734.4505166     
  -10307458.2610946     
  -10258850.4751063     
  -10208447.7100884     
  -10155805.3529974     
  -10100591.6576312     
  -10042706.7448829     
  -9982353.54397027     
  -9919947.47447369     
  -13121721.8086650     
  -13108187.2492748     
  -13095039.1347100     
  -13082307.4655775     
  -13069982.8539805     
  -13058003.5295468     
  -13046268.8751350     
  -13034661.0982508     
  -13023062.4446478     
  -13011365.2509255     
  -12999476.5829349     
  -12987319.5558606     
  -12974832.7624413     
  -12961968.6969782     
  -12948691.7271811     
  -12934975.9543867     
  -12920803.1658730     
  -12906160.9921631     
  -12891041.3217047     
  -12875438.9859735     
  -12859350.7037401     
  -12842774.2595235     
  -12825707.8848094     
  -12808149.8089547     
  -12790097.9480229     
  -12771549.7028042     
  -12752501.8410754     
  -12732950.4431740     
  -12712890.8938213     
  -12692317.9066402     
  -12671225.5708593     
  -12649607.4122678     
  -12627456.4625871     
  -12604765.3331043     
  -12581526.2897261     
  -12557731.3276085     
  -12533372.2442659     
  -12508440.7106014     
  -12482928.3396817     
  -12456826.7533388     
  -12430127.6468484     
  -12402822.8520375     
  -12374904.3992275     
  -12346364.5784455     
  -12317196.0003380     
  -12287391.6572189     
  -12256944.9846691     
  -12225849.9240938     
  -12194100.9866374     
  -12161693.3188550     
  -12128622.7705385     
  -12094885.9651212     
  -12060480.3731000     
  -12025404.3889613     
  -11989657.4121417     
  -11953239.9326233     
  -11916153.6218369     
  -11878401.4296431     
  -11839987.6882550     
  -11800918.2240762     
  -11761200.4785290     
  -11720843.6390341     
  -11679858.7813553     
  -11638259.0245165     
  -11596059.6993832     
  -11553278.5317479     
  -11509935.8402740     
  -11466054.7488666     
  -11421661.4118298     
  -11376785.2483954     
  -11331459.1807064     
  -11285719.8658991     
  -11239607.9083259     
  -11193168.0319521     
  -11146449.1852767     
  -11099504.5415411     
  -11052391.3453270     
  -11005170.5428268     
  -10957906.1172731     
  -10910664.0336953     
  -10863510.6793210     
  -10816510.6692601     
  -10769723.8743375     
  -10723201.5231813     
  -10676981.2399111     
  -10631080.9103583     
  -10585491.3350618     
  -10540167.7415325     
  -10495020.4117339     
  -10449904.9614445     
  -10404613.2277951     
  -10358866.3514511     
  -10312312.6119379     
  -10264534.1147647     
  -10215068.8995691     
  -10163458.1002586     
  -10109326.1342350     
  -10052481.3093519     
  -9992978.57041560     
  -9931059.41132481     
  -13118902.3531896     
  -13105467.0514845     
  -13092492.9807763     
  -13079974.8094417     
  -13067871.9476316     
  -13056102.3708806     
  -13044555.3477934     
  -13033109.6441946     
  -13021647.7498563     
  -13010064.0464316     
  -12998268.3665555     
  -12986186.7256179     
  -12973760.4522221     
  -12960944.4800450     
  -12947705.2782205     
  -12934018.7176381     
  -12919868.0523506     
  -12905242.1153036     
  -12890133.7733279     
  -12874538.6505536     
  -12858454.1071212     
  -12841878.4474935     
  -12824810.3268719     
  -12807248.3229164     
  -12789190.6414669     
  -12770634.9280461     
  -12751578.1607312     
  -12732016.6039750     
  -12711945.8067640     
  -12691360.6319548     
  -12670255.3066181     
  -12648623.4857274     
  -12626458.3235851     
  -12603752.5490069     
  -12580498.5415606     
  -12556688.4071223     
  -12532314.0517296     
  -12507367.2532334     
  -12481839.7306149     
  -12455723.2110764     
  -12429009.4951808     
  -12401690.5204020     
  -12373758.4235060     
  -12345205.6021982     
  -12316024.7764786     
  -12286209.0501360     
  -12255751.9728023     
  -12224647.6029752     
  -12192890.5724094     
  -12160476.1522738     
  -12127400.3214794     
  -12093659.8375957     
  -12059252.3108000     
  -12024176.2813423     
  -11988431.3010589     
  -11952018.0195306     
  -11914938.2755610     
  -11877195.1947385     
  -11838793.2939502     
  -11799738.5938148     
  -11760038.7401152     
  -11719703.1353968     
  -11678743.0819563     
  -11637171.9374493     
  -11595005.2842502     
  -11552261.1134579     
  -11508960.0239952     
  -11465125.4365015     
  -11420783.8205645     
  -11375964.9321426     
  -11330702.0556128     
  -11285032.2415705     
  -11238996.5270458     
  -11192640.1189740     
  -11146012.5142812     
  -11099167.5206027     
  -11052163.1302405     
  -11005061.1864283     
  -10957926.7654234     
  -10910827.1808441     
  -10863830.4989303     
  -10817003.4366637     
  -10770408.5015525     
  -10724100.2262748     
  -10678120.3589603     
  -10632491.8984706     
  -10587211.9240245     
  -10542243.2734237     
  -10497505.2912069     
  -10452864.1200638     
  -10408123.3786343     
  -10363016.6134748     
  -10317203.7391125     
  -10270274.9908512     
  -10221768.0394960     
  -10171206.4572519     
  -10118166.1573764     
  -10062360.0890120     
  -10003697.4221335     
  -9942255.16835503     
  -13116064.5771732     
  -13102727.4669279     
  -13089926.6982348     
  -13077622.9424573     
  -13065744.6289891     
  -13054188.8075984     
  -13042833.7978051     
  -13031554.3364737     
  -13020232.8481495     
  -13008765.6348929     
  -12997065.2784600     
  -12985060.7366241     
  -12972696.1469187     
  -12959928.9681843     
  -12946727.8581755     
  -12933070.5391378     
  -12918941.8045961     
  -12904331.7518986     
  -12889234.2772920     
  -12873645.8382717     
  -12857564.4678343     
  -12840989.0139550     
  -12823918.5725444     
  -12806352.0812533     
  -12788288.0432191     
  -12769724.3530306     
  -12750658.2010300     
  -12731086.0360416     
  -12711003.5703894     
  -12690405.8144565     
  -12669287.1309709     
  -12647641.3016504     
  -12625461.6008402     
  -12602740.8723535     
  -12579471.6069650     
  -12555646.0189321     
  -12531256.1206123     
  -12506293.7947424     
  -12480750.8642909     
  -12454619.1600300     
  -12427890.5861192     
  -12400557.1840842     
  -12372611.1956174     
  -12344045.1246448     
  -12314851.7991046     
  -12285024.4328709     
  -12254556.6882473     
  -12223442.7394375     
  -12191677.3373960     
  -12159255.8764560     
  -12126174.4631392     
  -12092429.9875666     
  -12058020.1979130     
  -12022943.7783891     
  -11987200.4312800     
  -11950790.9636386     
  -11913717.3793042     
  -11875982.9770092     
  -11837592.4554382     
  -11798552.0262117     
  -11758869.5358696     
  -11718554.5980333     
  -11677618.7369827     
  -11636075.5439022     
  -11593940.8469724     
  -11551232.8962699     
  -11507972.5640207     
  -11464183.5600587     
  -11419892.6612438     
  -11375129.9519776     
  -11329929.0706530     
  -11284327.4536783     
  -11238366.5644271     
  -11192092.0888159     
  -11145554.0719631     
  -11098806.9612777     
  -11051909.5101826     
  -11004924.4834038     
  -10957918.0894503     
  -10910959.0489823     
  -10864117.1900766     
  -10817461.4444962     
  -10771057.1054167     
  -10724962.2003930     
  -10679222.8389643     
  -10633867.4194569     
  -10588899.6336828     
  -10544290.3031100     
  -10499968.2299106     
  -10455810.4683600     
  -10411632.7400343     
  -10367181.1711996     
  -10322127.2037190     
  -10276068.5962377     
  -10228541.1884555     
  -10179048.2442507     
  -10127113.2871918     
  -10072350.7849238     
  -10014525.1447025     
  -9953555.06146897     
  -13113204.3053434     
  -13099965.3791910     
  -13087338.6816340     
  -13075251.5688018     
  -13063601.4325619     
  -13052263.7779542     
  -13041105.2947429     
  -13029996.2281381     
  -13018818.7045424     
  -13007470.8651004     
  -12995868.0464770     
  -12983942.2028098     
  -12971640.3588824     
  -12958922.5861564     
  -12945759.8179758     
  -12932131.7085829     
  -12918024.6621166     
  -12903430.1006581     
  -12888342.9993219     
  -12872760.6882468     
  -12856681.9035219     
  -12840106.0591430     
  -12823032.7078430     
  -12805461.1582354     
  -12787390.2177025     
  -12768818.0337812     
  -12749742.0106902     
  -12730158.7816121     
  -12710064.2210757     
  -12689453.4851281     
  -12668321.0698541     
  -12646660.8811894     
  -12624466.3109183     
  -12601730.3152723     
  -12578445.4937407     
  -12554604.1665937     
  -12530198.4502808     
  -12505220.3303407     
  -12479661.7317845     
  -12453514.5871350     
  -12426770.9024416     
  -12399422.8216696     
  -12371462.6899033     
  -12342883.1158143     
  -12313677.0338463     
  -12283837.7665523     
  -12253359.0875097     
  -12222235.2852232     
  -12190461.2284185     
  -12158032.4331236     
  -12124945.1319435     
  -12091196.3459451     
  -12056783.9595981     
  -12021706.7992485     
  -11985964.7156590     
  -11949558.6712063     
  -11912490.8324065     
  -11874764.6685290     
  -11836385.0571594     
  -11797358.3976837     
  -11757692.7337728     
  -11717397.8860528     
  -11676485.5962114     
  -11634969.6838301     
  -11592866.2171594     
  -11550193.6988793     
  -11506973.2675024     
  -11463228.9144339     
  -11418987.7156724     
  -11374280.0756107     
  -11329139.9781965     
  -11283605.2376645     
  -11237717.7369232     
  -11191523.6362327     
  -11145073.5277898     
  -11098422.5029847     
  -11051630.0882209     
  -11004759.9921746     
  -10957879.5922945     
  -10911059.0715554     
  -10864370.0987856     
  -10817883.9287225     
  -10771668.7836430     
  -10725786.3704606     
  -10680287.3905483     
  -10635205.9209156     
  -10590552.5931764     
  -10546306.5810464     
  -10502406.5390042     
  -10458740.8260570     
  -10415137.6132406     
  -10371355.8357056     
  -10327078.4640235     
  -10281910.3742054     
  -10235384.4647427     
  -10186981.5181717     
  -10136169.4906841     
  -10082461.4820107     
  -10025476.8556831     
  -9964979.12853450     
  -13110317.3743073     
  -13097177.6396587     
  -13084727.2570993     
  -13072860.3291599     
  -13061442.8608996     
  -13050328.2187858     
  -13039370.9251350     
  -13028436.3975654     
  -13017406.3119790     
  -13006180.6131508     
  -12994677.4233269     
  -12982831.7596995     
  -12970593.6184549     
  -12957925.7731680     
  -12944801.5197351     
  -12931202.5239929     
  -12917116.8703257     
  -12902537.3642268     
  -12887460.1075170     
  -12871883.3407763     
  -12855806.5321183     
  -12839229.6829523     
  -12822152.8180166     
  -12804575.6270976     
  -12786497.2281582     
  -12767916.0250808     
  -12748829.6371963     
  -12729234.8817410     
  -12709127.7940947     
  -12688503.6739403     
  -12667357.1482944     
  -12645682.2446922     
  -12623472.4696850     
  -12600720.8892914     
  -12577420.2091839     
  -12553562.8532464     
  -12529141.0397682     
  -12504146.8549853     
  -12478572.3239873     
  -12452409.4792121     
  -12425650.4268757     
  -12398287.4117549     
  -12370312.8807749     
  -12341719.5458620     
  -12312500.4465167     
  -12282649.0125470     
  -12252159.1273889     
  -12221025.1924259     
  -12189242.1927078     
  -12156805.7644697     
  -12123712.2648526     
  -12089958.8442456     
  -12055543.5216894     
  -12020465.2638215     
  -11984724.0678898     
  -11948321.0494260     
  -11911258.5352443     
  -11873540.1625244     
  -11835170.9848355     
  -11796157.5860733     
  -11756508.2033942     
  -11716232.8603349     
  -11675343.5113947     
  -11633854.1993932     
  -11591781.2268806     
  -11549143.3427223     
  -11505961.9446395     
  -11462261.2978963     
  -11418068.7693710     
  -11373415.0748116     
  -11328334.5349990     
  -11282865.3336397     
  -11237049.7658565     
  -11190934.4609122     
  -11144570.5560176     
  -11098013.7894873     
  -11051324.4709077     
  -11004567.2732248     
  -10957810.7768014     
  -10911126.6788161     
  -10864588.5636221     
  -10818270.1121675     
  -10772242.6134733     
  -10726571.6317382     
  -10681312.6834889     
  -10636505.7964278     
  -10592168.8627108     
  -10548289.7726564     
  -10504817.4283936     
  -10461651.8969960     
  -10418634.1732743     
  -10375536.2899878     
  -10332052.8634456     
  -10287795.6932574     
  -10242293.9982117     
  -10195004.4899602     
  -10145337.0356572     
  -10092700.5895061     
  -10036567.8300243     
  -9976547.36135337     
  -13107399.5851907     
  -13094361.0485911     
  -13082090.6929562     
  -13070448.8225282     
  -13059269.4027852     
  -13048383.0765418     
  -13037631.7982541     
  -13026875.9512027     
  -13015996.6923752     
  -13004895.7825813     
  -12993494.1863040     
  -12981730.0638921     
  -12969556.4733834     
  -12956938.9822980     
  -12943853.3362258     
  -12930283.2912482     
  -12916218.6801502     
  -12901653.7488562     
  -12886585.7720832     
  -12871013.9371201     
  -12854938.4716781     
  -12838359.9848039     
  -12821278.9874431     
  -12803695.5599603     
  -12785609.1365850     
  -12767018.3804282     
  -12747921.1267651     
  -12728314.3762726     
  -12708194.3235925     
  -12687556.4098370     
  -12666395.3903984     
  -12644705.4116944     
  -12622480.0922991     
  -12599712.6053335     
  -12576395.7600814     
  -12552522.0816107     
  -12528083.8877730     
  -12503073.3633767     
  -12477482.6316079     
  -12451303.8229679     
  -12424529.1421000     
  -12397150.9329491     
  -12369161.7427155     
  -12340554.3850736     
  -12311322.0031156     
  -12281458.1324647     
  -12250956.7649846     
  -12219812.4134970     
  -12188020.1779121     
  -12155575.8131657     
  -12122475.7993705     
  -12088717.4145941     
  -12054298.8107069     
  -12019219.0927738     
  -11983478.4025171     
  -11947078.0064357     
  -11910020.3892446     
  -11872309.3533886     
  -11833950.1254845     
  -11794949.4706651     
  -11755315.8159072     
  -11715059.3835476     
  -11674192.3362789     
  -11632728.9349756     
  -11590685.7106862     
  -11548081.6519997     
  -11504938.4087045     
  -11461280.5121211     
  -11417135.6116146     
  -11372534.7254581     
  -11327512.5022660     
  -11282107.4864675     
  -11236362.3775295     
  -11190324.2676228     
  -11144044.8358895     
  -11097580.4691583     
  -11050992.2686289     
  -11004345.8895575     
  -10957711.1463110     
  -10911161.2985777     
  -10864771.9166440     
  -10818619.2057030     
  -10772777.6531287     
  -10727316.8515626     
  -10682297.3487521     
  -10637765.3878712     
  -10593746.4360669     
  -10550237.4608658     
  -10507198.0089402     
  -10464540.2703802     
  -10422118.4680442     
  -10379718.0838406     
  -10337045.6175822     
  -10293719.8200776     
  -10249265.8791067     
  -10203115.4404969     
  -10154618.3902343     
  -10103076.7925129     
  -10047813.5884785     
  -9988279.92565988     
  -13104446.6573368     
  -13091512.3356501     
  -13079427.2090245     
  -13068016.6274808     
  -13057081.5517871     
  -13046429.3188255     
  -13035889.0522159     
  -13025316.0264646     
  -13014590.8977515     
  -13003617.3045534     
  -12992319.1369785     
  -12980637.7925436     
  -12968529.4882307     
  -12955962.6799110     
  -12942915.6503358     
  -12929374.3236096     
  -12915330.3476187     
  -12900779.4640609     
  -12885720.1650512     
  -12870152.6192737     
  -12854077.8401959     
  -12837497.0635032     
  -12820411.2995201     
  -12802821.0277454     
  -12784726.0036754     
  -12766125.1519881     
  -12747016.5243099     
  -12727397.3038153     
  -12707263.8425698     
  -12686611.7207216     
  -12665435.8193420     
  -12643730.4009116     
  -12621489.1932076     
  -12598705.4737128     
  -12575372.1527093     
  -12551481.8539869     
  -12527026.9926587     
  -12501999.8499593     
  -12476392.6451729     
  -12450197.6049957     
  -12423407.0307452     
  -12396013.3638762     
  -12368009.2502835     
  -12339387.6038677     
  -12310141.6698333     
  -12280265.0881634     
  -12249751.9577012     
  -12218596.9012516     
  -12186795.1321029     
  -12154342.5223694     
  -12121235.6735525     
  -12087471.9897379     
  -12053049.7538654     
  -12017968.2075464     
  -11982227.6349483     
  -11945829.4513320     
  -11908776.2968984     
  -11871072.1366950     
  -11832722.3674354     
  -11793733.9321997     
  -11754115.4441061     
  -11713877.3201634     
  -11673031.9266215     
  -11631593.7372045     
  -11589579.5056276     
  -11547008.4536988     
  -11503902.4760703     
  -11460286.3622215     
  -11416188.0354719     
  -11371638.8075863     
  -11326673.6457177     
  -11281331.4458501     
  -11235655.3033404     
  -11189692.7663697     
  -11143496.0518450     
  -11097122.1952583     
  -11050633.0959729     
  -11004095.4071780     
  -10957580.2052845     
  -10911162.3570156     
  -10864919.4844103     
  -10818930.4094981     
  -10773272.9433351     
  -10728020.8711685     
  -10683239.9806139     
  -10638982.9878099     
  -10595283.2431712     
  -10552147.1486601     
  -10509545.2946423     
  -10467402.4219053     
  -10425586.4172206     
  -10383896.6283187     
  -10342051.8004945     
  -10299677.8910514     
  -10256296.1045082     
  -10211312.6348443     
  -10164016.1248778     
  -10113599.0097157     
  -10059229.9885758     
  -10000197.3762473     
  -13101454.1816411     
  -13088628.1399024     
  -13076734.9855538     
  -13065563.3235752     
  -13054879.8252630     
  -13044467.9463264     
  -13034143.8602886     
  -13023757.7947370     
  -13013190.0114250     
  -13002346.1380693     
  -12991153.1009133     
  -12979555.6428507     
  -12967513.2437743     
  -12954997.3450548     
  -12941988.8545084     
  -12928475.9412205     
  -12914452.1334331     
  -12899914.7222580     
  -12884863.4599792     
  -12869299.5297279     
  -12853224.7554157     
  -12836641.0170906     
  -12819549.8365487     
  -12801952.1000878     
  -12783847.8887499     
  -12765236.3905434     
  -12746115.8734036     
  -12726483.7017146     
  -12706336.3828631     
  -12685669.6334423     
  -12664478.4573599     
  -12642757.2302321     
  -12620499.7861402     
  -12597699.5041309     
  -12574349.3928292     
  -12550442.1722536     
  -12525970.3524520     
  -12500926.3089211     
  -12475302.3550268     
  -12449090.8117776     
  -12422284.0753969     
  -12394874.6831778     
  -12366855.3781149     
  -12338219.1728000     
  -12308959.4130554     
  -12279069.8417536     
  -12248544.6632549     
  -12217378.6088744     
  -12185567.0037826     
  -12153105.8357320     
  -12119991.8260140     
  -12086222.5030540     
  -12051796.2790853     
  -12016712.5303664     
  -11980971.6814646     
  -11944575.2941812     
  -11907526.1617721     
  -11869828.4092108     
  -11831487.6003417     
  -11792510.8528896     
  -11752906.9624207     
  -11712686.5364752     
  -11671862.1402080     
  -11630448.4549681     
  -11588462.4512771     
  -11545923.5776168     
  -11502853.9662354     
  -11459278.6567785     
  -11415225.8378438     
  -11370727.1054406     
  -11325817.7356555     
  -11280536.9664186     
  -11234928.2799045     
  -11189039.6725584     
  -11142923.8937396     
  -11096638.6262303     
  -11050246.5721203     
  -11003815.3956049     
  -10957417.4599653     
  -10911129.2795118     
  -10865030.5890441     
  -10819202.9143351     
  -10773727.5089211     
  -10728682.5075886     
  -10684139.1388635     
  -10640156.8419624     
  -10596777.1527308     
  -10554016.2616823     
  -10511856.2048099     
  -10470234.7148236     
  -10429033.8109510     
  -10388067.1899144     
  -10347066.3305000     
  -10305664.8828033     
  -10263380.5229800     
  -10219594.2344155     
  -10173532.8137728     
  -10124276.3527677     
  -10070833.3180395     
  -10012320.8737989     
  -13098417.5721208     
  -13085704.9892993     
  -13074012.1727437     
  -13063088.5135895     
  -13052664.7839245     
  -13042500.0050149     
  -13032397.4373085     
  -13022202.4644310     
  -13011795.1492300     
  -13001083.2702027     
  -12989996.9273835     
  -12978484.3315287     
  -12966508.3363927     
  -12954043.4688418     
  -12941073.3501618     
  -12927588.4705889     
  -12913584.3025205     
  -12899059.7383912     
  -12884015.8316441     
  -12868454.8112184     
  -12852379.3346311     
  -12835791.9426849     
  -12818694.6796128     
  -12801088.8452430     
  -12782974.8496858     
  -12764352.1454414     
  -12745219.2162402     
  -12725573.6060243     
  -12705411.9751232     
  -12684730.1737777     
  -12663523.3257358     
  -12641785.9167097     
  -12619511.8841045     
  -12596694.7056741     
  -12573327.4856869     
  -12549403.0378663     
  -12524913.9648437     
  -12499852.7341943     
  -12474211.7513334     
  -12447983.4296846     
  -12421160.2585963     
  -12393734.8695150     
  -12365700.1009272     
  -12337049.0625672     
  -12307775.1993668     
  -12277872.3556036     
  -12247334.8396771     
  -12216157.4899265     
  -12184335.7418907     
  -12151865.6974061     
  -12118744.1959382     
  -12084968.8885588     
  -12050538.3150010     
  -12015451.9842568     
  -11979710.4592319     
  -11943315.4460309     
  -11906269.8885201     
  -11868578.0689092     
  -11830245.7151943     
  -11791280.1164314     
  -11751690.2469308     
  -11711486.9006109     
  -11670682.8368676     
  -11629292.9394314     
  -11587334.3897457     
  -11544826.8563795     
  -11501792.7018473     
  -11458257.2078710     
  -11414248.8195013     
  -11369799.4075231     
  -11324944.5470287     
  -11279723.8078231     
  -11234181.0491777     
  -11188364.7071638     
  -11142328.0570739     
  -11096129.4260073     
  -11049832.3212526     
  -11003505.4284065     
  -10957222.4190733     
  -10911061.4915402     
  -10865104.5493470     
  -10819435.9029860     
  -10774140.3604888     
  -10729300.5556364     
  -10684993.3510931     
  -10641285.1517556     
  -10598225.9749424     
  -10555842.1508816     
  -10514127.5662592     
  -10473033.4009827     
  -10432456.3084997     
  -10392224.8845913     
  -10352083.9557199     
  -10311675.5822306     
  -10270514.7779929     
  -10227958.2065374     
  -10183170.9323640     
  -10135118.0829903     
  -10082640.3906399     
  -10024672.4099066     
  -13095332.0142548     
  -13082739.2796503     
  -13071256.9018393     
  -13060591.8473145     
  -13050437.0520767     
  -13040526.5984653     
  -13030651.0460950     
  -13020651.2840329     
  -13010407.4607368     
  -12999829.7163271     
  -12988851.4890892     
  -12977424.5942779     
  -12965515.3774379     
  -12953101.5538104     
  -12940169.5470911     
  -12926712.2440512     
  -12912727.1235694     
  -12898214.7295384     
  -12883177.4557169     
  -12867618.6064637     
  -12851541.6944767     
  -12834949.9363200     
  -12817845.9084525     
  -12800231.3299912     
  -12782106.9428457     
  -12763472.4645409     
  -12744326.5935955     
  -12724667.0514783     
  -12704490.6487956     
  -12683793.3664221     
  -12662570.4447915     
  -12640816.4765562     
  -12618525.4993811     
  -12595691.0868089     
  -12572306.4360104     
  -12548364.4518561     
  -12523857.8271874     
  -12498779.1194548     
  -12473120.8240759     
  -12446875.4449790     
  -12420035.5628430     
  -12392593.9015710     
  -12364543.3935217     
  -12335877.2440098     
  -12306588.9955556     
  -12276672.5923437     
  -12246122.4453215     
  -12214933.4983504     
  -12183101.2958111     
  -12150622.0520526     
  -12117492.7230845     
  -12083711.0809156     
  -12049275.7909709     
  -12014186.4930464     
  -11978443.8863105     
  -11942049.8189209     
  -11905007.3828967     
  -11867321.0149812     
  -11828996.6043347     
  -11790041.6080195     
  -11750465.1753785     
  -11710278.2825475     
  -11669493.8784873     
  -11628127.0440529     
  -11586195.1657003     
  -11543718.1254619     
  -11500718.5087272     
  -11457221.8311051     
  -11413256.7851230     
  -11368855.5066441     
  -11324053.8595031     
  -11278891.7348263     
  -11233413.3585854     
  -11187667.5969057     
  -11141708.2432330     
  -11095594.2643331     
  -11049389.9729797     
  -11003165.0837612     
  -10956994.5945323     
  -10910958.4195962     
  -10865140.6819645     
  -10819628.5516532     
  -10774510.4961556     
  -10729873.7899679     
  -10685801.1150715     
  -10642366.0769632     
  -10599627.4642809     
  -10557622.0952299     
  -10516356.1155545     
  -10475794.6218874     
  -10435849.4368912     
  -10396364.6718202     
  -10357099.2396369     
  -10317704.5565345     
  -10277694.2507410     
  -10236402.2308969     
  -10192932.7477240     
  -10146133.5608146     
  -10094668.6444308     
  -10037275.0470624     
  -13092192.4084676     
  -13079727.2531549     
  -13068467.2989150     
  -13058073.0476406     
  -13048197.3386066     
  -13038548.9001535     
  -13028906.0037507     
  -13019105.5450930     
  -13009028.1304363     
  -12998586.5203229     
  -12987717.6818529     
  -12976377.1852328     
  -12964534.9925869     
  -12952172.1132681     
  -12939277.8628485     
  -12925847.5992158     
  -12911880.8685474     
  -12897379.9145045     
  -12882348.5084268     
  -12866791.0578931     
  -12850711.9507111     
  -12834115.0927742     
  -12817003.6013330     
  -12799379.6195365     
  -12781244.2230021     
  -12762597.3941564     
  -12743438.0447864     
  -12723764.0714612     
  -12703572.4320987     
  -12682859.2349709     
  -12661619.8338773     
  -12639848.9251352     
  -12617540.6435186     
  -12594688.6553808     
  -12571286.2480079     
  -12547326.4148298     
  -12522801.9365003     
  -12497705.4581239     
  -12472029.5630594     
  -12445766.8438158     
  -12418909.9705973     
  -12391451.7580545     
  -12363385.2307870     
  -12334703.6881163     
  -12305400.7686175     
  -12275470.5148714     
  -12244907.4388684     
  -12213706.5884771     
  -12181863.6153777     
  -12149374.8448478     
  -12116237.3477956     
  -12082449.0154436     
  -12048008.6370860     
  -12012915.9813793     
  -11977171.8816663     
  -11940778.3258943     
  -11903738.5517664     
  -11866057.1478479     
  -11827740.1614654     
  -11788795.2143581     
  -11749231.6271823     
  -11709060.5541235     
  -11668295.1290255     
  -11626950.6245976     
  -11585044.6263792     
  -11542597.2232060     
  -11499631.2158900     
  -11456172.3456405     
  -11412249.5433310     
  -11367895.1999710     
  -11323145.4575282     
  -11278040.5173987     
  -11232624.9611530     
  -11186948.0744297     
  -11141064.1597323     
  -11095032.8170959     
  -11048919.1627837     
  -11002793.9450427     
  -10956733.5022268     
  -10910819.4921623     
  -10865138.3026011     
  -10819780.0314665     
  -10774836.9033677     
  -10730400.9672242     
  -10686560.9012074     
  -10643397.7384368     
  -10600979.3223788     
  -10559353.3045194     
  -10518538.5013178     
  -10478514.4098261     
  -10439208.5896410     
  -10400481.3487531     
  -10362106.5469165     
  -10323746.1237556     
  -10284914.0030566     
  -10244923.6024976     
  -10202820.1982996     
  -10157332.1828181     
  -10106936.2420596     
  -10050153.1811261     
  -13088993.3068769     
  -13076664.9766717     
  -13065641.5026716     
  -13055531.9397255     
  -13045946.4587411     
  -13036568.1655471     
  -13027163.6877427     
  -13017566.5851039     
  -13007658.3788623     
  -12997354.7547469     
  -12986596.4242917     
  -12975342.8763898     
  -12963567.8211724     
  -12951255.6706118     
  -12938398.7221020     
  -12924994.8783868     
  -12911045.8121999     
  -12896555.5133989     
  -12881529.1662116     
  -12865972.3073623     
  -12849890.2179915     
  -12833287.5053944     
  -12816167.8349085     
  -12798533.7774040     
  -12780386.7432602     
  -12761726.9790005     
  -12742553.6076288     
  -12722864.6979783     
  -12702657.3520034     
  -12681927.8019058     
  -12660671.5113614     
  -12638883.2769544     
  -12616557.3273301     
  -12593687.4186103     
  -12570266.9253670     
  -12546288.9269691     
  -12521746.2894626     
  -12496631.7433687     
  -12470937.9579109     
  -12444657.6122443     
  -12417783.4642816     
  -12390308.4177014     
  -12362225.5877020     
  -12333528.3660266     
  -12304210.4857602     
  -12274266.0863564     
  -12243689.7793307     
  -12212476.7150309     
  -12180622.6508817     
  -12148124.0214905     
  -12114978.0110059     
  -12081182.6281259     
  -12046736.7841784     
  -12011640.3747247     
  -11975894.3651796     
  -11939500.8810071     
  -11902463.3031151     
  -11864786.3691706     
  -11826476.2816631     
  -11787540.8236729     
  -11747989.4834477     
  -11707833.5890518     
  -11667086.4545244     
  -11625763.5391509     
  -11583882.6216065     
  -11541463.9908368     
  -11498530.6555659     
  -11455108.5742184     
  -11411226.9067268     
  -11366918.2890778     
  -11322219.1304066     
  -11277169.9308129     
  -11231815.6156400     
  -11186205.8784917     
  -11140395.5204716     
  -11094444.7666719     
  -11048419.5324788     
  -11002391.6014250     
  -10956438.6627889     
  -10910644.1407143     
  -10865096.7272825     
  -10819889.5100418     
  -10775118.5607824     
  -10730880.8282547     
  -10687271.1551013     
  -10644378.2209316     
  -10602279.2010009     
  -10561032.9222570     
  -10520671.2866397     
  -10481188.6891081     
  -10442529.0256495     
  -10404569.5446850     
  -10367100.0297313     
  -10329794.3243123     
  -10292168.7212615     
  -10253519.1310485     
  -10212834.7594260     
  -10168723.3002465     
  -10119462.1723502     
  -10063332.8349881     
  -13085728.8410248     
  -13073548.3200802     
  -13062777.6878827     
  -13052968.4840426     
  -13043685.3564830     
  -13034585.7437683     
  -13025425.5416595     
  -13016035.7902147     
  -13006299.4636176     
  -12996135.5209479     
  -12985488.6574539     
  -12974322.4570057     
  -12962614.5154885     
  -12950352.7586240     
  -12937532.5559735     
  -12924154.4279684     
  -12910222.2315333     
  -12895741.7471967     
  -12880719.6053558     
  -12865162.4958614     
  -12849076.6096407     
  -12832467.2659134     
  -12815338.6840813     
  -12797693.8653336     
  -12779534.5549782     
  -12760861.2621266     
  -12741673.3183960     
  -12721968.9616260     
  -12701745.4342121     
  -12680999.0885806     
  -12659725.4946208     
  -12637919.5456610     
  -12615575.5608891     
  -12592687.3830919     
  -12569248.4712531     
  -12545251.9880302     
  -12520690.8824187     
  -12495557.9681025     
  -12469845.9980815     
  -12443547.7362104     
  -12416656.0262834     
  -12389163.8592786     
  -12361064.4393394     
  -12332351.2490363     
  -12303018.1144074     
  -12273059.2702444     
  -12242469.4260586     
  -12211243.8331358     
  -12179378.3530774     
  -12146869.5282093     
  -12113714.6542481     
  -12079911.8556175     
  -12045460.1638308     
  -12010359.5993847     
  -11974611.2576553     
  -11938217.3993383     
  -11901181.5460598     
  -11863508.5818617     
  -11825204.8613878     
  -11786278.3257213     
  -11746738.6269778     
  -11706597.2629298     
  -11665867.7231217     
  -11624565.6481306     
  -11582709.0038061     
  -11540318.2724795     
  -11497416.6632194     
  -11454030.3431852     
  -11410188.6919258     
  -11365924.5799921     
  -11321274.6723604     
  -11276279.7557412     
  -11230985.0866753     
  -11185440.7541485     
  -11139702.0459969     
  -11093829.8022800     
  -11047890.7306861     
  -11001957.6485096     
  -10956109.6024125     
  -10910431.8007614     
  -10865015.2736650     
  -10819956.1530961     
  -10775354.4402201     
  -10731312.1004206     
  -10687930.3001886     
  -10645305.5760320     
  -10603524.7051269     
  -10562658.0286693     
  -10522750.9516099     
  -10483813.2774524     
  -10445805.8683360     
  -10408623.7159382     
  -10372073.6148189     
  -10335842.8940086     
  -10299452.6619636     
  -10262185.0371802     
  -10222977.2908920     
  -10180316.1114499     
  -10132266.3515103     
  -10076841.9939590     
  -13082392.6377486     
  -13070372.9353941     
  -13059874.0965759     
  -13050382.8141098     
  -13041415.1274867     
  -13032603.0885743     
  -13023693.0805591     
  -13014514.5977372     
  -13004952.6802751     
  -12994929.9491140     
  -12984395.3444123     
  -12973316.7329643     
  -12961675.7400675     
  -12949463.9187439     
  -12936679.8013512     
  -12923326.5978476     
  -12909410.4052782     
  -12894938.8372866     
  -12879920.0016168     
  -12864361.7632118     
  -12848271.2374063     
  -12831654.4642619     
  -12814516.2218581     
  -12796859.9431702     
  -12778687.7076859     
  -12760000.2848675     
  -12740797.2117752     
  -12721076.8915601     
  -12700836.7031366     
  -12680073.1152063     
  -12658781.8000320     
  -12636957.7440334     
  -12614595.3535256     
  -12591688.5547915     
  -12568230.8883095     
  -12544215.5973444     
  -12519635.7113782     
  -12494484.1249877     
  -12468753.6728484     
  -12442437.2015584     
  -12415527.6389580     
  -12388018.0615856     
  -12359901.7608688     
  -12331172.3085998     
  -12301823.6222030     
  -12271850.0302629     
  -12241246.3387450     
  -12210007.8983212     
  -12178130.6731888     
  -12145611.3117687     
  -12112447.2196614     
  -12078636.6352536     
  -12044178.7083833     
  -12009073.5825047     
  -11973322.4808314     
  -11936927.7969997     
  -11899893.1908591     
  -11862223.6900946     
  -11823925.7984936     
  -11785007.6118031     
  -11745478.9422848     
  -11705351.4532498     
  -11664638.8050602     
  -11623356.8142976     
  -11581523.6280125     
  -11539159.9151713     
  -11496289.0775665     
  -11452937.4825168     
  -11409134.7195894     
  -11364913.8832431     
  -11320311.8826003     
  -11275369.7783513     
  -11230133.1448946     
  -11184652.4529486     
  -11138983.4637649     
  -11093187.6203446     
  -11047332.4133218     
  -11001491.6889708     
  -10955745.8536940     
  -10910181.9129234     
  -10864893.2623892     
  -10819979.1261184     
  -10775543.5086851     
  -10731693.4999811     
  -10688536.7404771     
  -10646177.8251829     
  -10604713.3961474     
  -10564225.6438349     
  -10524773.8959968     
  -10486383.8875693     
  -10449034.1050792     
  -10412638.1413158     
  -10377020.9914948     
  -10341885.2389120     
  -10306759.6009717     
  -10270916.8465941     
  -10233247.8628551     
  -10192119.5186138     
  -10145369.7209382     
  -10090710.9960423     
  -13078977.7195372     
  -13067134.2377585     
  -13056929.0796432     
  -13047775.2796354     
  -13039137.0419146     
  -13030621.7683735     
  -13021967.8958416     
  -13013004.4983925     
  -13003619.3631240     
  -12993739.1982382     
  -12983317.4698069     
  -12972326.5261032     
  -12960752.1709258     
  -12948589.7003115     
  -12935840.9001807     
  -12922511.7407566     
  -12908610.6133359     
  -12894147.0050026     
  -12879130.5298382     
  -12863570.2477537     
  -12847474.2112128     
  -12830849.1883750     
  -12813700.5192010     
  -12796032.0687523     
  -12777846.2490017     
  -12759144.0867764     
  -12739925.3208242     
  -12720188.5154670     
  -12699931.1818781     
  -12679149.9008379     
  -12657840.4429604     
  -12635997.8839782     
  -12613616.7138228     
  -12590690.9390451     
  -12567214.1786560     
  -12543179.7538183     
  -12518580.7720163     
  -12493410.2064356     
  -12467660.9713160     
  -12441325.9940338     
  -12414398.2846305     
  -12386871.0034591     
  -12358737.5275604     
  -12329991.5163342     
  -12300626.9770154     
  -12270638.3304250     
  -12240020.4774312     
  -12208768.8665273     
  -12176879.5629155     
  -12144349.3194762     
  -12111175.6499978     
  -12077356.9050560     
  -12042892.3509427     
  -12007782.2520800     
  -11972027.9573885     
  -11935631.9911445     
  -11898598.1489214     
  -11860931.5993129     
  -11822638.9922376     
  -11783728.5747695     
  -11744210.3155979     
  -11704096.0394083     
  -11663399.5726975     
  -11622136.9027651     
  -11580326.3518819     
  -11537988.7688753     
  -11495147.7405914     
  -11451829.8258407     
  -11408064.8144571     
  -11363886.0139066     
  -11319330.5653907     
  -11274439.7904031     
  -11229259.5670781     
  -11183840.7331284     
  -11138239.5084156     
  -11092517.9248677     
  -11046744.2440969     
  -11000993.3332189     
  -10955346.9564968     
  -10909893.9240389     
  -10864730.0184761     
  -10819957.5960955     
  -10775684.7304531     
  -10732023.7345592     
  -10689088.8633792     
  -10646992.9628287     
  -10605842.7951837     
  -10565732.7309554     
  -10526736.4420985     
  -10488896.1289757     
  -10452208.5870248     
  -10416606.9182559     
  -10381935.6008387     
  -10347914.4124028     
  -10314082.7866280     
  -10279709.2842541     
  -10243645.5567043     
  -10204141.9363270     
  -10158794.3364038     
  -10104972.9939736     
  -13075476.3845753     
  -13063827.3902333     
  -13053941.1524095     
  -13045146.4956260     
  -13036852.5665201     
  -13028643.4749990     
  -13020251.6596122     
  -13011507.0382465     
  -13002300.8857349     
  -12992564.4559920     
  -12982256.0393248     
  -12971352.6734984     
  -12959844.4947749     
  -12947730.6597808     
  -12935016.2987286     
  -12921710.2116139     
  -12907823.1362075     
  -12893366.4711420     
  -12878351.3635528     
  -12862788.0860253     
  -12846685.6389076     
  -12830051.5239950     
  -12812891.6448768     
  -12795210.2977971     
  -12777010.2245487     
  -12758292.7055649     
  -12739057.6769279     
  -12719303.8595315     
  -12699028.8922060     
  -12678229.4633596     
  -12656901.4377540     
  -12635039.9765227     
  -12612639.6496154     
  -12589694.5405574     
  -12566198.3438899     
  -12542144.4559347     
  -12517526.0596755     
  -12492336.2046092     
  -12466567.8824187     
  -12440214.0992849     
  -12413267.9455993     
  -12385722.6637749     
  -12357571.7147881     
  -12328808.8440238     
  -12299428.1469420     
  -12269424.1350348     
  -12238791.8025108     
  -12207526.6941107     
  -12175624.9744393     
  -12143083.4991891     
  -12109899.8886298     
  -12076072.6037418     
  -12041601.0253902     
  -12006485.5369657     
  -11970727.6109577     
  -11934329.8999759     
  -11897296.3328149     
  -11859632.2162396     
  -11821344.3432894     
  -11782441.1090320     
  -11742932.6348721     
  -11702830.9027146     
  -11662149.9005140     
  -11620905.7810076     
  -11579117.0357018     
  -11536804.6864915     
  -11493992.4975601     
  -11450707.2104561     
  -11406978.8053753     
  -11362840.7916485     
  -11318330.5301156     
  -11273489.5893439     
  -11228364.1362890     
  -11183005.3598078     
  -11137469.9220468     
  -11091820.4278058     
  -11046125.8950288     
  -11000462.2000797     
  -10954912.4588386     
  -10909567.2883050     
  -10864524.8727654     
  -10819890.7332911     
  -10775777.0692267     
  -10732301.5056908     
  -10689585.0426415     
  -10647748.9596667     
  -10606910.3865402     
  -10567176.1997805     
  -10528634.8377881     
  -10491345.5100837     
  -10455324.0293066     
  -10420523.9598110     
  -10386810.6263006     
  -10353923.0945529     
  -10321414.8988452     
  -10288556.1720833     
  -10254168.2383273     
  -10216391.0356934     
  -10172563.4398421     
  -10119664.5112208     
  -13071880.0600245     
  -13060447.2954897     
  -13050909.0687883     
  -13042497.3976002     
  -13034563.3848361     
  -13026670.0310167     
  -13018546.1285261     
  -13010023.8202693     
  -13000998.6613247     
  -12991406.9384979     
  -12981212.0791109     
  -12970396.0267017     
  -12958953.4081966     
  -12946887.3599042     
  -12934206.4468210     
  -12920922.3668417     
  -12907048.2544032     
  -12892597.4554689     
  -12877582.6745734     
  -12862015.4124336     
  -12845905.6260002     
  -12829261.5544679     
  -12812089.6653017     
  -12794394.6837862     
  -12776179.6778684     
  -12757446.1770413     
  -12738194.3097543     
  -12718422.9484080     
  -12698129.8545374     
  -12677311.8194726     
  -12655964.7977324     
  -12634084.0318111     
  -12611664.1679858     
  -12588699.3634017     
  -12565183.3850861     
  -12541109.7017537     
  -12516471.5693670     
  -12491262.1114249     
  -12465474.3949229     
  -12439101.5028663     
  -12412136.6041382     
  -12384573.0214515     
  -12356404.2980330     
  -12327624.2636232     
  -12298227.1003128     
  -12268207.4086914     
  -12237560.2747362     
  -12206281.3378508     
  -12174366.8604290     
  -12141813.7993196     
  -12108619.8795567     
  -12074783.6707302     
  -12040304.6663877     
  -12005183.3668835     
  -11969421.3661288     
  -11933021.4427565     
  -11895987.6562752     
  -11858325.4488853     
  -11820041.7537385     
  -11781145.1105698     
  -11741645.7897965     
  -11701555.9263968     
  -11660889.6651202     
  -11619663.3188672     
  -11577895.5423975     
  -11535607.5238653     
  -11492823.1970341     
  -11449569.4773518     
  -11405876.5253265     
  -11361778.0407677     
  -11317311.5913417     
  -11272518.9784029     
  -11227446.6420107     
  -11182146.1051883     
  -11136674.4544913     
  -11091094.8494539     
  -11045477.0469609     
  -10999897.9174866     
  -10954441.9178006     
  -10909201.4684474     
  -10864277.1633931     
  -10819777.7130767     
  -10775819.4903565     
  -10732525.5114543     
  -10690023.6413751     
  -10648443.7660196     
  -10607913.6212968     
  -10568552.9102018     
  -10530465.2597707     
  -10493727.4406027     
  -10458375.0117248     
  -10424382.9925386     
  -10391638.9860295     
  -10359903.5738574     
  -10328748.0148534     
  -10297450.3353487     
  -10264812.3031103     
  -10228873.4025955     
  -10186701.4993094     
  -10134826.1217453     
  -13068179.1196944     
  -13056988.5995693     
  -13047831.9201031     
  -13039829.3022597     
  -13032271.4139076     
  -13024703.3955166     
  -13016853.1471319     
  -13008556.5054324     
  -12999714.1429156     
  -12990267.8899925     
  -12980186.6351008     
  -12969457.4509266     
  -12958079.6167763     
  -12946060.3688818     
  -12933411.7970562     
  -12920148.5636645     
  -12906286.2478358     
  -12891840.1762027     
  -12876824.6325739     
  -12861252.3589164     
  -12845134.2753955     
  -12828479.3605380     
  -12811294.6443841     
  -12793585.2778459     
  -12775354.6503349     
  -12756604.5350480     
  -12737335.2472104     
  -12717545.8051886     
  -12697234.0879172     
  -12676396.9846813     
  -12655030.5351819     
  -12633130.0591012     
  -12610690.2752634     
  -12587705.4110193     
  -12564169.3027973     
  -12540075.4889141     
  -12515417.2957731     
  -12490187.9185545     
  -12464380.4974295     
  -12437988.1902409     
  -12411004.2424998     
  -12383422.0554534     
  -12355235.2528876     
  -12326437.7472614     
  -12297023.8056958     
  -12266988.1162942     
  -12236325.8552226     
  -12205032.7549535     
  -12173105.1740476     
  -12140540.1688430     
  -12107335.5674112     
  -12073490.0461490     
  -12039003.2093876     
  -12003875.6724299     
  -11968109.1484587     
  -11931706.5398148     
  -11894672.0342136     
  -11857011.2065554     
  -11818731.1271027     
  -11779840.4769375     
  -11740349.6717993     
  -11700270.9956093     
  -11659618.7452617     
  -11618409.3885603     
  -11576661.7375396     
  -11534397.1397958     
  -11491639.6908798     
  -11448416.4712229     
  -11404757.8114527     
  -11360697.5902359     
  -11316273.5688802     
  -11271527.7666841     
  -11226506.8802848     
  -11181262.7487507     
  -11135852.8635972     
  -11090340.9188334     
  -11044797.3900910     
  -10999300.1231891     
  -10953934.9004543     
  -10908795.9369158     
  -10863986.2373063     
  -10819617.7178130     
  -10775810.9631262     
  -10732694.4491847     
  -10690403.0151871     
  -10649075.3153301     
  -10608849.9210510     
  -10569859.6760299     
  -10532223.8170665     
  -10496037.2343001     
  -10461355.9799252     
  -10428177.5553237     
  -10396413.3273116     
  -10365847.7312803     
  -10336073.5819292     
  -10306383.5249263     
  -10275572.3956441     
  -10241594.0820356     
  -10201234.1933700     
  -10150503.2944089     
  -13064362.6537073     
  -13053445.7161649     
  -13044709.2664690     
  -13037143.9715189     
  -13029978.8155914     
  -13022745.6686257     
  -13015174.6506669     
  -13007106.8132459     
  -12998448.8233113     
  -12989148.5823595     
  -12979180.7722687     
  -12968537.8241843     
  -12957223.8341918     
  -12945250.2594784     
  -12932632.8039859     
  -12919389.1593814     
  -12905537.3951949     
  -12891094.8494945     
  -12876077.4046585     
  -12860499.0545969     
  -12844371.6871222     
  -12827705.0201366     
  -12810506.6433660     
  -12792782.1286306     
  -12774535.1810684     
  -12755767.8114009     
  -12736480.5153996     
  -12716672.4513756     
  -12696341.6099983     
  -12675484.9732816     
  -12654098.6613456     
  -12632178.0667587     
  -12609717.9770228     
  -12586712.6862194     
  -12563156.0970561     
  -12539041.8146350     
  -12514363.2332484     
  -12489113.6174284     
  -12463286.1783768     
  -12436874.1467828     
  -12409870.8429186     
  -12382269.7447943     
  -12354064.5550586     
  -12325249.2672460     
  -12295818.2318999     
  -12265766.2230471     
  -12235088.5054537     
  -12203780.9030582     
  -12171839.8689574     
  -12139262.5573026     
  -12106046.8974672     
  -12072191.6708422     
  -12037696.5906371     
  -12002562.3850834     
  -11966790.8844783     
  -11930385.1125537     
  -11893349.3827243     
  -11855689.3998591     
  -11817412.3683341     
  -11778527.1072719     
  -11739044.1740563     
  -11698975.9974379     
  -11658337.0218248     
  -11617143.8646812     
  -11575415.4893481     
  -11533173.3960422     
  -11490441.8342787     
  -11447248.0404857     
  -11403622.5050803     
  -11359599.2737345     
  -11315216.2878454     
  -11270515.7692569     
  -11225544.6538448     
  -11180355.0774512     
  -11135004.9155077     
  -11089558.3740829     
  -11044086.6245058     
  -10998668.4654675     
  -10953390.9848065     
  -10908350.1771067     
  -10863651.4518135     
  -10819409.9387784     
  -10775750.4631048     
  -10732807.0182675     
  -10690721.5154154     
  -10649641.5277830     
  -10609716.6818136     
  -10571093.2689724     
  -10533906.5547309     
  -10498270.1121402     
  -10464261.2471581     
  -10431900.9990407     
  -10401126.0235775     
  -10371747.0267705     
  -10343382.3959539     
  -10315346.3645628     
  -10286441.1138037     
  -10254555.9720764     
  -10216188.3008260     
  -10166747.4593118     
  -13060418.1723728     
  -13049812.8855116     
  -13041541.3107849     
  -13034443.6752448     
  -13027688.0002514     
  -13020799.0954965     
  -13013512.6671184     
  -13005676.5216546     
  -12997204.2349319     
  -12988050.3145067     
  -12978195.5737930     
  -12967638.0363609     
  -12956386.7812560     
  -12944457.6081057     
  -12931869.9232722     
  -12918644.5106187     
  -12904801.9733042     
  -12890361.6888882     
  -12875341.1549220     
  -12859755.6254318     
  -12843617.9580563     
  -12826938.6081698     
  -12809725.7206604     
  -12791985.2822010     
  -12773721.3068469     
  -12754936.0358245     
  -12735630.1385775     
  -12715802.9068507     
  -12695452.4370235     
  -12674575.7983489     
  -12653169.1864191     
  -12631228.0622560     
  -12608747.2780826     
  -12585721.1911800     
  -12562143.7673756     
  -12538008.6757187     
  -12513309.3758239     
  -12488039.1992371     
  -12462191.4260427     
  -12435759.3577816     
  -12408736.3876147     
  -12381116.0685410     
  -12352892.1803710     
  -12324058.7960670     
  -12294610.3479800     
  -12264541.6944632     
  -12233848.1872860     
  -12202525.7402430     
  -12170570.8993256     
  -12137980.9148155     
  -12104753.8156439     
  -12070888.4863768     
  -12036384.7471878     
  -12001243.4372116     
  -11965466.5017003     
  -11929057.0834580     
  -11892019.6190925     
  -11854359.9407144     
  -11816085.3838269     
  -11777204.9022971     
  -11737729.1914937     
  -11697670.8209035     
  -11657044.3778402     
  -11615866.6242057     
  -11574156.6686954     
  -11531936.1573266     
  -11489229.4857333     
  -11446064.0372879     
  -11402470.4517403     
  -11358482.9296902     
  -11314139.5787117     
  -11269482.8072437     
  -11224559.7722502     
  -11179422.8859173     
  -11134130.3849413     
  -11088746.9628506     
  -11043344.4607194     
  -10998002.6038604     
  -10952809.7607587     
  -10907863.6846070     
  -10863272.1761696     
  -10819153.5781466     
  -10775636.9745586     
  -10732861.9230167     
  -10690977.4924694     
  -10650140.3140629     
  -10610511.2780625     
  -10572250.4228289     
  -10535509.4578295     
  -10500421.2058012     
  -10467084.9967618     
  -10435546.4868445     
  -10405769.1743475     
  -10377592.4891588     
  -10350664.5823755     
  -10324328.3331631     
  -10297408.7186288     
  -10267759.0209566     
  -10231591.4308042     
  -10183617.3782013     
  -13056331.2181364     
  -13046084.2916331     
  -13038329.1275302     
  -13031731.2437284     
  -13025401.6211693     
  -13018866.0711313     
  -13011869.3179761     
  -13004267.4663329     
  -12995981.9495641     
  -12986974.4115281     
  -12977232.1401555     
  -12966758.9882308     
  -12955569.1849082     
  -12943682.9938668     
  -12931123.6108087     
  -12917914.9725568     
  -12904080.2564600     
  -12889640.9047689     
  -12874616.0440004     
  -12859022.1938523     
  -12842873.1816399     
  -12826180.1963018     
  -12808951.9316903     
  -12791194.7819054     
  -12772913.0620207     
  -12754109.2358934     
  -12734784.1391103     
  -12714937.1898478     
  -12694566.5838068     
  -12673669.4717283     
  -12652242.1195434     
  -12630280.0521684     
  -12607778.1825058     
  -12584730.9274492     
  -12561132.3127519     
  -12536976.0685517     
  -12512255.7172076     
  -12486964.6549354     
  -12461096.2285491     
  -12434643.8084436     
  -12407600.8587958     
  -12379961.0058158     
  -12351718.1047721     
  -12322866.3064008     
  -12293400.1232410     
  -12263314.4963690     
  -12232604.8629541     
  -12201267.2250280     
  -12169298.2198304     
  -12136695.1920798     
  -12103456.2685144     
  -12069580.4350482     
  -12035067.6169005     
  -11999918.7620782     
  -11964135.9286258     
  -11927722.3761003     
  -11890682.6617996     
  -11853022.7423559     
  -11814750.0814219     
  -11775873.7643301     
  -11736404.6207936     
  -11696355.3569662     
  -11655740.6984847     
  -11614577.5464926     
  -11572885.1491083     
  -11530685.2913376     
  -11488002.5070722     
  -11444864.3175201     
  -11401301.5011861     
  -11357348.4013059     
  -11313043.2773660     
  -11268428.7079042     
  -11223552.0520155     
  -11178465.9766406     
  -11133229.0554704     
  -11087906.4426875     
  -11042570.6202168     
  -10997302.2098974     
  -10952190.8310799     
  -10907335.9684610     
  -10862847.7931909     
  -10818847.8510065     
  -10775469.4929264     
  -10732857.8756355     
  -10691169.2992746     
  -10650569.5792523     
  -10611231.0669614     
  -10573327.8379110     
  -10537028.4557131     
  -10502485.5614873     
  -10469821.2856122     
  -10439106.9948496     
  -10410334.6079360     
  -10383374.7120571     
  -10357909.5732426     
  -10333317.7898504     
  -10308462.8914375     
  -10281199.1710271     
  -10247471.4835401     
  -10201180.9397158     
  -13052084.8460469     
  -13042254.2788630     
  -13035074.9596448     
  -13029010.0938172     
  -13023122.5601633     
  -13016949.1478829     
  -13010246.8164775     
  -13002881.5397468     
  -12994783.5779862     
  -12985922.2236111     
  -12976291.5882135     
  -12965901.5903784     
  -12954771.7771645     
  -12942926.9975638     
  -12930394.3218133     
  -12917200.8981367     
  -12903372.5157511     
  -12888932.7037990     
  -12873902.2286110     
  -12858298.8783980     
  -12842137.4475959     
  -12825429.8527378     
  -12808185.3287231     
  -12790410.6682584     
  -12772110.4784244     
  -12753287.4369697     
  -12733942.5374331     
  -12714075.3169247     
  -12693684.0637157     
  -12672766.0040231     
  -12651317.4687997     
  -12629334.0421730     
  -12606810.6936000     
  -12583741.8959469     
  -12560121.7316669     
  -12535943.9891088     
  -12511202.2507893     
  -12485889.9752446     
  -12460000.5738634     
  -12433527.4838970     
  -12406464.2386620     
  -12378804.5358017     
  -12350542.3043343     
  -12321671.7711138     
  -12292187.5272426     
  -12262084.5949101     
  -12231358.4950757     
  -12200005.3163834     
  -12168021.7856656     
  -12135405.3403790     
  -12102154.2033103     
  -12068267.4598882     
  -12033745.1384527     
  -11998588.2938497     
  -11962799.0947510     
  -11926380.9151486     
  -11889338.4305311     
  -11851677.7193395     
  -11813406.3704128     
  -11774533.5972855     
  -11735070.3603975     
  -11695029.4985275     
  -11654425.8710831     
  -11613276.5132846     
  -11571600.8067678     
  -11529420.6687304     
  -11486760.7634523     
  -11443648.7408212     
  -11400115.5074087     
  -11356195.5365902     
  -11311927.2251577     
  -11267353.3047175     
  -11222521.3167366     
  -11177484.1601654     
  -11132300.7197968     
  -11087036.5814390     
  -11041764.8359967     
  -10996566.9678391     
  -10951533.8123908     
  -10906766.5524535     
  -10862377.7009000     
  -10818491.9874274     
  -10775247.0273542     
  -10732793.5992613     
  -10691295.2948223     
  -10650927.2268736     
  -10611873.3927588     
  -10574322.1856595     
  -10538459.4267029     
  -10504458.1438668     
  -10472464.0487607     
  -10442575.3133673     
  -10414813.8852053     
  -10389083.8612993     
  -10365106.0718557     
  -10342302.0395357     
  -10319588.6123231     
  -10294866.9881504     
  -10263855.6529774     
  -10219517.5621247     
  -13047658.9109542     
  -13038317.7399811     
  -13031782.5937374     
  -13026284.2017156     
  -13020853.9106419     
  -13015051.0467766     
  -13008647.4614376     
  -13001520.6910067     
  -12993610.7691241     
  -12984895.1247325     
  -12975375.0502626     
  -12965066.7619984     
  -12953995.2940398     
  -12942190.2006531     
  -12929682.5098927     
  -12916502.6372417     
  -12902679.0183634     
  -12888237.2883419     
  -12873199.8610867     
  -12857585.7933483     
  -12841410.8416407     
  -12824687.6420034     
  -12807425.9607079     
  -12789632.9788213     
  -12771313.5852916     
  -12752470.6621428     
  -12733105.3520087     
  -12713217.3029379     
  -12692804.8886567     
  -12671865.4045868     
  -12650395.2412065     
  -12628390.0370477     
  -12605844.8139175     
  -12582754.0969657     
  -12559112.0220896     
  -12534912.4329562     
  -12510148.9696433     
  -12484815.1506563     
  -12458904.4498038     
  -12432410.3691938     
  -12405326.5094088     
  -12377646.6377448     
  -12349364.7552607     
  -12320475.1632672     
  -12290972.5298026     
  -12260851.9565543     
  -12230109.0466561     
  -12198739.9737327     
  -12166741.5525474     
  -12134111.3115890     
  -12100847.5679279     
  -12066949.5046691     
  -12032417.2513448     
  -11997251.9676017     
  -11961455.9305736     
  -11925032.6263718     
  -11887986.8461811     
  -11850324.7875489     
  -11812054.1615499     
  -11773184.3066786     
  -11733726.3105086     
  -11693693.1404314     
  -11653099.7851086     
  -11611963.4087067     
  -11570303.5205068     
  -11528142.1631252     
  -11485504.1233588     
  -11442417.1705826     
  -11398912.3286483     
  -11355024.1883817     
  -11310791.2689440     
  -11266256.4374573     
  -11221467.3972120     
  -11176477.2552751     
  -11131345.1800250     
  -11086137.1576350     
  -11040926.8531152     
  -10995796.5754167     
  -10950838.3361549     
  -10906154.9764117     
  -10861861.3141964     
  -10818085.2345641     
  -10774968.6032859     
  -10732667.8310931     
  -10691353.8478320     
  -10651211.1630618     
  -10612435.5914184     
  -10575230.1133774     
  -10539798.2033391     
  -10506333.8400361     
  -10475007.1050139     
  -10445944.0502905     
  -10419198.2996605     
  -10394709.7027375     
  -10372241.9997198     
  -10351267.4102557     
  -10330768.2846280     
  -10308745.9291692     
  -10280768.6372099     
  -10238721.4889634     
  -13043029.0611486     
  -13034270.8081041     
  -13028457.8085375     
  -13023557.9805872     
  -13018598.9768587     
  -13013174.6695344     
  -13007073.6249811     
  -13000186.9283258     
  -12992465.2077492     
  -12983894.5115538     
  -12974483.6729846     
  -12964255.4295777     
  -12953240.4744614     
  -12941473.1841333     
  -12928988.6260858     
  -12915820.5358484     
  -12902000.0268660     
  -12887554.8558723     
  -12872509.0888983     
  -12856883.0483445     
  -12840693.4451919     
  -12823953.6247243     
  -12806673.8731097     
  -12788861.7480821     
  -12770522.4091696     
  -12751658.9321719     
  -12732272.5992892     
  -12712363.1610163     
  -12691929.0690587     
  -12670967.6815148     
  -12649475.4427149     
  -12627448.0406708     
  -12604880.5452587     
  -12581767.5301752     
  -12558103.1814815     
  -12533881.3952540     
  -12509095.8665319     
  -12483740.1714365     
  -12457807.8440412     
  -12431292.4493148     
  -12404187.6532313     
  -12376487.2909589     
  -12348185.4338862     
  -12319276.4561208     
  -12289755.1010020     
  -12259616.5480971     
  -12228856.4810930     
  -12197471.1569577     
  -12165457.4767177     
  -12132813.0581822     
  -12099536.3109345     
  -12065626.5139122     
  -12031083.8959060     
  -11995909.7193247     
  -11960106.3675994     
  -11923677.4366458     
  -11886627.8308589     
  -11848963.8641998     
  -11810693.3670456     
  -11771825.7996290     
  -11732372.3730942     
  -11692346.1794661     
  -11651762.3321811     
  -11610638.1192644     
  -11568993.1718088     
  -11526849.6511031     
  -11484232.4586035     
  -11441169.4739507     
  -11397691.8274033     
  -11353834.2143698     
  -11309635.2611313     
  -11265137.9522640     
  -11220390.1315599     
  -11175445.0891703     
  -11130362.2479286     
  -11085207.9608741     
  -11040056.4292277     
  -10994990.7445783     
  -10950104.0496773     
  -10905500.7975193     
  -10861298.0665506     
  -10817626.8588013     
  -10774633.2651158     
  -10732479.3255911     
  -10691343.3405493     
  -10651419.3008242     
  -10612914.9955628     
  -10576048.2490119     
  -10541040.5781699     
  -10508107.4640250     
  -10477444.1616103     
  -10449205.6412089     
  -10423478.8654886     
  -10400241.6581481     
  -10379304.4402024     
  -10360199.2556668     
  -10341982.2986329     
  -10322810.2707768     
  -10298229.4467261     
  -10258906.4406830     
  -13038165.2683133     
  -13030112.1034130     
  -13025108.8419468     
  -13020836.0074934     
  -13016361.3315225     
  -13011323.0951696     
  -13005527.7368556     
  -12998882.3255277     
  -12991348.6090444     
  -12982921.8035610     
  -12973618.6157587     
  -12963468.5256609     
  -12952508.0591055     
  -12940776.5273753     
  -12928313.1178952     
  -12915154.9351431     
  -12901335.7984892     
  -12886885.5983724     
  -12871830.0541746     
  -12856190.7480111     
  -12839985.3350763     
  -12823227.8574043     
  -12805929.1077476     
  -12788097.0073359     
  -12769736.9738353     
  -12750852.2654272     
  -12731444.2936774     
  -12711512.9025383     
  -12691056.6138600     
  -12670072.8416376     
  -12648558.0782066     
  -12626508.0560206     
  -12603917.8886723     
  -12580782.1946252     
  -12557095.2067987     
  -12532850.8707616     
  -12508042.9339100     
  -12482665.0276285     
  -12456710.7441045     
  -12430173.7091726     
  -12403047.6523264     
  -12375326.4748280     
  -12347004.3166850     
  -12318075.6231364     
  -12288535.2111885     
  -12258378.3366655     
  -12227600.7621814     
  -12196198.8264045     
  -12164169.5149515     
  -12131510.5332342     
  -12098220.3815733     
  -12064298.4328909     
  -12029745.0133003     
  -11994561.4859311     
  -11958750.3383469     
  -11922315.2739593     
  -11885261.3078934     
  -11847594.8678445     
  -11809323.9005766     
  -11770457.9848638     
  -11731008.4518857     
  -11690988.5143614     
  -11650413.4060659     
  -11609300.5338396     
  -11567669.6447995     
  -11525543.0122010     
  -11482945.6443188     
  -11439905.5218239     
  -11396453.8704349     
  -11352625.4771127     
  -11308459.0597112     
  -11263997.7017116     
  -11219289.3653280     
  -11174387.4976442     
  -11129351.7452117     
  -11084248.7922057     
  -11039153.3351262     
  -10994149.2022286     
  -10949330.6171064     
  -10904803.5916402     
  -10860687.4117236     
  -10817116.1479243     
  -10774240.0789105     
  -10732226.8577228     
  -10691262.1727145     
  -10651549.5643676     
  -10613308.9396872     
  -10576773.2062799     
  -10542182.3091510     
  -10509773.7642143     
  -10479768.8131217     
  -10452352.3739542     
  -10427646.2869013     
  -10405668.8769043     
  -10386279.6533473     
  -10369081.6881345     
  -10353210.2905312     
  -10337022.9518553     
  -10316245.6513195     
  -10280212.4079072     
  -13033029.5897356     
  -13025845.0346728     
  -13021746.6786988     
  -13018122.5577442     
  -13014145.0071750     
  -13009499.5153999     
  -13004012.2839805     
  -12997609.0278670     
  -12990262.7098414     
  -12981978.4457104     
  -12972781.0473126     
  -12962706.9883220     
  -12951798.7888399     
  -12940100.8070340     
  -12927656.4282441     
  -12914506.1706196     
  -12900686.5843873     
  -12886229.7017115     
  -12871162.8932156     
  -12855508.9915687     
  -12839286.5832362     
  -12822510.3922036     
  -12805191.7026293     
  -12787338.7845701     
  -12768957.3002138     
  -12750050.6778348     
  -12730620.4474912     
  -12710666.5371091     
  -12690187.5304954     
  -12669180.8905143     
  -12647643.1514933     
  -12625570.0851788     
  -12602956.8444592     
  -12579798.0887482     
  -12556088.0944969     
  -12531820.8538408     
  -12506990.1639283     
  -12481589.7090584     
  -12455613.1373839     
  -12429054.1336160     
  -12401906.4888994     
  -12374164.1688126     
  -12345821.3802718     
  -12316872.6379829     
  -12287312.8309821     
  -12257137.2897232     
  -12226341.8541181     
  -12194922.9428879     
  -12162877.6245607     
  -12130203.6904287     
  -12096899.7297699     
  -12062965.2076382     
  -12028400.5455319     
  -11993207.2052593     
  -11957387.7763541     
  -11920946.0674187     
  -11883887.2018380     
  -11846217.7183762     
  -11807945.6772879     
  -11769080.7727176     
  -11729634.4523807     
  -11689620.0457900     
  -11649052.9026695     
  -11607950.5436852     
  -11566332.8262434     
  -11524222.1289045     
  -11481643.5589518     
  -11438625.1888480     
  -11395198.3287678     
  -11351397.8440481     
  -11307262.5282915     
  -11262835.5448675     
  -11218164.9515978     
  -11173304.3252476     
  -11128313.5037634     
  -11083259.4645011     
  -11038217.3552716     
  -10993271.6909683     
  -10948517.7204403     
  -10904062.9546475     
  -10860028.8255124     
  -10816552.4133115     
  -10773788.1352025     
  -10731909.2262785     
  -10691108.7656078     
  -10651599.8937616     
  -10613614.7649851     
  -10577401.5916241     
  -10543219.1217846     
  -10511327.4384323     
  -10481974.5288008     
  -10455376.4285065     
  -10431690.9306087     
  -10410980.2373019     
  -10393153.3730231     
  -10377896.6943183     
  -10364433.2903066     
  -10351334.2429642     
  -10334802.7576254     
  -10302815.9902020     
  -13027572.5853599     
  -13021482.2065826     
  -13018384.5577313     
  -13015421.0443481     
  -13011954.9048301     
  -13007707.0170542     
  -13002529.8824895     
  -12996369.2298043     
  -12989209.2670909     
  -12981065.9106253     
  -12971972.1408873     
  -12961971.7618681     
  -12951113.4022374     
  -12939446.5964099     
  -12927018.9941476     
  -12913874.5712736     
  -12900052.6288316     
  -12885587.3450390     
  -12870507.7359941     
  -12854837.8724477     
  -12838597.2564344     
  -12821801.2767173     
  -12804461.6917922     
  -12786587.1043462     
  -12768183.4062985     
  -12749254.1828238     
  -12729801.0709287     
  -12709824.0725407     
  -12689321.8248860     
  -12668291.8324295     
  -12646730.6653150     
  -12624634.1293307     
  -12601997.4121777     
  -12578815.2103652     
  -12555081.8405360     
  -12530791.3384615     
  -12505937.5484391     
  -12480514.2053379     
  -12454515.0111350     
  -12427933.7074335     
  -12400764.1451652     
  -12373000.3524511     
  -12344636.6014065     
  -12315667.4745400     
  -12286087.9312776     
  -12255893.3750746     
  -12225079.7215063     
  -12193643.4676955     
  -12161581.7633991     
  -12128892.4840623     
  -12095574.3061363     
  -12061626.7849522     
  -12027050.4354516     
  -11991846.8160806     
  -11956018.6161826     
  -11919569.7472529     
  -11882505.4384750     
  -11844832.3370326     
  -11806558.6137947     
  -11767694.0751356     
  -11728250.2818415     
  -11688240.6763625     
  -11647680.7200357     
  -11606588.0424192     
  -11564982.6055320     
  -11522886.8866361     
  -11480326.0842524     
  -11437328.3534087     
  -11393925.0776887     
  -11350151.1875026     
  -11306045.5361223     
  -11261651.3473459     
  -11217016.7510804     
  -11172195.4254474     
  -11127247.3659027     
  -11082239.8028183     
  -11037248.2883198     
  -10992357.9698256     
  -10947665.0605317     
  -10903278.5037586     
  -10859321.8074995     
  -10815934.9921925     
  -10773276.5517318     
  -10731525.2575094     
  -10690881.5656553     
  -10651568.2509246     
  -10613829.8221140     
  -10577930.0154372     
  -10544146.7055667     
  -10512763.1558916     
  -10484054.6419714     
  -10458269.8835083     
  -10435602.9277318     
  -10416164.0132750     
  -10399911.8102537     
  -10386622.2477816     
  -10375636.3078009     
  -10365684.0163873     
  -10353843.8652790     
  -10326946.9462877     
  -13021727.2144788     
  -13017054.2813442     
  -13015034.9592441     
  -13012734.0746561     
  -13009797.2966145     
  -13005948.1321464     
  -13001083.5257777     
  -12995165.0502381     
  -12988190.1067129     
  -12980185.6785739     
  -12971193.0777639     
  -12961263.7948193     
  -12950452.6335129     
  -12938814.4649361     
  -12926401.2450724     
  -12913260.4589970     
  -12899434.1682431     
  -12884958.7002521     
  -12869864.7056028     
  -12854177.4779244     
  -12837917.4159465     
  -12821100.5537605     
  -12803739.1051402     
  -12785841.9876892     
  -12767415.3070723     
  -12748462.7912734     
  -12728986.1720363     
  -12708985.5148324     
  -12688459.5014294     
  -12667405.6703893     
  -12645820.6213425     
  -12623700.1887702     
  -12601039.5906450     
  -12577833.5566904     
  -12554076.4403854     
  -12529762.3182061     
  -12504885.0790005     
  -12479438.5058706     
  -12453416.3524840     
  -12426812.4153584     
  -12399620.6033544     
  -12371835.0053652     
  -12343449.9569994     
  -12314460.1069022     
  -12284860.4832503     
  -12254646.5608687     
  -12223814.3293602     
  -12192360.3625936     
  -12160281.8898678     
  -12127576.8690504     
  -12094244.0619776     
  -12060283.1123999     
  -12025694.6267608     
  -11990480.2581035     
  -11954642.7934240     
  -11918186.2448186     
  -11881115.9448205     
  -11843438.6463982     
  -11805162.6281853     
  -11766297.8056728     
  -11726855.8492932     
  -11686850.3106260     
  -11646296.7583401     
  -11605212.9260158     
  -11563618.8746767     
  -11521537.1737445     
  -11478993.1052619     
  -11436014.8976190     
  -11392633.9967375     
  -11348885.3846923     
  -11304807.9581148     
  -11260444.9813552     
  -11215844.6322054     
  -11171060.6607762     
  -11126153.1846137     
  -11081189.6447581     
  -11036245.9476307     
  -10991407.8149917     
  -10946772.3580603     
  -10902449.8789297     
  -10858565.8826990     
  -10815263.2501525     
  -10772704.4758408     
  -10731073.8095121     
  -10690579.0471187     
  -10651452.6270505     
  -10613951.4733671     
  -10578355.1013527     
  -10544960.7230064     
  -10514075.5405367     
  -10486002.4419779     
  -10461024.4902355     
  -10439372.7489882     
  -10421206.7286844     
  -10406543.7289649     
  -10395229.9873999     
  -10386808.0704433     
  -10380015.6482518     
  -10373228.7608193     
  -10352916.3812348     
  -13015397.6305959     
  -13012628.8982873     
  -13011699.0360178     
  -13010067.1239903     
  -13007679.0649328     
  -13004224.6120149     
  -12999676.9384281     
  -12993998.2522604     
  -12987207.2923679     
  -12979339.1414396     
  -12970445.0937049     
  -12960584.0151428     
  -12949817.2216916     
  -12938204.9722573     
  -12925803.6036901     
  -12912664.1468995     
  -12898831.4306297     
  -12884343.9312973     
  -12869233.9177444     
  -12853527.8887462     
  -12837247.1172515     
  -12820408.2611616     
  -12803023.9682793     
  -12785103.4519804     
  -12766653.0144311     
  -12747676.5114673     
  -12728175.7566783     
  -12708150.8681557     
  -12687600.5629915     
  -12666522.4061194     
  -12644913.0201779     
  -12622768.2629027     
  -12600083.3779456     
  -12576853.1243364     
  -12553071.8890294     
  -12528733.7862753     
  -12503832.7468817     
  -12478362.5998554     
  -12452317.1484311     
  -12425690.2420724     
  -12398475.8457169     
  -12370668.1072648     
  -12342261.4241135     
  -12313250.5093827     
  -12283630.4583590     
  -12253396.8156044     
  -12222545.6431098     
  -12191073.5898316     
  -12158977.9629203     
  -12126256.8009312     
  -12092908.9492957     
  -12058934.1383238     
  -12024333.0640183     
  -11989107.4719791     
  -11953260.2447031     
  -11916795.4926033     
  -11879718.6491259     
  -11842036.5704083     
  -11803757.6400216     
  -11764891.8794950     
  -11725451.0655238     
  -11685448.8550596     
  -11644900.9198831     
  -11603825.0927966     
  -11562241.5282934     
  -11520172.8814899     
  -11477644.5102970     
  -11434684.7073054     
  -11391324.9696979     
  -11347600.3177229     
  -11303549.6748544     
  -11259216.3257372     
  -11214648.4711989     
  -11169899.9029741     
  -11125030.8237634     
  -11080108.8408172     
  -11035210.1617537     
  -10990421.0205704     
  -10945839.3544734     
  -10901576.7442671     
  -10857760.6032540     
  -10814536.5834376     
  -10772071.0876307     
  -10730553.7747361     
  -10690199.7197253     
  -10651251.0389823     
  -10613977.1198169     
  -10578673.4436804     
  -10545656.9236258     
  -10515258.9563082     
  -10487811.6169491     
  -10463630.8930368     
  -10442992.4975340     
  -10426091.5227593     
  -10413041.4877734     
  -10403688.7269330     
  -10397924.0667289     
  -10394324.7954788     
  -10392646.5809080     
  -10381168.4879366     
  -13008436.7309204     
  -13008353.9608561     
  -13008333.6150469     
  -13007446.8974129     
  -13005598.8523917     
  -13002541.1388732     
  -12998313.2059637     
  -12992870.6300769     
  -12986263.0818894     
  -12978527.5447458     
  -12969729.5417719     
  -12959933.2793757     
  -12949207.9413515     
  -12937618.6473764     
  -12925226.4959161     
  -12912085.9321014     
  -12898244.6381421     
  -12883743.1917385     
  -12868615.4811537     
  -12852889.1782611     
  -12836586.4099815     
  -12819724.4314223     
  -12802316.3024259     
  -12784371.5108205     
  -12765896.5371265     
  -12746895.3490386     
  -12727369.8285131     
  -12707320.1348368     
  -12686745.0109028     
  -12665642.0400655     
  -12644007.8613598     
  -12621838.3502505     
  -12599128.7714352     
  -12575873.9093212     
  -12552068.1809742     
  -12527705.7354946     
  -12502780.5430684     
  -12477286.4762931     
  -12451217.3858566     
  -12424567.1722103     
  -12397329.8545252     
  -12369499.6379499     
  -12341070.9799703     
  -12312038.6565187     
  -12282397.8283517     
  -12252144.1081345     
  -12221273.6286049     
  -12189783.1121456     
  -12157669.9420658     
  -12124932.2358719     
  -12091568.9207960     
  -12057579.8118465     
  -12022965.6926431     
  -11987728.3993060     
  -11951870.9076838     
  -11915397.4242311     
  -11878313.4808834     
  -11840626.0343506     
  -11802343.5703410     
  -11763476.2133776     
  -11724035.8430792     
  -11684036.2180682     
  -11643493.1090818     
  -11602424.4434189     
  -11560850.4635908     
  -11518793.9040265     
  -11476280.1909303     
  -11433337.6719873     
  -11389997.8845800     
  -11346295.8735770     
  -11302270.5726087     
  -11257965.2659953     
  -11213428.1521601     
  -11168713.0330999     
  -11123880.1583480     
  -11078997.2546470     
  -11034140.7750578     
  -10989397.3989925     
  -10944865.8135383     
  -10900658.7882305     
  -10856905.5524264     
  -10813754.4169674     
  -10771375.6111370     
  -10729964.0681189     
  -10689742.1618284     
  -10650961.4827426     
  -10613904.2973784     
  -10578881.4652701     
  -10546231.3784907     
  -10516307.2168006     
  -10489476.5209497     
  -10466078.8297401     
  -10446454.1225897     
  -10430804.4733611     
  -10419383.9085622     
  -10412005.3011624     
  -10408861.7937911     
  -10408811.7041249     
  -10411415.9914664     
  -10412384.2031979     
  -13000596.6293585     
  -13004564.3368314     
  -13004750.4760096     
  -13004993.5281765     
  -13003501.3553081     
  -13000932.0781578     
  -12996979.8366821     
  -12991792.0541672     
  -12985355.6934424     
  -12977754.1681710     
  -12969046.7812425     
  -12959312.9279734     
  -12948625.3239502     
  -12937056.1239895     
  -12924670.2826783     
  -12911526.1273924     
  -12897673.9904010     
  -12883156.6317512     
  -12868009.4934015     
  -12852261.4137925     
  -12835935.3367857     
  -12819049.0919096     
  -12801616.1240646     
  -12783646.1740162     
  -12765145.8806550     
  -12746119.3069490     
  -12726568.3889583     
  -12706493.3153504     
  -12685892.8449523     
  -12664764.5713966     
  -12643105.1433657     
  -12620910.4484608     
  -12598175.7677488     
  -12574895.9070759     
  -12551065.3102538     
  -12526678.1583194     
  -12501728.4582696     
  -12476210.1239905     
  -12450117.0515250     
  -12423443.1903649     
  -12396182.6120811     
  -12368329.5773173     
  -12339878.6019530     
  -12310824.5230742     
  -12281162.5652685     
  -12250888.4076697     
  -12219998.2521199     
  -12188488.8927647     
  -12156357.7873761     
  -12123603.1306716     
  -12090223.9298900     
  -12056220.0828751     
  -12021592.4589215     
  -11986342.9826341     
  -11950474.7210721     
  -11913991.9744646     
  -11876900.3708277     
  -11839206.9648676     
  -11800920.3416562     
  -11762050.7257043     
  -11722610.0962617     
  -11682612.3099773     
  -11642073.2324609     
  -11601010.8808636     
  -11559445.5803533     
  -11517400.1383840     
  -11474900.0419693     
  -11431973.6848571     
  -11388652.6336004     
  -11344971.9441062     
  -11300970.5433215     
  -11256691.6943242     
  -11212183.5671002     
  -11167499.9416908     
  -11122701.0745968     
  -11077854.7635672     
  -11033037.6477846     
  -10988336.7825908     
  -10943851.5204478     
  -10899695.7288649     
  -10856000.3382189     
  -10812916.2236657     
  -10770617.2819849     
  -10729303.7039501     
  -10689204.8741832     
  -10650582.2483067     
  -10613730.0519810     
  -10578976.7034994     
  -10546677.9166669     
  -10517218.7131286     
  -10490982.1092069     
  -10468376.6726475     
  -10449712.2856192     
  -10435403.5446973     
  -10425412.7965240     
  -10420435.5302548     
  -10419067.5072078     
  -10424346.1193216     
  -10427992.6454504     
  -10447709.8573499     
