# vtk DataFile Version 3.0
vtk output
ASCII
DATASET UNSTRUCTURED_GRID
POINTS      5151 double 
  0.00000000E+00  0.00000000E+00  0.00000000E+00
  1.00000000E+01  0.00000000E+00  0.00000000E+00
  2.00000000E+01  0.00000000E+00  0.00000000E+00
  3.00000000E+01  0.00000000E+00  0.00000000E+00
  4.00000000E+01  0.00000000E+00  0.00000000E+00
  5.00000000E+01  0.00000000E+00  0.00000000E+00
  6.00000000E+01  0.00000000E+00  0.00000000E+00
  7.00000000E+01  0.00000000E+00  0.00000000E+00
  8.00000000E+01  0.00000000E+00  0.00000000E+00
  9.00000000E+01  0.00000000E+00  0.00000000E+00
  1.00000000E+02  0.00000000E+00  0.00000000E+00
  1.10000000E+02  0.00000000E+00  0.00000000E+00
  1.20000000E+02  0.00000000E+00  0.00000000E+00
  1.30000000E+02  0.00000000E+00  0.00000000E+00
  1.40000000E+02  0.00000000E+00  0.00000000E+00
  1.50000000E+02  0.00000000E+00  0.00000000E+00
  1.60000000E+02  0.00000000E+00  0.00000000E+00
  1.70000000E+02  0.00000000E+00  0.00000000E+00
  1.80000000E+02  0.00000000E+00  0.00000000E+00
  1.90000000E+02  0.00000000E+00  0.00000000E+00
  2.00000000E+02  0.00000000E+00  0.00000000E+00
  2.10000000E+02  0.00000000E+00  0.00000000E+00
  2.20000000E+02  0.00000000E+00  0.00000000E+00
  2.30000000E+02  0.00000000E+00  0.00000000E+00
  2.40000000E+02  0.00000000E+00  0.00000000E+00
  2.50000000E+02  0.00000000E+00  0.00000000E+00
  2.60000000E+02  0.00000000E+00  0.00000000E+00
  2.70000000E+02  0.00000000E+00  0.00000000E+00
  2.80000000E+02  0.00000000E+00  0.00000000E+00
  2.90000000E+02  0.00000000E+00  0.00000000E+00
  3.00000000E+02  0.00000000E+00  0.00000000E+00
  3.10000000E+02  0.00000000E+00  0.00000000E+00
  3.20000000E+02  0.00000000E+00  0.00000000E+00
  3.30000000E+02  0.00000000E+00  0.00000000E+00
  3.40000000E+02  0.00000000E+00  0.00000000E+00
  3.50000000E+02  0.00000000E+00  0.00000000E+00
  3.60000000E+02  0.00000000E+00  0.00000000E+00
  3.70000000E+02  0.00000000E+00  0.00000000E+00
  3.80000000E+02  0.00000000E+00  0.00000000E+00
  3.90000000E+02  0.00000000E+00  0.00000000E+00
  4.00000000E+02  0.00000000E+00  0.00000000E+00
  4.10000000E+02  0.00000000E+00  0.00000000E+00
  4.20000000E+02  0.00000000E+00  0.00000000E+00
  4.30000000E+02  0.00000000E+00  0.00000000E+00
  4.40000000E+02  0.00000000E+00  0.00000000E+00
  4.50000000E+02  0.00000000E+00  0.00000000E+00
  4.60000000E+02  0.00000000E+00  0.00000000E+00
  4.70000000E+02  0.00000000E+00  0.00000000E+00
  4.80000000E+02  0.00000000E+00  0.00000000E+00
  4.90000000E+02  0.00000000E+00  0.00000000E+00
  5.00000000E+02  0.00000000E+00  0.00000000E+00
  5.10000000E+02  0.00000000E+00  0.00000000E+00
  5.20000000E+02  0.00000000E+00  0.00000000E+00
  5.30000000E+02  0.00000000E+00  0.00000000E+00
  5.40000000E+02  0.00000000E+00  0.00000000E+00
  5.50000000E+02  0.00000000E+00  0.00000000E+00
  5.60000000E+02  0.00000000E+00  0.00000000E+00
  5.70000000E+02  0.00000000E+00  0.00000000E+00
  5.80000000E+02  0.00000000E+00  0.00000000E+00
  5.90000000E+02  0.00000000E+00  0.00000000E+00
  6.00000000E+02  0.00000000E+00  0.00000000E+00
  6.10000000E+02  0.00000000E+00  0.00000000E+00
  6.20000000E+02  0.00000000E+00  0.00000000E+00
  6.30000000E+02  0.00000000E+00  0.00000000E+00
  6.40000000E+02  0.00000000E+00  0.00000000E+00
  6.50000000E+02  0.00000000E+00  0.00000000E+00
  6.60000000E+02  0.00000000E+00  0.00000000E+00
  6.70000000E+02  0.00000000E+00  0.00000000E+00
  6.80000000E+02  0.00000000E+00  0.00000000E+00
  6.90000000E+02  0.00000000E+00  0.00000000E+00
  7.00000000E+02  0.00000000E+00  0.00000000E+00
  7.10000000E+02  0.00000000E+00  0.00000000E+00
  7.20000000E+02  0.00000000E+00  0.00000000E+00
  7.30000000E+02  0.00000000E+00  0.00000000E+00
  7.40000000E+02  0.00000000E+00  0.00000000E+00
  7.50000000E+02  0.00000000E+00  0.00000000E+00
  7.60000000E+02  0.00000000E+00  0.00000000E+00
  7.70000000E+02  0.00000000E+00  0.00000000E+00
  7.80000000E+02  0.00000000E+00  0.00000000E+00
  7.90000000E+02  0.00000000E+00  0.00000000E+00
  8.00000000E+02  0.00000000E+00  0.00000000E+00
  8.10000000E+02  0.00000000E+00  0.00000000E+00
  8.20000000E+02  0.00000000E+00  0.00000000E+00
  8.30000000E+02  0.00000000E+00  0.00000000E+00
  8.40000000E+02  0.00000000E+00  0.00000000E+00
  8.50000000E+02  0.00000000E+00  0.00000000E+00
  8.60000000E+02  0.00000000E+00  0.00000000E+00
  8.70000000E+02  0.00000000E+00  0.00000000E+00
  8.80000000E+02  0.00000000E+00  0.00000000E+00
  8.90000000E+02  0.00000000E+00  0.00000000E+00
  9.00000000E+02  0.00000000E+00  0.00000000E+00
  9.10000000E+02  0.00000000E+00  0.00000000E+00
  9.20000000E+02  0.00000000E+00  0.00000000E+00
  9.30000000E+02  0.00000000E+00  0.00000000E+00
  9.40000000E+02  0.00000000E+00  0.00000000E+00
  9.50000000E+02  0.00000000E+00  0.00000000E+00
  9.60000000E+02  0.00000000E+00  0.00000000E+00
  9.70000000E+02  0.00000000E+00  0.00000000E+00
  9.80000000E+02  0.00000000E+00  0.00000000E+00
  9.90000000E+02  0.00000000E+00  0.00000000E+00
  1.00000000E+03  0.00000000E+00  0.00000000E+00
  0.00000000E+00  2.00000000E+00  0.00000000E+00
  1.00000000E+01  2.00000000E+00  0.00000000E+00
  2.00000000E+01  2.00000000E+00  0.00000000E+00
  3.00000000E+01  2.00000000E+00  0.00000000E+00
  4.00000000E+01  2.00000000E+00  0.00000000E+00
  5.00000000E+01  2.00000000E+00  0.00000000E+00
  6.00000000E+01  2.00000000E+00  0.00000000E+00
  7.00000000E+01  2.00000000E+00  0.00000000E+00
  8.00000000E+01  2.00000000E+00  0.00000000E+00
  9.00000000E+01  2.00000000E+00  0.00000000E+00
  1.00000000E+02  2.00000000E+00  0.00000000E+00
  1.10000000E+02  2.00000000E+00  0.00000000E+00
  1.20000000E+02  2.00000000E+00  0.00000000E+00
  1.30000000E+02  2.00000000E+00  0.00000000E+00
  1.40000000E+02  2.00000000E+00  0.00000000E+00
  1.50000000E+02  2.00000000E+00  0.00000000E+00
  1.60000000E+02  2.00000000E+00  0.00000000E+00
  1.70000000E+02  2.00000000E+00  0.00000000E+00
  1.80000000E+02  2.00000000E+00  0.00000000E+00
  1.90000000E+02  2.00000000E+00  0.00000000E+00
  2.00000000E+02  2.00000000E+00  0.00000000E+00
  2.10000000E+02  2.00000000E+00  0.00000000E+00
  2.20000000E+02  2.00000000E+00  0.00000000E+00
  2.30000000E+02  2.00000000E+00  0.00000000E+00
  2.40000000E+02  2.00000000E+00  0.00000000E+00
  2.50000000E+02  2.00000000E+00  0.00000000E+00
  2.60000000E+02  2.00000000E+00  0.00000000E+00
  2.70000000E+02  2.00000000E+00  0.00000000E+00
  2.80000000E+02  2.00000000E+00  0.00000000E+00
  2.90000000E+02  2.00000000E+00  0.00000000E+00
  3.00000000E+02  2.00000000E+00  0.00000000E+00
  3.10000000E+02  2.00000000E+00  0.00000000E+00
  3.20000000E+02  2.00000000E+00  0.00000000E+00
  3.30000000E+02  2.00000000E+00  0.00000000E+00
  3.40000000E+02  2.00000000E+00  0.00000000E+00
  3.50000000E+02  2.00000000E+00  0.00000000E+00
  3.60000000E+02  2.00000000E+00  0.00000000E+00
  3.70000000E+02  2.00000000E+00  0.00000000E+00
  3.80000000E+02  2.00000000E+00  0.00000000E+00
  3.90000000E+02  2.00000000E+00  0.00000000E+00
  4.00000000E+02  2.00000000E+00  0.00000000E+00
  4.10000000E+02  2.00000000E+00  0.00000000E+00
  4.20000000E+02  2.00000000E+00  0.00000000E+00
  4.30000000E+02  2.00000000E+00  0.00000000E+00
  4.40000000E+02  2.00000000E+00  0.00000000E+00
  4.50000000E+02  2.00000000E+00  0.00000000E+00
  4.60000000E+02  2.00000000E+00  0.00000000E+00
  4.70000000E+02  2.00000000E+00  0.00000000E+00
  4.80000000E+02  2.00000000E+00  0.00000000E+00
  4.90000000E+02  2.00000000E+00  0.00000000E+00
  5.00000000E+02  2.00000000E+00  0.00000000E+00
  5.10000000E+02  2.00000000E+00  0.00000000E+00
  5.20000000E+02  2.00000000E+00  0.00000000E+00
  5.30000000E+02  2.00000000E+00  0.00000000E+00
  5.40000000E+02  2.00000000E+00  0.00000000E+00
  5.50000000E+02  2.00000000E+00  0.00000000E+00
  5.60000000E+02  2.00000000E+00  0.00000000E+00
  5.70000000E+02  2.00000000E+00  0.00000000E+00
  5.80000000E+02  2.00000000E+00  0.00000000E+00
  5.90000000E+02  2.00000000E+00  0.00000000E+00
  6.00000000E+02  2.00000000E+00  0.00000000E+00
  6.10000000E+02  2.00000000E+00  0.00000000E+00
  6.20000000E+02  2.00000000E+00  0.00000000E+00
  6.30000000E+02  2.00000000E+00  0.00000000E+00
  6.40000000E+02  2.00000000E+00  0.00000000E+00
  6.50000000E+02  2.00000000E+00  0.00000000E+00
  6.60000000E+02  2.00000000E+00  0.00000000E+00
  6.70000000E+02  2.00000000E+00  0.00000000E+00
  6.80000000E+02  2.00000000E+00  0.00000000E+00
  6.90000000E+02  2.00000000E+00  0.00000000E+00
  7.00000000E+02  2.00000000E+00  0.00000000E+00
  7.10000000E+02  2.00000000E+00  0.00000000E+00
  7.20000000E+02  2.00000000E+00  0.00000000E+00
  7.30000000E+02  2.00000000E+00  0.00000000E+00
  7.40000000E+02  2.00000000E+00  0.00000000E+00
  7.50000000E+02  2.00000000E+00  0.00000000E+00
  7.60000000E+02  2.00000000E+00  0.00000000E+00
  7.70000000E+02  2.00000000E+00  0.00000000E+00
  7.80000000E+02  2.00000000E+00  0.00000000E+00
  7.90000000E+02  2.00000000E+00  0.00000000E+00
  8.00000000E+02  2.00000000E+00  0.00000000E+00
  8.10000000E+02  2.00000000E+00  0.00000000E+00
  8.20000000E+02  2.00000000E+00  0.00000000E+00
  8.30000000E+02  2.00000000E+00  0.00000000E+00
  8.40000000E+02  2.00000000E+00  0.00000000E+00
  8.50000000E+02  2.00000000E+00  0.00000000E+00
  8.60000000E+02  2.00000000E+00  0.00000000E+00
  8.70000000E+02  2.00000000E+00  0.00000000E+00
  8.80000000E+02  2.00000000E+00  0.00000000E+00
  8.90000000E+02  2.00000000E+00  0.00000000E+00
  9.00000000E+02  2.00000000E+00  0.00000000E+00
  9.10000000E+02  2.00000000E+00  0.00000000E+00
  9.20000000E+02  2.00000000E+00  0.00000000E+00
  9.30000000E+02  2.00000000E+00  0.00000000E+00
  9.40000000E+02  2.00000000E+00  0.00000000E+00
  9.50000000E+02  2.00000000E+00  0.00000000E+00
  9.60000000E+02  2.00000000E+00  0.00000000E+00
  9.70000000E+02  2.00000000E+00  0.00000000E+00
  9.80000000E+02  2.00000000E+00  0.00000000E+00
  9.90000000E+02  2.00000000E+00  0.00000000E+00
  1.00000000E+03  2.00000000E+00  0.00000000E+00
  0.00000000E+00  4.00000000E+00  0.00000000E+00
  1.00000000E+01  4.00000000E+00  0.00000000E+00
  2.00000000E+01  4.00000000E+00  0.00000000E+00
  3.00000000E+01  4.00000000E+00  0.00000000E+00
  4.00000000E+01  4.00000000E+00  0.00000000E+00
  5.00000000E+01  4.00000000E+00  0.00000000E+00
  6.00000000E+01  4.00000000E+00  0.00000000E+00
  7.00000000E+01  4.00000000E+00  0.00000000E+00
  8.00000000E+01  4.00000000E+00  0.00000000E+00
  9.00000000E+01  4.00000000E+00  0.00000000E+00
  1.00000000E+02  4.00000000E+00  0.00000000E+00
  1.10000000E+02  4.00000000E+00  0.00000000E+00
  1.20000000E+02  4.00000000E+00  0.00000000E+00
  1.30000000E+02  4.00000000E+00  0.00000000E+00
  1.40000000E+02  4.00000000E+00  0.00000000E+00
  1.50000000E+02  4.00000000E+00  0.00000000E+00
  1.60000000E+02  4.00000000E+00  0.00000000E+00
  1.70000000E+02  4.00000000E+00  0.00000000E+00
  1.80000000E+02  4.00000000E+00  0.00000000E+00
  1.90000000E+02  4.00000000E+00  0.00000000E+00
  2.00000000E+02  4.00000000E+00  0.00000000E+00
  2.10000000E+02  4.00000000E+00  0.00000000E+00
  2.20000000E+02  4.00000000E+00  0.00000000E+00
  2.30000000E+02  4.00000000E+00  0.00000000E+00
  2.40000000E+02  4.00000000E+00  0.00000000E+00
  2.50000000E+02  4.00000000E+00  0.00000000E+00
  2.60000000E+02  4.00000000E+00  0.00000000E+00
  2.70000000E+02  4.00000000E+00  0.00000000E+00
  2.80000000E+02  4.00000000E+00  0.00000000E+00
  2.90000000E+02  4.00000000E+00  0.00000000E+00
  3.00000000E+02  4.00000000E+00  0.00000000E+00
  3.10000000E+02  4.00000000E+00  0.00000000E+00
  3.20000000E+02  4.00000000E+00  0.00000000E+00
  3.30000000E+02  4.00000000E+00  0.00000000E+00
  3.40000000E+02  4.00000000E+00  0.00000000E+00
  3.50000000E+02  4.00000000E+00  0.00000000E+00
  3.60000000E+02  4.00000000E+00  0.00000000E+00
  3.70000000E+02  4.00000000E+00  0.00000000E+00
  3.80000000E+02  4.00000000E+00  0.00000000E+00
  3.90000000E+02  4.00000000E+00  0.00000000E+00
  4.00000000E+02  4.00000000E+00  0.00000000E+00
  4.10000000E+02  4.00000000E+00  0.00000000E+00
  4.20000000E+02  4.00000000E+00  0.00000000E+00
  4.30000000E+02  4.00000000E+00  0.00000000E+00
  4.40000000E+02  4.00000000E+00  0.00000000E+00
  4.50000000E+02  4.00000000E+00  0.00000000E+00
  4.60000000E+02  4.00000000E+00  0.00000000E+00
  4.70000000E+02  4.00000000E+00  0.00000000E+00
  4.80000000E+02  4.00000000E+00  0.00000000E+00
  4.90000000E+02  4.00000000E+00  0.00000000E+00
  5.00000000E+02  4.00000000E+00  0.00000000E+00
  5.10000000E+02  4.00000000E+00  0.00000000E+00
  5.20000000E+02  4.00000000E+00  0.00000000E+00
  5.30000000E+02  4.00000000E+00  0.00000000E+00
  5.40000000E+02  4.00000000E+00  0.00000000E+00
  5.50000000E+02  4.00000000E+00  0.00000000E+00
  5.60000000E+02  4.00000000E+00  0.00000000E+00
  5.70000000E+02  4.00000000E+00  0.00000000E+00
  5.80000000E+02  4.00000000E+00  0.00000000E+00
  5.90000000E+02  4.00000000E+00  0.00000000E+00
  6.00000000E+02  4.00000000E+00  0.00000000E+00
  6.10000000E+02  4.00000000E+00  0.00000000E+00
  6.20000000E+02  4.00000000E+00  0.00000000E+00
  6.30000000E+02  4.00000000E+00  0.00000000E+00
  6.40000000E+02  4.00000000E+00  0.00000000E+00
  6.50000000E+02  4.00000000E+00  0.00000000E+00
  6.60000000E+02  4.00000000E+00  0.00000000E+00
  6.70000000E+02  4.00000000E+00  0.00000000E+00
  6.80000000E+02  4.00000000E+00  0.00000000E+00
  6.90000000E+02  4.00000000E+00  0.00000000E+00
  7.00000000E+02  4.00000000E+00  0.00000000E+00
  7.10000000E+02  4.00000000E+00  0.00000000E+00
  7.20000000E+02  4.00000000E+00  0.00000000E+00
  7.30000000E+02  4.00000000E+00  0.00000000E+00
  7.40000000E+02  4.00000000E+00  0.00000000E+00
  7.50000000E+02  4.00000000E+00  0.00000000E+00
  7.60000000E+02  4.00000000E+00  0.00000000E+00
  7.70000000E+02  4.00000000E+00  0.00000000E+00
  7.80000000E+02  4.00000000E+00  0.00000000E+00
  7.90000000E+02  4.00000000E+00  0.00000000E+00
  8.00000000E+02  4.00000000E+00  0.00000000E+00
  8.10000000E+02  4.00000000E+00  0.00000000E+00
  8.20000000E+02  4.00000000E+00  0.00000000E+00
  8.30000000E+02  4.00000000E+00  0.00000000E+00
  8.40000000E+02  4.00000000E+00  0.00000000E+00
  8.50000000E+02  4.00000000E+00  0.00000000E+00
  8.60000000E+02  4.00000000E+00  0.00000000E+00
  8.70000000E+02  4.00000000E+00  0.00000000E+00
  8.80000000E+02  4.00000000E+00  0.00000000E+00
  8.90000000E+02  4.00000000E+00  0.00000000E+00
  9.00000000E+02  4.00000000E+00  0.00000000E+00
  9.10000000E+02  4.00000000E+00  0.00000000E+00
  9.20000000E+02  4.00000000E+00  0.00000000E+00
  9.30000000E+02  4.00000000E+00  0.00000000E+00
  9.40000000E+02  4.00000000E+00  0.00000000E+00
  9.50000000E+02  4.00000000E+00  0.00000000E+00
  9.60000000E+02  4.00000000E+00  0.00000000E+00
  9.70000000E+02  4.00000000E+00  0.00000000E+00
  9.80000000E+02  4.00000000E+00  0.00000000E+00
  9.90000000E+02  4.00000000E+00  0.00000000E+00
  1.00000000E+03  4.00000000E+00  0.00000000E+00
  0.00000000E+00  6.00000000E+00  0.00000000E+00
  1.00000000E+01  6.00000000E+00  0.00000000E+00
  2.00000000E+01  6.00000000E+00  0.00000000E+00
  3.00000000E+01  6.00000000E+00  0.00000000E+00
  4.00000000E+01  6.00000000E+00  0.00000000E+00
  5.00000000E+01  6.00000000E+00  0.00000000E+00
  6.00000000E+01  6.00000000E+00  0.00000000E+00
  7.00000000E+01  6.00000000E+00  0.00000000E+00
  8.00000000E+01  6.00000000E+00  0.00000000E+00
  9.00000000E+01  6.00000000E+00  0.00000000E+00
  1.00000000E+02  6.00000000E+00  0.00000000E+00
  1.10000000E+02  6.00000000E+00  0.00000000E+00
  1.20000000E+02  6.00000000E+00  0.00000000E+00
  1.30000000E+02  6.00000000E+00  0.00000000E+00
  1.40000000E+02  6.00000000E+00  0.00000000E+00
  1.50000000E+02  6.00000000E+00  0.00000000E+00
  1.60000000E+02  6.00000000E+00  0.00000000E+00
  1.70000000E+02  6.00000000E+00  0.00000000E+00
  1.80000000E+02  6.00000000E+00  0.00000000E+00
  1.90000000E+02  6.00000000E+00  0.00000000E+00
  2.00000000E+02  6.00000000E+00  0.00000000E+00
  2.10000000E+02  6.00000000E+00  0.00000000E+00
  2.20000000E+02  6.00000000E+00  0.00000000E+00
  2.30000000E+02  6.00000000E+00  0.00000000E+00
  2.40000000E+02  6.00000000E+00  0.00000000E+00
  2.50000000E+02  6.00000000E+00  0.00000000E+00
  2.60000000E+02  6.00000000E+00  0.00000000E+00
  2.70000000E+02  6.00000000E+00  0.00000000E+00
  2.80000000E+02  6.00000000E+00  0.00000000E+00
  2.90000000E+02  6.00000000E+00  0.00000000E+00
  3.00000000E+02  6.00000000E+00  0.00000000E+00
  3.10000000E+02  6.00000000E+00  0.00000000E+00
  3.20000000E+02  6.00000000E+00  0.00000000E+00
  3.30000000E+02  6.00000000E+00  0.00000000E+00
  3.40000000E+02  6.00000000E+00  0.00000000E+00
  3.50000000E+02  6.00000000E+00  0.00000000E+00
  3.60000000E+02  6.00000000E+00  0.00000000E+00
  3.70000000E+02  6.00000000E+00  0.00000000E+00
  3.80000000E+02  6.00000000E+00  0.00000000E+00
  3.90000000E+02  6.00000000E+00  0.00000000E+00
  4.00000000E+02  6.00000000E+00  0.00000000E+00
  4.10000000E+02  6.00000000E+00  0.00000000E+00
  4.20000000E+02  6.00000000E+00  0.00000000E+00
  4.30000000E+02  6.00000000E+00  0.00000000E+00
  4.40000000E+02  6.00000000E+00  0.00000000E+00
  4.50000000E+02  6.00000000E+00  0.00000000E+00
  4.60000000E+02  6.00000000E+00  0.00000000E+00
  4.70000000E+02  6.00000000E+00  0.00000000E+00
  4.80000000E+02  6.00000000E+00  0.00000000E+00
  4.90000000E+02  6.00000000E+00  0.00000000E+00
  5.00000000E+02  6.00000000E+00  0.00000000E+00
  5.10000000E+02  6.00000000E+00  0.00000000E+00
  5.20000000E+02  6.00000000E+00  0.00000000E+00
  5.30000000E+02  6.00000000E+00  0.00000000E+00
  5.40000000E+02  6.00000000E+00  0.00000000E+00
  5.50000000E+02  6.00000000E+00  0.00000000E+00
  5.60000000E+02  6.00000000E+00  0.00000000E+00
  5.70000000E+02  6.00000000E+00  0.00000000E+00
  5.80000000E+02  6.00000000E+00  0.00000000E+00
  5.90000000E+02  6.00000000E+00  0.00000000E+00
  6.00000000E+02  6.00000000E+00  0.00000000E+00
  6.10000000E+02  6.00000000E+00  0.00000000E+00
  6.20000000E+02  6.00000000E+00  0.00000000E+00
  6.30000000E+02  6.00000000E+00  0.00000000E+00
  6.40000000E+02  6.00000000E+00  0.00000000E+00
  6.50000000E+02  6.00000000E+00  0.00000000E+00
  6.60000000E+02  6.00000000E+00  0.00000000E+00
  6.70000000E+02  6.00000000E+00  0.00000000E+00
  6.80000000E+02  6.00000000E+00  0.00000000E+00
  6.90000000E+02  6.00000000E+00  0.00000000E+00
  7.00000000E+02  6.00000000E+00  0.00000000E+00
  7.10000000E+02  6.00000000E+00  0.00000000E+00
  7.20000000E+02  6.00000000E+00  0.00000000E+00
  7.30000000E+02  6.00000000E+00  0.00000000E+00
  7.40000000E+02  6.00000000E+00  0.00000000E+00
  7.50000000E+02  6.00000000E+00  0.00000000E+00
  7.60000000E+02  6.00000000E+00  0.00000000E+00
  7.70000000E+02  6.00000000E+00  0.00000000E+00
  7.80000000E+02  6.00000000E+00  0.00000000E+00
  7.90000000E+02  6.00000000E+00  0.00000000E+00
  8.00000000E+02  6.00000000E+00  0.00000000E+00
  8.10000000E+02  6.00000000E+00  0.00000000E+00
  8.20000000E+02  6.00000000E+00  0.00000000E+00
  8.30000000E+02  6.00000000E+00  0.00000000E+00
  8.40000000E+02  6.00000000E+00  0.00000000E+00
  8.50000000E+02  6.00000000E+00  0.00000000E+00
  8.60000000E+02  6.00000000E+00  0.00000000E+00
  8.70000000E+02  6.00000000E+00  0.00000000E+00
  8.80000000E+02  6.00000000E+00  0.00000000E+00
  8.90000000E+02  6.00000000E+00  0.00000000E+00
  9.00000000E+02  6.00000000E+00  0.00000000E+00
  9.10000000E+02  6.00000000E+00  0.00000000E+00
  9.20000000E+02  6.00000000E+00  0.00000000E+00
  9.30000000E+02  6.00000000E+00  0.00000000E+00
  9.40000000E+02  6.00000000E+00  0.00000000E+00
  9.50000000E+02  6.00000000E+00  0.00000000E+00
  9.60000000E+02  6.00000000E+00  0.00000000E+00
  9.70000000E+02  6.00000000E+00  0.00000000E+00
  9.80000000E+02  6.00000000E+00  0.00000000E+00
  9.90000000E+02  6.00000000E+00  0.00000000E+00
  1.00000000E+03  6.00000000E+00  0.00000000E+00
  0.00000000E+00  8.00000000E+00  0.00000000E+00
  1.00000000E+01  8.00000000E+00  0.00000000E+00
  2.00000000E+01  8.00000000E+00  0.00000000E+00
  3.00000000E+01  8.00000000E+00  0.00000000E+00
  4.00000000E+01  8.00000000E+00  0.00000000E+00
  5.00000000E+01  8.00000000E+00  0.00000000E+00
  6.00000000E+01  8.00000000E+00  0.00000000E+00
  7.00000000E+01  8.00000000E+00  0.00000000E+00
  8.00000000E+01  8.00000000E+00  0.00000000E+00
  9.00000000E+01  8.00000000E+00  0.00000000E+00
  1.00000000E+02  8.00000000E+00  0.00000000E+00
  1.10000000E+02  8.00000000E+00  0.00000000E+00
  1.20000000E+02  8.00000000E+00  0.00000000E+00
  1.30000000E+02  8.00000000E+00  0.00000000E+00
  1.40000000E+02  8.00000000E+00  0.00000000E+00
  1.50000000E+02  8.00000000E+00  0.00000000E+00
  1.60000000E+02  8.00000000E+00  0.00000000E+00
  1.70000000E+02  8.00000000E+00  0.00000000E+00
  1.80000000E+02  8.00000000E+00  0.00000000E+00
  1.90000000E+02  8.00000000E+00  0.00000000E+00
  2.00000000E+02  8.00000000E+00  0.00000000E+00
  2.10000000E+02  8.00000000E+00  0.00000000E+00
  2.20000000E+02  8.00000000E+00  0.00000000E+00
  2.30000000E+02  8.00000000E+00  0.00000000E+00
  2.40000000E+02  8.00000000E+00  0.00000000E+00
  2.50000000E+02  8.00000000E+00  0.00000000E+00
  2.60000000E+02  8.00000000E+00  0.00000000E+00
  2.70000000E+02  8.00000000E+00  0.00000000E+00
  2.80000000E+02  8.00000000E+00  0.00000000E+00
  2.90000000E+02  8.00000000E+00  0.00000000E+00
  3.00000000E+02  8.00000000E+00  0.00000000E+00
  3.10000000E+02  8.00000000E+00  0.00000000E+00
  3.20000000E+02  8.00000000E+00  0.00000000E+00
  3.30000000E+02  8.00000000E+00  0.00000000E+00
  3.40000000E+02  8.00000000E+00  0.00000000E+00
  3.50000000E+02  8.00000000E+00  0.00000000E+00
  3.60000000E+02  8.00000000E+00  0.00000000E+00
  3.70000000E+02  8.00000000E+00  0.00000000E+00
  3.80000000E+02  8.00000000E+00  0.00000000E+00
  3.90000000E+02  8.00000000E+00  0.00000000E+00
  4.00000000E+02  8.00000000E+00  0.00000000E+00
  4.10000000E+02  8.00000000E+00  0.00000000E+00
  4.20000000E+02  8.00000000E+00  0.00000000E+00
  4.30000000E+02  8.00000000E+00  0.00000000E+00
  4.40000000E+02  8.00000000E+00  0.00000000E+00
  4.50000000E+02  8.00000000E+00  0.00000000E+00
  4.60000000E+02  8.00000000E+00  0.00000000E+00
  4.70000000E+02  8.00000000E+00  0.00000000E+00
  4.80000000E+02  8.00000000E+00  0.00000000E+00
  4.90000000E+02  8.00000000E+00  0.00000000E+00
  5.00000000E+02  8.00000000E+00  0.00000000E+00
  5.10000000E+02  8.00000000E+00  0.00000000E+00
  5.20000000E+02  8.00000000E+00  0.00000000E+00
  5.30000000E+02  8.00000000E+00  0.00000000E+00
  5.40000000E+02  8.00000000E+00  0.00000000E+00
  5.50000000E+02  8.00000000E+00  0.00000000E+00
  5.60000000E+02  8.00000000E+00  0.00000000E+00
  5.70000000E+02  8.00000000E+00  0.00000000E+00
  5.80000000E+02  8.00000000E+00  0.00000000E+00
  5.90000000E+02  8.00000000E+00  0.00000000E+00
  6.00000000E+02  8.00000000E+00  0.00000000E+00
  6.10000000E+02  8.00000000E+00  0.00000000E+00
  6.20000000E+02  8.00000000E+00  0.00000000E+00
  6.30000000E+02  8.00000000E+00  0.00000000E+00
  6.40000000E+02  8.00000000E+00  0.00000000E+00
  6.50000000E+02  8.00000000E+00  0.00000000E+00
  6.60000000E+02  8.00000000E+00  0.00000000E+00
  6.70000000E+02  8.00000000E+00  0.00000000E+00
  6.80000000E+02  8.00000000E+00  0.00000000E+00
  6.90000000E+02  8.00000000E+00  0.00000000E+00
  7.00000000E+02  8.00000000E+00  0.00000000E+00
  7.10000000E+02  8.00000000E+00  0.00000000E+00
  7.20000000E+02  8.00000000E+00  0.00000000E+00
  7.30000000E+02  8.00000000E+00  0.00000000E+00
  7.40000000E+02  8.00000000E+00  0.00000000E+00
  7.50000000E+02  8.00000000E+00  0.00000000E+00
  7.60000000E+02  8.00000000E+00  0.00000000E+00
  7.70000000E+02  8.00000000E+00  0.00000000E+00
  7.80000000E+02  8.00000000E+00  0.00000000E+00
  7.90000000E+02  8.00000000E+00  0.00000000E+00
  8.00000000E+02  8.00000000E+00  0.00000000E+00
  8.10000000E+02  8.00000000E+00  0.00000000E+00
  8.20000000E+02  8.00000000E+00  0.00000000E+00
  8.30000000E+02  8.00000000E+00  0.00000000E+00
  8.40000000E+02  8.00000000E+00  0.00000000E+00
  8.50000000E+02  8.00000000E+00  0.00000000E+00
  8.60000000E+02  8.00000000E+00  0.00000000E+00
  8.70000000E+02  8.00000000E+00  0.00000000E+00
  8.80000000E+02  8.00000000E+00  0.00000000E+00
  8.90000000E+02  8.00000000E+00  0.00000000E+00
  9.00000000E+02  8.00000000E+00  0.00000000E+00
  9.10000000E+02  8.00000000E+00  0.00000000E+00
  9.20000000E+02  8.00000000E+00  0.00000000E+00
  9.30000000E+02  8.00000000E+00  0.00000000E+00
  9.40000000E+02  8.00000000E+00  0.00000000E+00
  9.50000000E+02  8.00000000E+00  0.00000000E+00
  9.60000000E+02  8.00000000E+00  0.00000000E+00
  9.70000000E+02  8.00000000E+00  0.00000000E+00
  9.80000000E+02  8.00000000E+00  0.00000000E+00
  9.90000000E+02  8.00000000E+00  0.00000000E+00
  1.00000000E+03  8.00000000E+00  0.00000000E+00
  0.00000000E+00  1.00000000E+01  0.00000000E+00
  1.00000000E+01  1.00000000E+01  0.00000000E+00
  2.00000000E+01  1.00000000E+01  0.00000000E+00
  3.00000000E+01  1.00000000E+01  0.00000000E+00
  4.00000000E+01  1.00000000E+01  0.00000000E+00
  5.00000000E+01  1.00000000E+01  0.00000000E+00
  6.00000000E+01  1.00000000E+01  0.00000000E+00
  7.00000000E+01  1.00000000E+01  0.00000000E+00
  8.00000000E+01  1.00000000E+01  0.00000000E+00
  9.00000000E+01  1.00000000E+01  0.00000000E+00
  1.00000000E+02  1.00000000E+01  0.00000000E+00
  1.10000000E+02  1.00000000E+01  0.00000000E+00
  1.20000000E+02  1.00000000E+01  0.00000000E+00
  1.30000000E+02  1.00000000E+01  0.00000000E+00
  1.40000000E+02  1.00000000E+01  0.00000000E+00
  1.50000000E+02  1.00000000E+01  0.00000000E+00
  1.60000000E+02  1.00000000E+01  0.00000000E+00
  1.70000000E+02  1.00000000E+01  0.00000000E+00
  1.80000000E+02  1.00000000E+01  0.00000000E+00
  1.90000000E+02  1.00000000E+01  0.00000000E+00
  2.00000000E+02  1.00000000E+01  0.00000000E+00
  2.10000000E+02  1.00000000E+01  0.00000000E+00
  2.20000000E+02  1.00000000E+01  0.00000000E+00
  2.30000000E+02  1.00000000E+01  0.00000000E+00
  2.40000000E+02  1.00000000E+01  0.00000000E+00
  2.50000000E+02  1.00000000E+01  0.00000000E+00
  2.60000000E+02  1.00000000E+01  0.00000000E+00
  2.70000000E+02  1.00000000E+01  0.00000000E+00
  2.80000000E+02  1.00000000E+01  0.00000000E+00
  2.90000000E+02  1.00000000E+01  0.00000000E+00
  3.00000000E+02  1.00000000E+01  0.00000000E+00
  3.10000000E+02  1.00000000E+01  0.00000000E+00
  3.20000000E+02  1.00000000E+01  0.00000000E+00
  3.30000000E+02  1.00000000E+01  0.00000000E+00
  3.40000000E+02  1.00000000E+01  0.00000000E+00
  3.50000000E+02  1.00000000E+01  0.00000000E+00
  3.60000000E+02  1.00000000E+01  0.00000000E+00
  3.70000000E+02  1.00000000E+01  0.00000000E+00
  3.80000000E+02  1.00000000E+01  0.00000000E+00
  3.90000000E+02  1.00000000E+01  0.00000000E+00
  4.00000000E+02  1.00000000E+01  0.00000000E+00
  4.10000000E+02  1.00000000E+01  0.00000000E+00
  4.20000000E+02  1.00000000E+01  0.00000000E+00
  4.30000000E+02  1.00000000E+01  0.00000000E+00
  4.40000000E+02  1.00000000E+01  0.00000000E+00
  4.50000000E+02  1.00000000E+01  0.00000000E+00
  4.60000000E+02  1.00000000E+01  0.00000000E+00
  4.70000000E+02  1.00000000E+01  0.00000000E+00
  4.80000000E+02  1.00000000E+01  0.00000000E+00
  4.90000000E+02  1.00000000E+01  0.00000000E+00
  5.00000000E+02  1.00000000E+01  0.00000000E+00
  5.10000000E+02  1.00000000E+01  0.00000000E+00
  5.20000000E+02  1.00000000E+01  0.00000000E+00
  5.30000000E+02  1.00000000E+01  0.00000000E+00
  5.40000000E+02  1.00000000E+01  0.00000000E+00
  5.50000000E+02  1.00000000E+01  0.00000000E+00
  5.60000000E+02  1.00000000E+01  0.00000000E+00
  5.70000000E+02  1.00000000E+01  0.00000000E+00
  5.80000000E+02  1.00000000E+01  0.00000000E+00
  5.90000000E+02  1.00000000E+01  0.00000000E+00
  6.00000000E+02  1.00000000E+01  0.00000000E+00
  6.10000000E+02  1.00000000E+01  0.00000000E+00
  6.20000000E+02  1.00000000E+01  0.00000000E+00
  6.30000000E+02  1.00000000E+01  0.00000000E+00
  6.40000000E+02  1.00000000E+01  0.00000000E+00
  6.50000000E+02  1.00000000E+01  0.00000000E+00
  6.60000000E+02  1.00000000E+01  0.00000000E+00
  6.70000000E+02  1.00000000E+01  0.00000000E+00
  6.80000000E+02  1.00000000E+01  0.00000000E+00
  6.90000000E+02  1.00000000E+01  0.00000000E+00
  7.00000000E+02  1.00000000E+01  0.00000000E+00
  7.10000000E+02  1.00000000E+01  0.00000000E+00
  7.20000000E+02  1.00000000E+01  0.00000000E+00
  7.30000000E+02  1.00000000E+01  0.00000000E+00
  7.40000000E+02  1.00000000E+01  0.00000000E+00
  7.50000000E+02  1.00000000E+01  0.00000000E+00
  7.60000000E+02  1.00000000E+01  0.00000000E+00
  7.70000000E+02  1.00000000E+01  0.00000000E+00
  7.80000000E+02  1.00000000E+01  0.00000000E+00
  7.90000000E+02  1.00000000E+01  0.00000000E+00
  8.00000000E+02  1.00000000E+01  0.00000000E+00
  8.10000000E+02  1.00000000E+01  0.00000000E+00
  8.20000000E+02  1.00000000E+01  0.00000000E+00
  8.30000000E+02  1.00000000E+01  0.00000000E+00
  8.40000000E+02  1.00000000E+01  0.00000000E+00
  8.50000000E+02  1.00000000E+01  0.00000000E+00
  8.60000000E+02  1.00000000E+01  0.00000000E+00
  8.70000000E+02  1.00000000E+01  0.00000000E+00
  8.80000000E+02  1.00000000E+01  0.00000000E+00
  8.90000000E+02  1.00000000E+01  0.00000000E+00
  9.00000000E+02  1.00000000E+01  0.00000000E+00
  9.10000000E+02  1.00000000E+01  0.00000000E+00
  9.20000000E+02  1.00000000E+01  0.00000000E+00
  9.30000000E+02  1.00000000E+01  0.00000000E+00
  9.40000000E+02  1.00000000E+01  0.00000000E+00
  9.50000000E+02  1.00000000E+01  0.00000000E+00
  9.60000000E+02  1.00000000E+01  0.00000000E+00
  9.70000000E+02  1.00000000E+01  0.00000000E+00
  9.80000000E+02  1.00000000E+01  0.00000000E+00
  9.90000000E+02  1.00000000E+01  0.00000000E+00
  1.00000000E+03  1.00000000E+01  0.00000000E+00
  0.00000000E+00  1.20000000E+01  0.00000000E+00
  1.00000000E+01  1.20000000E+01  0.00000000E+00
  2.00000000E+01  1.20000000E+01  0.00000000E+00
  3.00000000E+01  1.20000000E+01  0.00000000E+00
  4.00000000E+01  1.20000000E+01  0.00000000E+00
  5.00000000E+01  1.20000000E+01  0.00000000E+00
  6.00000000E+01  1.20000000E+01  0.00000000E+00
  7.00000000E+01  1.20000000E+01  0.00000000E+00
  8.00000000E+01  1.20000000E+01  0.00000000E+00
  9.00000000E+01  1.20000000E+01  0.00000000E+00
  1.00000000E+02  1.20000000E+01  0.00000000E+00
  1.10000000E+02  1.20000000E+01  0.00000000E+00
  1.20000000E+02  1.20000000E+01  0.00000000E+00
  1.30000000E+02  1.20000000E+01  0.00000000E+00
  1.40000000E+02  1.20000000E+01  0.00000000E+00
  1.50000000E+02  1.20000000E+01  0.00000000E+00
  1.60000000E+02  1.20000000E+01  0.00000000E+00
  1.70000000E+02  1.20000000E+01  0.00000000E+00
  1.80000000E+02  1.20000000E+01  0.00000000E+00
  1.90000000E+02  1.20000000E+01  0.00000000E+00
  2.00000000E+02  1.20000000E+01  0.00000000E+00
  2.10000000E+02  1.20000000E+01  0.00000000E+00
  2.20000000E+02  1.20000000E+01  0.00000000E+00
  2.30000000E+02  1.20000000E+01  0.00000000E+00
  2.40000000E+02  1.20000000E+01  0.00000000E+00
  2.50000000E+02  1.20000000E+01  0.00000000E+00
  2.60000000E+02  1.20000000E+01  0.00000000E+00
  2.70000000E+02  1.20000000E+01  0.00000000E+00
  2.80000000E+02  1.20000000E+01  0.00000000E+00
  2.90000000E+02  1.20000000E+01  0.00000000E+00
  3.00000000E+02  1.20000000E+01  0.00000000E+00
  3.10000000E+02  1.20000000E+01  0.00000000E+00
  3.20000000E+02  1.20000000E+01  0.00000000E+00
  3.30000000E+02  1.20000000E+01  0.00000000E+00
  3.40000000E+02  1.20000000E+01  0.00000000E+00
  3.50000000E+02  1.20000000E+01  0.00000000E+00
  3.60000000E+02  1.20000000E+01  0.00000000E+00
  3.70000000E+02  1.20000000E+01  0.00000000E+00
  3.80000000E+02  1.20000000E+01  0.00000000E+00
  3.90000000E+02  1.20000000E+01  0.00000000E+00
  4.00000000E+02  1.20000000E+01  0.00000000E+00
  4.10000000E+02  1.20000000E+01  0.00000000E+00
  4.20000000E+02  1.20000000E+01  0.00000000E+00
  4.30000000E+02  1.20000000E+01  0.00000000E+00
  4.40000000E+02  1.20000000E+01  0.00000000E+00
  4.50000000E+02  1.20000000E+01  0.00000000E+00
  4.60000000E+02  1.20000000E+01  0.00000000E+00
  4.70000000E+02  1.20000000E+01  0.00000000E+00
  4.80000000E+02  1.20000000E+01  0.00000000E+00
  4.90000000E+02  1.20000000E+01  0.00000000E+00
  5.00000000E+02  1.20000000E+01  0.00000000E+00
  5.10000000E+02  1.20000000E+01  0.00000000E+00
  5.20000000E+02  1.20000000E+01  0.00000000E+00
  5.30000000E+02  1.20000000E+01  0.00000000E+00
  5.40000000E+02  1.20000000E+01  0.00000000E+00
  5.50000000E+02  1.20000000E+01  0.00000000E+00
  5.60000000E+02  1.20000000E+01  0.00000000E+00
  5.70000000E+02  1.20000000E+01  0.00000000E+00
  5.80000000E+02  1.20000000E+01  0.00000000E+00
  5.90000000E+02  1.20000000E+01  0.00000000E+00
  6.00000000E+02  1.20000000E+01  0.00000000E+00
  6.10000000E+02  1.20000000E+01  0.00000000E+00
  6.20000000E+02  1.20000000E+01  0.00000000E+00
  6.30000000E+02  1.20000000E+01  0.00000000E+00
  6.40000000E+02  1.20000000E+01  0.00000000E+00
  6.50000000E+02  1.20000000E+01  0.00000000E+00
  6.60000000E+02  1.20000000E+01  0.00000000E+00
  6.70000000E+02  1.20000000E+01  0.00000000E+00
  6.80000000E+02  1.20000000E+01  0.00000000E+00
  6.90000000E+02  1.20000000E+01  0.00000000E+00
  7.00000000E+02  1.20000000E+01  0.00000000E+00
  7.10000000E+02  1.20000000E+01  0.00000000E+00
  7.20000000E+02  1.20000000E+01  0.00000000E+00
  7.30000000E+02  1.20000000E+01  0.00000000E+00
  7.40000000E+02  1.20000000E+01  0.00000000E+00
  7.50000000E+02  1.20000000E+01  0.00000000E+00
  7.60000000E+02  1.20000000E+01  0.00000000E+00
  7.70000000E+02  1.20000000E+01  0.00000000E+00
  7.80000000E+02  1.20000000E+01  0.00000000E+00
  7.90000000E+02  1.20000000E+01  0.00000000E+00
  8.00000000E+02  1.20000000E+01  0.00000000E+00
  8.10000000E+02  1.20000000E+01  0.00000000E+00
  8.20000000E+02  1.20000000E+01  0.00000000E+00
  8.30000000E+02  1.20000000E+01  0.00000000E+00
  8.40000000E+02  1.20000000E+01  0.00000000E+00
  8.50000000E+02  1.20000000E+01  0.00000000E+00
  8.60000000E+02  1.20000000E+01  0.00000000E+00
  8.70000000E+02  1.20000000E+01  0.00000000E+00
  8.80000000E+02  1.20000000E+01  0.00000000E+00
  8.90000000E+02  1.20000000E+01  0.00000000E+00
  9.00000000E+02  1.20000000E+01  0.00000000E+00
  9.10000000E+02  1.20000000E+01  0.00000000E+00
  9.20000000E+02  1.20000000E+01  0.00000000E+00
  9.30000000E+02  1.20000000E+01  0.00000000E+00
  9.40000000E+02  1.20000000E+01  0.00000000E+00
  9.50000000E+02  1.20000000E+01  0.00000000E+00
  9.60000000E+02  1.20000000E+01  0.00000000E+00
  9.70000000E+02  1.20000000E+01  0.00000000E+00
  9.80000000E+02  1.20000000E+01  0.00000000E+00
  9.90000000E+02  1.20000000E+01  0.00000000E+00
  1.00000000E+03  1.20000000E+01  0.00000000E+00
  0.00000000E+00  1.40000000E+01  0.00000000E+00
  1.00000000E+01  1.40000000E+01  0.00000000E+00
  2.00000000E+01  1.40000000E+01  0.00000000E+00
  3.00000000E+01  1.40000000E+01  0.00000000E+00
  4.00000000E+01  1.40000000E+01  0.00000000E+00
  5.00000000E+01  1.40000000E+01  0.00000000E+00
  6.00000000E+01  1.40000000E+01  0.00000000E+00
  7.00000000E+01  1.40000000E+01  0.00000000E+00
  8.00000000E+01  1.40000000E+01  0.00000000E+00
  9.00000000E+01  1.40000000E+01  0.00000000E+00
  1.00000000E+02  1.40000000E+01  0.00000000E+00
  1.10000000E+02  1.40000000E+01  0.00000000E+00
  1.20000000E+02  1.40000000E+01  0.00000000E+00
  1.30000000E+02  1.40000000E+01  0.00000000E+00
  1.40000000E+02  1.40000000E+01  0.00000000E+00
  1.50000000E+02  1.40000000E+01  0.00000000E+00
  1.60000000E+02  1.40000000E+01  0.00000000E+00
  1.70000000E+02  1.40000000E+01  0.00000000E+00
  1.80000000E+02  1.40000000E+01  0.00000000E+00
  1.90000000E+02  1.40000000E+01  0.00000000E+00
  2.00000000E+02  1.40000000E+01  0.00000000E+00
  2.10000000E+02  1.40000000E+01  0.00000000E+00
  2.20000000E+02  1.40000000E+01  0.00000000E+00
  2.30000000E+02  1.40000000E+01  0.00000000E+00
  2.40000000E+02  1.40000000E+01  0.00000000E+00
  2.50000000E+02  1.40000000E+01  0.00000000E+00
  2.60000000E+02  1.40000000E+01  0.00000000E+00
  2.70000000E+02  1.40000000E+01  0.00000000E+00
  2.80000000E+02  1.40000000E+01  0.00000000E+00
  2.90000000E+02  1.40000000E+01  0.00000000E+00
  3.00000000E+02  1.40000000E+01  0.00000000E+00
  3.10000000E+02  1.40000000E+01  0.00000000E+00
  3.20000000E+02  1.40000000E+01  0.00000000E+00
  3.30000000E+02  1.40000000E+01  0.00000000E+00
  3.40000000E+02  1.40000000E+01  0.00000000E+00
  3.50000000E+02  1.40000000E+01  0.00000000E+00
  3.60000000E+02  1.40000000E+01  0.00000000E+00
  3.70000000E+02  1.40000000E+01  0.00000000E+00
  3.80000000E+02  1.40000000E+01  0.00000000E+00
  3.90000000E+02  1.40000000E+01  0.00000000E+00
  4.00000000E+02  1.40000000E+01  0.00000000E+00
  4.10000000E+02  1.40000000E+01  0.00000000E+00
  4.20000000E+02  1.40000000E+01  0.00000000E+00
  4.30000000E+02  1.40000000E+01  0.00000000E+00
  4.40000000E+02  1.40000000E+01  0.00000000E+00
  4.50000000E+02  1.40000000E+01  0.00000000E+00
  4.60000000E+02  1.40000000E+01  0.00000000E+00
  4.70000000E+02  1.40000000E+01  0.00000000E+00
  4.80000000E+02  1.40000000E+01  0.00000000E+00
  4.90000000E+02  1.40000000E+01  0.00000000E+00
  5.00000000E+02  1.40000000E+01  0.00000000E+00
  5.10000000E+02  1.40000000E+01  0.00000000E+00
  5.20000000E+02  1.40000000E+01  0.00000000E+00
  5.30000000E+02  1.40000000E+01  0.00000000E+00
  5.40000000E+02  1.40000000E+01  0.00000000E+00
  5.50000000E+02  1.40000000E+01  0.00000000E+00
  5.60000000E+02  1.40000000E+01  0.00000000E+00
  5.70000000E+02  1.40000000E+01  0.00000000E+00
  5.80000000E+02  1.40000000E+01  0.00000000E+00
  5.90000000E+02  1.40000000E+01  0.00000000E+00
  6.00000000E+02  1.40000000E+01  0.00000000E+00
  6.10000000E+02  1.40000000E+01  0.00000000E+00
  6.20000000E+02  1.40000000E+01  0.00000000E+00
  6.30000000E+02  1.40000000E+01  0.00000000E+00
  6.40000000E+02  1.40000000E+01  0.00000000E+00
  6.50000000E+02  1.40000000E+01  0.00000000E+00
  6.60000000E+02  1.40000000E+01  0.00000000E+00
  6.70000000E+02  1.40000000E+01  0.00000000E+00
  6.80000000E+02  1.40000000E+01  0.00000000E+00
  6.90000000E+02  1.40000000E+01  0.00000000E+00
  7.00000000E+02  1.40000000E+01  0.00000000E+00
  7.10000000E+02  1.40000000E+01  0.00000000E+00
  7.20000000E+02  1.40000000E+01  0.00000000E+00
  7.30000000E+02  1.40000000E+01  0.00000000E+00
  7.40000000E+02  1.40000000E+01  0.00000000E+00
  7.50000000E+02  1.40000000E+01  0.00000000E+00
  7.60000000E+02  1.40000000E+01  0.00000000E+00
  7.70000000E+02  1.40000000E+01  0.00000000E+00
  7.80000000E+02  1.40000000E+01  0.00000000E+00
  7.90000000E+02  1.40000000E+01  0.00000000E+00
  8.00000000E+02  1.40000000E+01  0.00000000E+00
  8.10000000E+02  1.40000000E+01  0.00000000E+00
  8.20000000E+02  1.40000000E+01  0.00000000E+00
  8.30000000E+02  1.40000000E+01  0.00000000E+00
  8.40000000E+02  1.40000000E+01  0.00000000E+00
  8.50000000E+02  1.40000000E+01  0.00000000E+00
  8.60000000E+02  1.40000000E+01  0.00000000E+00
  8.70000000E+02  1.40000000E+01  0.00000000E+00
  8.80000000E+02  1.40000000E+01  0.00000000E+00
  8.90000000E+02  1.40000000E+01  0.00000000E+00
  9.00000000E+02  1.40000000E+01  0.00000000E+00
  9.10000000E+02  1.40000000E+01  0.00000000E+00
  9.20000000E+02  1.40000000E+01  0.00000000E+00
  9.30000000E+02  1.40000000E+01  0.00000000E+00
  9.40000000E+02  1.40000000E+01  0.00000000E+00
  9.50000000E+02  1.40000000E+01  0.00000000E+00
  9.60000000E+02  1.40000000E+01  0.00000000E+00
  9.70000000E+02  1.40000000E+01  0.00000000E+00
  9.80000000E+02  1.40000000E+01  0.00000000E+00
  9.90000000E+02  1.40000000E+01  0.00000000E+00
  1.00000000E+03  1.40000000E+01  0.00000000E+00
  0.00000000E+00  1.60000000E+01  0.00000000E+00
  1.00000000E+01  1.60000000E+01  0.00000000E+00
  2.00000000E+01  1.60000000E+01  0.00000000E+00
  3.00000000E+01  1.60000000E+01  0.00000000E+00
  4.00000000E+01  1.60000000E+01  0.00000000E+00
  5.00000000E+01  1.60000000E+01  0.00000000E+00
  6.00000000E+01  1.60000000E+01  0.00000000E+00
  7.00000000E+01  1.60000000E+01  0.00000000E+00
  8.00000000E+01  1.60000000E+01  0.00000000E+00
  9.00000000E+01  1.60000000E+01  0.00000000E+00
  1.00000000E+02  1.60000000E+01  0.00000000E+00
  1.10000000E+02  1.60000000E+01  0.00000000E+00
  1.20000000E+02  1.60000000E+01  0.00000000E+00
  1.30000000E+02  1.60000000E+01  0.00000000E+00
  1.40000000E+02  1.60000000E+01  0.00000000E+00
  1.50000000E+02  1.60000000E+01  0.00000000E+00
  1.60000000E+02  1.60000000E+01  0.00000000E+00
  1.70000000E+02  1.60000000E+01  0.00000000E+00
  1.80000000E+02  1.60000000E+01  0.00000000E+00
  1.90000000E+02  1.60000000E+01  0.00000000E+00
  2.00000000E+02  1.60000000E+01  0.00000000E+00
  2.10000000E+02  1.60000000E+01  0.00000000E+00
  2.20000000E+02  1.60000000E+01  0.00000000E+00
  2.30000000E+02  1.60000000E+01  0.00000000E+00
  2.40000000E+02  1.60000000E+01  0.00000000E+00
  2.50000000E+02  1.60000000E+01  0.00000000E+00
  2.60000000E+02  1.60000000E+01  0.00000000E+00
  2.70000000E+02  1.60000000E+01  0.00000000E+00
  2.80000000E+02  1.60000000E+01  0.00000000E+00
  2.90000000E+02  1.60000000E+01  0.00000000E+00
  3.00000000E+02  1.60000000E+01  0.00000000E+00
  3.10000000E+02  1.60000000E+01  0.00000000E+00
  3.20000000E+02  1.60000000E+01  0.00000000E+00
  3.30000000E+02  1.60000000E+01  0.00000000E+00
  3.40000000E+02  1.60000000E+01  0.00000000E+00
  3.50000000E+02  1.60000000E+01  0.00000000E+00
  3.60000000E+02  1.60000000E+01  0.00000000E+00
  3.70000000E+02  1.60000000E+01  0.00000000E+00
  3.80000000E+02  1.60000000E+01  0.00000000E+00
  3.90000000E+02  1.60000000E+01  0.00000000E+00
  4.00000000E+02  1.60000000E+01  0.00000000E+00
  4.10000000E+02  1.60000000E+01  0.00000000E+00
  4.20000000E+02  1.60000000E+01  0.00000000E+00
  4.30000000E+02  1.60000000E+01  0.00000000E+00
  4.40000000E+02  1.60000000E+01  0.00000000E+00
  4.50000000E+02  1.60000000E+01  0.00000000E+00
  4.60000000E+02  1.60000000E+01  0.00000000E+00
  4.70000000E+02  1.60000000E+01  0.00000000E+00
  4.80000000E+02  1.60000000E+01  0.00000000E+00
  4.90000000E+02  1.60000000E+01  0.00000000E+00
  5.00000000E+02  1.60000000E+01  0.00000000E+00
  5.10000000E+02  1.60000000E+01  0.00000000E+00
  5.20000000E+02  1.60000000E+01  0.00000000E+00
  5.30000000E+02  1.60000000E+01  0.00000000E+00
  5.40000000E+02  1.60000000E+01  0.00000000E+00
  5.50000000E+02  1.60000000E+01  0.00000000E+00
  5.60000000E+02  1.60000000E+01  0.00000000E+00
  5.70000000E+02  1.60000000E+01  0.00000000E+00
  5.80000000E+02  1.60000000E+01  0.00000000E+00
  5.90000000E+02  1.60000000E+01  0.00000000E+00
  6.00000000E+02  1.60000000E+01  0.00000000E+00
  6.10000000E+02  1.60000000E+01  0.00000000E+00
  6.20000000E+02  1.60000000E+01  0.00000000E+00
  6.30000000E+02  1.60000000E+01  0.00000000E+00
  6.40000000E+02  1.60000000E+01  0.00000000E+00
  6.50000000E+02  1.60000000E+01  0.00000000E+00
  6.60000000E+02  1.60000000E+01  0.00000000E+00
  6.70000000E+02  1.60000000E+01  0.00000000E+00
  6.80000000E+02  1.60000000E+01  0.00000000E+00
  6.90000000E+02  1.60000000E+01  0.00000000E+00
  7.00000000E+02  1.60000000E+01  0.00000000E+00
  7.10000000E+02  1.60000000E+01  0.00000000E+00
  7.20000000E+02  1.60000000E+01  0.00000000E+00
  7.30000000E+02  1.60000000E+01  0.00000000E+00
  7.40000000E+02  1.60000000E+01  0.00000000E+00
  7.50000000E+02  1.60000000E+01  0.00000000E+00
  7.60000000E+02  1.60000000E+01  0.00000000E+00
  7.70000000E+02  1.60000000E+01  0.00000000E+00
  7.80000000E+02  1.60000000E+01  0.00000000E+00
  7.90000000E+02  1.60000000E+01  0.00000000E+00
  8.00000000E+02  1.60000000E+01  0.00000000E+00
  8.10000000E+02  1.60000000E+01  0.00000000E+00
  8.20000000E+02  1.60000000E+01  0.00000000E+00
  8.30000000E+02  1.60000000E+01  0.00000000E+00
  8.40000000E+02  1.60000000E+01  0.00000000E+00
  8.50000000E+02  1.60000000E+01  0.00000000E+00
  8.60000000E+02  1.60000000E+01  0.00000000E+00
  8.70000000E+02  1.60000000E+01  0.00000000E+00
  8.80000000E+02  1.60000000E+01  0.00000000E+00
  8.90000000E+02  1.60000000E+01  0.00000000E+00
  9.00000000E+02  1.60000000E+01  0.00000000E+00
  9.10000000E+02  1.60000000E+01  0.00000000E+00
  9.20000000E+02  1.60000000E+01  0.00000000E+00
  9.30000000E+02  1.60000000E+01  0.00000000E+00
  9.40000000E+02  1.60000000E+01  0.00000000E+00
  9.50000000E+02  1.60000000E+01  0.00000000E+00
  9.60000000E+02  1.60000000E+01  0.00000000E+00
  9.70000000E+02  1.60000000E+01  0.00000000E+00
  9.80000000E+02  1.60000000E+01  0.00000000E+00
  9.90000000E+02  1.60000000E+01  0.00000000E+00
  1.00000000E+03  1.60000000E+01  0.00000000E+00
  0.00000000E+00  1.80000000E+01  0.00000000E+00
  1.00000000E+01  1.80000000E+01  0.00000000E+00
  2.00000000E+01  1.80000000E+01  0.00000000E+00
  3.00000000E+01  1.80000000E+01  0.00000000E+00
  4.00000000E+01  1.80000000E+01  0.00000000E+00
  5.00000000E+01  1.80000000E+01  0.00000000E+00
  6.00000000E+01  1.80000000E+01  0.00000000E+00
  7.00000000E+01  1.80000000E+01  0.00000000E+00
  8.00000000E+01  1.80000000E+01  0.00000000E+00
  9.00000000E+01  1.80000000E+01  0.00000000E+00
  1.00000000E+02  1.80000000E+01  0.00000000E+00
  1.10000000E+02  1.80000000E+01  0.00000000E+00
  1.20000000E+02  1.80000000E+01  0.00000000E+00
  1.30000000E+02  1.80000000E+01  0.00000000E+00
  1.40000000E+02  1.80000000E+01  0.00000000E+00
  1.50000000E+02  1.80000000E+01  0.00000000E+00
  1.60000000E+02  1.80000000E+01  0.00000000E+00
  1.70000000E+02  1.80000000E+01  0.00000000E+00
  1.80000000E+02  1.80000000E+01  0.00000000E+00
  1.90000000E+02  1.80000000E+01  0.00000000E+00
  2.00000000E+02  1.80000000E+01  0.00000000E+00
  2.10000000E+02  1.80000000E+01  0.00000000E+00
  2.20000000E+02  1.80000000E+01  0.00000000E+00
  2.30000000E+02  1.80000000E+01  0.00000000E+00
  2.40000000E+02  1.80000000E+01  0.00000000E+00
  2.50000000E+02  1.80000000E+01  0.00000000E+00
  2.60000000E+02  1.80000000E+01  0.00000000E+00
  2.70000000E+02  1.80000000E+01  0.00000000E+00
  2.80000000E+02  1.80000000E+01  0.00000000E+00
  2.90000000E+02  1.80000000E+01  0.00000000E+00
  3.00000000E+02  1.80000000E+01  0.00000000E+00
  3.10000000E+02  1.80000000E+01  0.00000000E+00
  3.20000000E+02  1.80000000E+01  0.00000000E+00
  3.30000000E+02  1.80000000E+01  0.00000000E+00
  3.40000000E+02  1.80000000E+01  0.00000000E+00
  3.50000000E+02  1.80000000E+01  0.00000000E+00
  3.60000000E+02  1.80000000E+01  0.00000000E+00
  3.70000000E+02  1.80000000E+01  0.00000000E+00
  3.80000000E+02  1.80000000E+01  0.00000000E+00
  3.90000000E+02  1.80000000E+01  0.00000000E+00
  4.00000000E+02  1.80000000E+01  0.00000000E+00
  4.10000000E+02  1.80000000E+01  0.00000000E+00
  4.20000000E+02  1.80000000E+01  0.00000000E+00
  4.30000000E+02  1.80000000E+01  0.00000000E+00
  4.40000000E+02  1.80000000E+01  0.00000000E+00
  4.50000000E+02  1.80000000E+01  0.00000000E+00
  4.60000000E+02  1.80000000E+01  0.00000000E+00
  4.70000000E+02  1.80000000E+01  0.00000000E+00
  4.80000000E+02  1.80000000E+01  0.00000000E+00
  4.90000000E+02  1.80000000E+01  0.00000000E+00
  5.00000000E+02  1.80000000E+01  0.00000000E+00
  5.10000000E+02  1.80000000E+01  0.00000000E+00
  5.20000000E+02  1.80000000E+01  0.00000000E+00
  5.30000000E+02  1.80000000E+01  0.00000000E+00
  5.40000000E+02  1.80000000E+01  0.00000000E+00
  5.50000000E+02  1.80000000E+01  0.00000000E+00
  5.60000000E+02  1.80000000E+01  0.00000000E+00
  5.70000000E+02  1.80000000E+01  0.00000000E+00
  5.80000000E+02  1.80000000E+01  0.00000000E+00
  5.90000000E+02  1.80000000E+01  0.00000000E+00
  6.00000000E+02  1.80000000E+01  0.00000000E+00
  6.10000000E+02  1.80000000E+01  0.00000000E+00
  6.20000000E+02  1.80000000E+01  0.00000000E+00
  6.30000000E+02  1.80000000E+01  0.00000000E+00
  6.40000000E+02  1.80000000E+01  0.00000000E+00
  6.50000000E+02  1.80000000E+01  0.00000000E+00
  6.60000000E+02  1.80000000E+01  0.00000000E+00
  6.70000000E+02  1.80000000E+01  0.00000000E+00
  6.80000000E+02  1.80000000E+01  0.00000000E+00
  6.90000000E+02  1.80000000E+01  0.00000000E+00
  7.00000000E+02  1.80000000E+01  0.00000000E+00
  7.10000000E+02  1.80000000E+01  0.00000000E+00
  7.20000000E+02  1.80000000E+01  0.00000000E+00
  7.30000000E+02  1.80000000E+01  0.00000000E+00
  7.40000000E+02  1.80000000E+01  0.00000000E+00
  7.50000000E+02  1.80000000E+01  0.00000000E+00
  7.60000000E+02  1.80000000E+01  0.00000000E+00
  7.70000000E+02  1.80000000E+01  0.00000000E+00
  7.80000000E+02  1.80000000E+01  0.00000000E+00
  7.90000000E+02  1.80000000E+01  0.00000000E+00
  8.00000000E+02  1.80000000E+01  0.00000000E+00
  8.10000000E+02  1.80000000E+01  0.00000000E+00
  8.20000000E+02  1.80000000E+01  0.00000000E+00
  8.30000000E+02  1.80000000E+01  0.00000000E+00
  8.40000000E+02  1.80000000E+01  0.00000000E+00
  8.50000000E+02  1.80000000E+01  0.00000000E+00
  8.60000000E+02  1.80000000E+01  0.00000000E+00
  8.70000000E+02  1.80000000E+01  0.00000000E+00
  8.80000000E+02  1.80000000E+01  0.00000000E+00
  8.90000000E+02  1.80000000E+01  0.00000000E+00
  9.00000000E+02  1.80000000E+01  0.00000000E+00
  9.10000000E+02  1.80000000E+01  0.00000000E+00
  9.20000000E+02  1.80000000E+01  0.00000000E+00
  9.30000000E+02  1.80000000E+01  0.00000000E+00
  9.40000000E+02  1.80000000E+01  0.00000000E+00
  9.50000000E+02  1.80000000E+01  0.00000000E+00
  9.60000000E+02  1.80000000E+01  0.00000000E+00
  9.70000000E+02  1.80000000E+01  0.00000000E+00
  9.80000000E+02  1.80000000E+01  0.00000000E+00
  9.90000000E+02  1.80000000E+01  0.00000000E+00
  1.00000000E+03  1.80000000E+01  0.00000000E+00
  0.00000000E+00  2.00000000E+01  0.00000000E+00
  1.00000000E+01  2.00000000E+01  0.00000000E+00
  2.00000000E+01  2.00000000E+01  0.00000000E+00
  3.00000000E+01  2.00000000E+01  0.00000000E+00
  4.00000000E+01  2.00000000E+01  0.00000000E+00
  5.00000000E+01  2.00000000E+01  0.00000000E+00
  6.00000000E+01  2.00000000E+01  0.00000000E+00
  7.00000000E+01  2.00000000E+01  0.00000000E+00
  8.00000000E+01  2.00000000E+01  0.00000000E+00
  9.00000000E+01  2.00000000E+01  0.00000000E+00
  1.00000000E+02  2.00000000E+01  0.00000000E+00
  1.10000000E+02  2.00000000E+01  0.00000000E+00
  1.20000000E+02  2.00000000E+01  0.00000000E+00
  1.30000000E+02  2.00000000E+01  0.00000000E+00
  1.40000000E+02  2.00000000E+01  0.00000000E+00
  1.50000000E+02  2.00000000E+01  0.00000000E+00
  1.60000000E+02  2.00000000E+01  0.00000000E+00
  1.70000000E+02  2.00000000E+01  0.00000000E+00
  1.80000000E+02  2.00000000E+01  0.00000000E+00
  1.90000000E+02  2.00000000E+01  0.00000000E+00
  2.00000000E+02  2.00000000E+01  0.00000000E+00
  2.10000000E+02  2.00000000E+01  0.00000000E+00
  2.20000000E+02  2.00000000E+01  0.00000000E+00
  2.30000000E+02  2.00000000E+01  0.00000000E+00
  2.40000000E+02  2.00000000E+01  0.00000000E+00
  2.50000000E+02  2.00000000E+01  0.00000000E+00
  2.60000000E+02  2.00000000E+01  0.00000000E+00
  2.70000000E+02  2.00000000E+01  0.00000000E+00
  2.80000000E+02  2.00000000E+01  0.00000000E+00
  2.90000000E+02  2.00000000E+01  0.00000000E+00
  3.00000000E+02  2.00000000E+01  0.00000000E+00
  3.10000000E+02  2.00000000E+01  0.00000000E+00
  3.20000000E+02  2.00000000E+01  0.00000000E+00
  3.30000000E+02  2.00000000E+01  0.00000000E+00
  3.40000000E+02  2.00000000E+01  0.00000000E+00
  3.50000000E+02  2.00000000E+01  0.00000000E+00
  3.60000000E+02  2.00000000E+01  0.00000000E+00
  3.70000000E+02  2.00000000E+01  0.00000000E+00
  3.80000000E+02  2.00000000E+01  0.00000000E+00
  3.90000000E+02  2.00000000E+01  0.00000000E+00
  4.00000000E+02  2.00000000E+01  0.00000000E+00
  4.10000000E+02  2.00000000E+01  0.00000000E+00
  4.20000000E+02  2.00000000E+01  0.00000000E+00
  4.30000000E+02  2.00000000E+01  0.00000000E+00
  4.40000000E+02  2.00000000E+01  0.00000000E+00
  4.50000000E+02  2.00000000E+01  0.00000000E+00
  4.60000000E+02  2.00000000E+01  0.00000000E+00
  4.70000000E+02  2.00000000E+01  0.00000000E+00
  4.80000000E+02  2.00000000E+01  0.00000000E+00
  4.90000000E+02  2.00000000E+01  0.00000000E+00
  5.00000000E+02  2.00000000E+01  0.00000000E+00
  5.10000000E+02  2.00000000E+01  0.00000000E+00
  5.20000000E+02  2.00000000E+01  0.00000000E+00
  5.30000000E+02  2.00000000E+01  0.00000000E+00
  5.40000000E+02  2.00000000E+01  0.00000000E+00
  5.50000000E+02  2.00000000E+01  0.00000000E+00
  5.60000000E+02  2.00000000E+01  0.00000000E+00
  5.70000000E+02  2.00000000E+01  0.00000000E+00
  5.80000000E+02  2.00000000E+01  0.00000000E+00
  5.90000000E+02  2.00000000E+01  0.00000000E+00
  6.00000000E+02  2.00000000E+01  0.00000000E+00
  6.10000000E+02  2.00000000E+01  0.00000000E+00
  6.20000000E+02  2.00000000E+01  0.00000000E+00
  6.30000000E+02  2.00000000E+01  0.00000000E+00
  6.40000000E+02  2.00000000E+01  0.00000000E+00
  6.50000000E+02  2.00000000E+01  0.00000000E+00
  6.60000000E+02  2.00000000E+01  0.00000000E+00
  6.70000000E+02  2.00000000E+01  0.00000000E+00
  6.80000000E+02  2.00000000E+01  0.00000000E+00
  6.90000000E+02  2.00000000E+01  0.00000000E+00
  7.00000000E+02  2.00000000E+01  0.00000000E+00
  7.10000000E+02  2.00000000E+01  0.00000000E+00
  7.20000000E+02  2.00000000E+01  0.00000000E+00
  7.30000000E+02  2.00000000E+01  0.00000000E+00
  7.40000000E+02  2.00000000E+01  0.00000000E+00
  7.50000000E+02  2.00000000E+01  0.00000000E+00
  7.60000000E+02  2.00000000E+01  0.00000000E+00
  7.70000000E+02  2.00000000E+01  0.00000000E+00
  7.80000000E+02  2.00000000E+01  0.00000000E+00
  7.90000000E+02  2.00000000E+01  0.00000000E+00
  8.00000000E+02  2.00000000E+01  0.00000000E+00
  8.10000000E+02  2.00000000E+01  0.00000000E+00
  8.20000000E+02  2.00000000E+01  0.00000000E+00
  8.30000000E+02  2.00000000E+01  0.00000000E+00
  8.40000000E+02  2.00000000E+01  0.00000000E+00
  8.50000000E+02  2.00000000E+01  0.00000000E+00
  8.60000000E+02  2.00000000E+01  0.00000000E+00
  8.70000000E+02  2.00000000E+01  0.00000000E+00
  8.80000000E+02  2.00000000E+01  0.00000000E+00
  8.90000000E+02  2.00000000E+01  0.00000000E+00
  9.00000000E+02  2.00000000E+01  0.00000000E+00
  9.10000000E+02  2.00000000E+01  0.00000000E+00
  9.20000000E+02  2.00000000E+01  0.00000000E+00
  9.30000000E+02  2.00000000E+01  0.00000000E+00
  9.40000000E+02  2.00000000E+01  0.00000000E+00
  9.50000000E+02  2.00000000E+01  0.00000000E+00
  9.60000000E+02  2.00000000E+01  0.00000000E+00
  9.70000000E+02  2.00000000E+01  0.00000000E+00
  9.80000000E+02  2.00000000E+01  0.00000000E+00
  9.90000000E+02  2.00000000E+01  0.00000000E+00
  1.00000000E+03  2.00000000E+01  0.00000000E+00
  0.00000000E+00  2.20000000E+01  0.00000000E+00
  1.00000000E+01  2.20000000E+01  0.00000000E+00
  2.00000000E+01  2.20000000E+01  0.00000000E+00
  3.00000000E+01  2.20000000E+01  0.00000000E+00
  4.00000000E+01  2.20000000E+01  0.00000000E+00
  5.00000000E+01  2.20000000E+01  0.00000000E+00
  6.00000000E+01  2.20000000E+01  0.00000000E+00
  7.00000000E+01  2.20000000E+01  0.00000000E+00
  8.00000000E+01  2.20000000E+01  0.00000000E+00
  9.00000000E+01  2.20000000E+01  0.00000000E+00
  1.00000000E+02  2.20000000E+01  0.00000000E+00
  1.10000000E+02  2.20000000E+01  0.00000000E+00
  1.20000000E+02  2.20000000E+01  0.00000000E+00
  1.30000000E+02  2.20000000E+01  0.00000000E+00
  1.40000000E+02  2.20000000E+01  0.00000000E+00
  1.50000000E+02  2.20000000E+01  0.00000000E+00
  1.60000000E+02  2.20000000E+01  0.00000000E+00
  1.70000000E+02  2.20000000E+01  0.00000000E+00
  1.80000000E+02  2.20000000E+01  0.00000000E+00
  1.90000000E+02  2.20000000E+01  0.00000000E+00
  2.00000000E+02  2.20000000E+01  0.00000000E+00
  2.10000000E+02  2.20000000E+01  0.00000000E+00
  2.20000000E+02  2.20000000E+01  0.00000000E+00
  2.30000000E+02  2.20000000E+01  0.00000000E+00
  2.40000000E+02  2.20000000E+01  0.00000000E+00
  2.50000000E+02  2.20000000E+01  0.00000000E+00
  2.60000000E+02  2.20000000E+01  0.00000000E+00
  2.70000000E+02  2.20000000E+01  0.00000000E+00
  2.80000000E+02  2.20000000E+01  0.00000000E+00
  2.90000000E+02  2.20000000E+01  0.00000000E+00
  3.00000000E+02  2.20000000E+01  0.00000000E+00
  3.10000000E+02  2.20000000E+01  0.00000000E+00
  3.20000000E+02  2.20000000E+01  0.00000000E+00
  3.30000000E+02  2.20000000E+01  0.00000000E+00
  3.40000000E+02  2.20000000E+01  0.00000000E+00
  3.50000000E+02  2.20000000E+01  0.00000000E+00
  3.60000000E+02  2.20000000E+01  0.00000000E+00
  3.70000000E+02  2.20000000E+01  0.00000000E+00
  3.80000000E+02  2.20000000E+01  0.00000000E+00
  3.90000000E+02  2.20000000E+01  0.00000000E+00
  4.00000000E+02  2.20000000E+01  0.00000000E+00
  4.10000000E+02  2.20000000E+01  0.00000000E+00
  4.20000000E+02  2.20000000E+01  0.00000000E+00
  4.30000000E+02  2.20000000E+01  0.00000000E+00
  4.40000000E+02  2.20000000E+01  0.00000000E+00
  4.50000000E+02  2.20000000E+01  0.00000000E+00
  4.60000000E+02  2.20000000E+01  0.00000000E+00
  4.70000000E+02  2.20000000E+01  0.00000000E+00
  4.80000000E+02  2.20000000E+01  0.00000000E+00
  4.90000000E+02  2.20000000E+01  0.00000000E+00
  5.00000000E+02  2.20000000E+01  0.00000000E+00
  5.10000000E+02  2.20000000E+01  0.00000000E+00
  5.20000000E+02  2.20000000E+01  0.00000000E+00
  5.30000000E+02  2.20000000E+01  0.00000000E+00
  5.40000000E+02  2.20000000E+01  0.00000000E+00
  5.50000000E+02  2.20000000E+01  0.00000000E+00
  5.60000000E+02  2.20000000E+01  0.00000000E+00
  5.70000000E+02  2.20000000E+01  0.00000000E+00
  5.80000000E+02  2.20000000E+01  0.00000000E+00
  5.90000000E+02  2.20000000E+01  0.00000000E+00
  6.00000000E+02  2.20000000E+01  0.00000000E+00
  6.10000000E+02  2.20000000E+01  0.00000000E+00
  6.20000000E+02  2.20000000E+01  0.00000000E+00
  6.30000000E+02  2.20000000E+01  0.00000000E+00
  6.40000000E+02  2.20000000E+01  0.00000000E+00
  6.50000000E+02  2.20000000E+01  0.00000000E+00
  6.60000000E+02  2.20000000E+01  0.00000000E+00
  6.70000000E+02  2.20000000E+01  0.00000000E+00
  6.80000000E+02  2.20000000E+01  0.00000000E+00
  6.90000000E+02  2.20000000E+01  0.00000000E+00
  7.00000000E+02  2.20000000E+01  0.00000000E+00
  7.10000000E+02  2.20000000E+01  0.00000000E+00
  7.20000000E+02  2.20000000E+01  0.00000000E+00
  7.30000000E+02  2.20000000E+01  0.00000000E+00
  7.40000000E+02  2.20000000E+01  0.00000000E+00
  7.50000000E+02  2.20000000E+01  0.00000000E+00
  7.60000000E+02  2.20000000E+01  0.00000000E+00
  7.70000000E+02  2.20000000E+01  0.00000000E+00
  7.80000000E+02  2.20000000E+01  0.00000000E+00
  7.90000000E+02  2.20000000E+01  0.00000000E+00
  8.00000000E+02  2.20000000E+01  0.00000000E+00
  8.10000000E+02  2.20000000E+01  0.00000000E+00
  8.20000000E+02  2.20000000E+01  0.00000000E+00
  8.30000000E+02  2.20000000E+01  0.00000000E+00
  8.40000000E+02  2.20000000E+01  0.00000000E+00
  8.50000000E+02  2.20000000E+01  0.00000000E+00
  8.60000000E+02  2.20000000E+01  0.00000000E+00
  8.70000000E+02  2.20000000E+01  0.00000000E+00
  8.80000000E+02  2.20000000E+01  0.00000000E+00
  8.90000000E+02  2.20000000E+01  0.00000000E+00
  9.00000000E+02  2.20000000E+01  0.00000000E+00
  9.10000000E+02  2.20000000E+01  0.00000000E+00
  9.20000000E+02  2.20000000E+01  0.00000000E+00
  9.30000000E+02  2.20000000E+01  0.00000000E+00
  9.40000000E+02  2.20000000E+01  0.00000000E+00
  9.50000000E+02  2.20000000E+01  0.00000000E+00
  9.60000000E+02  2.20000000E+01  0.00000000E+00
  9.70000000E+02  2.20000000E+01  0.00000000E+00
  9.80000000E+02  2.20000000E+01  0.00000000E+00
  9.90000000E+02  2.20000000E+01  0.00000000E+00
  1.00000000E+03  2.20000000E+01  0.00000000E+00
  0.00000000E+00  2.40000000E+01  0.00000000E+00
  1.00000000E+01  2.40000000E+01  0.00000000E+00
  2.00000000E+01  2.40000000E+01  0.00000000E+00
  3.00000000E+01  2.40000000E+01  0.00000000E+00
  4.00000000E+01  2.40000000E+01  0.00000000E+00
  5.00000000E+01  2.40000000E+01  0.00000000E+00
  6.00000000E+01  2.40000000E+01  0.00000000E+00
  7.00000000E+01  2.40000000E+01  0.00000000E+00
  8.00000000E+01  2.40000000E+01  0.00000000E+00
  9.00000000E+01  2.40000000E+01  0.00000000E+00
  1.00000000E+02  2.40000000E+01  0.00000000E+00
  1.10000000E+02  2.40000000E+01  0.00000000E+00
  1.20000000E+02  2.40000000E+01  0.00000000E+00
  1.30000000E+02  2.40000000E+01  0.00000000E+00
  1.40000000E+02  2.40000000E+01  0.00000000E+00
  1.50000000E+02  2.40000000E+01  0.00000000E+00
  1.60000000E+02  2.40000000E+01  0.00000000E+00
  1.70000000E+02  2.40000000E+01  0.00000000E+00
  1.80000000E+02  2.40000000E+01  0.00000000E+00
  1.90000000E+02  2.40000000E+01  0.00000000E+00
  2.00000000E+02  2.40000000E+01  0.00000000E+00
  2.10000000E+02  2.40000000E+01  0.00000000E+00
  2.20000000E+02  2.40000000E+01  0.00000000E+00
  2.30000000E+02  2.40000000E+01  0.00000000E+00
  2.40000000E+02  2.40000000E+01  0.00000000E+00
  2.50000000E+02  2.40000000E+01  0.00000000E+00
  2.60000000E+02  2.40000000E+01  0.00000000E+00
  2.70000000E+02  2.40000000E+01  0.00000000E+00
  2.80000000E+02  2.40000000E+01  0.00000000E+00
  2.90000000E+02  2.40000000E+01  0.00000000E+00
  3.00000000E+02  2.40000000E+01  0.00000000E+00
  3.10000000E+02  2.40000000E+01  0.00000000E+00
  3.20000000E+02  2.40000000E+01  0.00000000E+00
  3.30000000E+02  2.40000000E+01  0.00000000E+00
  3.40000000E+02  2.40000000E+01  0.00000000E+00
  3.50000000E+02  2.40000000E+01  0.00000000E+00
  3.60000000E+02  2.40000000E+01  0.00000000E+00
  3.70000000E+02  2.40000000E+01  0.00000000E+00
  3.80000000E+02  2.40000000E+01  0.00000000E+00
  3.90000000E+02  2.40000000E+01  0.00000000E+00
  4.00000000E+02  2.40000000E+01  0.00000000E+00
  4.10000000E+02  2.40000000E+01  0.00000000E+00
  4.20000000E+02  2.40000000E+01  0.00000000E+00
  4.30000000E+02  2.40000000E+01  0.00000000E+00
  4.40000000E+02  2.40000000E+01  0.00000000E+00
  4.50000000E+02  2.40000000E+01  0.00000000E+00
  4.60000000E+02  2.40000000E+01  0.00000000E+00
  4.70000000E+02  2.40000000E+01  0.00000000E+00
  4.80000000E+02  2.40000000E+01  0.00000000E+00
  4.90000000E+02  2.40000000E+01  0.00000000E+00
  5.00000000E+02  2.40000000E+01  0.00000000E+00
  5.10000000E+02  2.40000000E+01  0.00000000E+00
  5.20000000E+02  2.40000000E+01  0.00000000E+00
  5.30000000E+02  2.40000000E+01  0.00000000E+00
  5.40000000E+02  2.40000000E+01  0.00000000E+00
  5.50000000E+02  2.40000000E+01  0.00000000E+00
  5.60000000E+02  2.40000000E+01  0.00000000E+00
  5.70000000E+02  2.40000000E+01  0.00000000E+00
  5.80000000E+02  2.40000000E+01  0.00000000E+00
  5.90000000E+02  2.40000000E+01  0.00000000E+00
  6.00000000E+02  2.40000000E+01  0.00000000E+00
  6.10000000E+02  2.40000000E+01  0.00000000E+00
  6.20000000E+02  2.40000000E+01  0.00000000E+00
  6.30000000E+02  2.40000000E+01  0.00000000E+00
  6.40000000E+02  2.40000000E+01  0.00000000E+00
  6.50000000E+02  2.40000000E+01  0.00000000E+00
  6.60000000E+02  2.40000000E+01  0.00000000E+00
  6.70000000E+02  2.40000000E+01  0.00000000E+00
  6.80000000E+02  2.40000000E+01  0.00000000E+00
  6.90000000E+02  2.40000000E+01  0.00000000E+00
  7.00000000E+02  2.40000000E+01  0.00000000E+00
  7.10000000E+02  2.40000000E+01  0.00000000E+00
  7.20000000E+02  2.40000000E+01  0.00000000E+00
  7.30000000E+02  2.40000000E+01  0.00000000E+00
  7.40000000E+02  2.40000000E+01  0.00000000E+00
  7.50000000E+02  2.40000000E+01  0.00000000E+00
  7.60000000E+02  2.40000000E+01  0.00000000E+00
  7.70000000E+02  2.40000000E+01  0.00000000E+00
  7.80000000E+02  2.40000000E+01  0.00000000E+00
  7.90000000E+02  2.40000000E+01  0.00000000E+00
  8.00000000E+02  2.40000000E+01  0.00000000E+00
  8.10000000E+02  2.40000000E+01  0.00000000E+00
  8.20000000E+02  2.40000000E+01  0.00000000E+00
  8.30000000E+02  2.40000000E+01  0.00000000E+00
  8.40000000E+02  2.40000000E+01  0.00000000E+00
  8.50000000E+02  2.40000000E+01  0.00000000E+00
  8.60000000E+02  2.40000000E+01  0.00000000E+00
  8.70000000E+02  2.40000000E+01  0.00000000E+00
  8.80000000E+02  2.40000000E+01  0.00000000E+00
  8.90000000E+02  2.40000000E+01  0.00000000E+00
  9.00000000E+02  2.40000000E+01  0.00000000E+00
  9.10000000E+02  2.40000000E+01  0.00000000E+00
  9.20000000E+02  2.40000000E+01  0.00000000E+00
  9.30000000E+02  2.40000000E+01  0.00000000E+00
  9.40000000E+02  2.40000000E+01  0.00000000E+00
  9.50000000E+02  2.40000000E+01  0.00000000E+00
  9.60000000E+02  2.40000000E+01  0.00000000E+00
  9.70000000E+02  2.40000000E+01  0.00000000E+00
  9.80000000E+02  2.40000000E+01  0.00000000E+00
  9.90000000E+02  2.40000000E+01  0.00000000E+00
  1.00000000E+03  2.40000000E+01  0.00000000E+00
  0.00000000E+00  2.60000000E+01  0.00000000E+00
  1.00000000E+01  2.60000000E+01  0.00000000E+00
  2.00000000E+01  2.60000000E+01  0.00000000E+00
  3.00000000E+01  2.60000000E+01  0.00000000E+00
  4.00000000E+01  2.60000000E+01  0.00000000E+00
  5.00000000E+01  2.60000000E+01  0.00000000E+00
  6.00000000E+01  2.60000000E+01  0.00000000E+00
  7.00000000E+01  2.60000000E+01  0.00000000E+00
  8.00000000E+01  2.60000000E+01  0.00000000E+00
  9.00000000E+01  2.60000000E+01  0.00000000E+00
  1.00000000E+02  2.60000000E+01  0.00000000E+00
  1.10000000E+02  2.60000000E+01  0.00000000E+00
  1.20000000E+02  2.60000000E+01  0.00000000E+00
  1.30000000E+02  2.60000000E+01  0.00000000E+00
  1.40000000E+02  2.60000000E+01  0.00000000E+00
  1.50000000E+02  2.60000000E+01  0.00000000E+00
  1.60000000E+02  2.60000000E+01  0.00000000E+00
  1.70000000E+02  2.60000000E+01  0.00000000E+00
  1.80000000E+02  2.60000000E+01  0.00000000E+00
  1.90000000E+02  2.60000000E+01  0.00000000E+00
  2.00000000E+02  2.60000000E+01  0.00000000E+00
  2.10000000E+02  2.60000000E+01  0.00000000E+00
  2.20000000E+02  2.60000000E+01  0.00000000E+00
  2.30000000E+02  2.60000000E+01  0.00000000E+00
  2.40000000E+02  2.60000000E+01  0.00000000E+00
  2.50000000E+02  2.60000000E+01  0.00000000E+00
  2.60000000E+02  2.60000000E+01  0.00000000E+00
  2.70000000E+02  2.60000000E+01  0.00000000E+00
  2.80000000E+02  2.60000000E+01  0.00000000E+00
  2.90000000E+02  2.60000000E+01  0.00000000E+00
  3.00000000E+02  2.60000000E+01  0.00000000E+00
  3.10000000E+02  2.60000000E+01  0.00000000E+00
  3.20000000E+02  2.60000000E+01  0.00000000E+00
  3.30000000E+02  2.60000000E+01  0.00000000E+00
  3.40000000E+02  2.60000000E+01  0.00000000E+00
  3.50000000E+02  2.60000000E+01  0.00000000E+00
  3.60000000E+02  2.60000000E+01  0.00000000E+00
  3.70000000E+02  2.60000000E+01  0.00000000E+00
  3.80000000E+02  2.60000000E+01  0.00000000E+00
  3.90000000E+02  2.60000000E+01  0.00000000E+00
  4.00000000E+02  2.60000000E+01  0.00000000E+00
  4.10000000E+02  2.60000000E+01  0.00000000E+00
  4.20000000E+02  2.60000000E+01  0.00000000E+00
  4.30000000E+02  2.60000000E+01  0.00000000E+00
  4.40000000E+02  2.60000000E+01  0.00000000E+00
  4.50000000E+02  2.60000000E+01  0.00000000E+00
  4.60000000E+02  2.60000000E+01  0.00000000E+00
  4.70000000E+02  2.60000000E+01  0.00000000E+00
  4.80000000E+02  2.60000000E+01  0.00000000E+00
  4.90000000E+02  2.60000000E+01  0.00000000E+00
  5.00000000E+02  2.60000000E+01  0.00000000E+00
  5.10000000E+02  2.60000000E+01  0.00000000E+00
  5.20000000E+02  2.60000000E+01  0.00000000E+00
  5.30000000E+02  2.60000000E+01  0.00000000E+00
  5.40000000E+02  2.60000000E+01  0.00000000E+00
  5.50000000E+02  2.60000000E+01  0.00000000E+00
  5.60000000E+02  2.60000000E+01  0.00000000E+00
  5.70000000E+02  2.60000000E+01  0.00000000E+00
  5.80000000E+02  2.60000000E+01  0.00000000E+00
  5.90000000E+02  2.60000000E+01  0.00000000E+00
  6.00000000E+02  2.60000000E+01  0.00000000E+00
  6.10000000E+02  2.60000000E+01  0.00000000E+00
  6.20000000E+02  2.60000000E+01  0.00000000E+00
  6.30000000E+02  2.60000000E+01  0.00000000E+00
  6.40000000E+02  2.60000000E+01  0.00000000E+00
  6.50000000E+02  2.60000000E+01  0.00000000E+00
  6.60000000E+02  2.60000000E+01  0.00000000E+00
  6.70000000E+02  2.60000000E+01  0.00000000E+00
  6.80000000E+02  2.60000000E+01  0.00000000E+00
  6.90000000E+02  2.60000000E+01  0.00000000E+00
  7.00000000E+02  2.60000000E+01  0.00000000E+00
  7.10000000E+02  2.60000000E+01  0.00000000E+00
  7.20000000E+02  2.60000000E+01  0.00000000E+00
  7.30000000E+02  2.60000000E+01  0.00000000E+00
  7.40000000E+02  2.60000000E+01  0.00000000E+00
  7.50000000E+02  2.60000000E+01  0.00000000E+00
  7.60000000E+02  2.60000000E+01  0.00000000E+00
  7.70000000E+02  2.60000000E+01  0.00000000E+00
  7.80000000E+02  2.60000000E+01  0.00000000E+00
  7.90000000E+02  2.60000000E+01  0.00000000E+00
  8.00000000E+02  2.60000000E+01  0.00000000E+00
  8.10000000E+02  2.60000000E+01  0.00000000E+00
  8.20000000E+02  2.60000000E+01  0.00000000E+00
  8.30000000E+02  2.60000000E+01  0.00000000E+00
  8.40000000E+02  2.60000000E+01  0.00000000E+00
  8.50000000E+02  2.60000000E+01  0.00000000E+00
  8.60000000E+02  2.60000000E+01  0.00000000E+00
  8.70000000E+02  2.60000000E+01  0.00000000E+00
  8.80000000E+02  2.60000000E+01  0.00000000E+00
  8.90000000E+02  2.60000000E+01  0.00000000E+00
  9.00000000E+02  2.60000000E+01  0.00000000E+00
  9.10000000E+02  2.60000000E+01  0.00000000E+00
  9.20000000E+02  2.60000000E+01  0.00000000E+00
  9.30000000E+02  2.60000000E+01  0.00000000E+00
  9.40000000E+02  2.60000000E+01  0.00000000E+00
  9.50000000E+02  2.60000000E+01  0.00000000E+00
  9.60000000E+02  2.60000000E+01  0.00000000E+00
  9.70000000E+02  2.60000000E+01  0.00000000E+00
  9.80000000E+02  2.60000000E+01  0.00000000E+00
  9.90000000E+02  2.60000000E+01  0.00000000E+00
  1.00000000E+03  2.60000000E+01  0.00000000E+00
  0.00000000E+00  2.80000000E+01  0.00000000E+00
  1.00000000E+01  2.80000000E+01  0.00000000E+00
  2.00000000E+01  2.80000000E+01  0.00000000E+00
  3.00000000E+01  2.80000000E+01  0.00000000E+00
  4.00000000E+01  2.80000000E+01  0.00000000E+00
  5.00000000E+01  2.80000000E+01  0.00000000E+00
  6.00000000E+01  2.80000000E+01  0.00000000E+00
  7.00000000E+01  2.80000000E+01  0.00000000E+00
  8.00000000E+01  2.80000000E+01  0.00000000E+00
  9.00000000E+01  2.80000000E+01  0.00000000E+00
  1.00000000E+02  2.80000000E+01  0.00000000E+00
  1.10000000E+02  2.80000000E+01  0.00000000E+00
  1.20000000E+02  2.80000000E+01  0.00000000E+00
  1.30000000E+02  2.80000000E+01  0.00000000E+00
  1.40000000E+02  2.80000000E+01  0.00000000E+00
  1.50000000E+02  2.80000000E+01  0.00000000E+00
  1.60000000E+02  2.80000000E+01  0.00000000E+00
  1.70000000E+02  2.80000000E+01  0.00000000E+00
  1.80000000E+02  2.80000000E+01  0.00000000E+00
  1.90000000E+02  2.80000000E+01  0.00000000E+00
  2.00000000E+02  2.80000000E+01  0.00000000E+00
  2.10000000E+02  2.80000000E+01  0.00000000E+00
  2.20000000E+02  2.80000000E+01  0.00000000E+00
  2.30000000E+02  2.80000000E+01  0.00000000E+00
  2.40000000E+02  2.80000000E+01  0.00000000E+00
  2.50000000E+02  2.80000000E+01  0.00000000E+00
  2.60000000E+02  2.80000000E+01  0.00000000E+00
  2.70000000E+02  2.80000000E+01  0.00000000E+00
  2.80000000E+02  2.80000000E+01  0.00000000E+00
  2.90000000E+02  2.80000000E+01  0.00000000E+00
  3.00000000E+02  2.80000000E+01  0.00000000E+00
  3.10000000E+02  2.80000000E+01  0.00000000E+00
  3.20000000E+02  2.80000000E+01  0.00000000E+00
  3.30000000E+02  2.80000000E+01  0.00000000E+00
  3.40000000E+02  2.80000000E+01  0.00000000E+00
  3.50000000E+02  2.80000000E+01  0.00000000E+00
  3.60000000E+02  2.80000000E+01  0.00000000E+00
  3.70000000E+02  2.80000000E+01  0.00000000E+00
  3.80000000E+02  2.80000000E+01  0.00000000E+00
  3.90000000E+02  2.80000000E+01  0.00000000E+00
  4.00000000E+02  2.80000000E+01  0.00000000E+00
  4.10000000E+02  2.80000000E+01  0.00000000E+00
  4.20000000E+02  2.80000000E+01  0.00000000E+00
  4.30000000E+02  2.80000000E+01  0.00000000E+00
  4.40000000E+02  2.80000000E+01  0.00000000E+00
  4.50000000E+02  2.80000000E+01  0.00000000E+00
  4.60000000E+02  2.80000000E+01  0.00000000E+00
  4.70000000E+02  2.80000000E+01  0.00000000E+00
  4.80000000E+02  2.80000000E+01  0.00000000E+00
  4.90000000E+02  2.80000000E+01  0.00000000E+00
  5.00000000E+02  2.80000000E+01  0.00000000E+00
  5.10000000E+02  2.80000000E+01  0.00000000E+00
  5.20000000E+02  2.80000000E+01  0.00000000E+00
  5.30000000E+02  2.80000000E+01  0.00000000E+00
  5.40000000E+02  2.80000000E+01  0.00000000E+00
  5.50000000E+02  2.80000000E+01  0.00000000E+00
  5.60000000E+02  2.80000000E+01  0.00000000E+00
  5.70000000E+02  2.80000000E+01  0.00000000E+00
  5.80000000E+02  2.80000000E+01  0.00000000E+00
  5.90000000E+02  2.80000000E+01  0.00000000E+00
  6.00000000E+02  2.80000000E+01  0.00000000E+00
  6.10000000E+02  2.80000000E+01  0.00000000E+00
  6.20000000E+02  2.80000000E+01  0.00000000E+00
  6.30000000E+02  2.80000000E+01  0.00000000E+00
  6.40000000E+02  2.80000000E+01  0.00000000E+00
  6.50000000E+02  2.80000000E+01  0.00000000E+00
  6.60000000E+02  2.80000000E+01  0.00000000E+00
  6.70000000E+02  2.80000000E+01  0.00000000E+00
  6.80000000E+02  2.80000000E+01  0.00000000E+00
  6.90000000E+02  2.80000000E+01  0.00000000E+00
  7.00000000E+02  2.80000000E+01  0.00000000E+00
  7.10000000E+02  2.80000000E+01  0.00000000E+00
  7.20000000E+02  2.80000000E+01  0.00000000E+00
  7.30000000E+02  2.80000000E+01  0.00000000E+00
  7.40000000E+02  2.80000000E+01  0.00000000E+00
  7.50000000E+02  2.80000000E+01  0.00000000E+00
  7.60000000E+02  2.80000000E+01  0.00000000E+00
  7.70000000E+02  2.80000000E+01  0.00000000E+00
  7.80000000E+02  2.80000000E+01  0.00000000E+00
  7.90000000E+02  2.80000000E+01  0.00000000E+00
  8.00000000E+02  2.80000000E+01  0.00000000E+00
  8.10000000E+02  2.80000000E+01  0.00000000E+00
  8.20000000E+02  2.80000000E+01  0.00000000E+00
  8.30000000E+02  2.80000000E+01  0.00000000E+00
  8.40000000E+02  2.80000000E+01  0.00000000E+00
  8.50000000E+02  2.80000000E+01  0.00000000E+00
  8.60000000E+02  2.80000000E+01  0.00000000E+00
  8.70000000E+02  2.80000000E+01  0.00000000E+00
  8.80000000E+02  2.80000000E+01  0.00000000E+00
  8.90000000E+02  2.80000000E+01  0.00000000E+00
  9.00000000E+02  2.80000000E+01  0.00000000E+00
  9.10000000E+02  2.80000000E+01  0.00000000E+00
  9.20000000E+02  2.80000000E+01  0.00000000E+00
  9.30000000E+02  2.80000000E+01  0.00000000E+00
  9.40000000E+02  2.80000000E+01  0.00000000E+00
  9.50000000E+02  2.80000000E+01  0.00000000E+00
  9.60000000E+02  2.80000000E+01  0.00000000E+00
  9.70000000E+02  2.80000000E+01  0.00000000E+00
  9.80000000E+02  2.80000000E+01  0.00000000E+00
  9.90000000E+02  2.80000000E+01  0.00000000E+00
  1.00000000E+03  2.80000000E+01  0.00000000E+00
  0.00000000E+00  3.00000000E+01  0.00000000E+00
  1.00000000E+01  3.00000000E+01  0.00000000E+00
  2.00000000E+01  3.00000000E+01  0.00000000E+00
  3.00000000E+01  3.00000000E+01  0.00000000E+00
  4.00000000E+01  3.00000000E+01  0.00000000E+00
  5.00000000E+01  3.00000000E+01  0.00000000E+00
  6.00000000E+01  3.00000000E+01  0.00000000E+00
  7.00000000E+01  3.00000000E+01  0.00000000E+00
  8.00000000E+01  3.00000000E+01  0.00000000E+00
  9.00000000E+01  3.00000000E+01  0.00000000E+00
  1.00000000E+02  3.00000000E+01  0.00000000E+00
  1.10000000E+02  3.00000000E+01  0.00000000E+00
  1.20000000E+02  3.00000000E+01  0.00000000E+00
  1.30000000E+02  3.00000000E+01  0.00000000E+00
  1.40000000E+02  3.00000000E+01  0.00000000E+00
  1.50000000E+02  3.00000000E+01  0.00000000E+00
  1.60000000E+02  3.00000000E+01  0.00000000E+00
  1.70000000E+02  3.00000000E+01  0.00000000E+00
  1.80000000E+02  3.00000000E+01  0.00000000E+00
  1.90000000E+02  3.00000000E+01  0.00000000E+00
  2.00000000E+02  3.00000000E+01  0.00000000E+00
  2.10000000E+02  3.00000000E+01  0.00000000E+00
  2.20000000E+02  3.00000000E+01  0.00000000E+00
  2.30000000E+02  3.00000000E+01  0.00000000E+00
  2.40000000E+02  3.00000000E+01  0.00000000E+00
  2.50000000E+02  3.00000000E+01  0.00000000E+00
  2.60000000E+02  3.00000000E+01  0.00000000E+00
  2.70000000E+02  3.00000000E+01  0.00000000E+00
  2.80000000E+02  3.00000000E+01  0.00000000E+00
  2.90000000E+02  3.00000000E+01  0.00000000E+00
  3.00000000E+02  3.00000000E+01  0.00000000E+00
  3.10000000E+02  3.00000000E+01  0.00000000E+00
  3.20000000E+02  3.00000000E+01  0.00000000E+00
  3.30000000E+02  3.00000000E+01  0.00000000E+00
  3.40000000E+02  3.00000000E+01  0.00000000E+00
  3.50000000E+02  3.00000000E+01  0.00000000E+00
  3.60000000E+02  3.00000000E+01  0.00000000E+00
  3.70000000E+02  3.00000000E+01  0.00000000E+00
  3.80000000E+02  3.00000000E+01  0.00000000E+00
  3.90000000E+02  3.00000000E+01  0.00000000E+00
  4.00000000E+02  3.00000000E+01  0.00000000E+00
  4.10000000E+02  3.00000000E+01  0.00000000E+00
  4.20000000E+02  3.00000000E+01  0.00000000E+00
  4.30000000E+02  3.00000000E+01  0.00000000E+00
  4.40000000E+02  3.00000000E+01  0.00000000E+00
  4.50000000E+02  3.00000000E+01  0.00000000E+00
  4.60000000E+02  3.00000000E+01  0.00000000E+00
  4.70000000E+02  3.00000000E+01  0.00000000E+00
  4.80000000E+02  3.00000000E+01  0.00000000E+00
  4.90000000E+02  3.00000000E+01  0.00000000E+00
  5.00000000E+02  3.00000000E+01  0.00000000E+00
  5.10000000E+02  3.00000000E+01  0.00000000E+00
  5.20000000E+02  3.00000000E+01  0.00000000E+00
  5.30000000E+02  3.00000000E+01  0.00000000E+00
  5.40000000E+02  3.00000000E+01  0.00000000E+00
  5.50000000E+02  3.00000000E+01  0.00000000E+00
  5.60000000E+02  3.00000000E+01  0.00000000E+00
  5.70000000E+02  3.00000000E+01  0.00000000E+00
  5.80000000E+02  3.00000000E+01  0.00000000E+00
  5.90000000E+02  3.00000000E+01  0.00000000E+00
  6.00000000E+02  3.00000000E+01  0.00000000E+00
  6.10000000E+02  3.00000000E+01  0.00000000E+00
  6.20000000E+02  3.00000000E+01  0.00000000E+00
  6.30000000E+02  3.00000000E+01  0.00000000E+00
  6.40000000E+02  3.00000000E+01  0.00000000E+00
  6.50000000E+02  3.00000000E+01  0.00000000E+00
  6.60000000E+02  3.00000000E+01  0.00000000E+00
  6.70000000E+02  3.00000000E+01  0.00000000E+00
  6.80000000E+02  3.00000000E+01  0.00000000E+00
  6.90000000E+02  3.00000000E+01  0.00000000E+00
  7.00000000E+02  3.00000000E+01  0.00000000E+00
  7.10000000E+02  3.00000000E+01  0.00000000E+00
  7.20000000E+02  3.00000000E+01  0.00000000E+00
  7.30000000E+02  3.00000000E+01  0.00000000E+00
  7.40000000E+02  3.00000000E+01  0.00000000E+00
  7.50000000E+02  3.00000000E+01  0.00000000E+00
  7.60000000E+02  3.00000000E+01  0.00000000E+00
  7.70000000E+02  3.00000000E+01  0.00000000E+00
  7.80000000E+02  3.00000000E+01  0.00000000E+00
  7.90000000E+02  3.00000000E+01  0.00000000E+00
  8.00000000E+02  3.00000000E+01  0.00000000E+00
  8.10000000E+02  3.00000000E+01  0.00000000E+00
  8.20000000E+02  3.00000000E+01  0.00000000E+00
  8.30000000E+02  3.00000000E+01  0.00000000E+00
  8.40000000E+02  3.00000000E+01  0.00000000E+00
  8.50000000E+02  3.00000000E+01  0.00000000E+00
  8.60000000E+02  3.00000000E+01  0.00000000E+00
  8.70000000E+02  3.00000000E+01  0.00000000E+00
  8.80000000E+02  3.00000000E+01  0.00000000E+00
  8.90000000E+02  3.00000000E+01  0.00000000E+00
  9.00000000E+02  3.00000000E+01  0.00000000E+00
  9.10000000E+02  3.00000000E+01  0.00000000E+00
  9.20000000E+02  3.00000000E+01  0.00000000E+00
  9.30000000E+02  3.00000000E+01  0.00000000E+00
  9.40000000E+02  3.00000000E+01  0.00000000E+00
  9.50000000E+02  3.00000000E+01  0.00000000E+00
  9.60000000E+02  3.00000000E+01  0.00000000E+00
  9.70000000E+02  3.00000000E+01  0.00000000E+00
  9.80000000E+02  3.00000000E+01  0.00000000E+00
  9.90000000E+02  3.00000000E+01  0.00000000E+00
  1.00000000E+03  3.00000000E+01  0.00000000E+00
  0.00000000E+00  3.20000000E+01  0.00000000E+00
  1.00000000E+01  3.20000000E+01  0.00000000E+00
  2.00000000E+01  3.20000000E+01  0.00000000E+00
  3.00000000E+01  3.20000000E+01  0.00000000E+00
  4.00000000E+01  3.20000000E+01  0.00000000E+00
  5.00000000E+01  3.20000000E+01  0.00000000E+00
  6.00000000E+01  3.20000000E+01  0.00000000E+00
  7.00000000E+01  3.20000000E+01  0.00000000E+00
  8.00000000E+01  3.20000000E+01  0.00000000E+00
  9.00000000E+01  3.20000000E+01  0.00000000E+00
  1.00000000E+02  3.20000000E+01  0.00000000E+00
  1.10000000E+02  3.20000000E+01  0.00000000E+00
  1.20000000E+02  3.20000000E+01  0.00000000E+00
  1.30000000E+02  3.20000000E+01  0.00000000E+00
  1.40000000E+02  3.20000000E+01  0.00000000E+00
  1.50000000E+02  3.20000000E+01  0.00000000E+00
  1.60000000E+02  3.20000000E+01  0.00000000E+00
  1.70000000E+02  3.20000000E+01  0.00000000E+00
  1.80000000E+02  3.20000000E+01  0.00000000E+00
  1.90000000E+02  3.20000000E+01  0.00000000E+00
  2.00000000E+02  3.20000000E+01  0.00000000E+00
  2.10000000E+02  3.20000000E+01  0.00000000E+00
  2.20000000E+02  3.20000000E+01  0.00000000E+00
  2.30000000E+02  3.20000000E+01  0.00000000E+00
  2.40000000E+02  3.20000000E+01  0.00000000E+00
  2.50000000E+02  3.20000000E+01  0.00000000E+00
  2.60000000E+02  3.20000000E+01  0.00000000E+00
  2.70000000E+02  3.20000000E+01  0.00000000E+00
  2.80000000E+02  3.20000000E+01  0.00000000E+00
  2.90000000E+02  3.20000000E+01  0.00000000E+00
  3.00000000E+02  3.20000000E+01  0.00000000E+00
  3.10000000E+02  3.20000000E+01  0.00000000E+00
  3.20000000E+02  3.20000000E+01  0.00000000E+00
  3.30000000E+02  3.20000000E+01  0.00000000E+00
  3.40000000E+02  3.20000000E+01  0.00000000E+00
  3.50000000E+02  3.20000000E+01  0.00000000E+00
  3.60000000E+02  3.20000000E+01  0.00000000E+00
  3.70000000E+02  3.20000000E+01  0.00000000E+00
  3.80000000E+02  3.20000000E+01  0.00000000E+00
  3.90000000E+02  3.20000000E+01  0.00000000E+00
  4.00000000E+02  3.20000000E+01  0.00000000E+00
  4.10000000E+02  3.20000000E+01  0.00000000E+00
  4.20000000E+02  3.20000000E+01  0.00000000E+00
  4.30000000E+02  3.20000000E+01  0.00000000E+00
  4.40000000E+02  3.20000000E+01  0.00000000E+00
  4.50000000E+02  3.20000000E+01  0.00000000E+00
  4.60000000E+02  3.20000000E+01  0.00000000E+00
  4.70000000E+02  3.20000000E+01  0.00000000E+00
  4.80000000E+02  3.20000000E+01  0.00000000E+00
  4.90000000E+02  3.20000000E+01  0.00000000E+00
  5.00000000E+02  3.20000000E+01  0.00000000E+00
  5.10000000E+02  3.20000000E+01  0.00000000E+00
  5.20000000E+02  3.20000000E+01  0.00000000E+00
  5.30000000E+02  3.20000000E+01  0.00000000E+00
  5.40000000E+02  3.20000000E+01  0.00000000E+00
  5.50000000E+02  3.20000000E+01  0.00000000E+00
  5.60000000E+02  3.20000000E+01  0.00000000E+00
  5.70000000E+02  3.20000000E+01  0.00000000E+00
  5.80000000E+02  3.20000000E+01  0.00000000E+00
  5.90000000E+02  3.20000000E+01  0.00000000E+00
  6.00000000E+02  3.20000000E+01  0.00000000E+00
  6.10000000E+02  3.20000000E+01  0.00000000E+00
  6.20000000E+02  3.20000000E+01  0.00000000E+00
  6.30000000E+02  3.20000000E+01  0.00000000E+00
  6.40000000E+02  3.20000000E+01  0.00000000E+00
  6.50000000E+02  3.20000000E+01  0.00000000E+00
  6.60000000E+02  3.20000000E+01  0.00000000E+00
  6.70000000E+02  3.20000000E+01  0.00000000E+00
  6.80000000E+02  3.20000000E+01  0.00000000E+00
  6.90000000E+02  3.20000000E+01  0.00000000E+00
  7.00000000E+02  3.20000000E+01  0.00000000E+00
  7.10000000E+02  3.20000000E+01  0.00000000E+00
  7.20000000E+02  3.20000000E+01  0.00000000E+00
  7.30000000E+02  3.20000000E+01  0.00000000E+00
  7.40000000E+02  3.20000000E+01  0.00000000E+00
  7.50000000E+02  3.20000000E+01  0.00000000E+00
  7.60000000E+02  3.20000000E+01  0.00000000E+00
  7.70000000E+02  3.20000000E+01  0.00000000E+00
  7.80000000E+02  3.20000000E+01  0.00000000E+00
  7.90000000E+02  3.20000000E+01  0.00000000E+00
  8.00000000E+02  3.20000000E+01  0.00000000E+00
  8.10000000E+02  3.20000000E+01  0.00000000E+00
  8.20000000E+02  3.20000000E+01  0.00000000E+00
  8.30000000E+02  3.20000000E+01  0.00000000E+00
  8.40000000E+02  3.20000000E+01  0.00000000E+00
  8.50000000E+02  3.20000000E+01  0.00000000E+00
  8.60000000E+02  3.20000000E+01  0.00000000E+00
  8.70000000E+02  3.20000000E+01  0.00000000E+00
  8.80000000E+02  3.20000000E+01  0.00000000E+00
  8.90000000E+02  3.20000000E+01  0.00000000E+00
  9.00000000E+02  3.20000000E+01  0.00000000E+00
  9.10000000E+02  3.20000000E+01  0.00000000E+00
  9.20000000E+02  3.20000000E+01  0.00000000E+00
  9.30000000E+02  3.20000000E+01  0.00000000E+00
  9.40000000E+02  3.20000000E+01  0.00000000E+00
  9.50000000E+02  3.20000000E+01  0.00000000E+00
  9.60000000E+02  3.20000000E+01  0.00000000E+00
  9.70000000E+02  3.20000000E+01  0.00000000E+00
  9.80000000E+02  3.20000000E+01  0.00000000E+00
  9.90000000E+02  3.20000000E+01  0.00000000E+00
  1.00000000E+03  3.20000000E+01  0.00000000E+00
  0.00000000E+00  3.40000000E+01  0.00000000E+00
  1.00000000E+01  3.40000000E+01  0.00000000E+00
  2.00000000E+01  3.40000000E+01  0.00000000E+00
  3.00000000E+01  3.40000000E+01  0.00000000E+00
  4.00000000E+01  3.40000000E+01  0.00000000E+00
  5.00000000E+01  3.40000000E+01  0.00000000E+00
  6.00000000E+01  3.40000000E+01  0.00000000E+00
  7.00000000E+01  3.40000000E+01  0.00000000E+00
  8.00000000E+01  3.40000000E+01  0.00000000E+00
  9.00000000E+01  3.40000000E+01  0.00000000E+00
  1.00000000E+02  3.40000000E+01  0.00000000E+00
  1.10000000E+02  3.40000000E+01  0.00000000E+00
  1.20000000E+02  3.40000000E+01  0.00000000E+00
  1.30000000E+02  3.40000000E+01  0.00000000E+00
  1.40000000E+02  3.40000000E+01  0.00000000E+00
  1.50000000E+02  3.40000000E+01  0.00000000E+00
  1.60000000E+02  3.40000000E+01  0.00000000E+00
  1.70000000E+02  3.40000000E+01  0.00000000E+00
  1.80000000E+02  3.40000000E+01  0.00000000E+00
  1.90000000E+02  3.40000000E+01  0.00000000E+00
  2.00000000E+02  3.40000000E+01  0.00000000E+00
  2.10000000E+02  3.40000000E+01  0.00000000E+00
  2.20000000E+02  3.40000000E+01  0.00000000E+00
  2.30000000E+02  3.40000000E+01  0.00000000E+00
  2.40000000E+02  3.40000000E+01  0.00000000E+00
  2.50000000E+02  3.40000000E+01  0.00000000E+00
  2.60000000E+02  3.40000000E+01  0.00000000E+00
  2.70000000E+02  3.40000000E+01  0.00000000E+00
  2.80000000E+02  3.40000000E+01  0.00000000E+00
  2.90000000E+02  3.40000000E+01  0.00000000E+00
  3.00000000E+02  3.40000000E+01  0.00000000E+00
  3.10000000E+02  3.40000000E+01  0.00000000E+00
  3.20000000E+02  3.40000000E+01  0.00000000E+00
  3.30000000E+02  3.40000000E+01  0.00000000E+00
  3.40000000E+02  3.40000000E+01  0.00000000E+00
  3.50000000E+02  3.40000000E+01  0.00000000E+00
  3.60000000E+02  3.40000000E+01  0.00000000E+00
  3.70000000E+02  3.40000000E+01  0.00000000E+00
  3.80000000E+02  3.40000000E+01  0.00000000E+00
  3.90000000E+02  3.40000000E+01  0.00000000E+00
  4.00000000E+02  3.40000000E+01  0.00000000E+00
  4.10000000E+02  3.40000000E+01  0.00000000E+00
  4.20000000E+02  3.40000000E+01  0.00000000E+00
  4.30000000E+02  3.40000000E+01  0.00000000E+00
  4.40000000E+02  3.40000000E+01  0.00000000E+00
  4.50000000E+02  3.40000000E+01  0.00000000E+00
  4.60000000E+02  3.40000000E+01  0.00000000E+00
  4.70000000E+02  3.40000000E+01  0.00000000E+00
  4.80000000E+02  3.40000000E+01  0.00000000E+00
  4.90000000E+02  3.40000000E+01  0.00000000E+00
  5.00000000E+02  3.40000000E+01  0.00000000E+00
  5.10000000E+02  3.40000000E+01  0.00000000E+00
  5.20000000E+02  3.40000000E+01  0.00000000E+00
  5.30000000E+02  3.40000000E+01  0.00000000E+00
  5.40000000E+02  3.40000000E+01  0.00000000E+00
  5.50000000E+02  3.40000000E+01  0.00000000E+00
  5.60000000E+02  3.40000000E+01  0.00000000E+00
  5.70000000E+02  3.40000000E+01  0.00000000E+00
  5.80000000E+02  3.40000000E+01  0.00000000E+00
  5.90000000E+02  3.40000000E+01  0.00000000E+00
  6.00000000E+02  3.40000000E+01  0.00000000E+00
  6.10000000E+02  3.40000000E+01  0.00000000E+00
  6.20000000E+02  3.40000000E+01  0.00000000E+00
  6.30000000E+02  3.40000000E+01  0.00000000E+00
  6.40000000E+02  3.40000000E+01  0.00000000E+00
  6.50000000E+02  3.40000000E+01  0.00000000E+00
  6.60000000E+02  3.40000000E+01  0.00000000E+00
  6.70000000E+02  3.40000000E+01  0.00000000E+00
  6.80000000E+02  3.40000000E+01  0.00000000E+00
  6.90000000E+02  3.40000000E+01  0.00000000E+00
  7.00000000E+02  3.40000000E+01  0.00000000E+00
  7.10000000E+02  3.40000000E+01  0.00000000E+00
  7.20000000E+02  3.40000000E+01  0.00000000E+00
  7.30000000E+02  3.40000000E+01  0.00000000E+00
  7.40000000E+02  3.40000000E+01  0.00000000E+00
  7.50000000E+02  3.40000000E+01  0.00000000E+00
  7.60000000E+02  3.40000000E+01  0.00000000E+00
  7.70000000E+02  3.40000000E+01  0.00000000E+00
  7.80000000E+02  3.40000000E+01  0.00000000E+00
  7.90000000E+02  3.40000000E+01  0.00000000E+00
  8.00000000E+02  3.40000000E+01  0.00000000E+00
  8.10000000E+02  3.40000000E+01  0.00000000E+00
  8.20000000E+02  3.40000000E+01  0.00000000E+00
  8.30000000E+02  3.40000000E+01  0.00000000E+00
  8.40000000E+02  3.40000000E+01  0.00000000E+00
  8.50000000E+02  3.40000000E+01  0.00000000E+00
  8.60000000E+02  3.40000000E+01  0.00000000E+00
  8.70000000E+02  3.40000000E+01  0.00000000E+00
  8.80000000E+02  3.40000000E+01  0.00000000E+00
  8.90000000E+02  3.40000000E+01  0.00000000E+00
  9.00000000E+02  3.40000000E+01  0.00000000E+00
  9.10000000E+02  3.40000000E+01  0.00000000E+00
  9.20000000E+02  3.40000000E+01  0.00000000E+00
  9.30000000E+02  3.40000000E+01  0.00000000E+00
  9.40000000E+02  3.40000000E+01  0.00000000E+00
  9.50000000E+02  3.40000000E+01  0.00000000E+00
  9.60000000E+02  3.40000000E+01  0.00000000E+00
  9.70000000E+02  3.40000000E+01  0.00000000E+00
  9.80000000E+02  3.40000000E+01  0.00000000E+00
  9.90000000E+02  3.40000000E+01  0.00000000E+00
  1.00000000E+03  3.40000000E+01  0.00000000E+00
  0.00000000E+00  3.60000000E+01  0.00000000E+00
  1.00000000E+01  3.60000000E+01  0.00000000E+00
  2.00000000E+01  3.60000000E+01  0.00000000E+00
  3.00000000E+01  3.60000000E+01  0.00000000E+00
  4.00000000E+01  3.60000000E+01  0.00000000E+00
  5.00000000E+01  3.60000000E+01  0.00000000E+00
  6.00000000E+01  3.60000000E+01  0.00000000E+00
  7.00000000E+01  3.60000000E+01  0.00000000E+00
  8.00000000E+01  3.60000000E+01  0.00000000E+00
  9.00000000E+01  3.60000000E+01  0.00000000E+00
  1.00000000E+02  3.60000000E+01  0.00000000E+00
  1.10000000E+02  3.60000000E+01  0.00000000E+00
  1.20000000E+02  3.60000000E+01  0.00000000E+00
  1.30000000E+02  3.60000000E+01  0.00000000E+00
  1.40000000E+02  3.60000000E+01  0.00000000E+00
  1.50000000E+02  3.60000000E+01  0.00000000E+00
  1.60000000E+02  3.60000000E+01  0.00000000E+00
  1.70000000E+02  3.60000000E+01  0.00000000E+00
  1.80000000E+02  3.60000000E+01  0.00000000E+00
  1.90000000E+02  3.60000000E+01  0.00000000E+00
  2.00000000E+02  3.60000000E+01  0.00000000E+00
  2.10000000E+02  3.60000000E+01  0.00000000E+00
  2.20000000E+02  3.60000000E+01  0.00000000E+00
  2.30000000E+02  3.60000000E+01  0.00000000E+00
  2.40000000E+02  3.60000000E+01  0.00000000E+00
  2.50000000E+02  3.60000000E+01  0.00000000E+00
  2.60000000E+02  3.60000000E+01  0.00000000E+00
  2.70000000E+02  3.60000000E+01  0.00000000E+00
  2.80000000E+02  3.60000000E+01  0.00000000E+00
  2.90000000E+02  3.60000000E+01  0.00000000E+00
  3.00000000E+02  3.60000000E+01  0.00000000E+00
  3.10000000E+02  3.60000000E+01  0.00000000E+00
  3.20000000E+02  3.60000000E+01  0.00000000E+00
  3.30000000E+02  3.60000000E+01  0.00000000E+00
  3.40000000E+02  3.60000000E+01  0.00000000E+00
  3.50000000E+02  3.60000000E+01  0.00000000E+00
  3.60000000E+02  3.60000000E+01  0.00000000E+00
  3.70000000E+02  3.60000000E+01  0.00000000E+00
  3.80000000E+02  3.60000000E+01  0.00000000E+00
  3.90000000E+02  3.60000000E+01  0.00000000E+00
  4.00000000E+02  3.60000000E+01  0.00000000E+00
  4.10000000E+02  3.60000000E+01  0.00000000E+00
  4.20000000E+02  3.60000000E+01  0.00000000E+00
  4.30000000E+02  3.60000000E+01  0.00000000E+00
  4.40000000E+02  3.60000000E+01  0.00000000E+00
  4.50000000E+02  3.60000000E+01  0.00000000E+00
  4.60000000E+02  3.60000000E+01  0.00000000E+00
  4.70000000E+02  3.60000000E+01  0.00000000E+00
  4.80000000E+02  3.60000000E+01  0.00000000E+00
  4.90000000E+02  3.60000000E+01  0.00000000E+00
  5.00000000E+02  3.60000000E+01  0.00000000E+00
  5.10000000E+02  3.60000000E+01  0.00000000E+00
  5.20000000E+02  3.60000000E+01  0.00000000E+00
  5.30000000E+02  3.60000000E+01  0.00000000E+00
  5.40000000E+02  3.60000000E+01  0.00000000E+00
  5.50000000E+02  3.60000000E+01  0.00000000E+00
  5.60000000E+02  3.60000000E+01  0.00000000E+00
  5.70000000E+02  3.60000000E+01  0.00000000E+00
  5.80000000E+02  3.60000000E+01  0.00000000E+00
  5.90000000E+02  3.60000000E+01  0.00000000E+00
  6.00000000E+02  3.60000000E+01  0.00000000E+00
  6.10000000E+02  3.60000000E+01  0.00000000E+00
  6.20000000E+02  3.60000000E+01  0.00000000E+00
  6.30000000E+02  3.60000000E+01  0.00000000E+00
  6.40000000E+02  3.60000000E+01  0.00000000E+00
  6.50000000E+02  3.60000000E+01  0.00000000E+00
  6.60000000E+02  3.60000000E+01  0.00000000E+00
  6.70000000E+02  3.60000000E+01  0.00000000E+00
  6.80000000E+02  3.60000000E+01  0.00000000E+00
  6.90000000E+02  3.60000000E+01  0.00000000E+00
  7.00000000E+02  3.60000000E+01  0.00000000E+00
  7.10000000E+02  3.60000000E+01  0.00000000E+00
  7.20000000E+02  3.60000000E+01  0.00000000E+00
  7.30000000E+02  3.60000000E+01  0.00000000E+00
  7.40000000E+02  3.60000000E+01  0.00000000E+00
  7.50000000E+02  3.60000000E+01  0.00000000E+00
  7.60000000E+02  3.60000000E+01  0.00000000E+00
  7.70000000E+02  3.60000000E+01  0.00000000E+00
  7.80000000E+02  3.60000000E+01  0.00000000E+00
  7.90000000E+02  3.60000000E+01  0.00000000E+00
  8.00000000E+02  3.60000000E+01  0.00000000E+00
  8.10000000E+02  3.60000000E+01  0.00000000E+00
  8.20000000E+02  3.60000000E+01  0.00000000E+00
  8.30000000E+02  3.60000000E+01  0.00000000E+00
  8.40000000E+02  3.60000000E+01  0.00000000E+00
  8.50000000E+02  3.60000000E+01  0.00000000E+00
  8.60000000E+02  3.60000000E+01  0.00000000E+00
  8.70000000E+02  3.60000000E+01  0.00000000E+00
  8.80000000E+02  3.60000000E+01  0.00000000E+00
  8.90000000E+02  3.60000000E+01  0.00000000E+00
  9.00000000E+02  3.60000000E+01  0.00000000E+00
  9.10000000E+02  3.60000000E+01  0.00000000E+00
  9.20000000E+02  3.60000000E+01  0.00000000E+00
  9.30000000E+02  3.60000000E+01  0.00000000E+00
  9.40000000E+02  3.60000000E+01  0.00000000E+00
  9.50000000E+02  3.60000000E+01  0.00000000E+00
  9.60000000E+02  3.60000000E+01  0.00000000E+00
  9.70000000E+02  3.60000000E+01  0.00000000E+00
  9.80000000E+02  3.60000000E+01  0.00000000E+00
  9.90000000E+02  3.60000000E+01  0.00000000E+00
  1.00000000E+03  3.60000000E+01  0.00000000E+00
  0.00000000E+00  3.80000000E+01  0.00000000E+00
  1.00000000E+01  3.80000000E+01  0.00000000E+00
  2.00000000E+01  3.80000000E+01  0.00000000E+00
  3.00000000E+01  3.80000000E+01  0.00000000E+00
  4.00000000E+01  3.80000000E+01  0.00000000E+00
  5.00000000E+01  3.80000000E+01  0.00000000E+00
  6.00000000E+01  3.80000000E+01  0.00000000E+00
  7.00000000E+01  3.80000000E+01  0.00000000E+00
  8.00000000E+01  3.80000000E+01  0.00000000E+00
  9.00000000E+01  3.80000000E+01  0.00000000E+00
  1.00000000E+02  3.80000000E+01  0.00000000E+00
  1.10000000E+02  3.80000000E+01  0.00000000E+00
  1.20000000E+02  3.80000000E+01  0.00000000E+00
  1.30000000E+02  3.80000000E+01  0.00000000E+00
  1.40000000E+02  3.80000000E+01  0.00000000E+00
  1.50000000E+02  3.80000000E+01  0.00000000E+00
  1.60000000E+02  3.80000000E+01  0.00000000E+00
  1.70000000E+02  3.80000000E+01  0.00000000E+00
  1.80000000E+02  3.80000000E+01  0.00000000E+00
  1.90000000E+02  3.80000000E+01  0.00000000E+00
  2.00000000E+02  3.80000000E+01  0.00000000E+00
  2.10000000E+02  3.80000000E+01  0.00000000E+00
  2.20000000E+02  3.80000000E+01  0.00000000E+00
  2.30000000E+02  3.80000000E+01  0.00000000E+00
  2.40000000E+02  3.80000000E+01  0.00000000E+00
  2.50000000E+02  3.80000000E+01  0.00000000E+00
  2.60000000E+02  3.80000000E+01  0.00000000E+00
  2.70000000E+02  3.80000000E+01  0.00000000E+00
  2.80000000E+02  3.80000000E+01  0.00000000E+00
  2.90000000E+02  3.80000000E+01  0.00000000E+00
  3.00000000E+02  3.80000000E+01  0.00000000E+00
  3.10000000E+02  3.80000000E+01  0.00000000E+00
  3.20000000E+02  3.80000000E+01  0.00000000E+00
  3.30000000E+02  3.80000000E+01  0.00000000E+00
  3.40000000E+02  3.80000000E+01  0.00000000E+00
  3.50000000E+02  3.80000000E+01  0.00000000E+00
  3.60000000E+02  3.80000000E+01  0.00000000E+00
  3.70000000E+02  3.80000000E+01  0.00000000E+00
  3.80000000E+02  3.80000000E+01  0.00000000E+00
  3.90000000E+02  3.80000000E+01  0.00000000E+00
  4.00000000E+02  3.80000000E+01  0.00000000E+00
  4.10000000E+02  3.80000000E+01  0.00000000E+00
  4.20000000E+02  3.80000000E+01  0.00000000E+00
  4.30000000E+02  3.80000000E+01  0.00000000E+00
  4.40000000E+02  3.80000000E+01  0.00000000E+00
  4.50000000E+02  3.80000000E+01  0.00000000E+00
  4.60000000E+02  3.80000000E+01  0.00000000E+00
  4.70000000E+02  3.80000000E+01  0.00000000E+00
  4.80000000E+02  3.80000000E+01  0.00000000E+00
  4.90000000E+02  3.80000000E+01  0.00000000E+00
  5.00000000E+02  3.80000000E+01  0.00000000E+00
  5.10000000E+02  3.80000000E+01  0.00000000E+00
  5.20000000E+02  3.80000000E+01  0.00000000E+00
  5.30000000E+02  3.80000000E+01  0.00000000E+00
  5.40000000E+02  3.80000000E+01  0.00000000E+00
  5.50000000E+02  3.80000000E+01  0.00000000E+00
  5.60000000E+02  3.80000000E+01  0.00000000E+00
  5.70000000E+02  3.80000000E+01  0.00000000E+00
  5.80000000E+02  3.80000000E+01  0.00000000E+00
  5.90000000E+02  3.80000000E+01  0.00000000E+00
  6.00000000E+02  3.80000000E+01  0.00000000E+00
  6.10000000E+02  3.80000000E+01  0.00000000E+00
  6.20000000E+02  3.80000000E+01  0.00000000E+00
  6.30000000E+02  3.80000000E+01  0.00000000E+00
  6.40000000E+02  3.80000000E+01  0.00000000E+00
  6.50000000E+02  3.80000000E+01  0.00000000E+00
  6.60000000E+02  3.80000000E+01  0.00000000E+00
  6.70000000E+02  3.80000000E+01  0.00000000E+00
  6.80000000E+02  3.80000000E+01  0.00000000E+00
  6.90000000E+02  3.80000000E+01  0.00000000E+00
  7.00000000E+02  3.80000000E+01  0.00000000E+00
  7.10000000E+02  3.80000000E+01  0.00000000E+00
  7.20000000E+02  3.80000000E+01  0.00000000E+00
  7.30000000E+02  3.80000000E+01  0.00000000E+00
  7.40000000E+02  3.80000000E+01  0.00000000E+00
  7.50000000E+02  3.80000000E+01  0.00000000E+00
  7.60000000E+02  3.80000000E+01  0.00000000E+00
  7.70000000E+02  3.80000000E+01  0.00000000E+00
  7.80000000E+02  3.80000000E+01  0.00000000E+00
  7.90000000E+02  3.80000000E+01  0.00000000E+00
  8.00000000E+02  3.80000000E+01  0.00000000E+00
  8.10000000E+02  3.80000000E+01  0.00000000E+00
  8.20000000E+02  3.80000000E+01  0.00000000E+00
  8.30000000E+02  3.80000000E+01  0.00000000E+00
  8.40000000E+02  3.80000000E+01  0.00000000E+00
  8.50000000E+02  3.80000000E+01  0.00000000E+00
  8.60000000E+02  3.80000000E+01  0.00000000E+00
  8.70000000E+02  3.80000000E+01  0.00000000E+00
  8.80000000E+02  3.80000000E+01  0.00000000E+00
  8.90000000E+02  3.80000000E+01  0.00000000E+00
  9.00000000E+02  3.80000000E+01  0.00000000E+00
  9.10000000E+02  3.80000000E+01  0.00000000E+00
  9.20000000E+02  3.80000000E+01  0.00000000E+00
  9.30000000E+02  3.80000000E+01  0.00000000E+00
  9.40000000E+02  3.80000000E+01  0.00000000E+00
  9.50000000E+02  3.80000000E+01  0.00000000E+00
  9.60000000E+02  3.80000000E+01  0.00000000E+00
  9.70000000E+02  3.80000000E+01  0.00000000E+00
  9.80000000E+02  3.80000000E+01  0.00000000E+00
  9.90000000E+02  3.80000000E+01  0.00000000E+00
  1.00000000E+03  3.80000000E+01  0.00000000E+00
  0.00000000E+00  4.00000000E+01  0.00000000E+00
  1.00000000E+01  4.00000000E+01  0.00000000E+00
  2.00000000E+01  4.00000000E+01  0.00000000E+00
  3.00000000E+01  4.00000000E+01  0.00000000E+00
  4.00000000E+01  4.00000000E+01  0.00000000E+00
  5.00000000E+01  4.00000000E+01  0.00000000E+00
  6.00000000E+01  4.00000000E+01  0.00000000E+00
  7.00000000E+01  4.00000000E+01  0.00000000E+00
  8.00000000E+01  4.00000000E+01  0.00000000E+00
  9.00000000E+01  4.00000000E+01  0.00000000E+00
  1.00000000E+02  4.00000000E+01  0.00000000E+00
  1.10000000E+02  4.00000000E+01  0.00000000E+00
  1.20000000E+02  4.00000000E+01  0.00000000E+00
  1.30000000E+02  4.00000000E+01  0.00000000E+00
  1.40000000E+02  4.00000000E+01  0.00000000E+00
  1.50000000E+02  4.00000000E+01  0.00000000E+00
  1.60000000E+02  4.00000000E+01  0.00000000E+00
  1.70000000E+02  4.00000000E+01  0.00000000E+00
  1.80000000E+02  4.00000000E+01  0.00000000E+00
  1.90000000E+02  4.00000000E+01  0.00000000E+00
  2.00000000E+02  4.00000000E+01  0.00000000E+00
  2.10000000E+02  4.00000000E+01  0.00000000E+00
  2.20000000E+02  4.00000000E+01  0.00000000E+00
  2.30000000E+02  4.00000000E+01  0.00000000E+00
  2.40000000E+02  4.00000000E+01  0.00000000E+00
  2.50000000E+02  4.00000000E+01  0.00000000E+00
  2.60000000E+02  4.00000000E+01  0.00000000E+00
  2.70000000E+02  4.00000000E+01  0.00000000E+00
  2.80000000E+02  4.00000000E+01  0.00000000E+00
  2.90000000E+02  4.00000000E+01  0.00000000E+00
  3.00000000E+02  4.00000000E+01  0.00000000E+00
  3.10000000E+02  4.00000000E+01  0.00000000E+00
  3.20000000E+02  4.00000000E+01  0.00000000E+00
  3.30000000E+02  4.00000000E+01  0.00000000E+00
  3.40000000E+02  4.00000000E+01  0.00000000E+00
  3.50000000E+02  4.00000000E+01  0.00000000E+00
  3.60000000E+02  4.00000000E+01  0.00000000E+00
  3.70000000E+02  4.00000000E+01  0.00000000E+00
  3.80000000E+02  4.00000000E+01  0.00000000E+00
  3.90000000E+02  4.00000000E+01  0.00000000E+00
  4.00000000E+02  4.00000000E+01  0.00000000E+00
  4.10000000E+02  4.00000000E+01  0.00000000E+00
  4.20000000E+02  4.00000000E+01  0.00000000E+00
  4.30000000E+02  4.00000000E+01  0.00000000E+00
  4.40000000E+02  4.00000000E+01  0.00000000E+00
  4.50000000E+02  4.00000000E+01  0.00000000E+00
  4.60000000E+02  4.00000000E+01  0.00000000E+00
  4.70000000E+02  4.00000000E+01  0.00000000E+00
  4.80000000E+02  4.00000000E+01  0.00000000E+00
  4.90000000E+02  4.00000000E+01  0.00000000E+00
  5.00000000E+02  4.00000000E+01  0.00000000E+00
  5.10000000E+02  4.00000000E+01  0.00000000E+00
  5.20000000E+02  4.00000000E+01  0.00000000E+00
  5.30000000E+02  4.00000000E+01  0.00000000E+00
  5.40000000E+02  4.00000000E+01  0.00000000E+00
  5.50000000E+02  4.00000000E+01  0.00000000E+00
  5.60000000E+02  4.00000000E+01  0.00000000E+00
  5.70000000E+02  4.00000000E+01  0.00000000E+00
  5.80000000E+02  4.00000000E+01  0.00000000E+00
  5.90000000E+02  4.00000000E+01  0.00000000E+00
  6.00000000E+02  4.00000000E+01  0.00000000E+00
  6.10000000E+02  4.00000000E+01  0.00000000E+00
  6.20000000E+02  4.00000000E+01  0.00000000E+00
  6.30000000E+02  4.00000000E+01  0.00000000E+00
  6.40000000E+02  4.00000000E+01  0.00000000E+00
  6.50000000E+02  4.00000000E+01  0.00000000E+00
  6.60000000E+02  4.00000000E+01  0.00000000E+00
  6.70000000E+02  4.00000000E+01  0.00000000E+00
  6.80000000E+02  4.00000000E+01  0.00000000E+00
  6.90000000E+02  4.00000000E+01  0.00000000E+00
  7.00000000E+02  4.00000000E+01  0.00000000E+00
  7.10000000E+02  4.00000000E+01  0.00000000E+00
  7.20000000E+02  4.00000000E+01  0.00000000E+00
  7.30000000E+02  4.00000000E+01  0.00000000E+00
  7.40000000E+02  4.00000000E+01  0.00000000E+00
  7.50000000E+02  4.00000000E+01  0.00000000E+00
  7.60000000E+02  4.00000000E+01  0.00000000E+00
  7.70000000E+02  4.00000000E+01  0.00000000E+00
  7.80000000E+02  4.00000000E+01  0.00000000E+00
  7.90000000E+02  4.00000000E+01  0.00000000E+00
  8.00000000E+02  4.00000000E+01  0.00000000E+00
  8.10000000E+02  4.00000000E+01  0.00000000E+00
  8.20000000E+02  4.00000000E+01  0.00000000E+00
  8.30000000E+02  4.00000000E+01  0.00000000E+00
  8.40000000E+02  4.00000000E+01  0.00000000E+00
  8.50000000E+02  4.00000000E+01  0.00000000E+00
  8.60000000E+02  4.00000000E+01  0.00000000E+00
  8.70000000E+02  4.00000000E+01  0.00000000E+00
  8.80000000E+02  4.00000000E+01  0.00000000E+00
  8.90000000E+02  4.00000000E+01  0.00000000E+00
  9.00000000E+02  4.00000000E+01  0.00000000E+00
  9.10000000E+02  4.00000000E+01  0.00000000E+00
  9.20000000E+02  4.00000000E+01  0.00000000E+00
  9.30000000E+02  4.00000000E+01  0.00000000E+00
  9.40000000E+02  4.00000000E+01  0.00000000E+00
  9.50000000E+02  4.00000000E+01  0.00000000E+00
  9.60000000E+02  4.00000000E+01  0.00000000E+00
  9.70000000E+02  4.00000000E+01  0.00000000E+00
  9.80000000E+02  4.00000000E+01  0.00000000E+00
  9.90000000E+02  4.00000000E+01  0.00000000E+00
  1.00000000E+03  4.00000000E+01  0.00000000E+00
  0.00000000E+00  4.20000000E+01  0.00000000E+00
  1.00000000E+01  4.20000000E+01  0.00000000E+00
  2.00000000E+01  4.20000000E+01  0.00000000E+00
  3.00000000E+01  4.20000000E+01  0.00000000E+00
  4.00000000E+01  4.20000000E+01  0.00000000E+00
  5.00000000E+01  4.20000000E+01  0.00000000E+00
  6.00000000E+01  4.20000000E+01  0.00000000E+00
  7.00000000E+01  4.20000000E+01  0.00000000E+00
  8.00000000E+01  4.20000000E+01  0.00000000E+00
  9.00000000E+01  4.20000000E+01  0.00000000E+00
  1.00000000E+02  4.20000000E+01  0.00000000E+00
  1.10000000E+02  4.20000000E+01  0.00000000E+00
  1.20000000E+02  4.20000000E+01  0.00000000E+00
  1.30000000E+02  4.20000000E+01  0.00000000E+00
  1.40000000E+02  4.20000000E+01  0.00000000E+00
  1.50000000E+02  4.20000000E+01  0.00000000E+00
  1.60000000E+02  4.20000000E+01  0.00000000E+00
  1.70000000E+02  4.20000000E+01  0.00000000E+00
  1.80000000E+02  4.20000000E+01  0.00000000E+00
  1.90000000E+02  4.20000000E+01  0.00000000E+00
  2.00000000E+02  4.20000000E+01  0.00000000E+00
  2.10000000E+02  4.20000000E+01  0.00000000E+00
  2.20000000E+02  4.20000000E+01  0.00000000E+00
  2.30000000E+02  4.20000000E+01  0.00000000E+00
  2.40000000E+02  4.20000000E+01  0.00000000E+00
  2.50000000E+02  4.20000000E+01  0.00000000E+00
  2.60000000E+02  4.20000000E+01  0.00000000E+00
  2.70000000E+02  4.20000000E+01  0.00000000E+00
  2.80000000E+02  4.20000000E+01  0.00000000E+00
  2.90000000E+02  4.20000000E+01  0.00000000E+00
  3.00000000E+02  4.20000000E+01  0.00000000E+00
  3.10000000E+02  4.20000000E+01  0.00000000E+00
  3.20000000E+02  4.20000000E+01  0.00000000E+00
  3.30000000E+02  4.20000000E+01  0.00000000E+00
  3.40000000E+02  4.20000000E+01  0.00000000E+00
  3.50000000E+02  4.20000000E+01  0.00000000E+00
  3.60000000E+02  4.20000000E+01  0.00000000E+00
  3.70000000E+02  4.20000000E+01  0.00000000E+00
  3.80000000E+02  4.20000000E+01  0.00000000E+00
  3.90000000E+02  4.20000000E+01  0.00000000E+00
  4.00000000E+02  4.20000000E+01  0.00000000E+00
  4.10000000E+02  4.20000000E+01  0.00000000E+00
  4.20000000E+02  4.20000000E+01  0.00000000E+00
  4.30000000E+02  4.20000000E+01  0.00000000E+00
  4.40000000E+02  4.20000000E+01  0.00000000E+00
  4.50000000E+02  4.20000000E+01  0.00000000E+00
  4.60000000E+02  4.20000000E+01  0.00000000E+00
  4.70000000E+02  4.20000000E+01  0.00000000E+00
  4.80000000E+02  4.20000000E+01  0.00000000E+00
  4.90000000E+02  4.20000000E+01  0.00000000E+00
  5.00000000E+02  4.20000000E+01  0.00000000E+00
  5.10000000E+02  4.20000000E+01  0.00000000E+00
  5.20000000E+02  4.20000000E+01  0.00000000E+00
  5.30000000E+02  4.20000000E+01  0.00000000E+00
  5.40000000E+02  4.20000000E+01  0.00000000E+00
  5.50000000E+02  4.20000000E+01  0.00000000E+00
  5.60000000E+02  4.20000000E+01  0.00000000E+00
  5.70000000E+02  4.20000000E+01  0.00000000E+00
  5.80000000E+02  4.20000000E+01  0.00000000E+00
  5.90000000E+02  4.20000000E+01  0.00000000E+00
  6.00000000E+02  4.20000000E+01  0.00000000E+00
  6.10000000E+02  4.20000000E+01  0.00000000E+00
  6.20000000E+02  4.20000000E+01  0.00000000E+00
  6.30000000E+02  4.20000000E+01  0.00000000E+00
  6.40000000E+02  4.20000000E+01  0.00000000E+00
  6.50000000E+02  4.20000000E+01  0.00000000E+00
  6.60000000E+02  4.20000000E+01  0.00000000E+00
  6.70000000E+02  4.20000000E+01  0.00000000E+00
  6.80000000E+02  4.20000000E+01  0.00000000E+00
  6.90000000E+02  4.20000000E+01  0.00000000E+00
  7.00000000E+02  4.20000000E+01  0.00000000E+00
  7.10000000E+02  4.20000000E+01  0.00000000E+00
  7.20000000E+02  4.20000000E+01  0.00000000E+00
  7.30000000E+02  4.20000000E+01  0.00000000E+00
  7.40000000E+02  4.20000000E+01  0.00000000E+00
  7.50000000E+02  4.20000000E+01  0.00000000E+00
  7.60000000E+02  4.20000000E+01  0.00000000E+00
  7.70000000E+02  4.20000000E+01  0.00000000E+00
  7.80000000E+02  4.20000000E+01  0.00000000E+00
  7.90000000E+02  4.20000000E+01  0.00000000E+00
  8.00000000E+02  4.20000000E+01  0.00000000E+00
  8.10000000E+02  4.20000000E+01  0.00000000E+00
  8.20000000E+02  4.20000000E+01  0.00000000E+00
  8.30000000E+02  4.20000000E+01  0.00000000E+00
  8.40000000E+02  4.20000000E+01  0.00000000E+00
  8.50000000E+02  4.20000000E+01  0.00000000E+00
  8.60000000E+02  4.20000000E+01  0.00000000E+00
  8.70000000E+02  4.20000000E+01  0.00000000E+00
  8.80000000E+02  4.20000000E+01  0.00000000E+00
  8.90000000E+02  4.20000000E+01  0.00000000E+00
  9.00000000E+02  4.20000000E+01  0.00000000E+00
  9.10000000E+02  4.20000000E+01  0.00000000E+00
  9.20000000E+02  4.20000000E+01  0.00000000E+00
  9.30000000E+02  4.20000000E+01  0.00000000E+00
  9.40000000E+02  4.20000000E+01  0.00000000E+00
  9.50000000E+02  4.20000000E+01  0.00000000E+00
  9.60000000E+02  4.20000000E+01  0.00000000E+00
  9.70000000E+02  4.20000000E+01  0.00000000E+00
  9.80000000E+02  4.20000000E+01  0.00000000E+00
  9.90000000E+02  4.20000000E+01  0.00000000E+00
  1.00000000E+03  4.20000000E+01  0.00000000E+00
  0.00000000E+00  4.40000000E+01  0.00000000E+00
  1.00000000E+01  4.40000000E+01  0.00000000E+00
  2.00000000E+01  4.40000000E+01  0.00000000E+00
  3.00000000E+01  4.40000000E+01  0.00000000E+00
  4.00000000E+01  4.40000000E+01  0.00000000E+00
  5.00000000E+01  4.40000000E+01  0.00000000E+00
  6.00000000E+01  4.40000000E+01  0.00000000E+00
  7.00000000E+01  4.40000000E+01  0.00000000E+00
  8.00000000E+01  4.40000000E+01  0.00000000E+00
  9.00000000E+01  4.40000000E+01  0.00000000E+00
  1.00000000E+02  4.40000000E+01  0.00000000E+00
  1.10000000E+02  4.40000000E+01  0.00000000E+00
  1.20000000E+02  4.40000000E+01  0.00000000E+00
  1.30000000E+02  4.40000000E+01  0.00000000E+00
  1.40000000E+02  4.40000000E+01  0.00000000E+00
  1.50000000E+02  4.40000000E+01  0.00000000E+00
  1.60000000E+02  4.40000000E+01  0.00000000E+00
  1.70000000E+02  4.40000000E+01  0.00000000E+00
  1.80000000E+02  4.40000000E+01  0.00000000E+00
  1.90000000E+02  4.40000000E+01  0.00000000E+00
  2.00000000E+02  4.40000000E+01  0.00000000E+00
  2.10000000E+02  4.40000000E+01  0.00000000E+00
  2.20000000E+02  4.40000000E+01  0.00000000E+00
  2.30000000E+02  4.40000000E+01  0.00000000E+00
  2.40000000E+02  4.40000000E+01  0.00000000E+00
  2.50000000E+02  4.40000000E+01  0.00000000E+00
  2.60000000E+02  4.40000000E+01  0.00000000E+00
  2.70000000E+02  4.40000000E+01  0.00000000E+00
  2.80000000E+02  4.40000000E+01  0.00000000E+00
  2.90000000E+02  4.40000000E+01  0.00000000E+00
  3.00000000E+02  4.40000000E+01  0.00000000E+00
  3.10000000E+02  4.40000000E+01  0.00000000E+00
  3.20000000E+02  4.40000000E+01  0.00000000E+00
  3.30000000E+02  4.40000000E+01  0.00000000E+00
  3.40000000E+02  4.40000000E+01  0.00000000E+00
  3.50000000E+02  4.40000000E+01  0.00000000E+00
  3.60000000E+02  4.40000000E+01  0.00000000E+00
  3.70000000E+02  4.40000000E+01  0.00000000E+00
  3.80000000E+02  4.40000000E+01  0.00000000E+00
  3.90000000E+02  4.40000000E+01  0.00000000E+00
  4.00000000E+02  4.40000000E+01  0.00000000E+00
  4.10000000E+02  4.40000000E+01  0.00000000E+00
  4.20000000E+02  4.40000000E+01  0.00000000E+00
  4.30000000E+02  4.40000000E+01  0.00000000E+00
  4.40000000E+02  4.40000000E+01  0.00000000E+00
  4.50000000E+02  4.40000000E+01  0.00000000E+00
  4.60000000E+02  4.40000000E+01  0.00000000E+00
  4.70000000E+02  4.40000000E+01  0.00000000E+00
  4.80000000E+02  4.40000000E+01  0.00000000E+00
  4.90000000E+02  4.40000000E+01  0.00000000E+00
  5.00000000E+02  4.40000000E+01  0.00000000E+00
  5.10000000E+02  4.40000000E+01  0.00000000E+00
  5.20000000E+02  4.40000000E+01  0.00000000E+00
  5.30000000E+02  4.40000000E+01  0.00000000E+00
  5.40000000E+02  4.40000000E+01  0.00000000E+00
  5.50000000E+02  4.40000000E+01  0.00000000E+00
  5.60000000E+02  4.40000000E+01  0.00000000E+00
  5.70000000E+02  4.40000000E+01  0.00000000E+00
  5.80000000E+02  4.40000000E+01  0.00000000E+00
  5.90000000E+02  4.40000000E+01  0.00000000E+00
  6.00000000E+02  4.40000000E+01  0.00000000E+00
  6.10000000E+02  4.40000000E+01  0.00000000E+00
  6.20000000E+02  4.40000000E+01  0.00000000E+00
  6.30000000E+02  4.40000000E+01  0.00000000E+00
  6.40000000E+02  4.40000000E+01  0.00000000E+00
  6.50000000E+02  4.40000000E+01  0.00000000E+00
  6.60000000E+02  4.40000000E+01  0.00000000E+00
  6.70000000E+02  4.40000000E+01  0.00000000E+00
  6.80000000E+02  4.40000000E+01  0.00000000E+00
  6.90000000E+02  4.40000000E+01  0.00000000E+00
  7.00000000E+02  4.40000000E+01  0.00000000E+00
  7.10000000E+02  4.40000000E+01  0.00000000E+00
  7.20000000E+02  4.40000000E+01  0.00000000E+00
  7.30000000E+02  4.40000000E+01  0.00000000E+00
  7.40000000E+02  4.40000000E+01  0.00000000E+00
  7.50000000E+02  4.40000000E+01  0.00000000E+00
  7.60000000E+02  4.40000000E+01  0.00000000E+00
  7.70000000E+02  4.40000000E+01  0.00000000E+00
  7.80000000E+02  4.40000000E+01  0.00000000E+00
  7.90000000E+02  4.40000000E+01  0.00000000E+00
  8.00000000E+02  4.40000000E+01  0.00000000E+00
  8.10000000E+02  4.40000000E+01  0.00000000E+00
  8.20000000E+02  4.40000000E+01  0.00000000E+00
  8.30000000E+02  4.40000000E+01  0.00000000E+00
  8.40000000E+02  4.40000000E+01  0.00000000E+00
  8.50000000E+02  4.40000000E+01  0.00000000E+00
  8.60000000E+02  4.40000000E+01  0.00000000E+00
  8.70000000E+02  4.40000000E+01  0.00000000E+00
  8.80000000E+02  4.40000000E+01  0.00000000E+00
  8.90000000E+02  4.40000000E+01  0.00000000E+00
  9.00000000E+02  4.40000000E+01  0.00000000E+00
  9.10000000E+02  4.40000000E+01  0.00000000E+00
  9.20000000E+02  4.40000000E+01  0.00000000E+00
  9.30000000E+02  4.40000000E+01  0.00000000E+00
  9.40000000E+02  4.40000000E+01  0.00000000E+00
  9.50000000E+02  4.40000000E+01  0.00000000E+00
  9.60000000E+02  4.40000000E+01  0.00000000E+00
  9.70000000E+02  4.40000000E+01  0.00000000E+00
  9.80000000E+02  4.40000000E+01  0.00000000E+00
  9.90000000E+02  4.40000000E+01  0.00000000E+00
  1.00000000E+03  4.40000000E+01  0.00000000E+00
  0.00000000E+00  4.60000000E+01  0.00000000E+00
  1.00000000E+01  4.60000000E+01  0.00000000E+00
  2.00000000E+01  4.60000000E+01  0.00000000E+00
  3.00000000E+01  4.60000000E+01  0.00000000E+00
  4.00000000E+01  4.60000000E+01  0.00000000E+00
  5.00000000E+01  4.60000000E+01  0.00000000E+00
  6.00000000E+01  4.60000000E+01  0.00000000E+00
  7.00000000E+01  4.60000000E+01  0.00000000E+00
  8.00000000E+01  4.60000000E+01  0.00000000E+00
  9.00000000E+01  4.60000000E+01  0.00000000E+00
  1.00000000E+02  4.60000000E+01  0.00000000E+00
  1.10000000E+02  4.60000000E+01  0.00000000E+00
  1.20000000E+02  4.60000000E+01  0.00000000E+00
  1.30000000E+02  4.60000000E+01  0.00000000E+00
  1.40000000E+02  4.60000000E+01  0.00000000E+00
  1.50000000E+02  4.60000000E+01  0.00000000E+00
  1.60000000E+02  4.60000000E+01  0.00000000E+00
  1.70000000E+02  4.60000000E+01  0.00000000E+00
  1.80000000E+02  4.60000000E+01  0.00000000E+00
  1.90000000E+02  4.60000000E+01  0.00000000E+00
  2.00000000E+02  4.60000000E+01  0.00000000E+00
  2.10000000E+02  4.60000000E+01  0.00000000E+00
  2.20000000E+02  4.60000000E+01  0.00000000E+00
  2.30000000E+02  4.60000000E+01  0.00000000E+00
  2.40000000E+02  4.60000000E+01  0.00000000E+00
  2.50000000E+02  4.60000000E+01  0.00000000E+00
  2.60000000E+02  4.60000000E+01  0.00000000E+00
  2.70000000E+02  4.60000000E+01  0.00000000E+00
  2.80000000E+02  4.60000000E+01  0.00000000E+00
  2.90000000E+02  4.60000000E+01  0.00000000E+00
  3.00000000E+02  4.60000000E+01  0.00000000E+00
  3.10000000E+02  4.60000000E+01  0.00000000E+00
  3.20000000E+02  4.60000000E+01  0.00000000E+00
  3.30000000E+02  4.60000000E+01  0.00000000E+00
  3.40000000E+02  4.60000000E+01  0.00000000E+00
  3.50000000E+02  4.60000000E+01  0.00000000E+00
  3.60000000E+02  4.60000000E+01  0.00000000E+00
  3.70000000E+02  4.60000000E+01  0.00000000E+00
  3.80000000E+02  4.60000000E+01  0.00000000E+00
  3.90000000E+02  4.60000000E+01  0.00000000E+00
  4.00000000E+02  4.60000000E+01  0.00000000E+00
  4.10000000E+02  4.60000000E+01  0.00000000E+00
  4.20000000E+02  4.60000000E+01  0.00000000E+00
  4.30000000E+02  4.60000000E+01  0.00000000E+00
  4.40000000E+02  4.60000000E+01  0.00000000E+00
  4.50000000E+02  4.60000000E+01  0.00000000E+00
  4.60000000E+02  4.60000000E+01  0.00000000E+00
  4.70000000E+02  4.60000000E+01  0.00000000E+00
  4.80000000E+02  4.60000000E+01  0.00000000E+00
  4.90000000E+02  4.60000000E+01  0.00000000E+00
  5.00000000E+02  4.60000000E+01  0.00000000E+00
  5.10000000E+02  4.60000000E+01  0.00000000E+00
  5.20000000E+02  4.60000000E+01  0.00000000E+00
  5.30000000E+02  4.60000000E+01  0.00000000E+00
  5.40000000E+02  4.60000000E+01  0.00000000E+00
  5.50000000E+02  4.60000000E+01  0.00000000E+00
  5.60000000E+02  4.60000000E+01  0.00000000E+00
  5.70000000E+02  4.60000000E+01  0.00000000E+00
  5.80000000E+02  4.60000000E+01  0.00000000E+00
  5.90000000E+02  4.60000000E+01  0.00000000E+00
  6.00000000E+02  4.60000000E+01  0.00000000E+00
  6.10000000E+02  4.60000000E+01  0.00000000E+00
  6.20000000E+02  4.60000000E+01  0.00000000E+00
  6.30000000E+02  4.60000000E+01  0.00000000E+00
  6.40000000E+02  4.60000000E+01  0.00000000E+00
  6.50000000E+02  4.60000000E+01  0.00000000E+00
  6.60000000E+02  4.60000000E+01  0.00000000E+00
  6.70000000E+02  4.60000000E+01  0.00000000E+00
  6.80000000E+02  4.60000000E+01  0.00000000E+00
  6.90000000E+02  4.60000000E+01  0.00000000E+00
  7.00000000E+02  4.60000000E+01  0.00000000E+00
  7.10000000E+02  4.60000000E+01  0.00000000E+00
  7.20000000E+02  4.60000000E+01  0.00000000E+00
  7.30000000E+02  4.60000000E+01  0.00000000E+00
  7.40000000E+02  4.60000000E+01  0.00000000E+00
  7.50000000E+02  4.60000000E+01  0.00000000E+00
  7.60000000E+02  4.60000000E+01  0.00000000E+00
  7.70000000E+02  4.60000000E+01  0.00000000E+00
  7.80000000E+02  4.60000000E+01  0.00000000E+00
  7.90000000E+02  4.60000000E+01  0.00000000E+00
  8.00000000E+02  4.60000000E+01  0.00000000E+00
  8.10000000E+02  4.60000000E+01  0.00000000E+00
  8.20000000E+02  4.60000000E+01  0.00000000E+00
  8.30000000E+02  4.60000000E+01  0.00000000E+00
  8.40000000E+02  4.60000000E+01  0.00000000E+00
  8.50000000E+02  4.60000000E+01  0.00000000E+00
  8.60000000E+02  4.60000000E+01  0.00000000E+00
  8.70000000E+02  4.60000000E+01  0.00000000E+00
  8.80000000E+02  4.60000000E+01  0.00000000E+00
  8.90000000E+02  4.60000000E+01  0.00000000E+00
  9.00000000E+02  4.60000000E+01  0.00000000E+00
  9.10000000E+02  4.60000000E+01  0.00000000E+00
  9.20000000E+02  4.60000000E+01  0.00000000E+00
  9.30000000E+02  4.60000000E+01  0.00000000E+00
  9.40000000E+02  4.60000000E+01  0.00000000E+00
  9.50000000E+02  4.60000000E+01  0.00000000E+00
  9.60000000E+02  4.60000000E+01  0.00000000E+00
  9.70000000E+02  4.60000000E+01  0.00000000E+00
  9.80000000E+02  4.60000000E+01  0.00000000E+00
  9.90000000E+02  4.60000000E+01  0.00000000E+00
  1.00000000E+03  4.60000000E+01  0.00000000E+00
  0.00000000E+00  4.80000000E+01  0.00000000E+00
  1.00000000E+01  4.80000000E+01  0.00000000E+00
  2.00000000E+01  4.80000000E+01  0.00000000E+00
  3.00000000E+01  4.80000000E+01  0.00000000E+00
  4.00000000E+01  4.80000000E+01  0.00000000E+00
  5.00000000E+01  4.80000000E+01  0.00000000E+00
  6.00000000E+01  4.80000000E+01  0.00000000E+00
  7.00000000E+01  4.80000000E+01  0.00000000E+00
  8.00000000E+01  4.80000000E+01  0.00000000E+00
  9.00000000E+01  4.80000000E+01  0.00000000E+00
  1.00000000E+02  4.80000000E+01  0.00000000E+00
  1.10000000E+02  4.80000000E+01  0.00000000E+00
  1.20000000E+02  4.80000000E+01  0.00000000E+00
  1.30000000E+02  4.80000000E+01  0.00000000E+00
  1.40000000E+02  4.80000000E+01  0.00000000E+00
  1.50000000E+02  4.80000000E+01  0.00000000E+00
  1.60000000E+02  4.80000000E+01  0.00000000E+00
  1.70000000E+02  4.80000000E+01  0.00000000E+00
  1.80000000E+02  4.80000000E+01  0.00000000E+00
  1.90000000E+02  4.80000000E+01  0.00000000E+00
  2.00000000E+02  4.80000000E+01  0.00000000E+00
  2.10000000E+02  4.80000000E+01  0.00000000E+00
  2.20000000E+02  4.80000000E+01  0.00000000E+00
  2.30000000E+02  4.80000000E+01  0.00000000E+00
  2.40000000E+02  4.80000000E+01  0.00000000E+00
  2.50000000E+02  4.80000000E+01  0.00000000E+00
  2.60000000E+02  4.80000000E+01  0.00000000E+00
  2.70000000E+02  4.80000000E+01  0.00000000E+00
  2.80000000E+02  4.80000000E+01  0.00000000E+00
  2.90000000E+02  4.80000000E+01  0.00000000E+00
  3.00000000E+02  4.80000000E+01  0.00000000E+00
  3.10000000E+02  4.80000000E+01  0.00000000E+00
  3.20000000E+02  4.80000000E+01  0.00000000E+00
  3.30000000E+02  4.80000000E+01  0.00000000E+00
  3.40000000E+02  4.80000000E+01  0.00000000E+00
  3.50000000E+02  4.80000000E+01  0.00000000E+00
  3.60000000E+02  4.80000000E+01  0.00000000E+00
  3.70000000E+02  4.80000000E+01  0.00000000E+00
  3.80000000E+02  4.80000000E+01  0.00000000E+00
  3.90000000E+02  4.80000000E+01  0.00000000E+00
  4.00000000E+02  4.80000000E+01  0.00000000E+00
  4.10000000E+02  4.80000000E+01  0.00000000E+00
  4.20000000E+02  4.80000000E+01  0.00000000E+00
  4.30000000E+02  4.80000000E+01  0.00000000E+00
  4.40000000E+02  4.80000000E+01  0.00000000E+00
  4.50000000E+02  4.80000000E+01  0.00000000E+00
  4.60000000E+02  4.80000000E+01  0.00000000E+00
  4.70000000E+02  4.80000000E+01  0.00000000E+00
  4.80000000E+02  4.80000000E+01  0.00000000E+00
  4.90000000E+02  4.80000000E+01  0.00000000E+00
  5.00000000E+02  4.80000000E+01  0.00000000E+00
  5.10000000E+02  4.80000000E+01  0.00000000E+00
  5.20000000E+02  4.80000000E+01  0.00000000E+00
  5.30000000E+02  4.80000000E+01  0.00000000E+00
  5.40000000E+02  4.80000000E+01  0.00000000E+00
  5.50000000E+02  4.80000000E+01  0.00000000E+00
  5.60000000E+02  4.80000000E+01  0.00000000E+00
  5.70000000E+02  4.80000000E+01  0.00000000E+00
  5.80000000E+02  4.80000000E+01  0.00000000E+00
  5.90000000E+02  4.80000000E+01  0.00000000E+00
  6.00000000E+02  4.80000000E+01  0.00000000E+00
  6.10000000E+02  4.80000000E+01  0.00000000E+00
  6.20000000E+02  4.80000000E+01  0.00000000E+00
  6.30000000E+02  4.80000000E+01  0.00000000E+00
  6.40000000E+02  4.80000000E+01  0.00000000E+00
  6.50000000E+02  4.80000000E+01  0.00000000E+00
  6.60000000E+02  4.80000000E+01  0.00000000E+00
  6.70000000E+02  4.80000000E+01  0.00000000E+00
  6.80000000E+02  4.80000000E+01  0.00000000E+00
  6.90000000E+02  4.80000000E+01  0.00000000E+00
  7.00000000E+02  4.80000000E+01  0.00000000E+00
  7.10000000E+02  4.80000000E+01  0.00000000E+00
  7.20000000E+02  4.80000000E+01  0.00000000E+00
  7.30000000E+02  4.80000000E+01  0.00000000E+00
  7.40000000E+02  4.80000000E+01  0.00000000E+00
  7.50000000E+02  4.80000000E+01  0.00000000E+00
  7.60000000E+02  4.80000000E+01  0.00000000E+00
  7.70000000E+02  4.80000000E+01  0.00000000E+00
  7.80000000E+02  4.80000000E+01  0.00000000E+00
  7.90000000E+02  4.80000000E+01  0.00000000E+00
  8.00000000E+02  4.80000000E+01  0.00000000E+00
  8.10000000E+02  4.80000000E+01  0.00000000E+00
  8.20000000E+02  4.80000000E+01  0.00000000E+00
  8.30000000E+02  4.80000000E+01  0.00000000E+00
  8.40000000E+02  4.80000000E+01  0.00000000E+00
  8.50000000E+02  4.80000000E+01  0.00000000E+00
  8.60000000E+02  4.80000000E+01  0.00000000E+00
  8.70000000E+02  4.80000000E+01  0.00000000E+00
  8.80000000E+02  4.80000000E+01  0.00000000E+00
  8.90000000E+02  4.80000000E+01  0.00000000E+00
  9.00000000E+02  4.80000000E+01  0.00000000E+00
  9.10000000E+02  4.80000000E+01  0.00000000E+00
  9.20000000E+02  4.80000000E+01  0.00000000E+00
  9.30000000E+02  4.80000000E+01  0.00000000E+00
  9.40000000E+02  4.80000000E+01  0.00000000E+00
  9.50000000E+02  4.80000000E+01  0.00000000E+00
  9.60000000E+02  4.80000000E+01  0.00000000E+00
  9.70000000E+02  4.80000000E+01  0.00000000E+00
  9.80000000E+02  4.80000000E+01  0.00000000E+00
  9.90000000E+02  4.80000000E+01  0.00000000E+00
  1.00000000E+03  4.80000000E+01  0.00000000E+00
  0.00000000E+00  5.00000000E+01  0.00000000E+00
  1.00000000E+01  5.00000000E+01  0.00000000E+00
  2.00000000E+01  5.00000000E+01  0.00000000E+00
  3.00000000E+01  5.00000000E+01  0.00000000E+00
  4.00000000E+01  5.00000000E+01  0.00000000E+00
  5.00000000E+01  5.00000000E+01  0.00000000E+00
  6.00000000E+01  5.00000000E+01  0.00000000E+00
  7.00000000E+01  5.00000000E+01  0.00000000E+00
  8.00000000E+01  5.00000000E+01  0.00000000E+00
  9.00000000E+01  5.00000000E+01  0.00000000E+00
  1.00000000E+02  5.00000000E+01  0.00000000E+00
  1.10000000E+02  5.00000000E+01  0.00000000E+00
  1.20000000E+02  5.00000000E+01  0.00000000E+00
  1.30000000E+02  5.00000000E+01  0.00000000E+00
  1.40000000E+02  5.00000000E+01  0.00000000E+00
  1.50000000E+02  5.00000000E+01  0.00000000E+00
  1.60000000E+02  5.00000000E+01  0.00000000E+00
  1.70000000E+02  5.00000000E+01  0.00000000E+00
  1.80000000E+02  5.00000000E+01  0.00000000E+00
  1.90000000E+02  5.00000000E+01  0.00000000E+00
  2.00000000E+02  5.00000000E+01  0.00000000E+00
  2.10000000E+02  5.00000000E+01  0.00000000E+00
  2.20000000E+02  5.00000000E+01  0.00000000E+00
  2.30000000E+02  5.00000000E+01  0.00000000E+00
  2.40000000E+02  5.00000000E+01  0.00000000E+00
  2.50000000E+02  5.00000000E+01  0.00000000E+00
  2.60000000E+02  5.00000000E+01  0.00000000E+00
  2.70000000E+02  5.00000000E+01  0.00000000E+00
  2.80000000E+02  5.00000000E+01  0.00000000E+00
  2.90000000E+02  5.00000000E+01  0.00000000E+00
  3.00000000E+02  5.00000000E+01  0.00000000E+00
  3.10000000E+02  5.00000000E+01  0.00000000E+00
  3.20000000E+02  5.00000000E+01  0.00000000E+00
  3.30000000E+02  5.00000000E+01  0.00000000E+00
  3.40000000E+02  5.00000000E+01  0.00000000E+00
  3.50000000E+02  5.00000000E+01  0.00000000E+00
  3.60000000E+02  5.00000000E+01  0.00000000E+00
  3.70000000E+02  5.00000000E+01  0.00000000E+00
  3.80000000E+02  5.00000000E+01  0.00000000E+00
  3.90000000E+02  5.00000000E+01  0.00000000E+00
  4.00000000E+02  5.00000000E+01  0.00000000E+00
  4.10000000E+02  5.00000000E+01  0.00000000E+00
  4.20000000E+02  5.00000000E+01  0.00000000E+00
  4.30000000E+02  5.00000000E+01  0.00000000E+00
  4.40000000E+02  5.00000000E+01  0.00000000E+00
  4.50000000E+02  5.00000000E+01  0.00000000E+00
  4.60000000E+02  5.00000000E+01  0.00000000E+00
  4.70000000E+02  5.00000000E+01  0.00000000E+00
  4.80000000E+02  5.00000000E+01  0.00000000E+00
  4.90000000E+02  5.00000000E+01  0.00000000E+00
  5.00000000E+02  5.00000000E+01  0.00000000E+00
  5.10000000E+02  5.00000000E+01  0.00000000E+00
  5.20000000E+02  5.00000000E+01  0.00000000E+00
  5.30000000E+02  5.00000000E+01  0.00000000E+00
  5.40000000E+02  5.00000000E+01  0.00000000E+00
  5.50000000E+02  5.00000000E+01  0.00000000E+00
  5.60000000E+02  5.00000000E+01  0.00000000E+00
  5.70000000E+02  5.00000000E+01  0.00000000E+00
  5.80000000E+02  5.00000000E+01  0.00000000E+00
  5.90000000E+02  5.00000000E+01  0.00000000E+00
  6.00000000E+02  5.00000000E+01  0.00000000E+00
  6.10000000E+02  5.00000000E+01  0.00000000E+00
  6.20000000E+02  5.00000000E+01  0.00000000E+00
  6.30000000E+02  5.00000000E+01  0.00000000E+00
  6.40000000E+02  5.00000000E+01  0.00000000E+00
  6.50000000E+02  5.00000000E+01  0.00000000E+00
  6.60000000E+02  5.00000000E+01  0.00000000E+00
  6.70000000E+02  5.00000000E+01  0.00000000E+00
  6.80000000E+02  5.00000000E+01  0.00000000E+00
  6.90000000E+02  5.00000000E+01  0.00000000E+00
  7.00000000E+02  5.00000000E+01  0.00000000E+00
  7.10000000E+02  5.00000000E+01  0.00000000E+00
  7.20000000E+02  5.00000000E+01  0.00000000E+00
  7.30000000E+02  5.00000000E+01  0.00000000E+00
  7.40000000E+02  5.00000000E+01  0.00000000E+00
  7.50000000E+02  5.00000000E+01  0.00000000E+00
  7.60000000E+02  5.00000000E+01  0.00000000E+00
  7.70000000E+02  5.00000000E+01  0.00000000E+00
  7.80000000E+02  5.00000000E+01  0.00000000E+00
  7.90000000E+02  5.00000000E+01  0.00000000E+00
  8.00000000E+02  5.00000000E+01  0.00000000E+00
  8.10000000E+02  5.00000000E+01  0.00000000E+00
  8.20000000E+02  5.00000000E+01  0.00000000E+00
  8.30000000E+02  5.00000000E+01  0.00000000E+00
  8.40000000E+02  5.00000000E+01  0.00000000E+00
  8.50000000E+02  5.00000000E+01  0.00000000E+00
  8.60000000E+02  5.00000000E+01  0.00000000E+00
  8.70000000E+02  5.00000000E+01  0.00000000E+00
  8.80000000E+02  5.00000000E+01  0.00000000E+00
  8.90000000E+02  5.00000000E+01  0.00000000E+00
  9.00000000E+02  5.00000000E+01  0.00000000E+00
  9.10000000E+02  5.00000000E+01  0.00000000E+00
  9.20000000E+02  5.00000000E+01  0.00000000E+00
  9.30000000E+02  5.00000000E+01  0.00000000E+00
  9.40000000E+02  5.00000000E+01  0.00000000E+00
  9.50000000E+02  5.00000000E+01  0.00000000E+00
  9.60000000E+02  5.00000000E+01  0.00000000E+00
  9.70000000E+02  5.00000000E+01  0.00000000E+00
  9.80000000E+02  5.00000000E+01  0.00000000E+00
  9.90000000E+02  5.00000000E+01  0.00000000E+00
  1.00000000E+03  5.00000000E+01  0.00000000E+00
  0.00000000E+00  5.20000000E+01  0.00000000E+00
  1.00000000E+01  5.20000000E+01  0.00000000E+00
  2.00000000E+01  5.20000000E+01  0.00000000E+00
  3.00000000E+01  5.20000000E+01  0.00000000E+00
  4.00000000E+01  5.20000000E+01  0.00000000E+00
  5.00000000E+01  5.20000000E+01  0.00000000E+00
  6.00000000E+01  5.20000000E+01  0.00000000E+00
  7.00000000E+01  5.20000000E+01  0.00000000E+00
  8.00000000E+01  5.20000000E+01  0.00000000E+00
  9.00000000E+01  5.20000000E+01  0.00000000E+00
  1.00000000E+02  5.20000000E+01  0.00000000E+00
  1.10000000E+02  5.20000000E+01  0.00000000E+00
  1.20000000E+02  5.20000000E+01  0.00000000E+00
  1.30000000E+02  5.20000000E+01  0.00000000E+00
  1.40000000E+02  5.20000000E+01  0.00000000E+00
  1.50000000E+02  5.20000000E+01  0.00000000E+00
  1.60000000E+02  5.20000000E+01  0.00000000E+00
  1.70000000E+02  5.20000000E+01  0.00000000E+00
  1.80000000E+02  5.20000000E+01  0.00000000E+00
  1.90000000E+02  5.20000000E+01  0.00000000E+00
  2.00000000E+02  5.20000000E+01  0.00000000E+00
  2.10000000E+02  5.20000000E+01  0.00000000E+00
  2.20000000E+02  5.20000000E+01  0.00000000E+00
  2.30000000E+02  5.20000000E+01  0.00000000E+00
  2.40000000E+02  5.20000000E+01  0.00000000E+00
  2.50000000E+02  5.20000000E+01  0.00000000E+00
  2.60000000E+02  5.20000000E+01  0.00000000E+00
  2.70000000E+02  5.20000000E+01  0.00000000E+00
  2.80000000E+02  5.20000000E+01  0.00000000E+00
  2.90000000E+02  5.20000000E+01  0.00000000E+00
  3.00000000E+02  5.20000000E+01  0.00000000E+00
  3.10000000E+02  5.20000000E+01  0.00000000E+00
  3.20000000E+02  5.20000000E+01  0.00000000E+00
  3.30000000E+02  5.20000000E+01  0.00000000E+00
  3.40000000E+02  5.20000000E+01  0.00000000E+00
  3.50000000E+02  5.20000000E+01  0.00000000E+00
  3.60000000E+02  5.20000000E+01  0.00000000E+00
  3.70000000E+02  5.20000000E+01  0.00000000E+00
  3.80000000E+02  5.20000000E+01  0.00000000E+00
  3.90000000E+02  5.20000000E+01  0.00000000E+00
  4.00000000E+02  5.20000000E+01  0.00000000E+00
  4.10000000E+02  5.20000000E+01  0.00000000E+00
  4.20000000E+02  5.20000000E+01  0.00000000E+00
  4.30000000E+02  5.20000000E+01  0.00000000E+00
  4.40000000E+02  5.20000000E+01  0.00000000E+00
  4.50000000E+02  5.20000000E+01  0.00000000E+00
  4.60000000E+02  5.20000000E+01  0.00000000E+00
  4.70000000E+02  5.20000000E+01  0.00000000E+00
  4.80000000E+02  5.20000000E+01  0.00000000E+00
  4.90000000E+02  5.20000000E+01  0.00000000E+00
  5.00000000E+02  5.20000000E+01  0.00000000E+00
  5.10000000E+02  5.20000000E+01  0.00000000E+00
  5.20000000E+02  5.20000000E+01  0.00000000E+00
  5.30000000E+02  5.20000000E+01  0.00000000E+00
  5.40000000E+02  5.20000000E+01  0.00000000E+00
  5.50000000E+02  5.20000000E+01  0.00000000E+00
  5.60000000E+02  5.20000000E+01  0.00000000E+00
  5.70000000E+02  5.20000000E+01  0.00000000E+00
  5.80000000E+02  5.20000000E+01  0.00000000E+00
  5.90000000E+02  5.20000000E+01  0.00000000E+00
  6.00000000E+02  5.20000000E+01  0.00000000E+00
  6.10000000E+02  5.20000000E+01  0.00000000E+00
  6.20000000E+02  5.20000000E+01  0.00000000E+00
  6.30000000E+02  5.20000000E+01  0.00000000E+00
  6.40000000E+02  5.20000000E+01  0.00000000E+00
  6.50000000E+02  5.20000000E+01  0.00000000E+00
  6.60000000E+02  5.20000000E+01  0.00000000E+00
  6.70000000E+02  5.20000000E+01  0.00000000E+00
  6.80000000E+02  5.20000000E+01  0.00000000E+00
  6.90000000E+02  5.20000000E+01  0.00000000E+00
  7.00000000E+02  5.20000000E+01  0.00000000E+00
  7.10000000E+02  5.20000000E+01  0.00000000E+00
  7.20000000E+02  5.20000000E+01  0.00000000E+00
  7.30000000E+02  5.20000000E+01  0.00000000E+00
  7.40000000E+02  5.20000000E+01  0.00000000E+00
  7.50000000E+02  5.20000000E+01  0.00000000E+00
  7.60000000E+02  5.20000000E+01  0.00000000E+00
  7.70000000E+02  5.20000000E+01  0.00000000E+00
  7.80000000E+02  5.20000000E+01  0.00000000E+00
  7.90000000E+02  5.20000000E+01  0.00000000E+00
  8.00000000E+02  5.20000000E+01  0.00000000E+00
  8.10000000E+02  5.20000000E+01  0.00000000E+00
  8.20000000E+02  5.20000000E+01  0.00000000E+00
  8.30000000E+02  5.20000000E+01  0.00000000E+00
  8.40000000E+02  5.20000000E+01  0.00000000E+00
  8.50000000E+02  5.20000000E+01  0.00000000E+00
  8.60000000E+02  5.20000000E+01  0.00000000E+00
  8.70000000E+02  5.20000000E+01  0.00000000E+00
  8.80000000E+02  5.20000000E+01  0.00000000E+00
  8.90000000E+02  5.20000000E+01  0.00000000E+00
  9.00000000E+02  5.20000000E+01  0.00000000E+00
  9.10000000E+02  5.20000000E+01  0.00000000E+00
  9.20000000E+02  5.20000000E+01  0.00000000E+00
  9.30000000E+02  5.20000000E+01  0.00000000E+00
  9.40000000E+02  5.20000000E+01  0.00000000E+00
  9.50000000E+02  5.20000000E+01  0.00000000E+00
  9.60000000E+02  5.20000000E+01  0.00000000E+00
  9.70000000E+02  5.20000000E+01  0.00000000E+00
  9.80000000E+02  5.20000000E+01  0.00000000E+00
  9.90000000E+02  5.20000000E+01  0.00000000E+00
  1.00000000E+03  5.20000000E+01  0.00000000E+00
  0.00000000E+00  5.40000000E+01  0.00000000E+00
  1.00000000E+01  5.40000000E+01  0.00000000E+00
  2.00000000E+01  5.40000000E+01  0.00000000E+00
  3.00000000E+01  5.40000000E+01  0.00000000E+00
  4.00000000E+01  5.40000000E+01  0.00000000E+00
  5.00000000E+01  5.40000000E+01  0.00000000E+00
  6.00000000E+01  5.40000000E+01  0.00000000E+00
  7.00000000E+01  5.40000000E+01  0.00000000E+00
  8.00000000E+01  5.40000000E+01  0.00000000E+00
  9.00000000E+01  5.40000000E+01  0.00000000E+00
  1.00000000E+02  5.40000000E+01  0.00000000E+00
  1.10000000E+02  5.40000000E+01  0.00000000E+00
  1.20000000E+02  5.40000000E+01  0.00000000E+00
  1.30000000E+02  5.40000000E+01  0.00000000E+00
  1.40000000E+02  5.40000000E+01  0.00000000E+00
  1.50000000E+02  5.40000000E+01  0.00000000E+00
  1.60000000E+02  5.40000000E+01  0.00000000E+00
  1.70000000E+02  5.40000000E+01  0.00000000E+00
  1.80000000E+02  5.40000000E+01  0.00000000E+00
  1.90000000E+02  5.40000000E+01  0.00000000E+00
  2.00000000E+02  5.40000000E+01  0.00000000E+00
  2.10000000E+02  5.40000000E+01  0.00000000E+00
  2.20000000E+02  5.40000000E+01  0.00000000E+00
  2.30000000E+02  5.40000000E+01  0.00000000E+00
  2.40000000E+02  5.40000000E+01  0.00000000E+00
  2.50000000E+02  5.40000000E+01  0.00000000E+00
  2.60000000E+02  5.40000000E+01  0.00000000E+00
  2.70000000E+02  5.40000000E+01  0.00000000E+00
  2.80000000E+02  5.40000000E+01  0.00000000E+00
  2.90000000E+02  5.40000000E+01  0.00000000E+00
  3.00000000E+02  5.40000000E+01  0.00000000E+00
  3.10000000E+02  5.40000000E+01  0.00000000E+00
  3.20000000E+02  5.40000000E+01  0.00000000E+00
  3.30000000E+02  5.40000000E+01  0.00000000E+00
  3.40000000E+02  5.40000000E+01  0.00000000E+00
  3.50000000E+02  5.40000000E+01  0.00000000E+00
  3.60000000E+02  5.40000000E+01  0.00000000E+00
  3.70000000E+02  5.40000000E+01  0.00000000E+00
  3.80000000E+02  5.40000000E+01  0.00000000E+00
  3.90000000E+02  5.40000000E+01  0.00000000E+00
  4.00000000E+02  5.40000000E+01  0.00000000E+00
  4.10000000E+02  5.40000000E+01  0.00000000E+00
  4.20000000E+02  5.40000000E+01  0.00000000E+00
  4.30000000E+02  5.40000000E+01  0.00000000E+00
  4.40000000E+02  5.40000000E+01  0.00000000E+00
  4.50000000E+02  5.40000000E+01  0.00000000E+00
  4.60000000E+02  5.40000000E+01  0.00000000E+00
  4.70000000E+02  5.40000000E+01  0.00000000E+00
  4.80000000E+02  5.40000000E+01  0.00000000E+00
  4.90000000E+02  5.40000000E+01  0.00000000E+00
  5.00000000E+02  5.40000000E+01  0.00000000E+00
  5.10000000E+02  5.40000000E+01  0.00000000E+00
  5.20000000E+02  5.40000000E+01  0.00000000E+00
  5.30000000E+02  5.40000000E+01  0.00000000E+00
  5.40000000E+02  5.40000000E+01  0.00000000E+00
  5.50000000E+02  5.40000000E+01  0.00000000E+00
  5.60000000E+02  5.40000000E+01  0.00000000E+00
  5.70000000E+02  5.40000000E+01  0.00000000E+00
  5.80000000E+02  5.40000000E+01  0.00000000E+00
  5.90000000E+02  5.40000000E+01  0.00000000E+00
  6.00000000E+02  5.40000000E+01  0.00000000E+00
  6.10000000E+02  5.40000000E+01  0.00000000E+00
  6.20000000E+02  5.40000000E+01  0.00000000E+00
  6.30000000E+02  5.40000000E+01  0.00000000E+00
  6.40000000E+02  5.40000000E+01  0.00000000E+00
  6.50000000E+02  5.40000000E+01  0.00000000E+00
  6.60000000E+02  5.40000000E+01  0.00000000E+00
  6.70000000E+02  5.40000000E+01  0.00000000E+00
  6.80000000E+02  5.40000000E+01  0.00000000E+00
  6.90000000E+02  5.40000000E+01  0.00000000E+00
  7.00000000E+02  5.40000000E+01  0.00000000E+00
  7.10000000E+02  5.40000000E+01  0.00000000E+00
  7.20000000E+02  5.40000000E+01  0.00000000E+00
  7.30000000E+02  5.40000000E+01  0.00000000E+00
  7.40000000E+02  5.40000000E+01  0.00000000E+00
  7.50000000E+02  5.40000000E+01  0.00000000E+00
  7.60000000E+02  5.40000000E+01  0.00000000E+00
  7.70000000E+02  5.40000000E+01  0.00000000E+00
  7.80000000E+02  5.40000000E+01  0.00000000E+00
  7.90000000E+02  5.40000000E+01  0.00000000E+00
  8.00000000E+02  5.40000000E+01  0.00000000E+00
  8.10000000E+02  5.40000000E+01  0.00000000E+00
  8.20000000E+02  5.40000000E+01  0.00000000E+00
  8.30000000E+02  5.40000000E+01  0.00000000E+00
  8.40000000E+02  5.40000000E+01  0.00000000E+00
  8.50000000E+02  5.40000000E+01  0.00000000E+00
  8.60000000E+02  5.40000000E+01  0.00000000E+00
  8.70000000E+02  5.40000000E+01  0.00000000E+00
  8.80000000E+02  5.40000000E+01  0.00000000E+00
  8.90000000E+02  5.40000000E+01  0.00000000E+00
  9.00000000E+02  5.40000000E+01  0.00000000E+00
  9.10000000E+02  5.40000000E+01  0.00000000E+00
  9.20000000E+02  5.40000000E+01  0.00000000E+00
  9.30000000E+02  5.40000000E+01  0.00000000E+00
  9.40000000E+02  5.40000000E+01  0.00000000E+00
  9.50000000E+02  5.40000000E+01  0.00000000E+00
  9.60000000E+02  5.40000000E+01  0.00000000E+00
  9.70000000E+02  5.40000000E+01  0.00000000E+00
  9.80000000E+02  5.40000000E+01  0.00000000E+00
  9.90000000E+02  5.40000000E+01  0.00000000E+00
  1.00000000E+03  5.40000000E+01  0.00000000E+00
  0.00000000E+00  5.60000000E+01  0.00000000E+00
  1.00000000E+01  5.60000000E+01  0.00000000E+00
  2.00000000E+01  5.60000000E+01  0.00000000E+00
  3.00000000E+01  5.60000000E+01  0.00000000E+00
  4.00000000E+01  5.60000000E+01  0.00000000E+00
  5.00000000E+01  5.60000000E+01  0.00000000E+00
  6.00000000E+01  5.60000000E+01  0.00000000E+00
  7.00000000E+01  5.60000000E+01  0.00000000E+00
  8.00000000E+01  5.60000000E+01  0.00000000E+00
  9.00000000E+01  5.60000000E+01  0.00000000E+00
  1.00000000E+02  5.60000000E+01  0.00000000E+00
  1.10000000E+02  5.60000000E+01  0.00000000E+00
  1.20000000E+02  5.60000000E+01  0.00000000E+00
  1.30000000E+02  5.60000000E+01  0.00000000E+00
  1.40000000E+02  5.60000000E+01  0.00000000E+00
  1.50000000E+02  5.60000000E+01  0.00000000E+00
  1.60000000E+02  5.60000000E+01  0.00000000E+00
  1.70000000E+02  5.60000000E+01  0.00000000E+00
  1.80000000E+02  5.60000000E+01  0.00000000E+00
  1.90000000E+02  5.60000000E+01  0.00000000E+00
  2.00000000E+02  5.60000000E+01  0.00000000E+00
  2.10000000E+02  5.60000000E+01  0.00000000E+00
  2.20000000E+02  5.60000000E+01  0.00000000E+00
  2.30000000E+02  5.60000000E+01  0.00000000E+00
  2.40000000E+02  5.60000000E+01  0.00000000E+00
  2.50000000E+02  5.60000000E+01  0.00000000E+00
  2.60000000E+02  5.60000000E+01  0.00000000E+00
  2.70000000E+02  5.60000000E+01  0.00000000E+00
  2.80000000E+02  5.60000000E+01  0.00000000E+00
  2.90000000E+02  5.60000000E+01  0.00000000E+00
  3.00000000E+02  5.60000000E+01  0.00000000E+00
  3.10000000E+02  5.60000000E+01  0.00000000E+00
  3.20000000E+02  5.60000000E+01  0.00000000E+00
  3.30000000E+02  5.60000000E+01  0.00000000E+00
  3.40000000E+02  5.60000000E+01  0.00000000E+00
  3.50000000E+02  5.60000000E+01  0.00000000E+00
  3.60000000E+02  5.60000000E+01  0.00000000E+00
  3.70000000E+02  5.60000000E+01  0.00000000E+00
  3.80000000E+02  5.60000000E+01  0.00000000E+00
  3.90000000E+02  5.60000000E+01  0.00000000E+00
  4.00000000E+02  5.60000000E+01  0.00000000E+00
  4.10000000E+02  5.60000000E+01  0.00000000E+00
  4.20000000E+02  5.60000000E+01  0.00000000E+00
  4.30000000E+02  5.60000000E+01  0.00000000E+00
  4.40000000E+02  5.60000000E+01  0.00000000E+00
  4.50000000E+02  5.60000000E+01  0.00000000E+00
  4.60000000E+02  5.60000000E+01  0.00000000E+00
  4.70000000E+02  5.60000000E+01  0.00000000E+00
  4.80000000E+02  5.60000000E+01  0.00000000E+00
  4.90000000E+02  5.60000000E+01  0.00000000E+00
  5.00000000E+02  5.60000000E+01  0.00000000E+00
  5.10000000E+02  5.60000000E+01  0.00000000E+00
  5.20000000E+02  5.60000000E+01  0.00000000E+00
  5.30000000E+02  5.60000000E+01  0.00000000E+00
  5.40000000E+02  5.60000000E+01  0.00000000E+00
  5.50000000E+02  5.60000000E+01  0.00000000E+00
  5.60000000E+02  5.60000000E+01  0.00000000E+00
  5.70000000E+02  5.60000000E+01  0.00000000E+00
  5.80000000E+02  5.60000000E+01  0.00000000E+00
  5.90000000E+02  5.60000000E+01  0.00000000E+00
  6.00000000E+02  5.60000000E+01  0.00000000E+00
  6.10000000E+02  5.60000000E+01  0.00000000E+00
  6.20000000E+02  5.60000000E+01  0.00000000E+00
  6.30000000E+02  5.60000000E+01  0.00000000E+00
  6.40000000E+02  5.60000000E+01  0.00000000E+00
  6.50000000E+02  5.60000000E+01  0.00000000E+00
  6.60000000E+02  5.60000000E+01  0.00000000E+00
  6.70000000E+02  5.60000000E+01  0.00000000E+00
  6.80000000E+02  5.60000000E+01  0.00000000E+00
  6.90000000E+02  5.60000000E+01  0.00000000E+00
  7.00000000E+02  5.60000000E+01  0.00000000E+00
  7.10000000E+02  5.60000000E+01  0.00000000E+00
  7.20000000E+02  5.60000000E+01  0.00000000E+00
  7.30000000E+02  5.60000000E+01  0.00000000E+00
  7.40000000E+02  5.60000000E+01  0.00000000E+00
  7.50000000E+02  5.60000000E+01  0.00000000E+00
  7.60000000E+02  5.60000000E+01  0.00000000E+00
  7.70000000E+02  5.60000000E+01  0.00000000E+00
  7.80000000E+02  5.60000000E+01  0.00000000E+00
  7.90000000E+02  5.60000000E+01  0.00000000E+00
  8.00000000E+02  5.60000000E+01  0.00000000E+00
  8.10000000E+02  5.60000000E+01  0.00000000E+00
  8.20000000E+02  5.60000000E+01  0.00000000E+00
  8.30000000E+02  5.60000000E+01  0.00000000E+00
  8.40000000E+02  5.60000000E+01  0.00000000E+00
  8.50000000E+02  5.60000000E+01  0.00000000E+00
  8.60000000E+02  5.60000000E+01  0.00000000E+00
  8.70000000E+02  5.60000000E+01  0.00000000E+00
  8.80000000E+02  5.60000000E+01  0.00000000E+00
  8.90000000E+02  5.60000000E+01  0.00000000E+00
  9.00000000E+02  5.60000000E+01  0.00000000E+00
  9.10000000E+02  5.60000000E+01  0.00000000E+00
  9.20000000E+02  5.60000000E+01  0.00000000E+00
  9.30000000E+02  5.60000000E+01  0.00000000E+00
  9.40000000E+02  5.60000000E+01  0.00000000E+00
  9.50000000E+02  5.60000000E+01  0.00000000E+00
  9.60000000E+02  5.60000000E+01  0.00000000E+00
  9.70000000E+02  5.60000000E+01  0.00000000E+00
  9.80000000E+02  5.60000000E+01  0.00000000E+00
  9.90000000E+02  5.60000000E+01  0.00000000E+00
  1.00000000E+03  5.60000000E+01  0.00000000E+00
  0.00000000E+00  5.80000000E+01  0.00000000E+00
  1.00000000E+01  5.80000000E+01  0.00000000E+00
  2.00000000E+01  5.80000000E+01  0.00000000E+00
  3.00000000E+01  5.80000000E+01  0.00000000E+00
  4.00000000E+01  5.80000000E+01  0.00000000E+00
  5.00000000E+01  5.80000000E+01  0.00000000E+00
  6.00000000E+01  5.80000000E+01  0.00000000E+00
  7.00000000E+01  5.80000000E+01  0.00000000E+00
  8.00000000E+01  5.80000000E+01  0.00000000E+00
  9.00000000E+01  5.80000000E+01  0.00000000E+00
  1.00000000E+02  5.80000000E+01  0.00000000E+00
  1.10000000E+02  5.80000000E+01  0.00000000E+00
  1.20000000E+02  5.80000000E+01  0.00000000E+00
  1.30000000E+02  5.80000000E+01  0.00000000E+00
  1.40000000E+02  5.80000000E+01  0.00000000E+00
  1.50000000E+02  5.80000000E+01  0.00000000E+00
  1.60000000E+02  5.80000000E+01  0.00000000E+00
  1.70000000E+02  5.80000000E+01  0.00000000E+00
  1.80000000E+02  5.80000000E+01  0.00000000E+00
  1.90000000E+02  5.80000000E+01  0.00000000E+00
  2.00000000E+02  5.80000000E+01  0.00000000E+00
  2.10000000E+02  5.80000000E+01  0.00000000E+00
  2.20000000E+02  5.80000000E+01  0.00000000E+00
  2.30000000E+02  5.80000000E+01  0.00000000E+00
  2.40000000E+02  5.80000000E+01  0.00000000E+00
  2.50000000E+02  5.80000000E+01  0.00000000E+00
  2.60000000E+02  5.80000000E+01  0.00000000E+00
  2.70000000E+02  5.80000000E+01  0.00000000E+00
  2.80000000E+02  5.80000000E+01  0.00000000E+00
  2.90000000E+02  5.80000000E+01  0.00000000E+00
  3.00000000E+02  5.80000000E+01  0.00000000E+00
  3.10000000E+02  5.80000000E+01  0.00000000E+00
  3.20000000E+02  5.80000000E+01  0.00000000E+00
  3.30000000E+02  5.80000000E+01  0.00000000E+00
  3.40000000E+02  5.80000000E+01  0.00000000E+00
  3.50000000E+02  5.80000000E+01  0.00000000E+00
  3.60000000E+02  5.80000000E+01  0.00000000E+00
  3.70000000E+02  5.80000000E+01  0.00000000E+00
  3.80000000E+02  5.80000000E+01  0.00000000E+00
  3.90000000E+02  5.80000000E+01  0.00000000E+00
  4.00000000E+02  5.80000000E+01  0.00000000E+00
  4.10000000E+02  5.80000000E+01  0.00000000E+00
  4.20000000E+02  5.80000000E+01  0.00000000E+00
  4.30000000E+02  5.80000000E+01  0.00000000E+00
  4.40000000E+02  5.80000000E+01  0.00000000E+00
  4.50000000E+02  5.80000000E+01  0.00000000E+00
  4.60000000E+02  5.80000000E+01  0.00000000E+00
  4.70000000E+02  5.80000000E+01  0.00000000E+00
  4.80000000E+02  5.80000000E+01  0.00000000E+00
  4.90000000E+02  5.80000000E+01  0.00000000E+00
  5.00000000E+02  5.80000000E+01  0.00000000E+00
  5.10000000E+02  5.80000000E+01  0.00000000E+00
  5.20000000E+02  5.80000000E+01  0.00000000E+00
  5.30000000E+02  5.80000000E+01  0.00000000E+00
  5.40000000E+02  5.80000000E+01  0.00000000E+00
  5.50000000E+02  5.80000000E+01  0.00000000E+00
  5.60000000E+02  5.80000000E+01  0.00000000E+00
  5.70000000E+02  5.80000000E+01  0.00000000E+00
  5.80000000E+02  5.80000000E+01  0.00000000E+00
  5.90000000E+02  5.80000000E+01  0.00000000E+00
  6.00000000E+02  5.80000000E+01  0.00000000E+00
  6.10000000E+02  5.80000000E+01  0.00000000E+00
  6.20000000E+02  5.80000000E+01  0.00000000E+00
  6.30000000E+02  5.80000000E+01  0.00000000E+00
  6.40000000E+02  5.80000000E+01  0.00000000E+00
  6.50000000E+02  5.80000000E+01  0.00000000E+00
  6.60000000E+02  5.80000000E+01  0.00000000E+00
  6.70000000E+02  5.80000000E+01  0.00000000E+00
  6.80000000E+02  5.80000000E+01  0.00000000E+00
  6.90000000E+02  5.80000000E+01  0.00000000E+00
  7.00000000E+02  5.80000000E+01  0.00000000E+00
  7.10000000E+02  5.80000000E+01  0.00000000E+00
  7.20000000E+02  5.80000000E+01  0.00000000E+00
  7.30000000E+02  5.80000000E+01  0.00000000E+00
  7.40000000E+02  5.80000000E+01  0.00000000E+00
  7.50000000E+02  5.80000000E+01  0.00000000E+00
  7.60000000E+02  5.80000000E+01  0.00000000E+00
  7.70000000E+02  5.80000000E+01  0.00000000E+00
  7.80000000E+02  5.80000000E+01  0.00000000E+00
  7.90000000E+02  5.80000000E+01  0.00000000E+00
  8.00000000E+02  5.80000000E+01  0.00000000E+00
  8.10000000E+02  5.80000000E+01  0.00000000E+00
  8.20000000E+02  5.80000000E+01  0.00000000E+00
  8.30000000E+02  5.80000000E+01  0.00000000E+00
  8.40000000E+02  5.80000000E+01  0.00000000E+00
  8.50000000E+02  5.80000000E+01  0.00000000E+00
  8.60000000E+02  5.80000000E+01  0.00000000E+00
  8.70000000E+02  5.80000000E+01  0.00000000E+00
  8.80000000E+02  5.80000000E+01  0.00000000E+00
  8.90000000E+02  5.80000000E+01  0.00000000E+00
  9.00000000E+02  5.80000000E+01  0.00000000E+00
  9.10000000E+02  5.80000000E+01  0.00000000E+00
  9.20000000E+02  5.80000000E+01  0.00000000E+00
  9.30000000E+02  5.80000000E+01  0.00000000E+00
  9.40000000E+02  5.80000000E+01  0.00000000E+00
  9.50000000E+02  5.80000000E+01  0.00000000E+00
  9.60000000E+02  5.80000000E+01  0.00000000E+00
  9.70000000E+02  5.80000000E+01  0.00000000E+00
  9.80000000E+02  5.80000000E+01  0.00000000E+00
  9.90000000E+02  5.80000000E+01  0.00000000E+00
  1.00000000E+03  5.80000000E+01  0.00000000E+00
  0.00000000E+00  6.00000000E+01  0.00000000E+00
  1.00000000E+01  6.00000000E+01  0.00000000E+00
  2.00000000E+01  6.00000000E+01  0.00000000E+00
  3.00000000E+01  6.00000000E+01  0.00000000E+00
  4.00000000E+01  6.00000000E+01  0.00000000E+00
  5.00000000E+01  6.00000000E+01  0.00000000E+00
  6.00000000E+01  6.00000000E+01  0.00000000E+00
  7.00000000E+01  6.00000000E+01  0.00000000E+00
  8.00000000E+01  6.00000000E+01  0.00000000E+00
  9.00000000E+01  6.00000000E+01  0.00000000E+00
  1.00000000E+02  6.00000000E+01  0.00000000E+00
  1.10000000E+02  6.00000000E+01  0.00000000E+00
  1.20000000E+02  6.00000000E+01  0.00000000E+00
  1.30000000E+02  6.00000000E+01  0.00000000E+00
  1.40000000E+02  6.00000000E+01  0.00000000E+00
  1.50000000E+02  6.00000000E+01  0.00000000E+00
  1.60000000E+02  6.00000000E+01  0.00000000E+00
  1.70000000E+02  6.00000000E+01  0.00000000E+00
  1.80000000E+02  6.00000000E+01  0.00000000E+00
  1.90000000E+02  6.00000000E+01  0.00000000E+00
  2.00000000E+02  6.00000000E+01  0.00000000E+00
  2.10000000E+02  6.00000000E+01  0.00000000E+00
  2.20000000E+02  6.00000000E+01  0.00000000E+00
  2.30000000E+02  6.00000000E+01  0.00000000E+00
  2.40000000E+02  6.00000000E+01  0.00000000E+00
  2.50000000E+02  6.00000000E+01  0.00000000E+00
  2.60000000E+02  6.00000000E+01  0.00000000E+00
  2.70000000E+02  6.00000000E+01  0.00000000E+00
  2.80000000E+02  6.00000000E+01  0.00000000E+00
  2.90000000E+02  6.00000000E+01  0.00000000E+00
  3.00000000E+02  6.00000000E+01  0.00000000E+00
  3.10000000E+02  6.00000000E+01  0.00000000E+00
  3.20000000E+02  6.00000000E+01  0.00000000E+00
  3.30000000E+02  6.00000000E+01  0.00000000E+00
  3.40000000E+02  6.00000000E+01  0.00000000E+00
  3.50000000E+02  6.00000000E+01  0.00000000E+00
  3.60000000E+02  6.00000000E+01  0.00000000E+00
  3.70000000E+02  6.00000000E+01  0.00000000E+00
  3.80000000E+02  6.00000000E+01  0.00000000E+00
  3.90000000E+02  6.00000000E+01  0.00000000E+00
  4.00000000E+02  6.00000000E+01  0.00000000E+00
  4.10000000E+02  6.00000000E+01  0.00000000E+00
  4.20000000E+02  6.00000000E+01  0.00000000E+00
  4.30000000E+02  6.00000000E+01  0.00000000E+00
  4.40000000E+02  6.00000000E+01  0.00000000E+00
  4.50000000E+02  6.00000000E+01  0.00000000E+00
  4.60000000E+02  6.00000000E+01  0.00000000E+00
  4.70000000E+02  6.00000000E+01  0.00000000E+00
  4.80000000E+02  6.00000000E+01  0.00000000E+00
  4.90000000E+02  6.00000000E+01  0.00000000E+00
  5.00000000E+02  6.00000000E+01  0.00000000E+00
  5.10000000E+02  6.00000000E+01  0.00000000E+00
  5.20000000E+02  6.00000000E+01  0.00000000E+00
  5.30000000E+02  6.00000000E+01  0.00000000E+00
  5.40000000E+02  6.00000000E+01  0.00000000E+00
  5.50000000E+02  6.00000000E+01  0.00000000E+00
  5.60000000E+02  6.00000000E+01  0.00000000E+00
  5.70000000E+02  6.00000000E+01  0.00000000E+00
  5.80000000E+02  6.00000000E+01  0.00000000E+00
  5.90000000E+02  6.00000000E+01  0.00000000E+00
  6.00000000E+02  6.00000000E+01  0.00000000E+00
  6.10000000E+02  6.00000000E+01  0.00000000E+00
  6.20000000E+02  6.00000000E+01  0.00000000E+00
  6.30000000E+02  6.00000000E+01  0.00000000E+00
  6.40000000E+02  6.00000000E+01  0.00000000E+00
  6.50000000E+02  6.00000000E+01  0.00000000E+00
  6.60000000E+02  6.00000000E+01  0.00000000E+00
  6.70000000E+02  6.00000000E+01  0.00000000E+00
  6.80000000E+02  6.00000000E+01  0.00000000E+00
  6.90000000E+02  6.00000000E+01  0.00000000E+00
  7.00000000E+02  6.00000000E+01  0.00000000E+00
  7.10000000E+02  6.00000000E+01  0.00000000E+00
  7.20000000E+02  6.00000000E+01  0.00000000E+00
  7.30000000E+02  6.00000000E+01  0.00000000E+00
  7.40000000E+02  6.00000000E+01  0.00000000E+00
  7.50000000E+02  6.00000000E+01  0.00000000E+00
  7.60000000E+02  6.00000000E+01  0.00000000E+00
  7.70000000E+02  6.00000000E+01  0.00000000E+00
  7.80000000E+02  6.00000000E+01  0.00000000E+00
  7.90000000E+02  6.00000000E+01  0.00000000E+00
  8.00000000E+02  6.00000000E+01  0.00000000E+00
  8.10000000E+02  6.00000000E+01  0.00000000E+00
  8.20000000E+02  6.00000000E+01  0.00000000E+00
  8.30000000E+02  6.00000000E+01  0.00000000E+00
  8.40000000E+02  6.00000000E+01  0.00000000E+00
  8.50000000E+02  6.00000000E+01  0.00000000E+00
  8.60000000E+02  6.00000000E+01  0.00000000E+00
  8.70000000E+02  6.00000000E+01  0.00000000E+00
  8.80000000E+02  6.00000000E+01  0.00000000E+00
  8.90000000E+02  6.00000000E+01  0.00000000E+00
  9.00000000E+02  6.00000000E+01  0.00000000E+00
  9.10000000E+02  6.00000000E+01  0.00000000E+00
  9.20000000E+02  6.00000000E+01  0.00000000E+00
  9.30000000E+02  6.00000000E+01  0.00000000E+00
  9.40000000E+02  6.00000000E+01  0.00000000E+00
  9.50000000E+02  6.00000000E+01  0.00000000E+00
  9.60000000E+02  6.00000000E+01  0.00000000E+00
  9.70000000E+02  6.00000000E+01  0.00000000E+00
  9.80000000E+02  6.00000000E+01  0.00000000E+00
  9.90000000E+02  6.00000000E+01  0.00000000E+00
  1.00000000E+03  6.00000000E+01  0.00000000E+00
  0.00000000E+00  6.20000000E+01  0.00000000E+00
  1.00000000E+01  6.20000000E+01  0.00000000E+00
  2.00000000E+01  6.20000000E+01  0.00000000E+00
  3.00000000E+01  6.20000000E+01  0.00000000E+00
  4.00000000E+01  6.20000000E+01  0.00000000E+00
  5.00000000E+01  6.20000000E+01  0.00000000E+00
  6.00000000E+01  6.20000000E+01  0.00000000E+00
  7.00000000E+01  6.20000000E+01  0.00000000E+00
  8.00000000E+01  6.20000000E+01  0.00000000E+00
  9.00000000E+01  6.20000000E+01  0.00000000E+00
  1.00000000E+02  6.20000000E+01  0.00000000E+00
  1.10000000E+02  6.20000000E+01  0.00000000E+00
  1.20000000E+02  6.20000000E+01  0.00000000E+00
  1.30000000E+02  6.20000000E+01  0.00000000E+00
  1.40000000E+02  6.20000000E+01  0.00000000E+00
  1.50000000E+02  6.20000000E+01  0.00000000E+00
  1.60000000E+02  6.20000000E+01  0.00000000E+00
  1.70000000E+02  6.20000000E+01  0.00000000E+00
  1.80000000E+02  6.20000000E+01  0.00000000E+00
  1.90000000E+02  6.20000000E+01  0.00000000E+00
  2.00000000E+02  6.20000000E+01  0.00000000E+00
  2.10000000E+02  6.20000000E+01  0.00000000E+00
  2.20000000E+02  6.20000000E+01  0.00000000E+00
  2.30000000E+02  6.20000000E+01  0.00000000E+00
  2.40000000E+02  6.20000000E+01  0.00000000E+00
  2.50000000E+02  6.20000000E+01  0.00000000E+00
  2.60000000E+02  6.20000000E+01  0.00000000E+00
  2.70000000E+02  6.20000000E+01  0.00000000E+00
  2.80000000E+02  6.20000000E+01  0.00000000E+00
  2.90000000E+02  6.20000000E+01  0.00000000E+00
  3.00000000E+02  6.20000000E+01  0.00000000E+00
  3.10000000E+02  6.20000000E+01  0.00000000E+00
  3.20000000E+02  6.20000000E+01  0.00000000E+00
  3.30000000E+02  6.20000000E+01  0.00000000E+00
  3.40000000E+02  6.20000000E+01  0.00000000E+00
  3.50000000E+02  6.20000000E+01  0.00000000E+00
  3.60000000E+02  6.20000000E+01  0.00000000E+00
  3.70000000E+02  6.20000000E+01  0.00000000E+00
  3.80000000E+02  6.20000000E+01  0.00000000E+00
  3.90000000E+02  6.20000000E+01  0.00000000E+00
  4.00000000E+02  6.20000000E+01  0.00000000E+00
  4.10000000E+02  6.20000000E+01  0.00000000E+00
  4.20000000E+02  6.20000000E+01  0.00000000E+00
  4.30000000E+02  6.20000000E+01  0.00000000E+00
  4.40000000E+02  6.20000000E+01  0.00000000E+00
  4.50000000E+02  6.20000000E+01  0.00000000E+00
  4.60000000E+02  6.20000000E+01  0.00000000E+00
  4.70000000E+02  6.20000000E+01  0.00000000E+00
  4.80000000E+02  6.20000000E+01  0.00000000E+00
  4.90000000E+02  6.20000000E+01  0.00000000E+00
  5.00000000E+02  6.20000000E+01  0.00000000E+00
  5.10000000E+02  6.20000000E+01  0.00000000E+00
  5.20000000E+02  6.20000000E+01  0.00000000E+00
  5.30000000E+02  6.20000000E+01  0.00000000E+00
  5.40000000E+02  6.20000000E+01  0.00000000E+00
  5.50000000E+02  6.20000000E+01  0.00000000E+00
  5.60000000E+02  6.20000000E+01  0.00000000E+00
  5.70000000E+02  6.20000000E+01  0.00000000E+00
  5.80000000E+02  6.20000000E+01  0.00000000E+00
  5.90000000E+02  6.20000000E+01  0.00000000E+00
  6.00000000E+02  6.20000000E+01  0.00000000E+00
  6.10000000E+02  6.20000000E+01  0.00000000E+00
  6.20000000E+02  6.20000000E+01  0.00000000E+00
  6.30000000E+02  6.20000000E+01  0.00000000E+00
  6.40000000E+02  6.20000000E+01  0.00000000E+00
  6.50000000E+02  6.20000000E+01  0.00000000E+00
  6.60000000E+02  6.20000000E+01  0.00000000E+00
  6.70000000E+02  6.20000000E+01  0.00000000E+00
  6.80000000E+02  6.20000000E+01  0.00000000E+00
  6.90000000E+02  6.20000000E+01  0.00000000E+00
  7.00000000E+02  6.20000000E+01  0.00000000E+00
  7.10000000E+02  6.20000000E+01  0.00000000E+00
  7.20000000E+02  6.20000000E+01  0.00000000E+00
  7.30000000E+02  6.20000000E+01  0.00000000E+00
  7.40000000E+02  6.20000000E+01  0.00000000E+00
  7.50000000E+02  6.20000000E+01  0.00000000E+00
  7.60000000E+02  6.20000000E+01  0.00000000E+00
  7.70000000E+02  6.20000000E+01  0.00000000E+00
  7.80000000E+02  6.20000000E+01  0.00000000E+00
  7.90000000E+02  6.20000000E+01  0.00000000E+00
  8.00000000E+02  6.20000000E+01  0.00000000E+00
  8.10000000E+02  6.20000000E+01  0.00000000E+00
  8.20000000E+02  6.20000000E+01  0.00000000E+00
  8.30000000E+02  6.20000000E+01  0.00000000E+00
  8.40000000E+02  6.20000000E+01  0.00000000E+00
  8.50000000E+02  6.20000000E+01  0.00000000E+00
  8.60000000E+02  6.20000000E+01  0.00000000E+00
  8.70000000E+02  6.20000000E+01  0.00000000E+00
  8.80000000E+02  6.20000000E+01  0.00000000E+00
  8.90000000E+02  6.20000000E+01  0.00000000E+00
  9.00000000E+02  6.20000000E+01  0.00000000E+00
  9.10000000E+02  6.20000000E+01  0.00000000E+00
  9.20000000E+02  6.20000000E+01  0.00000000E+00
  9.30000000E+02  6.20000000E+01  0.00000000E+00
  9.40000000E+02  6.20000000E+01  0.00000000E+00
  9.50000000E+02  6.20000000E+01  0.00000000E+00
  9.60000000E+02  6.20000000E+01  0.00000000E+00
  9.70000000E+02  6.20000000E+01  0.00000000E+00
  9.80000000E+02  6.20000000E+01  0.00000000E+00
  9.90000000E+02  6.20000000E+01  0.00000000E+00
  1.00000000E+03  6.20000000E+01  0.00000000E+00
  0.00000000E+00  6.40000000E+01  0.00000000E+00
  1.00000000E+01  6.40000000E+01  0.00000000E+00
  2.00000000E+01  6.40000000E+01  0.00000000E+00
  3.00000000E+01  6.40000000E+01  0.00000000E+00
  4.00000000E+01  6.40000000E+01  0.00000000E+00
  5.00000000E+01  6.40000000E+01  0.00000000E+00
  6.00000000E+01  6.40000000E+01  0.00000000E+00
  7.00000000E+01  6.40000000E+01  0.00000000E+00
  8.00000000E+01  6.40000000E+01  0.00000000E+00
  9.00000000E+01  6.40000000E+01  0.00000000E+00
  1.00000000E+02  6.40000000E+01  0.00000000E+00
  1.10000000E+02  6.40000000E+01  0.00000000E+00
  1.20000000E+02  6.40000000E+01  0.00000000E+00
  1.30000000E+02  6.40000000E+01  0.00000000E+00
  1.40000000E+02  6.40000000E+01  0.00000000E+00
  1.50000000E+02  6.40000000E+01  0.00000000E+00
  1.60000000E+02  6.40000000E+01  0.00000000E+00
  1.70000000E+02  6.40000000E+01  0.00000000E+00
  1.80000000E+02  6.40000000E+01  0.00000000E+00
  1.90000000E+02  6.40000000E+01  0.00000000E+00
  2.00000000E+02  6.40000000E+01  0.00000000E+00
  2.10000000E+02  6.40000000E+01  0.00000000E+00
  2.20000000E+02  6.40000000E+01  0.00000000E+00
  2.30000000E+02  6.40000000E+01  0.00000000E+00
  2.40000000E+02  6.40000000E+01  0.00000000E+00
  2.50000000E+02  6.40000000E+01  0.00000000E+00
  2.60000000E+02  6.40000000E+01  0.00000000E+00
  2.70000000E+02  6.40000000E+01  0.00000000E+00
  2.80000000E+02  6.40000000E+01  0.00000000E+00
  2.90000000E+02  6.40000000E+01  0.00000000E+00
  3.00000000E+02  6.40000000E+01  0.00000000E+00
  3.10000000E+02  6.40000000E+01  0.00000000E+00
  3.20000000E+02  6.40000000E+01  0.00000000E+00
  3.30000000E+02  6.40000000E+01  0.00000000E+00
  3.40000000E+02  6.40000000E+01  0.00000000E+00
  3.50000000E+02  6.40000000E+01  0.00000000E+00
  3.60000000E+02  6.40000000E+01  0.00000000E+00
  3.70000000E+02  6.40000000E+01  0.00000000E+00
  3.80000000E+02  6.40000000E+01  0.00000000E+00
  3.90000000E+02  6.40000000E+01  0.00000000E+00
  4.00000000E+02  6.40000000E+01  0.00000000E+00
  4.10000000E+02  6.40000000E+01  0.00000000E+00
  4.20000000E+02  6.40000000E+01  0.00000000E+00
  4.30000000E+02  6.40000000E+01  0.00000000E+00
  4.40000000E+02  6.40000000E+01  0.00000000E+00
  4.50000000E+02  6.40000000E+01  0.00000000E+00
  4.60000000E+02  6.40000000E+01  0.00000000E+00
  4.70000000E+02  6.40000000E+01  0.00000000E+00
  4.80000000E+02  6.40000000E+01  0.00000000E+00
  4.90000000E+02  6.40000000E+01  0.00000000E+00
  5.00000000E+02  6.40000000E+01  0.00000000E+00
  5.10000000E+02  6.40000000E+01  0.00000000E+00
  5.20000000E+02  6.40000000E+01  0.00000000E+00
  5.30000000E+02  6.40000000E+01  0.00000000E+00
  5.40000000E+02  6.40000000E+01  0.00000000E+00
  5.50000000E+02  6.40000000E+01  0.00000000E+00
  5.60000000E+02  6.40000000E+01  0.00000000E+00
  5.70000000E+02  6.40000000E+01  0.00000000E+00
  5.80000000E+02  6.40000000E+01  0.00000000E+00
  5.90000000E+02  6.40000000E+01  0.00000000E+00
  6.00000000E+02  6.40000000E+01  0.00000000E+00
  6.10000000E+02  6.40000000E+01  0.00000000E+00
  6.20000000E+02  6.40000000E+01  0.00000000E+00
  6.30000000E+02  6.40000000E+01  0.00000000E+00
  6.40000000E+02  6.40000000E+01  0.00000000E+00
  6.50000000E+02  6.40000000E+01  0.00000000E+00
  6.60000000E+02  6.40000000E+01  0.00000000E+00
  6.70000000E+02  6.40000000E+01  0.00000000E+00
  6.80000000E+02  6.40000000E+01  0.00000000E+00
  6.90000000E+02  6.40000000E+01  0.00000000E+00
  7.00000000E+02  6.40000000E+01  0.00000000E+00
  7.10000000E+02  6.40000000E+01  0.00000000E+00
  7.20000000E+02  6.40000000E+01  0.00000000E+00
  7.30000000E+02  6.40000000E+01  0.00000000E+00
  7.40000000E+02  6.40000000E+01  0.00000000E+00
  7.50000000E+02  6.40000000E+01  0.00000000E+00
  7.60000000E+02  6.40000000E+01  0.00000000E+00
  7.70000000E+02  6.40000000E+01  0.00000000E+00
  7.80000000E+02  6.40000000E+01  0.00000000E+00
  7.90000000E+02  6.40000000E+01  0.00000000E+00
  8.00000000E+02  6.40000000E+01  0.00000000E+00
  8.10000000E+02  6.40000000E+01  0.00000000E+00
  8.20000000E+02  6.40000000E+01  0.00000000E+00
  8.30000000E+02  6.40000000E+01  0.00000000E+00
  8.40000000E+02  6.40000000E+01  0.00000000E+00
  8.50000000E+02  6.40000000E+01  0.00000000E+00
  8.60000000E+02  6.40000000E+01  0.00000000E+00
  8.70000000E+02  6.40000000E+01  0.00000000E+00
  8.80000000E+02  6.40000000E+01  0.00000000E+00
  8.90000000E+02  6.40000000E+01  0.00000000E+00
  9.00000000E+02  6.40000000E+01  0.00000000E+00
  9.10000000E+02  6.40000000E+01  0.00000000E+00
  9.20000000E+02  6.40000000E+01  0.00000000E+00
  9.30000000E+02  6.40000000E+01  0.00000000E+00
  9.40000000E+02  6.40000000E+01  0.00000000E+00
  9.50000000E+02  6.40000000E+01  0.00000000E+00
  9.60000000E+02  6.40000000E+01  0.00000000E+00
  9.70000000E+02  6.40000000E+01  0.00000000E+00
  9.80000000E+02  6.40000000E+01  0.00000000E+00
  9.90000000E+02  6.40000000E+01  0.00000000E+00
  1.00000000E+03  6.40000000E+01  0.00000000E+00
  0.00000000E+00  6.60000000E+01  0.00000000E+00
  1.00000000E+01  6.60000000E+01  0.00000000E+00
  2.00000000E+01  6.60000000E+01  0.00000000E+00
  3.00000000E+01  6.60000000E+01  0.00000000E+00
  4.00000000E+01  6.60000000E+01  0.00000000E+00
  5.00000000E+01  6.60000000E+01  0.00000000E+00
  6.00000000E+01  6.60000000E+01  0.00000000E+00
  7.00000000E+01  6.60000000E+01  0.00000000E+00
  8.00000000E+01  6.60000000E+01  0.00000000E+00
  9.00000000E+01  6.60000000E+01  0.00000000E+00
  1.00000000E+02  6.60000000E+01  0.00000000E+00
  1.10000000E+02  6.60000000E+01  0.00000000E+00
  1.20000000E+02  6.60000000E+01  0.00000000E+00
  1.30000000E+02  6.60000000E+01  0.00000000E+00
  1.40000000E+02  6.60000000E+01  0.00000000E+00
  1.50000000E+02  6.60000000E+01  0.00000000E+00
  1.60000000E+02  6.60000000E+01  0.00000000E+00
  1.70000000E+02  6.60000000E+01  0.00000000E+00
  1.80000000E+02  6.60000000E+01  0.00000000E+00
  1.90000000E+02  6.60000000E+01  0.00000000E+00
  2.00000000E+02  6.60000000E+01  0.00000000E+00
  2.10000000E+02  6.60000000E+01  0.00000000E+00
  2.20000000E+02  6.60000000E+01  0.00000000E+00
  2.30000000E+02  6.60000000E+01  0.00000000E+00
  2.40000000E+02  6.60000000E+01  0.00000000E+00
  2.50000000E+02  6.60000000E+01  0.00000000E+00
  2.60000000E+02  6.60000000E+01  0.00000000E+00
  2.70000000E+02  6.60000000E+01  0.00000000E+00
  2.80000000E+02  6.60000000E+01  0.00000000E+00
  2.90000000E+02  6.60000000E+01  0.00000000E+00
  3.00000000E+02  6.60000000E+01  0.00000000E+00
  3.10000000E+02  6.60000000E+01  0.00000000E+00
  3.20000000E+02  6.60000000E+01  0.00000000E+00
  3.30000000E+02  6.60000000E+01  0.00000000E+00
  3.40000000E+02  6.60000000E+01  0.00000000E+00
  3.50000000E+02  6.60000000E+01  0.00000000E+00
  3.60000000E+02  6.60000000E+01  0.00000000E+00
  3.70000000E+02  6.60000000E+01  0.00000000E+00
  3.80000000E+02  6.60000000E+01  0.00000000E+00
  3.90000000E+02  6.60000000E+01  0.00000000E+00
  4.00000000E+02  6.60000000E+01  0.00000000E+00
  4.10000000E+02  6.60000000E+01  0.00000000E+00
  4.20000000E+02  6.60000000E+01  0.00000000E+00
  4.30000000E+02  6.60000000E+01  0.00000000E+00
  4.40000000E+02  6.60000000E+01  0.00000000E+00
  4.50000000E+02  6.60000000E+01  0.00000000E+00
  4.60000000E+02  6.60000000E+01  0.00000000E+00
  4.70000000E+02  6.60000000E+01  0.00000000E+00
  4.80000000E+02  6.60000000E+01  0.00000000E+00
  4.90000000E+02  6.60000000E+01  0.00000000E+00
  5.00000000E+02  6.60000000E+01  0.00000000E+00
  5.10000000E+02  6.60000000E+01  0.00000000E+00
  5.20000000E+02  6.60000000E+01  0.00000000E+00
  5.30000000E+02  6.60000000E+01  0.00000000E+00
  5.40000000E+02  6.60000000E+01  0.00000000E+00
  5.50000000E+02  6.60000000E+01  0.00000000E+00
  5.60000000E+02  6.60000000E+01  0.00000000E+00
  5.70000000E+02  6.60000000E+01  0.00000000E+00
  5.80000000E+02  6.60000000E+01  0.00000000E+00
  5.90000000E+02  6.60000000E+01  0.00000000E+00
  6.00000000E+02  6.60000000E+01  0.00000000E+00
  6.10000000E+02  6.60000000E+01  0.00000000E+00
  6.20000000E+02  6.60000000E+01  0.00000000E+00
  6.30000000E+02  6.60000000E+01  0.00000000E+00
  6.40000000E+02  6.60000000E+01  0.00000000E+00
  6.50000000E+02  6.60000000E+01  0.00000000E+00
  6.60000000E+02  6.60000000E+01  0.00000000E+00
  6.70000000E+02  6.60000000E+01  0.00000000E+00
  6.80000000E+02  6.60000000E+01  0.00000000E+00
  6.90000000E+02  6.60000000E+01  0.00000000E+00
  7.00000000E+02  6.60000000E+01  0.00000000E+00
  7.10000000E+02  6.60000000E+01  0.00000000E+00
  7.20000000E+02  6.60000000E+01  0.00000000E+00
  7.30000000E+02  6.60000000E+01  0.00000000E+00
  7.40000000E+02  6.60000000E+01  0.00000000E+00
  7.50000000E+02  6.60000000E+01  0.00000000E+00
  7.60000000E+02  6.60000000E+01  0.00000000E+00
  7.70000000E+02  6.60000000E+01  0.00000000E+00
  7.80000000E+02  6.60000000E+01  0.00000000E+00
  7.90000000E+02  6.60000000E+01  0.00000000E+00
  8.00000000E+02  6.60000000E+01  0.00000000E+00
  8.10000000E+02  6.60000000E+01  0.00000000E+00
  8.20000000E+02  6.60000000E+01  0.00000000E+00
  8.30000000E+02  6.60000000E+01  0.00000000E+00
  8.40000000E+02  6.60000000E+01  0.00000000E+00
  8.50000000E+02  6.60000000E+01  0.00000000E+00
  8.60000000E+02  6.60000000E+01  0.00000000E+00
  8.70000000E+02  6.60000000E+01  0.00000000E+00
  8.80000000E+02  6.60000000E+01  0.00000000E+00
  8.90000000E+02  6.60000000E+01  0.00000000E+00
  9.00000000E+02  6.60000000E+01  0.00000000E+00
  9.10000000E+02  6.60000000E+01  0.00000000E+00
  9.20000000E+02  6.60000000E+01  0.00000000E+00
  9.30000000E+02  6.60000000E+01  0.00000000E+00
  9.40000000E+02  6.60000000E+01  0.00000000E+00
  9.50000000E+02  6.60000000E+01  0.00000000E+00
  9.60000000E+02  6.60000000E+01  0.00000000E+00
  9.70000000E+02  6.60000000E+01  0.00000000E+00
  9.80000000E+02  6.60000000E+01  0.00000000E+00
  9.90000000E+02  6.60000000E+01  0.00000000E+00
  1.00000000E+03  6.60000000E+01  0.00000000E+00
  0.00000000E+00  6.80000000E+01  0.00000000E+00
  1.00000000E+01  6.80000000E+01  0.00000000E+00
  2.00000000E+01  6.80000000E+01  0.00000000E+00
  3.00000000E+01  6.80000000E+01  0.00000000E+00
  4.00000000E+01  6.80000000E+01  0.00000000E+00
  5.00000000E+01  6.80000000E+01  0.00000000E+00
  6.00000000E+01  6.80000000E+01  0.00000000E+00
  7.00000000E+01  6.80000000E+01  0.00000000E+00
  8.00000000E+01  6.80000000E+01  0.00000000E+00
  9.00000000E+01  6.80000000E+01  0.00000000E+00
  1.00000000E+02  6.80000000E+01  0.00000000E+00
  1.10000000E+02  6.80000000E+01  0.00000000E+00
  1.20000000E+02  6.80000000E+01  0.00000000E+00
  1.30000000E+02  6.80000000E+01  0.00000000E+00
  1.40000000E+02  6.80000000E+01  0.00000000E+00
  1.50000000E+02  6.80000000E+01  0.00000000E+00
  1.60000000E+02  6.80000000E+01  0.00000000E+00
  1.70000000E+02  6.80000000E+01  0.00000000E+00
  1.80000000E+02  6.80000000E+01  0.00000000E+00
  1.90000000E+02  6.80000000E+01  0.00000000E+00
  2.00000000E+02  6.80000000E+01  0.00000000E+00
  2.10000000E+02  6.80000000E+01  0.00000000E+00
  2.20000000E+02  6.80000000E+01  0.00000000E+00
  2.30000000E+02  6.80000000E+01  0.00000000E+00
  2.40000000E+02  6.80000000E+01  0.00000000E+00
  2.50000000E+02  6.80000000E+01  0.00000000E+00
  2.60000000E+02  6.80000000E+01  0.00000000E+00
  2.70000000E+02  6.80000000E+01  0.00000000E+00
  2.80000000E+02  6.80000000E+01  0.00000000E+00
  2.90000000E+02  6.80000000E+01  0.00000000E+00
  3.00000000E+02  6.80000000E+01  0.00000000E+00
  3.10000000E+02  6.80000000E+01  0.00000000E+00
  3.20000000E+02  6.80000000E+01  0.00000000E+00
  3.30000000E+02  6.80000000E+01  0.00000000E+00
  3.40000000E+02  6.80000000E+01  0.00000000E+00
  3.50000000E+02  6.80000000E+01  0.00000000E+00
  3.60000000E+02  6.80000000E+01  0.00000000E+00
  3.70000000E+02  6.80000000E+01  0.00000000E+00
  3.80000000E+02  6.80000000E+01  0.00000000E+00
  3.90000000E+02  6.80000000E+01  0.00000000E+00
  4.00000000E+02  6.80000000E+01  0.00000000E+00
  4.10000000E+02  6.80000000E+01  0.00000000E+00
  4.20000000E+02  6.80000000E+01  0.00000000E+00
  4.30000000E+02  6.80000000E+01  0.00000000E+00
  4.40000000E+02  6.80000000E+01  0.00000000E+00
  4.50000000E+02  6.80000000E+01  0.00000000E+00
  4.60000000E+02  6.80000000E+01  0.00000000E+00
  4.70000000E+02  6.80000000E+01  0.00000000E+00
  4.80000000E+02  6.80000000E+01  0.00000000E+00
  4.90000000E+02  6.80000000E+01  0.00000000E+00
  5.00000000E+02  6.80000000E+01  0.00000000E+00
  5.10000000E+02  6.80000000E+01  0.00000000E+00
  5.20000000E+02  6.80000000E+01  0.00000000E+00
  5.30000000E+02  6.80000000E+01  0.00000000E+00
  5.40000000E+02  6.80000000E+01  0.00000000E+00
  5.50000000E+02  6.80000000E+01  0.00000000E+00
  5.60000000E+02  6.80000000E+01  0.00000000E+00
  5.70000000E+02  6.80000000E+01  0.00000000E+00
  5.80000000E+02  6.80000000E+01  0.00000000E+00
  5.90000000E+02  6.80000000E+01  0.00000000E+00
  6.00000000E+02  6.80000000E+01  0.00000000E+00
  6.10000000E+02  6.80000000E+01  0.00000000E+00
  6.20000000E+02  6.80000000E+01  0.00000000E+00
  6.30000000E+02  6.80000000E+01  0.00000000E+00
  6.40000000E+02  6.80000000E+01  0.00000000E+00
  6.50000000E+02  6.80000000E+01  0.00000000E+00
  6.60000000E+02  6.80000000E+01  0.00000000E+00
  6.70000000E+02  6.80000000E+01  0.00000000E+00
  6.80000000E+02  6.80000000E+01  0.00000000E+00
  6.90000000E+02  6.80000000E+01  0.00000000E+00
  7.00000000E+02  6.80000000E+01  0.00000000E+00
  7.10000000E+02  6.80000000E+01  0.00000000E+00
  7.20000000E+02  6.80000000E+01  0.00000000E+00
  7.30000000E+02  6.80000000E+01  0.00000000E+00
  7.40000000E+02  6.80000000E+01  0.00000000E+00
  7.50000000E+02  6.80000000E+01  0.00000000E+00
  7.60000000E+02  6.80000000E+01  0.00000000E+00
  7.70000000E+02  6.80000000E+01  0.00000000E+00
  7.80000000E+02  6.80000000E+01  0.00000000E+00
  7.90000000E+02  6.80000000E+01  0.00000000E+00
  8.00000000E+02  6.80000000E+01  0.00000000E+00
  8.10000000E+02  6.80000000E+01  0.00000000E+00
  8.20000000E+02  6.80000000E+01  0.00000000E+00
  8.30000000E+02  6.80000000E+01  0.00000000E+00
  8.40000000E+02  6.80000000E+01  0.00000000E+00
  8.50000000E+02  6.80000000E+01  0.00000000E+00
  8.60000000E+02  6.80000000E+01  0.00000000E+00
  8.70000000E+02  6.80000000E+01  0.00000000E+00
  8.80000000E+02  6.80000000E+01  0.00000000E+00
  8.90000000E+02  6.80000000E+01  0.00000000E+00
  9.00000000E+02  6.80000000E+01  0.00000000E+00
  9.10000000E+02  6.80000000E+01  0.00000000E+00
  9.20000000E+02  6.80000000E+01  0.00000000E+00
  9.30000000E+02  6.80000000E+01  0.00000000E+00
  9.40000000E+02  6.80000000E+01  0.00000000E+00
  9.50000000E+02  6.80000000E+01  0.00000000E+00
  9.60000000E+02  6.80000000E+01  0.00000000E+00
  9.70000000E+02  6.80000000E+01  0.00000000E+00
  9.80000000E+02  6.80000000E+01  0.00000000E+00
  9.90000000E+02  6.80000000E+01  0.00000000E+00
  1.00000000E+03  6.80000000E+01  0.00000000E+00
  0.00000000E+00  7.00000000E+01  0.00000000E+00
  1.00000000E+01  7.00000000E+01  0.00000000E+00
  2.00000000E+01  7.00000000E+01  0.00000000E+00
  3.00000000E+01  7.00000000E+01  0.00000000E+00
  4.00000000E+01  7.00000000E+01  0.00000000E+00
  5.00000000E+01  7.00000000E+01  0.00000000E+00
  6.00000000E+01  7.00000000E+01  0.00000000E+00
  7.00000000E+01  7.00000000E+01  0.00000000E+00
  8.00000000E+01  7.00000000E+01  0.00000000E+00
  9.00000000E+01  7.00000000E+01  0.00000000E+00
  1.00000000E+02  7.00000000E+01  0.00000000E+00
  1.10000000E+02  7.00000000E+01  0.00000000E+00
  1.20000000E+02  7.00000000E+01  0.00000000E+00
  1.30000000E+02  7.00000000E+01  0.00000000E+00
  1.40000000E+02  7.00000000E+01  0.00000000E+00
  1.50000000E+02  7.00000000E+01  0.00000000E+00
  1.60000000E+02  7.00000000E+01  0.00000000E+00
  1.70000000E+02  7.00000000E+01  0.00000000E+00
  1.80000000E+02  7.00000000E+01  0.00000000E+00
  1.90000000E+02  7.00000000E+01  0.00000000E+00
  2.00000000E+02  7.00000000E+01  0.00000000E+00
  2.10000000E+02  7.00000000E+01  0.00000000E+00
  2.20000000E+02  7.00000000E+01  0.00000000E+00
  2.30000000E+02  7.00000000E+01  0.00000000E+00
  2.40000000E+02  7.00000000E+01  0.00000000E+00
  2.50000000E+02  7.00000000E+01  0.00000000E+00
  2.60000000E+02  7.00000000E+01  0.00000000E+00
  2.70000000E+02  7.00000000E+01  0.00000000E+00
  2.80000000E+02  7.00000000E+01  0.00000000E+00
  2.90000000E+02  7.00000000E+01  0.00000000E+00
  3.00000000E+02  7.00000000E+01  0.00000000E+00
  3.10000000E+02  7.00000000E+01  0.00000000E+00
  3.20000000E+02  7.00000000E+01  0.00000000E+00
  3.30000000E+02  7.00000000E+01  0.00000000E+00
  3.40000000E+02  7.00000000E+01  0.00000000E+00
  3.50000000E+02  7.00000000E+01  0.00000000E+00
  3.60000000E+02  7.00000000E+01  0.00000000E+00
  3.70000000E+02  7.00000000E+01  0.00000000E+00
  3.80000000E+02  7.00000000E+01  0.00000000E+00
  3.90000000E+02  7.00000000E+01  0.00000000E+00
  4.00000000E+02  7.00000000E+01  0.00000000E+00
  4.10000000E+02  7.00000000E+01  0.00000000E+00
  4.20000000E+02  7.00000000E+01  0.00000000E+00
  4.30000000E+02  7.00000000E+01  0.00000000E+00
  4.40000000E+02  7.00000000E+01  0.00000000E+00
  4.50000000E+02  7.00000000E+01  0.00000000E+00
  4.60000000E+02  7.00000000E+01  0.00000000E+00
  4.70000000E+02  7.00000000E+01  0.00000000E+00
  4.80000000E+02  7.00000000E+01  0.00000000E+00
  4.90000000E+02  7.00000000E+01  0.00000000E+00
  5.00000000E+02  7.00000000E+01  0.00000000E+00
  5.10000000E+02  7.00000000E+01  0.00000000E+00
  5.20000000E+02  7.00000000E+01  0.00000000E+00
  5.30000000E+02  7.00000000E+01  0.00000000E+00
  5.40000000E+02  7.00000000E+01  0.00000000E+00
  5.50000000E+02  7.00000000E+01  0.00000000E+00
  5.60000000E+02  7.00000000E+01  0.00000000E+00
  5.70000000E+02  7.00000000E+01  0.00000000E+00
  5.80000000E+02  7.00000000E+01  0.00000000E+00
  5.90000000E+02  7.00000000E+01  0.00000000E+00
  6.00000000E+02  7.00000000E+01  0.00000000E+00
  6.10000000E+02  7.00000000E+01  0.00000000E+00
  6.20000000E+02  7.00000000E+01  0.00000000E+00
  6.30000000E+02  7.00000000E+01  0.00000000E+00
  6.40000000E+02  7.00000000E+01  0.00000000E+00
  6.50000000E+02  7.00000000E+01  0.00000000E+00
  6.60000000E+02  7.00000000E+01  0.00000000E+00
  6.70000000E+02  7.00000000E+01  0.00000000E+00
  6.80000000E+02  7.00000000E+01  0.00000000E+00
  6.90000000E+02  7.00000000E+01  0.00000000E+00
  7.00000000E+02  7.00000000E+01  0.00000000E+00
  7.10000000E+02  7.00000000E+01  0.00000000E+00
  7.20000000E+02  7.00000000E+01  0.00000000E+00
  7.30000000E+02  7.00000000E+01  0.00000000E+00
  7.40000000E+02  7.00000000E+01  0.00000000E+00
  7.50000000E+02  7.00000000E+01  0.00000000E+00
  7.60000000E+02  7.00000000E+01  0.00000000E+00
  7.70000000E+02  7.00000000E+01  0.00000000E+00
  7.80000000E+02  7.00000000E+01  0.00000000E+00
  7.90000000E+02  7.00000000E+01  0.00000000E+00
  8.00000000E+02  7.00000000E+01  0.00000000E+00
  8.10000000E+02  7.00000000E+01  0.00000000E+00
  8.20000000E+02  7.00000000E+01  0.00000000E+00
  8.30000000E+02  7.00000000E+01  0.00000000E+00
  8.40000000E+02  7.00000000E+01  0.00000000E+00
  8.50000000E+02  7.00000000E+01  0.00000000E+00
  8.60000000E+02  7.00000000E+01  0.00000000E+00
  8.70000000E+02  7.00000000E+01  0.00000000E+00
  8.80000000E+02  7.00000000E+01  0.00000000E+00
  8.90000000E+02  7.00000000E+01  0.00000000E+00
  9.00000000E+02  7.00000000E+01  0.00000000E+00
  9.10000000E+02  7.00000000E+01  0.00000000E+00
  9.20000000E+02  7.00000000E+01  0.00000000E+00
  9.30000000E+02  7.00000000E+01  0.00000000E+00
  9.40000000E+02  7.00000000E+01  0.00000000E+00
  9.50000000E+02  7.00000000E+01  0.00000000E+00
  9.60000000E+02  7.00000000E+01  0.00000000E+00
  9.70000000E+02  7.00000000E+01  0.00000000E+00
  9.80000000E+02  7.00000000E+01  0.00000000E+00
  9.90000000E+02  7.00000000E+01  0.00000000E+00
  1.00000000E+03  7.00000000E+01  0.00000000E+00
  0.00000000E+00  7.20000000E+01  0.00000000E+00
  1.00000000E+01  7.20000000E+01  0.00000000E+00
  2.00000000E+01  7.20000000E+01  0.00000000E+00
  3.00000000E+01  7.20000000E+01  0.00000000E+00
  4.00000000E+01  7.20000000E+01  0.00000000E+00
  5.00000000E+01  7.20000000E+01  0.00000000E+00
  6.00000000E+01  7.20000000E+01  0.00000000E+00
  7.00000000E+01  7.20000000E+01  0.00000000E+00
  8.00000000E+01  7.20000000E+01  0.00000000E+00
  9.00000000E+01  7.20000000E+01  0.00000000E+00
  1.00000000E+02  7.20000000E+01  0.00000000E+00
  1.10000000E+02  7.20000000E+01  0.00000000E+00
  1.20000000E+02  7.20000000E+01  0.00000000E+00
  1.30000000E+02  7.20000000E+01  0.00000000E+00
  1.40000000E+02  7.20000000E+01  0.00000000E+00
  1.50000000E+02  7.20000000E+01  0.00000000E+00
  1.60000000E+02  7.20000000E+01  0.00000000E+00
  1.70000000E+02  7.20000000E+01  0.00000000E+00
  1.80000000E+02  7.20000000E+01  0.00000000E+00
  1.90000000E+02  7.20000000E+01  0.00000000E+00
  2.00000000E+02  7.20000000E+01  0.00000000E+00
  2.10000000E+02  7.20000000E+01  0.00000000E+00
  2.20000000E+02  7.20000000E+01  0.00000000E+00
  2.30000000E+02  7.20000000E+01  0.00000000E+00
  2.40000000E+02  7.20000000E+01  0.00000000E+00
  2.50000000E+02  7.20000000E+01  0.00000000E+00
  2.60000000E+02  7.20000000E+01  0.00000000E+00
  2.70000000E+02  7.20000000E+01  0.00000000E+00
  2.80000000E+02  7.20000000E+01  0.00000000E+00
  2.90000000E+02  7.20000000E+01  0.00000000E+00
  3.00000000E+02  7.20000000E+01  0.00000000E+00
  3.10000000E+02  7.20000000E+01  0.00000000E+00
  3.20000000E+02  7.20000000E+01  0.00000000E+00
  3.30000000E+02  7.20000000E+01  0.00000000E+00
  3.40000000E+02  7.20000000E+01  0.00000000E+00
  3.50000000E+02  7.20000000E+01  0.00000000E+00
  3.60000000E+02  7.20000000E+01  0.00000000E+00
  3.70000000E+02  7.20000000E+01  0.00000000E+00
  3.80000000E+02  7.20000000E+01  0.00000000E+00
  3.90000000E+02  7.20000000E+01  0.00000000E+00
  4.00000000E+02  7.20000000E+01  0.00000000E+00
  4.10000000E+02  7.20000000E+01  0.00000000E+00
  4.20000000E+02  7.20000000E+01  0.00000000E+00
  4.30000000E+02  7.20000000E+01  0.00000000E+00
  4.40000000E+02  7.20000000E+01  0.00000000E+00
  4.50000000E+02  7.20000000E+01  0.00000000E+00
  4.60000000E+02  7.20000000E+01  0.00000000E+00
  4.70000000E+02  7.20000000E+01  0.00000000E+00
  4.80000000E+02  7.20000000E+01  0.00000000E+00
  4.90000000E+02  7.20000000E+01  0.00000000E+00
  5.00000000E+02  7.20000000E+01  0.00000000E+00
  5.10000000E+02  7.20000000E+01  0.00000000E+00
  5.20000000E+02  7.20000000E+01  0.00000000E+00
  5.30000000E+02  7.20000000E+01  0.00000000E+00
  5.40000000E+02  7.20000000E+01  0.00000000E+00
  5.50000000E+02  7.20000000E+01  0.00000000E+00
  5.60000000E+02  7.20000000E+01  0.00000000E+00
  5.70000000E+02  7.20000000E+01  0.00000000E+00
  5.80000000E+02  7.20000000E+01  0.00000000E+00
  5.90000000E+02  7.20000000E+01  0.00000000E+00
  6.00000000E+02  7.20000000E+01  0.00000000E+00
  6.10000000E+02  7.20000000E+01  0.00000000E+00
  6.20000000E+02  7.20000000E+01  0.00000000E+00
  6.30000000E+02  7.20000000E+01  0.00000000E+00
  6.40000000E+02  7.20000000E+01  0.00000000E+00
  6.50000000E+02  7.20000000E+01  0.00000000E+00
  6.60000000E+02  7.20000000E+01  0.00000000E+00
  6.70000000E+02  7.20000000E+01  0.00000000E+00
  6.80000000E+02  7.20000000E+01  0.00000000E+00
  6.90000000E+02  7.20000000E+01  0.00000000E+00
  7.00000000E+02  7.20000000E+01  0.00000000E+00
  7.10000000E+02  7.20000000E+01  0.00000000E+00
  7.20000000E+02  7.20000000E+01  0.00000000E+00
  7.30000000E+02  7.20000000E+01  0.00000000E+00
  7.40000000E+02  7.20000000E+01  0.00000000E+00
  7.50000000E+02  7.20000000E+01  0.00000000E+00
  7.60000000E+02  7.20000000E+01  0.00000000E+00
  7.70000000E+02  7.20000000E+01  0.00000000E+00
  7.80000000E+02  7.20000000E+01  0.00000000E+00
  7.90000000E+02  7.20000000E+01  0.00000000E+00
  8.00000000E+02  7.20000000E+01  0.00000000E+00
  8.10000000E+02  7.20000000E+01  0.00000000E+00
  8.20000000E+02  7.20000000E+01  0.00000000E+00
  8.30000000E+02  7.20000000E+01  0.00000000E+00
  8.40000000E+02  7.20000000E+01  0.00000000E+00
  8.50000000E+02  7.20000000E+01  0.00000000E+00
  8.60000000E+02  7.20000000E+01  0.00000000E+00
  8.70000000E+02  7.20000000E+01  0.00000000E+00
  8.80000000E+02  7.20000000E+01  0.00000000E+00
  8.90000000E+02  7.20000000E+01  0.00000000E+00
  9.00000000E+02  7.20000000E+01  0.00000000E+00
  9.10000000E+02  7.20000000E+01  0.00000000E+00
  9.20000000E+02  7.20000000E+01  0.00000000E+00
  9.30000000E+02  7.20000000E+01  0.00000000E+00
  9.40000000E+02  7.20000000E+01  0.00000000E+00
  9.50000000E+02  7.20000000E+01  0.00000000E+00
  9.60000000E+02  7.20000000E+01  0.00000000E+00
  9.70000000E+02  7.20000000E+01  0.00000000E+00
  9.80000000E+02  7.20000000E+01  0.00000000E+00
  9.90000000E+02  7.20000000E+01  0.00000000E+00
  1.00000000E+03  7.20000000E+01  0.00000000E+00
  0.00000000E+00  7.40000000E+01  0.00000000E+00
  1.00000000E+01  7.40000000E+01  0.00000000E+00
  2.00000000E+01  7.40000000E+01  0.00000000E+00
  3.00000000E+01  7.40000000E+01  0.00000000E+00
  4.00000000E+01  7.40000000E+01  0.00000000E+00
  5.00000000E+01  7.40000000E+01  0.00000000E+00
  6.00000000E+01  7.40000000E+01  0.00000000E+00
  7.00000000E+01  7.40000000E+01  0.00000000E+00
  8.00000000E+01  7.40000000E+01  0.00000000E+00
  9.00000000E+01  7.40000000E+01  0.00000000E+00
  1.00000000E+02  7.40000000E+01  0.00000000E+00
  1.10000000E+02  7.40000000E+01  0.00000000E+00
  1.20000000E+02  7.40000000E+01  0.00000000E+00
  1.30000000E+02  7.40000000E+01  0.00000000E+00
  1.40000000E+02  7.40000000E+01  0.00000000E+00
  1.50000000E+02  7.40000000E+01  0.00000000E+00
  1.60000000E+02  7.40000000E+01  0.00000000E+00
  1.70000000E+02  7.40000000E+01  0.00000000E+00
  1.80000000E+02  7.40000000E+01  0.00000000E+00
  1.90000000E+02  7.40000000E+01  0.00000000E+00
  2.00000000E+02  7.40000000E+01  0.00000000E+00
  2.10000000E+02  7.40000000E+01  0.00000000E+00
  2.20000000E+02  7.40000000E+01  0.00000000E+00
  2.30000000E+02  7.40000000E+01  0.00000000E+00
  2.40000000E+02  7.40000000E+01  0.00000000E+00
  2.50000000E+02  7.40000000E+01  0.00000000E+00
  2.60000000E+02  7.40000000E+01  0.00000000E+00
  2.70000000E+02  7.40000000E+01  0.00000000E+00
  2.80000000E+02  7.40000000E+01  0.00000000E+00
  2.90000000E+02  7.40000000E+01  0.00000000E+00
  3.00000000E+02  7.40000000E+01  0.00000000E+00
  3.10000000E+02  7.40000000E+01  0.00000000E+00
  3.20000000E+02  7.40000000E+01  0.00000000E+00
  3.30000000E+02  7.40000000E+01  0.00000000E+00
  3.40000000E+02  7.40000000E+01  0.00000000E+00
  3.50000000E+02  7.40000000E+01  0.00000000E+00
  3.60000000E+02  7.40000000E+01  0.00000000E+00
  3.70000000E+02  7.40000000E+01  0.00000000E+00
  3.80000000E+02  7.40000000E+01  0.00000000E+00
  3.90000000E+02  7.40000000E+01  0.00000000E+00
  4.00000000E+02  7.40000000E+01  0.00000000E+00
  4.10000000E+02  7.40000000E+01  0.00000000E+00
  4.20000000E+02  7.40000000E+01  0.00000000E+00
  4.30000000E+02  7.40000000E+01  0.00000000E+00
  4.40000000E+02  7.40000000E+01  0.00000000E+00
  4.50000000E+02  7.40000000E+01  0.00000000E+00
  4.60000000E+02  7.40000000E+01  0.00000000E+00
  4.70000000E+02  7.40000000E+01  0.00000000E+00
  4.80000000E+02  7.40000000E+01  0.00000000E+00
  4.90000000E+02  7.40000000E+01  0.00000000E+00
  5.00000000E+02  7.40000000E+01  0.00000000E+00
  5.10000000E+02  7.40000000E+01  0.00000000E+00
  5.20000000E+02  7.40000000E+01  0.00000000E+00
  5.30000000E+02  7.40000000E+01  0.00000000E+00
  5.40000000E+02  7.40000000E+01  0.00000000E+00
  5.50000000E+02  7.40000000E+01  0.00000000E+00
  5.60000000E+02  7.40000000E+01  0.00000000E+00
  5.70000000E+02  7.40000000E+01  0.00000000E+00
  5.80000000E+02  7.40000000E+01  0.00000000E+00
  5.90000000E+02  7.40000000E+01  0.00000000E+00
  6.00000000E+02  7.40000000E+01  0.00000000E+00
  6.10000000E+02  7.40000000E+01  0.00000000E+00
  6.20000000E+02  7.40000000E+01  0.00000000E+00
  6.30000000E+02  7.40000000E+01  0.00000000E+00
  6.40000000E+02  7.40000000E+01  0.00000000E+00
  6.50000000E+02  7.40000000E+01  0.00000000E+00
  6.60000000E+02  7.40000000E+01  0.00000000E+00
  6.70000000E+02  7.40000000E+01  0.00000000E+00
  6.80000000E+02  7.40000000E+01  0.00000000E+00
  6.90000000E+02  7.40000000E+01  0.00000000E+00
  7.00000000E+02  7.40000000E+01  0.00000000E+00
  7.10000000E+02  7.40000000E+01  0.00000000E+00
  7.20000000E+02  7.40000000E+01  0.00000000E+00
  7.30000000E+02  7.40000000E+01  0.00000000E+00
  7.40000000E+02  7.40000000E+01  0.00000000E+00
  7.50000000E+02  7.40000000E+01  0.00000000E+00
  7.60000000E+02  7.40000000E+01  0.00000000E+00
  7.70000000E+02  7.40000000E+01  0.00000000E+00
  7.80000000E+02  7.40000000E+01  0.00000000E+00
  7.90000000E+02  7.40000000E+01  0.00000000E+00
  8.00000000E+02  7.40000000E+01  0.00000000E+00
  8.10000000E+02  7.40000000E+01  0.00000000E+00
  8.20000000E+02  7.40000000E+01  0.00000000E+00
  8.30000000E+02  7.40000000E+01  0.00000000E+00
  8.40000000E+02  7.40000000E+01  0.00000000E+00
  8.50000000E+02  7.40000000E+01  0.00000000E+00
  8.60000000E+02  7.40000000E+01  0.00000000E+00
  8.70000000E+02  7.40000000E+01  0.00000000E+00
  8.80000000E+02  7.40000000E+01  0.00000000E+00
  8.90000000E+02  7.40000000E+01  0.00000000E+00
  9.00000000E+02  7.40000000E+01  0.00000000E+00
  9.10000000E+02  7.40000000E+01  0.00000000E+00
  9.20000000E+02  7.40000000E+01  0.00000000E+00
  9.30000000E+02  7.40000000E+01  0.00000000E+00
  9.40000000E+02  7.40000000E+01  0.00000000E+00
  9.50000000E+02  7.40000000E+01  0.00000000E+00
  9.60000000E+02  7.40000000E+01  0.00000000E+00
  9.70000000E+02  7.40000000E+01  0.00000000E+00
  9.80000000E+02  7.40000000E+01  0.00000000E+00
  9.90000000E+02  7.40000000E+01  0.00000000E+00
  1.00000000E+03  7.40000000E+01  0.00000000E+00
  0.00000000E+00  7.60000000E+01  0.00000000E+00
  1.00000000E+01  7.60000000E+01  0.00000000E+00
  2.00000000E+01  7.60000000E+01  0.00000000E+00
  3.00000000E+01  7.60000000E+01  0.00000000E+00
  4.00000000E+01  7.60000000E+01  0.00000000E+00
  5.00000000E+01  7.60000000E+01  0.00000000E+00
  6.00000000E+01  7.60000000E+01  0.00000000E+00
  7.00000000E+01  7.60000000E+01  0.00000000E+00
  8.00000000E+01  7.60000000E+01  0.00000000E+00
  9.00000000E+01  7.60000000E+01  0.00000000E+00
  1.00000000E+02  7.60000000E+01  0.00000000E+00
  1.10000000E+02  7.60000000E+01  0.00000000E+00
  1.20000000E+02  7.60000000E+01  0.00000000E+00
  1.30000000E+02  7.60000000E+01  0.00000000E+00
  1.40000000E+02  7.60000000E+01  0.00000000E+00
  1.50000000E+02  7.60000000E+01  0.00000000E+00
  1.60000000E+02  7.60000000E+01  0.00000000E+00
  1.70000000E+02  7.60000000E+01  0.00000000E+00
  1.80000000E+02  7.60000000E+01  0.00000000E+00
  1.90000000E+02  7.60000000E+01  0.00000000E+00
  2.00000000E+02  7.60000000E+01  0.00000000E+00
  2.10000000E+02  7.60000000E+01  0.00000000E+00
  2.20000000E+02  7.60000000E+01  0.00000000E+00
  2.30000000E+02  7.60000000E+01  0.00000000E+00
  2.40000000E+02  7.60000000E+01  0.00000000E+00
  2.50000000E+02  7.60000000E+01  0.00000000E+00
  2.60000000E+02  7.60000000E+01  0.00000000E+00
  2.70000000E+02  7.60000000E+01  0.00000000E+00
  2.80000000E+02  7.60000000E+01  0.00000000E+00
  2.90000000E+02  7.60000000E+01  0.00000000E+00
  3.00000000E+02  7.60000000E+01  0.00000000E+00
  3.10000000E+02  7.60000000E+01  0.00000000E+00
  3.20000000E+02  7.60000000E+01  0.00000000E+00
  3.30000000E+02  7.60000000E+01  0.00000000E+00
  3.40000000E+02  7.60000000E+01  0.00000000E+00
  3.50000000E+02  7.60000000E+01  0.00000000E+00
  3.60000000E+02  7.60000000E+01  0.00000000E+00
  3.70000000E+02  7.60000000E+01  0.00000000E+00
  3.80000000E+02  7.60000000E+01  0.00000000E+00
  3.90000000E+02  7.60000000E+01  0.00000000E+00
  4.00000000E+02  7.60000000E+01  0.00000000E+00
  4.10000000E+02  7.60000000E+01  0.00000000E+00
  4.20000000E+02  7.60000000E+01  0.00000000E+00
  4.30000000E+02  7.60000000E+01  0.00000000E+00
  4.40000000E+02  7.60000000E+01  0.00000000E+00
  4.50000000E+02  7.60000000E+01  0.00000000E+00
  4.60000000E+02  7.60000000E+01  0.00000000E+00
  4.70000000E+02  7.60000000E+01  0.00000000E+00
  4.80000000E+02  7.60000000E+01  0.00000000E+00
  4.90000000E+02  7.60000000E+01  0.00000000E+00
  5.00000000E+02  7.60000000E+01  0.00000000E+00
  5.10000000E+02  7.60000000E+01  0.00000000E+00
  5.20000000E+02  7.60000000E+01  0.00000000E+00
  5.30000000E+02  7.60000000E+01  0.00000000E+00
  5.40000000E+02  7.60000000E+01  0.00000000E+00
  5.50000000E+02  7.60000000E+01  0.00000000E+00
  5.60000000E+02  7.60000000E+01  0.00000000E+00
  5.70000000E+02  7.60000000E+01  0.00000000E+00
  5.80000000E+02  7.60000000E+01  0.00000000E+00
  5.90000000E+02  7.60000000E+01  0.00000000E+00
  6.00000000E+02  7.60000000E+01  0.00000000E+00
  6.10000000E+02  7.60000000E+01  0.00000000E+00
  6.20000000E+02  7.60000000E+01  0.00000000E+00
  6.30000000E+02  7.60000000E+01  0.00000000E+00
  6.40000000E+02  7.60000000E+01  0.00000000E+00
  6.50000000E+02  7.60000000E+01  0.00000000E+00
  6.60000000E+02  7.60000000E+01  0.00000000E+00
  6.70000000E+02  7.60000000E+01  0.00000000E+00
  6.80000000E+02  7.60000000E+01  0.00000000E+00
  6.90000000E+02  7.60000000E+01  0.00000000E+00
  7.00000000E+02  7.60000000E+01  0.00000000E+00
  7.10000000E+02  7.60000000E+01  0.00000000E+00
  7.20000000E+02  7.60000000E+01  0.00000000E+00
  7.30000000E+02  7.60000000E+01  0.00000000E+00
  7.40000000E+02  7.60000000E+01  0.00000000E+00
  7.50000000E+02  7.60000000E+01  0.00000000E+00
  7.60000000E+02  7.60000000E+01  0.00000000E+00
  7.70000000E+02  7.60000000E+01  0.00000000E+00
  7.80000000E+02  7.60000000E+01  0.00000000E+00
  7.90000000E+02  7.60000000E+01  0.00000000E+00
  8.00000000E+02  7.60000000E+01  0.00000000E+00
  8.10000000E+02  7.60000000E+01  0.00000000E+00
  8.20000000E+02  7.60000000E+01  0.00000000E+00
  8.30000000E+02  7.60000000E+01  0.00000000E+00
  8.40000000E+02  7.60000000E+01  0.00000000E+00
  8.50000000E+02  7.60000000E+01  0.00000000E+00
  8.60000000E+02  7.60000000E+01  0.00000000E+00
  8.70000000E+02  7.60000000E+01  0.00000000E+00
  8.80000000E+02  7.60000000E+01  0.00000000E+00
  8.90000000E+02  7.60000000E+01  0.00000000E+00
  9.00000000E+02  7.60000000E+01  0.00000000E+00
  9.10000000E+02  7.60000000E+01  0.00000000E+00
  9.20000000E+02  7.60000000E+01  0.00000000E+00
  9.30000000E+02  7.60000000E+01  0.00000000E+00
  9.40000000E+02  7.60000000E+01  0.00000000E+00
  9.50000000E+02  7.60000000E+01  0.00000000E+00
  9.60000000E+02  7.60000000E+01  0.00000000E+00
  9.70000000E+02  7.60000000E+01  0.00000000E+00
  9.80000000E+02  7.60000000E+01  0.00000000E+00
  9.90000000E+02  7.60000000E+01  0.00000000E+00
  1.00000000E+03  7.60000000E+01  0.00000000E+00
  0.00000000E+00  7.80000000E+01  0.00000000E+00
  1.00000000E+01  7.80000000E+01  0.00000000E+00
  2.00000000E+01  7.80000000E+01  0.00000000E+00
  3.00000000E+01  7.80000000E+01  0.00000000E+00
  4.00000000E+01  7.80000000E+01  0.00000000E+00
  5.00000000E+01  7.80000000E+01  0.00000000E+00
  6.00000000E+01  7.80000000E+01  0.00000000E+00
  7.00000000E+01  7.80000000E+01  0.00000000E+00
  8.00000000E+01  7.80000000E+01  0.00000000E+00
  9.00000000E+01  7.80000000E+01  0.00000000E+00
  1.00000000E+02  7.80000000E+01  0.00000000E+00
  1.10000000E+02  7.80000000E+01  0.00000000E+00
  1.20000000E+02  7.80000000E+01  0.00000000E+00
  1.30000000E+02  7.80000000E+01  0.00000000E+00
  1.40000000E+02  7.80000000E+01  0.00000000E+00
  1.50000000E+02  7.80000000E+01  0.00000000E+00
  1.60000000E+02  7.80000000E+01  0.00000000E+00
  1.70000000E+02  7.80000000E+01  0.00000000E+00
  1.80000000E+02  7.80000000E+01  0.00000000E+00
  1.90000000E+02  7.80000000E+01  0.00000000E+00
  2.00000000E+02  7.80000000E+01  0.00000000E+00
  2.10000000E+02  7.80000000E+01  0.00000000E+00
  2.20000000E+02  7.80000000E+01  0.00000000E+00
  2.30000000E+02  7.80000000E+01  0.00000000E+00
  2.40000000E+02  7.80000000E+01  0.00000000E+00
  2.50000000E+02  7.80000000E+01  0.00000000E+00
  2.60000000E+02  7.80000000E+01  0.00000000E+00
  2.70000000E+02  7.80000000E+01  0.00000000E+00
  2.80000000E+02  7.80000000E+01  0.00000000E+00
  2.90000000E+02  7.80000000E+01  0.00000000E+00
  3.00000000E+02  7.80000000E+01  0.00000000E+00
  3.10000000E+02  7.80000000E+01  0.00000000E+00
  3.20000000E+02  7.80000000E+01  0.00000000E+00
  3.30000000E+02  7.80000000E+01  0.00000000E+00
  3.40000000E+02  7.80000000E+01  0.00000000E+00
  3.50000000E+02  7.80000000E+01  0.00000000E+00
  3.60000000E+02  7.80000000E+01  0.00000000E+00
  3.70000000E+02  7.80000000E+01  0.00000000E+00
  3.80000000E+02  7.80000000E+01  0.00000000E+00
  3.90000000E+02  7.80000000E+01  0.00000000E+00
  4.00000000E+02  7.80000000E+01  0.00000000E+00
  4.10000000E+02  7.80000000E+01  0.00000000E+00
  4.20000000E+02  7.80000000E+01  0.00000000E+00
  4.30000000E+02  7.80000000E+01  0.00000000E+00
  4.40000000E+02  7.80000000E+01  0.00000000E+00
  4.50000000E+02  7.80000000E+01  0.00000000E+00
  4.60000000E+02  7.80000000E+01  0.00000000E+00
  4.70000000E+02  7.80000000E+01  0.00000000E+00
  4.80000000E+02  7.80000000E+01  0.00000000E+00
  4.90000000E+02  7.80000000E+01  0.00000000E+00
  5.00000000E+02  7.80000000E+01  0.00000000E+00
  5.10000000E+02  7.80000000E+01  0.00000000E+00
  5.20000000E+02  7.80000000E+01  0.00000000E+00
  5.30000000E+02  7.80000000E+01  0.00000000E+00
  5.40000000E+02  7.80000000E+01  0.00000000E+00
  5.50000000E+02  7.80000000E+01  0.00000000E+00
  5.60000000E+02  7.80000000E+01  0.00000000E+00
  5.70000000E+02  7.80000000E+01  0.00000000E+00
  5.80000000E+02  7.80000000E+01  0.00000000E+00
  5.90000000E+02  7.80000000E+01  0.00000000E+00
  6.00000000E+02  7.80000000E+01  0.00000000E+00
  6.10000000E+02  7.80000000E+01  0.00000000E+00
  6.20000000E+02  7.80000000E+01  0.00000000E+00
  6.30000000E+02  7.80000000E+01  0.00000000E+00
  6.40000000E+02  7.80000000E+01  0.00000000E+00
  6.50000000E+02  7.80000000E+01  0.00000000E+00
  6.60000000E+02  7.80000000E+01  0.00000000E+00
  6.70000000E+02  7.80000000E+01  0.00000000E+00
  6.80000000E+02  7.80000000E+01  0.00000000E+00
  6.90000000E+02  7.80000000E+01  0.00000000E+00
  7.00000000E+02  7.80000000E+01  0.00000000E+00
  7.10000000E+02  7.80000000E+01  0.00000000E+00
  7.20000000E+02  7.80000000E+01  0.00000000E+00
  7.30000000E+02  7.80000000E+01  0.00000000E+00
  7.40000000E+02  7.80000000E+01  0.00000000E+00
  7.50000000E+02  7.80000000E+01  0.00000000E+00
  7.60000000E+02  7.80000000E+01  0.00000000E+00
  7.70000000E+02  7.80000000E+01  0.00000000E+00
  7.80000000E+02  7.80000000E+01  0.00000000E+00
  7.90000000E+02  7.80000000E+01  0.00000000E+00
  8.00000000E+02  7.80000000E+01  0.00000000E+00
  8.10000000E+02  7.80000000E+01  0.00000000E+00
  8.20000000E+02  7.80000000E+01  0.00000000E+00
  8.30000000E+02  7.80000000E+01  0.00000000E+00
  8.40000000E+02  7.80000000E+01  0.00000000E+00
  8.50000000E+02  7.80000000E+01  0.00000000E+00
  8.60000000E+02  7.80000000E+01  0.00000000E+00
  8.70000000E+02  7.80000000E+01  0.00000000E+00
  8.80000000E+02  7.80000000E+01  0.00000000E+00
  8.90000000E+02  7.80000000E+01  0.00000000E+00
  9.00000000E+02  7.80000000E+01  0.00000000E+00
  9.10000000E+02  7.80000000E+01  0.00000000E+00
  9.20000000E+02  7.80000000E+01  0.00000000E+00
  9.30000000E+02  7.80000000E+01  0.00000000E+00
  9.40000000E+02  7.80000000E+01  0.00000000E+00
  9.50000000E+02  7.80000000E+01  0.00000000E+00
  9.60000000E+02  7.80000000E+01  0.00000000E+00
  9.70000000E+02  7.80000000E+01  0.00000000E+00
  9.80000000E+02  7.80000000E+01  0.00000000E+00
  9.90000000E+02  7.80000000E+01  0.00000000E+00
  1.00000000E+03  7.80000000E+01  0.00000000E+00
  0.00000000E+00  8.00000000E+01  0.00000000E+00
  1.00000000E+01  8.00000000E+01  0.00000000E+00
  2.00000000E+01  8.00000000E+01  0.00000000E+00
  3.00000000E+01  8.00000000E+01  0.00000000E+00
  4.00000000E+01  8.00000000E+01  0.00000000E+00
  5.00000000E+01  8.00000000E+01  0.00000000E+00
  6.00000000E+01  8.00000000E+01  0.00000000E+00
  7.00000000E+01  8.00000000E+01  0.00000000E+00
  8.00000000E+01  8.00000000E+01  0.00000000E+00
  9.00000000E+01  8.00000000E+01  0.00000000E+00
  1.00000000E+02  8.00000000E+01  0.00000000E+00
  1.10000000E+02  8.00000000E+01  0.00000000E+00
  1.20000000E+02  8.00000000E+01  0.00000000E+00
  1.30000000E+02  8.00000000E+01  0.00000000E+00
  1.40000000E+02  8.00000000E+01  0.00000000E+00
  1.50000000E+02  8.00000000E+01  0.00000000E+00
  1.60000000E+02  8.00000000E+01  0.00000000E+00
  1.70000000E+02  8.00000000E+01  0.00000000E+00
  1.80000000E+02  8.00000000E+01  0.00000000E+00
  1.90000000E+02  8.00000000E+01  0.00000000E+00
  2.00000000E+02  8.00000000E+01  0.00000000E+00
  2.10000000E+02  8.00000000E+01  0.00000000E+00
  2.20000000E+02  8.00000000E+01  0.00000000E+00
  2.30000000E+02  8.00000000E+01  0.00000000E+00
  2.40000000E+02  8.00000000E+01  0.00000000E+00
  2.50000000E+02  8.00000000E+01  0.00000000E+00
  2.60000000E+02  8.00000000E+01  0.00000000E+00
  2.70000000E+02  8.00000000E+01  0.00000000E+00
  2.80000000E+02  8.00000000E+01  0.00000000E+00
  2.90000000E+02  8.00000000E+01  0.00000000E+00
  3.00000000E+02  8.00000000E+01  0.00000000E+00
  3.10000000E+02  8.00000000E+01  0.00000000E+00
  3.20000000E+02  8.00000000E+01  0.00000000E+00
  3.30000000E+02  8.00000000E+01  0.00000000E+00
  3.40000000E+02  8.00000000E+01  0.00000000E+00
  3.50000000E+02  8.00000000E+01  0.00000000E+00
  3.60000000E+02  8.00000000E+01  0.00000000E+00
  3.70000000E+02  8.00000000E+01  0.00000000E+00
  3.80000000E+02  8.00000000E+01  0.00000000E+00
  3.90000000E+02  8.00000000E+01  0.00000000E+00
  4.00000000E+02  8.00000000E+01  0.00000000E+00
  4.10000000E+02  8.00000000E+01  0.00000000E+00
  4.20000000E+02  8.00000000E+01  0.00000000E+00
  4.30000000E+02  8.00000000E+01  0.00000000E+00
  4.40000000E+02  8.00000000E+01  0.00000000E+00
  4.50000000E+02  8.00000000E+01  0.00000000E+00
  4.60000000E+02  8.00000000E+01  0.00000000E+00
  4.70000000E+02  8.00000000E+01  0.00000000E+00
  4.80000000E+02  8.00000000E+01  0.00000000E+00
  4.90000000E+02  8.00000000E+01  0.00000000E+00
  5.00000000E+02  8.00000000E+01  0.00000000E+00
  5.10000000E+02  8.00000000E+01  0.00000000E+00
  5.20000000E+02  8.00000000E+01  0.00000000E+00
  5.30000000E+02  8.00000000E+01  0.00000000E+00
  5.40000000E+02  8.00000000E+01  0.00000000E+00
  5.50000000E+02  8.00000000E+01  0.00000000E+00
  5.60000000E+02  8.00000000E+01  0.00000000E+00
  5.70000000E+02  8.00000000E+01  0.00000000E+00
  5.80000000E+02  8.00000000E+01  0.00000000E+00
  5.90000000E+02  8.00000000E+01  0.00000000E+00
  6.00000000E+02  8.00000000E+01  0.00000000E+00
  6.10000000E+02  8.00000000E+01  0.00000000E+00
  6.20000000E+02  8.00000000E+01  0.00000000E+00
  6.30000000E+02  8.00000000E+01  0.00000000E+00
  6.40000000E+02  8.00000000E+01  0.00000000E+00
  6.50000000E+02  8.00000000E+01  0.00000000E+00
  6.60000000E+02  8.00000000E+01  0.00000000E+00
  6.70000000E+02  8.00000000E+01  0.00000000E+00
  6.80000000E+02  8.00000000E+01  0.00000000E+00
  6.90000000E+02  8.00000000E+01  0.00000000E+00
  7.00000000E+02  8.00000000E+01  0.00000000E+00
  7.10000000E+02  8.00000000E+01  0.00000000E+00
  7.20000000E+02  8.00000000E+01  0.00000000E+00
  7.30000000E+02  8.00000000E+01  0.00000000E+00
  7.40000000E+02  8.00000000E+01  0.00000000E+00
  7.50000000E+02  8.00000000E+01  0.00000000E+00
  7.60000000E+02  8.00000000E+01  0.00000000E+00
  7.70000000E+02  8.00000000E+01  0.00000000E+00
  7.80000000E+02  8.00000000E+01  0.00000000E+00
  7.90000000E+02  8.00000000E+01  0.00000000E+00
  8.00000000E+02  8.00000000E+01  0.00000000E+00
  8.10000000E+02  8.00000000E+01  0.00000000E+00
  8.20000000E+02  8.00000000E+01  0.00000000E+00
  8.30000000E+02  8.00000000E+01  0.00000000E+00
  8.40000000E+02  8.00000000E+01  0.00000000E+00
  8.50000000E+02  8.00000000E+01  0.00000000E+00
  8.60000000E+02  8.00000000E+01  0.00000000E+00
  8.70000000E+02  8.00000000E+01  0.00000000E+00
  8.80000000E+02  8.00000000E+01  0.00000000E+00
  8.90000000E+02  8.00000000E+01  0.00000000E+00
  9.00000000E+02  8.00000000E+01  0.00000000E+00
  9.10000000E+02  8.00000000E+01  0.00000000E+00
  9.20000000E+02  8.00000000E+01  0.00000000E+00
  9.30000000E+02  8.00000000E+01  0.00000000E+00
  9.40000000E+02  8.00000000E+01  0.00000000E+00
  9.50000000E+02  8.00000000E+01  0.00000000E+00
  9.60000000E+02  8.00000000E+01  0.00000000E+00
  9.70000000E+02  8.00000000E+01  0.00000000E+00
  9.80000000E+02  8.00000000E+01  0.00000000E+00
  9.90000000E+02  8.00000000E+01  0.00000000E+00
  1.00000000E+03  8.00000000E+01  0.00000000E+00
  0.00000000E+00  8.20000000E+01  0.00000000E+00
  1.00000000E+01  8.20000000E+01  0.00000000E+00
  2.00000000E+01  8.20000000E+01  0.00000000E+00
  3.00000000E+01  8.20000000E+01  0.00000000E+00
  4.00000000E+01  8.20000000E+01  0.00000000E+00
  5.00000000E+01  8.20000000E+01  0.00000000E+00
  6.00000000E+01  8.20000000E+01  0.00000000E+00
  7.00000000E+01  8.20000000E+01  0.00000000E+00
  8.00000000E+01  8.20000000E+01  0.00000000E+00
  9.00000000E+01  8.20000000E+01  0.00000000E+00
  1.00000000E+02  8.20000000E+01  0.00000000E+00
  1.10000000E+02  8.20000000E+01  0.00000000E+00
  1.20000000E+02  8.20000000E+01  0.00000000E+00
  1.30000000E+02  8.20000000E+01  0.00000000E+00
  1.40000000E+02  8.20000000E+01  0.00000000E+00
  1.50000000E+02  8.20000000E+01  0.00000000E+00
  1.60000000E+02  8.20000000E+01  0.00000000E+00
  1.70000000E+02  8.20000000E+01  0.00000000E+00
  1.80000000E+02  8.20000000E+01  0.00000000E+00
  1.90000000E+02  8.20000000E+01  0.00000000E+00
  2.00000000E+02  8.20000000E+01  0.00000000E+00
  2.10000000E+02  8.20000000E+01  0.00000000E+00
  2.20000000E+02  8.20000000E+01  0.00000000E+00
  2.30000000E+02  8.20000000E+01  0.00000000E+00
  2.40000000E+02  8.20000000E+01  0.00000000E+00
  2.50000000E+02  8.20000000E+01  0.00000000E+00
  2.60000000E+02  8.20000000E+01  0.00000000E+00
  2.70000000E+02  8.20000000E+01  0.00000000E+00
  2.80000000E+02  8.20000000E+01  0.00000000E+00
  2.90000000E+02  8.20000000E+01  0.00000000E+00
  3.00000000E+02  8.20000000E+01  0.00000000E+00
  3.10000000E+02  8.20000000E+01  0.00000000E+00
  3.20000000E+02  8.20000000E+01  0.00000000E+00
  3.30000000E+02  8.20000000E+01  0.00000000E+00
  3.40000000E+02  8.20000000E+01  0.00000000E+00
  3.50000000E+02  8.20000000E+01  0.00000000E+00
  3.60000000E+02  8.20000000E+01  0.00000000E+00
  3.70000000E+02  8.20000000E+01  0.00000000E+00
  3.80000000E+02  8.20000000E+01  0.00000000E+00
  3.90000000E+02  8.20000000E+01  0.00000000E+00
  4.00000000E+02  8.20000000E+01  0.00000000E+00
  4.10000000E+02  8.20000000E+01  0.00000000E+00
  4.20000000E+02  8.20000000E+01  0.00000000E+00
  4.30000000E+02  8.20000000E+01  0.00000000E+00
  4.40000000E+02  8.20000000E+01  0.00000000E+00
  4.50000000E+02  8.20000000E+01  0.00000000E+00
  4.60000000E+02  8.20000000E+01  0.00000000E+00
  4.70000000E+02  8.20000000E+01  0.00000000E+00
  4.80000000E+02  8.20000000E+01  0.00000000E+00
  4.90000000E+02  8.20000000E+01  0.00000000E+00
  5.00000000E+02  8.20000000E+01  0.00000000E+00
  5.10000000E+02  8.20000000E+01  0.00000000E+00
  5.20000000E+02  8.20000000E+01  0.00000000E+00
  5.30000000E+02  8.20000000E+01  0.00000000E+00
  5.40000000E+02  8.20000000E+01  0.00000000E+00
  5.50000000E+02  8.20000000E+01  0.00000000E+00
  5.60000000E+02  8.20000000E+01  0.00000000E+00
  5.70000000E+02  8.20000000E+01  0.00000000E+00
  5.80000000E+02  8.20000000E+01  0.00000000E+00
  5.90000000E+02  8.20000000E+01  0.00000000E+00
  6.00000000E+02  8.20000000E+01  0.00000000E+00
  6.10000000E+02  8.20000000E+01  0.00000000E+00
  6.20000000E+02  8.20000000E+01  0.00000000E+00
  6.30000000E+02  8.20000000E+01  0.00000000E+00
  6.40000000E+02  8.20000000E+01  0.00000000E+00
  6.50000000E+02  8.20000000E+01  0.00000000E+00
  6.60000000E+02  8.20000000E+01  0.00000000E+00
  6.70000000E+02  8.20000000E+01  0.00000000E+00
  6.80000000E+02  8.20000000E+01  0.00000000E+00
  6.90000000E+02  8.20000000E+01  0.00000000E+00
  7.00000000E+02  8.20000000E+01  0.00000000E+00
  7.10000000E+02  8.20000000E+01  0.00000000E+00
  7.20000000E+02  8.20000000E+01  0.00000000E+00
  7.30000000E+02  8.20000000E+01  0.00000000E+00
  7.40000000E+02  8.20000000E+01  0.00000000E+00
  7.50000000E+02  8.20000000E+01  0.00000000E+00
  7.60000000E+02  8.20000000E+01  0.00000000E+00
  7.70000000E+02  8.20000000E+01  0.00000000E+00
  7.80000000E+02  8.20000000E+01  0.00000000E+00
  7.90000000E+02  8.20000000E+01  0.00000000E+00
  8.00000000E+02  8.20000000E+01  0.00000000E+00
  8.10000000E+02  8.20000000E+01  0.00000000E+00
  8.20000000E+02  8.20000000E+01  0.00000000E+00
  8.30000000E+02  8.20000000E+01  0.00000000E+00
  8.40000000E+02  8.20000000E+01  0.00000000E+00
  8.50000000E+02  8.20000000E+01  0.00000000E+00
  8.60000000E+02  8.20000000E+01  0.00000000E+00
  8.70000000E+02  8.20000000E+01  0.00000000E+00
  8.80000000E+02  8.20000000E+01  0.00000000E+00
  8.90000000E+02  8.20000000E+01  0.00000000E+00
  9.00000000E+02  8.20000000E+01  0.00000000E+00
  9.10000000E+02  8.20000000E+01  0.00000000E+00
  9.20000000E+02  8.20000000E+01  0.00000000E+00
  9.30000000E+02  8.20000000E+01  0.00000000E+00
  9.40000000E+02  8.20000000E+01  0.00000000E+00
  9.50000000E+02  8.20000000E+01  0.00000000E+00
  9.60000000E+02  8.20000000E+01  0.00000000E+00
  9.70000000E+02  8.20000000E+01  0.00000000E+00
  9.80000000E+02  8.20000000E+01  0.00000000E+00
  9.90000000E+02  8.20000000E+01  0.00000000E+00
  1.00000000E+03  8.20000000E+01  0.00000000E+00
  0.00000000E+00  8.40000000E+01  0.00000000E+00
  1.00000000E+01  8.40000000E+01  0.00000000E+00
  2.00000000E+01  8.40000000E+01  0.00000000E+00
  3.00000000E+01  8.40000000E+01  0.00000000E+00
  4.00000000E+01  8.40000000E+01  0.00000000E+00
  5.00000000E+01  8.40000000E+01  0.00000000E+00
  6.00000000E+01  8.40000000E+01  0.00000000E+00
  7.00000000E+01  8.40000000E+01  0.00000000E+00
  8.00000000E+01  8.40000000E+01  0.00000000E+00
  9.00000000E+01  8.40000000E+01  0.00000000E+00
  1.00000000E+02  8.40000000E+01  0.00000000E+00
  1.10000000E+02  8.40000000E+01  0.00000000E+00
  1.20000000E+02  8.40000000E+01  0.00000000E+00
  1.30000000E+02  8.40000000E+01  0.00000000E+00
  1.40000000E+02  8.40000000E+01  0.00000000E+00
  1.50000000E+02  8.40000000E+01  0.00000000E+00
  1.60000000E+02  8.40000000E+01  0.00000000E+00
  1.70000000E+02  8.40000000E+01  0.00000000E+00
  1.80000000E+02  8.40000000E+01  0.00000000E+00
  1.90000000E+02  8.40000000E+01  0.00000000E+00
  2.00000000E+02  8.40000000E+01  0.00000000E+00
  2.10000000E+02  8.40000000E+01  0.00000000E+00
  2.20000000E+02  8.40000000E+01  0.00000000E+00
  2.30000000E+02  8.40000000E+01  0.00000000E+00
  2.40000000E+02  8.40000000E+01  0.00000000E+00
  2.50000000E+02  8.40000000E+01  0.00000000E+00
  2.60000000E+02  8.40000000E+01  0.00000000E+00
  2.70000000E+02  8.40000000E+01  0.00000000E+00
  2.80000000E+02  8.40000000E+01  0.00000000E+00
  2.90000000E+02  8.40000000E+01  0.00000000E+00
  3.00000000E+02  8.40000000E+01  0.00000000E+00
  3.10000000E+02  8.40000000E+01  0.00000000E+00
  3.20000000E+02  8.40000000E+01  0.00000000E+00
  3.30000000E+02  8.40000000E+01  0.00000000E+00
  3.40000000E+02  8.40000000E+01  0.00000000E+00
  3.50000000E+02  8.40000000E+01  0.00000000E+00
  3.60000000E+02  8.40000000E+01  0.00000000E+00
  3.70000000E+02  8.40000000E+01  0.00000000E+00
  3.80000000E+02  8.40000000E+01  0.00000000E+00
  3.90000000E+02  8.40000000E+01  0.00000000E+00
  4.00000000E+02  8.40000000E+01  0.00000000E+00
  4.10000000E+02  8.40000000E+01  0.00000000E+00
  4.20000000E+02  8.40000000E+01  0.00000000E+00
  4.30000000E+02  8.40000000E+01  0.00000000E+00
  4.40000000E+02  8.40000000E+01  0.00000000E+00
  4.50000000E+02  8.40000000E+01  0.00000000E+00
  4.60000000E+02  8.40000000E+01  0.00000000E+00
  4.70000000E+02  8.40000000E+01  0.00000000E+00
  4.80000000E+02  8.40000000E+01  0.00000000E+00
  4.90000000E+02  8.40000000E+01  0.00000000E+00
  5.00000000E+02  8.40000000E+01  0.00000000E+00
  5.10000000E+02  8.40000000E+01  0.00000000E+00
  5.20000000E+02  8.40000000E+01  0.00000000E+00
  5.30000000E+02  8.40000000E+01  0.00000000E+00
  5.40000000E+02  8.40000000E+01  0.00000000E+00
  5.50000000E+02  8.40000000E+01  0.00000000E+00
  5.60000000E+02  8.40000000E+01  0.00000000E+00
  5.70000000E+02  8.40000000E+01  0.00000000E+00
  5.80000000E+02  8.40000000E+01  0.00000000E+00
  5.90000000E+02  8.40000000E+01  0.00000000E+00
  6.00000000E+02  8.40000000E+01  0.00000000E+00
  6.10000000E+02  8.40000000E+01  0.00000000E+00
  6.20000000E+02  8.40000000E+01  0.00000000E+00
  6.30000000E+02  8.40000000E+01  0.00000000E+00
  6.40000000E+02  8.40000000E+01  0.00000000E+00
  6.50000000E+02  8.40000000E+01  0.00000000E+00
  6.60000000E+02  8.40000000E+01  0.00000000E+00
  6.70000000E+02  8.40000000E+01  0.00000000E+00
  6.80000000E+02  8.40000000E+01  0.00000000E+00
  6.90000000E+02  8.40000000E+01  0.00000000E+00
  7.00000000E+02  8.40000000E+01  0.00000000E+00
  7.10000000E+02  8.40000000E+01  0.00000000E+00
  7.20000000E+02  8.40000000E+01  0.00000000E+00
  7.30000000E+02  8.40000000E+01  0.00000000E+00
  7.40000000E+02  8.40000000E+01  0.00000000E+00
  7.50000000E+02  8.40000000E+01  0.00000000E+00
  7.60000000E+02  8.40000000E+01  0.00000000E+00
  7.70000000E+02  8.40000000E+01  0.00000000E+00
  7.80000000E+02  8.40000000E+01  0.00000000E+00
  7.90000000E+02  8.40000000E+01  0.00000000E+00
  8.00000000E+02  8.40000000E+01  0.00000000E+00
  8.10000000E+02  8.40000000E+01  0.00000000E+00
  8.20000000E+02  8.40000000E+01  0.00000000E+00
  8.30000000E+02  8.40000000E+01  0.00000000E+00
  8.40000000E+02  8.40000000E+01  0.00000000E+00
  8.50000000E+02  8.40000000E+01  0.00000000E+00
  8.60000000E+02  8.40000000E+01  0.00000000E+00
  8.70000000E+02  8.40000000E+01  0.00000000E+00
  8.80000000E+02  8.40000000E+01  0.00000000E+00
  8.90000000E+02  8.40000000E+01  0.00000000E+00
  9.00000000E+02  8.40000000E+01  0.00000000E+00
  9.10000000E+02  8.40000000E+01  0.00000000E+00
  9.20000000E+02  8.40000000E+01  0.00000000E+00
  9.30000000E+02  8.40000000E+01  0.00000000E+00
  9.40000000E+02  8.40000000E+01  0.00000000E+00
  9.50000000E+02  8.40000000E+01  0.00000000E+00
  9.60000000E+02  8.40000000E+01  0.00000000E+00
  9.70000000E+02  8.40000000E+01  0.00000000E+00
  9.80000000E+02  8.40000000E+01  0.00000000E+00
  9.90000000E+02  8.40000000E+01  0.00000000E+00
  1.00000000E+03  8.40000000E+01  0.00000000E+00
  0.00000000E+00  8.60000000E+01  0.00000000E+00
  1.00000000E+01  8.60000000E+01  0.00000000E+00
  2.00000000E+01  8.60000000E+01  0.00000000E+00
  3.00000000E+01  8.60000000E+01  0.00000000E+00
  4.00000000E+01  8.60000000E+01  0.00000000E+00
  5.00000000E+01  8.60000000E+01  0.00000000E+00
  6.00000000E+01  8.60000000E+01  0.00000000E+00
  7.00000000E+01  8.60000000E+01  0.00000000E+00
  8.00000000E+01  8.60000000E+01  0.00000000E+00
  9.00000000E+01  8.60000000E+01  0.00000000E+00
  1.00000000E+02  8.60000000E+01  0.00000000E+00
  1.10000000E+02  8.60000000E+01  0.00000000E+00
  1.20000000E+02  8.60000000E+01  0.00000000E+00
  1.30000000E+02  8.60000000E+01  0.00000000E+00
  1.40000000E+02  8.60000000E+01  0.00000000E+00
  1.50000000E+02  8.60000000E+01  0.00000000E+00
  1.60000000E+02  8.60000000E+01  0.00000000E+00
  1.70000000E+02  8.60000000E+01  0.00000000E+00
  1.80000000E+02  8.60000000E+01  0.00000000E+00
  1.90000000E+02  8.60000000E+01  0.00000000E+00
  2.00000000E+02  8.60000000E+01  0.00000000E+00
  2.10000000E+02  8.60000000E+01  0.00000000E+00
  2.20000000E+02  8.60000000E+01  0.00000000E+00
  2.30000000E+02  8.60000000E+01  0.00000000E+00
  2.40000000E+02  8.60000000E+01  0.00000000E+00
  2.50000000E+02  8.60000000E+01  0.00000000E+00
  2.60000000E+02  8.60000000E+01  0.00000000E+00
  2.70000000E+02  8.60000000E+01  0.00000000E+00
  2.80000000E+02  8.60000000E+01  0.00000000E+00
  2.90000000E+02  8.60000000E+01  0.00000000E+00
  3.00000000E+02  8.60000000E+01  0.00000000E+00
  3.10000000E+02  8.60000000E+01  0.00000000E+00
  3.20000000E+02  8.60000000E+01  0.00000000E+00
  3.30000000E+02  8.60000000E+01  0.00000000E+00
  3.40000000E+02  8.60000000E+01  0.00000000E+00
  3.50000000E+02  8.60000000E+01  0.00000000E+00
  3.60000000E+02  8.60000000E+01  0.00000000E+00
  3.70000000E+02  8.60000000E+01  0.00000000E+00
  3.80000000E+02  8.60000000E+01  0.00000000E+00
  3.90000000E+02  8.60000000E+01  0.00000000E+00
  4.00000000E+02  8.60000000E+01  0.00000000E+00
  4.10000000E+02  8.60000000E+01  0.00000000E+00
  4.20000000E+02  8.60000000E+01  0.00000000E+00
  4.30000000E+02  8.60000000E+01  0.00000000E+00
  4.40000000E+02  8.60000000E+01  0.00000000E+00
  4.50000000E+02  8.60000000E+01  0.00000000E+00
  4.60000000E+02  8.60000000E+01  0.00000000E+00
  4.70000000E+02  8.60000000E+01  0.00000000E+00
  4.80000000E+02  8.60000000E+01  0.00000000E+00
  4.90000000E+02  8.60000000E+01  0.00000000E+00
  5.00000000E+02  8.60000000E+01  0.00000000E+00
  5.10000000E+02  8.60000000E+01  0.00000000E+00
  5.20000000E+02  8.60000000E+01  0.00000000E+00
  5.30000000E+02  8.60000000E+01  0.00000000E+00
  5.40000000E+02  8.60000000E+01  0.00000000E+00
  5.50000000E+02  8.60000000E+01  0.00000000E+00
  5.60000000E+02  8.60000000E+01  0.00000000E+00
  5.70000000E+02  8.60000000E+01  0.00000000E+00
  5.80000000E+02  8.60000000E+01  0.00000000E+00
  5.90000000E+02  8.60000000E+01  0.00000000E+00
  6.00000000E+02  8.60000000E+01  0.00000000E+00
  6.10000000E+02  8.60000000E+01  0.00000000E+00
  6.20000000E+02  8.60000000E+01  0.00000000E+00
  6.30000000E+02  8.60000000E+01  0.00000000E+00
  6.40000000E+02  8.60000000E+01  0.00000000E+00
  6.50000000E+02  8.60000000E+01  0.00000000E+00
  6.60000000E+02  8.60000000E+01  0.00000000E+00
  6.70000000E+02  8.60000000E+01  0.00000000E+00
  6.80000000E+02  8.60000000E+01  0.00000000E+00
  6.90000000E+02  8.60000000E+01  0.00000000E+00
  7.00000000E+02  8.60000000E+01  0.00000000E+00
  7.10000000E+02  8.60000000E+01  0.00000000E+00
  7.20000000E+02  8.60000000E+01  0.00000000E+00
  7.30000000E+02  8.60000000E+01  0.00000000E+00
  7.40000000E+02  8.60000000E+01  0.00000000E+00
  7.50000000E+02  8.60000000E+01  0.00000000E+00
  7.60000000E+02  8.60000000E+01  0.00000000E+00
  7.70000000E+02  8.60000000E+01  0.00000000E+00
  7.80000000E+02  8.60000000E+01  0.00000000E+00
  7.90000000E+02  8.60000000E+01  0.00000000E+00
  8.00000000E+02  8.60000000E+01  0.00000000E+00
  8.10000000E+02  8.60000000E+01  0.00000000E+00
  8.20000000E+02  8.60000000E+01  0.00000000E+00
  8.30000000E+02  8.60000000E+01  0.00000000E+00
  8.40000000E+02  8.60000000E+01  0.00000000E+00
  8.50000000E+02  8.60000000E+01  0.00000000E+00
  8.60000000E+02  8.60000000E+01  0.00000000E+00
  8.70000000E+02  8.60000000E+01  0.00000000E+00
  8.80000000E+02  8.60000000E+01  0.00000000E+00
  8.90000000E+02  8.60000000E+01  0.00000000E+00
  9.00000000E+02  8.60000000E+01  0.00000000E+00
  9.10000000E+02  8.60000000E+01  0.00000000E+00
  9.20000000E+02  8.60000000E+01  0.00000000E+00
  9.30000000E+02  8.60000000E+01  0.00000000E+00
  9.40000000E+02  8.60000000E+01  0.00000000E+00
  9.50000000E+02  8.60000000E+01  0.00000000E+00
  9.60000000E+02  8.60000000E+01  0.00000000E+00
  9.70000000E+02  8.60000000E+01  0.00000000E+00
  9.80000000E+02  8.60000000E+01  0.00000000E+00
  9.90000000E+02  8.60000000E+01  0.00000000E+00
  1.00000000E+03  8.60000000E+01  0.00000000E+00
  0.00000000E+00  8.80000000E+01  0.00000000E+00
  1.00000000E+01  8.80000000E+01  0.00000000E+00
  2.00000000E+01  8.80000000E+01  0.00000000E+00
  3.00000000E+01  8.80000000E+01  0.00000000E+00
  4.00000000E+01  8.80000000E+01  0.00000000E+00
  5.00000000E+01  8.80000000E+01  0.00000000E+00
  6.00000000E+01  8.80000000E+01  0.00000000E+00
  7.00000000E+01  8.80000000E+01  0.00000000E+00
  8.00000000E+01  8.80000000E+01  0.00000000E+00
  9.00000000E+01  8.80000000E+01  0.00000000E+00
  1.00000000E+02  8.80000000E+01  0.00000000E+00
  1.10000000E+02  8.80000000E+01  0.00000000E+00
  1.20000000E+02  8.80000000E+01  0.00000000E+00
  1.30000000E+02  8.80000000E+01  0.00000000E+00
  1.40000000E+02  8.80000000E+01  0.00000000E+00
  1.50000000E+02  8.80000000E+01  0.00000000E+00
  1.60000000E+02  8.80000000E+01  0.00000000E+00
  1.70000000E+02  8.80000000E+01  0.00000000E+00
  1.80000000E+02  8.80000000E+01  0.00000000E+00
  1.90000000E+02  8.80000000E+01  0.00000000E+00
  2.00000000E+02  8.80000000E+01  0.00000000E+00
  2.10000000E+02  8.80000000E+01  0.00000000E+00
  2.20000000E+02  8.80000000E+01  0.00000000E+00
  2.30000000E+02  8.80000000E+01  0.00000000E+00
  2.40000000E+02  8.80000000E+01  0.00000000E+00
  2.50000000E+02  8.80000000E+01  0.00000000E+00
  2.60000000E+02  8.80000000E+01  0.00000000E+00
  2.70000000E+02  8.80000000E+01  0.00000000E+00
  2.80000000E+02  8.80000000E+01  0.00000000E+00
  2.90000000E+02  8.80000000E+01  0.00000000E+00
  3.00000000E+02  8.80000000E+01  0.00000000E+00
  3.10000000E+02  8.80000000E+01  0.00000000E+00
  3.20000000E+02  8.80000000E+01  0.00000000E+00
  3.30000000E+02  8.80000000E+01  0.00000000E+00
  3.40000000E+02  8.80000000E+01  0.00000000E+00
  3.50000000E+02  8.80000000E+01  0.00000000E+00
  3.60000000E+02  8.80000000E+01  0.00000000E+00
  3.70000000E+02  8.80000000E+01  0.00000000E+00
  3.80000000E+02  8.80000000E+01  0.00000000E+00
  3.90000000E+02  8.80000000E+01  0.00000000E+00
  4.00000000E+02  8.80000000E+01  0.00000000E+00
  4.10000000E+02  8.80000000E+01  0.00000000E+00
  4.20000000E+02  8.80000000E+01  0.00000000E+00
  4.30000000E+02  8.80000000E+01  0.00000000E+00
  4.40000000E+02  8.80000000E+01  0.00000000E+00
  4.50000000E+02  8.80000000E+01  0.00000000E+00
  4.60000000E+02  8.80000000E+01  0.00000000E+00
  4.70000000E+02  8.80000000E+01  0.00000000E+00
  4.80000000E+02  8.80000000E+01  0.00000000E+00
  4.90000000E+02  8.80000000E+01  0.00000000E+00
  5.00000000E+02  8.80000000E+01  0.00000000E+00
  5.10000000E+02  8.80000000E+01  0.00000000E+00
  5.20000000E+02  8.80000000E+01  0.00000000E+00
  5.30000000E+02  8.80000000E+01  0.00000000E+00
  5.40000000E+02  8.80000000E+01  0.00000000E+00
  5.50000000E+02  8.80000000E+01  0.00000000E+00
  5.60000000E+02  8.80000000E+01  0.00000000E+00
  5.70000000E+02  8.80000000E+01  0.00000000E+00
  5.80000000E+02  8.80000000E+01  0.00000000E+00
  5.90000000E+02  8.80000000E+01  0.00000000E+00
  6.00000000E+02  8.80000000E+01  0.00000000E+00
  6.10000000E+02  8.80000000E+01  0.00000000E+00
  6.20000000E+02  8.80000000E+01  0.00000000E+00
  6.30000000E+02  8.80000000E+01  0.00000000E+00
  6.40000000E+02  8.80000000E+01  0.00000000E+00
  6.50000000E+02  8.80000000E+01  0.00000000E+00
  6.60000000E+02  8.80000000E+01  0.00000000E+00
  6.70000000E+02  8.80000000E+01  0.00000000E+00
  6.80000000E+02  8.80000000E+01  0.00000000E+00
  6.90000000E+02  8.80000000E+01  0.00000000E+00
  7.00000000E+02  8.80000000E+01  0.00000000E+00
  7.10000000E+02  8.80000000E+01  0.00000000E+00
  7.20000000E+02  8.80000000E+01  0.00000000E+00
  7.30000000E+02  8.80000000E+01  0.00000000E+00
  7.40000000E+02  8.80000000E+01  0.00000000E+00
  7.50000000E+02  8.80000000E+01  0.00000000E+00
  7.60000000E+02  8.80000000E+01  0.00000000E+00
  7.70000000E+02  8.80000000E+01  0.00000000E+00
  7.80000000E+02  8.80000000E+01  0.00000000E+00
  7.90000000E+02  8.80000000E+01  0.00000000E+00
  8.00000000E+02  8.80000000E+01  0.00000000E+00
  8.10000000E+02  8.80000000E+01  0.00000000E+00
  8.20000000E+02  8.80000000E+01  0.00000000E+00
  8.30000000E+02  8.80000000E+01  0.00000000E+00
  8.40000000E+02  8.80000000E+01  0.00000000E+00
  8.50000000E+02  8.80000000E+01  0.00000000E+00
  8.60000000E+02  8.80000000E+01  0.00000000E+00
  8.70000000E+02  8.80000000E+01  0.00000000E+00
  8.80000000E+02  8.80000000E+01  0.00000000E+00
  8.90000000E+02  8.80000000E+01  0.00000000E+00
  9.00000000E+02  8.80000000E+01  0.00000000E+00
  9.10000000E+02  8.80000000E+01  0.00000000E+00
  9.20000000E+02  8.80000000E+01  0.00000000E+00
  9.30000000E+02  8.80000000E+01  0.00000000E+00
  9.40000000E+02  8.80000000E+01  0.00000000E+00
  9.50000000E+02  8.80000000E+01  0.00000000E+00
  9.60000000E+02  8.80000000E+01  0.00000000E+00
  9.70000000E+02  8.80000000E+01  0.00000000E+00
  9.80000000E+02  8.80000000E+01  0.00000000E+00
  9.90000000E+02  8.80000000E+01  0.00000000E+00
  1.00000000E+03  8.80000000E+01  0.00000000E+00
  0.00000000E+00  9.00000000E+01  0.00000000E+00
  1.00000000E+01  9.00000000E+01  0.00000000E+00
  2.00000000E+01  9.00000000E+01  0.00000000E+00
  3.00000000E+01  9.00000000E+01  0.00000000E+00
  4.00000000E+01  9.00000000E+01  0.00000000E+00
  5.00000000E+01  9.00000000E+01  0.00000000E+00
  6.00000000E+01  9.00000000E+01  0.00000000E+00
  7.00000000E+01  9.00000000E+01  0.00000000E+00
  8.00000000E+01  9.00000000E+01  0.00000000E+00
  9.00000000E+01  9.00000000E+01  0.00000000E+00
  1.00000000E+02  9.00000000E+01  0.00000000E+00
  1.10000000E+02  9.00000000E+01  0.00000000E+00
  1.20000000E+02  9.00000000E+01  0.00000000E+00
  1.30000000E+02  9.00000000E+01  0.00000000E+00
  1.40000000E+02  9.00000000E+01  0.00000000E+00
  1.50000000E+02  9.00000000E+01  0.00000000E+00
  1.60000000E+02  9.00000000E+01  0.00000000E+00
  1.70000000E+02  9.00000000E+01  0.00000000E+00
  1.80000000E+02  9.00000000E+01  0.00000000E+00
  1.90000000E+02  9.00000000E+01  0.00000000E+00
  2.00000000E+02  9.00000000E+01  0.00000000E+00
  2.10000000E+02  9.00000000E+01  0.00000000E+00
  2.20000000E+02  9.00000000E+01  0.00000000E+00
  2.30000000E+02  9.00000000E+01  0.00000000E+00
  2.40000000E+02  9.00000000E+01  0.00000000E+00
  2.50000000E+02  9.00000000E+01  0.00000000E+00
  2.60000000E+02  9.00000000E+01  0.00000000E+00
  2.70000000E+02  9.00000000E+01  0.00000000E+00
  2.80000000E+02  9.00000000E+01  0.00000000E+00
  2.90000000E+02  9.00000000E+01  0.00000000E+00
  3.00000000E+02  9.00000000E+01  0.00000000E+00
  3.10000000E+02  9.00000000E+01  0.00000000E+00
  3.20000000E+02  9.00000000E+01  0.00000000E+00
  3.30000000E+02  9.00000000E+01  0.00000000E+00
  3.40000000E+02  9.00000000E+01  0.00000000E+00
  3.50000000E+02  9.00000000E+01  0.00000000E+00
  3.60000000E+02  9.00000000E+01  0.00000000E+00
  3.70000000E+02  9.00000000E+01  0.00000000E+00
  3.80000000E+02  9.00000000E+01  0.00000000E+00
  3.90000000E+02  9.00000000E+01  0.00000000E+00
  4.00000000E+02  9.00000000E+01  0.00000000E+00
  4.10000000E+02  9.00000000E+01  0.00000000E+00
  4.20000000E+02  9.00000000E+01  0.00000000E+00
  4.30000000E+02  9.00000000E+01  0.00000000E+00
  4.40000000E+02  9.00000000E+01  0.00000000E+00
  4.50000000E+02  9.00000000E+01  0.00000000E+00
  4.60000000E+02  9.00000000E+01  0.00000000E+00
  4.70000000E+02  9.00000000E+01  0.00000000E+00
  4.80000000E+02  9.00000000E+01  0.00000000E+00
  4.90000000E+02  9.00000000E+01  0.00000000E+00
  5.00000000E+02  9.00000000E+01  0.00000000E+00
  5.10000000E+02  9.00000000E+01  0.00000000E+00
  5.20000000E+02  9.00000000E+01  0.00000000E+00
  5.30000000E+02  9.00000000E+01  0.00000000E+00
  5.40000000E+02  9.00000000E+01  0.00000000E+00
  5.50000000E+02  9.00000000E+01  0.00000000E+00
  5.60000000E+02  9.00000000E+01  0.00000000E+00
  5.70000000E+02  9.00000000E+01  0.00000000E+00
  5.80000000E+02  9.00000000E+01  0.00000000E+00
  5.90000000E+02  9.00000000E+01  0.00000000E+00
  6.00000000E+02  9.00000000E+01  0.00000000E+00
  6.10000000E+02  9.00000000E+01  0.00000000E+00
  6.20000000E+02  9.00000000E+01  0.00000000E+00
  6.30000000E+02  9.00000000E+01  0.00000000E+00
  6.40000000E+02  9.00000000E+01  0.00000000E+00
  6.50000000E+02  9.00000000E+01  0.00000000E+00
  6.60000000E+02  9.00000000E+01  0.00000000E+00
  6.70000000E+02  9.00000000E+01  0.00000000E+00
  6.80000000E+02  9.00000000E+01  0.00000000E+00
  6.90000000E+02  9.00000000E+01  0.00000000E+00
  7.00000000E+02  9.00000000E+01  0.00000000E+00
  7.10000000E+02  9.00000000E+01  0.00000000E+00
  7.20000000E+02  9.00000000E+01  0.00000000E+00
  7.30000000E+02  9.00000000E+01  0.00000000E+00
  7.40000000E+02  9.00000000E+01  0.00000000E+00
  7.50000000E+02  9.00000000E+01  0.00000000E+00
  7.60000000E+02  9.00000000E+01  0.00000000E+00
  7.70000000E+02  9.00000000E+01  0.00000000E+00
  7.80000000E+02  9.00000000E+01  0.00000000E+00
  7.90000000E+02  9.00000000E+01  0.00000000E+00
  8.00000000E+02  9.00000000E+01  0.00000000E+00
  8.10000000E+02  9.00000000E+01  0.00000000E+00
  8.20000000E+02  9.00000000E+01  0.00000000E+00
  8.30000000E+02  9.00000000E+01  0.00000000E+00
  8.40000000E+02  9.00000000E+01  0.00000000E+00
  8.50000000E+02  9.00000000E+01  0.00000000E+00
  8.60000000E+02  9.00000000E+01  0.00000000E+00
  8.70000000E+02  9.00000000E+01  0.00000000E+00
  8.80000000E+02  9.00000000E+01  0.00000000E+00
  8.90000000E+02  9.00000000E+01  0.00000000E+00
  9.00000000E+02  9.00000000E+01  0.00000000E+00
  9.10000000E+02  9.00000000E+01  0.00000000E+00
  9.20000000E+02  9.00000000E+01  0.00000000E+00
  9.30000000E+02  9.00000000E+01  0.00000000E+00
  9.40000000E+02  9.00000000E+01  0.00000000E+00
  9.50000000E+02  9.00000000E+01  0.00000000E+00
  9.60000000E+02  9.00000000E+01  0.00000000E+00
  9.70000000E+02  9.00000000E+01  0.00000000E+00
  9.80000000E+02  9.00000000E+01  0.00000000E+00
  9.90000000E+02  9.00000000E+01  0.00000000E+00
  1.00000000E+03  9.00000000E+01  0.00000000E+00
  0.00000000E+00  9.20000000E+01  0.00000000E+00
  1.00000000E+01  9.20000000E+01  0.00000000E+00
  2.00000000E+01  9.20000000E+01  0.00000000E+00
  3.00000000E+01  9.20000000E+01  0.00000000E+00
  4.00000000E+01  9.20000000E+01  0.00000000E+00
  5.00000000E+01  9.20000000E+01  0.00000000E+00
  6.00000000E+01  9.20000000E+01  0.00000000E+00
  7.00000000E+01  9.20000000E+01  0.00000000E+00
  8.00000000E+01  9.20000000E+01  0.00000000E+00
  9.00000000E+01  9.20000000E+01  0.00000000E+00
  1.00000000E+02  9.20000000E+01  0.00000000E+00
  1.10000000E+02  9.20000000E+01  0.00000000E+00
  1.20000000E+02  9.20000000E+01  0.00000000E+00
  1.30000000E+02  9.20000000E+01  0.00000000E+00
  1.40000000E+02  9.20000000E+01  0.00000000E+00
  1.50000000E+02  9.20000000E+01  0.00000000E+00
  1.60000000E+02  9.20000000E+01  0.00000000E+00
  1.70000000E+02  9.20000000E+01  0.00000000E+00
  1.80000000E+02  9.20000000E+01  0.00000000E+00
  1.90000000E+02  9.20000000E+01  0.00000000E+00
  2.00000000E+02  9.20000000E+01  0.00000000E+00
  2.10000000E+02  9.20000000E+01  0.00000000E+00
  2.20000000E+02  9.20000000E+01  0.00000000E+00
  2.30000000E+02  9.20000000E+01  0.00000000E+00
  2.40000000E+02  9.20000000E+01  0.00000000E+00
  2.50000000E+02  9.20000000E+01  0.00000000E+00
  2.60000000E+02  9.20000000E+01  0.00000000E+00
  2.70000000E+02  9.20000000E+01  0.00000000E+00
  2.80000000E+02  9.20000000E+01  0.00000000E+00
  2.90000000E+02  9.20000000E+01  0.00000000E+00
  3.00000000E+02  9.20000000E+01  0.00000000E+00
  3.10000000E+02  9.20000000E+01  0.00000000E+00
  3.20000000E+02  9.20000000E+01  0.00000000E+00
  3.30000000E+02  9.20000000E+01  0.00000000E+00
  3.40000000E+02  9.20000000E+01  0.00000000E+00
  3.50000000E+02  9.20000000E+01  0.00000000E+00
  3.60000000E+02  9.20000000E+01  0.00000000E+00
  3.70000000E+02  9.20000000E+01  0.00000000E+00
  3.80000000E+02  9.20000000E+01  0.00000000E+00
  3.90000000E+02  9.20000000E+01  0.00000000E+00
  4.00000000E+02  9.20000000E+01  0.00000000E+00
  4.10000000E+02  9.20000000E+01  0.00000000E+00
  4.20000000E+02  9.20000000E+01  0.00000000E+00
  4.30000000E+02  9.20000000E+01  0.00000000E+00
  4.40000000E+02  9.20000000E+01  0.00000000E+00
  4.50000000E+02  9.20000000E+01  0.00000000E+00
  4.60000000E+02  9.20000000E+01  0.00000000E+00
  4.70000000E+02  9.20000000E+01  0.00000000E+00
  4.80000000E+02  9.20000000E+01  0.00000000E+00
  4.90000000E+02  9.20000000E+01  0.00000000E+00
  5.00000000E+02  9.20000000E+01  0.00000000E+00
  5.10000000E+02  9.20000000E+01  0.00000000E+00
  5.20000000E+02  9.20000000E+01  0.00000000E+00
  5.30000000E+02  9.20000000E+01  0.00000000E+00
  5.40000000E+02  9.20000000E+01  0.00000000E+00
  5.50000000E+02  9.20000000E+01  0.00000000E+00
  5.60000000E+02  9.20000000E+01  0.00000000E+00
  5.70000000E+02  9.20000000E+01  0.00000000E+00
  5.80000000E+02  9.20000000E+01  0.00000000E+00
  5.90000000E+02  9.20000000E+01  0.00000000E+00
  6.00000000E+02  9.20000000E+01  0.00000000E+00
  6.10000000E+02  9.20000000E+01  0.00000000E+00
  6.20000000E+02  9.20000000E+01  0.00000000E+00
  6.30000000E+02  9.20000000E+01  0.00000000E+00
  6.40000000E+02  9.20000000E+01  0.00000000E+00
  6.50000000E+02  9.20000000E+01  0.00000000E+00
  6.60000000E+02  9.20000000E+01  0.00000000E+00
  6.70000000E+02  9.20000000E+01  0.00000000E+00
  6.80000000E+02  9.20000000E+01  0.00000000E+00
  6.90000000E+02  9.20000000E+01  0.00000000E+00
  7.00000000E+02  9.20000000E+01  0.00000000E+00
  7.10000000E+02  9.20000000E+01  0.00000000E+00
  7.20000000E+02  9.20000000E+01  0.00000000E+00
  7.30000000E+02  9.20000000E+01  0.00000000E+00
  7.40000000E+02  9.20000000E+01  0.00000000E+00
  7.50000000E+02  9.20000000E+01  0.00000000E+00
  7.60000000E+02  9.20000000E+01  0.00000000E+00
  7.70000000E+02  9.20000000E+01  0.00000000E+00
  7.80000000E+02  9.20000000E+01  0.00000000E+00
  7.90000000E+02  9.20000000E+01  0.00000000E+00
  8.00000000E+02  9.20000000E+01  0.00000000E+00
  8.10000000E+02  9.20000000E+01  0.00000000E+00
  8.20000000E+02  9.20000000E+01  0.00000000E+00
  8.30000000E+02  9.20000000E+01  0.00000000E+00
  8.40000000E+02  9.20000000E+01  0.00000000E+00
  8.50000000E+02  9.20000000E+01  0.00000000E+00
  8.60000000E+02  9.20000000E+01  0.00000000E+00
  8.70000000E+02  9.20000000E+01  0.00000000E+00
  8.80000000E+02  9.20000000E+01  0.00000000E+00
  8.90000000E+02  9.20000000E+01  0.00000000E+00
  9.00000000E+02  9.20000000E+01  0.00000000E+00
  9.10000000E+02  9.20000000E+01  0.00000000E+00
  9.20000000E+02  9.20000000E+01  0.00000000E+00
  9.30000000E+02  9.20000000E+01  0.00000000E+00
  9.40000000E+02  9.20000000E+01  0.00000000E+00
  9.50000000E+02  9.20000000E+01  0.00000000E+00
  9.60000000E+02  9.20000000E+01  0.00000000E+00
  9.70000000E+02  9.20000000E+01  0.00000000E+00
  9.80000000E+02  9.20000000E+01  0.00000000E+00
  9.90000000E+02  9.20000000E+01  0.00000000E+00
  1.00000000E+03  9.20000000E+01  0.00000000E+00
  0.00000000E+00  9.40000000E+01  0.00000000E+00
  1.00000000E+01  9.40000000E+01  0.00000000E+00
  2.00000000E+01  9.40000000E+01  0.00000000E+00
  3.00000000E+01  9.40000000E+01  0.00000000E+00
  4.00000000E+01  9.40000000E+01  0.00000000E+00
  5.00000000E+01  9.40000000E+01  0.00000000E+00
  6.00000000E+01  9.40000000E+01  0.00000000E+00
  7.00000000E+01  9.40000000E+01  0.00000000E+00
  8.00000000E+01  9.40000000E+01  0.00000000E+00
  9.00000000E+01  9.40000000E+01  0.00000000E+00
  1.00000000E+02  9.40000000E+01  0.00000000E+00
  1.10000000E+02  9.40000000E+01  0.00000000E+00
  1.20000000E+02  9.40000000E+01  0.00000000E+00
  1.30000000E+02  9.40000000E+01  0.00000000E+00
  1.40000000E+02  9.40000000E+01  0.00000000E+00
  1.50000000E+02  9.40000000E+01  0.00000000E+00
  1.60000000E+02  9.40000000E+01  0.00000000E+00
  1.70000000E+02  9.40000000E+01  0.00000000E+00
  1.80000000E+02  9.40000000E+01  0.00000000E+00
  1.90000000E+02  9.40000000E+01  0.00000000E+00
  2.00000000E+02  9.40000000E+01  0.00000000E+00
  2.10000000E+02  9.40000000E+01  0.00000000E+00
  2.20000000E+02  9.40000000E+01  0.00000000E+00
  2.30000000E+02  9.40000000E+01  0.00000000E+00
  2.40000000E+02  9.40000000E+01  0.00000000E+00
  2.50000000E+02  9.40000000E+01  0.00000000E+00
  2.60000000E+02  9.40000000E+01  0.00000000E+00
  2.70000000E+02  9.40000000E+01  0.00000000E+00
  2.80000000E+02  9.40000000E+01  0.00000000E+00
  2.90000000E+02  9.40000000E+01  0.00000000E+00
  3.00000000E+02  9.40000000E+01  0.00000000E+00
  3.10000000E+02  9.40000000E+01  0.00000000E+00
  3.20000000E+02  9.40000000E+01  0.00000000E+00
  3.30000000E+02  9.40000000E+01  0.00000000E+00
  3.40000000E+02  9.40000000E+01  0.00000000E+00
  3.50000000E+02  9.40000000E+01  0.00000000E+00
  3.60000000E+02  9.40000000E+01  0.00000000E+00
  3.70000000E+02  9.40000000E+01  0.00000000E+00
  3.80000000E+02  9.40000000E+01  0.00000000E+00
  3.90000000E+02  9.40000000E+01  0.00000000E+00
  4.00000000E+02  9.40000000E+01  0.00000000E+00
  4.10000000E+02  9.40000000E+01  0.00000000E+00
  4.20000000E+02  9.40000000E+01  0.00000000E+00
  4.30000000E+02  9.40000000E+01  0.00000000E+00
  4.40000000E+02  9.40000000E+01  0.00000000E+00
  4.50000000E+02  9.40000000E+01  0.00000000E+00
  4.60000000E+02  9.40000000E+01  0.00000000E+00
  4.70000000E+02  9.40000000E+01  0.00000000E+00
  4.80000000E+02  9.40000000E+01  0.00000000E+00
  4.90000000E+02  9.40000000E+01  0.00000000E+00
  5.00000000E+02  9.40000000E+01  0.00000000E+00
  5.10000000E+02  9.40000000E+01  0.00000000E+00
  5.20000000E+02  9.40000000E+01  0.00000000E+00
  5.30000000E+02  9.40000000E+01  0.00000000E+00
  5.40000000E+02  9.40000000E+01  0.00000000E+00
  5.50000000E+02  9.40000000E+01  0.00000000E+00
  5.60000000E+02  9.40000000E+01  0.00000000E+00
  5.70000000E+02  9.40000000E+01  0.00000000E+00
  5.80000000E+02  9.40000000E+01  0.00000000E+00
  5.90000000E+02  9.40000000E+01  0.00000000E+00
  6.00000000E+02  9.40000000E+01  0.00000000E+00
  6.10000000E+02  9.40000000E+01  0.00000000E+00
  6.20000000E+02  9.40000000E+01  0.00000000E+00
  6.30000000E+02  9.40000000E+01  0.00000000E+00
  6.40000000E+02  9.40000000E+01  0.00000000E+00
  6.50000000E+02  9.40000000E+01  0.00000000E+00
  6.60000000E+02  9.40000000E+01  0.00000000E+00
  6.70000000E+02  9.40000000E+01  0.00000000E+00
  6.80000000E+02  9.40000000E+01  0.00000000E+00
  6.90000000E+02  9.40000000E+01  0.00000000E+00
  7.00000000E+02  9.40000000E+01  0.00000000E+00
  7.10000000E+02  9.40000000E+01  0.00000000E+00
  7.20000000E+02  9.40000000E+01  0.00000000E+00
  7.30000000E+02  9.40000000E+01  0.00000000E+00
  7.40000000E+02  9.40000000E+01  0.00000000E+00
  7.50000000E+02  9.40000000E+01  0.00000000E+00
  7.60000000E+02  9.40000000E+01  0.00000000E+00
  7.70000000E+02  9.40000000E+01  0.00000000E+00
  7.80000000E+02  9.40000000E+01  0.00000000E+00
  7.90000000E+02  9.40000000E+01  0.00000000E+00
  8.00000000E+02  9.40000000E+01  0.00000000E+00
  8.10000000E+02  9.40000000E+01  0.00000000E+00
  8.20000000E+02  9.40000000E+01  0.00000000E+00
  8.30000000E+02  9.40000000E+01  0.00000000E+00
  8.40000000E+02  9.40000000E+01  0.00000000E+00
  8.50000000E+02  9.40000000E+01  0.00000000E+00
  8.60000000E+02  9.40000000E+01  0.00000000E+00
  8.70000000E+02  9.40000000E+01  0.00000000E+00
  8.80000000E+02  9.40000000E+01  0.00000000E+00
  8.90000000E+02  9.40000000E+01  0.00000000E+00
  9.00000000E+02  9.40000000E+01  0.00000000E+00
  9.10000000E+02  9.40000000E+01  0.00000000E+00
  9.20000000E+02  9.40000000E+01  0.00000000E+00
  9.30000000E+02  9.40000000E+01  0.00000000E+00
  9.40000000E+02  9.40000000E+01  0.00000000E+00
  9.50000000E+02  9.40000000E+01  0.00000000E+00
  9.60000000E+02  9.40000000E+01  0.00000000E+00
  9.70000000E+02  9.40000000E+01  0.00000000E+00
  9.80000000E+02  9.40000000E+01  0.00000000E+00
  9.90000000E+02  9.40000000E+01  0.00000000E+00
  1.00000000E+03  9.40000000E+01  0.00000000E+00
  0.00000000E+00  9.60000000E+01  0.00000000E+00
  1.00000000E+01  9.60000000E+01  0.00000000E+00
  2.00000000E+01  9.60000000E+01  0.00000000E+00
  3.00000000E+01  9.60000000E+01  0.00000000E+00
  4.00000000E+01  9.60000000E+01  0.00000000E+00
  5.00000000E+01  9.60000000E+01  0.00000000E+00
  6.00000000E+01  9.60000000E+01  0.00000000E+00
  7.00000000E+01  9.60000000E+01  0.00000000E+00
  8.00000000E+01  9.60000000E+01  0.00000000E+00
  9.00000000E+01  9.60000000E+01  0.00000000E+00
  1.00000000E+02  9.60000000E+01  0.00000000E+00
  1.10000000E+02  9.60000000E+01  0.00000000E+00
  1.20000000E+02  9.60000000E+01  0.00000000E+00
  1.30000000E+02  9.60000000E+01  0.00000000E+00
  1.40000000E+02  9.60000000E+01  0.00000000E+00
  1.50000000E+02  9.60000000E+01  0.00000000E+00
  1.60000000E+02  9.60000000E+01  0.00000000E+00
  1.70000000E+02  9.60000000E+01  0.00000000E+00
  1.80000000E+02  9.60000000E+01  0.00000000E+00
  1.90000000E+02  9.60000000E+01  0.00000000E+00
  2.00000000E+02  9.60000000E+01  0.00000000E+00
  2.10000000E+02  9.60000000E+01  0.00000000E+00
  2.20000000E+02  9.60000000E+01  0.00000000E+00
  2.30000000E+02  9.60000000E+01  0.00000000E+00
  2.40000000E+02  9.60000000E+01  0.00000000E+00
  2.50000000E+02  9.60000000E+01  0.00000000E+00
  2.60000000E+02  9.60000000E+01  0.00000000E+00
  2.70000000E+02  9.60000000E+01  0.00000000E+00
  2.80000000E+02  9.60000000E+01  0.00000000E+00
  2.90000000E+02  9.60000000E+01  0.00000000E+00
  3.00000000E+02  9.60000000E+01  0.00000000E+00
  3.10000000E+02  9.60000000E+01  0.00000000E+00
  3.20000000E+02  9.60000000E+01  0.00000000E+00
  3.30000000E+02  9.60000000E+01  0.00000000E+00
  3.40000000E+02  9.60000000E+01  0.00000000E+00
  3.50000000E+02  9.60000000E+01  0.00000000E+00
  3.60000000E+02  9.60000000E+01  0.00000000E+00
  3.70000000E+02  9.60000000E+01  0.00000000E+00
  3.80000000E+02  9.60000000E+01  0.00000000E+00
  3.90000000E+02  9.60000000E+01  0.00000000E+00
  4.00000000E+02  9.60000000E+01  0.00000000E+00
  4.10000000E+02  9.60000000E+01  0.00000000E+00
  4.20000000E+02  9.60000000E+01  0.00000000E+00
  4.30000000E+02  9.60000000E+01  0.00000000E+00
  4.40000000E+02  9.60000000E+01  0.00000000E+00
  4.50000000E+02  9.60000000E+01  0.00000000E+00
  4.60000000E+02  9.60000000E+01  0.00000000E+00
  4.70000000E+02  9.60000000E+01  0.00000000E+00
  4.80000000E+02  9.60000000E+01  0.00000000E+00
  4.90000000E+02  9.60000000E+01  0.00000000E+00
  5.00000000E+02  9.60000000E+01  0.00000000E+00
  5.10000000E+02  9.60000000E+01  0.00000000E+00
  5.20000000E+02  9.60000000E+01  0.00000000E+00
  5.30000000E+02  9.60000000E+01  0.00000000E+00
  5.40000000E+02  9.60000000E+01  0.00000000E+00
  5.50000000E+02  9.60000000E+01  0.00000000E+00
  5.60000000E+02  9.60000000E+01  0.00000000E+00
  5.70000000E+02  9.60000000E+01  0.00000000E+00
  5.80000000E+02  9.60000000E+01  0.00000000E+00
  5.90000000E+02  9.60000000E+01  0.00000000E+00
  6.00000000E+02  9.60000000E+01  0.00000000E+00
  6.10000000E+02  9.60000000E+01  0.00000000E+00
  6.20000000E+02  9.60000000E+01  0.00000000E+00
  6.30000000E+02  9.60000000E+01  0.00000000E+00
  6.40000000E+02  9.60000000E+01  0.00000000E+00
  6.50000000E+02  9.60000000E+01  0.00000000E+00
  6.60000000E+02  9.60000000E+01  0.00000000E+00
  6.70000000E+02  9.60000000E+01  0.00000000E+00
  6.80000000E+02  9.60000000E+01  0.00000000E+00
  6.90000000E+02  9.60000000E+01  0.00000000E+00
  7.00000000E+02  9.60000000E+01  0.00000000E+00
  7.10000000E+02  9.60000000E+01  0.00000000E+00
  7.20000000E+02  9.60000000E+01  0.00000000E+00
  7.30000000E+02  9.60000000E+01  0.00000000E+00
  7.40000000E+02  9.60000000E+01  0.00000000E+00
  7.50000000E+02  9.60000000E+01  0.00000000E+00
  7.60000000E+02  9.60000000E+01  0.00000000E+00
  7.70000000E+02  9.60000000E+01  0.00000000E+00
  7.80000000E+02  9.60000000E+01  0.00000000E+00
  7.90000000E+02  9.60000000E+01  0.00000000E+00
  8.00000000E+02  9.60000000E+01  0.00000000E+00
  8.10000000E+02  9.60000000E+01  0.00000000E+00
  8.20000000E+02  9.60000000E+01  0.00000000E+00
  8.30000000E+02  9.60000000E+01  0.00000000E+00
  8.40000000E+02  9.60000000E+01  0.00000000E+00
  8.50000000E+02  9.60000000E+01  0.00000000E+00
  8.60000000E+02  9.60000000E+01  0.00000000E+00
  8.70000000E+02  9.60000000E+01  0.00000000E+00
  8.80000000E+02  9.60000000E+01  0.00000000E+00
  8.90000000E+02  9.60000000E+01  0.00000000E+00
  9.00000000E+02  9.60000000E+01  0.00000000E+00
  9.10000000E+02  9.60000000E+01  0.00000000E+00
  9.20000000E+02  9.60000000E+01  0.00000000E+00
  9.30000000E+02  9.60000000E+01  0.00000000E+00
  9.40000000E+02  9.60000000E+01  0.00000000E+00
  9.50000000E+02  9.60000000E+01  0.00000000E+00
  9.60000000E+02  9.60000000E+01  0.00000000E+00
  9.70000000E+02  9.60000000E+01  0.00000000E+00
  9.80000000E+02  9.60000000E+01  0.00000000E+00
  9.90000000E+02  9.60000000E+01  0.00000000E+00
  1.00000000E+03  9.60000000E+01  0.00000000E+00
  0.00000000E+00  9.80000000E+01  0.00000000E+00
  1.00000000E+01  9.80000000E+01  0.00000000E+00
  2.00000000E+01  9.80000000E+01  0.00000000E+00
  3.00000000E+01  9.80000000E+01  0.00000000E+00
  4.00000000E+01  9.80000000E+01  0.00000000E+00
  5.00000000E+01  9.80000000E+01  0.00000000E+00
  6.00000000E+01  9.80000000E+01  0.00000000E+00
  7.00000000E+01  9.80000000E+01  0.00000000E+00
  8.00000000E+01  9.80000000E+01  0.00000000E+00
  9.00000000E+01  9.80000000E+01  0.00000000E+00
  1.00000000E+02  9.80000000E+01  0.00000000E+00
  1.10000000E+02  9.80000000E+01  0.00000000E+00
  1.20000000E+02  9.80000000E+01  0.00000000E+00
  1.30000000E+02  9.80000000E+01  0.00000000E+00
  1.40000000E+02  9.80000000E+01  0.00000000E+00
  1.50000000E+02  9.80000000E+01  0.00000000E+00
  1.60000000E+02  9.80000000E+01  0.00000000E+00
  1.70000000E+02  9.80000000E+01  0.00000000E+00
  1.80000000E+02  9.80000000E+01  0.00000000E+00
  1.90000000E+02  9.80000000E+01  0.00000000E+00
  2.00000000E+02  9.80000000E+01  0.00000000E+00
  2.10000000E+02  9.80000000E+01  0.00000000E+00
  2.20000000E+02  9.80000000E+01  0.00000000E+00
  2.30000000E+02  9.80000000E+01  0.00000000E+00
  2.40000000E+02  9.80000000E+01  0.00000000E+00
  2.50000000E+02  9.80000000E+01  0.00000000E+00
  2.60000000E+02  9.80000000E+01  0.00000000E+00
  2.70000000E+02  9.80000000E+01  0.00000000E+00
  2.80000000E+02  9.80000000E+01  0.00000000E+00
  2.90000000E+02  9.80000000E+01  0.00000000E+00
  3.00000000E+02  9.80000000E+01  0.00000000E+00
  3.10000000E+02  9.80000000E+01  0.00000000E+00
  3.20000000E+02  9.80000000E+01  0.00000000E+00
  3.30000000E+02  9.80000000E+01  0.00000000E+00
  3.40000000E+02  9.80000000E+01  0.00000000E+00
  3.50000000E+02  9.80000000E+01  0.00000000E+00
  3.60000000E+02  9.80000000E+01  0.00000000E+00
  3.70000000E+02  9.80000000E+01  0.00000000E+00
  3.80000000E+02  9.80000000E+01  0.00000000E+00
  3.90000000E+02  9.80000000E+01  0.00000000E+00
  4.00000000E+02  9.80000000E+01  0.00000000E+00
  4.10000000E+02  9.80000000E+01  0.00000000E+00
  4.20000000E+02  9.80000000E+01  0.00000000E+00
  4.30000000E+02  9.80000000E+01  0.00000000E+00
  4.40000000E+02  9.80000000E+01  0.00000000E+00
  4.50000000E+02  9.80000000E+01  0.00000000E+00
  4.60000000E+02  9.80000000E+01  0.00000000E+00
  4.70000000E+02  9.80000000E+01  0.00000000E+00
  4.80000000E+02  9.80000000E+01  0.00000000E+00
  4.90000000E+02  9.80000000E+01  0.00000000E+00
  5.00000000E+02  9.80000000E+01  0.00000000E+00
  5.10000000E+02  9.80000000E+01  0.00000000E+00
  5.20000000E+02  9.80000000E+01  0.00000000E+00
  5.30000000E+02  9.80000000E+01  0.00000000E+00
  5.40000000E+02  9.80000000E+01  0.00000000E+00
  5.50000000E+02  9.80000000E+01  0.00000000E+00
  5.60000000E+02  9.80000000E+01  0.00000000E+00
  5.70000000E+02  9.80000000E+01  0.00000000E+00
  5.80000000E+02  9.80000000E+01  0.00000000E+00
  5.90000000E+02  9.80000000E+01  0.00000000E+00
  6.00000000E+02  9.80000000E+01  0.00000000E+00
  6.10000000E+02  9.80000000E+01  0.00000000E+00
  6.20000000E+02  9.80000000E+01  0.00000000E+00
  6.30000000E+02  9.80000000E+01  0.00000000E+00
  6.40000000E+02  9.80000000E+01  0.00000000E+00
  6.50000000E+02  9.80000000E+01  0.00000000E+00
  6.60000000E+02  9.80000000E+01  0.00000000E+00
  6.70000000E+02  9.80000000E+01  0.00000000E+00
  6.80000000E+02  9.80000000E+01  0.00000000E+00
  6.90000000E+02  9.80000000E+01  0.00000000E+00
  7.00000000E+02  9.80000000E+01  0.00000000E+00
  7.10000000E+02  9.80000000E+01  0.00000000E+00
  7.20000000E+02  9.80000000E+01  0.00000000E+00
  7.30000000E+02  9.80000000E+01  0.00000000E+00
  7.40000000E+02  9.80000000E+01  0.00000000E+00
  7.50000000E+02  9.80000000E+01  0.00000000E+00
  7.60000000E+02  9.80000000E+01  0.00000000E+00
  7.70000000E+02  9.80000000E+01  0.00000000E+00
  7.80000000E+02  9.80000000E+01  0.00000000E+00
  7.90000000E+02  9.80000000E+01  0.00000000E+00
  8.00000000E+02  9.80000000E+01  0.00000000E+00
  8.10000000E+02  9.80000000E+01  0.00000000E+00
  8.20000000E+02  9.80000000E+01  0.00000000E+00
  8.30000000E+02  9.80000000E+01  0.00000000E+00
  8.40000000E+02  9.80000000E+01  0.00000000E+00
  8.50000000E+02  9.80000000E+01  0.00000000E+00
  8.60000000E+02  9.80000000E+01  0.00000000E+00
  8.70000000E+02  9.80000000E+01  0.00000000E+00
  8.80000000E+02  9.80000000E+01  0.00000000E+00
  8.90000000E+02  9.80000000E+01  0.00000000E+00
  9.00000000E+02  9.80000000E+01  0.00000000E+00
  9.10000000E+02  9.80000000E+01  0.00000000E+00
  9.20000000E+02  9.80000000E+01  0.00000000E+00
  9.30000000E+02  9.80000000E+01  0.00000000E+00
  9.40000000E+02  9.80000000E+01  0.00000000E+00
  9.50000000E+02  9.80000000E+01  0.00000000E+00
  9.60000000E+02  9.80000000E+01  0.00000000E+00
  9.70000000E+02  9.80000000E+01  0.00000000E+00
  9.80000000E+02  9.80000000E+01  0.00000000E+00
  9.90000000E+02  9.80000000E+01  0.00000000E+00
  1.00000000E+03  9.80000000E+01  0.00000000E+00
  0.00000000E+00  1.00000000E+02  0.00000000E+00
  1.00000000E+01  1.00000000E+02  0.00000000E+00
  2.00000000E+01  1.00000000E+02  0.00000000E+00
  3.00000000E+01  1.00000000E+02  0.00000000E+00
  4.00000000E+01  1.00000000E+02  0.00000000E+00
  5.00000000E+01  1.00000000E+02  0.00000000E+00
  6.00000000E+01  1.00000000E+02  0.00000000E+00
  7.00000000E+01  1.00000000E+02  0.00000000E+00
  8.00000000E+01  1.00000000E+02  0.00000000E+00
  9.00000000E+01  1.00000000E+02  0.00000000E+00
  1.00000000E+02  1.00000000E+02  0.00000000E+00
  1.10000000E+02  1.00000000E+02  0.00000000E+00
  1.20000000E+02  1.00000000E+02  0.00000000E+00
  1.30000000E+02  1.00000000E+02  0.00000000E+00
  1.40000000E+02  1.00000000E+02  0.00000000E+00
  1.50000000E+02  1.00000000E+02  0.00000000E+00
  1.60000000E+02  1.00000000E+02  0.00000000E+00
  1.70000000E+02  1.00000000E+02  0.00000000E+00
  1.80000000E+02  1.00000000E+02  0.00000000E+00
  1.90000000E+02  1.00000000E+02  0.00000000E+00
  2.00000000E+02  1.00000000E+02  0.00000000E+00
  2.10000000E+02  1.00000000E+02  0.00000000E+00
  2.20000000E+02  1.00000000E+02  0.00000000E+00
  2.30000000E+02  1.00000000E+02  0.00000000E+00
  2.40000000E+02  1.00000000E+02  0.00000000E+00
  2.50000000E+02  1.00000000E+02  0.00000000E+00
  2.60000000E+02  1.00000000E+02  0.00000000E+00
  2.70000000E+02  1.00000000E+02  0.00000000E+00
  2.80000000E+02  1.00000000E+02  0.00000000E+00
  2.90000000E+02  1.00000000E+02  0.00000000E+00
  3.00000000E+02  1.00000000E+02  0.00000000E+00
  3.10000000E+02  1.00000000E+02  0.00000000E+00
  3.20000000E+02  1.00000000E+02  0.00000000E+00
  3.30000000E+02  1.00000000E+02  0.00000000E+00
  3.40000000E+02  1.00000000E+02  0.00000000E+00
  3.50000000E+02  1.00000000E+02  0.00000000E+00
  3.60000000E+02  1.00000000E+02  0.00000000E+00
  3.70000000E+02  1.00000000E+02  0.00000000E+00
  3.80000000E+02  1.00000000E+02  0.00000000E+00
  3.90000000E+02  1.00000000E+02  0.00000000E+00
  4.00000000E+02  1.00000000E+02  0.00000000E+00
  4.10000000E+02  1.00000000E+02  0.00000000E+00
  4.20000000E+02  1.00000000E+02  0.00000000E+00
  4.30000000E+02  1.00000000E+02  0.00000000E+00
  4.40000000E+02  1.00000000E+02  0.00000000E+00
  4.50000000E+02  1.00000000E+02  0.00000000E+00
  4.60000000E+02  1.00000000E+02  0.00000000E+00
  4.70000000E+02  1.00000000E+02  0.00000000E+00
  4.80000000E+02  1.00000000E+02  0.00000000E+00
  4.90000000E+02  1.00000000E+02  0.00000000E+00
  5.00000000E+02  1.00000000E+02  0.00000000E+00
  5.10000000E+02  1.00000000E+02  0.00000000E+00
  5.20000000E+02  1.00000000E+02  0.00000000E+00
  5.30000000E+02  1.00000000E+02  0.00000000E+00
  5.40000000E+02  1.00000000E+02  0.00000000E+00
  5.50000000E+02  1.00000000E+02  0.00000000E+00
  5.60000000E+02  1.00000000E+02  0.00000000E+00
  5.70000000E+02  1.00000000E+02  0.00000000E+00
  5.80000000E+02  1.00000000E+02  0.00000000E+00
  5.90000000E+02  1.00000000E+02  0.00000000E+00
  6.00000000E+02  1.00000000E+02  0.00000000E+00
  6.10000000E+02  1.00000000E+02  0.00000000E+00
  6.20000000E+02  1.00000000E+02  0.00000000E+00
  6.30000000E+02  1.00000000E+02  0.00000000E+00
  6.40000000E+02  1.00000000E+02  0.00000000E+00
  6.50000000E+02  1.00000000E+02  0.00000000E+00
  6.60000000E+02  1.00000000E+02  0.00000000E+00
  6.70000000E+02  1.00000000E+02  0.00000000E+00
  6.80000000E+02  1.00000000E+02  0.00000000E+00
  6.90000000E+02  1.00000000E+02  0.00000000E+00
  7.00000000E+02  1.00000000E+02  0.00000000E+00
  7.10000000E+02  1.00000000E+02  0.00000000E+00
  7.20000000E+02  1.00000000E+02  0.00000000E+00
  7.30000000E+02  1.00000000E+02  0.00000000E+00
  7.40000000E+02  1.00000000E+02  0.00000000E+00
  7.50000000E+02  1.00000000E+02  0.00000000E+00
  7.60000000E+02  1.00000000E+02  0.00000000E+00
  7.70000000E+02  1.00000000E+02  0.00000000E+00
  7.80000000E+02  1.00000000E+02  0.00000000E+00
  7.90000000E+02  1.00000000E+02  0.00000000E+00
  8.00000000E+02  1.00000000E+02  0.00000000E+00
  8.10000000E+02  1.00000000E+02  0.00000000E+00
  8.20000000E+02  1.00000000E+02  0.00000000E+00
  8.30000000E+02  1.00000000E+02  0.00000000E+00
  8.40000000E+02  1.00000000E+02  0.00000000E+00
  8.50000000E+02  1.00000000E+02  0.00000000E+00
  8.60000000E+02  1.00000000E+02  0.00000000E+00
  8.70000000E+02  1.00000000E+02  0.00000000E+00
  8.80000000E+02  1.00000000E+02  0.00000000E+00
  8.90000000E+02  1.00000000E+02  0.00000000E+00
  9.00000000E+02  1.00000000E+02  0.00000000E+00
  9.10000000E+02  1.00000000E+02  0.00000000E+00
  9.20000000E+02  1.00000000E+02  0.00000000E+00
  9.30000000E+02  1.00000000E+02  0.00000000E+00
  9.40000000E+02  1.00000000E+02  0.00000000E+00
  9.50000000E+02  1.00000000E+02  0.00000000E+00
  9.60000000E+02  1.00000000E+02  0.00000000E+00
  9.70000000E+02  1.00000000E+02  0.00000000E+00
  9.80000000E+02  1.00000000E+02  0.00000000E+00
  9.90000000E+02  1.00000000E+02  0.00000000E+00
  1.00000000E+03  1.00000000E+02  0.00000000E+00
CELLS      5000     25000
         4           0           1         102         101
         4           1           2         103         102
         4           2           3         104         103
         4           3           4         105         104
         4           4           5         106         105
         4           5           6         107         106
         4           6           7         108         107
         4           7           8         109         108
         4           8           9         110         109
         4           9          10         111         110
         4          10          11         112         111
         4          11          12         113         112
         4          12          13         114         113
         4          13          14         115         114
         4          14          15         116         115
         4          15          16         117         116
         4          16          17         118         117
         4          17          18         119         118
         4          18          19         120         119
         4          19          20         121         120
         4          20          21         122         121
         4          21          22         123         122
         4          22          23         124         123
         4          23          24         125         124
         4          24          25         126         125
         4          25          26         127         126
         4          26          27         128         127
         4          27          28         129         128
         4          28          29         130         129
         4          29          30         131         130
         4          30          31         132         131
         4          31          32         133         132
         4          32          33         134         133
         4          33          34         135         134
         4          34          35         136         135
         4          35          36         137         136
         4          36          37         138         137
         4          37          38         139         138
         4          38          39         140         139
         4          39          40         141         140
         4          40          41         142         141
         4          41          42         143         142
         4          42          43         144         143
         4          43          44         145         144
         4          44          45         146         145
         4          45          46         147         146
         4          46          47         148         147
         4          47          48         149         148
         4          48          49         150         149
         4          49          50         151         150
         4          50          51         152         151
         4          51          52         153         152
         4          52          53         154         153
         4          53          54         155         154
         4          54          55         156         155
         4          55          56         157         156
         4          56          57         158         157
         4          57          58         159         158
         4          58          59         160         159
         4          59          60         161         160
         4          60          61         162         161
         4          61          62         163         162
         4          62          63         164         163
         4          63          64         165         164
         4          64          65         166         165
         4          65          66         167         166
         4          66          67         168         167
         4          67          68         169         168
         4          68          69         170         169
         4          69          70         171         170
         4          70          71         172         171
         4          71          72         173         172
         4          72          73         174         173
         4          73          74         175         174
         4          74          75         176         175
         4          75          76         177         176
         4          76          77         178         177
         4          77          78         179         178
         4          78          79         180         179
         4          79          80         181         180
         4          80          81         182         181
         4          81          82         183         182
         4          82          83         184         183
         4          83          84         185         184
         4          84          85         186         185
         4          85          86         187         186
         4          86          87         188         187
         4          87          88         189         188
         4          88          89         190         189
         4          89          90         191         190
         4          90          91         192         191
         4          91          92         193         192
         4          92          93         194         193
         4          93          94         195         194
         4          94          95         196         195
         4          95          96         197         196
         4          96          97         198         197
         4          97          98         199         198
         4          98          99         200         199
         4          99         100         201         200
         4         101         102         203         202
         4         102         103         204         203
         4         103         104         205         204
         4         104         105         206         205
         4         105         106         207         206
         4         106         107         208         207
         4         107         108         209         208
         4         108         109         210         209
         4         109         110         211         210
         4         110         111         212         211
         4         111         112         213         212
         4         112         113         214         213
         4         113         114         215         214
         4         114         115         216         215
         4         115         116         217         216
         4         116         117         218         217
         4         117         118         219         218
         4         118         119         220         219
         4         119         120         221         220
         4         120         121         222         221
         4         121         122         223         222
         4         122         123         224         223
         4         123         124         225         224
         4         124         125         226         225
         4         125         126         227         226
         4         126         127         228         227
         4         127         128         229         228
         4         128         129         230         229
         4         129         130         231         230
         4         130         131         232         231
         4         131         132         233         232
         4         132         133         234         233
         4         133         134         235         234
         4         134         135         236         235
         4         135         136         237         236
         4         136         137         238         237
         4         137         138         239         238
         4         138         139         240         239
         4         139         140         241         240
         4         140         141         242         241
         4         141         142         243         242
         4         142         143         244         243
         4         143         144         245         244
         4         144         145         246         245
         4         145         146         247         246
         4         146         147         248         247
         4         147         148         249         248
         4         148         149         250         249
         4         149         150         251         250
         4         150         151         252         251
         4         151         152         253         252
         4         152         153         254         253
         4         153         154         255         254
         4         154         155         256         255
         4         155         156         257         256
         4         156         157         258         257
         4         157         158         259         258
         4         158         159         260         259
         4         159         160         261         260
         4         160         161         262         261
         4         161         162         263         262
         4         162         163         264         263
         4         163         164         265         264
         4         164         165         266         265
         4         165         166         267         266
         4         166         167         268         267
         4         167         168         269         268
         4         168         169         270         269
         4         169         170         271         270
         4         170         171         272         271
         4         171         172         273         272
         4         172         173         274         273
         4         173         174         275         274
         4         174         175         276         275
         4         175         176         277         276
         4         176         177         278         277
         4         177         178         279         278
         4         178         179         280         279
         4         179         180         281         280
         4         180         181         282         281
         4         181         182         283         282
         4         182         183         284         283
         4         183         184         285         284
         4         184         185         286         285
         4         185         186         287         286
         4         186         187         288         287
         4         187         188         289         288
         4         188         189         290         289
         4         189         190         291         290
         4         190         191         292         291
         4         191         192         293         292
         4         192         193         294         293
         4         193         194         295         294
         4         194         195         296         295
         4         195         196         297         296
         4         196         197         298         297
         4         197         198         299         298
         4         198         199         300         299
         4         199         200         301         300
         4         200         201         302         301
         4         202         203         304         303
         4         203         204         305         304
         4         204         205         306         305
         4         205         206         307         306
         4         206         207         308         307
         4         207         208         309         308
         4         208         209         310         309
         4         209         210         311         310
         4         210         211         312         311
         4         211         212         313         312
         4         212         213         314         313
         4         213         214         315         314
         4         214         215         316         315
         4         215         216         317         316
         4         216         217         318         317
         4         217         218         319         318
         4         218         219         320         319
         4         219         220         321         320
         4         220         221         322         321
         4         221         222         323         322
         4         222         223         324         323
         4         223         224         325         324
         4         224         225         326         325
         4         225         226         327         326
         4         226         227         328         327
         4         227         228         329         328
         4         228         229         330         329
         4         229         230         331         330
         4         230         231         332         331
         4         231         232         333         332
         4         232         233         334         333
         4         233         234         335         334
         4         234         235         336         335
         4         235         236         337         336
         4         236         237         338         337
         4         237         238         339         338
         4         238         239         340         339
         4         239         240         341         340
         4         240         241         342         341
         4         241         242         343         342
         4         242         243         344         343
         4         243         244         345         344
         4         244         245         346         345
         4         245         246         347         346
         4         246         247         348         347
         4         247         248         349         348
         4         248         249         350         349
         4         249         250         351         350
         4         250         251         352         351
         4         251         252         353         352
         4         252         253         354         353
         4         253         254         355         354
         4         254         255         356         355
         4         255         256         357         356
         4         256         257         358         357
         4         257         258         359         358
         4         258         259         360         359
         4         259         260         361         360
         4         260         261         362         361
         4         261         262         363         362
         4         262         263         364         363
         4         263         264         365         364
         4         264         265         366         365
         4         265         266         367         366
         4         266         267         368         367
         4         267         268         369         368
         4         268         269         370         369
         4         269         270         371         370
         4         270         271         372         371
         4         271         272         373         372
         4         272         273         374         373
         4         273         274         375         374
         4         274         275         376         375
         4         275         276         377         376
         4         276         277         378         377
         4         277         278         379         378
         4         278         279         380         379
         4         279         280         381         380
         4         280         281         382         381
         4         281         282         383         382
         4         282         283         384         383
         4         283         284         385         384
         4         284         285         386         385
         4         285         286         387         386
         4         286         287         388         387
         4         287         288         389         388
         4         288         289         390         389
         4         289         290         391         390
         4         290         291         392         391
         4         291         292         393         392
         4         292         293         394         393
         4         293         294         395         394
         4         294         295         396         395
         4         295         296         397         396
         4         296         297         398         397
         4         297         298         399         398
         4         298         299         400         399
         4         299         300         401         400
         4         300         301         402         401
         4         301         302         403         402
         4         303         304         405         404
         4         304         305         406         405
         4         305         306         407         406
         4         306         307         408         407
         4         307         308         409         408
         4         308         309         410         409
         4         309         310         411         410
         4         310         311         412         411
         4         311         312         413         412
         4         312         313         414         413
         4         313         314         415         414
         4         314         315         416         415
         4         315         316         417         416
         4         316         317         418         417
         4         317         318         419         418
         4         318         319         420         419
         4         319         320         421         420
         4         320         321         422         421
         4         321         322         423         422
         4         322         323         424         423
         4         323         324         425         424
         4         324         325         426         425
         4         325         326         427         426
         4         326         327         428         427
         4         327         328         429         428
         4         328         329         430         429
         4         329         330         431         430
         4         330         331         432         431
         4         331         332         433         432
         4         332         333         434         433
         4         333         334         435         434
         4         334         335         436         435
         4         335         336         437         436
         4         336         337         438         437
         4         337         338         439         438
         4         338         339         440         439
         4         339         340         441         440
         4         340         341         442         441
         4         341         342         443         442
         4         342         343         444         443
         4         343         344         445         444
         4         344         345         446         445
         4         345         346         447         446
         4         346         347         448         447
         4         347         348         449         448
         4         348         349         450         449
         4         349         350         451         450
         4         350         351         452         451
         4         351         352         453         452
         4         352         353         454         453
         4         353         354         455         454
         4         354         355         456         455
         4         355         356         457         456
         4         356         357         458         457
         4         357         358         459         458
         4         358         359         460         459
         4         359         360         461         460
         4         360         361         462         461
         4         361         362         463         462
         4         362         363         464         463
         4         363         364         465         464
         4         364         365         466         465
         4         365         366         467         466
         4         366         367         468         467
         4         367         368         469         468
         4         368         369         470         469
         4         369         370         471         470
         4         370         371         472         471
         4         371         372         473         472
         4         372         373         474         473
         4         373         374         475         474
         4         374         375         476         475
         4         375         376         477         476
         4         376         377         478         477
         4         377         378         479         478
         4         378         379         480         479
         4         379         380         481         480
         4         380         381         482         481
         4         381         382         483         482
         4         382         383         484         483
         4         383         384         485         484
         4         384         385         486         485
         4         385         386         487         486
         4         386         387         488         487
         4         387         388         489         488
         4         388         389         490         489
         4         389         390         491         490
         4         390         391         492         491
         4         391         392         493         492
         4         392         393         494         493
         4         393         394         495         494
         4         394         395         496         495
         4         395         396         497         496
         4         396         397         498         497
         4         397         398         499         498
         4         398         399         500         499
         4         399         400         501         500
         4         400         401         502         501
         4         401         402         503         502
         4         402         403         504         503
         4         404         405         506         505
         4         405         406         507         506
         4         406         407         508         507
         4         407         408         509         508
         4         408         409         510         509
         4         409         410         511         510
         4         410         411         512         511
         4         411         412         513         512
         4         412         413         514         513
         4         413         414         515         514
         4         414         415         516         515
         4         415         416         517         516
         4         416         417         518         517
         4         417         418         519         518
         4         418         419         520         519
         4         419         420         521         520
         4         420         421         522         521
         4         421         422         523         522
         4         422         423         524         523
         4         423         424         525         524
         4         424         425         526         525
         4         425         426         527         526
         4         426         427         528         527
         4         427         428         529         528
         4         428         429         530         529
         4         429         430         531         530
         4         430         431         532         531
         4         431         432         533         532
         4         432         433         534         533
         4         433         434         535         534
         4         434         435         536         535
         4         435         436         537         536
         4         436         437         538         537
         4         437         438         539         538
         4         438         439         540         539
         4         439         440         541         540
         4         440         441         542         541
         4         441         442         543         542
         4         442         443         544         543
         4         443         444         545         544
         4         444         445         546         545
         4         445         446         547         546
         4         446         447         548         547
         4         447         448         549         548
         4         448         449         550         549
         4         449         450         551         550
         4         450         451         552         551
         4         451         452         553         552
         4         452         453         554         553
         4         453         454         555         554
         4         454         455         556         555
         4         455         456         557         556
         4         456         457         558         557
         4         457         458         559         558
         4         458         459         560         559
         4         459         460         561         560
         4         460         461         562         561
         4         461         462         563         562
         4         462         463         564         563
         4         463         464         565         564
         4         464         465         566         565
         4         465         466         567         566
         4         466         467         568         567
         4         467         468         569         568
         4         468         469         570         569
         4         469         470         571         570
         4         470         471         572         571
         4         471         472         573         572
         4         472         473         574         573
         4         473         474         575         574
         4         474         475         576         575
         4         475         476         577         576
         4         476         477         578         577
         4         477         478         579         578
         4         478         479         580         579
         4         479         480         581         580
         4         480         481         582         581
         4         481         482         583         582
         4         482         483         584         583
         4         483         484         585         584
         4         484         485         586         585
         4         485         486         587         586
         4         486         487         588         587
         4         487         488         589         588
         4         488         489         590         589
         4         489         490         591         590
         4         490         491         592         591
         4         491         492         593         592
         4         492         493         594         593
         4         493         494         595         594
         4         494         495         596         595
         4         495         496         597         596
         4         496         497         598         597
         4         497         498         599         598
         4         498         499         600         599
         4         499         500         601         600
         4         500         501         602         601
         4         501         502         603         602
         4         502         503         604         603
         4         503         504         605         604
         4         505         506         607         606
         4         506         507         608         607
         4         507         508         609         608
         4         508         509         610         609
         4         509         510         611         610
         4         510         511         612         611
         4         511         512         613         612
         4         512         513         614         613
         4         513         514         615         614
         4         514         515         616         615
         4         515         516         617         616
         4         516         517         618         617
         4         517         518         619         618
         4         518         519         620         619
         4         519         520         621         620
         4         520         521         622         621
         4         521         522         623         622
         4         522         523         624         623
         4         523         524         625         624
         4         524         525         626         625
         4         525         526         627         626
         4         526         527         628         627
         4         527         528         629         628
         4         528         529         630         629
         4         529         530         631         630
         4         530         531         632         631
         4         531         532         633         632
         4         532         533         634         633
         4         533         534         635         634
         4         534         535         636         635
         4         535         536         637         636
         4         536         537         638         637
         4         537         538         639         638
         4         538         539         640         639
         4         539         540         641         640
         4         540         541         642         641
         4         541         542         643         642
         4         542         543         644         643
         4         543         544         645         644
         4         544         545         646         645
         4         545         546         647         646
         4         546         547         648         647
         4         547         548         649         648
         4         548         549         650         649
         4         549         550         651         650
         4         550         551         652         651
         4         551         552         653         652
         4         552         553         654         653
         4         553         554         655         654
         4         554         555         656         655
         4         555         556         657         656
         4         556         557         658         657
         4         557         558         659         658
         4         558         559         660         659
         4         559         560         661         660
         4         560         561         662         661
         4         561         562         663         662
         4         562         563         664         663
         4         563         564         665         664
         4         564         565         666         665
         4         565         566         667         666
         4         566         567         668         667
         4         567         568         669         668
         4         568         569         670         669
         4         569         570         671         670
         4         570         571         672         671
         4         571         572         673         672
         4         572         573         674         673
         4         573         574         675         674
         4         574         575         676         675
         4         575         576         677         676
         4         576         577         678         677
         4         577         578         679         678
         4         578         579         680         679
         4         579         580         681         680
         4         580         581         682         681
         4         581         582         683         682
         4         582         583         684         683
         4         583         584         685         684
         4         584         585         686         685
         4         585         586         687         686
         4         586         587         688         687
         4         587         588         689         688
         4         588         589         690         689
         4         589         590         691         690
         4         590         591         692         691
         4         591         592         693         692
         4         592         593         694         693
         4         593         594         695         694
         4         594         595         696         695
         4         595         596         697         696
         4         596         597         698         697
         4         597         598         699         698
         4         598         599         700         699
         4         599         600         701         700
         4         600         601         702         701
         4         601         602         703         702
         4         602         603         704         703
         4         603         604         705         704
         4         604         605         706         705
         4         606         607         708         707
         4         607         608         709         708
         4         608         609         710         709
         4         609         610         711         710
         4         610         611         712         711
         4         611         612         713         712
         4         612         613         714         713
         4         613         614         715         714
         4         614         615         716         715
         4         615         616         717         716
         4         616         617         718         717
         4         617         618         719         718
         4         618         619         720         719
         4         619         620         721         720
         4         620         621         722         721
         4         621         622         723         722
         4         622         623         724         723
         4         623         624         725         724
         4         624         625         726         725
         4         625         626         727         726
         4         626         627         728         727
         4         627         628         729         728
         4         628         629         730         729
         4         629         630         731         730
         4         630         631         732         731
         4         631         632         733         732
         4         632         633         734         733
         4         633         634         735         734
         4         634         635         736         735
         4         635         636         737         736
         4         636         637         738         737
         4         637         638         739         738
         4         638         639         740         739
         4         639         640         741         740
         4         640         641         742         741
         4         641         642         743         742
         4         642         643         744         743
         4         643         644         745         744
         4         644         645         746         745
         4         645         646         747         746
         4         646         647         748         747
         4         647         648         749         748
         4         648         649         750         749
         4         649         650         751         750
         4         650         651         752         751
         4         651         652         753         752
         4         652         653         754         753
         4         653         654         755         754
         4         654         655         756         755
         4         655         656         757         756
         4         656         657         758         757
         4         657         658         759         758
         4         658         659         760         759
         4         659         660         761         760
         4         660         661         762         761
         4         661         662         763         762
         4         662         663         764         763
         4         663         664         765         764
         4         664         665         766         765
         4         665         666         767         766
         4         666         667         768         767
         4         667         668         769         768
         4         668         669         770         769
         4         669         670         771         770
         4         670         671         772         771
         4         671         672         773         772
         4         672         673         774         773
         4         673         674         775         774
         4         674         675         776         775
         4         675         676         777         776
         4         676         677         778         777
         4         677         678         779         778
         4         678         679         780         779
         4         679         680         781         780
         4         680         681         782         781
         4         681         682         783         782
         4         682         683         784         783
         4         683         684         785         784
         4         684         685         786         785
         4         685         686         787         786
         4         686         687         788         787
         4         687         688         789         788
         4         688         689         790         789
         4         689         690         791         790
         4         690         691         792         791
         4         691         692         793         792
         4         692         693         794         793
         4         693         694         795         794
         4         694         695         796         795
         4         695         696         797         796
         4         696         697         798         797
         4         697         698         799         798
         4         698         699         800         799
         4         699         700         801         800
         4         700         701         802         801
         4         701         702         803         802
         4         702         703         804         803
         4         703         704         805         804
         4         704         705         806         805
         4         705         706         807         806
         4         707         708         809         808
         4         708         709         810         809
         4         709         710         811         810
         4         710         711         812         811
         4         711         712         813         812
         4         712         713         814         813
         4         713         714         815         814
         4         714         715         816         815
         4         715         716         817         816
         4         716         717         818         817
         4         717         718         819         818
         4         718         719         820         819
         4         719         720         821         820
         4         720         721         822         821
         4         721         722         823         822
         4         722         723         824         823
         4         723         724         825         824
         4         724         725         826         825
         4         725         726         827         826
         4         726         727         828         827
         4         727         728         829         828
         4         728         729         830         829
         4         729         730         831         830
         4         730         731         832         831
         4         731         732         833         832
         4         732         733         834         833
         4         733         734         835         834
         4         734         735         836         835
         4         735         736         837         836
         4         736         737         838         837
         4         737         738         839         838
         4         738         739         840         839
         4         739         740         841         840
         4         740         741         842         841
         4         741         742         843         842
         4         742         743         844         843
         4         743         744         845         844
         4         744         745         846         845
         4         745         746         847         846
         4         746         747         848         847
         4         747         748         849         848
         4         748         749         850         849
         4         749         750         851         850
         4         750         751         852         851
         4         751         752         853         852
         4         752         753         854         853
         4         753         754         855         854
         4         754         755         856         855
         4         755         756         857         856
         4         756         757         858         857
         4         757         758         859         858
         4         758         759         860         859
         4         759         760         861         860
         4         760         761         862         861
         4         761         762         863         862
         4         762         763         864         863
         4         763         764         865         864
         4         764         765         866         865
         4         765         766         867         866
         4         766         767         868         867
         4         767         768         869         868
         4         768         769         870         869
         4         769         770         871         870
         4         770         771         872         871
         4         771         772         873         872
         4         772         773         874         873
         4         773         774         875         874
         4         774         775         876         875
         4         775         776         877         876
         4         776         777         878         877
         4         777         778         879         878
         4         778         779         880         879
         4         779         780         881         880
         4         780         781         882         881
         4         781         782         883         882
         4         782         783         884         883
         4         783         784         885         884
         4         784         785         886         885
         4         785         786         887         886
         4         786         787         888         887
         4         787         788         889         888
         4         788         789         890         889
         4         789         790         891         890
         4         790         791         892         891
         4         791         792         893         892
         4         792         793         894         893
         4         793         794         895         894
         4         794         795         896         895
         4         795         796         897         896
         4         796         797         898         897
         4         797         798         899         898
         4         798         799         900         899
         4         799         800         901         900
         4         800         801         902         901
         4         801         802         903         902
         4         802         803         904         903
         4         803         804         905         904
         4         804         805         906         905
         4         805         806         907         906
         4         806         807         908         907
         4         808         809         910         909
         4         809         810         911         910
         4         810         811         912         911
         4         811         812         913         912
         4         812         813         914         913
         4         813         814         915         914
         4         814         815         916         915
         4         815         816         917         916
         4         816         817         918         917
         4         817         818         919         918
         4         818         819         920         919
         4         819         820         921         920
         4         820         821         922         921
         4         821         822         923         922
         4         822         823         924         923
         4         823         824         925         924
         4         824         825         926         925
         4         825         826         927         926
         4         826         827         928         927
         4         827         828         929         928
         4         828         829         930         929
         4         829         830         931         930
         4         830         831         932         931
         4         831         832         933         932
         4         832         833         934         933
         4         833         834         935         934
         4         834         835         936         935
         4         835         836         937         936
         4         836         837         938         937
         4         837         838         939         938
         4         838         839         940         939
         4         839         840         941         940
         4         840         841         942         941
         4         841         842         943         942
         4         842         843         944         943
         4         843         844         945         944
         4         844         845         946         945
         4         845         846         947         946
         4         846         847         948         947
         4         847         848         949         948
         4         848         849         950         949
         4         849         850         951         950
         4         850         851         952         951
         4         851         852         953         952
         4         852         853         954         953
         4         853         854         955         954
         4         854         855         956         955
         4         855         856         957         956
         4         856         857         958         957
         4         857         858         959         958
         4         858         859         960         959
         4         859         860         961         960
         4         860         861         962         961
         4         861         862         963         962
         4         862         863         964         963
         4         863         864         965         964
         4         864         865         966         965
         4         865         866         967         966
         4         866         867         968         967
         4         867         868         969         968
         4         868         869         970         969
         4         869         870         971         970
         4         870         871         972         971
         4         871         872         973         972
         4         872         873         974         973
         4         873         874         975         974
         4         874         875         976         975
         4         875         876         977         976
         4         876         877         978         977
         4         877         878         979         978
         4         878         879         980         979
         4         879         880         981         980
         4         880         881         982         981
         4         881         882         983         982
         4         882         883         984         983
         4         883         884         985         984
         4         884         885         986         985
         4         885         886         987         986
         4         886         887         988         987
         4         887         888         989         988
         4         888         889         990         989
         4         889         890         991         990
         4         890         891         992         991
         4         891         892         993         992
         4         892         893         994         993
         4         893         894         995         994
         4         894         895         996         995
         4         895         896         997         996
         4         896         897         998         997
         4         897         898         999         998
         4         898         899        1000         999
         4         899         900        1001        1000
         4         900         901        1002        1001
         4         901         902        1003        1002
         4         902         903        1004        1003
         4         903         904        1005        1004
         4         904         905        1006        1005
         4         905         906        1007        1006
         4         906         907        1008        1007
         4         907         908        1009        1008
         4         909         910        1011        1010
         4         910         911        1012        1011
         4         911         912        1013        1012
         4         912         913        1014        1013
         4         913         914        1015        1014
         4         914         915        1016        1015
         4         915         916        1017        1016
         4         916         917        1018        1017
         4         917         918        1019        1018
         4         918         919        1020        1019
         4         919         920        1021        1020
         4         920         921        1022        1021
         4         921         922        1023        1022
         4         922         923        1024        1023
         4         923         924        1025        1024
         4         924         925        1026        1025
         4         925         926        1027        1026
         4         926         927        1028        1027
         4         927         928        1029        1028
         4         928         929        1030        1029
         4         929         930        1031        1030
         4         930         931        1032        1031
         4         931         932        1033        1032
         4         932         933        1034        1033
         4         933         934        1035        1034
         4         934         935        1036        1035
         4         935         936        1037        1036
         4         936         937        1038        1037
         4         937         938        1039        1038
         4         938         939        1040        1039
         4         939         940        1041        1040
         4         940         941        1042        1041
         4         941         942        1043        1042
         4         942         943        1044        1043
         4         943         944        1045        1044
         4         944         945        1046        1045
         4         945         946        1047        1046
         4         946         947        1048        1047
         4         947         948        1049        1048
         4         948         949        1050        1049
         4         949         950        1051        1050
         4         950         951        1052        1051
         4         951         952        1053        1052
         4         952         953        1054        1053
         4         953         954        1055        1054
         4         954         955        1056        1055
         4         955         956        1057        1056
         4         956         957        1058        1057
         4         957         958        1059        1058
         4         958         959        1060        1059
         4         959         960        1061        1060
         4         960         961        1062        1061
         4         961         962        1063        1062
         4         962         963        1064        1063
         4         963         964        1065        1064
         4         964         965        1066        1065
         4         965         966        1067        1066
         4         966         967        1068        1067
         4         967         968        1069        1068
         4         968         969        1070        1069
         4         969         970        1071        1070
         4         970         971        1072        1071
         4         971         972        1073        1072
         4         972         973        1074        1073
         4         973         974        1075        1074
         4         974         975        1076        1075
         4         975         976        1077        1076
         4         976         977        1078        1077
         4         977         978        1079        1078
         4         978         979        1080        1079
         4         979         980        1081        1080
         4         980         981        1082        1081
         4         981         982        1083        1082
         4         982         983        1084        1083
         4         983         984        1085        1084
         4         984         985        1086        1085
         4         985         986        1087        1086
         4         986         987        1088        1087
         4         987         988        1089        1088
         4         988         989        1090        1089
         4         989         990        1091        1090
         4         990         991        1092        1091
         4         991         992        1093        1092
         4         992         993        1094        1093
         4         993         994        1095        1094
         4         994         995        1096        1095
         4         995         996        1097        1096
         4         996         997        1098        1097
         4         997         998        1099        1098
         4         998         999        1100        1099
         4         999        1000        1101        1100
         4        1000        1001        1102        1101
         4        1001        1002        1103        1102
         4        1002        1003        1104        1103
         4        1003        1004        1105        1104
         4        1004        1005        1106        1105
         4        1005        1006        1107        1106
         4        1006        1007        1108        1107
         4        1007        1008        1109        1108
         4        1008        1009        1110        1109
         4        1010        1011        1112        1111
         4        1011        1012        1113        1112
         4        1012        1013        1114        1113
         4        1013        1014        1115        1114
         4        1014        1015        1116        1115
         4        1015        1016        1117        1116
         4        1016        1017        1118        1117
         4        1017        1018        1119        1118
         4        1018        1019        1120        1119
         4        1019        1020        1121        1120
         4        1020        1021        1122        1121
         4        1021        1022        1123        1122
         4        1022        1023        1124        1123
         4        1023        1024        1125        1124
         4        1024        1025        1126        1125
         4        1025        1026        1127        1126
         4        1026        1027        1128        1127
         4        1027        1028        1129        1128
         4        1028        1029        1130        1129
         4        1029        1030        1131        1130
         4        1030        1031        1132        1131
         4        1031        1032        1133        1132
         4        1032        1033        1134        1133
         4        1033        1034        1135        1134
         4        1034        1035        1136        1135
         4        1035        1036        1137        1136
         4        1036        1037        1138        1137
         4        1037        1038        1139        1138
         4        1038        1039        1140        1139
         4        1039        1040        1141        1140
         4        1040        1041        1142        1141
         4        1041        1042        1143        1142
         4        1042        1043        1144        1143
         4        1043        1044        1145        1144
         4        1044        1045        1146        1145
         4        1045        1046        1147        1146
         4        1046        1047        1148        1147
         4        1047        1048        1149        1148
         4        1048        1049        1150        1149
         4        1049        1050        1151        1150
         4        1050        1051        1152        1151
         4        1051        1052        1153        1152
         4        1052        1053        1154        1153
         4        1053        1054        1155        1154
         4        1054        1055        1156        1155
         4        1055        1056        1157        1156
         4        1056        1057        1158        1157
         4        1057        1058        1159        1158
         4        1058        1059        1160        1159
         4        1059        1060        1161        1160
         4        1060        1061        1162        1161
         4        1061        1062        1163        1162
         4        1062        1063        1164        1163
         4        1063        1064        1165        1164
         4        1064        1065        1166        1165
         4        1065        1066        1167        1166
         4        1066        1067        1168        1167
         4        1067        1068        1169        1168
         4        1068        1069        1170        1169
         4        1069        1070        1171        1170
         4        1070        1071        1172        1171
         4        1071        1072        1173        1172
         4        1072        1073        1174        1173
         4        1073        1074        1175        1174
         4        1074        1075        1176        1175
         4        1075        1076        1177        1176
         4        1076        1077        1178        1177
         4        1077        1078        1179        1178
         4        1078        1079        1180        1179
         4        1079        1080        1181        1180
         4        1080        1081        1182        1181
         4        1081        1082        1183        1182
         4        1082        1083        1184        1183
         4        1083        1084        1185        1184
         4        1084        1085        1186        1185
         4        1085        1086        1187        1186
         4        1086        1087        1188        1187
         4        1087        1088        1189        1188
         4        1088        1089        1190        1189
         4        1089        1090        1191        1190
         4        1090        1091        1192        1191
         4        1091        1092        1193        1192
         4        1092        1093        1194        1193
         4        1093        1094        1195        1194
         4        1094        1095        1196        1195
         4        1095        1096        1197        1196
         4        1096        1097        1198        1197
         4        1097        1098        1199        1198
         4        1098        1099        1200        1199
         4        1099        1100        1201        1200
         4        1100        1101        1202        1201
         4        1101        1102        1203        1202
         4        1102        1103        1204        1203
         4        1103        1104        1205        1204
         4        1104        1105        1206        1205
         4        1105        1106        1207        1206
         4        1106        1107        1208        1207
         4        1107        1108        1209        1208
         4        1108        1109        1210        1209
         4        1109        1110        1211        1210
         4        1111        1112        1213        1212
         4        1112        1113        1214        1213
         4        1113        1114        1215        1214
         4        1114        1115        1216        1215
         4        1115        1116        1217        1216
         4        1116        1117        1218        1217
         4        1117        1118        1219        1218
         4        1118        1119        1220        1219
         4        1119        1120        1221        1220
         4        1120        1121        1222        1221
         4        1121        1122        1223        1222
         4        1122        1123        1224        1223
         4        1123        1124        1225        1224
         4        1124        1125        1226        1225
         4        1125        1126        1227        1226
         4        1126        1127        1228        1227
         4        1127        1128        1229        1228
         4        1128        1129        1230        1229
         4        1129        1130        1231        1230
         4        1130        1131        1232        1231
         4        1131        1132        1233        1232
         4        1132        1133        1234        1233
         4        1133        1134        1235        1234
         4        1134        1135        1236        1235
         4        1135        1136        1237        1236
         4        1136        1137        1238        1237
         4        1137        1138        1239        1238
         4        1138        1139        1240        1239
         4        1139        1140        1241        1240
         4        1140        1141        1242        1241
         4        1141        1142        1243        1242
         4        1142        1143        1244        1243
         4        1143        1144        1245        1244
         4        1144        1145        1246        1245
         4        1145        1146        1247        1246
         4        1146        1147        1248        1247
         4        1147        1148        1249        1248
         4        1148        1149        1250        1249
         4        1149        1150        1251        1250
         4        1150        1151        1252        1251
         4        1151        1152        1253        1252
         4        1152        1153        1254        1253
         4        1153        1154        1255        1254
         4        1154        1155        1256        1255
         4        1155        1156        1257        1256
         4        1156        1157        1258        1257
         4        1157        1158        1259        1258
         4        1158        1159        1260        1259
         4        1159        1160        1261        1260
         4        1160        1161        1262        1261
         4        1161        1162        1263        1262
         4        1162        1163        1264        1263
         4        1163        1164        1265        1264
         4        1164        1165        1266        1265
         4        1165        1166        1267        1266
         4        1166        1167        1268        1267
         4        1167        1168        1269        1268
         4        1168        1169        1270        1269
         4        1169        1170        1271        1270
         4        1170        1171        1272        1271
         4        1171        1172        1273        1272
         4        1172        1173        1274        1273
         4        1173        1174        1275        1274
         4        1174        1175        1276        1275
         4        1175        1176        1277        1276
         4        1176        1177        1278        1277
         4        1177        1178        1279        1278
         4        1178        1179        1280        1279
         4        1179        1180        1281        1280
         4        1180        1181        1282        1281
         4        1181        1182        1283        1282
         4        1182        1183        1284        1283
         4        1183        1184        1285        1284
         4        1184        1185        1286        1285
         4        1185        1186        1287        1286
         4        1186        1187        1288        1287
         4        1187        1188        1289        1288
         4        1188        1189        1290        1289
         4        1189        1190        1291        1290
         4        1190        1191        1292        1291
         4        1191        1192        1293        1292
         4        1192        1193        1294        1293
         4        1193        1194        1295        1294
         4        1194        1195        1296        1295
         4        1195        1196        1297        1296
         4        1196        1197        1298        1297
         4        1197        1198        1299        1298
         4        1198        1199        1300        1299
         4        1199        1200        1301        1300
         4        1200        1201        1302        1301
         4        1201        1202        1303        1302
         4        1202        1203        1304        1303
         4        1203        1204        1305        1304
         4        1204        1205        1306        1305
         4        1205        1206        1307        1306
         4        1206        1207        1308        1307
         4        1207        1208        1309        1308
         4        1208        1209        1310        1309
         4        1209        1210        1311        1310
         4        1210        1211        1312        1311
         4        1212        1213        1314        1313
         4        1213        1214        1315        1314
         4        1214        1215        1316        1315
         4        1215        1216        1317        1316
         4        1216        1217        1318        1317
         4        1217        1218        1319        1318
         4        1218        1219        1320        1319
         4        1219        1220        1321        1320
         4        1220        1221        1322        1321
         4        1221        1222        1323        1322
         4        1222        1223        1324        1323
         4        1223        1224        1325        1324
         4        1224        1225        1326        1325
         4        1225        1226        1327        1326
         4        1226        1227        1328        1327
         4        1227        1228        1329        1328
         4        1228        1229        1330        1329
         4        1229        1230        1331        1330
         4        1230        1231        1332        1331
         4        1231        1232        1333        1332
         4        1232        1233        1334        1333
         4        1233        1234        1335        1334
         4        1234        1235        1336        1335
         4        1235        1236        1337        1336
         4        1236        1237        1338        1337
         4        1237        1238        1339        1338
         4        1238        1239        1340        1339
         4        1239        1240        1341        1340
         4        1240        1241        1342        1341
         4        1241        1242        1343        1342
         4        1242        1243        1344        1343
         4        1243        1244        1345        1344
         4        1244        1245        1346        1345
         4        1245        1246        1347        1346
         4        1246        1247        1348        1347
         4        1247        1248        1349        1348
         4        1248        1249        1350        1349
         4        1249        1250        1351        1350
         4        1250        1251        1352        1351
         4        1251        1252        1353        1352
         4        1252        1253        1354        1353
         4        1253        1254        1355        1354
         4        1254        1255        1356        1355
         4        1255        1256        1357        1356
         4        1256        1257        1358        1357
         4        1257        1258        1359        1358
         4        1258        1259        1360        1359
         4        1259        1260        1361        1360
         4        1260        1261        1362        1361
         4        1261        1262        1363        1362
         4        1262        1263        1364        1363
         4        1263        1264        1365        1364
         4        1264        1265        1366        1365
         4        1265        1266        1367        1366
         4        1266        1267        1368        1367
         4        1267        1268        1369        1368
         4        1268        1269        1370        1369
         4        1269        1270        1371        1370
         4        1270        1271        1372        1371
         4        1271        1272        1373        1372
         4        1272        1273        1374        1373
         4        1273        1274        1375        1374
         4        1274        1275        1376        1375
         4        1275        1276        1377        1376
         4        1276        1277        1378        1377
         4        1277        1278        1379        1378
         4        1278        1279        1380        1379
         4        1279        1280        1381        1380
         4        1280        1281        1382        1381
         4        1281        1282        1383        1382
         4        1282        1283        1384        1383
         4        1283        1284        1385        1384
         4        1284        1285        1386        1385
         4        1285        1286        1387        1386
         4        1286        1287        1388        1387
         4        1287        1288        1389        1388
         4        1288        1289        1390        1389
         4        1289        1290        1391        1390
         4        1290        1291        1392        1391
         4        1291        1292        1393        1392
         4        1292        1293        1394        1393
         4        1293        1294        1395        1394
         4        1294        1295        1396        1395
         4        1295        1296        1397        1396
         4        1296        1297        1398        1397
         4        1297        1298        1399        1398
         4        1298        1299        1400        1399
         4        1299        1300        1401        1400
         4        1300        1301        1402        1401
         4        1301        1302        1403        1402
         4        1302        1303        1404        1403
         4        1303        1304        1405        1404
         4        1304        1305        1406        1405
         4        1305        1306        1407        1406
         4        1306        1307        1408        1407
         4        1307        1308        1409        1408
         4        1308        1309        1410        1409
         4        1309        1310        1411        1410
         4        1310        1311        1412        1411
         4        1311        1312        1413        1412
         4        1313        1314        1415        1414
         4        1314        1315        1416        1415
         4        1315        1316        1417        1416
         4        1316        1317        1418        1417
         4        1317        1318        1419        1418
         4        1318        1319        1420        1419
         4        1319        1320        1421        1420
         4        1320        1321        1422        1421
         4        1321        1322        1423        1422
         4        1322        1323        1424        1423
         4        1323        1324        1425        1424
         4        1324        1325        1426        1425
         4        1325        1326        1427        1426
         4        1326        1327        1428        1427
         4        1327        1328        1429        1428
         4        1328        1329        1430        1429
         4        1329        1330        1431        1430
         4        1330        1331        1432        1431
         4        1331        1332        1433        1432
         4        1332        1333        1434        1433
         4        1333        1334        1435        1434
         4        1334        1335        1436        1435
         4        1335        1336        1437        1436
         4        1336        1337        1438        1437
         4        1337        1338        1439        1438
         4        1338        1339        1440        1439
         4        1339        1340        1441        1440
         4        1340        1341        1442        1441
         4        1341        1342        1443        1442
         4        1342        1343        1444        1443
         4        1343        1344        1445        1444
         4        1344        1345        1446        1445
         4        1345        1346        1447        1446
         4        1346        1347        1448        1447
         4        1347        1348        1449        1448
         4        1348        1349        1450        1449
         4        1349        1350        1451        1450
         4        1350        1351        1452        1451
         4        1351        1352        1453        1452
         4        1352        1353        1454        1453
         4        1353        1354        1455        1454
         4        1354        1355        1456        1455
         4        1355        1356        1457        1456
         4        1356        1357        1458        1457
         4        1357        1358        1459        1458
         4        1358        1359        1460        1459
         4        1359        1360        1461        1460
         4        1360        1361        1462        1461
         4        1361        1362        1463        1462
         4        1362        1363        1464        1463
         4        1363        1364        1465        1464
         4        1364        1365        1466        1465
         4        1365        1366        1467        1466
         4        1366        1367        1468        1467
         4        1367        1368        1469        1468
         4        1368        1369        1470        1469
         4        1369        1370        1471        1470
         4        1370        1371        1472        1471
         4        1371        1372        1473        1472
         4        1372        1373        1474        1473
         4        1373        1374        1475        1474
         4        1374        1375        1476        1475
         4        1375        1376        1477        1476
         4        1376        1377        1478        1477
         4        1377        1378        1479        1478
         4        1378        1379        1480        1479
         4        1379        1380        1481        1480
         4        1380        1381        1482        1481
         4        1381        1382        1483        1482
         4        1382        1383        1484        1483
         4        1383        1384        1485        1484
         4        1384        1385        1486        1485
         4        1385        1386        1487        1486
         4        1386        1387        1488        1487
         4        1387        1388        1489        1488
         4        1388        1389        1490        1489
         4        1389        1390        1491        1490
         4        1390        1391        1492        1491
         4        1391        1392        1493        1492
         4        1392        1393        1494        1493
         4        1393        1394        1495        1494
         4        1394        1395        1496        1495
         4        1395        1396        1497        1496
         4        1396        1397        1498        1497
         4        1397        1398        1499        1498
         4        1398        1399        1500        1499
         4        1399        1400        1501        1500
         4        1400        1401        1502        1501
         4        1401        1402        1503        1502
         4        1402        1403        1504        1503
         4        1403        1404        1505        1504
         4        1404        1405        1506        1505
         4        1405        1406        1507        1506
         4        1406        1407        1508        1507
         4        1407        1408        1509        1508
         4        1408        1409        1510        1509
         4        1409        1410        1511        1510
         4        1410        1411        1512        1511
         4        1411        1412        1513        1512
         4        1412        1413        1514        1513
         4        1414        1415        1516        1515
         4        1415        1416        1517        1516
         4        1416        1417        1518        1517
         4        1417        1418        1519        1518
         4        1418        1419        1520        1519
         4        1419        1420        1521        1520
         4        1420        1421        1522        1521
         4        1421        1422        1523        1522
         4        1422        1423        1524        1523
         4        1423        1424        1525        1524
         4        1424        1425        1526        1525
         4        1425        1426        1527        1526
         4        1426        1427        1528        1527
         4        1427        1428        1529        1528
         4        1428        1429        1530        1529
         4        1429        1430        1531        1530
         4        1430        1431        1532        1531
         4        1431        1432        1533        1532
         4        1432        1433        1534        1533
         4        1433        1434        1535        1534
         4        1434        1435        1536        1535
         4        1435        1436        1537        1536
         4        1436        1437        1538        1537
         4        1437        1438        1539        1538
         4        1438        1439        1540        1539
         4        1439        1440        1541        1540
         4        1440        1441        1542        1541
         4        1441        1442        1543        1542
         4        1442        1443        1544        1543
         4        1443        1444        1545        1544
         4        1444        1445        1546        1545
         4        1445        1446        1547        1546
         4        1446        1447        1548        1547
         4        1447        1448        1549        1548
         4        1448        1449        1550        1549
         4        1449        1450        1551        1550
         4        1450        1451        1552        1551
         4        1451        1452        1553        1552
         4        1452        1453        1554        1553
         4        1453        1454        1555        1554
         4        1454        1455        1556        1555
         4        1455        1456        1557        1556
         4        1456        1457        1558        1557
         4        1457        1458        1559        1558
         4        1458        1459        1560        1559
         4        1459        1460        1561        1560
         4        1460        1461        1562        1561
         4        1461        1462        1563        1562
         4        1462        1463        1564        1563
         4        1463        1464        1565        1564
         4        1464        1465        1566        1565
         4        1465        1466        1567        1566
         4        1466        1467        1568        1567
         4        1467        1468        1569        1568
         4        1468        1469        1570        1569
         4        1469        1470        1571        1570
         4        1470        1471        1572        1571
         4        1471        1472        1573        1572
         4        1472        1473        1574        1573
         4        1473        1474        1575        1574
         4        1474        1475        1576        1575
         4        1475        1476        1577        1576
         4        1476        1477        1578        1577
         4        1477        1478        1579        1578
         4        1478        1479        1580        1579
         4        1479        1480        1581        1580
         4        1480        1481        1582        1581
         4        1481        1482        1583        1582
         4        1482        1483        1584        1583
         4        1483        1484        1585        1584
         4        1484        1485        1586        1585
         4        1485        1486        1587        1586
         4        1486        1487        1588        1587
         4        1487        1488        1589        1588
         4        1488        1489        1590        1589
         4        1489        1490        1591        1590
         4        1490        1491        1592        1591
         4        1491        1492        1593        1592
         4        1492        1493        1594        1593
         4        1493        1494        1595        1594
         4        1494        1495        1596        1595
         4        1495        1496        1597        1596
         4        1496        1497        1598        1597
         4        1497        1498        1599        1598
         4        1498        1499        1600        1599
         4        1499        1500        1601        1600
         4        1500        1501        1602        1601
         4        1501        1502        1603        1602
         4        1502        1503        1604        1603
         4        1503        1504        1605        1604
         4        1504        1505        1606        1605
         4        1505        1506        1607        1606
         4        1506        1507        1608        1607
         4        1507        1508        1609        1608
         4        1508        1509        1610        1609
         4        1509        1510        1611        1610
         4        1510        1511        1612        1611
         4        1511        1512        1613        1612
         4        1512        1513        1614        1613
         4        1513        1514        1615        1614
         4        1515        1516        1617        1616
         4        1516        1517        1618        1617
         4        1517        1518        1619        1618
         4        1518        1519        1620        1619
         4        1519        1520        1621        1620
         4        1520        1521        1622        1621
         4        1521        1522        1623        1622
         4        1522        1523        1624        1623
         4        1523        1524        1625        1624
         4        1524        1525        1626        1625
         4        1525        1526        1627        1626
         4        1526        1527        1628        1627
         4        1527        1528        1629        1628
         4        1528        1529        1630        1629
         4        1529        1530        1631        1630
         4        1530        1531        1632        1631
         4        1531        1532        1633        1632
         4        1532        1533        1634        1633
         4        1533        1534        1635        1634
         4        1534        1535        1636        1635
         4        1535        1536        1637        1636
         4        1536        1537        1638        1637
         4        1537        1538        1639        1638
         4        1538        1539        1640        1639
         4        1539        1540        1641        1640
         4        1540        1541        1642        1641
         4        1541        1542        1643        1642
         4        1542        1543        1644        1643
         4        1543        1544        1645        1644
         4        1544        1545        1646        1645
         4        1545        1546        1647        1646
         4        1546        1547        1648        1647
         4        1547        1548        1649        1648
         4        1548        1549        1650        1649
         4        1549        1550        1651        1650
         4        1550        1551        1652        1651
         4        1551        1552        1653        1652
         4        1552        1553        1654        1653
         4        1553        1554        1655        1654
         4        1554        1555        1656        1655
         4        1555        1556        1657        1656
         4        1556        1557        1658        1657
         4        1557        1558        1659        1658
         4        1558        1559        1660        1659
         4        1559        1560        1661        1660
         4        1560        1561        1662        1661
         4        1561        1562        1663        1662
         4        1562        1563        1664        1663
         4        1563        1564        1665        1664
         4        1564        1565        1666        1665
         4        1565        1566        1667        1666
         4        1566        1567        1668        1667
         4        1567        1568        1669        1668
         4        1568        1569        1670        1669
         4        1569        1570        1671        1670
         4        1570        1571        1672        1671
         4        1571        1572        1673        1672
         4        1572        1573        1674        1673
         4        1573        1574        1675        1674
         4        1574        1575        1676        1675
         4        1575        1576        1677        1676
         4        1576        1577        1678        1677
         4        1577        1578        1679        1678
         4        1578        1579        1680        1679
         4        1579        1580        1681        1680
         4        1580        1581        1682        1681
         4        1581        1582        1683        1682
         4        1582        1583        1684        1683
         4        1583        1584        1685        1684
         4        1584        1585        1686        1685
         4        1585        1586        1687        1686
         4        1586        1587        1688        1687
         4        1587        1588        1689        1688
         4        1588        1589        1690        1689
         4        1589        1590        1691        1690
         4        1590        1591        1692        1691
         4        1591        1592        1693        1692
         4        1592        1593        1694        1693
         4        1593        1594        1695        1694
         4        1594        1595        1696        1695
         4        1595        1596        1697        1696
         4        1596        1597        1698        1697
         4        1597        1598        1699        1698
         4        1598        1599        1700        1699
         4        1599        1600        1701        1700
         4        1600        1601        1702        1701
         4        1601        1602        1703        1702
         4        1602        1603        1704        1703
         4        1603        1604        1705        1704
         4        1604        1605        1706        1705
         4        1605        1606        1707        1706
         4        1606        1607        1708        1707
         4        1607        1608        1709        1708
         4        1608        1609        1710        1709
         4        1609        1610        1711        1710
         4        1610        1611        1712        1711
         4        1611        1612        1713        1712
         4        1612        1613        1714        1713
         4        1613        1614        1715        1714
         4        1614        1615        1716        1715
         4        1616        1617        1718        1717
         4        1617        1618        1719        1718
         4        1618        1619        1720        1719
         4        1619        1620        1721        1720
         4        1620        1621        1722        1721
         4        1621        1622        1723        1722
         4        1622        1623        1724        1723
         4        1623        1624        1725        1724
         4        1624        1625        1726        1725
         4        1625        1626        1727        1726
         4        1626        1627        1728        1727
         4        1627        1628        1729        1728
         4        1628        1629        1730        1729
         4        1629        1630        1731        1730
         4        1630        1631        1732        1731
         4        1631        1632        1733        1732
         4        1632        1633        1734        1733
         4        1633        1634        1735        1734
         4        1634        1635        1736        1735
         4        1635        1636        1737        1736
         4        1636        1637        1738        1737
         4        1637        1638        1739        1738
         4        1638        1639        1740        1739
         4        1639        1640        1741        1740
         4        1640        1641        1742        1741
         4        1641        1642        1743        1742
         4        1642        1643        1744        1743
         4        1643        1644        1745        1744
         4        1644        1645        1746        1745
         4        1645        1646        1747        1746
         4        1646        1647        1748        1747
         4        1647        1648        1749        1748
         4        1648        1649        1750        1749
         4        1649        1650        1751        1750
         4        1650        1651        1752        1751
         4        1651        1652        1753        1752
         4        1652        1653        1754        1753
         4        1653        1654        1755        1754
         4        1654        1655        1756        1755
         4        1655        1656        1757        1756
         4        1656        1657        1758        1757
         4        1657        1658        1759        1758
         4        1658        1659        1760        1759
         4        1659        1660        1761        1760
         4        1660        1661        1762        1761
         4        1661        1662        1763        1762
         4        1662        1663        1764        1763
         4        1663        1664        1765        1764
         4        1664        1665        1766        1765
         4        1665        1666        1767        1766
         4        1666        1667        1768        1767
         4        1667        1668        1769        1768
         4        1668        1669        1770        1769
         4        1669        1670        1771        1770
         4        1670        1671        1772        1771
         4        1671        1672        1773        1772
         4        1672        1673        1774        1773
         4        1673        1674        1775        1774
         4        1674        1675        1776        1775
         4        1675        1676        1777        1776
         4        1676        1677        1778        1777
         4        1677        1678        1779        1778
         4        1678        1679        1780        1779
         4        1679        1680        1781        1780
         4        1680        1681        1782        1781
         4        1681        1682        1783        1782
         4        1682        1683        1784        1783
         4        1683        1684        1785        1784
         4        1684        1685        1786        1785
         4        1685        1686        1787        1786
         4        1686        1687        1788        1787
         4        1687        1688        1789        1788
         4        1688        1689        1790        1789
         4        1689        1690        1791        1790
         4        1690        1691        1792        1791
         4        1691        1692        1793        1792
         4        1692        1693        1794        1793
         4        1693        1694        1795        1794
         4        1694        1695        1796        1795
         4        1695        1696        1797        1796
         4        1696        1697        1798        1797
         4        1697        1698        1799        1798
         4        1698        1699        1800        1799
         4        1699        1700        1801        1800
         4        1700        1701        1802        1801
         4        1701        1702        1803        1802
         4        1702        1703        1804        1803
         4        1703        1704        1805        1804
         4        1704        1705        1806        1805
         4        1705        1706        1807        1806
         4        1706        1707        1808        1807
         4        1707        1708        1809        1808
         4        1708        1709        1810        1809
         4        1709        1710        1811        1810
         4        1710        1711        1812        1811
         4        1711        1712        1813        1812
         4        1712        1713        1814        1813
         4        1713        1714        1815        1814
         4        1714        1715        1816        1815
         4        1715        1716        1817        1816
         4        1717        1718        1819        1818
         4        1718        1719        1820        1819
         4        1719        1720        1821        1820
         4        1720        1721        1822        1821
         4        1721        1722        1823        1822
         4        1722        1723        1824        1823
         4        1723        1724        1825        1824
         4        1724        1725        1826        1825
         4        1725        1726        1827        1826
         4        1726        1727        1828        1827
         4        1727        1728        1829        1828
         4        1728        1729        1830        1829
         4        1729        1730        1831        1830
         4        1730        1731        1832        1831
         4        1731        1732        1833        1832
         4        1732        1733        1834        1833
         4        1733        1734        1835        1834
         4        1734        1735        1836        1835
         4        1735        1736        1837        1836
         4        1736        1737        1838        1837
         4        1737        1738        1839        1838
         4        1738        1739        1840        1839
         4        1739        1740        1841        1840
         4        1740        1741        1842        1841
         4        1741        1742        1843        1842
         4        1742        1743        1844        1843
         4        1743        1744        1845        1844
         4        1744        1745        1846        1845
         4        1745        1746        1847        1846
         4        1746        1747        1848        1847
         4        1747        1748        1849        1848
         4        1748        1749        1850        1849
         4        1749        1750        1851        1850
         4        1750        1751        1852        1851
         4        1751        1752        1853        1852
         4        1752        1753        1854        1853
         4        1753        1754        1855        1854
         4        1754        1755        1856        1855
         4        1755        1756        1857        1856
         4        1756        1757        1858        1857
         4        1757        1758        1859        1858
         4        1758        1759        1860        1859
         4        1759        1760        1861        1860
         4        1760        1761        1862        1861
         4        1761        1762        1863        1862
         4        1762        1763        1864        1863
         4        1763        1764        1865        1864
         4        1764        1765        1866        1865
         4        1765        1766        1867        1866
         4        1766        1767        1868        1867
         4        1767        1768        1869        1868
         4        1768        1769        1870        1869
         4        1769        1770        1871        1870
         4        1770        1771        1872        1871
         4        1771        1772        1873        1872
         4        1772        1773        1874        1873
         4        1773        1774        1875        1874
         4        1774        1775        1876        1875
         4        1775        1776        1877        1876
         4        1776        1777        1878        1877
         4        1777        1778        1879        1878
         4        1778        1779        1880        1879
         4        1779        1780        1881        1880
         4        1780        1781        1882        1881
         4        1781        1782        1883        1882
         4        1782        1783        1884        1883
         4        1783        1784        1885        1884
         4        1784        1785        1886        1885
         4        1785        1786        1887        1886
         4        1786        1787        1888        1887
         4        1787        1788        1889        1888
         4        1788        1789        1890        1889
         4        1789        1790        1891        1890
         4        1790        1791        1892        1891
         4        1791        1792        1893        1892
         4        1792        1793        1894        1893
         4        1793        1794        1895        1894
         4        1794        1795        1896        1895
         4        1795        1796        1897        1896
         4        1796        1797        1898        1897
         4        1797        1798        1899        1898
         4        1798        1799        1900        1899
         4        1799        1800        1901        1900
         4        1800        1801        1902        1901
         4        1801        1802        1903        1902
         4        1802        1803        1904        1903
         4        1803        1804        1905        1904
         4        1804        1805        1906        1905
         4        1805        1806        1907        1906
         4        1806        1807        1908        1907
         4        1807        1808        1909        1908
         4        1808        1809        1910        1909
         4        1809        1810        1911        1910
         4        1810        1811        1912        1911
         4        1811        1812        1913        1912
         4        1812        1813        1914        1913
         4        1813        1814        1915        1914
         4        1814        1815        1916        1915
         4        1815        1816        1917        1916
         4        1816        1817        1918        1917
         4        1818        1819        1920        1919
         4        1819        1820        1921        1920
         4        1820        1821        1922        1921
         4        1821        1822        1923        1922
         4        1822        1823        1924        1923
         4        1823        1824        1925        1924
         4        1824        1825        1926        1925
         4        1825        1826        1927        1926
         4        1826        1827        1928        1927
         4        1827        1828        1929        1928
         4        1828        1829        1930        1929
         4        1829        1830        1931        1930
         4        1830        1831        1932        1931
         4        1831        1832        1933        1932
         4        1832        1833        1934        1933
         4        1833        1834        1935        1934
         4        1834        1835        1936        1935
         4        1835        1836        1937        1936
         4        1836        1837        1938        1937
         4        1837        1838        1939        1938
         4        1838        1839        1940        1939
         4        1839        1840        1941        1940
         4        1840        1841        1942        1941
         4        1841        1842        1943        1942
         4        1842        1843        1944        1943
         4        1843        1844        1945        1944
         4        1844        1845        1946        1945
         4        1845        1846        1947        1946
         4        1846        1847        1948        1947
         4        1847        1848        1949        1948
         4        1848        1849        1950        1949
         4        1849        1850        1951        1950
         4        1850        1851        1952        1951
         4        1851        1852        1953        1952
         4        1852        1853        1954        1953
         4        1853        1854        1955        1954
         4        1854        1855        1956        1955
         4        1855        1856        1957        1956
         4        1856        1857        1958        1957
         4        1857        1858        1959        1958
         4        1858        1859        1960        1959
         4        1859        1860        1961        1960
         4        1860        1861        1962        1961
         4        1861        1862        1963        1962
         4        1862        1863        1964        1963
         4        1863        1864        1965        1964
         4        1864        1865        1966        1965
         4        1865        1866        1967        1966
         4        1866        1867        1968        1967
         4        1867        1868        1969        1968
         4        1868        1869        1970        1969
         4        1869        1870        1971        1970
         4        1870        1871        1972        1971
         4        1871        1872        1973        1972
         4        1872        1873        1974        1973
         4        1873        1874        1975        1974
         4        1874        1875        1976        1975
         4        1875        1876        1977        1976
         4        1876        1877        1978        1977
         4        1877        1878        1979        1978
         4        1878        1879        1980        1979
         4        1879        1880        1981        1980
         4        1880        1881        1982        1981
         4        1881        1882        1983        1982
         4        1882        1883        1984        1983
         4        1883        1884        1985        1984
         4        1884        1885        1986        1985
         4        1885        1886        1987        1986
         4        1886        1887        1988        1987
         4        1887        1888        1989        1988
         4        1888        1889        1990        1989
         4        1889        1890        1991        1990
         4        1890        1891        1992        1991
         4        1891        1892        1993        1992
         4        1892        1893        1994        1993
         4        1893        1894        1995        1994
         4        1894        1895        1996        1995
         4        1895        1896        1997        1996
         4        1896        1897        1998        1997
         4        1897        1898        1999        1998
         4        1898        1899        2000        1999
         4        1899        1900        2001        2000
         4        1900        1901        2002        2001
         4        1901        1902        2003        2002
         4        1902        1903        2004        2003
         4        1903        1904        2005        2004
         4        1904        1905        2006        2005
         4        1905        1906        2007        2006
         4        1906        1907        2008        2007
         4        1907        1908        2009        2008
         4        1908        1909        2010        2009
         4        1909        1910        2011        2010
         4        1910        1911        2012        2011
         4        1911        1912        2013        2012
         4        1912        1913        2014        2013
         4        1913        1914        2015        2014
         4        1914        1915        2016        2015
         4        1915        1916        2017        2016
         4        1916        1917        2018        2017
         4        1917        1918        2019        2018
         4        1919        1920        2021        2020
         4        1920        1921        2022        2021
         4        1921        1922        2023        2022
         4        1922        1923        2024        2023
         4        1923        1924        2025        2024
         4        1924        1925        2026        2025
         4        1925        1926        2027        2026
         4        1926        1927        2028        2027
         4        1927        1928        2029        2028
         4        1928        1929        2030        2029
         4        1929        1930        2031        2030
         4        1930        1931        2032        2031
         4        1931        1932        2033        2032
         4        1932        1933        2034        2033
         4        1933        1934        2035        2034
         4        1934        1935        2036        2035
         4        1935        1936        2037        2036
         4        1936        1937        2038        2037
         4        1937        1938        2039        2038
         4        1938        1939        2040        2039
         4        1939        1940        2041        2040
         4        1940        1941        2042        2041
         4        1941        1942        2043        2042
         4        1942        1943        2044        2043
         4        1943        1944        2045        2044
         4        1944        1945        2046        2045
         4        1945        1946        2047        2046
         4        1946        1947        2048        2047
         4        1947        1948        2049        2048
         4        1948        1949        2050        2049
         4        1949        1950        2051        2050
         4        1950        1951        2052        2051
         4        1951        1952        2053        2052
         4        1952        1953        2054        2053
         4        1953        1954        2055        2054
         4        1954        1955        2056        2055
         4        1955        1956        2057        2056
         4        1956        1957        2058        2057
         4        1957        1958        2059        2058
         4        1958        1959        2060        2059
         4        1959        1960        2061        2060
         4        1960        1961        2062        2061
         4        1961        1962        2063        2062
         4        1962        1963        2064        2063
         4        1963        1964        2065        2064
         4        1964        1965        2066        2065
         4        1965        1966        2067        2066
         4        1966        1967        2068        2067
         4        1967        1968        2069        2068
         4        1968        1969        2070        2069
         4        1969        1970        2071        2070
         4        1970        1971        2072        2071
         4        1971        1972        2073        2072
         4        1972        1973        2074        2073
         4        1973        1974        2075        2074
         4        1974        1975        2076        2075
         4        1975        1976        2077        2076
         4        1976        1977        2078        2077
         4        1977        1978        2079        2078
         4        1978        1979        2080        2079
         4        1979        1980        2081        2080
         4        1980        1981        2082        2081
         4        1981        1982        2083        2082
         4        1982        1983        2084        2083
         4        1983        1984        2085        2084
         4        1984        1985        2086        2085
         4        1985        1986        2087        2086
         4        1986        1987        2088        2087
         4        1987        1988        2089        2088
         4        1988        1989        2090        2089
         4        1989        1990        2091        2090
         4        1990        1991        2092        2091
         4        1991        1992        2093        2092
         4        1992        1993        2094        2093
         4        1993        1994        2095        2094
         4        1994        1995        2096        2095
         4        1995        1996        2097        2096
         4        1996        1997        2098        2097
         4        1997        1998        2099        2098
         4        1998        1999        2100        2099
         4        1999        2000        2101        2100
         4        2000        2001        2102        2101
         4        2001        2002        2103        2102
         4        2002        2003        2104        2103
         4        2003        2004        2105        2104
         4        2004        2005        2106        2105
         4        2005        2006        2107        2106
         4        2006        2007        2108        2107
         4        2007        2008        2109        2108
         4        2008        2009        2110        2109
         4        2009        2010        2111        2110
         4        2010        2011        2112        2111
         4        2011        2012        2113        2112
         4        2012        2013        2114        2113
         4        2013        2014        2115        2114
         4        2014        2015        2116        2115
         4        2015        2016        2117        2116
         4        2016        2017        2118        2117
         4        2017        2018        2119        2118
         4        2018        2019        2120        2119
         4        2020        2021        2122        2121
         4        2021        2022        2123        2122
         4        2022        2023        2124        2123
         4        2023        2024        2125        2124
         4        2024        2025        2126        2125
         4        2025        2026        2127        2126
         4        2026        2027        2128        2127
         4        2027        2028        2129        2128
         4        2028        2029        2130        2129
         4        2029        2030        2131        2130
         4        2030        2031        2132        2131
         4        2031        2032        2133        2132
         4        2032        2033        2134        2133
         4        2033        2034        2135        2134
         4        2034        2035        2136        2135
         4        2035        2036        2137        2136
         4        2036        2037        2138        2137
         4        2037        2038        2139        2138
         4        2038        2039        2140        2139
         4        2039        2040        2141        2140
         4        2040        2041        2142        2141
         4        2041        2042        2143        2142
         4        2042        2043        2144        2143
         4        2043        2044        2145        2144
         4        2044        2045        2146        2145
         4        2045        2046        2147        2146
         4        2046        2047        2148        2147
         4        2047        2048        2149        2148
         4        2048        2049        2150        2149
         4        2049        2050        2151        2150
         4        2050        2051        2152        2151
         4        2051        2052        2153        2152
         4        2052        2053        2154        2153
         4        2053        2054        2155        2154
         4        2054        2055        2156        2155
         4        2055        2056        2157        2156
         4        2056        2057        2158        2157
         4        2057        2058        2159        2158
         4        2058        2059        2160        2159
         4        2059        2060        2161        2160
         4        2060        2061        2162        2161
         4        2061        2062        2163        2162
         4        2062        2063        2164        2163
         4        2063        2064        2165        2164
         4        2064        2065        2166        2165
         4        2065        2066        2167        2166
         4        2066        2067        2168        2167
         4        2067        2068        2169        2168
         4        2068        2069        2170        2169
         4        2069        2070        2171        2170
         4        2070        2071        2172        2171
         4        2071        2072        2173        2172
         4        2072        2073        2174        2173
         4        2073        2074        2175        2174
         4        2074        2075        2176        2175
         4        2075        2076        2177        2176
         4        2076        2077        2178        2177
         4        2077        2078        2179        2178
         4        2078        2079        2180        2179
         4        2079        2080        2181        2180
         4        2080        2081        2182        2181
         4        2081        2082        2183        2182
         4        2082        2083        2184        2183
         4        2083        2084        2185        2184
         4        2084        2085        2186        2185
         4        2085        2086        2187        2186
         4        2086        2087        2188        2187
         4        2087        2088        2189        2188
         4        2088        2089        2190        2189
         4        2089        2090        2191        2190
         4        2090        2091        2192        2191
         4        2091        2092        2193        2192
         4        2092        2093        2194        2193
         4        2093        2094        2195        2194
         4        2094        2095        2196        2195
         4        2095        2096        2197        2196
         4        2096        2097        2198        2197
         4        2097        2098        2199        2198
         4        2098        2099        2200        2199
         4        2099        2100        2201        2200
         4        2100        2101        2202        2201
         4        2101        2102        2203        2202
         4        2102        2103        2204        2203
         4        2103        2104        2205        2204
         4        2104        2105        2206        2205
         4        2105        2106        2207        2206
         4        2106        2107        2208        2207
         4        2107        2108        2209        2208
         4        2108        2109        2210        2209
         4        2109        2110        2211        2210
         4        2110        2111        2212        2211
         4        2111        2112        2213        2212
         4        2112        2113        2214        2213
         4        2113        2114        2215        2214
         4        2114        2115        2216        2215
         4        2115        2116        2217        2216
         4        2116        2117        2218        2217
         4        2117        2118        2219        2218
         4        2118        2119        2220        2219
         4        2119        2120        2221        2220
         4        2121        2122        2223        2222
         4        2122        2123        2224        2223
         4        2123        2124        2225        2224
         4        2124        2125        2226        2225
         4        2125        2126        2227        2226
         4        2126        2127        2228        2227
         4        2127        2128        2229        2228
         4        2128        2129        2230        2229
         4        2129        2130        2231        2230
         4        2130        2131        2232        2231
         4        2131        2132        2233        2232
         4        2132        2133        2234        2233
         4        2133        2134        2235        2234
         4        2134        2135        2236        2235
         4        2135        2136        2237        2236
         4        2136        2137        2238        2237
         4        2137        2138        2239        2238
         4        2138        2139        2240        2239
         4        2139        2140        2241        2240
         4        2140        2141        2242        2241
         4        2141        2142        2243        2242
         4        2142        2143        2244        2243
         4        2143        2144        2245        2244
         4        2144        2145        2246        2245
         4        2145        2146        2247        2246
         4        2146        2147        2248        2247
         4        2147        2148        2249        2248
         4        2148        2149        2250        2249
         4        2149        2150        2251        2250
         4        2150        2151        2252        2251
         4        2151        2152        2253        2252
         4        2152        2153        2254        2253
         4        2153        2154        2255        2254
         4        2154        2155        2256        2255
         4        2155        2156        2257        2256
         4        2156        2157        2258        2257
         4        2157        2158        2259        2258
         4        2158        2159        2260        2259
         4        2159        2160        2261        2260
         4        2160        2161        2262        2261
         4        2161        2162        2263        2262
         4        2162        2163        2264        2263
         4        2163        2164        2265        2264
         4        2164        2165        2266        2265
         4        2165        2166        2267        2266
         4        2166        2167        2268        2267
         4        2167        2168        2269        2268
         4        2168        2169        2270        2269
         4        2169        2170        2271        2270
         4        2170        2171        2272        2271
         4        2171        2172        2273        2272
         4        2172        2173        2274        2273
         4        2173        2174        2275        2274
         4        2174        2175        2276        2275
         4        2175        2176        2277        2276
         4        2176        2177        2278        2277
         4        2177        2178        2279        2278
         4        2178        2179        2280        2279
         4        2179        2180        2281        2280
         4        2180        2181        2282        2281
         4        2181        2182        2283        2282
         4        2182        2183        2284        2283
         4        2183        2184        2285        2284
         4        2184        2185        2286        2285
         4        2185        2186        2287        2286
         4        2186        2187        2288        2287
         4        2187        2188        2289        2288
         4        2188        2189        2290        2289
         4        2189        2190        2291        2290
         4        2190        2191        2292        2291
         4        2191        2192        2293        2292
         4        2192        2193        2294        2293
         4        2193        2194        2295        2294
         4        2194        2195        2296        2295
         4        2195        2196        2297        2296
         4        2196        2197        2298        2297
         4        2197        2198        2299        2298
         4        2198        2199        2300        2299
         4        2199        2200        2301        2300
         4        2200        2201        2302        2301
         4        2201        2202        2303        2302
         4        2202        2203        2304        2303
         4        2203        2204        2305        2304
         4        2204        2205        2306        2305
         4        2205        2206        2307        2306
         4        2206        2207        2308        2307
         4        2207        2208        2309        2308
         4        2208        2209        2310        2309
         4        2209        2210        2311        2310
         4        2210        2211        2312        2311
         4        2211        2212        2313        2312
         4        2212        2213        2314        2313
         4        2213        2214        2315        2314
         4        2214        2215        2316        2315
         4        2215        2216        2317        2316
         4        2216        2217        2318        2317
         4        2217        2218        2319        2318
         4        2218        2219        2320        2319
         4        2219        2220        2321        2320
         4        2220        2221        2322        2321
         4        2222        2223        2324        2323
         4        2223        2224        2325        2324
         4        2224        2225        2326        2325
         4        2225        2226        2327        2326
         4        2226        2227        2328        2327
         4        2227        2228        2329        2328
         4        2228        2229        2330        2329
         4        2229        2230        2331        2330
         4        2230        2231        2332        2331
         4        2231        2232        2333        2332
         4        2232        2233        2334        2333
         4        2233        2234        2335        2334
         4        2234        2235        2336        2335
         4        2235        2236        2337        2336
         4        2236        2237        2338        2337
         4        2237        2238        2339        2338
         4        2238        2239        2340        2339
         4        2239        2240        2341        2340
         4        2240        2241        2342        2341
         4        2241        2242        2343        2342
         4        2242        2243        2344        2343
         4        2243        2244        2345        2344
         4        2244        2245        2346        2345
         4        2245        2246        2347        2346
         4        2246        2247        2348        2347
         4        2247        2248        2349        2348
         4        2248        2249        2350        2349
         4        2249        2250        2351        2350
         4        2250        2251        2352        2351
         4        2251        2252        2353        2352
         4        2252        2253        2354        2353
         4        2253        2254        2355        2354
         4        2254        2255        2356        2355
         4        2255        2256        2357        2356
         4        2256        2257        2358        2357
         4        2257        2258        2359        2358
         4        2258        2259        2360        2359
         4        2259        2260        2361        2360
         4        2260        2261        2362        2361
         4        2261        2262        2363        2362
         4        2262        2263        2364        2363
         4        2263        2264        2365        2364
         4        2264        2265        2366        2365
         4        2265        2266        2367        2366
         4        2266        2267        2368        2367
         4        2267        2268        2369        2368
         4        2268        2269        2370        2369
         4        2269        2270        2371        2370
         4        2270        2271        2372        2371
         4        2271        2272        2373        2372
         4        2272        2273        2374        2373
         4        2273        2274        2375        2374
         4        2274        2275        2376        2375
         4        2275        2276        2377        2376
         4        2276        2277        2378        2377
         4        2277        2278        2379        2378
         4        2278        2279        2380        2379
         4        2279        2280        2381        2380
         4        2280        2281        2382        2381
         4        2281        2282        2383        2382
         4        2282        2283        2384        2383
         4        2283        2284        2385        2384
         4        2284        2285        2386        2385
         4        2285        2286        2387        2386
         4        2286        2287        2388        2387
         4        2287        2288        2389        2388
         4        2288        2289        2390        2389
         4        2289        2290        2391        2390
         4        2290        2291        2392        2391
         4        2291        2292        2393        2392
         4        2292        2293        2394        2393
         4        2293        2294        2395        2394
         4        2294        2295        2396        2395
         4        2295        2296        2397        2396
         4        2296        2297        2398        2397
         4        2297        2298        2399        2398
         4        2298        2299        2400        2399
         4        2299        2300        2401        2400
         4        2300        2301        2402        2401
         4        2301        2302        2403        2402
         4        2302        2303        2404        2403
         4        2303        2304        2405        2404
         4        2304        2305        2406        2405
         4        2305        2306        2407        2406
         4        2306        2307        2408        2407
         4        2307        2308        2409        2408
         4        2308        2309        2410        2409
         4        2309        2310        2411        2410
         4        2310        2311        2412        2411
         4        2311        2312        2413        2412
         4        2312        2313        2414        2413
         4        2313        2314        2415        2414
         4        2314        2315        2416        2415
         4        2315        2316        2417        2416
         4        2316        2317        2418        2417
         4        2317        2318        2419        2418
         4        2318        2319        2420        2419
         4        2319        2320        2421        2420
         4        2320        2321        2422        2421
         4        2321        2322        2423        2422
         4        2323        2324        2425        2424
         4        2324        2325        2426        2425
         4        2325        2326        2427        2426
         4        2326        2327        2428        2427
         4        2327        2328        2429        2428
         4        2328        2329        2430        2429
         4        2329        2330        2431        2430
         4        2330        2331        2432        2431
         4        2331        2332        2433        2432
         4        2332        2333        2434        2433
         4        2333        2334        2435        2434
         4        2334        2335        2436        2435
         4        2335        2336        2437        2436
         4        2336        2337        2438        2437
         4        2337        2338        2439        2438
         4        2338        2339        2440        2439
         4        2339        2340        2441        2440
         4        2340        2341        2442        2441
         4        2341        2342        2443        2442
         4        2342        2343        2444        2443
         4        2343        2344        2445        2444
         4        2344        2345        2446        2445
         4        2345        2346        2447        2446
         4        2346        2347        2448        2447
         4        2347        2348        2449        2448
         4        2348        2349        2450        2449
         4        2349        2350        2451        2450
         4        2350        2351        2452        2451
         4        2351        2352        2453        2452
         4        2352        2353        2454        2453
         4        2353        2354        2455        2454
         4        2354        2355        2456        2455
         4        2355        2356        2457        2456
         4        2356        2357        2458        2457
         4        2357        2358        2459        2458
         4        2358        2359        2460        2459
         4        2359        2360        2461        2460
         4        2360        2361        2462        2461
         4        2361        2362        2463        2462
         4        2362        2363        2464        2463
         4        2363        2364        2465        2464
         4        2364        2365        2466        2465
         4        2365        2366        2467        2466
         4        2366        2367        2468        2467
         4        2367        2368        2469        2468
         4        2368        2369        2470        2469
         4        2369        2370        2471        2470
         4        2370        2371        2472        2471
         4        2371        2372        2473        2472
         4        2372        2373        2474        2473
         4        2373        2374        2475        2474
         4        2374        2375        2476        2475
         4        2375        2376        2477        2476
         4        2376        2377        2478        2477
         4        2377        2378        2479        2478
         4        2378        2379        2480        2479
         4        2379        2380        2481        2480
         4        2380        2381        2482        2481
         4        2381        2382        2483        2482
         4        2382        2383        2484        2483
         4        2383        2384        2485        2484
         4        2384        2385        2486        2485
         4        2385        2386        2487        2486
         4        2386        2387        2488        2487
         4        2387        2388        2489        2488
         4        2388        2389        2490        2489
         4        2389        2390        2491        2490
         4        2390        2391        2492        2491
         4        2391        2392        2493        2492
         4        2392        2393        2494        2493
         4        2393        2394        2495        2494
         4        2394        2395        2496        2495
         4        2395        2396        2497        2496
         4        2396        2397        2498        2497
         4        2397        2398        2499        2498
         4        2398        2399        2500        2499
         4        2399        2400        2501        2500
         4        2400        2401        2502        2501
         4        2401        2402        2503        2502
         4        2402        2403        2504        2503
         4        2403        2404        2505        2504
         4        2404        2405        2506        2505
         4        2405        2406        2507        2506
         4        2406        2407        2508        2507
         4        2407        2408        2509        2508
         4        2408        2409        2510        2509
         4        2409        2410        2511        2510
         4        2410        2411        2512        2511
         4        2411        2412        2513        2512
         4        2412        2413        2514        2513
         4        2413        2414        2515        2514
         4        2414        2415        2516        2515
         4        2415        2416        2517        2516
         4        2416        2417        2518        2517
         4        2417        2418        2519        2518
         4        2418        2419        2520        2519
         4        2419        2420        2521        2520
         4        2420        2421        2522        2521
         4        2421        2422        2523        2522
         4        2422        2423        2524        2523
         4        2424        2425        2526        2525
         4        2425        2426        2527        2526
         4        2426        2427        2528        2527
         4        2427        2428        2529        2528
         4        2428        2429        2530        2529
         4        2429        2430        2531        2530
         4        2430        2431        2532        2531
         4        2431        2432        2533        2532
         4        2432        2433        2534        2533
         4        2433        2434        2535        2534
         4        2434        2435        2536        2535
         4        2435        2436        2537        2536
         4        2436        2437        2538        2537
         4        2437        2438        2539        2538
         4        2438        2439        2540        2539
         4        2439        2440        2541        2540
         4        2440        2441        2542        2541
         4        2441        2442        2543        2542
         4        2442        2443        2544        2543
         4        2443        2444        2545        2544
         4        2444        2445        2546        2545
         4        2445        2446        2547        2546
         4        2446        2447        2548        2547
         4        2447        2448        2549        2548
         4        2448        2449        2550        2549
         4        2449        2450        2551        2550
         4        2450        2451        2552        2551
         4        2451        2452        2553        2552
         4        2452        2453        2554        2553
         4        2453        2454        2555        2554
         4        2454        2455        2556        2555
         4        2455        2456        2557        2556
         4        2456        2457        2558        2557
         4        2457        2458        2559        2558
         4        2458        2459        2560        2559
         4        2459        2460        2561        2560
         4        2460        2461        2562        2561
         4        2461        2462        2563        2562
         4        2462        2463        2564        2563
         4        2463        2464        2565        2564
         4        2464        2465        2566        2565
         4        2465        2466        2567        2566
         4        2466        2467        2568        2567
         4        2467        2468        2569        2568
         4        2468        2469        2570        2569
         4        2469        2470        2571        2570
         4        2470        2471        2572        2571
         4        2471        2472        2573        2572
         4        2472        2473        2574        2573
         4        2473        2474        2575        2574
         4        2474        2475        2576        2575
         4        2475        2476        2577        2576
         4        2476        2477        2578        2577
         4        2477        2478        2579        2578
         4        2478        2479        2580        2579
         4        2479        2480        2581        2580
         4        2480        2481        2582        2581
         4        2481        2482        2583        2582
         4        2482        2483        2584        2583
         4        2483        2484        2585        2584
         4        2484        2485        2586        2585
         4        2485        2486        2587        2586
         4        2486        2487        2588        2587
         4        2487        2488        2589        2588
         4        2488        2489        2590        2589
         4        2489        2490        2591        2590
         4        2490        2491        2592        2591
         4        2491        2492        2593        2592
         4        2492        2493        2594        2593
         4        2493        2494        2595        2594
         4        2494        2495        2596        2595
         4        2495        2496        2597        2596
         4        2496        2497        2598        2597
         4        2497        2498        2599        2598
         4        2498        2499        2600        2599
         4        2499        2500        2601        2600
         4        2500        2501        2602        2601
         4        2501        2502        2603        2602
         4        2502        2503        2604        2603
         4        2503        2504        2605        2604
         4        2504        2505        2606        2605
         4        2505        2506        2607        2606
         4        2506        2507        2608        2607
         4        2507        2508        2609        2608
         4        2508        2509        2610        2609
         4        2509        2510        2611        2610
         4        2510        2511        2612        2611
         4        2511        2512        2613        2612
         4        2512        2513        2614        2613
         4        2513        2514        2615        2614
         4        2514        2515        2616        2615
         4        2515        2516        2617        2616
         4        2516        2517        2618        2617
         4        2517        2518        2619        2618
         4        2518        2519        2620        2619
         4        2519        2520        2621        2620
         4        2520        2521        2622        2621
         4        2521        2522        2623        2622
         4        2522        2523        2624        2623
         4        2523        2524        2625        2624
         4        2525        2526        2627        2626
         4        2526        2527        2628        2627
         4        2527        2528        2629        2628
         4        2528        2529        2630        2629
         4        2529        2530        2631        2630
         4        2530        2531        2632        2631
         4        2531        2532        2633        2632
         4        2532        2533        2634        2633
         4        2533        2534        2635        2634
         4        2534        2535        2636        2635
         4        2535        2536        2637        2636
         4        2536        2537        2638        2637
         4        2537        2538        2639        2638
         4        2538        2539        2640        2639
         4        2539        2540        2641        2640
         4        2540        2541        2642        2641
         4        2541        2542        2643        2642
         4        2542        2543        2644        2643
         4        2543        2544        2645        2644
         4        2544        2545        2646        2645
         4        2545        2546        2647        2646
         4        2546        2547        2648        2647
         4        2547        2548        2649        2648
         4        2548        2549        2650        2649
         4        2549        2550        2651        2650
         4        2550        2551        2652        2651
         4        2551        2552        2653        2652
         4        2552        2553        2654        2653
         4        2553        2554        2655        2654
         4        2554        2555        2656        2655
         4        2555        2556        2657        2656
         4        2556        2557        2658        2657
         4        2557        2558        2659        2658
         4        2558        2559        2660        2659
         4        2559        2560        2661        2660
         4        2560        2561        2662        2661
         4        2561        2562        2663        2662
         4        2562        2563        2664        2663
         4        2563        2564        2665        2664
         4        2564        2565        2666        2665
         4        2565        2566        2667        2666
         4        2566        2567        2668        2667
         4        2567        2568        2669        2668
         4        2568        2569        2670        2669
         4        2569        2570        2671        2670
         4        2570        2571        2672        2671
         4        2571        2572        2673        2672
         4        2572        2573        2674        2673
         4        2573        2574        2675        2674
         4        2574        2575        2676        2675
         4        2575        2576        2677        2676
         4        2576        2577        2678        2677
         4        2577        2578        2679        2678
         4        2578        2579        2680        2679
         4        2579        2580        2681        2680
         4        2580        2581        2682        2681
         4        2581        2582        2683        2682
         4        2582        2583        2684        2683
         4        2583        2584        2685        2684
         4        2584        2585        2686        2685
         4        2585        2586        2687        2686
         4        2586        2587        2688        2687
         4        2587        2588        2689        2688
         4        2588        2589        2690        2689
         4        2589        2590        2691        2690
         4        2590        2591        2692        2691
         4        2591        2592        2693        2692
         4        2592        2593        2694        2693
         4        2593        2594        2695        2694
         4        2594        2595        2696        2695
         4        2595        2596        2697        2696
         4        2596        2597        2698        2697
         4        2597        2598        2699        2698
         4        2598        2599        2700        2699
         4        2599        2600        2701        2700
         4        2600        2601        2702        2701
         4        2601        2602        2703        2702
         4        2602        2603        2704        2703
         4        2603        2604        2705        2704
         4        2604        2605        2706        2705
         4        2605        2606        2707        2706
         4        2606        2607        2708        2707
         4        2607        2608        2709        2708
         4        2608        2609        2710        2709
         4        2609        2610        2711        2710
         4        2610        2611        2712        2711
         4        2611        2612        2713        2712
         4        2612        2613        2714        2713
         4        2613        2614        2715        2714
         4        2614        2615        2716        2715
         4        2615        2616        2717        2716
         4        2616        2617        2718        2717
         4        2617        2618        2719        2718
         4        2618        2619        2720        2719
         4        2619        2620        2721        2720
         4        2620        2621        2722        2721
         4        2621        2622        2723        2722
         4        2622        2623        2724        2723
         4        2623        2624        2725        2724
         4        2624        2625        2726        2725
         4        2626        2627        2728        2727
         4        2627        2628        2729        2728
         4        2628        2629        2730        2729
         4        2629        2630        2731        2730
         4        2630        2631        2732        2731
         4        2631        2632        2733        2732
         4        2632        2633        2734        2733
         4        2633        2634        2735        2734
         4        2634        2635        2736        2735
         4        2635        2636        2737        2736
         4        2636        2637        2738        2737
         4        2637        2638        2739        2738
         4        2638        2639        2740        2739
         4        2639        2640        2741        2740
         4        2640        2641        2742        2741
         4        2641        2642        2743        2742
         4        2642        2643        2744        2743
         4        2643        2644        2745        2744
         4        2644        2645        2746        2745
         4        2645        2646        2747        2746
         4        2646        2647        2748        2747
         4        2647        2648        2749        2748
         4        2648        2649        2750        2749
         4        2649        2650        2751        2750
         4        2650        2651        2752        2751
         4        2651        2652        2753        2752
         4        2652        2653        2754        2753
         4        2653        2654        2755        2754
         4        2654        2655        2756        2755
         4        2655        2656        2757        2756
         4        2656        2657        2758        2757
         4        2657        2658        2759        2758
         4        2658        2659        2760        2759
         4        2659        2660        2761        2760
         4        2660        2661        2762        2761
         4        2661        2662        2763        2762
         4        2662        2663        2764        2763
         4        2663        2664        2765        2764
         4        2664        2665        2766        2765
         4        2665        2666        2767        2766
         4        2666        2667        2768        2767
         4        2667        2668        2769        2768
         4        2668        2669        2770        2769
         4        2669        2670        2771        2770
         4        2670        2671        2772        2771
         4        2671        2672        2773        2772
         4        2672        2673        2774        2773
         4        2673        2674        2775        2774
         4        2674        2675        2776        2775
         4        2675        2676        2777        2776
         4        2676        2677        2778        2777
         4        2677        2678        2779        2778
         4        2678        2679        2780        2779
         4        2679        2680        2781        2780
         4        2680        2681        2782        2781
         4        2681        2682        2783        2782
         4        2682        2683        2784        2783
         4        2683        2684        2785        2784
         4        2684        2685        2786        2785
         4        2685        2686        2787        2786
         4        2686        2687        2788        2787
         4        2687        2688        2789        2788
         4        2688        2689        2790        2789
         4        2689        2690        2791        2790
         4        2690        2691        2792        2791
         4        2691        2692        2793        2792
         4        2692        2693        2794        2793
         4        2693        2694        2795        2794
         4        2694        2695        2796        2795
         4        2695        2696        2797        2796
         4        2696        2697        2798        2797
         4        2697        2698        2799        2798
         4        2698        2699        2800        2799
         4        2699        2700        2801        2800
         4        2700        2701        2802        2801
         4        2701        2702        2803        2802
         4        2702        2703        2804        2803
         4        2703        2704        2805        2804
         4        2704        2705        2806        2805
         4        2705        2706        2807        2806
         4        2706        2707        2808        2807
         4        2707        2708        2809        2808
         4        2708        2709        2810        2809
         4        2709        2710        2811        2810
         4        2710        2711        2812        2811
         4        2711        2712        2813        2812
         4        2712        2713        2814        2813
         4        2713        2714        2815        2814
         4        2714        2715        2816        2815
         4        2715        2716        2817        2816
         4        2716        2717        2818        2817
         4        2717        2718        2819        2818
         4        2718        2719        2820        2819
         4        2719        2720        2821        2820
         4        2720        2721        2822        2821
         4        2721        2722        2823        2822
         4        2722        2723        2824        2823
         4        2723        2724        2825        2824
         4        2724        2725        2826        2825
         4        2725        2726        2827        2826
         4        2727        2728        2829        2828
         4        2728        2729        2830        2829
         4        2729        2730        2831        2830
         4        2730        2731        2832        2831
         4        2731        2732        2833        2832
         4        2732        2733        2834        2833
         4        2733        2734        2835        2834
         4        2734        2735        2836        2835
         4        2735        2736        2837        2836
         4        2736        2737        2838        2837
         4        2737        2738        2839        2838
         4        2738        2739        2840        2839
         4        2739        2740        2841        2840
         4        2740        2741        2842        2841
         4        2741        2742        2843        2842
         4        2742        2743        2844        2843
         4        2743        2744        2845        2844
         4        2744        2745        2846        2845
         4        2745        2746        2847        2846
         4        2746        2747        2848        2847
         4        2747        2748        2849        2848
         4        2748        2749        2850        2849
         4        2749        2750        2851        2850
         4        2750        2751        2852        2851
         4        2751        2752        2853        2852
         4        2752        2753        2854        2853
         4        2753        2754        2855        2854
         4        2754        2755        2856        2855
         4        2755        2756        2857        2856
         4        2756        2757        2858        2857
         4        2757        2758        2859        2858
         4        2758        2759        2860        2859
         4        2759        2760        2861        2860
         4        2760        2761        2862        2861
         4        2761        2762        2863        2862
         4        2762        2763        2864        2863
         4        2763        2764        2865        2864
         4        2764        2765        2866        2865
         4        2765        2766        2867        2866
         4        2766        2767        2868        2867
         4        2767        2768        2869        2868
         4        2768        2769        2870        2869
         4        2769        2770        2871        2870
         4        2770        2771        2872        2871
         4        2771        2772        2873        2872
         4        2772        2773        2874        2873
         4        2773        2774        2875        2874
         4        2774        2775        2876        2875
         4        2775        2776        2877        2876
         4        2776        2777        2878        2877
         4        2777        2778        2879        2878
         4        2778        2779        2880        2879
         4        2779        2780        2881        2880
         4        2780        2781        2882        2881
         4        2781        2782        2883        2882
         4        2782        2783        2884        2883
         4        2783        2784        2885        2884
         4        2784        2785        2886        2885
         4        2785        2786        2887        2886
         4        2786        2787        2888        2887
         4        2787        2788        2889        2888
         4        2788        2789        2890        2889
         4        2789        2790        2891        2890
         4        2790        2791        2892        2891
         4        2791        2792        2893        2892
         4        2792        2793        2894        2893
         4        2793        2794        2895        2894
         4        2794        2795        2896        2895
         4        2795        2796        2897        2896
         4        2796        2797        2898        2897
         4        2797        2798        2899        2898
         4        2798        2799        2900        2899
         4        2799        2800        2901        2900
         4        2800        2801        2902        2901
         4        2801        2802        2903        2902
         4        2802        2803        2904        2903
         4        2803        2804        2905        2904
         4        2804        2805        2906        2905
         4        2805        2806        2907        2906
         4        2806        2807        2908        2907
         4        2807        2808        2909        2908
         4        2808        2809        2910        2909
         4        2809        2810        2911        2910
         4        2810        2811        2912        2911
         4        2811        2812        2913        2912
         4        2812        2813        2914        2913
         4        2813        2814        2915        2914
         4        2814        2815        2916        2915
         4        2815        2816        2917        2916
         4        2816        2817        2918        2917
         4        2817        2818        2919        2918
         4        2818        2819        2920        2919
         4        2819        2820        2921        2920
         4        2820        2821        2922        2921
         4        2821        2822        2923        2922
         4        2822        2823        2924        2923
         4        2823        2824        2925        2924
         4        2824        2825        2926        2925
         4        2825        2826        2927        2926
         4        2826        2827        2928        2927
         4        2828        2829        2930        2929
         4        2829        2830        2931        2930
         4        2830        2831        2932        2931
         4        2831        2832        2933        2932
         4        2832        2833        2934        2933
         4        2833        2834        2935        2934
         4        2834        2835        2936        2935
         4        2835        2836        2937        2936
         4        2836        2837        2938        2937
         4        2837        2838        2939        2938
         4        2838        2839        2940        2939
         4        2839        2840        2941        2940
         4        2840        2841        2942        2941
         4        2841        2842        2943        2942
         4        2842        2843        2944        2943
         4        2843        2844        2945        2944
         4        2844        2845        2946        2945
         4        2845        2846        2947        2946
         4        2846        2847        2948        2947
         4        2847        2848        2949        2948
         4        2848        2849        2950        2949
         4        2849        2850        2951        2950
         4        2850        2851        2952        2951
         4        2851        2852        2953        2952
         4        2852        2853        2954        2953
         4        2853        2854        2955        2954
         4        2854        2855        2956        2955
         4        2855        2856        2957        2956
         4        2856        2857        2958        2957
         4        2857        2858        2959        2958
         4        2858        2859        2960        2959
         4        2859        2860        2961        2960
         4        2860        2861        2962        2961
         4        2861        2862        2963        2962
         4        2862        2863        2964        2963
         4        2863        2864        2965        2964
         4        2864        2865        2966        2965
         4        2865        2866        2967        2966
         4        2866        2867        2968        2967
         4        2867        2868        2969        2968
         4        2868        2869        2970        2969
         4        2869        2870        2971        2970
         4        2870        2871        2972        2971
         4        2871        2872        2973        2972
         4        2872        2873        2974        2973
         4        2873        2874        2975        2974
         4        2874        2875        2976        2975
         4        2875        2876        2977        2976
         4        2876        2877        2978        2977
         4        2877        2878        2979        2978
         4        2878        2879        2980        2979
         4        2879        2880        2981        2980
         4        2880        2881        2982        2981
         4        2881        2882        2983        2982
         4        2882        2883        2984        2983
         4        2883        2884        2985        2984
         4        2884        2885        2986        2985
         4        2885        2886        2987        2986
         4        2886        2887        2988        2987
         4        2887        2888        2989        2988
         4        2888        2889        2990        2989
         4        2889        2890        2991        2990
         4        2890        2891        2992        2991
         4        2891        2892        2993        2992
         4        2892        2893        2994        2993
         4        2893        2894        2995        2994
         4        2894        2895        2996        2995
         4        2895        2896        2997        2996
         4        2896        2897        2998        2997
         4        2897        2898        2999        2998
         4        2898        2899        3000        2999
         4        2899        2900        3001        3000
         4        2900        2901        3002        3001
         4        2901        2902        3003        3002
         4        2902        2903        3004        3003
         4        2903        2904        3005        3004
         4        2904        2905        3006        3005
         4        2905        2906        3007        3006
         4        2906        2907        3008        3007
         4        2907        2908        3009        3008
         4        2908        2909        3010        3009
         4        2909        2910        3011        3010
         4        2910        2911        3012        3011
         4        2911        2912        3013        3012
         4        2912        2913        3014        3013
         4        2913        2914        3015        3014
         4        2914        2915        3016        3015
         4        2915        2916        3017        3016
         4        2916        2917        3018        3017
         4        2917        2918        3019        3018
         4        2918        2919        3020        3019
         4        2919        2920        3021        3020
         4        2920        2921        3022        3021
         4        2921        2922        3023        3022
         4        2922        2923        3024        3023
         4        2923        2924        3025        3024
         4        2924        2925        3026        3025
         4        2925        2926        3027        3026
         4        2926        2927        3028        3027
         4        2927        2928        3029        3028
         4        2929        2930        3031        3030
         4        2930        2931        3032        3031
         4        2931        2932        3033        3032
         4        2932        2933        3034        3033
         4        2933        2934        3035        3034
         4        2934        2935        3036        3035
         4        2935        2936        3037        3036
         4        2936        2937        3038        3037
         4        2937        2938        3039        3038
         4        2938        2939        3040        3039
         4        2939        2940        3041        3040
         4        2940        2941        3042        3041
         4        2941        2942        3043        3042
         4        2942        2943        3044        3043
         4        2943        2944        3045        3044
         4        2944        2945        3046        3045
         4        2945        2946        3047        3046
         4        2946        2947        3048        3047
         4        2947        2948        3049        3048
         4        2948        2949        3050        3049
         4        2949        2950        3051        3050
         4        2950        2951        3052        3051
         4        2951        2952        3053        3052
         4        2952        2953        3054        3053
         4        2953        2954        3055        3054
         4        2954        2955        3056        3055
         4        2955        2956        3057        3056
         4        2956        2957        3058        3057
         4        2957        2958        3059        3058
         4        2958        2959        3060        3059
         4        2959        2960        3061        3060
         4        2960        2961        3062        3061
         4        2961        2962        3063        3062
         4        2962        2963        3064        3063
         4        2963        2964        3065        3064
         4        2964        2965        3066        3065
         4        2965        2966        3067        3066
         4        2966        2967        3068        3067
         4        2967        2968        3069        3068
         4        2968        2969        3070        3069
         4        2969        2970        3071        3070
         4        2970        2971        3072        3071
         4        2971        2972        3073        3072
         4        2972        2973        3074        3073
         4        2973        2974        3075        3074
         4        2974        2975        3076        3075
         4        2975        2976        3077        3076
         4        2976        2977        3078        3077
         4        2977        2978        3079        3078
         4        2978        2979        3080        3079
         4        2979        2980        3081        3080
         4        2980        2981        3082        3081
         4        2981        2982        3083        3082
         4        2982        2983        3084        3083
         4        2983        2984        3085        3084
         4        2984        2985        3086        3085
         4        2985        2986        3087        3086
         4        2986        2987        3088        3087
         4        2987        2988        3089        3088
         4        2988        2989        3090        3089
         4        2989        2990        3091        3090
         4        2990        2991        3092        3091
         4        2991        2992        3093        3092
         4        2992        2993        3094        3093
         4        2993        2994        3095        3094
         4        2994        2995        3096        3095
         4        2995        2996        3097        3096
         4        2996        2997        3098        3097
         4        2997        2998        3099        3098
         4        2998        2999        3100        3099
         4        2999        3000        3101        3100
         4        3000        3001        3102        3101
         4        3001        3002        3103        3102
         4        3002        3003        3104        3103
         4        3003        3004        3105        3104
         4        3004        3005        3106        3105
         4        3005        3006        3107        3106
         4        3006        3007        3108        3107
         4        3007        3008        3109        3108
         4        3008        3009        3110        3109
         4        3009        3010        3111        3110
         4        3010        3011        3112        3111
         4        3011        3012        3113        3112
         4        3012        3013        3114        3113
         4        3013        3014        3115        3114
         4        3014        3015        3116        3115
         4        3015        3016        3117        3116
         4        3016        3017        3118        3117
         4        3017        3018        3119        3118
         4        3018        3019        3120        3119
         4        3019        3020        3121        3120
         4        3020        3021        3122        3121
         4        3021        3022        3123        3122
         4        3022        3023        3124        3123
         4        3023        3024        3125        3124
         4        3024        3025        3126        3125
         4        3025        3026        3127        3126
         4        3026        3027        3128        3127
         4        3027        3028        3129        3128
         4        3028        3029        3130        3129
         4        3030        3031        3132        3131
         4        3031        3032        3133        3132
         4        3032        3033        3134        3133
         4        3033        3034        3135        3134
         4        3034        3035        3136        3135
         4        3035        3036        3137        3136
         4        3036        3037        3138        3137
         4        3037        3038        3139        3138
         4        3038        3039        3140        3139
         4        3039        3040        3141        3140
         4        3040        3041        3142        3141
         4        3041        3042        3143        3142
         4        3042        3043        3144        3143
         4        3043        3044        3145        3144
         4        3044        3045        3146        3145
         4        3045        3046        3147        3146
         4        3046        3047        3148        3147
         4        3047        3048        3149        3148
         4        3048        3049        3150        3149
         4        3049        3050        3151        3150
         4        3050        3051        3152        3151
         4        3051        3052        3153        3152
         4        3052        3053        3154        3153
         4        3053        3054        3155        3154
         4        3054        3055        3156        3155
         4        3055        3056        3157        3156
         4        3056        3057        3158        3157
         4        3057        3058        3159        3158
         4        3058        3059        3160        3159
         4        3059        3060        3161        3160
         4        3060        3061        3162        3161
         4        3061        3062        3163        3162
         4        3062        3063        3164        3163
         4        3063        3064        3165        3164
         4        3064        3065        3166        3165
         4        3065        3066        3167        3166
         4        3066        3067        3168        3167
         4        3067        3068        3169        3168
         4        3068        3069        3170        3169
         4        3069        3070        3171        3170
         4        3070        3071        3172        3171
         4        3071        3072        3173        3172
         4        3072        3073        3174        3173
         4        3073        3074        3175        3174
         4        3074        3075        3176        3175
         4        3075        3076        3177        3176
         4        3076        3077        3178        3177
         4        3077        3078        3179        3178
         4        3078        3079        3180        3179
         4        3079        3080        3181        3180
         4        3080        3081        3182        3181
         4        3081        3082        3183        3182
         4        3082        3083        3184        3183
         4        3083        3084        3185        3184
         4        3084        3085        3186        3185
         4        3085        3086        3187        3186
         4        3086        3087        3188        3187
         4        3087        3088        3189        3188
         4        3088        3089        3190        3189
         4        3089        3090        3191        3190
         4        3090        3091        3192        3191
         4        3091        3092        3193        3192
         4        3092        3093        3194        3193
         4        3093        3094        3195        3194
         4        3094        3095        3196        3195
         4        3095        3096        3197        3196
         4        3096        3097        3198        3197
         4        3097        3098        3199        3198
         4        3098        3099        3200        3199
         4        3099        3100        3201        3200
         4        3100        3101        3202        3201
         4        3101        3102        3203        3202
         4        3102        3103        3204        3203
         4        3103        3104        3205        3204
         4        3104        3105        3206        3205
         4        3105        3106        3207        3206
         4        3106        3107        3208        3207
         4        3107        3108        3209        3208
         4        3108        3109        3210        3209
         4        3109        3110        3211        3210
         4        3110        3111        3212        3211
         4        3111        3112        3213        3212
         4        3112        3113        3214        3213
         4        3113        3114        3215        3214
         4        3114        3115        3216        3215
         4        3115        3116        3217        3216
         4        3116        3117        3218        3217
         4        3117        3118        3219        3218
         4        3118        3119        3220        3219
         4        3119        3120        3221        3220
         4        3120        3121        3222        3221
         4        3121        3122        3223        3222
         4        3122        3123        3224        3223
         4        3123        3124        3225        3224
         4        3124        3125        3226        3225
         4        3125        3126        3227        3226
         4        3126        3127        3228        3227
         4        3127        3128        3229        3228
         4        3128        3129        3230        3229
         4        3129        3130        3231        3230
         4        3131        3132        3233        3232
         4        3132        3133        3234        3233
         4        3133        3134        3235        3234
         4        3134        3135        3236        3235
         4        3135        3136        3237        3236
         4        3136        3137        3238        3237
         4        3137        3138        3239        3238
         4        3138        3139        3240        3239
         4        3139        3140        3241        3240
         4        3140        3141        3242        3241
         4        3141        3142        3243        3242
         4        3142        3143        3244        3243
         4        3143        3144        3245        3244
         4        3144        3145        3246        3245
         4        3145        3146        3247        3246
         4        3146        3147        3248        3247
         4        3147        3148        3249        3248
         4        3148        3149        3250        3249
         4        3149        3150        3251        3250
         4        3150        3151        3252        3251
         4        3151        3152        3253        3252
         4        3152        3153        3254        3253
         4        3153        3154        3255        3254
         4        3154        3155        3256        3255
         4        3155        3156        3257        3256
         4        3156        3157        3258        3257
         4        3157        3158        3259        3258
         4        3158        3159        3260        3259
         4        3159        3160        3261        3260
         4        3160        3161        3262        3261
         4        3161        3162        3263        3262
         4        3162        3163        3264        3263
         4        3163        3164        3265        3264
         4        3164        3165        3266        3265
         4        3165        3166        3267        3266
         4        3166        3167        3268        3267
         4        3167        3168        3269        3268
         4        3168        3169        3270        3269
         4        3169        3170        3271        3270
         4        3170        3171        3272        3271
         4        3171        3172        3273        3272
         4        3172        3173        3274        3273
         4        3173        3174        3275        3274
         4        3174        3175        3276        3275
         4        3175        3176        3277        3276
         4        3176        3177        3278        3277
         4        3177        3178        3279        3278
         4        3178        3179        3280        3279
         4        3179        3180        3281        3280
         4        3180        3181        3282        3281
         4        3181        3182        3283        3282
         4        3182        3183        3284        3283
         4        3183        3184        3285        3284
         4        3184        3185        3286        3285
         4        3185        3186        3287        3286
         4        3186        3187        3288        3287
         4        3187        3188        3289        3288
         4        3188        3189        3290        3289
         4        3189        3190        3291        3290
         4        3190        3191        3292        3291
         4        3191        3192        3293        3292
         4        3192        3193        3294        3293
         4        3193        3194        3295        3294
         4        3194        3195        3296        3295
         4        3195        3196        3297        3296
         4        3196        3197        3298        3297
         4        3197        3198        3299        3298
         4        3198        3199        3300        3299
         4        3199        3200        3301        3300
         4        3200        3201        3302        3301
         4        3201        3202        3303        3302
         4        3202        3203        3304        3303
         4        3203        3204        3305        3304
         4        3204        3205        3306        3305
         4        3205        3206        3307        3306
         4        3206        3207        3308        3307
         4        3207        3208        3309        3308
         4        3208        3209        3310        3309
         4        3209        3210        3311        3310
         4        3210        3211        3312        3311
         4        3211        3212        3313        3312
         4        3212        3213        3314        3313
         4        3213        3214        3315        3314
         4        3214        3215        3316        3315
         4        3215        3216        3317        3316
         4        3216        3217        3318        3317
         4        3217        3218        3319        3318
         4        3218        3219        3320        3319
         4        3219        3220        3321        3320
         4        3220        3221        3322        3321
         4        3221        3222        3323        3322
         4        3222        3223        3324        3323
         4        3223        3224        3325        3324
         4        3224        3225        3326        3325
         4        3225        3226        3327        3326
         4        3226        3227        3328        3327
         4        3227        3228        3329        3328
         4        3228        3229        3330        3329
         4        3229        3230        3331        3330
         4        3230        3231        3332        3331
         4        3232        3233        3334        3333
         4        3233        3234        3335        3334
         4        3234        3235        3336        3335
         4        3235        3236        3337        3336
         4        3236        3237        3338        3337
         4        3237        3238        3339        3338
         4        3238        3239        3340        3339
         4        3239        3240        3341        3340
         4        3240        3241        3342        3341
         4        3241        3242        3343        3342
         4        3242        3243        3344        3343
         4        3243        3244        3345        3344
         4        3244        3245        3346        3345
         4        3245        3246        3347        3346
         4        3246        3247        3348        3347
         4        3247        3248        3349        3348
         4        3248        3249        3350        3349
         4        3249        3250        3351        3350
         4        3250        3251        3352        3351
         4        3251        3252        3353        3352
         4        3252        3253        3354        3353
         4        3253        3254        3355        3354
         4        3254        3255        3356        3355
         4        3255        3256        3357        3356
         4        3256        3257        3358        3357
         4        3257        3258        3359        3358
         4        3258        3259        3360        3359
         4        3259        3260        3361        3360
         4        3260        3261        3362        3361
         4        3261        3262        3363        3362
         4        3262        3263        3364        3363
         4        3263        3264        3365        3364
         4        3264        3265        3366        3365
         4        3265        3266        3367        3366
         4        3266        3267        3368        3367
         4        3267        3268        3369        3368
         4        3268        3269        3370        3369
         4        3269        3270        3371        3370
         4        3270        3271        3372        3371
         4        3271        3272        3373        3372
         4        3272        3273        3374        3373
         4        3273        3274        3375        3374
         4        3274        3275        3376        3375
         4        3275        3276        3377        3376
         4        3276        3277        3378        3377
         4        3277        3278        3379        3378
         4        3278        3279        3380        3379
         4        3279        3280        3381        3380
         4        3280        3281        3382        3381
         4        3281        3282        3383        3382
         4        3282        3283        3384        3383
         4        3283        3284        3385        3384
         4        3284        3285        3386        3385
         4        3285        3286        3387        3386
         4        3286        3287        3388        3387
         4        3287        3288        3389        3388
         4        3288        3289        3390        3389
         4        3289        3290        3391        3390
         4        3290        3291        3392        3391
         4        3291        3292        3393        3392
         4        3292        3293        3394        3393
         4        3293        3294        3395        3394
         4        3294        3295        3396        3395
         4        3295        3296        3397        3396
         4        3296        3297        3398        3397
         4        3297        3298        3399        3398
         4        3298        3299        3400        3399
         4        3299        3300        3401        3400
         4        3300        3301        3402        3401
         4        3301        3302        3403        3402
         4        3302        3303        3404        3403
         4        3303        3304        3405        3404
         4        3304        3305        3406        3405
         4        3305        3306        3407        3406
         4        3306        3307        3408        3407
         4        3307        3308        3409        3408
         4        3308        3309        3410        3409
         4        3309        3310        3411        3410
         4        3310        3311        3412        3411
         4        3311        3312        3413        3412
         4        3312        3313        3414        3413
         4        3313        3314        3415        3414
         4        3314        3315        3416        3415
         4        3315        3316        3417        3416
         4        3316        3317        3418        3417
         4        3317        3318        3419        3418
         4        3318        3319        3420        3419
         4        3319        3320        3421        3420
         4        3320        3321        3422        3421
         4        3321        3322        3423        3422
         4        3322        3323        3424        3423
         4        3323        3324        3425        3424
         4        3324        3325        3426        3425
         4        3325        3326        3427        3426
         4        3326        3327        3428        3427
         4        3327        3328        3429        3428
         4        3328        3329        3430        3429
         4        3329        3330        3431        3430
         4        3330        3331        3432        3431
         4        3331        3332        3433        3432
         4        3333        3334        3435        3434
         4        3334        3335        3436        3435
         4        3335        3336        3437        3436
         4        3336        3337        3438        3437
         4        3337        3338        3439        3438
         4        3338        3339        3440        3439
         4        3339        3340        3441        3440
         4        3340        3341        3442        3441
         4        3341        3342        3443        3442
         4        3342        3343        3444        3443
         4        3343        3344        3445        3444
         4        3344        3345        3446        3445
         4        3345        3346        3447        3446
         4        3346        3347        3448        3447
         4        3347        3348        3449        3448
         4        3348        3349        3450        3449
         4        3349        3350        3451        3450
         4        3350        3351        3452        3451
         4        3351        3352        3453        3452
         4        3352        3353        3454        3453
         4        3353        3354        3455        3454
         4        3354        3355        3456        3455
         4        3355        3356        3457        3456
         4        3356        3357        3458        3457
         4        3357        3358        3459        3458
         4        3358        3359        3460        3459
         4        3359        3360        3461        3460
         4        3360        3361        3462        3461
         4        3361        3362        3463        3462
         4        3362        3363        3464        3463
         4        3363        3364        3465        3464
         4        3364        3365        3466        3465
         4        3365        3366        3467        3466
         4        3366        3367        3468        3467
         4        3367        3368        3469        3468
         4        3368        3369        3470        3469
         4        3369        3370        3471        3470
         4        3370        3371        3472        3471
         4        3371        3372        3473        3472
         4        3372        3373        3474        3473
         4        3373        3374        3475        3474
         4        3374        3375        3476        3475
         4        3375        3376        3477        3476
         4        3376        3377        3478        3477
         4        3377        3378        3479        3478
         4        3378        3379        3480        3479
         4        3379        3380        3481        3480
         4        3380        3381        3482        3481
         4        3381        3382        3483        3482
         4        3382        3383        3484        3483
         4        3383        3384        3485        3484
         4        3384        3385        3486        3485
         4        3385        3386        3487        3486
         4        3386        3387        3488        3487
         4        3387        3388        3489        3488
         4        3388        3389        3490        3489
         4        3389        3390        3491        3490
         4        3390        3391        3492        3491
         4        3391        3392        3493        3492
         4        3392        3393        3494        3493
         4        3393        3394        3495        3494
         4        3394        3395        3496        3495
         4        3395        3396        3497        3496
         4        3396        3397        3498        3497
         4        3397        3398        3499        3498
         4        3398        3399        3500        3499
         4        3399        3400        3501        3500
         4        3400        3401        3502        3501
         4        3401        3402        3503        3502
         4        3402        3403        3504        3503
         4        3403        3404        3505        3504
         4        3404        3405        3506        3505
         4        3405        3406        3507        3506
         4        3406        3407        3508        3507
         4        3407        3408        3509        3508
         4        3408        3409        3510        3509
         4        3409        3410        3511        3510
         4        3410        3411        3512        3511
         4        3411        3412        3513        3512
         4        3412        3413        3514        3513
         4        3413        3414        3515        3514
         4        3414        3415        3516        3515
         4        3415        3416        3517        3516
         4        3416        3417        3518        3517
         4        3417        3418        3519        3518
         4        3418        3419        3520        3519
         4        3419        3420        3521        3520
         4        3420        3421        3522        3521
         4        3421        3422        3523        3522
         4        3422        3423        3524        3523
         4        3423        3424        3525        3524
         4        3424        3425        3526        3525
         4        3425        3426        3527        3526
         4        3426        3427        3528        3527
         4        3427        3428        3529        3528
         4        3428        3429        3530        3529
         4        3429        3430        3531        3530
         4        3430        3431        3532        3531
         4        3431        3432        3533        3532
         4        3432        3433        3534        3533
         4        3434        3435        3536        3535
         4        3435        3436        3537        3536
         4        3436        3437        3538        3537
         4        3437        3438        3539        3538
         4        3438        3439        3540        3539
         4        3439        3440        3541        3540
         4        3440        3441        3542        3541
         4        3441        3442        3543        3542
         4        3442        3443        3544        3543
         4        3443        3444        3545        3544
         4        3444        3445        3546        3545
         4        3445        3446        3547        3546
         4        3446        3447        3548        3547
         4        3447        3448        3549        3548
         4        3448        3449        3550        3549
         4        3449        3450        3551        3550
         4        3450        3451        3552        3551
         4        3451        3452        3553        3552
         4        3452        3453        3554        3553
         4        3453        3454        3555        3554
         4        3454        3455        3556        3555
         4        3455        3456        3557        3556
         4        3456        3457        3558        3557
         4        3457        3458        3559        3558
         4        3458        3459        3560        3559
         4        3459        3460        3561        3560
         4        3460        3461        3562        3561
         4        3461        3462        3563        3562
         4        3462        3463        3564        3563
         4        3463        3464        3565        3564
         4        3464        3465        3566        3565
         4        3465        3466        3567        3566
         4        3466        3467        3568        3567
         4        3467        3468        3569        3568
         4        3468        3469        3570        3569
         4        3469        3470        3571        3570
         4        3470        3471        3572        3571
         4        3471        3472        3573        3572
         4        3472        3473        3574        3573
         4        3473        3474        3575        3574
         4        3474        3475        3576        3575
         4        3475        3476        3577        3576
         4        3476        3477        3578        3577
         4        3477        3478        3579        3578
         4        3478        3479        3580        3579
         4        3479        3480        3581        3580
         4        3480        3481        3582        3581
         4        3481        3482        3583        3582
         4        3482        3483        3584        3583
         4        3483        3484        3585        3584
         4        3484        3485        3586        3585
         4        3485        3486        3587        3586
         4        3486        3487        3588        3587
         4        3487        3488        3589        3588
         4        3488        3489        3590        3589
         4        3489        3490        3591        3590
         4        3490        3491        3592        3591
         4        3491        3492        3593        3592
         4        3492        3493        3594        3593
         4        3493        3494        3595        3594
         4        3494        3495        3596        3595
         4        3495        3496        3597        3596
         4        3496        3497        3598        3597
         4        3497        3498        3599        3598
         4        3498        3499        3600        3599
         4        3499        3500        3601        3600
         4        3500        3501        3602        3601
         4        3501        3502        3603        3602
         4        3502        3503        3604        3603
         4        3503        3504        3605        3604
         4        3504        3505        3606        3605
         4        3505        3506        3607        3606
         4        3506        3507        3608        3607
         4        3507        3508        3609        3608
         4        3508        3509        3610        3609
         4        3509        3510        3611        3610
         4        3510        3511        3612        3611
         4        3511        3512        3613        3612
         4        3512        3513        3614        3613
         4        3513        3514        3615        3614
         4        3514        3515        3616        3615
         4        3515        3516        3617        3616
         4        3516        3517        3618        3617
         4        3517        3518        3619        3618
         4        3518        3519        3620        3619
         4        3519        3520        3621        3620
         4        3520        3521        3622        3621
         4        3521        3522        3623        3622
         4        3522        3523        3624        3623
         4        3523        3524        3625        3624
         4        3524        3525        3626        3625
         4        3525        3526        3627        3626
         4        3526        3527        3628        3627
         4        3527        3528        3629        3628
         4        3528        3529        3630        3629
         4        3529        3530        3631        3630
         4        3530        3531        3632        3631
         4        3531        3532        3633        3632
         4        3532        3533        3634        3633
         4        3533        3534        3635        3634
         4        3535        3536        3637        3636
         4        3536        3537        3638        3637
         4        3537        3538        3639        3638
         4        3538        3539        3640        3639
         4        3539        3540        3641        3640
         4        3540        3541        3642        3641
         4        3541        3542        3643        3642
         4        3542        3543        3644        3643
         4        3543        3544        3645        3644
         4        3544        3545        3646        3645
         4        3545        3546        3647        3646
         4        3546        3547        3648        3647
         4        3547        3548        3649        3648
         4        3548        3549        3650        3649
         4        3549        3550        3651        3650
         4        3550        3551        3652        3651
         4        3551        3552        3653        3652
         4        3552        3553        3654        3653
         4        3553        3554        3655        3654
         4        3554        3555        3656        3655
         4        3555        3556        3657        3656
         4        3556        3557        3658        3657
         4        3557        3558        3659        3658
         4        3558        3559        3660        3659
         4        3559        3560        3661        3660
         4        3560        3561        3662        3661
         4        3561        3562        3663        3662
         4        3562        3563        3664        3663
         4        3563        3564        3665        3664
         4        3564        3565        3666        3665
         4        3565        3566        3667        3666
         4        3566        3567        3668        3667
         4        3567        3568        3669        3668
         4        3568        3569        3670        3669
         4        3569        3570        3671        3670
         4        3570        3571        3672        3671
         4        3571        3572        3673        3672
         4        3572        3573        3674        3673
         4        3573        3574        3675        3674
         4        3574        3575        3676        3675
         4        3575        3576        3677        3676
         4        3576        3577        3678        3677
         4        3577        3578        3679        3678
         4        3578        3579        3680        3679
         4        3579        3580        3681        3680
         4        3580        3581        3682        3681
         4        3581        3582        3683        3682
         4        3582        3583        3684        3683
         4        3583        3584        3685        3684
         4        3584        3585        3686        3685
         4        3585        3586        3687        3686
         4        3586        3587        3688        3687
         4        3587        3588        3689        3688
         4        3588        3589        3690        3689
         4        3589        3590        3691        3690
         4        3590        3591        3692        3691
         4        3591        3592        3693        3692
         4        3592        3593        3694        3693
         4        3593        3594        3695        3694
         4        3594        3595        3696        3695
         4        3595        3596        3697        3696
         4        3596        3597        3698        3697
         4        3597        3598        3699        3698
         4        3598        3599        3700        3699
         4        3599        3600        3701        3700
         4        3600        3601        3702        3701
         4        3601        3602        3703        3702
         4        3602        3603        3704        3703
         4        3603        3604        3705        3704
         4        3604        3605        3706        3705
         4        3605        3606        3707        3706
         4        3606        3607        3708        3707
         4        3607        3608        3709        3708
         4        3608        3609        3710        3709
         4        3609        3610        3711        3710
         4        3610        3611        3712        3711
         4        3611        3612        3713        3712
         4        3612        3613        3714        3713
         4        3613        3614        3715        3714
         4        3614        3615        3716        3715
         4        3615        3616        3717        3716
         4        3616        3617        3718        3717
         4        3617        3618        3719        3718
         4        3618        3619        3720        3719
         4        3619        3620        3721        3720
         4        3620        3621        3722        3721
         4        3621        3622        3723        3722
         4        3622        3623        3724        3723
         4        3623        3624        3725        3724
         4        3624        3625        3726        3725
         4        3625        3626        3727        3726
         4        3626        3627        3728        3727
         4        3627        3628        3729        3728
         4        3628        3629        3730        3729
         4        3629        3630        3731        3730
         4        3630        3631        3732        3731
         4        3631        3632        3733        3732
         4        3632        3633        3734        3733
         4        3633        3634        3735        3734
         4        3634        3635        3736        3735
         4        3636        3637        3738        3737
         4        3637        3638        3739        3738
         4        3638        3639        3740        3739
         4        3639        3640        3741        3740
         4        3640        3641        3742        3741
         4        3641        3642        3743        3742
         4        3642        3643        3744        3743
         4        3643        3644        3745        3744
         4        3644        3645        3746        3745
         4        3645        3646        3747        3746
         4        3646        3647        3748        3747
         4        3647        3648        3749        3748
         4        3648        3649        3750        3749
         4        3649        3650        3751        3750
         4        3650        3651        3752        3751
         4        3651        3652        3753        3752
         4        3652        3653        3754        3753
         4        3653        3654        3755        3754
         4        3654        3655        3756        3755
         4        3655        3656        3757        3756
         4        3656        3657        3758        3757
         4        3657        3658        3759        3758
         4        3658        3659        3760        3759
         4        3659        3660        3761        3760
         4        3660        3661        3762        3761
         4        3661        3662        3763        3762
         4        3662        3663        3764        3763
         4        3663        3664        3765        3764
         4        3664        3665        3766        3765
         4        3665        3666        3767        3766
         4        3666        3667        3768        3767
         4        3667        3668        3769        3768
         4        3668        3669        3770        3769
         4        3669        3670        3771        3770
         4        3670        3671        3772        3771
         4        3671        3672        3773        3772
         4        3672        3673        3774        3773
         4        3673        3674        3775        3774
         4        3674        3675        3776        3775
         4        3675        3676        3777        3776
         4        3676        3677        3778        3777
         4        3677        3678        3779        3778
         4        3678        3679        3780        3779
         4        3679        3680        3781        3780
         4        3680        3681        3782        3781
         4        3681        3682        3783        3782
         4        3682        3683        3784        3783
         4        3683        3684        3785        3784
         4        3684        3685        3786        3785
         4        3685        3686        3787        3786
         4        3686        3687        3788        3787
         4        3687        3688        3789        3788
         4        3688        3689        3790        3789
         4        3689        3690        3791        3790
         4        3690        3691        3792        3791
         4        3691        3692        3793        3792
         4        3692        3693        3794        3793
         4        3693        3694        3795        3794
         4        3694        3695        3796        3795
         4        3695        3696        3797        3796
         4        3696        3697        3798        3797
         4        3697        3698        3799        3798
         4        3698        3699        3800        3799
         4        3699        3700        3801        3800
         4        3700        3701        3802        3801
         4        3701        3702        3803        3802
         4        3702        3703        3804        3803
         4        3703        3704        3805        3804
         4        3704        3705        3806        3805
         4        3705        3706        3807        3806
         4        3706        3707        3808        3807
         4        3707        3708        3809        3808
         4        3708        3709        3810        3809
         4        3709        3710        3811        3810
         4        3710        3711        3812        3811
         4        3711        3712        3813        3812
         4        3712        3713        3814        3813
         4        3713        3714        3815        3814
         4        3714        3715        3816        3815
         4        3715        3716        3817        3816
         4        3716        3717        3818        3817
         4        3717        3718        3819        3818
         4        3718        3719        3820        3819
         4        3719        3720        3821        3820
         4        3720        3721        3822        3821
         4        3721        3722        3823        3822
         4        3722        3723        3824        3823
         4        3723        3724        3825        3824
         4        3724        3725        3826        3825
         4        3725        3726        3827        3826
         4        3726        3727        3828        3827
         4        3727        3728        3829        3828
         4        3728        3729        3830        3829
         4        3729        3730        3831        3830
         4        3730        3731        3832        3831
         4        3731        3732        3833        3832
         4        3732        3733        3834        3833
         4        3733        3734        3835        3834
         4        3734        3735        3836        3835
         4        3735        3736        3837        3836
         4        3737        3738        3839        3838
         4        3738        3739        3840        3839
         4        3739        3740        3841        3840
         4        3740        3741        3842        3841
         4        3741        3742        3843        3842
         4        3742        3743        3844        3843
         4        3743        3744        3845        3844
         4        3744        3745        3846        3845
         4        3745        3746        3847        3846
         4        3746        3747        3848        3847
         4        3747        3748        3849        3848
         4        3748        3749        3850        3849
         4        3749        3750        3851        3850
         4        3750        3751        3852        3851
         4        3751        3752        3853        3852
         4        3752        3753        3854        3853
         4        3753        3754        3855        3854
         4        3754        3755        3856        3855
         4        3755        3756        3857        3856
         4        3756        3757        3858        3857
         4        3757        3758        3859        3858
         4        3758        3759        3860        3859
         4        3759        3760        3861        3860
         4        3760        3761        3862        3861
         4        3761        3762        3863        3862
         4        3762        3763        3864        3863
         4        3763        3764        3865        3864
         4        3764        3765        3866        3865
         4        3765        3766        3867        3866
         4        3766        3767        3868        3867
         4        3767        3768        3869        3868
         4        3768        3769        3870        3869
         4        3769        3770        3871        3870
         4        3770        3771        3872        3871
         4        3771        3772        3873        3872
         4        3772        3773        3874        3873
         4        3773        3774        3875        3874
         4        3774        3775        3876        3875
         4        3775        3776        3877        3876
         4        3776        3777        3878        3877
         4        3777        3778        3879        3878
         4        3778        3779        3880        3879
         4        3779        3780        3881        3880
         4        3780        3781        3882        3881
         4        3781        3782        3883        3882
         4        3782        3783        3884        3883
         4        3783        3784        3885        3884
         4        3784        3785        3886        3885
         4        3785        3786        3887        3886
         4        3786        3787        3888        3887
         4        3787        3788        3889        3888
         4        3788        3789        3890        3889
         4        3789        3790        3891        3890
         4        3790        3791        3892        3891
         4        3791        3792        3893        3892
         4        3792        3793        3894        3893
         4        3793        3794        3895        3894
         4        3794        3795        3896        3895
         4        3795        3796        3897        3896
         4        3796        3797        3898        3897
         4        3797        3798        3899        3898
         4        3798        3799        3900        3899
         4        3799        3800        3901        3900
         4        3800        3801        3902        3901
         4        3801        3802        3903        3902
         4        3802        3803        3904        3903
         4        3803        3804        3905        3904
         4        3804        3805        3906        3905
         4        3805        3806        3907        3906
         4        3806        3807        3908        3907
         4        3807        3808        3909        3908
         4        3808        3809        3910        3909
         4        3809        3810        3911        3910
         4        3810        3811        3912        3911
         4        3811        3812        3913        3912
         4        3812        3813        3914        3913
         4        3813        3814        3915        3914
         4        3814        3815        3916        3915
         4        3815        3816        3917        3916
         4        3816        3817        3918        3917
         4        3817        3818        3919        3918
         4        3818        3819        3920        3919
         4        3819        3820        3921        3920
         4        3820        3821        3922        3921
         4        3821        3822        3923        3922
         4        3822        3823        3924        3923
         4        3823        3824        3925        3924
         4        3824        3825        3926        3925
         4        3825        3826        3927        3926
         4        3826        3827        3928        3927
         4        3827        3828        3929        3928
         4        3828        3829        3930        3929
         4        3829        3830        3931        3930
         4        3830        3831        3932        3931
         4        3831        3832        3933        3932
         4        3832        3833        3934        3933
         4        3833        3834        3935        3934
         4        3834        3835        3936        3935
         4        3835        3836        3937        3936
         4        3836        3837        3938        3937
         4        3838        3839        3940        3939
         4        3839        3840        3941        3940
         4        3840        3841        3942        3941
         4        3841        3842        3943        3942
         4        3842        3843        3944        3943
         4        3843        3844        3945        3944
         4        3844        3845        3946        3945
         4        3845        3846        3947        3946
         4        3846        3847        3948        3947
         4        3847        3848        3949        3948
         4        3848        3849        3950        3949
         4        3849        3850        3951        3950
         4        3850        3851        3952        3951
         4        3851        3852        3953        3952
         4        3852        3853        3954        3953
         4        3853        3854        3955        3954
         4        3854        3855        3956        3955
         4        3855        3856        3957        3956
         4        3856        3857        3958        3957
         4        3857        3858        3959        3958
         4        3858        3859        3960        3959
         4        3859        3860        3961        3960
         4        3860        3861        3962        3961
         4        3861        3862        3963        3962
         4        3862        3863        3964        3963
         4        3863        3864        3965        3964
         4        3864        3865        3966        3965
         4        3865        3866        3967        3966
         4        3866        3867        3968        3967
         4        3867        3868        3969        3968
         4        3868        3869        3970        3969
         4        3869        3870        3971        3970
         4        3870        3871        3972        3971
         4        3871        3872        3973        3972
         4        3872        3873        3974        3973
         4        3873        3874        3975        3974
         4        3874        3875        3976        3975
         4        3875        3876        3977        3976
         4        3876        3877        3978        3977
         4        3877        3878        3979        3978
         4        3878        3879        3980        3979
         4        3879        3880        3981        3980
         4        3880        3881        3982        3981
         4        3881        3882        3983        3982
         4        3882        3883        3984        3983
         4        3883        3884        3985        3984
         4        3884        3885        3986        3985
         4        3885        3886        3987        3986
         4        3886        3887        3988        3987
         4        3887        3888        3989        3988
         4        3888        3889        3990        3989
         4        3889        3890        3991        3990
         4        3890        3891        3992        3991
         4        3891        3892        3993        3992
         4        3892        3893        3994        3993
         4        3893        3894        3995        3994
         4        3894        3895        3996        3995
         4        3895        3896        3997        3996
         4        3896        3897        3998        3997
         4        3897        3898        3999        3998
         4        3898        3899        4000        3999
         4        3899        3900        4001        4000
         4        3900        3901        4002        4001
         4        3901        3902        4003        4002
         4        3902        3903        4004        4003
         4        3903        3904        4005        4004
         4        3904        3905        4006        4005
         4        3905        3906        4007        4006
         4        3906        3907        4008        4007
         4        3907        3908        4009        4008
         4        3908        3909        4010        4009
         4        3909        3910        4011        4010
         4        3910        3911        4012        4011
         4        3911        3912        4013        4012
         4        3912        3913        4014        4013
         4        3913        3914        4015        4014
         4        3914        3915        4016        4015
         4        3915        3916        4017        4016
         4        3916        3917        4018        4017
         4        3917        3918        4019        4018
         4        3918        3919        4020        4019
         4        3919        3920        4021        4020
         4        3920        3921        4022        4021
         4        3921        3922        4023        4022
         4        3922        3923        4024        4023
         4        3923        3924        4025        4024
         4        3924        3925        4026        4025
         4        3925        3926        4027        4026
         4        3926        3927        4028        4027
         4        3927        3928        4029        4028
         4        3928        3929        4030        4029
         4        3929        3930        4031        4030
         4        3930        3931        4032        4031
         4        3931        3932        4033        4032
         4        3932        3933        4034        4033
         4        3933        3934        4035        4034
         4        3934        3935        4036        4035
         4        3935        3936        4037        4036
         4        3936        3937        4038        4037
         4        3937        3938        4039        4038
         4        3939        3940        4041        4040
         4        3940        3941        4042        4041
         4        3941        3942        4043        4042
         4        3942        3943        4044        4043
         4        3943        3944        4045        4044
         4        3944        3945        4046        4045
         4        3945        3946        4047        4046
         4        3946        3947        4048        4047
         4        3947        3948        4049        4048
         4        3948        3949        4050        4049
         4        3949        3950        4051        4050
         4        3950        3951        4052        4051
         4        3951        3952        4053        4052
         4        3952        3953        4054        4053
         4        3953        3954        4055        4054
         4        3954        3955        4056        4055
         4        3955        3956        4057        4056
         4        3956        3957        4058        4057
         4        3957        3958        4059        4058
         4        3958        3959        4060        4059
         4        3959        3960        4061        4060
         4        3960        3961        4062        4061
         4        3961        3962        4063        4062
         4        3962        3963        4064        4063
         4        3963        3964        4065        4064
         4        3964        3965        4066        4065
         4        3965        3966        4067        4066
         4        3966        3967        4068        4067
         4        3967        3968        4069        4068
         4        3968        3969        4070        4069
         4        3969        3970        4071        4070
         4        3970        3971        4072        4071
         4        3971        3972        4073        4072
         4        3972        3973        4074        4073
         4        3973        3974        4075        4074
         4        3974        3975        4076        4075
         4        3975        3976        4077        4076
         4        3976        3977        4078        4077
         4        3977        3978        4079        4078
         4        3978        3979        4080        4079
         4        3979        3980        4081        4080
         4        3980        3981        4082        4081
         4        3981        3982        4083        4082
         4        3982        3983        4084        4083
         4        3983        3984        4085        4084
         4        3984        3985        4086        4085
         4        3985        3986        4087        4086
         4        3986        3987        4088        4087
         4        3987        3988        4089        4088
         4        3988        3989        4090        4089
         4        3989        3990        4091        4090
         4        3990        3991        4092        4091
         4        3991        3992        4093        4092
         4        3992        3993        4094        4093
         4        3993        3994        4095        4094
         4        3994        3995        4096        4095
         4        3995        3996        4097        4096
         4        3996        3997        4098        4097
         4        3997        3998        4099        4098
         4        3998        3999        4100        4099
         4        3999        4000        4101        4100
         4        4000        4001        4102        4101
         4        4001        4002        4103        4102
         4        4002        4003        4104        4103
         4        4003        4004        4105        4104
         4        4004        4005        4106        4105
         4        4005        4006        4107        4106
         4        4006        4007        4108        4107
         4        4007        4008        4109        4108
         4        4008        4009        4110        4109
         4        4009        4010        4111        4110
         4        4010        4011        4112        4111
         4        4011        4012        4113        4112
         4        4012        4013        4114        4113
         4        4013        4014        4115        4114
         4        4014        4015        4116        4115
         4        4015        4016        4117        4116
         4        4016        4017        4118        4117
         4        4017        4018        4119        4118
         4        4018        4019        4120        4119
         4        4019        4020        4121        4120
         4        4020        4021        4122        4121
         4        4021        4022        4123        4122
         4        4022        4023        4124        4123
         4        4023        4024        4125        4124
         4        4024        4025        4126        4125
         4        4025        4026        4127        4126
         4        4026        4027        4128        4127
         4        4027        4028        4129        4128
         4        4028        4029        4130        4129
         4        4029        4030        4131        4130
         4        4030        4031        4132        4131
         4        4031        4032        4133        4132
         4        4032        4033        4134        4133
         4        4033        4034        4135        4134
         4        4034        4035        4136        4135
         4        4035        4036        4137        4136
         4        4036        4037        4138        4137
         4        4037        4038        4139        4138
         4        4038        4039        4140        4139
         4        4040        4041        4142        4141
         4        4041        4042        4143        4142
         4        4042        4043        4144        4143
         4        4043        4044        4145        4144
         4        4044        4045        4146        4145
         4        4045        4046        4147        4146
         4        4046        4047        4148        4147
         4        4047        4048        4149        4148
         4        4048        4049        4150        4149
         4        4049        4050        4151        4150
         4        4050        4051        4152        4151
         4        4051        4052        4153        4152
         4        4052        4053        4154        4153
         4        4053        4054        4155        4154
         4        4054        4055        4156        4155
         4        4055        4056        4157        4156
         4        4056        4057        4158        4157
         4        4057        4058        4159        4158
         4        4058        4059        4160        4159
         4        4059        4060        4161        4160
         4        4060        4061        4162        4161
         4        4061        4062        4163        4162
         4        4062        4063        4164        4163
         4        4063        4064        4165        4164
         4        4064        4065        4166        4165
         4        4065        4066        4167        4166
         4        4066        4067        4168        4167
         4        4067        4068        4169        4168
         4        4068        4069        4170        4169
         4        4069        4070        4171        4170
         4        4070        4071        4172        4171
         4        4071        4072        4173        4172
         4        4072        4073        4174        4173
         4        4073        4074        4175        4174
         4        4074        4075        4176        4175
         4        4075        4076        4177        4176
         4        4076        4077        4178        4177
         4        4077        4078        4179        4178
         4        4078        4079        4180        4179
         4        4079        4080        4181        4180
         4        4080        4081        4182        4181
         4        4081        4082        4183        4182
         4        4082        4083        4184        4183
         4        4083        4084        4185        4184
         4        4084        4085        4186        4185
         4        4085        4086        4187        4186
         4        4086        4087        4188        4187
         4        4087        4088        4189        4188
         4        4088        4089        4190        4189
         4        4089        4090        4191        4190
         4        4090        4091        4192        4191
         4        4091        4092        4193        4192
         4        4092        4093        4194        4193
         4        4093        4094        4195        4194
         4        4094        4095        4196        4195
         4        4095        4096        4197        4196
         4        4096        4097        4198        4197
         4        4097        4098        4199        4198
         4        4098        4099        4200        4199
         4        4099        4100        4201        4200
         4        4100        4101        4202        4201
         4        4101        4102        4203        4202
         4        4102        4103        4204        4203
         4        4103        4104        4205        4204
         4        4104        4105        4206        4205
         4        4105        4106        4207        4206
         4        4106        4107        4208        4207
         4        4107        4108        4209        4208
         4        4108        4109        4210        4209
         4        4109        4110        4211        4210
         4        4110        4111        4212        4211
         4        4111        4112        4213        4212
         4        4112        4113        4214        4213
         4        4113        4114        4215        4214
         4        4114        4115        4216        4215
         4        4115        4116        4217        4216
         4        4116        4117        4218        4217
         4        4117        4118        4219        4218
         4        4118        4119        4220        4219
         4        4119        4120        4221        4220
         4        4120        4121        4222        4221
         4        4121        4122        4223        4222
         4        4122        4123        4224        4223
         4        4123        4124        4225        4224
         4        4124        4125        4226        4225
         4        4125        4126        4227        4226
         4        4126        4127        4228        4227
         4        4127        4128        4229        4228
         4        4128        4129        4230        4229
         4        4129        4130        4231        4230
         4        4130        4131        4232        4231
         4        4131        4132        4233        4232
         4        4132        4133        4234        4233
         4        4133        4134        4235        4234
         4        4134        4135        4236        4235
         4        4135        4136        4237        4236
         4        4136        4137        4238        4237
         4        4137        4138        4239        4238
         4        4138        4139        4240        4239
         4        4139        4140        4241        4240
         4        4141        4142        4243        4242
         4        4142        4143        4244        4243
         4        4143        4144        4245        4244
         4        4144        4145        4246        4245
         4        4145        4146        4247        4246
         4        4146        4147        4248        4247
         4        4147        4148        4249        4248
         4        4148        4149        4250        4249
         4        4149        4150        4251        4250
         4        4150        4151        4252        4251
         4        4151        4152        4253        4252
         4        4152        4153        4254        4253
         4        4153        4154        4255        4254
         4        4154        4155        4256        4255
         4        4155        4156        4257        4256
         4        4156        4157        4258        4257
         4        4157        4158        4259        4258
         4        4158        4159        4260        4259
         4        4159        4160        4261        4260
         4        4160        4161        4262        4261
         4        4161        4162        4263        4262
         4        4162        4163        4264        4263
         4        4163        4164        4265        4264
         4        4164        4165        4266        4265
         4        4165        4166        4267        4266
         4        4166        4167        4268        4267
         4        4167        4168        4269        4268
         4        4168        4169        4270        4269
         4        4169        4170        4271        4270
         4        4170        4171        4272        4271
         4        4171        4172        4273        4272
         4        4172        4173        4274        4273
         4        4173        4174        4275        4274
         4        4174        4175        4276        4275
         4        4175        4176        4277        4276
         4        4176        4177        4278        4277
         4        4177        4178        4279        4278
         4        4178        4179        4280        4279
         4        4179        4180        4281        4280
         4        4180        4181        4282        4281
         4        4181        4182        4283        4282
         4        4182        4183        4284        4283
         4        4183        4184        4285        4284
         4        4184        4185        4286        4285
         4        4185        4186        4287        4286
         4        4186        4187        4288        4287
         4        4187        4188        4289        4288
         4        4188        4189        4290        4289
         4        4189        4190        4291        4290
         4        4190        4191        4292        4291
         4        4191        4192        4293        4292
         4        4192        4193        4294        4293
         4        4193        4194        4295        4294
         4        4194        4195        4296        4295
         4        4195        4196        4297        4296
         4        4196        4197        4298        4297
         4        4197        4198        4299        4298
         4        4198        4199        4300        4299
         4        4199        4200        4301        4300
         4        4200        4201        4302        4301
         4        4201        4202        4303        4302
         4        4202        4203        4304        4303
         4        4203        4204        4305        4304
         4        4204        4205        4306        4305
         4        4205        4206        4307        4306
         4        4206        4207        4308        4307
         4        4207        4208        4309        4308
         4        4208        4209        4310        4309
         4        4209        4210        4311        4310
         4        4210        4211        4312        4311
         4        4211        4212        4313        4312
         4        4212        4213        4314        4313
         4        4213        4214        4315        4314
         4        4214        4215        4316        4315
         4        4215        4216        4317        4316
         4        4216        4217        4318        4317
         4        4217        4218        4319        4318
         4        4218        4219        4320        4319
         4        4219        4220        4321        4320
         4        4220        4221        4322        4321
         4        4221        4222        4323        4322
         4        4222        4223        4324        4323
         4        4223        4224        4325        4324
         4        4224        4225        4326        4325
         4        4225        4226        4327        4326
         4        4226        4227        4328        4327
         4        4227        4228        4329        4328
         4        4228        4229        4330        4329
         4        4229        4230        4331        4330
         4        4230        4231        4332        4331
         4        4231        4232        4333        4332
         4        4232        4233        4334        4333
         4        4233        4234        4335        4334
         4        4234        4235        4336        4335
         4        4235        4236        4337        4336
         4        4236        4237        4338        4337
         4        4237        4238        4339        4338
         4        4238        4239        4340        4339
         4        4239        4240        4341        4340
         4        4240        4241        4342        4341
         4        4242        4243        4344        4343
         4        4243        4244        4345        4344
         4        4244        4245        4346        4345
         4        4245        4246        4347        4346
         4        4246        4247        4348        4347
         4        4247        4248        4349        4348
         4        4248        4249        4350        4349
         4        4249        4250        4351        4350
         4        4250        4251        4352        4351
         4        4251        4252        4353        4352
         4        4252        4253        4354        4353
         4        4253        4254        4355        4354
         4        4254        4255        4356        4355
         4        4255        4256        4357        4356
         4        4256        4257        4358        4357
         4        4257        4258        4359        4358
         4        4258        4259        4360        4359
         4        4259        4260        4361        4360
         4        4260        4261        4362        4361
         4        4261        4262        4363        4362
         4        4262        4263        4364        4363
         4        4263        4264        4365        4364
         4        4264        4265        4366        4365
         4        4265        4266        4367        4366
         4        4266        4267        4368        4367
         4        4267        4268        4369        4368
         4        4268        4269        4370        4369
         4        4269        4270        4371        4370
         4        4270        4271        4372        4371
         4        4271        4272        4373        4372
         4        4272        4273        4374        4373
         4        4273        4274        4375        4374
         4        4274        4275        4376        4375
         4        4275        4276        4377        4376
         4        4276        4277        4378        4377
         4        4277        4278        4379        4378
         4        4278        4279        4380        4379
         4        4279        4280        4381        4380
         4        4280        4281        4382        4381
         4        4281        4282        4383        4382
         4        4282        4283        4384        4383
         4        4283        4284        4385        4384
         4        4284        4285        4386        4385
         4        4285        4286        4387        4386
         4        4286        4287        4388        4387
         4        4287        4288        4389        4388
         4        4288        4289        4390        4389
         4        4289        4290        4391        4390
         4        4290        4291        4392        4391
         4        4291        4292        4393        4392
         4        4292        4293        4394        4393
         4        4293        4294        4395        4394
         4        4294        4295        4396        4395
         4        4295        4296        4397        4396
         4        4296        4297        4398        4397
         4        4297        4298        4399        4398
         4        4298        4299        4400        4399
         4        4299        4300        4401        4400
         4        4300        4301        4402        4401
         4        4301        4302        4403        4402
         4        4302        4303        4404        4403
         4        4303        4304        4405        4404
         4        4304        4305        4406        4405
         4        4305        4306        4407        4406
         4        4306        4307        4408        4407
         4        4307        4308        4409        4408
         4        4308        4309        4410        4409
         4        4309        4310        4411        4410
         4        4310        4311        4412        4411
         4        4311        4312        4413        4412
         4        4312        4313        4414        4413
         4        4313        4314        4415        4414
         4        4314        4315        4416        4415
         4        4315        4316        4417        4416
         4        4316        4317        4418        4417
         4        4317        4318        4419        4418
         4        4318        4319        4420        4419
         4        4319        4320        4421        4420
         4        4320        4321        4422        4421
         4        4321        4322        4423        4422
         4        4322        4323        4424        4423
         4        4323        4324        4425        4424
         4        4324        4325        4426        4425
         4        4325        4326        4427        4426
         4        4326        4327        4428        4427
         4        4327        4328        4429        4428
         4        4328        4329        4430        4429
         4        4329        4330        4431        4430
         4        4330        4331        4432        4431
         4        4331        4332        4433        4432
         4        4332        4333        4434        4433
         4        4333        4334        4435        4434
         4        4334        4335        4436        4435
         4        4335        4336        4437        4436
         4        4336        4337        4438        4437
         4        4337        4338        4439        4438
         4        4338        4339        4440        4439
         4        4339        4340        4441        4440
         4        4340        4341        4442        4441
         4        4341        4342        4443        4442
         4        4343        4344        4445        4444
         4        4344        4345        4446        4445
         4        4345        4346        4447        4446
         4        4346        4347        4448        4447
         4        4347        4348        4449        4448
         4        4348        4349        4450        4449
         4        4349        4350        4451        4450
         4        4350        4351        4452        4451
         4        4351        4352        4453        4452
         4        4352        4353        4454        4453
         4        4353        4354        4455        4454
         4        4354        4355        4456        4455
         4        4355        4356        4457        4456
         4        4356        4357        4458        4457
         4        4357        4358        4459        4458
         4        4358        4359        4460        4459
         4        4359        4360        4461        4460
         4        4360        4361        4462        4461
         4        4361        4362        4463        4462
         4        4362        4363        4464        4463
         4        4363        4364        4465        4464
         4        4364        4365        4466        4465
         4        4365        4366        4467        4466
         4        4366        4367        4468        4467
         4        4367        4368        4469        4468
         4        4368        4369        4470        4469
         4        4369        4370        4471        4470
         4        4370        4371        4472        4471
         4        4371        4372        4473        4472
         4        4372        4373        4474        4473
         4        4373        4374        4475        4474
         4        4374        4375        4476        4475
         4        4375        4376        4477        4476
         4        4376        4377        4478        4477
         4        4377        4378        4479        4478
         4        4378        4379        4480        4479
         4        4379        4380        4481        4480
         4        4380        4381        4482        4481
         4        4381        4382        4483        4482
         4        4382        4383        4484        4483
         4        4383        4384        4485        4484
         4        4384        4385        4486        4485
         4        4385        4386        4487        4486
         4        4386        4387        4488        4487
         4        4387        4388        4489        4488
         4        4388        4389        4490        4489
         4        4389        4390        4491        4490
         4        4390        4391        4492        4491
         4        4391        4392        4493        4492
         4        4392        4393        4494        4493
         4        4393        4394        4495        4494
         4        4394        4395        4496        4495
         4        4395        4396        4497        4496
         4        4396        4397        4498        4497
         4        4397        4398        4499        4498
         4        4398        4399        4500        4499
         4        4399        4400        4501        4500
         4        4400        4401        4502        4501
         4        4401        4402        4503        4502
         4        4402        4403        4504        4503
         4        4403        4404        4505        4504
         4        4404        4405        4506        4505
         4        4405        4406        4507        4506
         4        4406        4407        4508        4507
         4        4407        4408        4509        4508
         4        4408        4409        4510        4509
         4        4409        4410        4511        4510
         4        4410        4411        4512        4511
         4        4411        4412        4513        4512
         4        4412        4413        4514        4513
         4        4413        4414        4515        4514
         4        4414        4415        4516        4515
         4        4415        4416        4517        4516
         4        4416        4417        4518        4517
         4        4417        4418        4519        4518
         4        4418        4419        4520        4519
         4        4419        4420        4521        4520
         4        4420        4421        4522        4521
         4        4421        4422        4523        4522
         4        4422        4423        4524        4523
         4        4423        4424        4525        4524
         4        4424        4425        4526        4525
         4        4425        4426        4527        4526
         4        4426        4427        4528        4527
         4        4427        4428        4529        4528
         4        4428        4429        4530        4529
         4        4429        4430        4531        4530
         4        4430        4431        4532        4531
         4        4431        4432        4533        4532
         4        4432        4433        4534        4533
         4        4433        4434        4535        4534
         4        4434        4435        4536        4535
         4        4435        4436        4537        4536
         4        4436        4437        4538        4537
         4        4437        4438        4539        4538
         4        4438        4439        4540        4539
         4        4439        4440        4541        4540
         4        4440        4441        4542        4541
         4        4441        4442        4543        4542
         4        4442        4443        4544        4543
         4        4444        4445        4546        4545
         4        4445        4446        4547        4546
         4        4446        4447        4548        4547
         4        4447        4448        4549        4548
         4        4448        4449        4550        4549
         4        4449        4450        4551        4550
         4        4450        4451        4552        4551
         4        4451        4452        4553        4552
         4        4452        4453        4554        4553
         4        4453        4454        4555        4554
         4        4454        4455        4556        4555
         4        4455        4456        4557        4556
         4        4456        4457        4558        4557
         4        4457        4458        4559        4558
         4        4458        4459        4560        4559
         4        4459        4460        4561        4560
         4        4460        4461        4562        4561
         4        4461        4462        4563        4562
         4        4462        4463        4564        4563
         4        4463        4464        4565        4564
         4        4464        4465        4566        4565
         4        4465        4466        4567        4566
         4        4466        4467        4568        4567
         4        4467        4468        4569        4568
         4        4468        4469        4570        4569
         4        4469        4470        4571        4570
         4        4470        4471        4572        4571
         4        4471        4472        4573        4572
         4        4472        4473        4574        4573
         4        4473        4474        4575        4574
         4        4474        4475        4576        4575
         4        4475        4476        4577        4576
         4        4476        4477        4578        4577
         4        4477        4478        4579        4578
         4        4478        4479        4580        4579
         4        4479        4480        4581        4580
         4        4480        4481        4582        4581
         4        4481        4482        4583        4582
         4        4482        4483        4584        4583
         4        4483        4484        4585        4584
         4        4484        4485        4586        4585
         4        4485        4486        4587        4586
         4        4486        4487        4588        4587
         4        4487        4488        4589        4588
         4        4488        4489        4590        4589
         4        4489        4490        4591        4590
         4        4490        4491        4592        4591
         4        4491        4492        4593        4592
         4        4492        4493        4594        4593
         4        4493        4494        4595        4594
         4        4494        4495        4596        4595
         4        4495        4496        4597        4596
         4        4496        4497        4598        4597
         4        4497        4498        4599        4598
         4        4498        4499        4600        4599
         4        4499        4500        4601        4600
         4        4500        4501        4602        4601
         4        4501        4502        4603        4602
         4        4502        4503        4604        4603
         4        4503        4504        4605        4604
         4        4504        4505        4606        4605
         4        4505        4506        4607        4606
         4        4506        4507        4608        4607
         4        4507        4508        4609        4608
         4        4508        4509        4610        4609
         4        4509        4510        4611        4610
         4        4510        4511        4612        4611
         4        4511        4512        4613        4612
         4        4512        4513        4614        4613
         4        4513        4514        4615        4614
         4        4514        4515        4616        4615
         4        4515        4516        4617        4616
         4        4516        4517        4618        4617
         4        4517        4518        4619        4618
         4        4518        4519        4620        4619
         4        4519        4520        4621        4620
         4        4520        4521        4622        4621
         4        4521        4522        4623        4622
         4        4522        4523        4624        4623
         4        4523        4524        4625        4624
         4        4524        4525        4626        4625
         4        4525        4526        4627        4626
         4        4526        4527        4628        4627
         4        4527        4528        4629        4628
         4        4528        4529        4630        4629
         4        4529        4530        4631        4630
         4        4530        4531        4632        4631
         4        4531        4532        4633        4632
         4        4532        4533        4634        4633
         4        4533        4534        4635        4634
         4        4534        4535        4636        4635
         4        4535        4536        4637        4636
         4        4536        4537        4638        4637
         4        4537        4538        4639        4638
         4        4538        4539        4640        4639
         4        4539        4540        4641        4640
         4        4540        4541        4642        4641
         4        4541        4542        4643        4642
         4        4542        4543        4644        4643
         4        4543        4544        4645        4644
         4        4545        4546        4647        4646
         4        4546        4547        4648        4647
         4        4547        4548        4649        4648
         4        4548        4549        4650        4649
         4        4549        4550        4651        4650
         4        4550        4551        4652        4651
         4        4551        4552        4653        4652
         4        4552        4553        4654        4653
         4        4553        4554        4655        4654
         4        4554        4555        4656        4655
         4        4555        4556        4657        4656
         4        4556        4557        4658        4657
         4        4557        4558        4659        4658
         4        4558        4559        4660        4659
         4        4559        4560        4661        4660
         4        4560        4561        4662        4661
         4        4561        4562        4663        4662
         4        4562        4563        4664        4663
         4        4563        4564        4665        4664
         4        4564        4565        4666        4665
         4        4565        4566        4667        4666
         4        4566        4567        4668        4667
         4        4567        4568        4669        4668
         4        4568        4569        4670        4669
         4        4569        4570        4671        4670
         4        4570        4571        4672        4671
         4        4571        4572        4673        4672
         4        4572        4573        4674        4673
         4        4573        4574        4675        4674
         4        4574        4575        4676        4675
         4        4575        4576        4677        4676
         4        4576        4577        4678        4677
         4        4577        4578        4679        4678
         4        4578        4579        4680        4679
         4        4579        4580        4681        4680
         4        4580        4581        4682        4681
         4        4581        4582        4683        4682
         4        4582        4583        4684        4683
         4        4583        4584        4685        4684
         4        4584        4585        4686        4685
         4        4585        4586        4687        4686
         4        4586        4587        4688        4687
         4        4587        4588        4689        4688
         4        4588        4589        4690        4689
         4        4589        4590        4691        4690
         4        4590        4591        4692        4691
         4        4591        4592        4693        4692
         4        4592        4593        4694        4693
         4        4593        4594        4695        4694
         4        4594        4595        4696        4695
         4        4595        4596        4697        4696
         4        4596        4597        4698        4697
         4        4597        4598        4699        4698
         4        4598        4599        4700        4699
         4        4599        4600        4701        4700
         4        4600        4601        4702        4701
         4        4601        4602        4703        4702
         4        4602        4603        4704        4703
         4        4603        4604        4705        4704
         4        4604        4605        4706        4705
         4        4605        4606        4707        4706
         4        4606        4607        4708        4707
         4        4607        4608        4709        4708
         4        4608        4609        4710        4709
         4        4609        4610        4711        4710
         4        4610        4611        4712        4711
         4        4611        4612        4713        4712
         4        4612        4613        4714        4713
         4        4613        4614        4715        4714
         4        4614        4615        4716        4715
         4        4615        4616        4717        4716
         4        4616        4617        4718        4717
         4        4617        4618        4719        4718
         4        4618        4619        4720        4719
         4        4619        4620        4721        4720
         4        4620        4621        4722        4721
         4        4621        4622        4723        4722
         4        4622        4623        4724        4723
         4        4623        4624        4725        4724
         4        4624        4625        4726        4725
         4        4625        4626        4727        4726
         4        4626        4627        4728        4727
         4        4627        4628        4729        4728
         4        4628        4629        4730        4729
         4        4629        4630        4731        4730
         4        4630        4631        4732        4731
         4        4631        4632        4733        4732
         4        4632        4633        4734        4733
         4        4633        4634        4735        4734
         4        4634        4635        4736        4735
         4        4635        4636        4737        4736
         4        4636        4637        4738        4737
         4        4637        4638        4739        4738
         4        4638        4639        4740        4739
         4        4639        4640        4741        4740
         4        4640        4641        4742        4741
         4        4641        4642        4743        4742
         4        4642        4643        4744        4743
         4        4643        4644        4745        4744
         4        4644        4645        4746        4745
         4        4646        4647        4748        4747
         4        4647        4648        4749        4748
         4        4648        4649        4750        4749
         4        4649        4650        4751        4750
         4        4650        4651        4752        4751
         4        4651        4652        4753        4752
         4        4652        4653        4754        4753
         4        4653        4654        4755        4754
         4        4654        4655        4756        4755
         4        4655        4656        4757        4756
         4        4656        4657        4758        4757
         4        4657        4658        4759        4758
         4        4658        4659        4760        4759
         4        4659        4660        4761        4760
         4        4660        4661        4762        4761
         4        4661        4662        4763        4762
         4        4662        4663        4764        4763
         4        4663        4664        4765        4764
         4        4664        4665        4766        4765
         4        4665        4666        4767        4766
         4        4666        4667        4768        4767
         4        4667        4668        4769        4768
         4        4668        4669        4770        4769
         4        4669        4670        4771        4770
         4        4670        4671        4772        4771
         4        4671        4672        4773        4772
         4        4672        4673        4774        4773
         4        4673        4674        4775        4774
         4        4674        4675        4776        4775
         4        4675        4676        4777        4776
         4        4676        4677        4778        4777
         4        4677        4678        4779        4778
         4        4678        4679        4780        4779
         4        4679        4680        4781        4780
         4        4680        4681        4782        4781
         4        4681        4682        4783        4782
         4        4682        4683        4784        4783
         4        4683        4684        4785        4784
         4        4684        4685        4786        4785
         4        4685        4686        4787        4786
         4        4686        4687        4788        4787
         4        4687        4688        4789        4788
         4        4688        4689        4790        4789
         4        4689        4690        4791        4790
         4        4690        4691        4792        4791
         4        4691        4692        4793        4792
         4        4692        4693        4794        4793
         4        4693        4694        4795        4794
         4        4694        4695        4796        4795
         4        4695        4696        4797        4796
         4        4696        4697        4798        4797
         4        4697        4698        4799        4798
         4        4698        4699        4800        4799
         4        4699        4700        4801        4800
         4        4700        4701        4802        4801
         4        4701        4702        4803        4802
         4        4702        4703        4804        4803
         4        4703        4704        4805        4804
         4        4704        4705        4806        4805
         4        4705        4706        4807        4806
         4        4706        4707        4808        4807
         4        4707        4708        4809        4808
         4        4708        4709        4810        4809
         4        4709        4710        4811        4810
         4        4710        4711        4812        4811
         4        4711        4712        4813        4812
         4        4712        4713        4814        4813
         4        4713        4714        4815        4814
         4        4714        4715        4816        4815
         4        4715        4716        4817        4816
         4        4716        4717        4818        4817
         4        4717        4718        4819        4818
         4        4718        4719        4820        4819
         4        4719        4720        4821        4820
         4        4720        4721        4822        4821
         4        4721        4722        4823        4822
         4        4722        4723        4824        4823
         4        4723        4724        4825        4824
         4        4724        4725        4826        4825
         4        4725        4726        4827        4826
         4        4726        4727        4828        4827
         4        4727        4728        4829        4828
         4        4728        4729        4830        4829
         4        4729        4730        4831        4830
         4        4730        4731        4832        4831
         4        4731        4732        4833        4832
         4        4732        4733        4834        4833
         4        4733        4734        4835        4834
         4        4734        4735        4836        4835
         4        4735        4736        4837        4836
         4        4736        4737        4838        4837
         4        4737        4738        4839        4838
         4        4738        4739        4840        4839
         4        4739        4740        4841        4840
         4        4740        4741        4842        4841
         4        4741        4742        4843        4842
         4        4742        4743        4844        4843
         4        4743        4744        4845        4844
         4        4744        4745        4846        4845
         4        4745        4746        4847        4846
         4        4747        4748        4849        4848
         4        4748        4749        4850        4849
         4        4749        4750        4851        4850
         4        4750        4751        4852        4851
         4        4751        4752        4853        4852
         4        4752        4753        4854        4853
         4        4753        4754        4855        4854
         4        4754        4755        4856        4855
         4        4755        4756        4857        4856
         4        4756        4757        4858        4857
         4        4757        4758        4859        4858
         4        4758        4759        4860        4859
         4        4759        4760        4861        4860
         4        4760        4761        4862        4861
         4        4761        4762        4863        4862
         4        4762        4763        4864        4863
         4        4763        4764        4865        4864
         4        4764        4765        4866        4865
         4        4765        4766        4867        4866
         4        4766        4767        4868        4867
         4        4767        4768        4869        4868
         4        4768        4769        4870        4869
         4        4769        4770        4871        4870
         4        4770        4771        4872        4871
         4        4771        4772        4873        4872
         4        4772        4773        4874        4873
         4        4773        4774        4875        4874
         4        4774        4775        4876        4875
         4        4775        4776        4877        4876
         4        4776        4777        4878        4877
         4        4777        4778        4879        4878
         4        4778        4779        4880        4879
         4        4779        4780        4881        4880
         4        4780        4781        4882        4881
         4        4781        4782        4883        4882
         4        4782        4783        4884        4883
         4        4783        4784        4885        4884
         4        4784        4785        4886        4885
         4        4785        4786        4887        4886
         4        4786        4787        4888        4887
         4        4787        4788        4889        4888
         4        4788        4789        4890        4889
         4        4789        4790        4891        4890
         4        4790        4791        4892        4891
         4        4791        4792        4893        4892
         4        4792        4793        4894        4893
         4        4793        4794        4895        4894
         4        4794        4795        4896        4895
         4        4795        4796        4897        4896
         4        4796        4797        4898        4897
         4        4797        4798        4899        4898
         4        4798        4799        4900        4899
         4        4799        4800        4901        4900
         4        4800        4801        4902        4901
         4        4801        4802        4903        4902
         4        4802        4803        4904        4903
         4        4803        4804        4905        4904
         4        4804        4805        4906        4905
         4        4805        4806        4907        4906
         4        4806        4807        4908        4907
         4        4807        4808        4909        4908
         4        4808        4809        4910        4909
         4        4809        4810        4911        4910
         4        4810        4811        4912        4911
         4        4811        4812        4913        4912
         4        4812        4813        4914        4913
         4        4813        4814        4915        4914
         4        4814        4815        4916        4915
         4        4815        4816        4917        4916
         4        4816        4817        4918        4917
         4        4817        4818        4919        4918
         4        4818        4819        4920        4919
         4        4819        4820        4921        4920
         4        4820        4821        4922        4921
         4        4821        4822        4923        4922
         4        4822        4823        4924        4923
         4        4823        4824        4925        4924
         4        4824        4825        4926        4925
         4        4825        4826        4927        4926
         4        4826        4827        4928        4927
         4        4827        4828        4929        4928
         4        4828        4829        4930        4929
         4        4829        4830        4931        4930
         4        4830        4831        4932        4931
         4        4831        4832        4933        4932
         4        4832        4833        4934        4933
         4        4833        4834        4935        4934
         4        4834        4835        4936        4935
         4        4835        4836        4937        4936
         4        4836        4837        4938        4937
         4        4837        4838        4939        4938
         4        4838        4839        4940        4939
         4        4839        4840        4941        4940
         4        4840        4841        4942        4941
         4        4841        4842        4943        4942
         4        4842        4843        4944        4943
         4        4843        4844        4945        4944
         4        4844        4845        4946        4945
         4        4845        4846        4947        4946
         4        4846        4847        4948        4947
         4        4848        4849        4950        4949
         4        4849        4850        4951        4950
         4        4850        4851        4952        4951
         4        4851        4852        4953        4952
         4        4852        4853        4954        4953
         4        4853        4854        4955        4954
         4        4854        4855        4956        4955
         4        4855        4856        4957        4956
         4        4856        4857        4958        4957
         4        4857        4858        4959        4958
         4        4858        4859        4960        4959
         4        4859        4860        4961        4960
         4        4860        4861        4962        4961
         4        4861        4862        4963        4962
         4        4862        4863        4964        4963
         4        4863        4864        4965        4964
         4        4864        4865        4966        4965
         4        4865        4866        4967        4966
         4        4866        4867        4968        4967
         4        4867        4868        4969        4968
         4        4868        4869        4970        4969
         4        4869        4870        4971        4970
         4        4870        4871        4972        4971
         4        4871        4872        4973        4972
         4        4872        4873        4974        4973
         4        4873        4874        4975        4974
         4        4874        4875        4976        4975
         4        4875        4876        4977        4976
         4        4876        4877        4978        4977
         4        4877        4878        4979        4978
         4        4878        4879        4980        4979
         4        4879        4880        4981        4980
         4        4880        4881        4982        4981
         4        4881        4882        4983        4982
         4        4882        4883        4984        4983
         4        4883        4884        4985        4984
         4        4884        4885        4986        4985
         4        4885        4886        4987        4986
         4        4886        4887        4988        4987
         4        4887        4888        4989        4988
         4        4888        4889        4990        4989
         4        4889        4890        4991        4990
         4        4890        4891        4992        4991
         4        4891        4892        4993        4992
         4        4892        4893        4994        4993
         4        4893        4894        4995        4994
         4        4894        4895        4996        4995
         4        4895        4896        4997        4996
         4        4896        4897        4998        4997
         4        4897        4898        4999        4998
         4        4898        4899        5000        4999
         4        4899        4900        5001        5000
         4        4900        4901        5002        5001
         4        4901        4902        5003        5002
         4        4902        4903        5004        5003
         4        4903        4904        5005        5004
         4        4904        4905        5006        5005
         4        4905        4906        5007        5006
         4        4906        4907        5008        5007
         4        4907        4908        5009        5008
         4        4908        4909        5010        5009
         4        4909        4910        5011        5010
         4        4910        4911        5012        5011
         4        4911        4912        5013        5012
         4        4912        4913        5014        5013
         4        4913        4914        5015        5014
         4        4914        4915        5016        5015
         4        4915        4916        5017        5016
         4        4916        4917        5018        5017
         4        4917        4918        5019        5018
         4        4918        4919        5020        5019
         4        4919        4920        5021        5020
         4        4920        4921        5022        5021
         4        4921        4922        5023        5022
         4        4922        4923        5024        5023
         4        4923        4924        5025        5024
         4        4924        4925        5026        5025
         4        4925        4926        5027        5026
         4        4926        4927        5028        5027
         4        4927        4928        5029        5028
         4        4928        4929        5030        5029
         4        4929        4930        5031        5030
         4        4930        4931        5032        5031
         4        4931        4932        5033        5032
         4        4932        4933        5034        5033
         4        4933        4934        5035        5034
         4        4934        4935        5036        5035
         4        4935        4936        5037        5036
         4        4936        4937        5038        5037
         4        4937        4938        5039        5038
         4        4938        4939        5040        5039
         4        4939        4940        5041        5040
         4        4940        4941        5042        5041
         4        4941        4942        5043        5042
         4        4942        4943        5044        5043
         4        4943        4944        5045        5044
         4        4944        4945        5046        5045
         4        4945        4946        5047        5046
         4        4946        4947        5048        5047
         4        4947        4948        5049        5048
         4        4949        4950        5051        5050
         4        4950        4951        5052        5051
         4        4951        4952        5053        5052
         4        4952        4953        5054        5053
         4        4953        4954        5055        5054
         4        4954        4955        5056        5055
         4        4955        4956        5057        5056
         4        4956        4957        5058        5057
         4        4957        4958        5059        5058
         4        4958        4959        5060        5059
         4        4959        4960        5061        5060
         4        4960        4961        5062        5061
         4        4961        4962        5063        5062
         4        4962        4963        5064        5063
         4        4963        4964        5065        5064
         4        4964        4965        5066        5065
         4        4965        4966        5067        5066
         4        4966        4967        5068        5067
         4        4967        4968        5069        5068
         4        4968        4969        5070        5069
         4        4969        4970        5071        5070
         4        4970        4971        5072        5071
         4        4971        4972        5073        5072
         4        4972        4973        5074        5073
         4        4973        4974        5075        5074
         4        4974        4975        5076        5075
         4        4975        4976        5077        5076
         4        4976        4977        5078        5077
         4        4977        4978        5079        5078
         4        4978        4979        5080        5079
         4        4979        4980        5081        5080
         4        4980        4981        5082        5081
         4        4981        4982        5083        5082
         4        4982        4983        5084        5083
         4        4983        4984        5085        5084
         4        4984        4985        5086        5085
         4        4985        4986        5087        5086
         4        4986        4987        5088        5087
         4        4987        4988        5089        5088
         4        4988        4989        5090        5089
         4        4989        4990        5091        5090
         4        4990        4991        5092        5091
         4        4991        4992        5093        5092
         4        4992        4993        5094        5093
         4        4993        4994        5095        5094
         4        4994        4995        5096        5095
         4        4995        4996        5097        5096
         4        4996        4997        5098        5097
         4        4997        4998        5099        5098
         4        4998        4999        5100        5099
         4        4999        5000        5101        5100
         4        5000        5001        5102        5101
         4        5001        5002        5103        5102
         4        5002        5003        5104        5103
         4        5003        5004        5105        5104
         4        5004        5005        5106        5105
         4        5005        5006        5107        5106
         4        5006        5007        5108        5107
         4        5007        5008        5109        5108
         4        5008        5009        5110        5109
         4        5009        5010        5111        5110
         4        5010        5011        5112        5111
         4        5011        5012        5113        5112
         4        5012        5013        5114        5113
         4        5013        5014        5115        5114
         4        5014        5015        5116        5115
         4        5015        5016        5117        5116
         4        5016        5017        5118        5117
         4        5017        5018        5119        5118
         4        5018        5019        5120        5119
         4        5019        5020        5121        5120
         4        5020        5021        5122        5121
         4        5021        5022        5123        5122
         4        5022        5023        5124        5123
         4        5023        5024        5125        5124
         4        5024        5025        5126        5125
         4        5025        5026        5127        5126
         4        5026        5027        5128        5127
         4        5027        5028        5129        5128
         4        5028        5029        5130        5129
         4        5029        5030        5131        5130
         4        5030        5031        5132        5131
         4        5031        5032        5133        5132
         4        5032        5033        5134        5133
         4        5033        5034        5135        5134
         4        5034        5035        5136        5135
         4        5035        5036        5137        5136
         4        5036        5037        5138        5137
         4        5037        5038        5139        5138
         4        5038        5039        5140        5139
         4        5039        5040        5141        5140
         4        5040        5041        5142        5141
         4        5041        5042        5143        5142
         4        5042        5043        5144        5143
         4        5043        5044        5145        5144
         4        5044        5045        5146        5145
         4        5045        5046        5147        5146
         4        5046        5047        5148        5147
         4        5047        5048        5149        5148
         4        5048        5049        5150        5149
CELL_TYPES       5000
9
9
9
9
9
9
9
9
9
9
9
9
9
9
9
9
9
9
9
9
9
9
9
9
9
9
9
9
9
9
9
9
9
9
9
9
9
9
9
9
9
9
9
9
9
9
9
9
9
9
9
9
9
9
9
9
9
9
9
9
9
9
9
9
9
9
9
9
9
9
9
9
9
9
9
9
9
9
9
9
9
9
9
9
9
9
9
9
9
9
9
9
9
9
9
9
9
9
9
9
9
9
9
9
9
9
9
9
9
9
9
9
9
9
9
9
9
9
9
9
9
9
9
9
9
9
9
9
9
9
9
9
9
9
9
9
9
9
9
9
9
9
9
9
9
9
9
9
9
9
9
9
9
9
9
9
9
9
9
9
9
9
9
9
9
9
9
9
9
9
9
9
9
9
9
9
9
9
9
9
9
9
9
9
9
9
9
9
9
9
9
9
9
9
9
9
9
9
9
9
9
9
9
9
9
9
9
9
9
9
9
9
9
9
9
9
9
9
9
9
9
9
9
9
9
9
9
9
9
9
9
9
9
9
9
9
9
9
9
9
9
9
9
9
9
9
9
9
9
9
9
9
9
9
9
9
9
9
9
9
9
9
9
9
9
9
9
9
9
9
9
9
9
9
9
9
9
9
9
9
9
9
9
9
9
9
9
9
9
9
9
9
9
9
9
9
9
9
9
9
9
9
9
9
9
9
9
9
9
9
9
9
9
9
9
9
9
9
9
9
9
9
9
9
9
9
9
9
9
9
9
9
9
9
9
9
9
9
9
9
9
9
9
9
9
9
9
9
9
9
9
9
9
9
9
9
9
9
9
9
9
9
9
9
9
9
9
9
9
9
9
9
9
9
9
9
9
9
9
9
9
9
9
9
9
9
9
9
9
9
9
9
9
9
9
9
9
9
9
9
9
9
9
9
9
9
9
9
9
9
9
9
9
9
9
9
9
9
9
9
9
9
9
9
9
9
9
9
9
9
9
9
9
9
9
9
9
9
9
9
9
9
9
9
9
9
9
9
9
9
9
9
9
9
9
9
9
9
9
9
9
9
9
9
9
9
9
9
9
9
9
9
9
9
9
9
9
9
9
9
9
9
9
9
9
9
9
9
9
9
9
9
9
9
9
9
9
9
9
9
9
9
9
9
9
9
9
9
9
9
9
9
9
9
9
9
9
9
9
9
9
9
9
9
9
9
9
9
9
9
9
9
9
9
9
9
9
9
9
9
9
9
9
9
9
9
9
9
9
9
9
9
9
9
9
9
9
9
9
9
9
9
9
9
9
9
9
9
9
9
9
9
9
9
9
9
9
9
9
9
9
9
9
9
9
9
9
9
9
9
9
9
9
9
9
9
9
9
9
9
9
9
9
9
9
9
9
9
9
9
9
9
9
9
9
9
9
9
9
9
9
9
9
9
9
9
9
9
9
9
9
9
9
9
9
9
9
9
9
9
9
9
9
9
9
9
9
9
9
9
9
9
9
9
9
9
9
9
9
9
9
9
9
9
9
9
9
9
9
9
9
9
9
9
9
9
9
9
9
9
9
9
9
9
9
9
9
9
9
9
9
9
9
9
9
9
9
9
9
9
9
9
9
9
9
9
9
9
9
9
9
9
9
9
9
9
9
9
9
9
9
9
9
9
9
9
9
9
9
9
9
9
9
9
9
9
9
9
9
9
9
9
9
9
9
9
9
9
9
9
9
9
9
9
9
9
9
9
9
9
9
9
9
9
9
9
9
9
9
9
9
9
9
9
9
9
9
9
9
9
9
9
9
9
9
9
9
9
9
9
9
9
9
9
9
9
9
9
9
9
9
9
9
9
9
9
9
9
9
9
9
9
9
9
9
9
9
9
9
9
9
9
9
9
9
9
9
9
9
9
9
9
9
9
9
9
9
9
9
9
9
9
9
9
9
9
9
9
9
9
9
9
9
9
9
9
9
9
9
9
9
9
9
9
9
9
9
9
9
9
9
9
9
9
9
9
9
9
9
9
9
9
9
9
9
9
9
9
9
9
9
9
9
9
9
9
9
9
9
9
9
9
9
9
9
9
9
9
9
9
9
9
9
9
9
9
9
9
9
9
9
9
9
9
9
9
9
9
9
9
9
9
9
9
9
9
9
9
9
9
9
9
9
9
9
9
9
9
9
9
9
9
9
9
9
9
9
9
9
9
9
9
9
9
9
9
9
9
9
9
9
9
9
9
9
9
9
9
9
9
9
9
9
9
9
9
9
9
9
9
9
9
9
9
9
9
9
9
9
9
9
9
9
9
9
9
9
9
9
9
9
9
9
9
9
9
9
9
9
9
9
9
9
9
9
9
9
9
9
9
9
9
9
9
9
9
9
9
9
9
9
9
9
9
9
9
9
9
9
9
9
9
9
9
9
9
9
9
9
9
9
9
9
9
9
9
9
9
9
9
9
9
9
9
9
9
9
9
9
9
9
9
9
9
9
9
9
9
9
9
9
9
9
9
9
9
9
9
9
9
9
9
9
9
9
9
9
9
9
9
9
9
9
9
9
9
9
9
9
9
9
9
9
9
9
9
9
9
9
9
9
9
9
9
9
9
9
9
9
9
9
9
9
9
9
9
9
9
9
9
9
9
9
9
9
9
9
9
9
9
9
9
9
9
9
9
9
9
9
9
9
9
9
9
9
9
9
9
9
9
9
9
9
9
9
9
9
9
9
9
9
9
9
9
9
9
9
9
9
9
9
9
9
9
9
9
9
9
9
9
9
9
9
9
9
9
9
9
9
9
9
9
9
9
9
9
9
9
9
9
9
9
9
9
9
9
9
9
9
9
9
9
9
9
9
9
9
9
9
9
9
9
9
9
9
9
9
9
9
9
9
9
9
9
9
9
9
9
9
9
9
9
9
9
9
9
9
9
9
9
9
9
9
9
9
9
9
9
9
9
9
9
9
9
9
9
9
9
9
9
9
9
9
9
9
9
9
9
9
9
9
9
9
9
9
9
9
9
9
9
9
9
9
9
9
9
9
9
9
9
9
9
9
9
9
9
9
9
9
9
9
9
9
9
9
9
9
9
9
9
9
9
9
9
9
9
9
9
9
9
9
9
9
9
9
9
9
9
9
9
9
9
9
9
9
9
9
9
9
9
9
9
9
9
9
9
9
9
9
9
9
9
9
9
9
9
9
9
9
9
9
9
9
9
9
9
9
9
9
9
9
9
9
9
9
9
9
9
9
9
9
9
9
9
9
9
9
9
9
9
9
9
9
9
9
9
9
9
9
9
9
9
9
9
9
9
9
9
9
9
9
9
9
9
9
9
9
9
9
9
9
9
9
9
9
9
9
9
9
9
9
9
9
9
9
9
9
9
9
9
9
9
9
9
9
9
9
9
9
9
9
9
9
9
9
9
9
9
9
9
9
9
9
9
9
9
9
9
9
9
9
9
9
9
9
9
9
9
9
9
9
9
9
9
9
9
9
9
9
9
9
9
9
9
9
9
9
9
9
9
9
9
9
9
9
9
9
9
9
9
9
9
9
9
9
9
9
9
9
9
9
9
9
9
9
9
9
9
9
9
9
9
9
9
9
9
9
9
9
9
9
9
9
9
9
9
9
9
9
9
9
9
9
9
9
9
9
9
9
9
9
9
9
9
9
9
9
9
9
9
9
9
9
9
9
9
9
9
9
9
9
9
9
9
9
9
9
9
9
9
9
9
9
9
9
9
9
9
9
9
9
9
9
9
9
9
9
9
9
9
9
9
9
9
9
9
9
9
9
9
9
9
9
9
9
9
9
9
9
9
9
9
9
9
9
9
9
9
9
9
9
9
9
9
9
9
9
9
9
9
9
9
9
9
9
9
9
9
9
9
9
9
9
9
9
9
9
9
9
9
9
9
9
9
9
9
9
9
9
9
9
9
9
9
9
9
9
9
9
9
9
9
9
9
9
9
9
9
9
9
9
9
9
9
9
9
9
9
9
9
9
9
9
9
9
9
9
9
9
9
9
9
9
9
9
9
9
9
9
9
9
9
9
9
9
9
9
9
9
9
9
9
9
9
9
9
9
9
9
9
9
9
9
9
9
9
9
9
9
9
9
9
9
9
9
9
9
9
9
9
9
9
9
9
9
9
9
9
9
9
9
9
9
9
9
9
9
9
9
9
9
9
9
9
9
9
9
9
9
9
9
9
9
9
9
9
9
9
9
9
9
9
9
9
9
9
9
9
9
9
9
9
9
9
9
9
9
9
9
9
9
9
9
9
9
9
9
9
9
9
9
9
9
9
9
9
9
9
9
9
9
9
9
9
9
9
9
9
9
9
9
9
9
9
9
9
9
9
9
9
9
9
9
9
9
9
9
9
9
9
9
9
9
9
9
9
9
9
9
9
9
9
9
9
9
9
9
9
9
9
9
9
9
9
9
9
9
9
9
9
9
9
9
9
9
9
9
9
9
9
9
9
9
9
9
9
9
9
9
9
9
9
9
9
9
9
9
9
9
9
9
9
9
9
9
9
9
9
9
9
9
9
9
9
9
9
9
9
9
9
9
9
9
9
9
9
9
9
9
9
9
9
9
9
9
9
9
9
9
9
9
9
9
9
9
9
9
9
9
9
9
9
9
9
9
9
9
9
9
9
9
9
9
9
9
9
9
9
9
9
9
9
9
9
9
9
9
9
9
9
9
9
9
9
9
9
9
9
9
9
9
9
9
9
9
9
9
9
9
9
9
9
9
9
9
9
9
9
9
9
9
9
9
9
9
9
9
9
9
9
9
9
9
9
9
9
9
9
9
9
9
9
9
9
9
9
9
9
9
9
9
9
9
9
9
9
9
9
9
9
9
9
9
9
9
9
9
9
9
9
9
9
9
9
9
9
9
9
9
9
9
9
9
9
9
9
9
9
9
9
9
9
9
9
9
9
9
9
9
9
9
9
9
9
9
9
9
9
9
9
9
9
9
9
9
9
9
9
9
9
9
9
9
9
9
9
9
9
9
9
9
9
9
9
9
9
9
9
9
9
9
9
9
9
9
9
9
9
9
9
9
9
9
9
9
9
9
9
9
9
9
9
9
9
9
9
9
9
9
9
9
9
9
9
9
9
9
9
9
9
9
9
9
9
9
9
9
9
9
9
9
9
9
9
9
9
9
9
9
9
9
9
9
9
9
9
9
9
9
9
9
9
9
9
9
9
9
9
9
9
9
9
9
9
9
9
9
9
9
9
9
9
9
9
9
9
9
9
9
9
9
9
9
9
9
9
9
9
9
9
9
9
9
9
9
9
9
9
9
9
9
9
9
9
9
9
9
9
9
9
9
9
9
9
9
9
9
9
9
9
9
9
9
9
9
9
9
9
9
9
9
9
9
9
9
9
9
9
9
9
9
9
9
9
9
9
9
9
9
9
9
9
9
9
9
9
9
9
9
9
9
9
9
9
9
9
9
9
9
9
9
9
9
9
9
9
9
9
9
9
9
9
9
9
9
9
9
9
9
9
9
9
9
9
9
9
9
9
9
9
9
9
9
9
9
9
9
9
9
9
9
9
9
9
9
9
9
9
9
9
9
9
9
9
9
9
9
9
9
9
9
9
9
9
9
9
9
9
9
9
9
9
9
9
9
9
9
9
9
9
9
9
9
9
9
9
9
9
9
9
9
9
9
9
9
9
9
9
9
9
9
9
9
9
9
9
9
9
9
9
9
9
9
9
9
9
9
9
9
9
9
9
9
9
9
9
9
9
9
9
9
9
9
9
9
9
9
9
9
9
9
9
9
9
9
9
9
9
9
9
9
9
9
9
9
9
9
9
9
9
9
9
9
9
9
9
9
9
9
9
9
9
9
9
9
9
9
9
9
9
9
9
9
9
9
9
9
9
9
9
9
9
9
9
9
9
9
9
9
9
9
9
9
9
9
9
9
9
9
9
9
9
9
9
9
9
9
9
9
9
9
9
9
9
9
9
9
9
9
9
9
9
9
9
9
9
9
9
9
9
9
9
9
9
9
9
9
9
9
9
9
9
9
9
9
9
9
9
9
9
9
9
9
9
9
9
9
9
9
9
9
9
9
9
9
9
9
9
9
9
9
9
9
9
9
9
9
9
9
9
9
9
9
9
9
9
9
9
9
9
9
9
9
9
9
9
9
9
9
9
9
9
9
9
9
9
9
9
9
9
9
9
9
9
9
9
9
9
9
9
9
9
9
9
9
9
9
9
9
9
9
9
9
9
9
9
9
9
9
9
9
9
9
9
9
9
9
9
9
9
9
9
9
9
9
9
9
9
9
9
9
9
9
9
9
9
9
9
9
9
9
9
9
9
9
9
9
9
9
9
9
9
9
9
9
9
9
9
9
9
9
9
9
9
9
9
9
9
9
9
9
9
9
9
9
9
9
9
9
9
9
9
9
9
9
9
9
9
9
9
9
9
9
9
9
9
9
9
9
9
9
9
9
9
9
9
9
9
9
9
9
9
9
9
9
9
9
9
9
9
9
9
9
9
9
9
9
9
9
9
9
9
9
9
9
9
9
9
9
9
9
9
9
9
9
9
9
9
9
9
9
9
9
9
9
9
9
9
9
9
9
9
9
9
9
9
9
9
9
9
9
9
9
9
9
9
9
9
9
9
9
9
9
9
9
9
9
9
9
9
9
9
9
9
9
9
9
9
9
9
9
9
9
9
9
9
9
9
9
9
9
9
9
9
9
9
9
9
9
9
9
9
9
9
9
9
9
9
9
9
9
9
9
9
9
9
9
9
9
9
9
9
9
9
9
9
9
9
9
9
9
9
9
9
9
9
9
9
9
9
9
9
9
9
9
9
9
9
9
9
9
9
9
9
9
9
9
9
9
9
9
9
9
9
9
9
9
9
9
9
9
9
9
9
9
9
9
9
9
9
9
9
9
9
9
9
9
9
9
9
9
9
9
9
9
9
9
9
9
9
9
9
9
9
9
9
9
9
9
9
9
9
9
9
9
9
9
9
9
9
9
9
9
9
9
9
9
9
9
9
9
9
9
9
9
9
9
9
9
9
9
9
9
9
9
9
9
9
9
9
9
9
9
9
9
9
9
9
9
9
9
9
9
9
9
9
9
9
9
9
9
9
9
9
9
9
9
9
9
9
9
9
9
9
9
9
9
9
9
9
9
9
9
9
9
9
9
9
9
9
9
9
9
9
9
9
9
9
9
9
9
9
9
9
9
9
9
9
9
9
9
9
9
9
9
9
9
9
9
9
9
9
9
9
9
9
9
9
9
9
9
9
9
9
9
9
9
9
9
9
9
9
9
9
9
9
9
9
9
9
9
9
9
9
9
9
9
9
9
9
9
9
9
9
9
9
9
9
9
9
9
9
9
9
9
9
9
9
9
9
9
9
9
9
9
9
9
9
9
9
9
9
9
9
9
9
9
9
9
9
9
9
9
9
9
9
9
9
9
9
9
9
9
9
9
9
9
9
9
9
9
9
9
9
9
9
9
9
9
9
9
9
9
9
9
9
9
9
9
9
9
9
9
9
9
9
9
9
9
9
9
9
9
9
9
9
9
9
9
9
9
9
9
9
9
9
9
9
9
9
9
9
9
9
9
9
9
9
9
9
9
9
9
9
9
9
9
9
9
9
9
9
9
9
9
9
9
9
9
9
9
9
9
9
9
9
9
9
9
9
9
9
9
9
9
9
9
9
9
9
9
9
9
9
9
9
9
9
9
9
9
9
9
9
9
9
9
9
9
9
9
9
9
9
9
9
9
9
9
9
9
9
9
9
9
9
9
9
9
9
9
9
9
9
9
9
9
9
9
9
9
9
9
9
9
9
9
9
9
9
9
9
9
9
9
9
9
9
9
9
9
9
9
9
9
9
9
9
9
9
9
9
9
9
9
9
9
9
9
9
9
9
9
9
9
9
9
9
9
9
9
9
9
9
9
9
9
9
9
9
9
9
9
9
9
9
9
9
9
9
9
9
9
9
9
9
9
9
9
9
9
9
9
9
9
9
9
9
9
9
9
9
9
9
9
9
9
9
9
9
9
9
9
9
9
9
9
9
9
9
9
9
9
9
9
9
9
9
9
9
9
9
9
9
9
9
9
9
9
9
9
9
9
9
9
9
9
9
9
9
9
9
9
9
9
9
9
9
9
9
9
9
9
9
9
9
9
9
9
9
9
9
9
9
9
9
9
9
9
9
9
9
9
9
9
9
9
9
9
9
9
9
9
9
9
9
9
9
9
9
9
9
9
9
9
9
9
9
9
9
9
9
9
9
9
9
9
9
9
9
9
9
9
9
9
9
9
9
9
9
9
9
9
9
9
9
9
9
9
9
9
9
9
9
9
9
9
9
9
9
9
9
9
9
9
9
9
9
9
9
9
9
9
9
9
9
9
9
9
9
9
9
9
9
9
9
9
9
9
9
9
9
9
9
9
9
9
9
9
9
9
9
9
9
9
9
9
9
9
9
9
9
9
9
9
9
9
9
9
9
9
9
9
9
9
9
9
9
9
9
9
9
9
9
9
9
9
9
9
9
9
9
9
9
9
9
9
9
9
9
9
9
9
9
9
9
9
9
9
9
9
9
9
9
9
9
9
9
9
9
9
9
9
9
9
9
9
9
9
9
9
9
9
9
9
9
9
9
9
9
9
9
9
9
9
9
9
9
9
9
9
9
9
9
9
9
9
9
9
9
9
9
9
9
9
9
9
9
9
9
9
9
9
9
9
9
9
9
9
9
9
9
9
9
9
9
9
9
9
9
9
9
9
9
9
9
9
9
9
9
9
9
9
9
9
9
9
9
9
9
9
9
9
9
9
9
9
9
9
9
9
9
9
9
9
9
9
9
9
9
9
9
9
9
9
9
9
9
9
9
9
9
9
9
9
9
9
9
9
9
9
9
9
9
9
9
9
9
9
9
9
9
9
9
9
9
9
9
9
9
9
9
9
9
9
9
9
9
9
9
9
9
9
9
9
9
9
9
9
9
9
9
9
9
9
9
9
9
9
9
9
9
9
9
9
9
9
9
9
9
9
9
9
9
9
9
9
9
9
9
9
9
9
9
9
9
9
9
9
9
9
9
9
9
9
9
9
9
9
9
9
9
9
9
9
9
9
9
9
9
9
9
9
9
9
9
9
9
9
9
9
9
9
9
9
9
9
9
9
9
9
9
9
9
9
9
9
9
9
9
9
9
9
9
9
9
9
9
9
9
9
9
9
9
9
9
9
9
9
9
9
9
9
9
9
9
9
9
9
9
9
9
9
9
9
9
9
9
9
9
9
9
9
9
9
9
9
9
9
9
9
9
9
9
9
9
9
9
9
9
9
9
9
9
9
9
9
9
9
9
9
9
9
9
9
9
9
9
9
9
9
9
9
9
9
9
9
9
9
9
9
9
9
9
9
9
9
9
9
9
9
9
9
9
9
9
9
9
9
9
9
9
9
9
9
9
9
9
9
9
9
9
9
9
9
9
9
9
9
9
9
9
9
9
9
9
9
9
9
9
9
9
9
9
9
9
9
9
9
9
9
9
9
9
9
9
9
9
9
9
9
9
9
9
9
9
9
9
9
9
9
9
9
9
9
9
9
9
9
9
9
9
9
9
9
9
9
9
9
9
9
9
9
9
9
9
9
9
9
9
9
9
9
9
9
9
9
9
9
9
9
9
9
9
9
9
9
9
9
9
9
9
9
9
9
9
9
9
9
9
9
9
9
9
9
9
9
9
9
9
9
9
9
9
9
9
9
9
9
9
9
9
9
9
9
9
9
9
9
9
9
9
9
9
9
9
9
9
9
9
9
9
9
9
9
9
9
9
9
9
9
9
9
9
9
9
9
9
9
9
9
9
9
9
9
9
9
9
9
9
9
9
9
9
9
9
9
9
9
9
9
9
9
9
9
9
9
9
9
9
9
9
9
9
9
9
9
9
9
9
9
9
9
9
9
9
9
9
9
9
9
9
9
9
9
9
9
9
9
9
9
9
9
9
9
9
9
9
9
9
9
9
9
9
9
9
9
9
9
9
9
9
9
9
9
9
9
9
9
9
9
9
9
9
9
9
9
9
9
9
9
9
9
9
9
9
9
9
9
9
9
9
9
9
9
9
9
9
9
9
9
9
9
9
9
9
9
9
9
9
9
9
9
9
9
9
9
9
9
9
9
9
9
9
9
9
9
9
9
9
9
9
9
9
9
9
9
9
9
9
9
9
9
9
9
9
9
9
9
9
9
9
9
9
9
9
9
9
9
9
9
9
9
9
9
9
9
9
9
9
9
9
9
9
9
9
9
9
9
9
9
9
9
9
9
9
9
9
9
9
9
9
9
9
9
9
9
9
9
9
9
9
9
9
9
9
9
9
9
9
9
9
9
9
9
9
9
9
9
9
9
9
9
9
9
9
9
9
9
9
9
9
9
9
9
9
9
9
9
9
9
9
9
9
9
9
9
9
9
9
9
9
9
9
9
9
9
9
9
9
9
9
9
9
9
9
9
9
9
9
9
9
9
9
9
9
9
9
9
9
9
9
9
9
9
9
9
9
9
9
9
9
9
9
9
9
9
9
9
9
9
9
9
9
9
9
9
9
9
9
9
9
9
9
9
9
9
9
9
9
9
9
9
9
9
9
9
9
9
9
9
9
9
9
9
9
9
9
9
9
9
9
9
9
9
9
9
9
9
9
9
9
9
9
9
9
9
9
9
9
9
9
9
9
9
9
9
9
9
9
9
9
9
9
9
9
9
9
9
9
9
9
9
9
9
9
9
9
9
9
9
9
9
9
9
9
9
9
9
9
9
9
9
9
9
9
9
9
9
9
9
9
9
9
9
9
9
9
9
9
9
9
9
9
9
9
9
9
9
9
9
9
9
9
9
9
9
9
9
9
9
9
9
9
9
9
9
9
9
9
9
9
9
9
9
9
9
9
9
9
9
9
9
9
9
9
9
9
9
9
9
9
9
9
9
9
9
9
9
9
9
9
9
9
9
9
9
9
9
9
9
9
9
9
9
9
9
9
9
9
9
9
9
9
9
9
9
9
9
9
9
9
9
9
9
9
9
9
9
9
9
9
9
9
9
9
9
9
9
9
9
9
9
9
9
9
9
9
9
9
9
9
9
9
9
9
9
9
9
9
9
9
9
9
9
9
9
9
9
9
9
9
9
9
9
9
9
9
9
9
9
9
9
9
9
9
9
9
9
9
9
9
9
9
9
9
9
9
9
9
9
9
9
9
9
9
9
9
9
9
9
9
9
9
9
9
9
9
9
9
9
9
9
9
9
9
9
9
9
9
9
9
9
9
9
9
9
9
9
9
9
9
9
9
9
9
9
9
9
9
POINT_DATA      5151
SCALARS p double 
LOOKUP_TABLE default
   50000000.0000000     
   49931528.8883815     
   49863076.7127544     
   49794607.1676648     
   49726072.0275644     
   49657416.0725302     
   49588578.9629441     
   49519496.6813961     
   49450102.6346281     
   49380328.5350707     
   49310105.0885827     
   49239362.5193294     
   49168030.9579848     
   49096040.7194265     
   49023322.4935006     
   48949807.4694028     
   48875427.4107640     
   48800114.6952648     
   48723802.3296795     
   48646423.9487711     
   48567913.8044382     
   48488206.7498838     
   48407238.2222992     
   48324944.2265741     
   48241261.3217824     
   48156126.6116386     
   48069477.7396952     
   47981252.8897550     
   47891390.7917532     
   47799830.7332213     
   47706512.5763424     
   47611376.7805456     
   47514364.4305532     
   47415417.2697719     
   47314477.7389148     
   47211489.0197417     
   47106395.0838084     
   46999140.7461287     
   46889671.7236551     
   46777934.6984962     
   46663877.3857923     
   46547448.6061796     
   46428598.3627709     
   46307277.9225876     
   46183439.9023685     
   46057038.3586864     
   45928028.8822882     
   45796368.6965724     
   45662016.7601057     
   45524933.8730669     
   45385082.7874936     
   45242428.3211899     
   45096937.4751366     
   44948579.5542240     
   44797326.2911085     
   44643151.9729671     
   44486033.5709067     
   44325950.8717511     
   44162886.6119103     
   43996826.6130023     
   43827759.9188770     
   43655678.9336571     
   43480579.5603866     
   43302461.3398483     
   43121327.5890866     
   42937185.5391418     
   42750046.4714822     
   42559925.8525903     
   42366843.4661443     
   42170823.5422072     
   41971894.8828195     
   41770090.9833640     
   41565450.1490468     
   41358015.6058008     
   41147835.6048725     
   40934963.5202814     
   40719457.9382405     
   40501382.7374861     
   40280807.1592483     
   40057805.8653017     
   39832458.9821145     
   39604852.1285388     
   39375076.4236969     
   39143228.4706575     
   38909410.3100991     
   38673729.3363189     
   38436298.1655907     
   38197234.4438840     
   37956660.5772580     
   37714703.3637740     
   37471493.5005776     
   37227164.9341543     
   36981854.0160947     
   36735698.4223680     
   36488835.7913442     
   36241402.0393871     
   35993529.3085365     
   35745343.5184481     
   35496961.3255018     
   35248486.3812249     
   35000000.0000000     
   50000000.0000000     
   49931528.1094450     
   49863075.7073171     
   49794606.0389488     
   49726070.8665195     
   49657414.9300350     
   49588577.8738138     
   49519495.6664410     
   49450101.7054149     
   49380327.6963815     
   49310104.3406106     
   49239361.8592411     
   49168030.3811094     
   49096040.2201057     
   49023322.0656871     
   48949807.1070638     
   48875427.1081413     
   48800114.4470313     
   48723802.1310220     
   48646423.7954223     
   48567913.6926761     
   48488206.6765085     
   48407238.1845988     
   48324944.2222826     
   48241261.3490367     
   48156126.6689348     
   48069477.8258476     
   47981253.0038573     
   47891390.9331440     
   47799830.9014518     
   47706512.7711485     
   47611377.0018224     
   47514364.6783328     
   47415417.5442029     
   47314478.0402445     
   47211489.3482999     
   47106395.4399927     
   46999141.1303912     
   46889672.1364896     
   46777935.1404266     
   46663877.8573616     
   46547449.1079395     
   46428598.8952709     
   46307278.4863655     
   46183440.4979400     
   46057038.9865355     
   45928029.5428566     
   45796369.3902500     
   45662017.4872198     
   45524934.6338719     
   45385083.5821599     
   45242429.1497931     
   45096938.3376456     
   44948580.4504898     
   44797327.2208511     
   44643152.9357636     
   44486034.5661775     
   44325951.8987465     
   44162887.6696965     
   43996827.7004462     
   43827761.0346311     
   43655680.0761432     
   43480580.7277790     
   43302462.5300559     
   43121328.7997342     
   42937186.7675502     
   42750047.7146466     
   42559927.1071576     
   42366844.7283884     
   42170824.8080019     
   41971896.1476090     
   41770092.2421305     
   41565451.3962747     
   41358016.8354370     
   41147836.8102833     
   40934964.6942039     
   40719459.0727312     
   40501383.8238648     
   40280808.1880399     
   40057806.8261776     
   39832459.8638373     
   39604852.9189161     
   39375077.1095512     
   39143229.0378271     
   38909410.7434853     
   38673729.6200041     
   38436298.2830611     
   38197234.3784010     
   37956660.3124365     
   37714702.8844412     
   37471492.7940093     
   37227163.9917873     
   36981852.8358763     
   36735697.0117739     
   36488834.1715475     
   36241400.2497360     
   35993527.4153382     
   35745341.6176633     
   35496959.5881210     
   35248484.9932162     
   35000000.0000000     
   50000000.0000000     
   49931525.8907307     
   49863072.7545708     
   49794602.7147437     
   49726067.4345881     
   49657411.5489418     
   49588574.6481662     
   49519492.6598040     
   49450098.9528254     
   49380325.2124822     
   49310102.1261227     
   49239359.9057693     
   49168028.6747204     
   49096038.7439013     
   49023320.8016053     
   48949806.0370929     
   48875426.2150999     
   48800113.7150359     
   48723801.5457320     
   48646423.3441356     
   48567913.3643224     
   48488206.4615806     
   48407238.0750464     
   48324944.2113873     
   48241261.4312801     
   48156126.8398689     
   48069478.0819703     
   47981253.3424977     
   47891391.3523570     
   47799831.3999243     
   47706513.3481140     
   47611377.6569863     
   47514365.4118051     
   47415418.3564385     
   47314478.9319902     
   47211490.3205460     
   47106396.4939296     
   46999142.2673696     
   46889673.3579835     
   46777936.4479986     
   46663879.2526308     
   46547450.5925492     
   46428600.4708591     
   46307280.1545342     
   46183442.2602265     
   46057040.8443822     
   45928031.4975821     
   45796371.4430181     
   45662019.6390101     
   45524936.8854479     
   45385085.9340370     
   45242431.6022060     
   45096940.8905142     
   44948583.1033840     
   44797329.9729547     
   44643155.7858368     
   44486037.5125178     
   44325954.9391487     
   44162890.8014099     
   43996830.9201316     
   43827764.3383148     
   43655683.4591696     
   43480584.1847601     
   43302466.0548192     
   43121332.3852668     
   42937190.4059394     
   42750051.3970173     
   42559930.8236038     
   42366848.4678998     
   42170828.5583841     
   41971899.8953953     
   41770095.9724854     
   41565455.0928872     
   41358020.4804026     
   41147840.3839729     
   40934968.1751205     
   40719462.4373537     
   40501387.0464795     
   40280811.2405652     
   40057809.6779858     
   39832462.4815863     
   39604855.2664058     
   39375079.1476318     
   39143230.7243945     
   38909412.0336160     
   38673730.4663037     
   38436298.6363259     
   38197234.1887255     
   37956659.5309462     
   37714701.4658744     
   37471490.7004349     
   37227161.1977919     
   36981849.3356311     
   36735692.8283317     
   36488829.3691155     
   36241394.9486587     
   35993521.8148704     
   35745336.0176858     
   35496954.4837440     
   35248481.0475732     
   35000000.0000000     
   50000000.0000000     
   49931522.4404954     
   49863067.9852865     
   49794597.3153647     
   49726061.8346360     
   49657406.0218757     
   49588569.3698999     
   49519487.7383152     
   49450094.4473830     
   49380321.1480859     
   49310098.5043032     
   49239356.7127661     
   49168025.8874983     
   49096036.3344798     
   49023318.7400757     
   48949804.2936465     
   48875424.7613266     
   48800112.5246978     
   48723800.5951675     
   48646422.6124106     
   48567912.8332161     
   48488206.1154655     
   48407237.9007084     
   48324944.1978151     
   48241261.5694447     
   48156127.1225055     
   48069478.5033720     
   47981253.8983240     
   47891392.0394595     
   47799832.2161902     
   47706514.2923264     
   47611378.7287000     
   47514366.6112361     
   47415419.6843661     
   47314480.3896694     
   47211491.9096288     
   47106398.2163939     
   46999144.1254537     
   46889675.3541262     
   46777938.5847830     
   46663881.5327303     
   46547453.0186770     
   46428603.0457182     
   46307282.8807692     
   46183445.1403750     
   46057043.8808271     
   45928034.6925032     
   45796374.7983432     
   45662023.1563650     
   45524940.5661057     
   45385089.7788661     
   45242435.6116159     
   45096945.0644004     
   44948587.4410705     
   44797334.4731353     
   44643160.4465134     
   44486042.3309370     
   44325959.9117355     
   44162895.9236994     
   43996836.1866977     
   43827769.7426954     
   43655688.9937886     
   43480589.8408459     
   43302471.8223187     
   43121338.2527540     
   42937196.3605190     
   42750057.4242210     
   42559936.9072791     
   42366854.5900888     
   42170834.6991923     
   41971906.0328468     
   41770102.0823637     
   41565461.1485580     
   41358026.4526187     
   41147846.2406569     
   40934973.8811258     
   40719467.9542030     
   40501392.3320837     
   40280816.2489271     
   40057814.3589002     
   39832466.7803525     
   39604859.1235816     
   39375082.4988697     
   39143233.5004216     
   38909414.1604450     
   38673731.8657976     
   38436299.2272833     
   38197233.8887142     
   37956658.2591813     
   37714699.1475295     
   37471487.2728653     
   37227156.6192614     
   36981843.5971958     
   36735685.9696837     
   36488821.4990699     
   36241386.2719401     
   35993512.6668056     
   35745326.9167965     
   35496946.2360969     
   35248474.9279220     
   35000000.0000000     
   50000000.0000000     
   49931517.9193345     
   49863061.5324304     
   49794589.9556647     
   49726054.1695361     
   49657398.4413234     
   49588562.1235743     
   49519480.9795514     
   49450088.2604219     
   49380315.5686477     
   49310093.5349784     
   49239352.3346046     
   49168022.0685252     
   49096033.0357998     
   49023315.9201162     
   48949801.9110002     
   48875422.7765652     
   48800110.9014466     
   48723799.3006618     
   48646421.6176995     
   48567912.1131341     
   48488205.6484591     
   48407237.6685797     
   48324944.1854241     
   48241261.7643980     
   48156127.5148517     
   48069479.0853117     
   47981254.6639428     
   47891392.9844855     
   47799833.3377763     
   47706515.5888565     
   47611380.1996167     
   47514368.2568887     
   47415421.5058753     
   47314482.3888066     
   47211494.0887080     
   47106400.5781739     
   46999146.6730490     
   46889678.0909243     
   46777941.5143674     
   46663884.6588074     
   46547456.3450064     
   46428606.5760446     
   46307286.6187562     
   46183449.0895393     
   46057048.0444729     
   45928039.0736557     
   45796379.3996824     
   45662027.9801569     
   45524945.6141331     
   45385095.0523568     
   45242441.1111693     
   45096950.7899118     
   44948593.3916526     
   44797340.6470369     
   44643166.8410358     
   44486048.9423468     
   44325966.7351741     
   44162902.9530891     
   43996843.4146437     
   43827777.1603839     
   43655696.5908800     
   43480597.6053624     
   43302479.7405267     
   43121346.3090389     
   42937204.5372526     
   42750065.7016190     
   42559945.2632479     
   42366863.0000595     
   42170843.1359386     
   41971914.4662855     
   41770110.4793336     
   41565469.4725754     
   41358034.6636046     
   41147854.2946349     
   40934981.7298876     
   40719475.5449420     
   40501399.6069994     
   40280823.1448070     
   40057820.8066939     
   39832472.7047620     
   39604864.4427051     
   39375087.1239584     
   39143237.3358335     
   38909417.1039197     
   38673733.8092230     
   38436300.0581899     
   38197233.4928194     
   37956656.5244040     
   37714695.9700267     
   37471482.5657806     
   37227150.3250278     
   36981835.7043639     
   36735676.5353961     
   36488810.6783102     
   36241374.3557976     
   35993500.1318058     
   35745314.5036765     
   35496935.0751620     
   35248466.9272937     
   35000000.0000000     
   50000000.0000000     
   49931512.4539275     
   49863053.5237277     
   49794580.7470804     
   49726044.5409770     
   49657388.8997528     
   49588552.9941870     
   49519472.4617976     
   49450080.4640268     
   49380308.5403363     
   49310087.2785909     
   49239346.8261586     
   49168017.2672654     
   49096028.8920927     
   49023312.3809224     
   48949798.9235285     
   48875420.2905963     
   48800108.8707014     
   48723797.6835047     
   48646420.3773883     
   48567911.2177737     
   48488205.0707716     
   48407237.3855689     
   48324944.1779889     
   48241262.0169310     
   48156128.0148458     
   48069479.8229887     
   47981255.6319108     
   47891394.1774289     
   47799834.7521784     
   47706517.2227524     
   47611382.0523752     
   47514370.3290187     
   47415423.7988549     
   47314484.9049306     
   47211496.8309519     
   47106403.5500704     
   46999149.8785758     
   46889681.5344006     
   46777945.2003566     
   46663888.5920262     
   46547460.5302362     
   46428611.0180478     
   46307291.3221914     
   46183454.0588800     
   46057053.2839242     
   45928044.5870721     
   45796385.1904835     
   45662034.0512418     
   45524951.9677932     
   45385101.6901856     
   45242448.0339704     
   45096957.9976036     
   44948600.8831694     
   44797348.4202276     
   44643174.8925578     
   44486057.2675570     
   44325975.3280151     
   44162911.8059708     
   43996852.5183206     
   43827786.5038265     
   43655706.1611405     
   43480607.3874340     
   43302489.7171945     
   43121356.4607233     
   42937214.8418415     
   42750076.1342885     
   42559955.7962690     
   42366873.6025877     
   42170853.7737838     
   41971925.1016590     
   41770121.0705675     
   41565479.9738104     
   41358045.0244427     
   41147864.4597524     
   40934991.6386061     
   40719485.1307573     
   40501408.7970706     
   40280831.8594154     
   40057828.9586884     
   39832480.1990223     
   39604871.1756708     
   39375092.9832977     
   39143242.2003618     
   38909420.8439250     
   38673736.2874198     
   38436301.1316076     
   38197233.0160389     
   37956654.3546950     
   37714691.9751011     
   37471476.6350715     
   37227142.3856006     
   36981825.7427625     
   36735664.6268805     
   36488797.0251597     
   36241359.3371216     
   35993484.3690983     
   35745298.9614664     
   35496921.2223085     
   35248457.2743997     
   35000000.0000000     
   50000000.0000000     
   49931506.1463620     
   49863044.0784257     
   49794569.7978998     
   49726033.0490897     
   49657377.4894525     
   49588542.0670732     
   49519462.2639716     
   49450071.1309901     
   49380300.1299988     
   49310079.7961732     
   49239340.2427788     
   49168011.5335430     
   49096023.9478405     
   49023308.1618453     
   48949795.3656835     
   48875417.3332161     
   48800106.4578508     
   48723795.7649224     
   48646418.9087777     
   48567910.1607350     
   48488204.3925112     
   48407237.0584831     
   48324944.1791876     
   48241262.3277453     
   48156128.6203463     
   48069480.7115328     
   47981256.7947258     
   47891395.6082357     
   47799836.4468548     
   47706519.1790350     
   47611384.2695956     
   47514372.8078709     
   47415426.5411897     
   47314487.9135726     
   47211500.1095361     
   47106407.1028952     
   46999153.7104682     
   46889685.6505932     
   46777949.6063717     
   46663893.2935666     
   46547465.5330810     
   46428616.3279505     
   46307296.9447816     
   46183459.9995641     
   46057059.5477880     
   45928051.1787815     
   45796392.1141845     
   45662041.3104587     
   45524959.5653238     
   45385109.6279947     
   45242456.3130790     
   45096966.6179754     
   44948609.8435933     
   44797357.7181958     
   44643184.5241403     
   44486067.2272700     
   44325985.6086862     
   44162922.3985975     
   43996863.4119232     
   43827797.6852949     
   43655717.6150737     
   43480619.0959715     
   43302501.6598393     
   43121368.6141530     
   42937227.1797085     
   42750088.6270048     
   42559968.4107746     
   42366886.3020979     
   42170866.5175126     
   41971937.8445142     
   41770133.7628119     
   41565492.5606845     
   41358057.4457434     
   41147876.6493628     
   40935003.5239733     
   40719496.6323160     
   40501419.8276173     
   40280842.3234429     
   40057838.7517008     
   39832489.2068676     
   39604879.2739493     
   39375100.0369359     
   39143248.0634856     
   38909425.3602235     
   38673739.2912720     
   38436302.4503455     
   38197232.4738591     
   37956651.7788976     
   37714687.2055459     
   37471469.5379799     
   37227132.8730913     
   36981813.7997606     
   36735650.3472386     
   36488780.6591592     
   36241341.3531433     
   35993465.5357048     
   35745280.4682517     
   35496904.8837202     
   35248446.1514462     
   35000000.0000000     
   50000000.0000000     
   49931499.0805469     
   49863033.3062791     
   49794557.2129608     
   49726019.7923112     
   49657364.3023500     
   49588529.4278247     
   49519450.4655538     
   49450060.3347665     
   49380290.4051260     
   49310071.1493188     
   49239332.6402665     
   49168004.9175169     
   49096018.2477516     
   49023303.3023682     
   48949791.2719707     
   48875413.9342133     
   48800103.6882301     
   48723793.5660559     
   48646417.2290634     
   48567908.9555021     
   48488203.6236665     
   48407236.6940122     
   48324944.1925874     
   48241262.6974406     
   48156129.3291207     
   48069481.7459948     
   47981258.1448190     
   47891397.2667968     
   47799838.4092203     
   47706521.4426920     
   47611386.8338749     
   47514375.6736761     
   47415429.7107581     
   47314491.3902636     
   47211503.8976414     
   47106411.2074694     
   46999158.1371733     
   46889690.4055558     
   46777954.6960501     
   46663898.7246254     
   46547471.3122702     
   46428622.4619893     
   46307303.4402439     
   46183466.8627657     
   46057066.7846731     
   45928058.7948091     
   45796400.1142130     
   45662049.6986284     
   45524968.3449365     
   45385118.8013905     
   45242465.8815088     
   45096976.5814698     
   44948620.2008270     
   44797368.4663475     
   44643195.6587467     
   44486078.7420758     
   44325997.4954868     
   44162934.6470763     
   43996876.0094822     
   43827810.6168774     
   43655730.8629792     
   43480632.6396612     
   43302515.4757308     
   43121382.6754029     
   42937241.4559810     
   42750103.0842227     
   42559983.0108505     
   42366901.0026416     
   42170881.2715094     
   41971952.5999700     
   41770148.4623581     
   41565507.1411373     
   41358071.8376102     
   41147890.7762901     
   40935017.3021317     
   40719509.9697209     
   40501432.6233875     
   40280854.4670097     
   40057850.1219912     
   39832499.6715034     
   39604888.6885294     
   39375108.2445096     
   39143254.8943699     
   38909430.6323939     
   38673742.8116450     
   38436304.0173987     
   38197231.8821941     
   37956648.8265580     
   37714681.7051511     
   37471461.3330335     
   37227121.8611372     
   36981799.9643761     
   36735633.8011168     
   36488761.7008975     
   36241320.5410563     
   35993443.7861432     
   35745259.1964012     
   35496886.2482252     
   35248433.7063690     
   35000000.0000000     
   50000000.0000000     
   49931491.3266966     
   49863021.3076629     
   49794543.0932897     
   49726004.8672991     
   49657349.4298685     
   49588515.1622122     
   49519437.1465274     
   49450048.1494301     
   49380279.4338163     
   49310061.4001512     
   49239324.0748453     
   49167997.4696536     
   49096011.8367340     
   49023297.8420796     
   48949786.6769244     
   48875410.1233452     
   48800100.5870989     
   48723791.1079400     
   48646415.3553158     
   48567907.6154245     
   48488202.7740899     
   48407236.2987134     
   48324944.2216306     
   48241263.1265025     
   48156130.1388345     
   48069482.9213367     
   47981259.6745457     
   47891399.1429408     
   47799840.6266396     
   47706523.9986729     
   47611389.7277825     
   47514378.9066469     
   47415433.2854290     
   47314495.3105322     
   47211508.1684527     
   47106415.8346232     
   46999163.1271502     
   46889695.7653563     
   46777960.4330453     
   46663904.8464153     
   46547477.8265491     
   46428629.3764142     
   46307310.7623067     
   46183474.5996657     
   46057074.9431904     
   45928067.3811765     
   45796409.1339861     
   45662059.1565535     
   45524978.2448157     
   45385129.1459425     
   45242476.6722257     
   45096987.8184694     
   44948631.8827008     
   44797380.5900018     
   44643208.2192396     
   44486091.7324472     
   44326010.9065817     
   44162948.4673620     
   43996890.2248567     
   43827825.2104704     
   43655745.8149433     
   43480647.9269527     
   43302531.0718784     
   43121398.5502629     
   42937257.5754754     
   42750119.4100587     
   42559999.5002163     
   42366917.6078751     
   42170897.9397340     
   41971969.2726908     
   41770165.0750133     
   41565523.6225950     
   41358088.1096047     
   41147906.7527902     
   40935032.8886339     
   40719525.0624672     
   40501447.1085103     
   40280868.2196150     
   40057863.0052087     
   39832511.5355487     
   39604899.3698584     
   39375117.5651814     
   39143262.6618018     
   38909436.6397650     
   38673746.8393193     
   38436305.8358808     
   38197231.2573191     
   37956645.5278581     
   37714675.5186366     
   37471452.0799756     
   37227109.4248232     
   36981784.3271815     
   36735615.0945797     
   36488740.2718490     
   36241297.0377146     
   35993419.2722290     
   35745235.3117789     
   35496865.4873709     
   35248420.0613755     
   35000000.0000000     
   50000000.0000000     
   49931482.9445266     
   49863008.1742190     
   49794527.5358597     
   49725988.3688585     
   49657332.9628268     
   49588499.3561151     
   49519422.3873251     
   49450034.6496314     
   49380267.2847400     
   49310050.6112912     
   49239314.6031296     
   49167989.2406972     
   49096004.7598664     
   49023291.8206459     
   48949781.6150801     
   48875405.9303111     
   48800097.1796158     
   48723788.4114799     
   48646413.3044591     
   48567906.1536981     
   48488201.8534799     
   48407235.8789958     
   48324944.2696209     
   48241263.6152900     
   48156131.0470406     
   48069484.2324219     
   47981261.3761779     
   47891401.2264271     
   47799843.0864221     
   47706526.8318846     
   47611392.9338568     
   47514382.4869752     
   47415437.2430593     
   47314499.6499032     
   47211512.8951567     
   47106420.9551941     
   46999168.6488697     
   46889701.6960774     
   46777966.7810267     
   46663911.6201657     
   46547485.0346785     
   46428637.0274892     
   46307318.8647091     
   46183483.1614525     
   46057083.9719533     
   45928076.8839015     
   45796419.1169099     
   45662069.6250178     
   45524989.2031178     
   45385140.5971818     
   45242488.6181459     
   45097000.2592954     
   44948644.8169696     
   44797394.0143885     
   44643222.1283762     
   44486106.1187348     
   44326025.7599960     
   44162963.7752500     
   43996905.9717263     
   43827841.3777692     
   43655762.3808283     
   43480664.8660479     
   43302548.3550188     
   43121416.1442233     
   42937275.4426810     
   42750137.5082732     
   42560017.7822054     
   42366936.0210376     
   42170916.4256970     
   41971987.7668599     
   41770183.5060708     
   41565541.9119380     
   41358106.1707124     
   41147924.4905137     
   40935050.1984008     
   40719541.8293977     
   40501463.2064480     
   40280883.5100859     
   40057877.3363364     
   39832524.7409792     
   39604911.2677803     
   39375127.9575757     
   39143271.3341231     
   38909443.3613467     
   38673751.3649199     
   38436307.9089531     
   38197230.6157985     
   37956641.9135439     
   37714668.6915795     
   37471441.8396918     
   37227095.6406039     
   36981766.9802140     
   36735594.3349991     
   36488716.4942242     
   36241270.9794159     
   35993392.1428992     
   35745208.9731966     
   35496842.7565679     
   35248405.3190176     
   35000000.0000000     
   50000000.0000000     
   49931473.9855732     
   49862993.9897181     
   49794510.6335120     
   49725970.3898869     
   49657314.9913736     
   49588482.0954644     
   49519406.2687848     
   49450019.9105579     
   49380254.0271032     
   49310038.8458226     
   49239304.2820919     
   49167980.2816365     
   49095997.0623666     
   49023285.2777807     
   48949776.1209459     
   48875401.3847256     
   48800093.4908138     
   48723785.4974283     
   48646411.0932490     
   48567904.5833449     
   48488200.8713633     
   48407235.4411038     
   48324944.3397088     
   48241264.1640227     
   48156132.0511675     
   48069485.6740063     
   47981263.2418957     
   47891403.5069386     
   47799845.7758153     
   47706529.9271857     
   47611396.4346003     
   47514386.3948282     
   47415441.5614913     
   47314504.3838950     
   47211518.0509416     
   47106426.5400261     
   46999174.6708136     
   46889708.1638155     
   46777973.7036795     
   46663919.0071226     
   46547492.8954355     
   46428645.3714928     
   46307327.7012020     
   46183492.4993216     
   46057093.8195776     
   45928087.2489983     
   45796430.0063799     
   45662081.0447858     
   45525001.1579703     
   45385153.0906004     
   45242501.6521351     
   45097013.8342049     
   44948658.9313108     
   44797408.6646444     
   44643237.3088043     
   44486121.8211625     
   44326041.9736089     
   44162980.4863704     
   43996923.1635835     
   43827859.0302595     
   43655780.4702631     
   43480683.3648899     
   43302567.2316029     
   43121435.3624610     
   42937294.9617437     
   42750157.2822530     
   42560037.7597454     
   42366956.1449295     
   42170936.6324365     
   41972007.9861529     
   41770203.6602816     
   41565561.9154693     
   41358125.9293070     
   41147943.9004678     
   40935069.1456811     
   40719560.1886580     
   40501480.8399479     
   40280900.2665251     
   40057893.0496360     
   39832539.2290667     
   39604924.3314734     
   39375139.3797124     
   39143280.8791613     
   38909450.7757582     
   38673756.3788421     
   38436310.2397483     
   38197229.9744092     
   37956638.0148486     
   37714661.2703377     
   37471430.6741314     
   37227080.5862229     
   36981748.0168886     
   36735571.6309560     
   36488690.4908449     
   36241242.5017545     
   35993362.5440708     
   35745180.3321892     
   35496818.1966760     
   35248389.5665926     
   35000000.0000000     
   50000000.0000000     
   49931464.4949121     
   49862978.8309728     
   49794492.4750216     
   49725951.0213510     
   49657295.6049514     
   49588463.4661995     
   49519388.8721106     
   49450004.0078963     
   49380239.7306117     
   49310026.1672561     
   49239293.1690266     
   49167970.6436712     
   49095988.7895578     
   49023278.2532125     
   48949770.2289718     
   48875396.5160901     
   48800089.5455731     
   48723782.3863599     
   48646408.7382514     
   48567902.9171933     
   48488199.8370767     
   48407234.9911017     
   48324944.4348772     
   48241264.7727688     
   48156133.1485096     
   48069487.2407284     
   47981265.2637792     
   47891405.9740752     
   47799848.6819998     
   47706533.2693824     
   47611400.2124764     
   47514390.6103460     
   47415446.2185505     
   47314509.4880181     
   47211523.6089948     
   47106432.5599692     
   46999181.1614742     
   46889715.1346813     
   46777981.1647053     
   46663926.9685486     
   46547501.3676135     
   46428654.3647181     
   46307337.2255480     
   46183502.5644767     
   46057104.4346817     
   45928098.4224777     
   45796441.7457803     
   45662093.3566021     
   45525014.0474714     
   45385166.5616499     
   45242515.7070062     
   45097028.4733894     
   44948674.1533213     
   44797424.4658100     
   44643253.6830585     
   44486138.7598229     
   44326059.4651487     
   44162998.5161812     
   43996941.7137268     
   43827878.0792089     
   43655799.9926332     
   43480703.3311519     
   43302587.6077837     
   43121456.1098250     
   42937316.0364512     
   42750178.6349933     
   42560059.3353389     
   42366977.8818910     
   42170958.4624939     
   41972029.8337118     
   41770225.4418252     
   41565583.5388830     
   41358147.2931165     
   41147964.8929783     
   40935089.6440095     
   40719580.0576519     
   40501499.9309936     
   40280918.4162589     
   40057910.0785915     
   39832554.9403196     
   39604938.5093858     
   39375151.7889386     
   39143291.2641573     
   38909458.8611519     
   38673761.8711731     
   38436312.8312901     
   38197229.3500586     
   37956633.8634099     
   37714653.3019670     
   37471418.6462266     
   37227064.3406330     
   36981727.5319166     
   36735547.0921570     
   36488662.3850480     
   36241211.7395313     
   35993330.6185608     
   35745149.5330839     
   35496791.9357057     
   35248372.8793950     
   35000000.0000000     
   50000000.0000000     
   49931454.5124542     
   49862962.7687211     
   49794473.1452770     
   49725930.3523025     
   49657274.8922850     
   49588443.5542412     
   49519370.2788416     
   49449987.0177991     
   49380224.4654342     
   49310012.6394919     
   49239281.3215132     
   49167960.3781736     
   49095979.9868324     
   49023270.7866502     
   48949763.9735172     
   48875391.3537617     
   48800085.3685937     
   48723779.0986468     
   48646406.2558184     
   48567901.1678573     
   48488198.7597490     
   48407234.5348568     
   48324944.5579278     
   48241265.4414319     
   48156134.3362152     
   48069488.9271000     
   47981267.4338007     
   47891408.6173471     
   47799851.7920831     
   47706536.8432236     
   47611404.2499055     
   47514395.1136383     
   47415451.1920432     
   47314514.9377735     
   47211529.5425023     
   47106438.9858785     
   46999188.0893541     
   46889722.5747990     
   46777989.1278215     
   46663935.4657235     
   46547510.4100228     
   46428663.9634736     
   46307347.3915224     
   46183513.3081301     
   46057115.7658872     
   45928110.3503468     
   45796454.2784846     
   45662106.5011917     
   45525027.8096894     
   45385180.9457406     
   45242530.7155183     
   45097044.1069726     
   44948690.4105154     
   44797441.3428271     
   44643271.1735568     
   44486156.8546724     
   44326078.1521875     
   44163017.7799619     
   43996961.5352529     
   43827898.4356586     
   43655820.8570714     
   43480724.6722261     
   43302609.3894038     
   43121478.2908228     
   42937338.5702164     
   42750201.4690812     
   42560082.4110441     
   42367001.1337804     
   42170981.8178904     
   41972053.2121188     
   41770248.7542810     
   41565606.6872327     
   41358170.1691885     
   41147987.3776523     
   40935111.6061662     
   40719601.3529967     
   40501520.4007564     
   40280937.8857841     
   40057928.3558519     
   39832571.8144207     
   39604953.7491689     
   39375165.1418576     
   39143302.4556904     
   38909467.5951354     
   38673767.8316095     
   38436315.6864081     
   38197228.7596976     
   37956629.4911822     
   37714644.8341346     
   37471405.8198077     
   37227046.9839146     
   36981705.6212297     
   36735520.8293628     
   36488632.3006208     
   36241178.8267140     
   35993296.5060864     
   35745116.7132991     
   35496764.0904755     
   35248355.3231649     
   35000000.0000000     
   50000000.0000000     
   49931444.0739426     
   49862945.8684459     
   49794452.7255403     
   49725908.4699371     
   49657252.9413942     
   49588422.4454793     
   49519350.5708275     
   49449969.0168523     
   49380208.3021665     
   49309998.3267808     
   49239268.7973754     
   49167949.5366497     
   49095970.6996137     
   49023262.9177466     
   48949757.3888166     
   48875385.9269227     
   48800080.9843661     
   48723775.6544324     
   48646403.6620655     
   48567899.3477154     
   48488197.6482819     
   48407234.0780232     
   48324944.7114661     
   48241266.1697392     
   48156135.6112766     
   48069490.7274974     
   47981269.7438170     
   47891411.4261680     
   47799855.0930943     
   47706540.6333966     
   47611408.5292616     
   47514399.8847817     
   47415456.4597544     
   47314520.7086513     
   47211535.8246478     
   47106445.7886133     
   46999195.4229657     
   46889730.4503071     
   46777997.5567620     
   46663944.4599450     
   46547519.9814910     
   46428674.1240835     
   46307358.1529135     
   46183524.6815027     
   46057127.7618195     
   45928122.9786100     
   45796467.5478550     
   45662120.4192595     
   45525042.3826620     
   45385196.1782406     
   45242546.6103755     
   45097060.6650089     
   44948707.6303223     
   44797459.2205351     
   44643289.7025966     
   44486176.0255274     
   44326097.9521355     
   44163038.1928077     
   43996982.5410494     
   43827920.0104150     
   43655842.9724479     
   43480747.2952133     
   43302632.4819833     
   43121501.8096069     
   42937362.4660631     
   42750225.6866778     
   42560106.8884557     
   42367025.8019533     
   42171006.6001034     
   41972078.0233703     
   41770273.5005999     
   41565631.2649001     
   41358194.4638555     
   41148011.2633399     
   40935134.9441346     
   40719623.9904774     
   40501542.1695459     
   40280958.6007144     
   40057947.8131731     
   39832589.7901647     
   39604969.9976104     
   39375179.3942571     
   39143314.4196014     
   38909476.9546888     
   38673774.2493714     
   38436318.8076484     
   38197228.2202285     
   37956624.9303437     
   37714635.9150268     
   37471392.2595148     
   37227028.5971948     
   36981682.3819093     
   36735492.9543321     
   36488600.3617659     
   36241143.8964446     
   35993260.3433524     
   35745082.0038078     
   35496734.7681533     
   35248336.9559675     
   35000000.0000000     
   50000000.0000000     
   49931433.2117328     
   49862928.1911176     
   49794431.2937601     
   49725885.4596958     
   49657229.8396293     
   49588400.2257750     
   49519329.8302121     
   49449950.0820470     
   49380191.3117951     
   49309983.2936838     
   49239255.6546395     
   49167938.1706965     
   49095960.9733151     
   49023254.6860602     
   48949750.5089440     
   48875380.2645467     
   48800076.4171413     
   48723772.0736035     
   48646400.9728470     
   48567897.4688891     
   48488196.5113314     
   48407233.6260256     
   48324944.8978872     
   48241266.9572287     
   48156136.9705188     
   48069492.6361519     
   47981272.1855615     
   47891414.3898488     
   47799858.5719793     
   47706544.6245228     
   47611413.0328684     
   47514404.9038173     
   47415461.9994460     
   47314526.7761287     
   47211542.4286115     
   47106452.9390373     
   46999203.1308312     
   46889738.7273580     
   46778006.4152780     
   46663953.9125286     
   46547530.0408638     
   46428684.8028889     
   46307369.4635231     
   46183536.6358251     
   46057140.3711078     
   45928136.2532688     
   45796481.4972433     
   45662135.0514902     
   45525057.7043959     
   45385212.1944750     
   45242563.3242254     
   45097078.0774814     
   44948725.7400837     
   44797478.0236684     
   44643309.1923513     
   44486196.1920592     
   44326118.7822361     
   44163059.6696233     
   43997004.6437883     
   43827942.7140414     
   43655866.2473615     
   43480771.1069120     
   43302656.7907077     
   43121526.5699612     
   42937387.6266102     
   42750251.1895020     
   42560132.6686862     
   42367051.7872417     
   42171032.7100439     
   41972104.1688517     
   41770299.5830759     
   41565657.1755639     
   41358220.0827009     
   41148036.4580966     
   40935159.5690609     
   40719647.8850023     
   40501565.1567607     
   40280980.4857265     
   40057968.3813590     
   39832608.8053944     
   39604987.2005645     
   39375194.5010340     
   39143327.1209121     
   38909486.9160798     
   38673781.1131120     
   38436322.1971783     
   38197227.7484079     
   37956620.2131982     
   37714626.5932527     
   37471378.0307063     
   37227009.2625651     
   36981657.9121202     
   36735463.5797794     
   36488566.6930952     
   36241107.0810948     
   35993222.2642228     
   35745045.5297123     
   35496704.0676579     
   35248317.8296618     
   35000000.0000000     
   50000000.0000000     
   49931421.9554145     
   49862909.7938619     
   49794408.9249173     
   49725861.4054028     
   49657205.6737296     
   49588376.9809774     
   49519308.1394230     
   49449930.2907531     
   49380173.5656605     
   49309967.6050298     
   49239241.9514897     
   49167926.3319582     
   49095950.8532972     
   49023246.1310136     
   48949743.3677748     
   48875374.3953643     
   48800071.6908999     
   48723768.3757631     
   48646398.2037311     
   48567895.5432212     
   48488195.3572887     
   48407233.1840419     
   48324945.1193616     
   48241267.8032369     
   48156138.4105897     
   48069494.6471411     
   47981274.7506370     
   47891417.4975917     
   47799862.2155949     
   47706548.8011536     
   47611417.7429966     
   47514410.1507476     
   47415467.7888548     
   47314533.1156699     
   47211549.3275693     
   47106460.4080176     
   46999211.1814827     
   46889747.3721183     
   46778015.6671376     
   46663963.7848089     
   46547540.5470058     
   46428695.9562480     
   46307381.2771680     
   46183549.1223382     
   46057153.5423864     
   45928150.1203226     
   45796496.0699906     
   45662150.3385483     
   45525073.7128671     
   45385228.9297255     
   45242580.7896581     
   45097096.2743007     
   44948744.6670519     
   44797497.6768538     
   44643329.5648669     
   44486217.2737908     
   44326140.5595610     
   44163082.1251171     
   43997027.7559190     
   43827966.4568506     
   43655890.5901300     
   43480796.0138083     
   43302682.2204163     
   43121552.4752877     
   42937413.9540573     
   42750277.8788131     
   42560159.6523471     
   42367078.9899330     
   42171060.0480328     
   41972131.5493113     
   41770326.9033182     
   41565684.3221685     
   41358246.9305248     
   41148062.8691463     
   40935185.3912121     
   40719672.9505569     
   40501589.2808387     
   40281003.4645057     
   40057989.9902024     
   39832628.7969352     
   39605005.3028815     
   39375210.4161182     
   39143340.5237430     
   38909497.4547750     
   38673788.4108237     
   38436325.8566888     
   38197227.3607441     
   37956615.3720713     
   37714616.9177418     
   37471363.1993633     
   37226989.0629994     
   36981632.3110500     
   36735432.8193473     
   36488531.4196518     
   36241068.5123655     
   35993182.3999698     
   35745007.4108883     
   35496672.0809203     
   35248297.9910710     
   35000000.0000000     
   50000000.0000000     
   49931410.3323164     
   49862890.7305569     
   49794385.6913888     
   49725836.3894367     
   49657180.5299025     
   49588352.7969526     
   49519285.5811690     
   49449909.7206954     
   49380155.1354207     
   49309951.3258725     
   49239227.7462220     
   49167914.0720786     
   49095940.3848220     
   49023237.2918519     
   48949735.9989465     
   48875368.3478278     
   48800066.8293197     
   48723764.5802015     
   48646395.3699751     
   48567893.5822536     
   48488194.1942603     
   48407232.7569871     
   48324945.3778203     
   48241268.7068864     
   48156139.9279489     
   48069496.7543800     
   47981277.4305081     
   47891420.7384837     
   47799866.0107049     
   47706553.1477664     
   47611422.6418609     
   47514415.6055351     
   47415473.8056910     
   47314539.7027236     
   47211556.4946925     
   47106468.1664248     
   46999219.5434624     
   46889756.3507696     
   46778025.2761268     
   46663974.0381399     
   46547551.4588013     
   46428707.5405374     
   46307393.5476800     
   46183562.0922944     
   46057167.2242948     
   45928164.5257693     
   45796511.2094280     
   45662166.2210784     
   45525090.3460197     
   45385246.3192294     
   45242598.9392055     
   45097115.1853030     
   44948764.3383878     
   44797518.1046079     
   44643350.7420582     
   44486239.1900920     
   44326163.2010054     
   44163105.4737952     
   43997051.7896611     
   43827991.1488965     
   43655915.9087817     
   43480821.9220655     
   43302708.6755908     
   43121579.4285929     
   42937441.3501693     
   42750305.6553949     
   42560187.7395310     
   42367107.3097499     
   42171088.5137786     
   41972160.0648360     
   41770355.3622231     
   41565712.6068939     
   41358274.9113100     
   41148090.4028431     
   40935212.3199352     
   40719699.1001590     
   40501614.4592064     
   40281027.4596908     
   40058012.5684238     
   39832649.7005299     
   39605024.2483356     
   39375227.0923937     
   39143354.5912278     
   38909508.5453479     
   38673796.1297399     
   38436329.7872898     
   38197227.0733897     
   37956610.4392012     
   37714606.9376376     
   37471347.8319910     
   37226968.0822704     
   36981605.6788527     
   36735400.7875908     
   36488494.6669588     
   36241028.3214305     
   35993140.8795900     
   35744967.7626688     
   35496638.8940169     
   35248277.4829312     
   35000000.0000000     
   50000000.0000000     
   49931398.3679230     
   49862871.0523710     
   49794361.6633187     
   49725810.4929283     
   49657154.4939232     
   49588327.7596245     
   49519262.2384421     
   49449888.4499317     
   49380136.0930142     
   49309934.5214440     
   49239213.0971941     
   49167901.4426521     
   49095929.6130054     
   49023228.2075970     
   48949728.4358177     
   48875362.1500729     
   48800061.8557421     
   48723760.7058666     
   48646392.4864987     
   48567891.5972045     
   48488193.0300493     
   48407232.3494961     
   48324945.6749409     
   48241269.6670740     
   48156141.5188576     
   48069498.9516123     
   47981280.2164940     
   47891424.1014909     
   47799869.9439742     
   47706557.6487608     
   47611427.7116164     
   47514421.2480994     
   47415480.0276363     
   47314546.5127230     
   47211563.9031471     
   47106476.1851329     
   46999228.1853224     
   46889765.6295087     
   46778035.2060506     
   46663984.6338962     
   46547562.7351550     
   46428719.5121530     
   46307406.2289076     
   46183575.4969578     
   46057181.3654789     
   45928179.4156057     
   45796526.8588767     
   45662182.6397051     
   45525107.5417665     
   45385264.2981795     
   45242617.7053398     
   45097134.7402489     
   44948784.6811590     
   44797539.2313344     
   44643372.6457067     
   44486261.8601759     
   44326186.6232830     
   44163129.6299559     
   43997076.6569985     
   43828016.6999669     
   43655942.1110463     
   43480848.7375139     
   43302736.0603432     
   43121607.3324761     
   42937469.7162627     
   42750334.4195394     
   42560216.8297928     
   42367136.6458300     
   42171118.0063550     
   41972189.6148257     
   41770384.8599467     
   41565741.9311247     
   41358303.9281883     
   41148118.9646345     
   40935240.2636159     
   40719726.2458127     
   40501640.6082300     
   40281052.3928188     
   40058036.0436115     
   39832671.4507709     
   39605043.9795515     
   39375244.4816180     
   39143369.2854259     
   38909520.1613845     
   38673804.2562330     
   38436333.9894031     
   38197226.9020292     
   37956605.4466246     
   37714596.7021854     
   37471331.9955151     
   37226946.4048651     
   36981578.1165955     
   36735367.5999750     
   36488456.5610911     
   36240986.6391213     
   35993097.8301766     
   35744926.6965491     
   35496604.5881895     
   35248256.3446762     
   35000000.0000000     
   50000000.0000000     
   49931386.0862259     
   49862850.8082484     
   49794336.9089917     
   49725783.7959811     
   49657127.6512520     
   49588301.9550277     
   49519238.1945265     
   49449866.5568321     
   49380116.5106218     
   49309917.2571078     
   49239198.0627744     
   49167888.4951714     
   49095918.5827674     
   49023218.9170009     
   48949720.7114247     
   48875355.8298808     
   48800056.7931380     
   48723756.7713336     
   48646389.5678580     
   48567889.5989454     
   48488191.8721346     
   48407231.9659068     
   48324946.0121327     
   48241270.6824579     
   48156143.1793685     
   48069501.2324020     
   47981283.0997618     
   47891427.5754531     
   47799874.0019653     
   47706562.2884553     
   47611432.9343567     
   47514427.0583154     
   47415486.4323432     
   47314553.5210849     
   47211571.5260935     
   47106484.4350193     
   46999237.0756254     
   46889775.1745482     
   46778045.4207331     
   46663995.5334734     
   46547574.3349934     
   46428731.8275110     
   46307419.2747167     
   46183589.2876056     
   46057195.9145918     
   45928194.7358284     
   45796542.9616490     
   45662199.5350334     
   45525125.2379886     
   45385282.8017233     
   45242637.0204733     
   45097154.8688223     
   44948805.6223375     
   44797560.9813213     
   44643395.1974563     
   44486285.2030950     
   44326210.7429215     
   44163154.5076842     
   43997102.2696723     
   43828043.0195757     
   43655969.1043463     
   43480876.3656413     
   43302764.2784052     
   43121636.0891154     
   42937498.9531906     
   42750364.0710302     
   42560246.8221322     
   42367166.8967059     
   42171148.4241786     
   41972220.0979689     
   41770415.2958770     
   41565772.1954196     
   41358333.8834065     
   41148148.4590239     
   40935269.1296371     
   40719754.2984632     
   40501667.6431635     
   40281078.1842688     
   40058060.3421590     
   39832693.9810322     
   39605064.4379289     
   39375262.5343400     
   39143384.5672321     
   38909532.2753845     
   38673812.7757086     
   38436338.4626489     
   38197226.8617607     
   37956600.4260562     
   37714586.2606146     
   37471315.7571745     
   37226924.1158981     
   36981549.7262091     
   36735333.3728833     
   36488417.2287713     
   36240943.5961495     
   35993053.3773400     
   35744884.3209007     
   35496569.2407714     
   35248234.6130992     
   35000000.0000000     
   50000000.0000000     
   49931373.5100254     
   49862830.0453526     
   49794311.4952056     
   49725756.3779107     
   49657100.0871693     
   49588275.4693694     
   49519213.5330112     
   49449844.1200597     
   49380096.4606272     
   49309899.5983088     
   49239182.7012878     
   49167875.2809728     
   49095907.3387786     
   49023209.4584972     
   48949712.8584372     
   48875349.4146378     
   48800051.6640721     
   48723752.7947744     
   48646386.6282186     
   48567887.5979779     
   48488190.7276517     
   48407231.6102430     
   48324946.3905227     
   48241271.7514459     
   48156144.9053155     
   48069503.5901250     
   47981286.0713192     
   47891431.1490772     
   47799878.1711330     
   47706567.0510836     
   47611438.2921109     
   47514433.0160115     
   47415492.9974333     
   47314560.7032086     
   47211579.3366862     
   47106492.8869649     
   46999246.1829451     
   46889784.9521174     
   46778055.8840190     
   46664006.6982898     
   46547586.2172656     
   46428744.4430489     
   46307432.6389917     
   46183603.4155294     
   46057210.8202946     
   45928210.4324344     
   45796559.4610485     
   45662216.8476491     
   45525143.3725358     
   45385301.7649630     
   45242656.8169571     
   45097175.5006288     
   44948827.0887986     
   44797583.2787396     
   44643418.3188112     
   44486309.1377376     
   44326235.4762581     
   44163180.0208468     
   43997128.5391747     
   43828070.0169555     
   43655996.7957885     
   43480904.7115830     
   43302793.2331170     
   43121665.6002561     
   42937528.9613291     
   42750394.5091277     
   42560277.6149762     
   42367197.9602853     
   42171179.6649868     
   41972251.4122182     
   41770446.5686076     
   41565803.2994818     
   41358364.6782937     
   41148178.7895337     
   40935298.8243381     
   40719783.1679513     
   40501695.4780993     
   40281104.7532067     
   40058085.3892032     
   39832717.2234007     
   39605085.5635665     
   39375281.1998154     
   39143400.3962838     
   38909544.8586604     
   38673821.6724961     
   38436343.2057288     
   38197226.9669731     
   37956595.4087629     
   37714575.6620157     
   37471299.1844087     
   37226901.3010224     
   36981520.6104390     
   36735298.2236351     
   36488376.7974859     
   36240899.3233637     
   35993007.6456678     
   35744840.7416869     
   35496532.9260351     
   35248212.3229226     
   35000000.0000000     
   50000000.0000000     
   49931360.6611953     
   49862808.8094762     
   49794285.4876412     
   49725728.3174982     
   49657071.8869233     
   49588248.3891003     
   49519188.3378066     
   49449821.2185515     
   49380076.0155768     
   49309881.6105212     
   49239167.0709585     
   49167861.8511791     
   49095895.9254062     
   49023199.8701494     
   48949704.9091120     
   48875342.9312943     
   48800046.4906668     
   48723748.7939247     
   48646383.6813276     
   48567885.6044101     
   48488189.6033723     
   48407231.2861976     
   48324946.8109409     
   48241272.8721836     
   48156146.6923041     
   48069506.0179608     
   47981289.1220084     
   47891434.8109336     
   47799882.4378208     
   47706571.9207916     
   47611443.7668410     
   47514439.1009682     
   47415499.7004964     
   47314568.0344760     
   47211587.3080740     
   47106501.5118547     
   46999255.4758671     
   46889794.9284628     
   46778066.5597743     
   46664018.0897871     
   46547598.3409448     
   46428757.3152272     
   46307446.2756370     
   46183617.8320361     
   46057226.0312578     
   45928226.4514225     
   45796576.3003711     
   45662234.5181191     
   45525161.8832262     
   45385321.1229552     
   45242677.0270812     
   45097196.5651949     
   44948849.0073190     
   44797606.0476404     
   44643441.9311326     
   44486333.5828241     
   44326260.7394355     
   44163206.0830863     
   43997155.3767434     
   43828097.6010510     
   43656025.0921560     
   43480933.6801123     
   43302822.8274164     
   43121695.7671983     
   42937559.6405634     
   42750425.6325527     
   42560309.1061612     
   42367229.7338323     
   42171211.6258165     
   41972283.4547664     
   41770478.5759102     
   41565835.1421289     
   41358396.2132280     
   41148209.8586687     
   40935329.2529738     
   40719812.7629673     
   40501724.0259169     
   40281132.0175278     
   40058111.1085617     
   39832741.1086063     
   39605107.2951840     
   39375300.4259208     
   39143416.7308660     
   38909557.8812331     
   38673830.9297348     
   38436348.2163040     
   38197227.2312173     
   37956590.4254322     
   37714564.9552108     
   37471282.3447402     
   37226878.0463367     
   36981490.8727986     
   36735262.2705104     
   36488335.3956178     
   36240853.9520361     
   35992960.7592167     
   35744796.0631787     
   35496495.7159798     
   35248189.5072999     
   35000000.0000000     
   50000000.0000000     
   49931347.5609197     
   49862787.1454246     
   49794258.9512305     
   49725699.6932573     
   49657043.1358913     
   49588220.8009927     
   49519162.6931640     
   49449797.9314992     
   49380055.2481369     
   49309863.3591933     
   49239151.2298500     
   49167848.2566393     
   49095884.3866560     
   49023190.1895984     
   48949696.8952447     
   48875336.4063216     
   48800041.2945644     
   48723744.7860530     
   48646380.7404860     
   48567883.6279326     
   48488188.5056839     
   48407230.9971154     
   48324947.2739064     
   48241274.0425424     
   48156148.5357010     
   48069508.5088848     
   47981292.2424992     
   47891438.5494497     
   47799886.7882571     
   47706576.8816342     
   47611449.3404407     
   47514445.2929167     
   47415506.5190898     
   47314575.4902506     
   47211595.4133998     
   47106510.2805778     
   46999264.9229890     
   46889805.0698495     
   46778077.4118875     
   46664029.6694321     
   46547610.6650300     
   46428770.4005307     
   46307460.1385783     
   46183632.4884492     
   46057241.4961624     
   45928242.7387941     
   45796593.4229055     
   45662252.4869925     
   45525180.7078474     
   45385340.8107109     
   45242697.5830732     
   45097217.9919671     
   44948871.3045755     
   44797629.2119528     
   44643465.9556364     
   44486358.4569039     
   44326286.4483971     
   44163232.6078165     
   43997182.6933549     
   43828125.6805114     
   43656053.8998998     
   43480963.1756316     
   43302852.9638284     
   43121726.4907844     
   42937590.8902744     
   42750457.3394717     
   42560341.1929167     
   42367262.1139472     
   42171244.2029827     
   41972316.1220227     
   41770511.2147086     
   41565867.6212636     
   41358428.3876031     
   41148241.5678791     
   40935360.3196737     
   40719842.9910062     
   40501753.1982325     
   40281159.8938009     
   40058137.4226692     
   39832765.5659505     
   39605129.5700436     
   39375320.1590652     
   39143433.5278138     
   38909571.3117245     
   38673840.5292569     
   38436353.4908687     
   38197227.6670725     
   37956585.5060344     
   37714554.1886182     
   37471265.3056505     
   37226854.4382886     
   36981460.6175208     
   36735225.6327813     
   36488293.1525965     
   36240807.6141758     
   35992912.8420331     
   35744750.3886705     
   35496457.6810721     
   35248166.1982674     
   35000000.0000000     
   50000000.0000000     
   49931334.2299108     
   49862765.0973818     
   49794231.9505232     
   49725670.5837115     
   49657013.9197512     
   49588192.7922247     
   49519136.6836961     
   49449774.3383284     
   49380034.2310484     
   49309844.9096898     
   49239135.2358021     
   49167834.5478654     
   49095872.7661131     
   49023180.4540067     
   48949688.8481206     
   48875329.8656684     
   48800036.0968891     
   48723740.7879265     
   48646377.8185206     
   48567881.6777950     
   48488187.4405701     
   48407230.7459762     
   48324947.7796130     
   48241275.2601078     
   48156150.4306254     
   48069511.0556603     
   47981295.4232832     
   47891442.3529054     
   47799891.2085509     
   47706581.9175728     
   47611454.9947322     
   47514451.5715369     
   47415513.4307378     
   47314583.0458780     
   47211603.6258013     
   47106519.1640285     
   46999274.4929221     
   46889815.3425623     
   46778088.4042713     
   46664041.3987179     
   46547623.1485465     
   46428783.6554696     
   46307474.1817642     
   46183647.3361103     
   46057257.1637011     
   45928259.2405541     
   45796610.7719347     
   45662270.6948005     
   45525199.7841557     
   45385360.7631955     
   45242718.4170986     
   45097239.7103110     
   44948893.9071434     
   44797652.6954822     
   44643490.3133904     
   44486383.6783517     
   44326312.5188837     
   44163259.5082179     
   43997210.3997192     
   43828154.1636842     
   43656083.1251312     
   43480993.1021630     
   43302883.5444548     
   43121757.6713883     
   42937622.6093250     
   42750489.5274818     
   42560373.7718474     
   42367294.9965489     
   42171277.2920573     
   41972349.3095892     
   41770544.3810524     
   41565900.6338444     
   41358461.0997967     
   41148273.8175246     
   40935391.9274015     
   40719873.7583222     
   40501782.9053480     
   40281188.2972110     
   40058164.2525137     
   39832790.5232357     
   39605152.3238692     
   39375340.3441016     
   39143450.7424130     
   38909585.1172467     
   38673850.4514661     
   38436359.0246187     
   38197228.2860067     
   37956580.6796785     
   37714543.4101098     
   37471248.1344504     
   37226830.5635729     
   36981429.9495072     
   36735188.4307454     
   36488250.1990590     
   36240760.4428654     
   35992864.0186981     
   35744703.8211983     
   35496418.8909561     
   35248142.4271616     
   35000000.0000000     
   50000000.0000000     
   49931320.6886141     
   49862742.7092635     
   49794204.5500558     
   49725641.0676809     
   49656984.3246617     
   49588164.4504681     
   49519110.3943991     
   49449750.5186766     
   49380013.0370789     
   49309826.3272302     
   49239119.1463652     
   49167820.7749673     
   49095861.1068786     
   49023170.7000018     
   48949680.7984629     
   48875323.3347156     
   48800030.9182075     
   48723736.8157773     
   48646374.9277548     
   48567879.7627809     
   48488186.4135894     
   48407230.5353779     
   48324948.3279156     
   48241276.5221678     
   48156152.3719392     
   48069513.6508315     
   47981298.6546676     
   47891446.2094289     
   47799895.6846888     
   47706587.0124728     
   47611460.7114657     
   47514457.9164573     
   47415520.4129306     
   47314590.6766857     
   47211611.9184108     
   47106528.1331069     
   46999284.1542917     
   46889825.7129068     
   46778099.5008634     
   46664053.2391653     
   46547635.7505484     
   46428797.0365817     
   46307488.3591674     
   46183662.3263808     
   46057272.9825798     
   45928275.9027124     
   45796628.2907366     
   45662289.0820579     
   45525219.0498777     
   45385380.9153289     
   45242739.4612603     
   45097261.6495106     
   44948916.7414955     
   44797676.4219090     
   44643514.9253118     
   44486409.1653648     
   44326338.8664290     
   44163286.6972321     
   43997238.4062739     
   43828182.9586080     
   43656112.6736140     
   43481023.3633395     
   43302914.4709637     
   43121789.2089029     
   42937654.6960475     
   42750522.0935960     
   42560406.7389178     
   42367328.2768554     
   42171310.7878483     
   41972382.9122377     
   41770577.9700911     
   41565934.0758571     
   41358494.2471376     
   41148306.5068384     
   40935423.9779146     
   40719904.9698832     
   40501813.0562002     
   40281217.1415021     
   40058191.5175724     
   39832815.9066925     
   39605175.4907660     
   39375360.9242347     
   39143468.3282976     
   38909599.2632898     
   38673860.6752131     
   38436364.8113162     
   38197229.0982320     
   37956575.9744620     
   37714532.6668624     
   37471230.8981424     
   37226806.5090224     
   36981398.9742739     
   36735150.7857617     
   36488206.6670199     
   36240712.5726148     
   35992814.4148932     
   35744656.4642645     
   35496379.4151438     
   35248118.2250154     
   35000000.0000000     
   50000000.0000000     
   49931306.9574055     
   49862720.0250663     
   49794176.8147228     
   49725611.2245778     
   49656954.4374485     
   49588135.8639786     
   49519083.9106722     
   49449726.5523679     
   49379991.7389711     
   49309807.6768241     
   49239103.0187298     
   49167806.9875829     
   49095849.4515055     
   49023160.9636165     
   48949672.7763799     
   48875316.8382299     
   48800025.7784886     
   48723732.8852690     
   48646372.0799798     
   48567877.8911839     
   48488185.4298557     
   48407230.3675194     
   48324948.9183157     
   48241277.8257021     
   48156154.3542376     
   48069516.2867154     
   47981301.9267696     
   47891450.1069921     
   47799900.2025312     
   47706592.1501008     
   47611466.4723170     
   47514464.3072538     
   47415527.4431247     
   47314598.3579833     
   47211620.2643565     
   47106537.1587196     
   46999293.8757390     
   46889836.1472107     
   46778110.6656285     
   46664065.1523245     
   46547648.4301200     
   46428810.5004338     
   46307502.6247869     
   46183677.4106434     
   46057288.9015191     
   45928292.6712855     
   45796645.9225850     
   45662307.5892635     
   45525238.4427102     
   45385401.2019859     
   45242760.6475986     
   45097283.7387676     
   44948939.7340012     
   44797700.3147860     
   44643539.7121653     
   44486434.8359602     
   44326365.4063565     
   44163314.0875584     
   43997266.6231791     
   43828211.9730065     
   43656142.4507568     
   43481053.8623964     
   43302945.6445804     
   43121821.0027292     
   42937687.0482304     
   42750554.9342285     
   42560439.9894357     
   42367361.8493662     
   42171344.5843801     
   41972416.8238872     
   41770611.8760489     
   41565967.8422858     
   41358527.7258742     
   41148339.5338910     
   40935456.3717245     
   40719936.5293260     
   40501843.5583104     
   40281246.3389206     
   40058219.1357474     
   39832841.6409072     
   39605199.0031378     
   39375381.8409292     
   39143486.2373465     
   38909613.7136046     
   38673871.1776668     
   38436370.8431487     
   38197230.1125537     
   37956571.4173140     
   37714522.0052008     
   37471213.6632758     
   37226782.3614924     
   36981367.7978918     
   36735112.8202837     
   36488162.6900478     
   36240664.1397313     
   35992764.1579871     
   35744608.4225743     
   35496339.3237004     
   35248093.6229419     
   35000000.0000000     
   50000000.0000000     
   49931293.0567872     
   49862697.0892162     
   49794148.8101556     
   49725581.1347094     
   49656924.3457967     
   49588107.1216875     
   49519057.3183362     
   49449702.5193847     
   49379970.4093868     
   49309789.0232017     
   49239086.9096538     
   49167793.2348069     
   49095837.8419304     
   49023151.2802280     
   48949664.8113108     
   48875310.4003162     
   48800020.6970631     
   48723729.0114611     
   48646369.2864252     
   48567876.0707831     
   48488184.4940173     
   48407230.2441840     
   48324949.5499483     
   48241279.1673704     
   48156156.3718411     
   48069518.9553957     
   47981305.2295110     
   47891454.0334060     
   47799904.7478098     
   47706597.3141232     
   47611472.2588866     
   47514470.7234487     
   47415534.4987424     
   47314606.0650626     
   47211628.6367629     
   47106546.2117811     
   46999303.6259219     
   46889846.6118255     
   46778121.8625600     
   46664077.0997774     
   46547661.1463776     
   46428824.0036234     
   46307516.9326494     
   46183692.5403038     
   46057304.8692558     
   45928309.4922972     
   45796663.6107517     
   45662326.1569015     
   45525257.9003211     
   45385421.5579963     
   45242781.9080907     
   45097305.9072012     
   44948962.8109249     
   44797724.2975375     
   44643564.5945607     
   44486460.6079713     
   44326392.0537753     
   44163341.5916484     
   43997294.9603120     
   43828241.1142823     
   43656172.3616063     
   43481084.5021630     
   43302976.9660771     
   43121852.9517657     
   42937719.5631064     
   42750587.9451815     
   42560473.4180357     
   42367395.6078442     
   42171378.5748729     
   41972450.9375812     
   41770645.9921992     
   41566001.8270852     
   41358561.4311429     
   41148372.7955556     
   40935489.0080566     
   40719968.3389116     
   40501874.3177335     
   40281275.8001577     
   40058247.0233005     
   39832867.6487480     
   39605222.7916039     
   39375403.0338150     
   39143504.4195770     
   38909628.4300847     
   38673881.9341826     
   38436377.1105850     
   38197231.3362146     
   37956567.0338314     
   37714511.4704334     
   37471196.4957928     
   37226758.2077363     
   36981336.5269180     
   36735074.6578887     
   36488118.4034432     
   36240615.2827007     
   35992713.3776401     
   35744559.8027884     
   35496298.6879363     
   35248068.6525185     
   35000000.0000000     
   50000000.0000000     
   49931279.0075858     
   49862673.9469256     
   49794120.6031108     
   49725550.8795898     
   49656894.1384444     
   49588078.3132914     
   49519030.7036482     
   49449678.4998337     
   49379949.1208467     
   49309770.4307408     
   49239070.8753849     
   49167779.5651150     
   49095826.3194043     
   49023141.6844941     
   48949656.9319699     
   48875304.0443692     
   48800015.6925816     
   48723725.2087738     
   48646366.5577295     
   48567874.3088181     
   48488183.6102370     
   48407230.1667229     
   48324950.2215681     
   48241280.5435020     
   48156158.4187858     
   48069521.6487153     
   47981308.5526130     
   47891457.9763176     
   47799909.3061248     
   47706602.4881037     
   47611478.0526984     
   47514477.1445111     
   47415541.5571723     
   47314613.7731987     
   47211637.0087517     
   47106555.2632151     
   46999313.3735166     
   46889857.0731284     
   46778133.0556813     
   46664089.0431387     
   46547673.8584717     
   46428837.5027813     
   46307531.2368116     
   46183707.6667923     
   46057320.8345450     
   45928326.3117811     
   45796681.2985067     
   45662344.7254425     
   45525277.3603508     
   45385441.9181456     
   45242803.1746515     
   45097328.0838477     
   44948985.8984260     
   44797748.2934579     
   44643589.4929511     
   44486486.3990458     
   44326418.7235773     
   44163369.1217027     
   43997323.3272616     
   43828270.2895106     
   43656202.3108398     
   43481115.1850546     
   43303008.3357635     
   43121884.9543974     
   42937752.1373399     
   42750621.0216302     
   42560506.9186646     
   42367429.4452987     
   42171412.6517235     
   41972485.1454661     
   41770680.2108406     
   41566035.9231532     
   41358595.2569372     
   41148406.1874727     
   40935521.7848108     
   40720000.2994806     
   40501905.2390081     
   40281305.4342924     
   40058275.0947886     
   39832893.8512914     
   39605246.7849152     
   39375424.4405925     
   39143522.8230372     
   38909643.3726445     
   38673892.9181664     
   38436383.6022246     
   38197232.7747327     
   37956562.8481081     
   37714501.1066797     
   37471179.4608660     
   37226734.1342709     
   36981305.2683198     
   36735036.4232996     
   36488073.9444149     
   36240566.1425754     
   35992662.2064277     
   35744510.7142998     
   35496257.5811169     
   35248043.3461792     
   35000000.0000000     
   50000000.0000000     
   49931264.8311586     
   49862650.6445638     
   49794092.2618714     
   49725520.5422572     
   49656863.9053789     
   49588049.5293384     
   49519004.1533103     
   49449654.5739070     
   49379927.9456638     
   49309751.9633883     
   49239054.9715797     
   49167766.0262857     
   49095814.9244191     
   49023132.2102881     
   48949649.1662886     
   48875297.7930236     
   48800010.7829722     
   48723721.4909530     
   48646363.9039104     
   48567872.6119649     
   48488182.7821716     
   48407230.1360386     
   48324950.9315364     
   48241281.9500850     
   48156160.4888160     
   48069524.3582704     
   47981311.8855913     
   47891461.9232060     
   47799913.8629423     
   47706607.6555025     
   47611483.8351995     
   47514483.5498559     
   47415548.5957694     
   47314621.4576504     
   47211645.3534431     
   47106564.2839554     
   46999323.0872197     
   46889867.4975237     
   46778144.2090486     
   46664100.9440587     
   46547686.5255887     
   46428850.9545729     
   46307545.4913620     
   46183722.7415664     
   46057336.7461616     
   45928343.0757819     
   45796698.9291208     
   45662363.2353446     
   45525296.7604120     
   45385462.2171760     
   45242824.3791335     
   45097350.1976602     
   44949008.9225577     
   44797772.2257105     
   44643614.3276308     
   44486512.1266431     
   44326445.3304341     
   44163396.5896663     
   43997351.6333245     
   43828299.4054338     
   43656232.2027587     
   43481145.8130639     
   43303039.6534782     
   43121916.9084847     
   42937784.6670153     
   42750654.0581103     
   42560540.3845657     
   42367463.2539677     
   42171446.7064858     
   41972519.3387692     
   41770714.4232720     
   41566070.0223030     
   41358629.0960768     
   41148439.6040156     
   40935554.5985229     
   40720032.3104090     
   40501936.2251058     
   40281335.1487343     
   40058303.2629987     
   39832920.1677480     
   39605270.9098696     
   39375445.9969355     
   39143541.3936961     
   38909658.4990952     
   38673904.1009361     
   38436390.3046444     
   38197234.4317340     
   37956558.8825577     
   37714490.9566889     
   37471162.6227251     
   37226710.2272310     
   36981274.1293850     
   36734998.2423967     
   36488029.4522498     
   36240516.8633663     
   35992610.7804804     
   35744461.2700406     
   35496216.0792050     
   35248017.7376252     
   35000000.0000000     
   50000000.0000000     
   49931250.5496116     
   49862627.2300471     
   49794063.8566638     
   49725490.2076005     
   49656833.7380300     
   49588020.8613098     
   49518977.7544719     
   49449630.8218362     
   49379906.9558722     
   49309733.6845769     
   49239039.2532184     
   49167752.6653179     
   49095803.6966328     
   49023122.8906317     
   48949641.5413570     
   48875291.6681037     
   48800005.9853977     
   48723717.8710333     
   48646361.3343346     
   48567870.9863109     
   48488182.0129521     
   48407230.1525689     
   48324951.6778083     
   48241283.3827564     
   48156162.5753758     
   48069527.0754042     
   47981315.2177518     
   47891465.8613789     
   47799918.4035920     
   47706612.7996741     
   47611489.5877587     
   47514489.9188443     
   47415555.5918557     
   47314629.0936611     
   47211653.6439570     
   47106573.2449482     
   46999332.7357493     
   46889877.8514451     
   46778155.2867522     
   46664112.7642249     
   46547699.1069534     
   46428864.3157009     
   46307559.6504231     
   46183737.7161126     
   46057352.5529025     
   45928359.7303570     
   45796716.4458665     
   45662381.6270550     
   45525316.0380919     
   45385482.3897864     
   45242845.4533271     
   45097372.1775084     
   44949031.8092666     
   44797796.0173262     
   44643639.0187340     
   44486537.7080316     
   44326471.7887930     
   44163423.9072251     
   43997379.7874996     
   43828328.3684557     
   43656261.9412816     
   43481176.2877539     
   43303070.8185793     
   43121948.7113542     
   42937817.0476252     
   42750686.9485045     
   42560573.7082639     
   42367496.9253017     
   42171480.6298520     
   41972553.4077781     
   41770748.5197695     
   41566104.0152369     
   41358662.8401777     
   41148472.9382566     
   40935587.3443259     
   40720064.2695644     
   40501967.1773817     
   40281364.8491670     
   40058331.4388826     
   39832946.5153879     
   39605295.0912265     
   39375467.6363942     
   39143560.0753320     
   38909673.7650187     
   38673915.4515786     
   38436397.2022403     
   38197236.3087784     
   37956555.1577278     
   37714481.0616498     
   37471146.0444730     
   37226686.5722107     
   36981243.2176196     
   36734960.2422149     
   36487985.0684729     
   36240467.5924331     
   35992559.2401413     
   35744411.5873252     
   35496174.2616478     
   35247991.8622637     
   35000000.0000000     
   50000000.0000000     
   49931236.1860375     
   49862603.7532571     
   49794035.4600967     
   49725459.9626891     
   49656803.7294611     
   49587992.4016924     
   49518951.5947239     
   49449607.3238389     
   49379886.2231481     
   49309715.6571366     
   49239023.7745145     
   49167739.5283463     
   49095792.6747909     
   49023113.7576251     
   48949634.0833635     
   48875285.6905717     
   48800001.3162122     
   48723714.3613025     
   48646358.8576880     
   48567869.4373309     
   48488181.3051638     
   48407230.2162707     
   48324952.4579193     
   48241284.8367917     
   48156164.6716018     
   48069529.7912011     
   47981318.5381858     
   47891469.7779704     
   47799922.9132654     
   47706617.9038670     
   47611495.2916670     
   47514496.2307840     
   47415562.5227208     
   47314636.6564605     
   47211661.8534146     
   47106582.1171534     
   46999342.2878474     
   46889888.1013576     
   46778166.2529192     
   46664124.4653645     
   46547711.5618315     
   46428877.5429078     
   46307573.6681540     
   46183752.5419482     
   46057368.2035883     
   45928376.2215786     
   45796733.7920201     
   45662399.8410112     
   45525335.1309528     
   45385502.3706336     
   45242866.3289614     
   45097393.9521793     
   44949054.4843924     
   44797819.5912028     
   44643663.4862331     
   44486563.0602872     
   44326498.0128754     
   44163450.9858022     
   43997407.6984840     
   43828357.0846362     
   43656291.4299380     
   43481206.5102506     
   43303101.7299362     
   43121980.2597886     
   42937849.1740592     
   42750719.5860296     
   42560606.7815514     
   42367530.3499468     
   42171514.3116344     
   41972587.2418193     
   41770782.3895623     
   41566137.7915200     
   41358696.3796224     
   41148506.0819332     
   40935619.9159117     
   40720096.0732629     
   40501997.9955250     
   40281394.4394912     
   40058359.5314919     
   39832972.8094661     
   39605319.2516208     
   39375489.2902958     
   39143578.8094201     
   38909689.1236384     
   38673926.9368044     
   38436404.2770636     
   38197238.4051812     
   37956551.6921076     
   37714471.4609912     
   37471129.7878912     
   37226663.2540923     
   36981212.6406295     
   36734922.5509253     
   36487940.9369916     
   36240418.4808696     
   35992507.7306371     
   35744361.7887380     
   35496132.2122229     
   35247965.7576873     
   35000000.0000000     
   50000000.0000000     
   49931221.7647772     
   49862580.2664937     
   49794007.1476215     
   49725429.8971101     
   49656773.9745526     
   49587964.2440423     
   49518925.7620822     
   49449584.1600559     
   49379865.8187238     
   49309697.9431994     
   49239008.5888210     
   49167726.6605519     
   49095781.8966468     
   49023104.8423766     
   48949626.8175333     
   48875279.8804752     
   48799996.7909169     
   48723710.9732647     
   48646356.4819457     
   48567867.9698618     
   48488180.6608267     
   48407230.3266043     
   48324953.2689744     
   48241286.3070956     
   48156166.7703150     
   48069532.4964815     
   47981321.8357666     
   47891473.6599371     
   47799927.3770144     
   47706622.9512227     
   47611500.9281370     
   47514502.4649296     
   47415569.3656233     
   47314644.1212654     
   47211669.9549397     
   47106590.8715464     
   46999351.7122820     
   46889898.2137599     
   46778177.0717158     
   46664136.0092471     
   46547723.8495315     
   46428890.5929776     
   46307587.4987523     
   46183767.1706244     
   46057383.6470662     
   45928392.4955360     
   45796750.9108634     
   45662417.8176431     
   45525353.9765337     
   45385522.0943337     
   45242886.9377043     
   45097415.4503767     
   44949076.8736673     
   44797842.8701040     
   44643687.6499374     
   44486588.1002908     
   44326523.9166734     
   44163477.7365544     
   43997435.2746685     
   43828385.4596862     
   43656320.5718625     
   43481236.3812351     
   43303132.2859207     
   43122011.4500165     
   42937880.9405932     
   42750751.8632242     
   42560639.4954736     
   42367563.4177293     
   42171547.6407475     
   41972620.7292385     
   41770815.9208107     
   41566171.2395539     
   41358729.6035309     
   41148538.9254150     
   40935652.2054937     
   40720127.6162262     
   40502028.5775097     
   40281423.8217685     
   40058387.4479135     
   39832998.9631476     
   39605343.3114770     
   39375510.8876455     
   39143597.5350173     
   38909704.5256883     
   38673938.5207987     
   38436411.5086542     
   38197240.7178276     
   37956548.5019281     
   37714462.1921724     
   37471113.9132313     
   37226640.3568581     
   36981182.5059837     
   36734885.2977948     
   36487897.2042209     
   36240369.6838761     
   35992456.4027634     
   35744312.0030722     
   35496090.0199608     
   35247939.4642049     
   35000000.0000000     
   50000000.0000000     
   49931207.3117137     
   49862556.8249729     
   49793978.9980203     
   49725400.1033083     
   49656744.5701767     
   49587936.4830348     
   49518900.3449593     
   49449561.4104788     
   49379845.8132938     
   49309680.6040990     
   49238993.7485307     
   49167714.1060698     
   49095771.3988777     
   49023096.1749291     
   48949619.7680655     
   48875274.2568942     
   48799992.4241154     
   48723707.7176038     
   48646354.2143422     
   48567866.5880793     
   48488180.0813755     
   48407230.4825187     
   48324954.1076344     
   48241287.7881932     
   48156168.8640147     
   48069535.1817962     
   47981325.0991459     
   47891477.4940573     
   47799931.7797496     
   47706627.9247750     
   47611506.4783034     
   47514508.6004835     
   47415576.0977913     
   47314651.4632815     
   47211677.9216614     
   47106599.4791208     
   46999360.9778493     
   46889908.1551867     
   46778187.7073499     
   46664147.3576871     
   46547735.9294078     
   46428903.4227395     
   46307601.0964570     
   46183781.5537281     
   46057398.8322117     
   45928408.4983374     
   45796767.7456855     
   45662435.4973744     
   45525372.5123515     
   45385541.4954626     
   45242907.2111642     
   45097436.6007219     
   44949098.9027165     
   44797865.7766591     
   44643711.4294920     
   44486612.7447269     
   44326549.4139473     
   44163504.0703693     
   43997462.4241339     
   43828413.3989623     
   43656349.2697885     
   43481265.8009376     
   43303162.3843996     
   43122042.1777039     
   42937912.2408782     
   42750783.6719367     
   42560671.7403151     
   42367596.0176400     
   42171580.5051899     
   41972653.7573807     
   41770849.0005831     
   41566204.2465522     
   41358762.3997320     
   41148571.3576715     
   40935684.1037698     
   40720158.7915387     
   40502058.8195462     
   40281452.8961655     
   40058415.0932049     
   39833024.8874330     
   39605367.1889225     
   39375532.3550263     
   39143616.1886474     
   38909719.9192803     
   38673950.1650696     
   38436418.8738690     
   38197243.2409818     
   37956545.6009536     
   37714453.2904637     
   37471098.4789952     
   37226617.9633875     
   36981152.9210575     
   36734848.6131231     
   36487854.0191821     
   36240321.3611151     
   35992405.4135784     
   35744262.3663270     
   35496047.7801601     
   35247913.0254417     
   35000000.0000000     
   50000000.0000000     
   49931192.8546077     
   49862533.4873782     
   49793951.0939247     
   49725370.6769264     
   49656715.6153588     
   49587909.2144990     
   49518875.4321227     
   49449539.1548665     
   49379826.2769123     
   49309663.7002629     
   49238979.3049725     
   49167701.9078933     
   49095761.2169991     
   49023087.7841857     
   48949612.9580691     
   48875268.8378871     
   48799988.2294697     
   48723704.6041466     
   48646352.0613413     
   48567865.2954735     
   48488179.5676418     
   48407230.6824359     
   48324954.9701057     
   48241289.2742202     
   48156170.9448719     
   48069537.8374224     
   47981328.3167504     
   47891481.2669279     
   47799936.1062395     
   47706632.8074502     
   47611511.9232234     
   47514514.6165968     
   47415582.6964247     
   47314658.6577050     
   47211685.7267153     
   47106607.9108901     
   46999370.0533762     
   46889917.8922117     
   46778198.1240733     
   46664158.4725462     
   46547747.7608636     
   46428915.9890694     
   46307614.4155513     
   46183795.6428849     
   46057413.7079315     
   45928424.1761125     
   45796784.2397855     
   45662452.8206242     
   45525390.6759031     
   45385560.5085579     
   45242927.0808897     
   45097457.3317543     
   44949120.4970580     
   44797888.2333625     
   44643734.7443765     
   44486636.9100816     
   44326574.4182237     
   44163529.8978619     
   43997489.0546468     
   43828440.8074628     
   43656377.4260429     
   43481294.6691298     
   43303191.9227265     
   43122072.3379446     
   42937942.9679306     
   42750814.9033130     
   42560703.4055869     
   42367628.0378188     
   42171612.7920278     
   41972686.2125707     
   41770881.5148348     
   41566236.6985153     
   41358794.6547352     
   41148603.2662402     
   40935715.4998861     
   40720189.4906069     
   40502088.6160333     
   40281481.5608983     
   40058442.3703298     
   39833050.4910836     
   39605390.7997009     
   39375553.6164982     
   39143634.7041836     
   38909735.2497689     
   38673961.8282934     
   38436426.3467063     
   38197245.9660903     
   37956543.0002660     
   37714444.7887165     
   37471083.5417001     
   37226596.1552360     
   36981123.9928530     
   36734812.6281514     
   36487811.5335721     
   36240273.6770412     
   35992354.9271019     
   35744213.0227685     
   35496005.5955167     
   35247886.4890250     
   35000000.0000000     
   50000000.0000000     
   49931178.4234851     
   49862510.3164781     
   49793923.5223657     
   49725341.7171437     
   49656687.2114215     
   49587882.5354346     
   49518851.1126374     
   49449517.4726501     
   49379807.2788821     
   49309647.2910986     
   49238965.3083024     
   49167690.1077738     
   49095751.3852764     
   49023079.6978325     
   48949606.4094981     
   48875263.6404363     
   48799984.2196546     
   48723701.6418260     
   48646350.0286066     
   48567864.0948252     
   48488179.1198342     
   48407230.9242369     
   48324955.8521287     
   48241290.7589158     
   48156173.0047228     
   48069540.4533589     
   47981331.4767795     
   47891484.9649633     
   47799940.3411103     
   47706637.5820669     
   47611517.2438773     
   47514520.4923707     
   47415589.1386962     
   47314665.6797251     
   47211693.3432461     
   47106616.1378903     
   46999378.9077230     
   46889927.3914499     
   46778208.2861854     
   46664169.3157366     
   46547759.3033530     
   46428928.2488939     
   46307627.4103649     
   46183809.3897616     
   46057428.2231655     
   45928439.4750147     
   45796800.3364739     
   45662469.7278096     
   45525408.4046663     
   45385579.0681198     
   45242946.4783719     
   45097477.5719320     
   44949141.5821023     
   44797910.1625733     
   44643757.5139047     
   44486660.5126415     
   44326598.8427933     
   44163555.1293717     
   43997515.0736564     
   43828467.5898225     
   43656404.9425406     
   43481322.8851193     
   43303220.7977345     
   43122101.8252520     
   42937973.0141218     
   42750845.4477859     
   42560734.3800128     
   42367659.3655405     
   42171644.3873784     
   41972717.9800944     
   41770913.3483860     
   41566268.4802065     
   41358826.2537037     
   41148634.5371953     
   40935746.2814010     
   40720219.6031175     
   40502117.8595110     
   40281509.7121780     
   40058469.1800947     
   39833075.6805472     
   39605414.0570852     
   39375574.5934973     
   39143653.0127310     
   38909750.4596150     
   38673973.4661571     
   38436433.8981257     
   38197248.8815796     
   37956540.7080411     
   37714436.7171225     
   37471069.1556307     
   37226575.0123940     
   36981095.8277958     
   36734777.4749407     
   36487769.9017952     
   36240226.8011975     
   35992305.1150099     
   35744164.1260604     
   35495963.5773897     
   35247859.9073787     
   35000000.0000000     
   50000000.0000000     
   49931164.0510913     
   49862487.3798220     
   49793896.3753583     
   49725313.3270062     
   49656659.4621072     
   49587856.5440074     
   49518827.4757925     
   49449496.4428238     
   49379788.8876325     
   49309631.4348719     
   49238951.8073889     
   49167678.7461179     
   49095741.9366343     
   49023071.9422613     
   48949600.1430854     
   48875258.6803932     
   48799980.4063126     
   48723698.8386445     
   48646348.1209720     
   48567862.9881832     
   48488178.7375210     
   48407231.2052476     
   48324956.7489673     
   48241292.2356137     
   48156175.0350634     
   48069543.0193225     
   47981334.5672022     
   47891488.5743939     
   47799944.4688447     
   47706642.2313369     
   47611522.4211699     
   47514526.2068577     
   47415595.4017536     
   47314672.5045255     
   47211700.7444102     
   47106624.1311829     
   46999387.5097860     
   46889936.6195605     
   46778218.1580353     
   46664179.8492241     
   46547770.5163848     
   46428940.1591924     
   46307640.0352772     
   46183822.7460692     
   46057442.3268905     
   45928454.3412237     
   45796815.9790758     
   45662486.1593477     
   45525425.6361027     
   45385597.1086128     
   45242965.3350447     
   45097497.2496326     
   44949162.0831536     
   44797931.4865149     
   44643779.6572234     
   44486683.4684920     
   44326622.6007086     
   44163579.6749607     
   43997540.3882907     
   43828493.6503091     
   43656431.7207793     
   43481350.3477430     
   43303248.9057289     
   43122130.5335504     
   42938002.2711689     
   42750875.1950634     
   42560764.5515174     
   42367689.8872003     
   42171675.1763933     
   41972748.9441809     
   41770944.3849018     
   41566299.4751287     
   41358857.0804273     
   41148665.0551172     
   40935776.3342507     
   40720249.0169974     
   40502146.4406137     
   40281537.2441561     
   40058495.4210856     
   39833100.3598846     
   39605436.8717918     
   39375595.2047341     
   39143671.0425082     
   38909765.4882474     
   38673985.0311988     
   38436441.4958651     
   38197251.9726480     
   37956538.7293175     
   37714429.1029623     
   37471055.3725749     
   37226554.6130278     
   36981068.5315040     
   36734743.2862155     
   36487729.2809539     
   36240180.9084701     
   35992256.1573186     
   35744115.8404669     
   35495921.8472328     
   35247833.3386567     
   35000000.0000000     
   50000000.0000000     
   49931149.7734289     
   49862464.7505297     
   49793869.7505191     
   49725285.6137447     
   49656632.4736748     
   49587831.3395210     
   49518804.6110079     
   49449476.1438234     
   49379771.1705888     
   49309616.1885783     
   49238938.8496936     
   49167667.8618801     
   49095732.9025631     
   49023064.5424892     
   48949594.1782756     
   48875253.9724226     
   48799976.8000088     
   48723696.2016379     
   48646346.3424127     
   48567861.9768404     
   48488178.4196122     
   48407231.5222249     
   48324957.6553986     
   48241293.6972356     
   48156177.0270446     
   48069545.5247450     
   47981337.5757558     
   47891492.0812656     
   47799948.4737829     
   47706646.7378655     
   47611527.4359317     
   47514531.7390638     
   47415601.4627216     
   47314679.1072876     
   47211707.9033781     
   47106631.8618575     
   46999395.8285007     
   46889945.5432503     
   46778227.7040254     
   46664190.0350307     
   46547781.3595254     
   46428951.6770009     
   46307652.2447209     
   46183835.6635655     
   46057455.9681220     
   45928468.7209483     
   45796831.1109328     
   45662502.0556573     
   45525442.3076586     
   45385614.5644676     
   45242983.5822866     
   45097516.2931537     
   44949181.9254098     
   44797952.1272757     
   44643801.0933122     
   44486705.6935170     
   44326645.6047826     
   44163603.4444104     
   43997564.9053539     
   43828518.8928188     
   43656457.6618345     
   43481376.9553615     
   43303276.1424805     
   43122158.3561672     
   42938030.6301250     
   42750904.0341187     
   42560793.8072136     
   42367719.4882999     
   42171705.0432433     
   41972778.9879843     
   41770974.5068718     
   41566329.5655012     
   41358887.0172967     
   41148694.7030628     
   40935805.5427142     
   40720277.6183745     
   40502174.2480244     
   40281564.0488716     
   40058520.9896054     
   39833124.4306960     
   39605459.1518936     
   39375615.3660922     
   39143688.7187280     
   38909780.2719239     
   38673996.4726447     
   38436449.1042529     
   38197255.2210524     
   37956537.0657560     
   37714421.9703425     
   37471042.2415454     
   37226535.0331980     
   36981042.2085301     
   36734710.1951692     
   36487689.8307907     
   36240136.1792897     
   35992208.2430410     
   35744068.3421279     
   35495880.5382185     
   35247806.8478491     
   35000000.0000000     
   50000000.0000000     
   49931135.6304041     
   49862442.5081920     
   49793843.7517163     
   49725258.6890688     
   49656606.3549636     
   49587807.0223623     
   49518782.6077215     
   49449456.6533886     
   49379754.1940297     
   49309601.6078070     
   49238926.4811469     
   49167657.4924523     
   49095724.3130232     
   49023057.5220775     
   48949588.5331574     
   48875249.5299474     
   48799973.4101856     
   48723693.7368386     
   48646344.6960169     
   48567861.0613124     
   48488178.1643419     
   48407231.8713443     
   48324958.5657033     
   48241295.1362842     
   48156178.9714670     
   48069547.9587696     
   47981340.4899438     
   47891495.4714393     
   47799952.3401222     
   47706651.0841526     
   47611532.2689200     
   47514537.0679504     
   47415607.2987047     
   47314685.4631925     
   47211714.7933376     
   47106639.3010347     
   46999403.8328447     
   46889954.1292768     
   46778236.8886147     
   46664199.8352385     
   46547791.7924020     
   46428962.7594148     
   46307663.9931840     
   46183848.0940588     
   46057469.0959177     
   45928482.5604291     
   45796845.6754058     
   45662517.3571620     
   45525458.3567682     
   45385631.3700828     
   45243001.1514219     
   45097534.6307150     
   44949201.0339635     
   44797972.0068088     
   44643821.7409831     
   44486727.1033972     
   44326667.7675872     
   44163626.3472198     
   43997588.5313225     
   43828543.2208728     
   43656482.6663552     
   43481402.6058531     
   43303302.4032187     
   43122185.1858250     
   42938057.9813710     
   42750931.8531792     
   42560822.0333912     
   42367748.0534345     
   42171733.8711033     
   41972807.9935665     
   41771003.5955908     
   41566358.6322378     
   41358915.9452781     
   41148723.3625365     
   40935833.7893808     
   40720305.2915385     
   40502201.1684300     
   40281590.0161978     
   40058545.7796124     
   39833147.7920483     
   39605480.8027351     
   39375634.9905275     
   39143705.9634782     
   38909794.7435903     
   38674007.7362456     
   38436456.6840177     
   38197258.6048890     
   37956535.7153928     
   37714415.3399216     
   37471029.8084851     
   37226516.3465564     
   36981016.9620713     
   36734678.3352300     
   36487651.7135771     
   36240092.7997692     
   35992161.5708019     
   35744021.8204016     
   35495839.7970943     
   35247780.5081122     
   35000000.0000000     
   50000000.0000000     
   49931121.6666100     
   49862420.7399015     
   49793818.4897447     
   49725232.6694301     
   49656581.2174207     
   49587783.6939166     
   49518761.5552548     
   49449438.0484110     
   49379738.0229344     
   49309587.7465967     
   49238914.7460175     
   49167647.6735499     
   49095716.1963471     
   49023050.9030493     
   48949583.2243951     
   48875245.3650921     
   48799970.2451175     
   48723691.4492402     
   48646343.1839570     
   48567860.2413154     
   48488177.9692527     
   48407232.2481873     
   48324959.4736574     
   48241296.5448365     
   48156180.8587775     
   48069550.3102487     
   47981343.2970355     
   47891498.7305906     
   47799956.0519185     
   47706655.2525946     
   47611536.9008218     
   47514542.1724363     
   47415612.8867893     
   47314691.5474242     
   47211721.3874964     
   47106646.4198693     
   46999411.4918414     
   46889962.3444516     
   46778245.6763220     
   46664209.2119930     
   46547801.7747061     
   46428973.3635922     
   46307675.2352142     
   46183859.9894105     
   46057481.6593807     
   45928495.8059417     
   45796859.6158780     
   45662532.0042925     
   45525473.7208550     
   45385647.4598268     
   45243017.9737227     
   45097552.1904586     
   44949219.3338023     
   44797991.0469324     
   44643841.5188805     
   44486747.6136097     
   44326689.0014520     
   44163648.2926034     
   43997611.1723436     
   43828566.5376137     
   43656506.6345596     
   43481427.1966094     
   43303327.5826254     
   43122210.9146344     
   42938084.2146063     
   42750958.5397175     
   42560849.1155053     
   42367775.4662799     
   42171761.5421373     
   41972835.8418815     
   41771031.5311396     
   41566386.5549252     
   41358943.7438881     
   41148750.9134622     
   40935860.9551171     
   40720331.9189035     
   40502227.0864771     
   40281615.0337914     
   40058569.6826596     
   39833170.3404033     
   39605501.7268463     
   39375653.9879665     
   39143722.6956015     
   38909808.8327391     
   38674018.7641102     
   38436464.1920940     
   38197262.0983693     
   37956534.6723842     
   37714409.2286247     
   37471018.1159562     
   37226498.6240202     
   36980992.8936496     
   36734647.8397810     
   36487615.0939428     
   36240050.9617670     
   35992116.3493889     
   35743976.4792628     
   35495799.7863074     
   35247754.4023816     
   35000000.0000000     
   50000000.0000000     
   49931107.9322888     
   49862399.5414347     
   49793794.0830149     
   49725207.6762396     
   49656557.1750847     
   49587761.4564525     
   49518741.5426558     
   49449420.4047654     
   49379722.7208190     
   49309574.6572843     
   49238903.6867776     
   49167638.4390936     
   49095708.5791392     
   49023044.7058058     
   48949578.2671597     
   48875241.4886272     
   48799967.3118666     
   48723689.3427619     
   48646341.8074627     
   48567859.5157452     
   48488177.8311788     
   48407232.6477298     
   48324960.3725229     
   48241297.9145390     
   48156182.6790653     
   48069552.5677424     
   47981345.9840646     
   47891501.8442103     
   47799959.5930867     
   47706659.2254856     
   47611541.3122551     
   47514547.0314012     
   47415618.2040469     
   47314697.3351729     
   47211727.6590860     
   47106653.1895542     
   46999418.7745632     
   46889970.1556435     
   46778254.0317298     
   46664218.1275062     
   46547811.2661969     
   46428983.4467582     
   46307685.9254220     
   46183871.3015391     
   46057493.6076625     
   45928508.4037994     
   45796872.8757574     
   45662545.9374890     
   45525488.3373349     
   45385662.7680401     
   45243033.9804103     
   45097568.9004510     
   44949236.7498107     
   44798009.1693308     
   44643860.3454810     
   44486767.1394277     
   44326709.2184628     
   44163669.1894894     
   43997632.7342320     
   43828588.7458021     
   43656529.4662304     
   43481450.6245294     
   43303351.5748293     
   43122235.4340871     
   42938109.2188409     
   42750983.9804415     
   42560874.9381660     
   42367801.6095800     
   42171787.9374847     
   41972862.4127583     
   41771058.1923671     
   41566413.2118024     
   41358970.2911712     
   41148777.2341552     
   40935886.9190353     
   40720357.3809716     
   40502251.8847290     
   40281638.9870417     
   40058592.5878347     
   39833191.9695472     
   39605521.8238594     
   39375672.2652065     
   39143738.8305764     
   38909822.4652679     
   38674029.4945371     
   38436471.5814252     
   38197265.6715911     
   37956533.9267432     
   37714403.6493468     
   37471007.2028128     
   37226481.9334233     
   36980970.1027571     
   36734618.8418353     
   36487580.1386413     
   36240010.8628636     
   35992072.7982137     
   35743932.5387349     
   35495760.6864435     
   35247728.6253537     
   35000000.0000000     
   50000000.0000000     
   49931094.4845281     
   49862379.0186074     
   49793770.6582401     
   49725183.8360263     
   49656534.3445219     
   49587740.4129710     
   49518722.6585174     
   49449403.7971240     
   49379708.3495602     
   49309562.3903449     
   49238893.3439615     
   49167629.8210890     
   49095701.4861736     
   49023038.9490413     
   48949573.6750597     
   48875237.9099133     
   48799964.6162379     
   48723687.4202136     
   48646340.5667938     
   48567858.8826568     
   48488177.7462317     
   48407233.0643312     
   48324961.2550412     
   48241299.2366015     
   48156184.4220588     
   48069554.7195169     
   47981348.5378297     
   47891504.7976053     
   47799962.9474030     
   47706662.9850201     
   47611545.4837723     
   47514551.6236874     
   47415623.2275371     
   47314702.8016377     
   47211733.5813644     
   47106659.5813234     
   46999425.6501352     
   46889977.5297832     
   46778261.9194878     
   46664226.5440613     
   46547820.2267058     
   46428992.9662078     
   46307696.0184841     
   46183881.9824232     
   46057504.8899663     
   45928520.3003566     
   45796885.3984800     
   45662559.0972047     
   45525502.1436182     
   45385677.2290374     
   45243049.1026576     
   45097584.6886846     
   44949253.2067702     
   44798026.2955547     
   44643878.1390940     
   44486785.5959200     
   44326728.3304609     
   44163688.9465184     
   43997653.1224677     
   43828609.7478137     
   43656551.0607114     
   43481472.7860152     
   43303374.2733995     
   43122258.6350486     
   42938132.8823878     
   42751008.0612851     
   42560899.3851274     
   42367826.3651349     
   42171812.9372467     
   41972887.5848860     
   41771083.4568730     
   41566438.4797403     
   41358995.4636755     
   41148802.2012970     
   40935911.5584629     
   40720381.5562964     
   40502275.4436241     
   40281661.7590213     
   40058614.3817022     
   39833212.5705204     
   39605540.9904245     
   39375689.7258156     
   39143754.2803977     
   38909835.5633365     
   38674039.8618459     
   38436478.8007638     
   38197269.2903046     
   37956533.4640699     
   37714398.6106449     
   37470997.1038577     
   37226466.3391425     
   36980948.6864684     
   36734591.4736608     
   36487547.0162451     
   36239972.7062417     
   35992031.1476552     
   35743890.2363182     
   35495722.6990237     
   35247703.2859486     
   35000000.0000000     
   50000000.0000000     
   49931081.3887667     
   49862359.2888245     
   49793748.3510913     
   49725161.2805201     
   49656512.8447106     
   49587720.6670199     
   49518704.9907705     
   49449388.2987544     
   49379694.9692080     
   49309550.9942246     
   49238883.7560207     
   49167621.8495021     
   49095694.9402903     
   49023033.6496574     
   48949569.4600711     
   48875234.6368453     
   48799962.1627356     
   48723685.6832623     
   48646339.4612142     
   48567858.3392446     
   48488177.7097856     
   48407233.4917240     
   48324962.1134255     
   48241300.5017942     
   48156186.0771238     
   48069556.7535433     
   47981350.9448942     
   47891507.5758999     
   47799966.0985067     
   47706666.5132949     
   47611549.3958623     
   47514555.9281037     
   47415627.9343113     
   47314707.9220312     
   47211739.1276209     
   47106665.5664561     
   46999432.0877391     
   46889984.4338665     
   46778269.3043169     
   46664234.4240159     
   46547828.6161389     
   46429001.8793100     
   46307705.4691475     
   46183891.9841052     
   46057515.4555509     
   45928531.4420123     
   45796897.1275130     
   45662571.4239076     
   45525515.0771126     
   45385690.7771101     
   45243063.2715908     
   45097599.4830791     
   44949268.6293616     
   44798042.3470220     
   44643894.8178616     
   44486802.8979507     
   44326746.2490426     
   44163707.4720417     
   43997672.2421944     
   43828629.4456369     
   43656571.3169043     
   43481493.5769676     
   43303395.5713410     
   43122280.4077527     
   42938155.0928553     
   42751030.6674003     
   42560922.3392783     
   42367849.6137898     
   42171836.4204735     
   41972911.2357993     
   41771107.2009900     
   41566462.2342230     
   41359019.1364313     
   41148825.6899089     
   40935934.7489129     
   40720404.3214495     
   40502297.6414352     
   40281683.2304379     
   40058634.9482453     
   39833232.0315493     
   39605559.1201284     
   39375706.2700340     
   39143768.9534579     
   38909848.0452250     
   38674049.7962069     
   38436485.7944694     
   38197272.9156743     
   37956533.2652730     
   37714394.1164188     
   37470987.8494815     
   37226451.9017012     
   36980928.7390173     
   36734565.8663539     
   36487515.8967683     
   36239936.7004601     
   35991991.6392505     
   35743849.8283594     
   35495686.0497036     
   35247678.5104101     
   35000000.0000000     
   50000000.0000000     
   49931068.7207160     
   49862340.4828388     
   49793727.3067808     
   49725140.1466434     
   49656492.7968683     
   49587702.3224684     
   49518688.6264519     
   49449373.9813003     
   49379682.6377869     
   49309540.5151654     
   49238874.9591726     
   49167614.5521317     
   49095688.9622889     
   49023028.8226769     
   48949565.6324679     
   48875231.6757972     
   48799959.9545196     
   48723684.1323978     
   48646338.4889667     
   48567857.8818242     
   48488177.7164635     
   48407233.9230048     
   48324962.9393549     
   48241301.7004430     
   48156187.6332613     
   48069558.6574980     
   47981353.1915879     
   47891510.1640373     
   47799969.0299018     
   47706669.7923121     
   47611553.0289543     
   47514559.9234291     
   47415632.3014160     
   47314712.6715820     
   47211744.2711788     
   47106671.1162808     
   46999438.0566175     
   46889990.8349583     
   46778276.1510133     
   46664241.7298061     
   46547836.3944826     
   46429010.1435118     
   46307714.2322331     
   46183901.2586954     
   46057525.2537339     
   45928541.7752133     
   45796908.0063582     
   45662582.8580851     
   45525527.0752261     
   45385703.3465289     
   45243076.4182918     
   45097613.2114839     
   44949282.9421659     
   44798057.2450195     
   44643910.2997595     
   44486818.9601798     
   44326762.8855587     
   44163724.6741204     
   43997689.9982174     
   43828647.7408698     
   43656590.1332646     
   43481512.8927821     
   43303415.3610891     
   43122300.6417946     
   42938175.7371403     
   42751051.6831484     
   42560943.6826324     
   42367871.2354241     
   42171858.2651516     
   41972933.2418640     
   41771129.2997690     
   41566484.3493290     
   41359041.1829301     
   41148847.5733275     
   40935956.3640557     
   40720425.5509863     
   40502318.3542300     
   40281703.2795877     
   40058654.1688109     
   39833250.2379793     
   39605576.1034132     
   39375721.7946763     
   39143782.7544290     
   38909859.8251908     
   38674059.2234701     
   38436492.5023039     
   38197276.5040364     
   37956533.3062858     
   37714390.1655815     
   37470979.4652867     
   37226438.6773468     
   36980910.3513371     
   36734542.1493609     
   36487486.9512108     
   36239903.0591150     
   35991954.5257019     
   35743811.5912787     
   35495650.9919043     
   35247654.4462588     
   35000000.0000000     
   50000000.0000000     
   49931056.5688478     
   49862322.7467188     
   49793707.6805182     
   49725120.5763987     
   49656474.3242216     
   49587685.4832425     
   49518673.6514453     
   49449360.9145430     
   49379671.4110848     
   49309530.9970220     
   49238866.9872448     
   49167607.9544793     
   49095683.5708217     
   49023024.4811562     
   48949562.2007525     
   48875229.0315670     
   48799957.9933630     
   48723682.7669015     
   48646337.6472489     
   48567857.5058143     
   48488177.7601254     
   48407234.3506256     
   48324963.7239692     
   48241302.8224269     
   48156189.0791069     
   48069560.4187628     
   47981355.2640074     
   47891512.5467821     
   47799971.7249611     
   47706672.8039829     
   47611556.3634211     
   47514563.5884158     
   47415636.3058970     
   47314717.0255402     
   47211748.9854005     
   47106676.2021794     
   46999443.5260777     
   46889996.7001974     
   46778282.4244526     
   46664248.4239510     
   46547843.5218063     
   46429017.7163423     
   46307722.2626398     
   46183909.7583755     
   46057534.2338960     
   45928551.2464580     
   45796917.9785553     
   45662593.3402457     
   45525538.0753700     
   45385714.8715463     
   45243088.4738007     
   45097625.8016797     
   44949296.0696664     
   44798070.9107032     
   44643924.5025981     
   44486833.6970630     
   44326778.1511138     
   44163740.4605245     
   43997706.2950020     
   43828664.5347179     
   43656607.4077993     
   43481530.6283446     
   43303433.5345050     
   43122319.2261264     
   42938194.7014208     
   42751070.9920927     
   42560963.2963191     
   42367891.1089410     
   42171878.3481922     
   41972953.4782635     
   41771149.6269627     
   41566504.6977134     
   41359061.4751035     
   41148867.7231819     
   40935976.2756911     
   40720445.1174142     
   40502337.4558334     
   40281721.7823103     
   40058671.9220548     
   39833267.0722094     
   39605591.8274972     
   39375736.1930354     
   39143795.5841462     
   38909870.8133278     
   38674068.0649938     
   38436498.8592261     
   38197280.0066530     
   37956533.5577750     
   37714386.7517180     
   37470971.9716937     
   37226426.7176054     
   36980893.6105662     
   36734520.4499440     
   36487460.3510201     
   36239872.0003819     
   35991920.0706727     
   35743775.8225400     
   35495617.8108768     
   35247631.2674068     
   35000000.0000000     
   50000000.0000000     
   49931045.0376643     
   49862306.2439954     
   49793689.6377636     
   49725102.7166442     
   49656457.5517153     
   49587670.2530178     
   49518660.1501960     
   49449349.1661479     
   49379661.3424308     
   49309522.4810718     
   49238859.8715151     
   49167602.0796162     
   49095678.7822851     
   49023020.6360980     
   48949559.1715868     
   48875226.7073229     
   48799956.2796109     
   48723681.5848140     
   48646336.9321895     
   48567857.2057203     
   48488177.8338565     
   48407234.7663866     
   48324964.4578643     
   48241303.8571760     
   48156190.4029299     
   48069562.0244255     
   47981357.1480188     
   47891514.7087228     
   47799974.1669280     
   47706675.5301301     
   47611559.3795827     
   47514566.9017940     
   47415639.9248035     
   47314720.9591805     
   47211753.2436915     
   47106680.7955913     
   46999448.4654964     
   46890001.9968003     
   46778288.0895946     
   46664254.4690570     
   46547849.9582679     
   46429024.5554168     
   46307729.5153488     
   46183917.4354029     
   46057542.3454842     
   45928559.8023003     
   45796926.9876856     
   45662602.8109237     
   45525548.0149617     
   45385725.2864002     
   45243099.3691183     
   45097637.1813811     
   44949307.9362503     
   44798083.2651010     
   44643937.3440228     
   44486847.0228523     
   44326791.9565667     
   44163754.7387323     
   43997721.0366725     
   43828679.7279930     
   43656623.0380640     
   43481546.6780283     
   43303449.9828714     
   43122336.0490506     
   42938211.8711509     
   42751088.4769905     
   42560981.0605757     
   42367909.1122578     
   42171896.5454201     
   41972971.8189863     
   41771168.0550112     
   41566523.1505917     
   41359079.8833047     
   41148886.0093706     
   40935994.3537227     
   40720462.8911617     
   40502354.8177907     
   40281738.6119450     
   40058688.0838895     
   39833282.4136282     
   39605606.1762975     
   39375749.3547884     
   39143807.3394919     
   38909880.9154250     
   38674076.2374735     
   38436504.7951838     
   38197283.3694631     
   37956533.9848434     
   37714383.8627351     
   37470965.3835326     
   37226416.0688109     
   36980878.5995164     
   36734500.8925956     
   36487436.2674678     
   36239843.7464359     
   35991888.5483568     
   35743742.8412118     
   35495586.8281392     
   35247609.1808788     
   35000000.0000000     
   50000000.0000000     
   49931034.2520689     
   49862291.1578956     
   49793673.3541890     
   49725086.7187619     
   49656442.6056583     
   49587656.7348693     
   49518648.2054002     
   49449338.8013913     
   49379652.4824610     
   49309515.0058166     
   49238853.6405462     
   49167596.9480478     
   49095674.6107096     
   49023017.2963643     
   48949556.5497224     
   48875224.7045497     
   48799954.8121393     
   48723680.5829053     
   48646336.3388272     
   48567856.9751185     
   48488177.9299565     
   48407235.1614289     
   48324965.1310887     
   48241304.7936703     
   48156191.5926340     
   48069563.4612824     
   47981358.8292598     
   47891516.6342750     
   47799976.3389212     
   47706677.9524933     
   47611562.0577112     
   47514569.8422757     
   47415643.1351923     
   47314724.4478075     
   47211757.0195047     
   47106684.8680185     
   46999452.8443244     
   46890006.6920663     
   46778293.1114873     
   46664259.8278219     
   46547855.6641175     
   46429030.6184413     
   46307735.9454276     
   46183924.2421151     
   46057549.5380166     
   45928567.3893532     
   45796934.9773754     
   45662611.2106817     
   45525556.8314284     
   45385734.5253159     
   45243109.0352089     
   45097647.2782390     
   44949318.4662106     
   44798094.2291132     
   44643948.7415159     
   44486858.8515969     
   44326804.2125303     
   44163767.4159299     
   43997734.1270110     
   43828693.2211102     
   43656636.9211603     
   43481560.9356907     
   43303464.5968883     
   43122350.9982160     
   42938227.1310538     
   42751104.0197870     
   42560996.8547387     
   42367925.1222965     
   42171912.7315628     
   41972988.1368136     
   41771184.4550285     
   41566539.5777230     
   41359096.2762895     
   41148902.3000405     
   40936010.4661328     
   40720478.7405495     
   40502370.3093330     
   40281753.6392884     
   40058702.5274331     
   39833296.1385527     
   39605619.0303546     
   39375761.1659030     
   39143817.9132823     
   38909890.0328268     
   38674083.6527707     
   38436510.2349057     
   38197286.5328296     
   37956534.5467273     
   37714381.4805007     
   37470959.7096184     
   37226406.7716113     
   36980865.3961051     
   36734483.5983966     
   36487414.8709380     
   36239818.5227427     
   35991860.2428298     
   35743712.9879364     
   35495558.4060986     
   35247588.4357871     
   35000000.0000000     
   50000000.0000000     
   49931024.3633084     
   49862277.6934565     
   49793659.0152552     
   49725072.7382368     
   49656429.6132988     
   49587645.0308788     
   49518637.8976681     
   49449329.8828712     
   49379644.8788743     
   49309508.6067784     
   49238848.3200169     
   49167592.5775763     
   49095671.0676496     
   49023014.4685880     
   48949554.3379332     
   48875223.0229968     
   48799953.5883161     
   48723679.7566461     
   48646335.8610890     
   48567856.8066423     
   48488178.0399308     
   48407235.5262300     
   48324965.7331406     
   48241305.6204390     
   48156192.6357586     
   48069564.7158391     
   47981360.2931433     
   47891518.3076848     
   47799978.2239383     
   47706680.0527323     
   47611564.3780345     
   47514572.3885598     
   47415645.9141333     
   47314727.4667601     
   47211760.2863458     
   47106688.3910301     
   46999456.6320908     
   46890010.7533821     
   46778297.4552720     
   46664264.4630404     
   46547860.5997024     
   46429035.8632171     
   46307741.5080350     
   46183930.1309335     
   46057555.7610861     
   45928573.9542932     
   45796941.8913006     
   45662618.4801150     
   45525564.4622104     
   45385742.5225099     
   45243117.4030031     
   45097656.0198430     
   44949327.5837490     
   44798103.7235148     
   44643958.6123975     
   44486869.0971440     
   44326814.8293722     
   44163778.3990109     
   43997745.4694565     
   43828704.9140875     
   43656648.9537338     
   43481573.2946699     
   43303477.2666696     
   43122363.9606130     
   42938240.3651170     
   42751117.5016085     
   42561010.5572367     
   42367939.0149755     
   42171926.7802407     
   41973002.3033080     
   41771198.6967888     
   41566553.8473958     
   41359110.5211992     
   41148916.4615664     
   40936024.4789586     
   40720492.5317618     
   40502383.7973436     
   40281766.7325551     
   40058715.1229612     
   39833308.1201682     
   39605630.2667588     
   39375771.5085481     
   39143827.1941554     
   38909898.0622955     
   38674090.2177432     
   38436515.0976932     
   38197289.4312857     
   37956535.1964880     
   37714379.5804744     
   37470954.9523118     
   37226398.8604514     
   36980854.0727520     
   36734468.6843245     
   36487396.3301281     
   36239796.5572061     
   35991835.4472196     
   35743686.6241191     
   35495532.9524387     
   35247569.3355287     
   35000000.0000000     
   50000000.0000000     
   49931015.5572032     
   49862266.0790979     
   49793646.8153485     
   49725060.9341813     
   49656418.7023154     
   49587635.2417035     
   49518629.3051612     
   49449322.4702004     
   49379638.5761762     
   49309503.3162875     
   49238843.9325491     
   49167588.9831608     
   49095668.1620719     
   49023012.1570866     
   48949552.5369481     
   48875221.6606273     
   48799952.6039633     
   48723679.1001797     
   48646335.4917717     
   48567856.6919690     
   48488178.1544817     
   48407235.8505986     
   48324966.2529670     
   48241306.3255604     
   48156193.5194803     
   48069565.7743152     
   47981361.5248605     
   47891519.7130337     
   47799979.8048605     
   47706681.8124322     
   47611566.3207420     
   47514574.5193368     
   47415648.2387137     
   47314729.9914165     
   47211763.0177779     
   47106691.3362674     
   46999459.7984088     
   46890014.1482264     
   46778301.0861882     
   46664268.3376080     
   46547864.7254714     
   46429040.2476453     
   46307746.1584247     
   46183935.0543683     
   46057560.9643651     
   45928579.4438640     
   45796947.6731898     
   45662624.5598552     
   45525570.8447647     
   45385749.2121935     
   45243124.4034007     
   45097663.3337239     
   44949335.2129775     
   44798111.6689574     
   44643966.8738272     
   44486877.6731396     
   44326823.7172149     
   44163787.5945768     
   43997754.9671047     
   43828714.7065444     
   43656659.0319721     
   43481583.6477831     
   43303487.8817393     
   43122374.8225690     
   42938251.4565869     
   42751128.8027560     
   42561022.0455831     
   42367950.6652009     
   42171938.5639580     
   41973014.1888026     
   41771210.6487145     
   41566565.8264130     
   41359122.4835443     
   41148928.3585325     
   40936036.2562699     
   40720504.1288206     
   40502395.1463264     
   40281777.7573388     
   40058725.7378597     
   39833318.2284716     
   39605639.7590796     
   39375780.2610050     
   39143835.0664617     
   38909904.8958746     
   38674095.8340759     
   38436519.2972108     
   38197291.9932783     
   37956535.8806996     
   37714378.1313291     
   37470951.1070651     
   37226392.3630336     
   36980844.6957401     
   36734456.2625069     
   36487380.8111718     
   36239778.0791426     
   35991814.4627657     
   35743664.1302214     
   35495510.9234119     
   35247552.2546640     
   35000000.0000000     
   50000000.0000000     
   49931008.0657545     
   49862256.5668383     
   49793636.9565509     
   49725051.4688264     
   49656410.0002051     
   49587627.4661165     
   49518622.5032033     
   49449316.6196849     
   49379633.6154141     
   49309499.1632650     
   49238840.4975317     
   49167586.1767765     
   49095665.9002448     
   49023010.3637753     
   48949551.1453846     
   48875220.6135678     
   48799951.8533202     
   48723678.6062967     
   48646335.2225239     
   48567856.6218080     
   48488178.2635024     
   48407236.1236720     
   48324966.6789621     
   48241306.8966645     
   48156194.2306155     
   48069566.6226466     
   47981362.5093854     
   47891520.8342423     
   47799981.0644574     
   47706683.2131084     
   47611567.8659890     
   47514576.2132941     
   47415650.0860436     
   47314731.9972000     
   47211765.1874267     
   47106693.6754489     
   46999462.3129804     
   46890016.8441755     
   46778303.9695782     
   46664271.4145266     
   46547868.0019806     
   46429043.7297318     
   46307749.8519512     
   46183938.9650227     
   46057565.0976096     
   45928583.8048816     
   45796952.2668292     
   45662629.3905739     
   45525575.9165688     
   45385754.5285754     
   45243129.9672746     
   45097669.1473573     
   44949341.2779212     
   44798117.9859717     
   44643973.4428058     
   44486884.4930303     
   44326830.7859372     
   44163794.9089371     
   43997762.5227073     
   43828722.4977003     
   43656667.0516033     
   43481591.8873234     
   43303496.3310290     
   43122383.4697451     
   42938260.2879644     
   42751137.8027004     
   42561031.1963699     
   42367959.9468594     
   42171947.9540933     
   41973023.6623912     
   41771220.1778645     
   41566575.3800795     
   41359132.0271890     
   41148937.8537142     
   40936045.6601487     
   40720513.3935603     
   40502404.2183762     
   40281786.5765764     
   40058734.2365806     
   39833326.3302157     
   39605647.3772972     
   39375787.2975825     
   39143841.4101572     
   38909910.4207553     
   38674100.3981138     
   38436522.7412794     
   38197294.1409106     
   37956536.5391328     
   37714377.0945650     
   37470948.1619551     
   37226387.2997564     
   36980837.3245454     
   36734446.4394198     
   36487368.4767026     
   36239763.3180474     
   35991797.5978099     
   35743645.9033093     
   35495492.8243772     
   35247537.6627118     
   35000000.0000000     
   50000000.0000000     
   49931002.1838247     
   49862249.4296298     
   49793629.6474537     
   49725044.5069140     
   49656403.6335693     
   49587621.8005278     
   49518617.5638586     
   49449312.3839888     
   49379630.0339004     
   49309496.1729992     
   49238838.0309408     
   49167584.1672721     
   49095664.2856268     
   49023009.0880813     
   48949550.1596840     
   48875219.8760611     
   48799951.3290093     
   48723678.2664105     
   48646335.0438293     
   48567856.5858911     
   48488178.3560712     
   48407236.3339134     
   48324966.9989685     
   48241307.3209339     
   48156194.7556242     
   48069567.2464903     
   47981363.2314797     
   47891521.6550765     
   47799981.9853927     
   47706684.2362126     
   47611568.9939031     
   47514577.4491218     
   47415651.4332618     
   47314733.4595837     
   47211766.7689862     
   47106695.3803762     
   46999464.1456014     
   46890018.8089082     
   46778306.0708931     
   46664273.6569096     
   46547870.3898973     
   46429046.2675923     
   46307752.5440738     
   46183941.8155984     
   46057568.1106642     
   45928586.9842380     
   45796955.6160668     
   45662632.9129873     
   45525579.6151245     
   45385758.4058665     
   45243134.0254734     
   45097673.3881661     
   44949345.7025211     
   44798122.5949695     
   44643978.2361776     
   44486889.4700645     
   44326835.9451750     
   44163800.2481095     
   43997768.0386721     
   43828728.1863749     
   43656672.9078951     
   43481597.9050582     
   43303502.5028748     
   43122389.7871324     
   42938266.7410004     
   42751144.3800766     
   42561037.8852613     
   42367966.7328108     
   42171954.8208921     
   41973030.5919190     
   41771227.1499239     
   41566582.3721892     
   41359139.0143373     
   41148944.8080616     
   40936052.5506690     
   40720520.1856049     
   40502410.8731509     
   40281793.0505141     
   40058740.4806000     
   39833332.2888576     
   39605652.9877373     
   39375792.4885346     
   39143846.1006996     
   38909914.5191453     
   38674103.8006973     
   38436525.3316683     
   38197295.7896845     
   37956537.1044350     
   37714376.4241173     
   37470946.0972040     
   37226383.6831321     
   36980832.0111393     
   36734439.3150198     
   36487359.4848777     
   36239752.5021510     
   35991785.1665856     
   35743632.3546872     
   35495479.2044716     
   35247526.1583199     
   35000000.0000000     
   50000000.0000000     
   49930998.2935218     
   49862244.9530039     
   49793625.1031987     
   49725040.2146079     
   49656399.7274109     
   49587618.3384625     
   49518614.5554859     
   49449309.8117880     
   49379627.8649261     
   49309494.3669183     
   49238836.5451578     
   49167582.9602272     
   49095663.3187554     
   49023008.3268598     
   48949549.5740487     
   48875219.4404200     
   48799951.0220030     
   48723678.0705345     
   48646334.9449931     
   48567856.5729639     
   48488178.4204471     
   48407236.4691115     
   48324967.2002784     
   48241307.5851077     
   48156195.0806142     
   48069567.6312293     
   47981363.6756981     
   47891522.1591527     
   47799982.5502295     
   47706684.8631383     
   47611569.6845895     
   47514578.2055184     
   47415652.2575412     
   47314734.3540968     
   47211767.7362245     
   47106696.4229389     
   46999465.2661678     
   46890020.0102115     
   46778307.3556973     
   46664275.0279868     
   46547871.8500063     
   46429047.8194571     
   46307754.1903621     
   46183943.5588995     
   46057569.9534669     
   45928588.9289062     
   45796957.6648164     
   45662635.0678600     
   45525581.8779621     
   45385760.7782826     
   45243136.5088253     
   45097675.9835241     
   44949348.4106376     
   44798125.4162462     
   44643981.1706321     
   44486892.5172944     
   44326839.1043220     
   44163803.5178213     
   43997771.4170633     
   43828731.6709868     
   43656676.4956531     
   43481601.5922275     
   43303506.2850152     
   43122393.6590490     
   42938270.6966919     
   42751148.4126795     
   42561041.9869881     
   42367970.8948823     
   42171959.0334591     
   41973034.8439733     
   41771231.4291938     
   41566586.6650142     
   41359143.3055193     
   41148949.0806845     
   40936056.7858791     
   40720524.3623465     
   40502414.9678452     
   40281797.0366750     
   40058744.3283790     
   39833335.9645093     
   39605656.4530086     
   39375795.6999810     
   39143849.0089479     
   38909917.0681413     
   38674105.9269994     
   38436526.9638912     
   38197296.8482423     
   37956537.5018090     
   37714376.0659556     
   37470944.8846895     
   37226381.5171810     
   36980828.7992662     
   36734434.9818265     
   36487353.9883133     
   36239745.8569983     
   35991777.4870267     
   35743623.9100336     
   35495470.6396906     
   35247518.5191984     
   35000000.0000000     
   50000000.0000000     
   49930996.9004010     
   49862243.4159359     
   49793623.5496181     
   49725038.7566694     
   49656398.4049565     
   49587617.1698036     
   49518613.5423417     
   49449308.9473855     
   49379627.1374748     
   49309493.7623541     
   49238836.0487855     
   49167582.5578082     
   49095662.9971375     
   49023008.0743107     
   48949549.3803809     
   48875219.2969829     
   48799950.9215935     
   48723678.0072627     
   48646334.9141286     
   48567856.5707791     
   48488178.4440679     
   48407236.5163813     
   48324967.2696364     
   48241307.6754854     
   48156195.1913461     
   48069567.7619785     
   47981363.8263951     
   47891522.3299441     
   47799982.7414378     
   47706685.0752272     
   47611569.9181378     
   47514578.4611969     
   47415652.5360951     
   47314734.6563305     
   47211768.0629890     
   47106696.7751211     
   46999465.6446806     
   46890020.4159862     
   46778307.7896745     
   46664275.4911101     
   46547872.3432143     
   46429048.3436768     
   46307754.7465009     
   46183944.1478387     
   46057570.5760533     
   45928589.5859451     
   45796958.3570628     
   45662635.7960100     
   45525582.6426446     
   45385761.5800495     
   45243137.3481419     
   45097676.8607592     
   44949349.3260525     
   44798126.3699841     
   44643982.1627066     
   44486893.5475775     
   44326840.1725319     
   44163804.6235097     
   43997772.5596022     
   43828732.8495544     
   43656677.7092204     
   43481602.8395429     
   43303507.5645889     
   43122394.9691372     
   42938272.0352790     
   42751149.7774593     
   42561043.3753433     
   42367972.3038616     
   42171960.4597511     
   41973036.2838768     
   41771232.8785821     
   41566588.1192941     
   41359144.7595802     
   41148950.5288380     
   40936058.2217856     
   40720525.7789254     
   40502416.3571668     
   40281798.3898307     
   40058745.6353263     
   39833337.2138910     
   39605657.6319440     
   39375796.7938319     
   39143850.0010654     
   38909917.9396045     
   38674106.6563676     
   38436527.5270030     
   38197297.2181108     
   37956537.6486888     
   37714375.9576820     
   37470944.4874391     
   37226380.7968263     
   36980827.7236438     
   36734433.5241025     
   36487352.1325415     
   36239743.6050923     
   35991774.8750430     
   35743621.0178779     
   35495467.6939917     
   35247515.7762185     
   35000000.0000000     
VECTORS u double 
    0.00000E+00         0.00000E+00         0.00000E+00
    0.00000E+00         0.00000E+00         0.00000E+00
    0.00000E+00         0.00000E+00         0.00000E+00
    0.00000E+00         0.00000E+00         0.00000E+00
    0.00000E+00         0.00000E+00         0.00000E+00
    0.00000E+00         0.00000E+00         0.00000E+00
    0.00000E+00         0.00000E+00         0.00000E+00
    0.00000E+00         0.00000E+00         0.00000E+00
    0.00000E+00         0.00000E+00         0.00000E+00
    0.00000E+00         0.00000E+00         0.00000E+00
    0.00000E+00         0.00000E+00         0.00000E+00
    0.00000E+00         0.00000E+00         0.00000E+00
    0.00000E+00         0.00000E+00         0.00000E+00
    0.00000E+00         0.00000E+00         0.00000E+00
    0.00000E+00         0.00000E+00         0.00000E+00
    0.00000E+00         0.00000E+00         0.00000E+00
    0.00000E+00         0.00000E+00         0.00000E+00
    0.00000E+00         0.00000E+00         0.00000E+00
    0.00000E+00         0.00000E+00         0.00000E+00
    0.00000E+00         0.00000E+00         0.00000E+00
    0.00000E+00         0.00000E+00         0.00000E+00
    0.00000E+00         0.00000E+00         0.00000E+00
    0.00000E+00         0.00000E+00         0.00000E+00
    0.00000E+00         0.00000E+00         0.00000E+00
    0.00000E+00         0.00000E+00         0.00000E+00
    0.00000E+00         0.00000E+00         0.00000E+00
    0.00000E+00         0.00000E+00         0.00000E+00
    0.00000E+00         0.00000E+00         0.00000E+00
    0.00000E+00         0.00000E+00         0.00000E+00
    0.00000E+00         0.00000E+00         0.00000E+00
    0.00000E+00         0.00000E+00         0.00000E+00
    0.00000E+00         0.00000E+00         0.00000E+00
    0.00000E+00         0.00000E+00         0.00000E+00
    0.00000E+00         0.00000E+00         0.00000E+00
    0.00000E+00         0.00000E+00         0.00000E+00
    0.00000E+00         0.00000E+00         0.00000E+00
    0.00000E+00         0.00000E+00         0.00000E+00
    0.00000E+00         0.00000E+00         0.00000E+00
    0.00000E+00         0.00000E+00         0.00000E+00
    0.00000E+00         0.00000E+00         0.00000E+00
    0.00000E+00         0.00000E+00         0.00000E+00
    0.00000E+00         0.00000E+00         0.00000E+00
    0.00000E+00         0.00000E+00         0.00000E+00
    0.00000E+00         0.00000E+00         0.00000E+00
    0.00000E+00         0.00000E+00         0.00000E+00
    0.00000E+00         0.00000E+00         0.00000E+00
    0.00000E+00         0.00000E+00         0.00000E+00
    0.00000E+00         0.00000E+00         0.00000E+00
    0.00000E+00         0.00000E+00         0.00000E+00
    0.00000E+00         0.00000E+00         0.00000E+00
    0.00000E+00         0.00000E+00         0.00000E+00
    0.00000E+00         0.00000E+00         0.00000E+00
    0.00000E+00         0.00000E+00         0.00000E+00
    0.00000E+00         0.00000E+00         0.00000E+00
    0.00000E+00         0.00000E+00         0.00000E+00
    0.00000E+00         0.00000E+00         0.00000E+00
    0.00000E+00         0.00000E+00         0.00000E+00
    0.00000E+00         0.00000E+00         0.00000E+00
    0.00000E+00         0.00000E+00         0.00000E+00
    0.00000E+00         0.00000E+00         0.00000E+00
    0.00000E+00         0.00000E+00         0.00000E+00
    0.00000E+00         0.00000E+00         0.00000E+00
    0.00000E+00         0.00000E+00         0.00000E+00
    0.00000E+00         0.00000E+00         0.00000E+00
    0.00000E+00         0.00000E+00         0.00000E+00
    0.00000E+00         0.00000E+00         0.00000E+00
    0.00000E+00         0.00000E+00         0.00000E+00
    0.00000E+00         0.00000E+00         0.00000E+00
    0.00000E+00         0.00000E+00         0.00000E+00
    0.00000E+00         0.00000E+00         0.00000E+00
    0.00000E+00         0.00000E+00         0.00000E+00
    0.00000E+00         0.00000E+00         0.00000E+00
    0.00000E+00         0.00000E+00         0.00000E+00
    0.00000E+00         0.00000E+00         0.00000E+00
    0.00000E+00         0.00000E+00         0.00000E+00
    0.00000E+00         0.00000E+00         0.00000E+00
    0.00000E+00         0.00000E+00         0.00000E+00
    0.00000E+00         0.00000E+00         0.00000E+00
    0.00000E+00         0.00000E+00         0.00000E+00
    0.00000E+00         0.00000E+00         0.00000E+00
    0.00000E+00         0.00000E+00         0.00000E+00
    0.00000E+00         0.00000E+00         0.00000E+00
    0.00000E+00         0.00000E+00         0.00000E+00
    0.00000E+00         0.00000E+00         0.00000E+00
    0.00000E+00         0.00000E+00         0.00000E+00
    0.00000E+00         0.00000E+00         0.00000E+00
    0.00000E+00         0.00000E+00         0.00000E+00
    0.00000E+00         0.00000E+00         0.00000E+00
    0.00000E+00         0.00000E+00         0.00000E+00
    0.00000E+00         0.00000E+00         0.00000E+00
    0.00000E+00         0.00000E+00         0.00000E+00
    0.00000E+00         0.00000E+00         0.00000E+00
    0.00000E+00         0.00000E+00         0.00000E+00
    0.00000E+00         0.00000E+00         0.00000E+00
    0.00000E+00         0.00000E+00         0.00000E+00
    0.00000E+00         0.00000E+00         0.00000E+00
    0.00000E+00         0.00000E+00         0.00000E+00
    0.00000E+00         0.00000E+00         0.00000E+00
    0.00000E+00         0.00000E+00         0.00000E+00
    0.00000E+00         0.00000E+00         0.00000E+00
    0.00000E+00         0.00000E+00         0.00000E+00
    0.00000E+00         0.95367E-05         0.00000E+00
    0.18318E-04         0.80532E-05         0.00000E+00
    0.30080E-04         0.48256E-05         0.00000E+00
    0.39769E-04         0.87774E-06         0.00000E+00
    0.48060E-04        -0.38558E-05         0.00000E+00
    0.55462E-04        -0.92010E-05         0.00000E+00
    0.62236E-04        -0.15053E-04         0.00000E+00
    0.68547E-04        -0.21293E-04         0.00000E+00
    0.74491E-04        -0.27825E-04         0.00000E+00
    0.80130E-04        -0.34565E-04         0.00000E+00
    0.85501E-04        -0.41445E-04         0.00000E+00
    0.90630E-04        -0.48416E-04         0.00000E+00
    0.95537E-04        -0.55440E-04         0.00000E+00
    0.10024E-03        -0.62493E-04         0.00000E+00
    0.10474E-03        -0.69558E-04         0.00000E+00
    0.10908E-03        -0.76628E-04         0.00000E+00
    0.11325E-03        -0.83701E-04         0.00000E+00
    0.11728E-03        -0.90778E-04         0.00000E+00
    0.12118E-03        -0.97865E-04         0.00000E+00
    0.12497E-03        -0.10497E-03         0.00000E+00
    0.12867E-03        -0.11210E-03         0.00000E+00
    0.13229E-03        -0.11927E-03         0.00000E+00
    0.13584E-03        -0.12648E-03         0.00000E+00
    0.13935E-03        -0.13376E-03         0.00000E+00
    0.14282E-03        -0.14110E-03         0.00000E+00
    0.14627E-03        -0.14852E-03         0.00000E+00
    0.14971E-03        -0.15603E-03         0.00000E+00
    0.15315E-03        -0.16364E-03         0.00000E+00
    0.15659E-03        -0.17136E-03         0.00000E+00
    0.16005E-03        -0.17920E-03         0.00000E+00
    0.16354E-03        -0.18716E-03         0.00000E+00
    0.16705E-03        -0.19526E-03         0.00000E+00
    0.17059E-03        -0.20351E-03         0.00000E+00
    0.17418E-03        -0.21190E-03         0.00000E+00
    0.17780E-03        -0.22046E-03         0.00000E+00
    0.18148E-03        -0.22918E-03         0.00000E+00
    0.18520E-03        -0.23807E-03         0.00000E+00
    0.18896E-03        -0.24714E-03         0.00000E+00
    0.19278E-03        -0.25640E-03         0.00000E+00
    0.19665E-03        -0.26585E-03         0.00000E+00
    0.20057E-03        -0.27550E-03         0.00000E+00
    0.20454E-03        -0.28535E-03         0.00000E+00
    0.20856E-03        -0.29541E-03         0.00000E+00
    0.21263E-03        -0.30569E-03         0.00000E+00
    0.21674E-03        -0.31618E-03         0.00000E+00
    0.22090E-03        -0.32691E-03         0.00000E+00
    0.22509E-03        -0.33786E-03         0.00000E+00
    0.22932E-03        -0.34905E-03         0.00000E+00
    0.23359E-03        -0.36048E-03         0.00000E+00
    0.23788E-03        -0.37216E-03         0.00000E+00
    0.24220E-03        -0.38409E-03         0.00000E+00
    0.24654E-03        -0.39627E-03         0.00000E+00
    0.25089E-03        -0.40870E-03         0.00000E+00
    0.25524E-03        -0.42141E-03         0.00000E+00
    0.25960E-03        -0.43438E-03         0.00000E+00
    0.26394E-03        -0.44762E-03         0.00000E+00
    0.26828E-03        -0.46113E-03         0.00000E+00
    0.27258E-03        -0.47493E-03         0.00000E+00
    0.27685E-03        -0.48901E-03         0.00000E+00
    0.28108E-03        -0.50337E-03         0.00000E+00
    0.28524E-03        -0.51803E-03         0.00000E+00
    0.28934E-03        -0.53297E-03         0.00000E+00
    0.29336E-03        -0.54822E-03         0.00000E+00
    0.29727E-03        -0.56377E-03         0.00000E+00
    0.30107E-03        -0.57963E-03         0.00000E+00
    0.30474E-03        -0.59579E-03         0.00000E+00
    0.30826E-03        -0.61227E-03         0.00000E+00
    0.31161E-03        -0.62907E-03         0.00000E+00
    0.31476E-03        -0.64620E-03         0.00000E+00
    0.31769E-03        -0.66365E-03         0.00000E+00
    0.32037E-03        -0.68144E-03         0.00000E+00
    0.32278E-03        -0.69957E-03         0.00000E+00
    0.32488E-03        -0.71805E-03         0.00000E+00
    0.32663E-03        -0.73689E-03         0.00000E+00
    0.32800E-03        -0.75608E-03         0.00000E+00
    0.32895E-03        -0.77566E-03         0.00000E+00
    0.32944E-03        -0.79561E-03         0.00000E+00
    0.32941E-03        -0.81595E-03         0.00000E+00
    0.32881E-03        -0.83670E-03         0.00000E+00
    0.32761E-03        -0.85786E-03         0.00000E+00
    0.32573E-03        -0.87943E-03         0.00000E+00
    0.32312E-03        -0.90143E-03         0.00000E+00
    0.31972E-03        -0.92386E-03         0.00000E+00
    0.31548E-03        -0.94672E-03         0.00000E+00
    0.31034E-03        -0.97000E-03         0.00000E+00
    0.30423E-03        -0.99369E-03         0.00000E+00
    0.29711E-03        -0.10178E-02         0.00000E+00
    0.28892E-03        -0.10422E-02         0.00000E+00
    0.27961E-03        -0.10668E-02         0.00000E+00
    0.26915E-03        -0.10916E-02         0.00000E+00
    0.25748E-03        -0.11165E-02         0.00000E+00
    0.24454E-03        -0.11412E-02         0.00000E+00
    0.23028E-03        -0.11656E-02         0.00000E+00
    0.21457E-03        -0.11894E-02         0.00000E+00
    0.19721E-03        -0.12121E-02         0.00000E+00
    0.17788E-03        -0.12335E-02         0.00000E+00
    0.15603E-03        -0.12531E-02         0.00000E+00
    0.13073E-03        -0.12705E-02         0.00000E+00
    0.10019E-03        -0.12850E-02         0.00000E+00
    0.62016E-04        -0.12968E-02         0.00000E+00
    0.00000E+00        -0.13022E-02         0.00000E+00
    0.00000E+00         0.17229E-04         0.00000E+00
    0.34865E-04         0.14667E-04         0.00000E+00
    0.58731E-04         0.86460E-05         0.00000E+00
    0.78151E-04         0.86704E-06         0.00000E+00
    0.94850E-04        -0.84784E-05         0.00000E+00
    0.10974E-03        -0.19102E-04         0.00000E+00
    0.12336E-03        -0.30752E-04         0.00000E+00
    0.13603E-03        -0.43195E-04         0.00000E+00
    0.14795E-03        -0.56226E-04         0.00000E+00
    0.15925E-03        -0.69677E-04         0.00000E+00
    0.17000E-03        -0.83413E-04         0.00000E+00
    0.18025E-03        -0.97332E-04         0.00000E+00
    0.19005E-03        -0.11136E-03         0.00000E+00
    0.19942E-03        -0.12544E-03         0.00000E+00
    0.20841E-03        -0.13956E-03         0.00000E+00
    0.21705E-03        -0.15368E-03         0.00000E+00
    0.22536E-03        -0.16781E-03         0.00000E+00
    0.23338E-03        -0.18195E-03         0.00000E+00
    0.24115E-03        -0.19611E-03         0.00000E+00
    0.24870E-03        -0.21031E-03         0.00000E+00
    0.25606E-03        -0.22457E-03         0.00000E+00
    0.26327E-03        -0.23889E-03         0.00000E+00
    0.27034E-03        -0.25332E-03         0.00000E+00
    0.27733E-03        -0.26786E-03         0.00000E+00
    0.28424E-03        -0.28254E-03         0.00000E+00
    0.29110E-03        -0.29738E-03         0.00000E+00
    0.29795E-03        -0.31240E-03         0.00000E+00
    0.30478E-03        -0.32762E-03         0.00000E+00
    0.31164E-03        -0.34306E-03         0.00000E+00
    0.31852E-03        -0.35874E-03         0.00000E+00
    0.32545E-03        -0.37467E-03         0.00000E+00
    0.33244E-03        -0.39088E-03         0.00000E+00
    0.33950E-03        -0.40737E-03         0.00000E+00
    0.34663E-03        -0.42416E-03         0.00000E+00
    0.35385E-03        -0.44127E-03         0.00000E+00
    0.36115E-03        -0.45872E-03         0.00000E+00
    0.36855E-03        -0.47651E-03         0.00000E+00
    0.37605E-03        -0.49465E-03         0.00000E+00
    0.38365E-03        -0.51317E-03         0.00000E+00
    0.39135E-03        -0.53208E-03         0.00000E+00
    0.39915E-03        -0.55138E-03         0.00000E+00
    0.40705E-03        -0.57109E-03         0.00000E+00
    0.41505E-03        -0.59122E-03         0.00000E+00
    0.42314E-03        -0.61178E-03         0.00000E+00
    0.43132E-03        -0.63278E-03         0.00000E+00
    0.43959E-03        -0.65423E-03         0.00000E+00
    0.44794E-03        -0.67614E-03         0.00000E+00
    0.45636E-03        -0.69852E-03         0.00000E+00
    0.46485E-03        -0.72139E-03         0.00000E+00
    0.47339E-03        -0.74474E-03         0.00000E+00
    0.48198E-03        -0.76860E-03         0.00000E+00
    0.49061E-03        -0.79296E-03         0.00000E+00
    0.49926E-03        -0.81784E-03         0.00000E+00
    0.50793E-03        -0.84324E-03         0.00000E+00
    0.51660E-03        -0.86918E-03         0.00000E+00
    0.52524E-03        -0.89566E-03         0.00000E+00
    0.53386E-03        -0.92269E-03         0.00000E+00
    0.54243E-03        -0.95028E-03         0.00000E+00
    0.55092E-03        -0.97843E-03         0.00000E+00
    0.55933E-03        -0.10072E-02         0.00000E+00
    0.56762E-03        -0.10365E-02         0.00000E+00
    0.57577E-03        -0.10663E-02         0.00000E+00
    0.58376E-03        -0.10968E-02         0.00000E+00
    0.59155E-03        -0.11279E-02         0.00000E+00
    0.59911E-03        -0.11596E-02         0.00000E+00
    0.60641E-03        -0.11919E-02         0.00000E+00
    0.61341E-03        -0.12249E-02         0.00000E+00
    0.62007E-03        -0.12585E-02         0.00000E+00
    0.62633E-03        -0.12927E-02         0.00000E+00
    0.63216E-03        -0.13276E-02         0.00000E+00
    0.63750E-03        -0.13631E-02         0.00000E+00
    0.64229E-03        -0.13994E-02         0.00000E+00
    0.64646E-03        -0.14363E-02         0.00000E+00
    0.64995E-03        -0.14739E-02         0.00000E+00
    0.65268E-03        -0.15123E-02         0.00000E+00
    0.65457E-03        -0.15514E-02         0.00000E+00
    0.65552E-03        -0.15912E-02         0.00000E+00
    0.65546E-03        -0.16319E-02         0.00000E+00
    0.65428E-03        -0.16733E-02         0.00000E+00
    0.65187E-03        -0.17155E-02         0.00000E+00
    0.64812E-03        -0.17586E-02         0.00000E+00
    0.64292E-03        -0.18026E-02         0.00000E+00
    0.63615E-03        -0.18473E-02         0.00000E+00
    0.62769E-03        -0.18930E-02         0.00000E+00
    0.61742E-03        -0.19394E-02         0.00000E+00
    0.60522E-03        -0.19867E-02         0.00000E+00
    0.59100E-03        -0.20347E-02         0.00000E+00
    0.57462E-03        -0.20834E-02         0.00000E+00
    0.55601E-03        -0.21326E-02         0.00000E+00
    0.53506E-03        -0.21822E-02         0.00000E+00
    0.51167E-03        -0.22318E-02         0.00000E+00
    0.48573E-03        -0.22811E-02         0.00000E+00
    0.45708E-03        -0.23298E-02         0.00000E+00
    0.42549E-03        -0.23771E-02         0.00000E+00
    0.39054E-03        -0.24225E-02         0.00000E+00
    0.35159E-03        -0.24651E-02         0.00000E+00
    0.30752E-03        -0.25040E-02         0.00000E+00
    0.25648E-03        -0.25382E-02         0.00000E+00
    0.19523E-03        -0.25668E-02         0.00000E+00
    0.11762E-03        -0.25888E-02         0.00000E+00
    0.00000E+00        -0.25982E-02         0.00000E+00
    0.00000E+00         0.23348E-04         0.00000E+00
    0.50069E-04         0.19932E-04         0.00000E+00
    0.86018E-04         0.11441E-04         0.00000E+00
    0.11524E-03        -0.12306E-07         0.00000E+00
    0.14042E-03        -0.13869E-04         0.00000E+00
    0.16287E-03        -0.29699E-04         0.00000E+00
    0.18340E-03        -0.47097E-04         0.00000E+00
    0.20248E-03        -0.65702E-04         0.00000E+00
    0.22041E-03        -0.85201E-04         0.00000E+00
    0.23738E-03        -0.10534E-03         0.00000E+00
    0.25350E-03        -0.12590E-03         0.00000E+00
    0.26887E-03        -0.14675E-03         0.00000E+00
    0.28354E-03        -0.16775E-03         0.00000E+00
    0.29758E-03        -0.18885E-03         0.00000E+00
    0.31102E-03        -0.20999E-03         0.00000E+00
    0.32393E-03        -0.23115E-03         0.00000E+00
    0.33635E-03        -0.25232E-03         0.00000E+00
    0.34833E-03        -0.27351E-03         0.00000E+00
    0.35994E-03        -0.29474E-03         0.00000E+00
    0.37121E-03        -0.31602E-03         0.00000E+00
    0.38219E-03        -0.33739E-03         0.00000E+00
    0.39295E-03        -0.35887E-03         0.00000E+00
    0.40351E-03        -0.38050E-03         0.00000E+00
    0.41393E-03        -0.40231E-03         0.00000E+00
    0.42425E-03        -0.42432E-03         0.00000E+00
    0.43449E-03        -0.44658E-03         0.00000E+00
    0.44470E-03        -0.46911E-03         0.00000E+00
    0.45491E-03        -0.49194E-03         0.00000E+00
    0.46514E-03        -0.51510E-03         0.00000E+00
    0.47541E-03        -0.53862E-03         0.00000E+00
    0.48575E-03        -0.56252E-03         0.00000E+00
    0.49618E-03        -0.58683E-03         0.00000E+00
    0.50671E-03        -0.61157E-03         0.00000E+00
    0.51736E-03        -0.63677E-03         0.00000E+00
    0.52812E-03        -0.66244E-03         0.00000E+00
    0.53903E-03        -0.68861E-03         0.00000E+00
    0.55007E-03        -0.71530E-03         0.00000E+00
    0.56127E-03        -0.74253E-03         0.00000E+00
    0.57261E-03        -0.77032E-03         0.00000E+00
    0.58410E-03        -0.79869E-03         0.00000E+00
    0.59574E-03        -0.82765E-03         0.00000E+00
    0.60753E-03        -0.85722E-03         0.00000E+00
    0.61946E-03        -0.88742E-03         0.00000E+00
    0.63154E-03        -0.91826E-03         0.00000E+00
    0.64375E-03        -0.94977E-03         0.00000E+00
    0.65608E-03        -0.98195E-03         0.00000E+00
    0.66854E-03        -0.10148E-02         0.00000E+00
    0.68111E-03        -0.10484E-02         0.00000E+00
    0.69377E-03        -0.10827E-02         0.00000E+00
    0.70652E-03        -0.11177E-02         0.00000E+00
    0.71934E-03        -0.11535E-02         0.00000E+00
    0.73222E-03        -0.11901E-02         0.00000E+00
    0.74513E-03        -0.12274E-02         0.00000E+00
    0.75806E-03        -0.12655E-02         0.00000E+00
    0.77099E-03        -0.13044E-02         0.00000E+00
    0.78390E-03        -0.13441E-02         0.00000E+00
    0.79676E-03        -0.13847E-02         0.00000E+00
    0.80954E-03        -0.14260E-02         0.00000E+00
    0.82222E-03        -0.14683E-02         0.00000E+00
    0.83476E-03        -0.15113E-02         0.00000E+00
    0.84714E-03        -0.15553E-02         0.00000E+00
    0.85930E-03        -0.16001E-02         0.00000E+00
    0.87122E-03        -0.16458E-02         0.00000E+00
    0.88284E-03        -0.16924E-02         0.00000E+00
    0.89413E-03        -0.17400E-02         0.00000E+00
    0.90502E-03        -0.17884E-02         0.00000E+00
    0.91546E-03        -0.18378E-02         0.00000E+00
    0.92539E-03        -0.18882E-02         0.00000E+00
    0.93475E-03        -0.19395E-02         0.00000E+00
    0.94345E-03        -0.19918E-02         0.00000E+00
    0.95141E-03        -0.20451E-02         0.00000E+00
    0.95855E-03        -0.20994E-02         0.00000E+00
    0.96478E-03        -0.21547E-02         0.00000E+00
    0.96998E-03        -0.22111E-02         0.00000E+00
    0.97405E-03        -0.22686E-02         0.00000E+00
    0.97687E-03        -0.23272E-02         0.00000E+00
    0.97830E-03        -0.23869E-02         0.00000E+00
    0.97820E-03        -0.24477E-02         0.00000E+00
    0.97643E-03        -0.25098E-02         0.00000E+00
    0.97282E-03        -0.25731E-02         0.00000E+00
    0.96722E-03        -0.26376E-02         0.00000E+00
    0.95944E-03        -0.27034E-02         0.00000E+00
    0.94931E-03        -0.27704E-02         0.00000E+00
    0.93666E-03        -0.28387E-02         0.00000E+00
    0.92129E-03        -0.29083E-02         0.00000E+00
    0.90304E-03        -0.29791E-02         0.00000E+00
    0.88172E-03        -0.30510E-02         0.00000E+00
    0.85719E-03        -0.31238E-02         0.00000E+00
    0.82927E-03        -0.31975E-02         0.00000E+00
    0.79781E-03        -0.32716E-02         0.00000E+00
    0.76267E-03        -0.33458E-02         0.00000E+00
    0.72365E-03        -0.34197E-02         0.00000E+00
    0.68050E-03        -0.34924E-02         0.00000E+00
    0.63286E-03        -0.35632E-02         0.00000E+00
    0.58011E-03        -0.36310E-02         0.00000E+00
    0.52127E-03        -0.36946E-02         0.00000E+00
    0.45469E-03        -0.37525E-02         0.00000E+00
    0.37760E-03        -0.38033E-02         0.00000E+00
    0.28535E-03        -0.38453E-02         0.00000E+00
    0.16837E-03        -0.38764E-02         0.00000E+00
    0.00000E+00        -0.38889E-02         0.00000E+00
    0.00000E+00         0.28084E-04         0.00000E+00
    0.64221E-04         0.23943E-04         0.00000E+00
    0.11205E-03         0.13221E-04         0.00000E+00
    0.15111E-03        -0.17473E-05         0.00000E+00
    0.18482E-03        -0.20020E-04         0.00000E+00
    0.21490E-03        -0.40988E-04         0.00000E+00
    0.24239E-03        -0.64084E-04         0.00000E+00
    0.26792E-03        -0.88813E-04         0.00000E+00
    0.29188E-03        -0.11475E-03         0.00000E+00
    0.31453E-03        -0.14154E-03         0.00000E+00
    0.33603E-03        -0.16891E-03         0.00000E+00
    0.35651E-03        -0.19665E-03         0.00000E+00
    0.37604E-03        -0.22462E-03         0.00000E+00
    0.39471E-03        -0.25271E-03         0.00000E+00
    0.41258E-03        -0.28086E-03         0.00000E+00
    0.42973E-03        -0.30904E-03         0.00000E+00
    0.44622E-03        -0.33724E-03         0.00000E+00
    0.46213E-03        -0.36546E-03         0.00000E+00
    0.47753E-03        -0.39374E-03         0.00000E+00
    0.49249E-03        -0.42209E-03         0.00000E+00
    0.50707E-03        -0.45057E-03         0.00000E+00
    0.52133E-03        -0.47919E-03         0.00000E+00
    0.53535E-03        -0.50802E-03         0.00000E+00
    0.54917E-03        -0.53708E-03         0.00000E+00
    0.56285E-03        -0.56643E-03         0.00000E+00
    0.57644E-03        -0.59611E-03         0.00000E+00
    0.58998E-03        -0.62614E-03         0.00000E+00
    0.60352E-03        -0.65658E-03         0.00000E+00
    0.61709E-03        -0.68747E-03         0.00000E+00
    0.63071E-03        -0.71883E-03         0.00000E+00
    0.64443E-03        -0.75070E-03         0.00000E+00
    0.65826E-03        -0.78312E-03         0.00000E+00
    0.67223E-03        -0.81611E-03         0.00000E+00
    0.68635E-03        -0.84971E-03         0.00000E+00
    0.70064E-03        -0.88395E-03         0.00000E+00
    0.71510E-03        -0.91886E-03         0.00000E+00
    0.72975E-03        -0.95446E-03         0.00000E+00
    0.74460E-03        -0.99077E-03         0.00000E+00
    0.75964E-03        -0.10278E-02         0.00000E+00
    0.77488E-03        -0.10657E-02         0.00000E+00
    0.79032E-03        -0.11043E-02         0.00000E+00
    0.80596E-03        -0.11437E-02         0.00000E+00
    0.82179E-03        -0.11840E-02         0.00000E+00
    0.83781E-03        -0.12251E-02         0.00000E+00
    0.85400E-03        -0.12671E-02         0.00000E+00
    0.87037E-03        -0.13101E-02         0.00000E+00
    0.88690E-03        -0.13539E-02         0.00000E+00
    0.90356E-03        -0.13987E-02         0.00000E+00
    0.92036E-03        -0.14444E-02         0.00000E+00
    0.93728E-03        -0.14911E-02         0.00000E+00
    0.95428E-03        -0.15389E-02         0.00000E+00
    0.97136E-03        -0.15876E-02         0.00000E+00
    0.98849E-03        -0.16373E-02         0.00000E+00
    0.10056E-02        -0.16882E-02         0.00000E+00
    0.10228E-02        -0.17400E-02         0.00000E+00
    0.10399E-02        -0.17930E-02         0.00000E+00
    0.10570E-02        -0.18470E-02         0.00000E+00
    0.10739E-02        -0.19022E-02         0.00000E+00
    0.10907E-02        -0.19585E-02         0.00000E+00
    0.11074E-02        -0.20159E-02         0.00000E+00
    0.11238E-02        -0.20745E-02         0.00000E+00
    0.11399E-02        -0.21342E-02         0.00000E+00
    0.11557E-02        -0.21952E-02         0.00000E+00
    0.11712E-02        -0.22573E-02         0.00000E+00
    0.11861E-02        -0.23207E-02         0.00000E+00
    0.12006E-02        -0.23852E-02         0.00000E+00
    0.12144E-02        -0.24511E-02         0.00000E+00
    0.12276E-02        -0.25182E-02         0.00000E+00
    0.12400E-02        -0.25865E-02         0.00000E+00
    0.12515E-02        -0.26562E-02         0.00000E+00
    0.12621E-02        -0.27272E-02         0.00000E+00
    0.12716E-02        -0.27996E-02         0.00000E+00
    0.12798E-02        -0.28733E-02         0.00000E+00
    0.12868E-02        -0.29484E-02         0.00000E+00
    0.12922E-02        -0.30250E-02         0.00000E+00
    0.12959E-02        -0.31030E-02         0.00000E+00
    0.12978E-02        -0.31825E-02         0.00000E+00
    0.12977E-02        -0.32636E-02         0.00000E+00
    0.12953E-02        -0.33462E-02         0.00000E+00
    0.12905E-02        -0.34304E-02         0.00000E+00
    0.12831E-02        -0.35163E-02         0.00000E+00
    0.12727E-02        -0.36039E-02         0.00000E+00
    0.12593E-02        -0.36931E-02         0.00000E+00
    0.12425E-02        -0.37840E-02         0.00000E+00
    0.12220E-02        -0.38766E-02         0.00000E+00
    0.11977E-02        -0.39707E-02         0.00000E+00
    0.11694E-02        -0.40664E-02         0.00000E+00
    0.11367E-02        -0.41633E-02         0.00000E+00
    0.10995E-02        -0.42613E-02         0.00000E+00
    0.10575E-02        -0.43599E-02         0.00000E+00
    0.10105E-02        -0.44587E-02         0.00000E+00
    0.95837E-03        -0.45568E-02         0.00000E+00
    0.90062E-03        -0.46535E-02         0.00000E+00
    0.83679E-03        -0.47476E-02         0.00000E+00
    0.76605E-03        -0.48377E-02         0.00000E+00
    0.68709E-03        -0.49220E-02         0.00000E+00
    0.59773E-03        -0.49988E-02         0.00000E+00
    0.49438E-03        -0.50657E-02         0.00000E+00
    0.37099E-03        -0.51206E-02         0.00000E+00
    0.21532E-03        -0.51598E-02         0.00000E+00
    0.00000E+00        -0.51750E-02         0.00000E+00
    0.00000E+00         0.31583E-04         0.00000E+00
    0.77521E-04         0.26794E-04         0.00000E+00
    0.13696E-03         0.14010E-04         0.00000E+00
    0.18585E-03        -0.43243E-05         0.00000E+00
    0.22812E-03        -0.26923E-04         0.00000E+00
    0.26587E-03        -0.52963E-04         0.00000E+00
    0.30036E-03        -0.81710E-04         0.00000E+00
    0.33236E-03        -0.11252E-03         0.00000E+00
    0.36238E-03        -0.14486E-03         0.00000E+00
    0.39073E-03        -0.17828E-03         0.00000E+00
    0.41761E-03        -0.21243E-03         0.00000E+00
    0.44318E-03        -0.24706E-03         0.00000E+00
    0.46755E-03        -0.28196E-03         0.00000E+00
    0.49082E-03        -0.31702E-03         0.00000E+00
    0.51309E-03        -0.35216E-03         0.00000E+00
    0.53445E-03        -0.38734E-03         0.00000E+00
    0.55499E-03        -0.42255E-03         0.00000E+00
    0.57479E-03        -0.45780E-03         0.00000E+00
    0.59395E-03        -0.49311E-03         0.00000E+00
    0.61255E-03        -0.52853E-03         0.00000E+00
    0.63068E-03        -0.56409E-03         0.00000E+00
    0.64842E-03        -0.59986E-03         0.00000E+00
    0.66585E-03        -0.63588E-03         0.00000E+00
    0.68304E-03        -0.67220E-03         0.00000E+00
    0.70005E-03        -0.70887E-03         0.00000E+00
    0.71695E-03        -0.74596E-03         0.00000E+00
    0.73378E-03        -0.78350E-03         0.00000E+00
    0.75062E-03        -0.82155E-03         0.00000E+00
    0.76749E-03        -0.86016E-03         0.00000E+00
    0.78443E-03        -0.89936E-03         0.00000E+00
    0.80149E-03        -0.93921E-03         0.00000E+00
    0.81869E-03        -0.97973E-03         0.00000E+00
    0.83606E-03        -0.10210E-02         0.00000E+00
    0.85361E-03        -0.10630E-02         0.00000E+00
    0.87138E-03        -0.11058E-02         0.00000E+00
    0.88936E-03        -0.11494E-02         0.00000E+00
    0.90758E-03        -0.11940E-02         0.00000E+00
    0.92604E-03        -0.12394E-02         0.00000E+00
    0.94475E-03        -0.12857E-02         0.00000E+00
    0.96370E-03        -0.13330E-02         0.00000E+00
    0.98290E-03        -0.13813E-02         0.00000E+00
    0.10023E-02        -0.14306E-02         0.00000E+00
    0.10220E-02        -0.14809E-02         0.00000E+00
    0.10420E-02        -0.15324E-02         0.00000E+00
    0.10621E-02        -0.15849E-02         0.00000E+00
    0.10824E-02        -0.16386E-02         0.00000E+00
    0.11030E-02        -0.16934E-02         0.00000E+00
    0.11237E-02        -0.17493E-02         0.00000E+00
    0.11446E-02        -0.18065E-02         0.00000E+00
    0.11656E-02        -0.18649E-02         0.00000E+00
    0.11868E-02        -0.19246E-02         0.00000E+00
    0.12080E-02        -0.19855E-02         0.00000E+00
    0.12293E-02        -0.20477E-02         0.00000E+00
    0.12507E-02        -0.21112E-02         0.00000E+00
    0.12720E-02        -0.21761E-02         0.00000E+00
    0.12933E-02        -0.22422E-02         0.00000E+00
    0.13145E-02        -0.23098E-02         0.00000E+00
    0.13356E-02        -0.23787E-02         0.00000E+00
    0.13565E-02        -0.24491E-02         0.00000E+00
    0.13772E-02        -0.25209E-02         0.00000E+00
    0.13976E-02        -0.25941E-02         0.00000E+00
    0.14177E-02        -0.26687E-02         0.00000E+00
    0.14373E-02        -0.27449E-02         0.00000E+00
    0.14565E-02        -0.28225E-02         0.00000E+00
    0.14751E-02        -0.29017E-02         0.00000E+00
    0.14931E-02        -0.29824E-02         0.00000E+00
    0.15103E-02        -0.30646E-02         0.00000E+00
    0.15267E-02        -0.31484E-02         0.00000E+00
    0.15421E-02        -0.32339E-02         0.00000E+00
    0.15565E-02        -0.33209E-02         0.00000E+00
    0.15696E-02        -0.34096E-02         0.00000E+00
    0.15814E-02        -0.34999E-02         0.00000E+00
    0.15917E-02        -0.35920E-02         0.00000E+00
    0.16003E-02        -0.36858E-02         0.00000E+00
    0.16070E-02        -0.37814E-02         0.00000E+00
    0.16117E-02        -0.38788E-02         0.00000E+00
    0.16140E-02        -0.39781E-02         0.00000E+00
    0.16139E-02        -0.40793E-02         0.00000E+00
    0.16109E-02        -0.41824E-02         0.00000E+00
    0.16050E-02        -0.42876E-02         0.00000E+00
    0.15957E-02        -0.43948E-02         0.00000E+00
    0.15829E-02        -0.45040E-02         0.00000E+00
    0.15661E-02        -0.46154E-02         0.00000E+00
    0.15451E-02        -0.47288E-02         0.00000E+00
    0.15197E-02        -0.48443E-02         0.00000E+00
    0.14894E-02        -0.49617E-02         0.00000E+00
    0.14540E-02        -0.50810E-02         0.00000E+00
    0.14132E-02        -0.52019E-02         0.00000E+00
    0.13666E-02        -0.53241E-02         0.00000E+00
    0.13141E-02        -0.54471E-02         0.00000E+00
    0.12554E-02        -0.55702E-02         0.00000E+00
    0.11900E-02        -0.56926E-02         0.00000E+00
    0.11176E-02        -0.58132E-02         0.00000E+00
    0.10374E-02        -0.59305E-02         0.00000E+00
    0.94849E-03        -0.60426E-02         0.00000E+00
    0.84920E-03        -0.61476E-02         0.00000E+00
    0.73686E-03        -0.62428E-02         0.00000E+00
    0.60711E-03        -0.63255E-02         0.00000E+00
    0.45259E-03        -0.63927E-02         0.00000E+00
    0.25921E-03        -0.64395E-02         0.00000E+00
    0.00000E+00        -0.64571E-02         0.00000E+00
    0.00000E+00         0.33961E-04         0.00000E+00
    0.90117E-04         0.28568E-04         0.00000E+00
    0.16086E-03         0.13846E-04         0.00000E+00
    0.21951E-03        -0.77265E-05         0.00000E+00
    0.27036E-03        -0.34566E-04         0.00000E+00
    0.31581E-03        -0.65616E-04         0.00000E+00
    0.35734E-03        -0.99968E-04         0.00000E+00
    0.39585E-03        -0.13683E-03         0.00000E+00
    0.43194E-03        -0.17555E-03         0.00000E+00
    0.46599E-03        -0.21557E-03         0.00000E+00
    0.49824E-03        -0.25647E-03         0.00000E+00
    0.52889E-03        -0.29795E-03         0.00000E+00
    0.55808E-03        -0.33977E-03         0.00000E+00
    0.58594E-03        -0.38178E-03         0.00000E+00
    0.61258E-03        -0.42389E-03         0.00000E+00
    0.63811E-03        -0.46606E-03         0.00000E+00
    0.66265E-03        -0.50826E-03         0.00000E+00
    0.68631E-03        -0.55051E-03         0.00000E+00
    0.70919E-03        -0.59285E-03         0.00000E+00
    0.73140E-03        -0.63531E-03         0.00000E+00
    0.75305E-03        -0.67797E-03         0.00000E+00
    0.77422E-03        -0.72086E-03         0.00000E+00
    0.79503E-03        -0.76406E-03         0.00000E+00
    0.81554E-03        -0.80763E-03         0.00000E+00
    0.83584E-03        -0.85163E-03         0.00000E+00
    0.85601E-03        -0.89613E-03         0.00000E+00
    0.87611E-03        -0.94118E-03         0.00000E+00
    0.89620E-03        -0.98684E-03         0.00000E+00
    0.91634E-03        -0.10332E-02         0.00000E+00
    0.93656E-03        -0.10802E-02         0.00000E+00
    0.95692E-03        -0.11280E-02         0.00000E+00
    0.97745E-03        -0.11767E-02         0.00000E+00
    0.99818E-03        -0.12262E-02         0.00000E+00
    0.10191E-02        -0.12766E-02         0.00000E+00
    0.10403E-02        -0.13280E-02         0.00000E+00
    0.10618E-02        -0.13804E-02         0.00000E+00
    0.10836E-02        -0.14338E-02         0.00000E+00
    0.11056E-02        -0.14883E-02         0.00000E+00
    0.11279E-02        -0.15439E-02         0.00000E+00
    0.11506E-02        -0.16007E-02         0.00000E+00
    0.11735E-02        -0.16586E-02         0.00000E+00
    0.11967E-02        -0.17178E-02         0.00000E+00
    0.12202E-02        -0.17783E-02         0.00000E+00
    0.12440E-02        -0.18400E-02         0.00000E+00
    0.12680E-02        -0.19030E-02         0.00000E+00
    0.12923E-02        -0.19674E-02         0.00000E+00
    0.13168E-02        -0.20332E-02         0.00000E+00
    0.13416E-02        -0.21004E-02         0.00000E+00
    0.13665E-02        -0.21690E-02         0.00000E+00
    0.13916E-02        -0.22391E-02         0.00000E+00
    0.14169E-02        -0.23107E-02         0.00000E+00
    0.14422E-02        -0.23838E-02         0.00000E+00
    0.14677E-02        -0.24584E-02         0.00000E+00
    0.14931E-02        -0.25347E-02         0.00000E+00
    0.15186E-02        -0.26125E-02         0.00000E+00
    0.15440E-02        -0.26919E-02         0.00000E+00
    0.15693E-02        -0.27730E-02         0.00000E+00
    0.15945E-02        -0.28557E-02         0.00000E+00
    0.16195E-02        -0.29401E-02         0.00000E+00
    0.16442E-02        -0.30262E-02         0.00000E+00
    0.16685E-02        -0.31140E-02         0.00000E+00
    0.16925E-02        -0.32036E-02         0.00000E+00
    0.17160E-02        -0.32950E-02         0.00000E+00
    0.17389E-02        -0.33881E-02         0.00000E+00
    0.17611E-02        -0.34830E-02         0.00000E+00
    0.17826E-02        -0.35798E-02         0.00000E+00
    0.18031E-02        -0.36785E-02         0.00000E+00
    0.18227E-02        -0.37790E-02         0.00000E+00
    0.18411E-02        -0.38814E-02         0.00000E+00
    0.18583E-02        -0.39858E-02         0.00000E+00
    0.18740E-02        -0.40922E-02         0.00000E+00
    0.18880E-02        -0.42005E-02         0.00000E+00
    0.19003E-02        -0.43109E-02         0.00000E+00
    0.19106E-02        -0.44234E-02         0.00000E+00
    0.19186E-02        -0.45380E-02         0.00000E+00
    0.19242E-02        -0.46547E-02         0.00000E+00
    0.19270E-02        -0.47737E-02         0.00000E+00
    0.19268E-02        -0.48950E-02         0.00000E+00
    0.19234E-02        -0.50186E-02         0.00000E+00
    0.19163E-02        -0.51446E-02         0.00000E+00
    0.19052E-02        -0.52730E-02         0.00000E+00
    0.18898E-02        -0.54039E-02         0.00000E+00
    0.18698E-02        -0.55372E-02         0.00000E+00
    0.18447E-02        -0.56731E-02         0.00000E+00
    0.18143E-02        -0.58114E-02         0.00000E+00
    0.17780E-02        -0.59520E-02         0.00000E+00
    0.17356E-02        -0.60949E-02         0.00000E+00
    0.16867E-02        -0.62396E-02         0.00000E+00
    0.16309E-02        -0.63859E-02         0.00000E+00
    0.15679E-02        -0.65332E-02         0.00000E+00
    0.14973E-02        -0.66806E-02         0.00000E+00
    0.14186E-02        -0.68271E-02         0.00000E+00
    0.13314E-02        -0.69714E-02         0.00000E+00
    0.12348E-02        -0.71117E-02         0.00000E+00
    0.11276E-02        -0.72458E-02         0.00000E+00
    0.10078E-02        -0.73711E-02         0.00000E+00
    0.87230E-03        -0.74846E-02         0.00000E+00
    0.71606E-03        -0.75828E-02         0.00000E+00
    0.53057E-03        -0.76618E-02         0.00000E+00
    0.30057E-03        -0.77158E-02         0.00000E+00
    0.00000E+00        -0.77355E-02         0.00000E+00
    0.00000E+00         0.35314E-04         0.00000E+00
    0.10212E-03         0.29344E-04         0.00000E+00
    0.18385E-03         0.12771E-04         0.00000E+00
    0.25218E-03        -0.11933E-04         0.00000E+00
    0.31159E-03        -0.42936E-04         0.00000E+00
    0.36477E-03        -0.78941E-04         0.00000E+00
    0.41336E-03        -0.11885E-03         0.00000E+00
    0.45841E-03        -0.16173E-03         0.00000E+00
    0.50058E-03        -0.20679E-03         0.00000E+00
    0.54033E-03        -0.25339E-03         0.00000E+00
    0.57795E-03        -0.30102E-03         0.00000E+00
    0.61367E-03        -0.34933E-03         0.00000E+00
    0.64766E-03        -0.39804E-03         0.00000E+00
    0.68008E-03        -0.44699E-03         0.00000E+00
    0.71105E-03        -0.49605E-03         0.00000E+00
    0.74073E-03        -0.54518E-03         0.00000E+00
    0.76923E-03        -0.59435E-03         0.00000E+00
    0.79670E-03        -0.64360E-03         0.00000E+00
    0.82326E-03        -0.69295E-03         0.00000E+00
    0.84905E-03        -0.74245E-03         0.00000E+00
    0.87417E-03        -0.79218E-03         0.00000E+00
    0.89874E-03        -0.84220E-03         0.00000E+00
    0.92288E-03        -0.89257E-03         0.00000E+00
    0.94668E-03        -0.94339E-03         0.00000E+00
    0.97024E-03        -0.99471E-03         0.00000E+00
    0.99364E-03        -0.10466E-02         0.00000E+00
    0.10170E-02        -0.10992E-02         0.00000E+00
    0.10403E-02        -0.11524E-02         0.00000E+00
    0.10636E-02        -0.12065E-02         0.00000E+00
    0.10871E-02        -0.12614E-02         0.00000E+00
    0.11107E-02        -0.13172E-02         0.00000E+00
    0.11346E-02        -0.13739E-02         0.00000E+00
    0.11586E-02        -0.14317E-02         0.00000E+00
    0.11829E-02        -0.14905E-02         0.00000E+00
    0.12075E-02        -0.15505E-02         0.00000E+00
    0.12325E-02        -0.16116E-02         0.00000E+00
    0.12577E-02        -0.16740E-02         0.00000E+00
    0.12833E-02        -0.17376E-02         0.00000E+00
    0.13092E-02        -0.18025E-02         0.00000E+00
    0.13354E-02        -0.18687E-02         0.00000E+00
    0.13620E-02        -0.19363E-02         0.00000E+00
    0.13890E-02        -0.20054E-02         0.00000E+00
    0.14163E-02        -0.20759E-02         0.00000E+00
    0.14439E-02        -0.21480E-02         0.00000E+00
    0.14718E-02        -0.22215E-02         0.00000E+00
    0.15000E-02        -0.22967E-02         0.00000E+00
    0.15284E-02        -0.23734E-02         0.00000E+00
    0.15572E-02        -0.24518E-02         0.00000E+00
    0.15861E-02        -0.25319E-02         0.00000E+00
    0.16153E-02        -0.26137E-02         0.00000E+00
    0.16446E-02        -0.26972E-02         0.00000E+00
    0.16740E-02        -0.27825E-02         0.00000E+00
    0.17035E-02        -0.28696E-02         0.00000E+00
    0.17331E-02        -0.29585E-02         0.00000E+00
    0.17626E-02        -0.30493E-02         0.00000E+00
    0.17921E-02        -0.31419E-02         0.00000E+00
    0.18215E-02        -0.32365E-02         0.00000E+00
    0.18507E-02        -0.33330E-02         0.00000E+00
    0.18797E-02        -0.34314E-02         0.00000E+00
    0.19084E-02        -0.35319E-02         0.00000E+00
    0.19367E-02        -0.36343E-02         0.00000E+00
    0.19645E-02        -0.37388E-02         0.00000E+00
    0.19917E-02        -0.38454E-02         0.00000E+00
    0.20183E-02        -0.39540E-02         0.00000E+00
    0.20441E-02        -0.40647E-02         0.00000E+00
    0.20690E-02        -0.41776E-02         0.00000E+00
    0.20929E-02        -0.42926E-02         0.00000E+00
    0.21156E-02        -0.44098E-02         0.00000E+00
    0.21370E-02        -0.45293E-02         0.00000E+00
    0.21569E-02        -0.46510E-02         0.00000E+00
    0.21751E-02        -0.47749E-02         0.00000E+00
    0.21915E-02        -0.49012E-02         0.00000E+00
    0.22058E-02        -0.50299E-02         0.00000E+00
    0.22177E-02        -0.51610E-02         0.00000E+00
    0.22270E-02        -0.52946E-02         0.00000E+00
    0.22335E-02        -0.54306E-02         0.00000E+00
    0.22368E-02        -0.55693E-02         0.00000E+00
    0.22366E-02        -0.57106E-02         0.00000E+00
    0.22326E-02        -0.58546E-02         0.00000E+00
    0.22244E-02        -0.60014E-02         0.00000E+00
    0.22116E-02        -0.61509E-02         0.00000E+00
    0.21937E-02        -0.63034E-02         0.00000E+00
    0.21705E-02        -0.64587E-02         0.00000E+00
    0.21413E-02        -0.66169E-02         0.00000E+00
    0.21059E-02        -0.67779E-02         0.00000E+00
    0.20637E-02        -0.69417E-02         0.00000E+00
    0.20144E-02        -0.71080E-02         0.00000E+00
    0.19574E-02        -0.72765E-02         0.00000E+00
    0.18923E-02        -0.74467E-02         0.00000E+00
    0.18188E-02        -0.76181E-02         0.00000E+00
    0.17363E-02        -0.77897E-02         0.00000E+00
    0.16443E-02        -0.79602E-02         0.00000E+00
    0.15423E-02        -0.81281E-02         0.00000E+00
    0.14291E-02        -0.82912E-02         0.00000E+00
    0.13034E-02        -0.84471E-02         0.00000E+00
    0.11630E-02        -0.85927E-02         0.00000E+00
    0.10042E-02        -0.87242E-02         0.00000E+00
    0.82150E-03        -0.88377E-02         0.00000E+00
    0.60534E-03        -0.89281E-02         0.00000E+00
    0.33981E-03        -0.89888E-02         0.00000E+00
    0.00000E+00        -0.90107E-02         0.00000E+00
    0.00000E+00         0.35725E-04         0.00000E+00
    0.11361E-03         0.29193E-04         0.00000E+00
    0.20603E-03         0.10830E-04         0.00000E+00
    0.28393E-03        -0.16921E-04         0.00000E+00
    0.35189E-03        -0.52017E-04         0.00000E+00
    0.41280E-03        -0.92926E-04         0.00000E+00
    0.46846E-03        -0.13836E-03         0.00000E+00
    0.52006E-03        -0.18722E-03         0.00000E+00
    0.56833E-03        -0.23860E-03         0.00000E+00
    0.61378E-03        -0.29174E-03         0.00000E+00
    0.65677E-03        -0.34608E-03         0.00000E+00
    0.69754E-03        -0.40120E-03         0.00000E+00
    0.73630E-03        -0.45678E-03         0.00000E+00
    0.77324E-03        -0.51263E-03         0.00000E+00
    0.80852E-03        -0.56862E-03         0.00000E+00
    0.84229E-03        -0.62470E-03         0.00000E+00
    0.87473E-03        -0.68083E-03         0.00000E+00
    0.90597E-03        -0.73706E-03         0.00000E+00
    0.93618E-03        -0.79340E-03         0.00000E+00
    0.96549E-03        -0.84994E-03         0.00000E+00
    0.99404E-03        -0.90673E-03         0.00000E+00
    0.10220E-02        -0.96386E-03         0.00000E+00
    0.10494E-02        -0.10214E-02         0.00000E+00
    0.10765E-02        -0.10795E-02         0.00000E+00
    0.11032E-02        -0.11381E-02         0.00000E+00
    0.11298E-02        -0.11974E-02         0.00000E+00
    0.11563E-02        -0.12575E-02         0.00000E+00
    0.11828E-02        -0.13183E-02         0.00000E+00
    0.12094E-02        -0.13801E-02         0.00000E+00
    0.12361E-02        -0.14428E-02         0.00000E+00
    0.12629E-02        -0.15066E-02         0.00000E+00
    0.12900E-02        -0.15715E-02         0.00000E+00
    0.13173E-02        -0.16375E-02         0.00000E+00
    0.13450E-02        -0.17048E-02         0.00000E+00
    0.13730E-02        -0.17733E-02         0.00000E+00
    0.14013E-02        -0.18432E-02         0.00000E+00
    0.14300E-02        -0.19145E-02         0.00000E+00
    0.14590E-02        -0.19872E-02         0.00000E+00
    0.14885E-02        -0.20613E-02         0.00000E+00
    0.15184E-02        -0.21371E-02         0.00000E+00
    0.15486E-02        -0.22144E-02         0.00000E+00
    0.15792E-02        -0.22933E-02         0.00000E+00
    0.16102E-02        -0.23739E-02         0.00000E+00
    0.16416E-02        -0.24563E-02         0.00000E+00
    0.16734E-02        -0.25404E-02         0.00000E+00
    0.17054E-02        -0.26263E-02         0.00000E+00
    0.17378E-02        -0.27140E-02         0.00000E+00
    0.17704E-02        -0.28036E-02         0.00000E+00
    0.18033E-02        -0.28951E-02         0.00000E+00
    0.18365E-02        -0.29886E-02         0.00000E+00
    0.18698E-02        -0.30841E-02         0.00000E+00
    0.19032E-02        -0.31815E-02         0.00000E+00
    0.19368E-02        -0.32811E-02         0.00000E+00
    0.19704E-02        -0.33827E-02         0.00000E+00
    0.20040E-02        -0.34864E-02         0.00000E+00
    0.20376E-02        -0.35923E-02         0.00000E+00
    0.20710E-02        -0.37004E-02         0.00000E+00
    0.21042E-02        -0.38106E-02         0.00000E+00
    0.21372E-02        -0.39231E-02         0.00000E+00
    0.21698E-02        -0.40379E-02         0.00000E+00
    0.22019E-02        -0.41550E-02         0.00000E+00
    0.22335E-02        -0.42744E-02         0.00000E+00
    0.22645E-02        -0.43961E-02         0.00000E+00
    0.22947E-02        -0.45202E-02         0.00000E+00
    0.23241E-02        -0.46467E-02         0.00000E+00
    0.23524E-02        -0.47756E-02         0.00000E+00
    0.23796E-02        -0.49070E-02         0.00000E+00
    0.24054E-02        -0.50409E-02         0.00000E+00
    0.24298E-02        -0.51773E-02         0.00000E+00
    0.24524E-02        -0.53163E-02         0.00000E+00
    0.24732E-02        -0.54579E-02         0.00000E+00
    0.24918E-02        -0.56021E-02         0.00000E+00
    0.25080E-02        -0.57491E-02         0.00000E+00
    0.25216E-02        -0.58988E-02         0.00000E+00
    0.25323E-02        -0.60512E-02         0.00000E+00
    0.25397E-02        -0.62066E-02         0.00000E+00
    0.25435E-02        -0.63649E-02         0.00000E+00
    0.25433E-02        -0.65261E-02         0.00000E+00
    0.25387E-02        -0.66905E-02         0.00000E+00
    0.25294E-02        -0.68579E-02         0.00000E+00
    0.25148E-02        -0.70286E-02         0.00000E+00
    0.24946E-02        -0.72025E-02         0.00000E+00
    0.24681E-02        -0.73797E-02         0.00000E+00
    0.24350E-02        -0.75602E-02         0.00000E+00
    0.23946E-02        -0.77438E-02         0.00000E+00
    0.23466E-02        -0.79306E-02         0.00000E+00
    0.22903E-02        -0.81202E-02         0.00000E+00
    0.22253E-02        -0.83124E-02         0.00000E+00
    0.21510E-02        -0.85065E-02         0.00000E+00
    0.20669E-02        -0.87019E-02         0.00000E+00
    0.19726E-02        -0.88975E-02         0.00000E+00
    0.18673E-02        -0.90919E-02         0.00000E+00
    0.17502E-02        -0.92833E-02         0.00000E+00
    0.16204E-02        -0.94692E-02         0.00000E+00
    0.14762E-02        -0.96468E-02         0.00000E+00
    0.13150E-02        -0.98124E-02         0.00000E+00
    0.11329E-02        -0.99618E-02         0.00000E+00
    0.92370E-03        -0.10090E-01         0.00000E+00
    0.67723E-03        -0.10192E-01         0.00000E+00
    0.37723E-03        -0.10259E-01         0.00000E+00
    0.00000E+00        -0.10283E-01         0.00000E+00
    0.00000E+00         0.35267E-04         0.00000E+00
    0.12466E-03         0.28181E-04         0.00000E+00
    0.22748E-03         0.80676E-05         0.00000E+00
    0.31482E-03        -0.22664E-04         0.00000E+00
    0.39129E-03        -0.61794E-04         0.00000E+00
    0.45993E-03        -0.10756E-03         0.00000E+00
    0.52269E-03        -0.15848E-03         0.00000E+00
    0.58084E-03        -0.21330E-03         0.00000E+00
    0.63521E-03        -0.27096E-03         0.00000E+00
    0.68636E-03        -0.33062E-03         0.00000E+00
    0.73470E-03        -0.39164E-03         0.00000E+00
    0.78050E-03        -0.45354E-03         0.00000E+00
    0.82401E-03        -0.51597E-03         0.00000E+00
    0.86544E-03        -0.57871E-03         0.00000E+00
    0.90499E-03        -0.64162E-03         0.00000E+00
    0.94283E-03        -0.70462E-03         0.00000E+00
    0.97915E-03        -0.76770E-03         0.00000E+00
    0.10141E-02        -0.83088E-03         0.00000E+00
    0.10479E-02        -0.89421E-03         0.00000E+00
    0.10807E-02        -0.95776E-03         0.00000E+00
    0.11127E-02        -0.10216E-02         0.00000E+00
    0.11439E-02        -0.10858E-02         0.00000E+00
    0.11746E-02        -0.11506E-02         0.00000E+00
    0.12049E-02        -0.12158E-02         0.00000E+00
    0.12348E-02        -0.12818E-02         0.00000E+00
    0.12646E-02        -0.13485E-02         0.00000E+00
    0.12942E-02        -0.14160E-02         0.00000E+00
    0.13239E-02        -0.14845E-02         0.00000E+00
    0.13536E-02        -0.15540E-02         0.00000E+00
    0.13834E-02        -0.16246E-02         0.00000E+00
    0.14135E-02        -0.16964E-02         0.00000E+00
    0.14438E-02        -0.17694E-02         0.00000E+00
    0.14744E-02        -0.18437E-02         0.00000E+00
    0.15053E-02        -0.19193E-02         0.00000E+00
    0.15366E-02        -0.19965E-02         0.00000E+00
    0.15683E-02        -0.20751E-02         0.00000E+00
    0.16004E-02        -0.21553E-02         0.00000E+00
    0.16329E-02        -0.22371E-02         0.00000E+00
    0.16659E-02        -0.23206E-02         0.00000E+00
    0.16993E-02        -0.24058E-02         0.00000E+00
    0.17331E-02        -0.24928E-02         0.00000E+00
    0.17674E-02        -0.25816E-02         0.00000E+00
    0.18021E-02        -0.26723E-02         0.00000E+00
    0.18372E-02        -0.27649E-02         0.00000E+00
    0.18728E-02        -0.28596E-02         0.00000E+00
    0.19086E-02        -0.29562E-02         0.00000E+00
    0.19449E-02        -0.30549E-02         0.00000E+00
    0.19814E-02        -0.31557E-02         0.00000E+00
    0.20182E-02        -0.32587E-02         0.00000E+00
    0.20553E-02        -0.33639E-02         0.00000E+00
    0.20926E-02        -0.34713E-02         0.00000E+00
    0.21300E-02        -0.35809E-02         0.00000E+00
    0.21676E-02        -0.36929E-02         0.00000E+00
    0.22052E-02        -0.38072E-02         0.00000E+00
    0.22428E-02        -0.39239E-02         0.00000E+00
    0.22804E-02        -0.40431E-02         0.00000E+00
    0.23178E-02        -0.41646E-02         0.00000E+00
    0.23550E-02        -0.42887E-02         0.00000E+00
    0.23918E-02        -0.44152E-02         0.00000E+00
    0.24283E-02        -0.45443E-02         0.00000E+00
    0.24643E-02        -0.46760E-02         0.00000E+00
    0.24997E-02        -0.48102E-02         0.00000E+00
    0.25344E-02        -0.49471E-02         0.00000E+00
    0.25683E-02        -0.50867E-02         0.00000E+00
    0.26011E-02        -0.52290E-02         0.00000E+00
    0.26328E-02        -0.53740E-02         0.00000E+00
    0.26633E-02        -0.55217E-02         0.00000E+00
    0.26922E-02        -0.56723E-02         0.00000E+00
    0.27195E-02        -0.58256E-02         0.00000E+00
    0.27448E-02        -0.59819E-02         0.00000E+00
    0.27681E-02        -0.61411E-02         0.00000E+00
    0.27889E-02        -0.63032E-02         0.00000E+00
    0.28071E-02        -0.64684E-02         0.00000E+00
    0.28224E-02        -0.66366E-02         0.00000E+00
    0.28344E-02        -0.68080E-02         0.00000E+00
    0.28427E-02        -0.69825E-02         0.00000E+00
    0.28470E-02        -0.71604E-02         0.00000E+00
    0.28468E-02        -0.73416E-02         0.00000E+00
    0.28418E-02        -0.75262E-02         0.00000E+00
    0.28314E-02        -0.77143E-02         0.00000E+00
    0.28151E-02        -0.79060E-02         0.00000E+00
    0.27924E-02        -0.81013E-02         0.00000E+00
    0.27628E-02        -0.83003E-02         0.00000E+00
    0.27257E-02        -0.85029E-02         0.00000E+00
    0.26805E-02        -0.87091E-02         0.00000E+00
    0.26266E-02        -0.89188E-02         0.00000E+00
    0.25635E-02        -0.91317E-02         0.00000E+00
    0.24905E-02        -0.93474E-02         0.00000E+00
    0.24070E-02        -0.95653E-02         0.00000E+00
    0.23124E-02        -0.97846E-02         0.00000E+00
    0.22061E-02        -0.10004E-01         0.00000E+00
    0.20875E-02        -0.10222E-01         0.00000E+00
    0.19555E-02        -0.10437E-01         0.00000E+00
    0.18089E-02        -0.10646E-01         0.00000E+00
    0.16460E-02        -0.10845E-01         0.00000E+00
    0.14640E-02        -0.11030E-01         0.00000E+00
    0.12585E-02        -0.11197E-01         0.00000E+00
    0.10229E-02        -0.11340E-01         0.00000E+00
    0.74655E-03        -0.11453E-01         0.00000E+00
    0.41308E-03        -0.11526E-01         0.00000E+00
    0.00000E+00        -0.11552E-01         0.00000E+00
    0.00000E+00         0.34006E-04         0.00000E+00
    0.13532E-03         0.26368E-04         0.00000E+00
    0.24828E-03         0.45299E-05         0.00000E+00
    0.34492E-03        -0.29133E-04         0.00000E+00
    0.42985E-03        -0.72248E-04         0.00000E+00
    0.50620E-03        -0.12283E-03         0.00000E+00
    0.57606E-03        -0.17921E-03         0.00000E+00
    0.64077E-03        -0.23995E-03         0.00000E+00
    0.70125E-03        -0.30387E-03         0.00000E+00
    0.75810E-03        -0.37003E-03         0.00000E+00
    0.81176E-03        -0.43771E-03         0.00000E+00
    0.86258E-03        -0.50637E-03         0.00000E+00
    0.91081E-03        -0.57562E-03         0.00000E+00
    0.95670E-03        -0.64523E-03         0.00000E+00
    0.10005E-02        -0.71502E-03         0.00000E+00
    0.10423E-02        -0.78493E-03         0.00000E+00
    0.10825E-02        -0.85494E-03         0.00000E+00
    0.11212E-02        -0.92507E-03         0.00000E+00
    0.11585E-02        -0.99537E-03         0.00000E+00
    0.11948E-02        -0.10659E-02         0.00000E+00
    0.12301E-02        -0.11368E-02         0.00000E+00
    0.12646E-02        -0.12081E-02         0.00000E+00
    0.12985E-02        -0.12800E-02         0.00000E+00
    0.13319E-02        -0.13525E-02         0.00000E+00
    0.13650E-02        -0.14258E-02         0.00000E+00
    0.13979E-02        -0.14999E-02         0.00000E+00
    0.14306E-02        -0.15749E-02         0.00000E+00
    0.14634E-02        -0.16510E-02         0.00000E+00
    0.14962E-02        -0.17282E-02         0.00000E+00
    0.15292E-02        -0.18067E-02         0.00000E+00
    0.15624E-02        -0.18864E-02         0.00000E+00
    0.15959E-02        -0.19675E-02         0.00000E+00
    0.16297E-02        -0.20501E-02         0.00000E+00
    0.16638E-02        -0.21342E-02         0.00000E+00
    0.16984E-02        -0.22199E-02         0.00000E+00
    0.17335E-02        -0.23073E-02         0.00000E+00
    0.17689E-02        -0.23964E-02         0.00000E+00
    0.18049E-02        -0.24873E-02         0.00000E+00
    0.18413E-02        -0.25801E-02         0.00000E+00
    0.18783E-02        -0.26748E-02         0.00000E+00
    0.19157E-02        -0.27715E-02         0.00000E+00
    0.19536E-02        -0.28702E-02         0.00000E+00
    0.19919E-02        -0.29710E-02         0.00000E+00
    0.20307E-02        -0.30739E-02         0.00000E+00
    0.20700E-02        -0.31791E-02         0.00000E+00
    0.21096E-02        -0.32865E-02         0.00000E+00
    0.21497E-02        -0.33962E-02         0.00000E+00
    0.21901E-02        -0.35082E-02         0.00000E+00
    0.22308E-02        -0.36226E-02         0.00000E+00
    0.22718E-02        -0.37395E-02         0.00000E+00
    0.23130E-02        -0.38588E-02         0.00000E+00
    0.23544E-02        -0.39807E-02         0.00000E+00
    0.23959E-02        -0.41051E-02         0.00000E+00
    0.24375E-02        -0.42321E-02         0.00000E+00
    0.24791E-02        -0.43618E-02         0.00000E+00
    0.25206E-02        -0.44941E-02         0.00000E+00
    0.25619E-02        -0.46292E-02         0.00000E+00
    0.26030E-02        -0.47670E-02         0.00000E+00
    0.26438E-02        -0.49076E-02         0.00000E+00
    0.26841E-02        -0.50510E-02         0.00000E+00
    0.27239E-02        -0.51973E-02         0.00000E+00
    0.27631E-02        -0.53464E-02         0.00000E+00
    0.28014E-02        -0.54985E-02         0.00000E+00
    0.28388E-02        -0.56535E-02         0.00000E+00
    0.28752E-02        -0.58115E-02         0.00000E+00
    0.29102E-02        -0.59726E-02         0.00000E+00
    0.29439E-02        -0.61366E-02         0.00000E+00
    0.29759E-02        -0.63038E-02         0.00000E+00
    0.30061E-02        -0.64742E-02         0.00000E+00
    0.30341E-02        -0.66477E-02         0.00000E+00
    0.30599E-02        -0.68244E-02         0.00000E+00
    0.30830E-02        -0.70044E-02         0.00000E+00
    0.31031E-02        -0.71878E-02         0.00000E+00
    0.31200E-02        -0.73745E-02         0.00000E+00
    0.31333E-02        -0.75647E-02         0.00000E+00
    0.31425E-02        -0.77585E-02         0.00000E+00
    0.31473E-02        -0.79559E-02         0.00000E+00
    0.31472E-02        -0.81569E-02         0.00000E+00
    0.31417E-02        -0.83618E-02         0.00000E+00
    0.31303E-02        -0.85705E-02         0.00000E+00
    0.31123E-02        -0.87831E-02         0.00000E+00
    0.30873E-02        -0.89998E-02         0.00000E+00
    0.30546E-02        -0.92205E-02         0.00000E+00
    0.30136E-02        -0.94452E-02         0.00000E+00
    0.29636E-02        -0.96739E-02         0.00000E+00
    0.29040E-02        -0.99064E-02         0.00000E+00
    0.28340E-02        -0.10142E-01         0.00000E+00
    0.27530E-02        -0.10382E-01         0.00000E+00
    0.26603E-02        -0.10623E-01         0.00000E+00
    0.25553E-02        -0.10866E-01         0.00000E+00
    0.24372E-02        -0.11110E-01         0.00000E+00
    0.23051E-02        -0.11351E-01         0.00000E+00
    0.21580E-02        -0.11589E-01         0.00000E+00
    0.19947E-02        -0.11820E-01         0.00000E+00
    0.18130E-02        -0.12041E-01         0.00000E+00
    0.16101E-02        -0.12246E-01         0.00000E+00
    0.13812E-02        -0.12431E-01         0.00000E+00
    0.11194E-02        -0.12588E-01         0.00000E+00
    0.81357E-03        -0.12711E-01         0.00000E+00
    0.44757E-03        -0.12791E-01         0.00000E+00
    0.00000E+00        -0.12819E-01         0.00000E+00
    0.00000E+00         0.32000E-04         0.00000E+00
    0.14564E-03         0.23811E-04         0.00000E+00
    0.26848E-03         0.26119E-06         0.00000E+00
    0.37429E-03        -0.36298E-04         0.00000E+00
    0.46761E-03        -0.83360E-04         0.00000E+00
    0.55167E-03        -0.13873E-03         0.00000E+00
    0.62862E-03        -0.20053E-03         0.00000E+00
    0.69989E-03        -0.26717E-03         0.00000E+00
    0.76647E-03        -0.33733E-03         0.00000E+00
    0.82901E-03        -0.40996E-03         0.00000E+00
    0.88799E-03        -0.48427E-03         0.00000E+00
    0.94379E-03        -0.55967E-03         0.00000E+00
    0.99671E-03        -0.63572E-03         0.00000E+00
    0.10470E-02        -0.71217E-03         0.00000E+00
    0.10950E-02        -0.78884E-03         0.00000E+00
    0.11409E-02        -0.86564E-03         0.00000E+00
    0.11848E-02        -0.94255E-03         0.00000E+00
    0.12271E-02        -0.10196E-02         0.00000E+00
    0.12680E-02        -0.10969E-02         0.00000E+00
    0.13077E-02        -0.11744E-02         0.00000E+00
    0.13463E-02        -0.12523E-02         0.00000E+00
    0.13840E-02        -0.13308E-02         0.00000E+00
    0.14211E-02        -0.14098E-02         0.00000E+00
    0.14576E-02        -0.14895E-02         0.00000E+00
    0.14938E-02        -0.15701E-02         0.00000E+00
    0.15298E-02        -0.16516E-02         0.00000E+00
    0.15656E-02        -0.17341E-02         0.00000E+00
    0.16014E-02        -0.18178E-02         0.00000E+00
    0.16373E-02        -0.19027E-02         0.00000E+00
    0.16733E-02        -0.19890E-02         0.00000E+00
    0.17097E-02        -0.20767E-02         0.00000E+00
    0.17463E-02        -0.21660E-02         0.00000E+00
    0.17833E-02        -0.22568E-02         0.00000E+00
    0.18207E-02        -0.23493E-02         0.00000E+00
    0.18585E-02        -0.24436E-02         0.00000E+00
    0.18968E-02        -0.25398E-02         0.00000E+00
    0.19356E-02        -0.26378E-02         0.00000E+00
    0.19750E-02        -0.27378E-02         0.00000E+00
    0.20148E-02        -0.28399E-02         0.00000E+00
    0.20552E-02        -0.29441E-02         0.00000E+00
    0.20962E-02        -0.30505E-02         0.00000E+00
    0.21376E-02        -0.31591E-02         0.00000E+00
    0.21796E-02        -0.32700E-02         0.00000E+00
    0.22221E-02        -0.33833E-02         0.00000E+00
    0.22650E-02        -0.34990E-02         0.00000E+00
    0.23084E-02        -0.36171E-02         0.00000E+00
    0.23522E-02        -0.37378E-02         0.00000E+00
    0.23964E-02        -0.38610E-02         0.00000E+00
    0.24410E-02        -0.39869E-02         0.00000E+00
    0.24858E-02        -0.41155E-02         0.00000E+00
    0.25309E-02        -0.42468E-02         0.00000E+00
    0.25762E-02        -0.43808E-02         0.00000E+00
    0.26217E-02        -0.45177E-02         0.00000E+00
    0.26672E-02        -0.46574E-02         0.00000E+00
    0.27127E-02        -0.48000E-02         0.00000E+00
    0.27581E-02        -0.49456E-02         0.00000E+00
    0.28033E-02        -0.50941E-02         0.00000E+00
    0.28483E-02        -0.52457E-02         0.00000E+00
    0.28930E-02        -0.54003E-02         0.00000E+00
    0.29371E-02        -0.55580E-02         0.00000E+00
    0.29807E-02        -0.57189E-02         0.00000E+00
    0.30235E-02        -0.58829E-02         0.00000E+00
    0.30655E-02        -0.60501E-02         0.00000E+00
    0.31065E-02        -0.62206E-02         0.00000E+00
    0.31462E-02        -0.63944E-02         0.00000E+00
    0.31847E-02        -0.65714E-02         0.00000E+00
    0.32215E-02        -0.67518E-02         0.00000E+00
    0.32566E-02        -0.69356E-02         0.00000E+00
    0.32896E-02        -0.71229E-02         0.00000E+00
    0.33204E-02        -0.73136E-02         0.00000E+00
    0.33485E-02        -0.75079E-02         0.00000E+00
    0.33739E-02        -0.77058E-02         0.00000E+00
    0.33960E-02        -0.79073E-02         0.00000E+00
    0.34145E-02        -0.81125E-02         0.00000E+00
    0.34291E-02        -0.83215E-02         0.00000E+00
    0.34393E-02        -0.85344E-02         0.00000E+00
    0.34446E-02        -0.87513E-02         0.00000E+00
    0.34446E-02        -0.89722E-02         0.00000E+00
    0.34386E-02        -0.91972E-02         0.00000E+00
    0.34262E-02        -0.94264E-02         0.00000E+00
    0.34066E-02        -0.96600E-02         0.00000E+00
    0.33793E-02        -0.98979E-02         0.00000E+00
    0.33436E-02        -0.10140E-01         0.00000E+00
    0.32987E-02        -0.10387E-01         0.00000E+00
    0.32440E-02        -0.10638E-01         0.00000E+00
    0.31786E-02        -0.10893E-01         0.00000E+00
    0.31018E-02        -0.11152E-01         0.00000E+00
    0.30130E-02        -0.11415E-01         0.00000E+00
    0.29112E-02        -0.11680E-01         0.00000E+00
    0.27957E-02        -0.11947E-01         0.00000E+00
    0.26657E-02        -0.12214E-01         0.00000E+00
    0.25202E-02        -0.12479E-01         0.00000E+00
    0.23581E-02        -0.12740E-01         0.00000E+00
    0.21779E-02        -0.12994E-01         0.00000E+00
    0.19774E-02        -0.13235E-01         0.00000E+00
    0.17535E-02        -0.13460E-01         0.00000E+00
    0.15013E-02        -0.13662E-01         0.00000E+00
    0.12134E-02        -0.13834E-01         0.00000E+00
    0.87852E-03        -0.13968E-01         0.00000E+00
    0.48087E-03        -0.14054E-01         0.00000E+00
    0.00000E+00        -0.14084E-01         0.00000E+00
    0.00000E+00         0.29307E-04         0.00000E+00
    0.15566E-03         0.20562E-04         0.00000E+00
    0.28814E-03        -0.46952E-05         0.00000E+00
    0.40298E-03        -0.44129E-04         0.00000E+00
    0.50464E-03        -0.95110E-04         0.00000E+00
    0.59637E-03        -0.15524E-03         0.00000E+00
    0.68040E-03        -0.22244E-03         0.00000E+00
    0.75824E-03        -0.29495E-03         0.00000E+00
    0.83091E-03        -0.37132E-03         0.00000E+00
    0.89912E-03        -0.45041E-03         0.00000E+00
    0.96340E-03        -0.53133E-03         0.00000E+00
    0.10242E-02        -0.61343E-03         0.00000E+00
    0.10817E-02        -0.69627E-03         0.00000E+00
    0.11364E-02        -0.77954E-03         0.00000E+00
    0.11886E-02        -0.86305E-03         0.00000E+00
    0.12384E-02        -0.94672E-03         0.00000E+00
    0.12861E-02        -0.10305E-02         0.00000E+00
    0.13320E-02        -0.11145E-02         0.00000E+00
    0.13764E-02        -0.11987E-02         0.00000E+00
    0.14193E-02        -0.12832E-02         0.00000E+00
    0.14612E-02        -0.13682E-02         0.00000E+00
    0.15022E-02        -0.14537E-02         0.00000E+00
    0.15423E-02        -0.15398E-02         0.00000E+00
    0.15820E-02        -0.16268E-02         0.00000E+00
    0.16212E-02        -0.17146E-02         0.00000E+00
    0.16602E-02        -0.18035E-02         0.00000E+00
    0.16990E-02        -0.18936E-02         0.00000E+00
    0.17379E-02        -0.19848E-02         0.00000E+00
    0.17768E-02        -0.20775E-02         0.00000E+00
    0.18159E-02        -0.21716E-02         0.00000E+00
    0.18553E-02        -0.22673E-02         0.00000E+00
    0.18950E-02        -0.23647E-02         0.00000E+00
    0.19352E-02        -0.24638E-02         0.00000E+00
    0.19757E-02        -0.25648E-02         0.00000E+00
    0.20168E-02        -0.26676E-02         0.00000E+00
    0.20584E-02        -0.27725E-02         0.00000E+00
    0.21005E-02        -0.28795E-02         0.00000E+00
    0.21432E-02        -0.29887E-02         0.00000E+00
    0.21864E-02        -0.31000E-02         0.00000E+00
    0.22302E-02        -0.32137E-02         0.00000E+00
    0.22747E-02        -0.33298E-02         0.00000E+00
    0.23196E-02        -0.34483E-02         0.00000E+00
    0.23652E-02        -0.35693E-02         0.00000E+00
    0.24113E-02        -0.36929E-02         0.00000E+00
    0.24579E-02        -0.38191E-02         0.00000E+00
    0.25050E-02        -0.39480E-02         0.00000E+00
    0.25525E-02        -0.40797E-02         0.00000E+00
    0.26005E-02        -0.42142E-02         0.00000E+00
    0.26488E-02        -0.43515E-02         0.00000E+00
    0.26975E-02        -0.44918E-02         0.00000E+00
    0.27465E-02        -0.46350E-02         0.00000E+00
    0.27956E-02        -0.47812E-02         0.00000E+00
    0.28449E-02        -0.49305E-02         0.00000E+00
    0.28943E-02        -0.50830E-02         0.00000E+00
    0.29437E-02        -0.52386E-02         0.00000E+00
    0.29930E-02        -0.53973E-02         0.00000E+00
    0.30421E-02        -0.55594E-02         0.00000E+00
    0.30909E-02        -0.57247E-02         0.00000E+00
    0.31394E-02        -0.58934E-02         0.00000E+00
    0.31873E-02        -0.60654E-02         0.00000E+00
    0.32346E-02        -0.62408E-02         0.00000E+00
    0.32811E-02        -0.64197E-02         0.00000E+00
    0.33267E-02        -0.66021E-02         0.00000E+00
    0.33712E-02        -0.67880E-02         0.00000E+00
    0.34144E-02        -0.69775E-02         0.00000E+00
    0.34561E-02        -0.71705E-02         0.00000E+00
    0.34961E-02        -0.73673E-02         0.00000E+00
    0.35342E-02        -0.75677E-02         0.00000E+00
    0.35701E-02        -0.77718E-02         0.00000E+00
    0.36035E-02        -0.79798E-02         0.00000E+00
    0.36342E-02        -0.81916E-02         0.00000E+00
    0.36617E-02        -0.84072E-02         0.00000E+00
    0.36858E-02        -0.86269E-02         0.00000E+00
    0.37060E-02        -0.88506E-02         0.00000E+00
    0.37219E-02        -0.90784E-02         0.00000E+00
    0.37330E-02        -0.93104E-02         0.00000E+00
    0.37389E-02        -0.95467E-02         0.00000E+00
    0.37389E-02        -0.97873E-02         0.00000E+00
    0.37325E-02        -0.10032E-01         0.00000E+00
    0.37191E-02        -0.10282E-01         0.00000E+00
    0.36980E-02        -0.10537E-01         0.00000E+00
    0.36685E-02        -0.10796E-01         0.00000E+00
    0.36297E-02        -0.11060E-01         0.00000E+00
    0.35811E-02        -0.11328E-01         0.00000E+00
    0.35216E-02        -0.11602E-01         0.00000E+00
    0.34506E-02        -0.11879E-01         0.00000E+00
    0.33672E-02        -0.12161E-01         0.00000E+00
    0.32705E-02        -0.12447E-01         0.00000E+00
    0.31596E-02        -0.12736E-01         0.00000E+00
    0.30337E-02        -0.13026E-01         0.00000E+00
    0.28918E-02        -0.13317E-01         0.00000E+00
    0.27329E-02        -0.13605E-01         0.00000E+00
    0.25557E-02        -0.13889E-01         0.00000E+00
    0.23586E-02        -0.14165E-01         0.00000E+00
    0.21393E-02        -0.14428E-01         0.00000E+00
    0.18944E-02        -0.14673E-01         0.00000E+00
    0.16188E-02        -0.14892E-01         0.00000E+00
    0.13050E-02        -0.15078E-01         0.00000E+00
    0.94162E-03        -0.15222E-01         0.00000E+00
    0.51310E-03        -0.15315E-01         0.00000E+00
    0.00000E+00        -0.15347E-01         0.00000E+00
    0.00000E+00         0.25977E-04         0.00000E+00
    0.16540E-03         0.16672E-04         0.00000E+00
    0.30731E-03        -0.10297E-04         0.00000E+00
    0.43105E-03        -0.52596E-04         0.00000E+00
    0.54098E-03        -0.10748E-03         0.00000E+00
    0.64035E-03        -0.17235E-03         0.00000E+00
    0.73145E-03        -0.24493E-03         0.00000E+00
    0.81584E-03        -0.32329E-03         0.00000E+00
    0.89459E-03        -0.40586E-03         0.00000E+00
    0.96845E-03        -0.49137E-03         0.00000E+00
    0.10380E-02        -0.57887E-03         0.00000E+00
    0.11037E-02        -0.66767E-03         0.00000E+00
    0.11659E-02        -0.75726E-03         0.00000E+00
    0.12250E-02        -0.84733E-03         0.00000E+00
    0.12812E-02        -0.93767E-03         0.00000E+00
    0.13349E-02        -0.10282E-02         0.00000E+00
    0.13863E-02        -0.11189E-02         0.00000E+00
    0.14358E-02        -0.12097E-02         0.00000E+00
    0.14836E-02        -0.13009E-02         0.00000E+00
    0.15299E-02        -0.13924E-02         0.00000E+00
    0.15749E-02        -0.14843E-02         0.00000E+00
    0.16190E-02        -0.15769E-02         0.00000E+00
    0.16623E-02        -0.16702E-02         0.00000E+00
    0.17050E-02        -0.17643E-02         0.00000E+00
    0.17472E-02        -0.18595E-02         0.00000E+00
    0.17892E-02        -0.19558E-02         0.00000E+00
    0.18310E-02        -0.20533E-02         0.00000E+00
    0.18728E-02        -0.21522E-02         0.00000E+00
    0.19148E-02        -0.22526E-02         0.00000E+00
    0.19569E-02        -0.23545E-02         0.00000E+00
    0.19993E-02        -0.24582E-02         0.00000E+00
    0.20421E-02        -0.25637E-02         0.00000E+00
    0.20853E-02        -0.26711E-02         0.00000E+00
    0.21290E-02        -0.27805E-02         0.00000E+00
    0.21733E-02        -0.28919E-02         0.00000E+00
    0.22180E-02        -0.30056E-02         0.00000E+00
    0.22634E-02        -0.31215E-02         0.00000E+00
    0.23094E-02        -0.32398E-02         0.00000E+00
    0.23560E-02        -0.33605E-02         0.00000E+00
    0.24033E-02        -0.34837E-02         0.00000E+00
    0.24511E-02        -0.36094E-02         0.00000E+00
    0.24996E-02        -0.37378E-02         0.00000E+00
    0.25487E-02        -0.38689E-02         0.00000E+00
    0.25983E-02        -0.40029E-02         0.00000E+00
    0.26485E-02        -0.41396E-02         0.00000E+00
    0.26993E-02        -0.42793E-02         0.00000E+00
    0.27505E-02        -0.44219E-02         0.00000E+00
    0.28022E-02        -0.45676E-02         0.00000E+00
    0.28543E-02        -0.47164E-02         0.00000E+00
    0.29068E-02        -0.48684E-02         0.00000E+00
    0.29595E-02        -0.50236E-02         0.00000E+00
    0.30125E-02        -0.51820E-02         0.00000E+00
    0.30657E-02        -0.53437E-02         0.00000E+00
    0.31189E-02        -0.55089E-02         0.00000E+00
    0.31721E-02        -0.56774E-02         0.00000E+00
    0.32253E-02        -0.58494E-02         0.00000E+00
    0.32782E-02        -0.60249E-02         0.00000E+00
    0.33308E-02        -0.62040E-02         0.00000E+00
    0.33831E-02        -0.63867E-02         0.00000E+00
    0.34347E-02        -0.65730E-02         0.00000E+00
    0.34857E-02        -0.67631E-02         0.00000E+00
    0.35359E-02        -0.69568E-02         0.00000E+00
    0.35850E-02        -0.71543E-02         0.00000E+00
    0.36330E-02        -0.73557E-02         0.00000E+00
    0.36795E-02        -0.75608E-02         0.00000E+00
    0.37245E-02        -0.77699E-02         0.00000E+00
    0.37677E-02        -0.79829E-02         0.00000E+00
    0.38088E-02        -0.81999E-02         0.00000E+00
    0.38475E-02        -0.84210E-02         0.00000E+00
    0.38836E-02        -0.86461E-02         0.00000E+00
    0.39167E-02        -0.88754E-02         0.00000E+00
    0.39464E-02        -0.91089E-02         0.00000E+00
    0.39725E-02        -0.93466E-02         0.00000E+00
    0.39943E-02        -0.95887E-02         0.00000E+00
    0.40116E-02        -0.98353E-02         0.00000E+00
    0.40237E-02        -0.10086E-01         0.00000E+00
    0.40301E-02        -0.10342E-01         0.00000E+00
    0.40302E-02        -0.10602E-01         0.00000E+00
    0.40235E-02        -0.10868E-01         0.00000E+00
    0.40092E-02        -0.11138E-01         0.00000E+00
    0.39865E-02        -0.11413E-01         0.00000E+00
    0.39548E-02        -0.11693E-01         0.00000E+00
    0.39131E-02        -0.11978E-01         0.00000E+00
    0.38607E-02        -0.12269E-01         0.00000E+00
    0.37967E-02        -0.12564E-01         0.00000E+00
    0.37201E-02        -0.12865E-01         0.00000E+00
    0.36300E-02        -0.13170E-01         0.00000E+00
    0.35255E-02        -0.13478E-01         0.00000E+00
    0.34056E-02        -0.13790E-01         0.00000E+00
    0.32694E-02        -0.14104E-01         0.00000E+00
    0.31157E-02        -0.14418E-01         0.00000E+00
    0.29434E-02        -0.14730E-01         0.00000E+00
    0.27511E-02        -0.15037E-01         0.00000E+00
    0.25371E-02        -0.15335E-01         0.00000E+00
    0.22989E-02        -0.15620E-01         0.00000E+00
    0.20329E-02        -0.15883E-01         0.00000E+00
    0.17341E-02        -0.16120E-01         0.00000E+00
    0.13946E-02        -0.16320E-01         0.00000E+00
    0.10031E-02        -0.16475E-01         0.00000E+00
    0.54440E-03        -0.16573E-01         0.00000E+00
    0.00000E+00        -0.16608E-01         0.00000E+00
    0.00000E+00         0.22060E-04         0.00000E+00
    0.17490E-03         0.12187E-04         0.00000E+00
    0.32605E-03        -0.16504E-04         0.00000E+00
    0.45855E-03        -0.61668E-04         0.00000E+00
    0.57667E-03        -0.12044E-03         0.00000E+00
    0.68365E-03        -0.19003E-03         0.00000E+00
    0.78180E-03        -0.26798E-03         0.00000E+00
    0.87273E-03        -0.35218E-03         0.00000E+00
    0.95754E-03        -0.44092E-03         0.00000E+00
    0.10370E-02        -0.53283E-03         0.00000E+00
    0.11118E-02        -0.62690E-03         0.00000E+00
    0.11824E-02        -0.72236E-03         0.00000E+00
    0.12492E-02        -0.81869E-03         0.00000E+00
    0.13126E-02        -0.91553E-03         0.00000E+00
    0.13729E-02        -0.10127E-02         0.00000E+00
    0.14304E-02        -0.11100E-02         0.00000E+00
    0.14855E-02        -0.12076E-02         0.00000E+00
    0.15385E-02        -0.13053E-02         0.00000E+00
    0.15896E-02        -0.14034E-02         0.00000E+00
    0.16392E-02        -0.15018E-02         0.00000E+00
    0.16875E-02        -0.16008E-02         0.00000E+00
    0.17346E-02        -0.17004E-02         0.00000E+00
    0.17809E-02        -0.18008E-02         0.00000E+00
    0.18266E-02        -0.19022E-02         0.00000E+00
    0.18718E-02        -0.20046E-02         0.00000E+00
    0.19167E-02        -0.21083E-02         0.00000E+00
    0.19615E-02        -0.22133E-02         0.00000E+00
    0.20063E-02        -0.23198E-02         0.00000E+00
    0.20512E-02        -0.24279E-02         0.00000E+00
    0.20963E-02        -0.25377E-02         0.00000E+00
    0.21417E-02        -0.26494E-02         0.00000E+00
    0.21875E-02        -0.27630E-02         0.00000E+00
    0.22338E-02        -0.28786E-02         0.00000E+00
    0.22806E-02        -0.29964E-02         0.00000E+00
    0.23279E-02        -0.31165E-02         0.00000E+00
    0.23759E-02        -0.32389E-02         0.00000E+00
    0.24245E-02        -0.33638E-02         0.00000E+00
    0.24738E-02        -0.34912E-02         0.00000E+00
    0.25237E-02        -0.36212E-02         0.00000E+00
    0.25743E-02        -0.37539E-02         0.00000E+00
    0.26255E-02        -0.38893E-02         0.00000E+00
    0.26775E-02        -0.40276E-02         0.00000E+00
    0.27300E-02        -0.41689E-02         0.00000E+00
    0.27832E-02        -0.43131E-02         0.00000E+00
    0.28370E-02        -0.44604E-02         0.00000E+00
    0.28914E-02        -0.46108E-02         0.00000E+00
    0.29463E-02        -0.47645E-02         0.00000E+00
    0.30017E-02        -0.49214E-02         0.00000E+00
    0.30575E-02        -0.50817E-02         0.00000E+00
    0.31137E-02        -0.52453E-02         0.00000E+00
    0.31702E-02        -0.54124E-02         0.00000E+00
    0.32270E-02        -0.55831E-02         0.00000E+00
    0.32839E-02        -0.57573E-02         0.00000E+00
    0.33409E-02        -0.59351E-02         0.00000E+00
    0.33980E-02        -0.61166E-02         0.00000E+00
    0.34549E-02        -0.63018E-02         0.00000E+00
    0.35116E-02        -0.64908E-02         0.00000E+00
    0.35680E-02        -0.66837E-02         0.00000E+00
    0.36240E-02        -0.68804E-02         0.00000E+00
    0.36794E-02        -0.70810E-02         0.00000E+00
    0.37340E-02        -0.72856E-02         0.00000E+00
    0.37877E-02        -0.74942E-02         0.00000E+00
    0.38404E-02        -0.77068E-02         0.00000E+00
    0.38918E-02        -0.79236E-02         0.00000E+00
    0.39418E-02        -0.81445E-02         0.00000E+00
    0.39900E-02        -0.83695E-02         0.00000E+00
    0.40363E-02        -0.85988E-02         0.00000E+00
    0.40804E-02        -0.88324E-02         0.00000E+00
    0.41219E-02        -0.90703E-02         0.00000E+00
    0.41606E-02        -0.93126E-02         0.00000E+00
    0.41962E-02        -0.95593E-02         0.00000E+00
    0.42281E-02        -0.98106E-02         0.00000E+00
    0.42561E-02        -0.10066E-01         0.00000E+00
    0.42796E-02        -0.10327E-01         0.00000E+00
    0.42982E-02        -0.10592E-01         0.00000E+00
    0.43113E-02        -0.10862E-01         0.00000E+00
    0.43183E-02        -0.11137E-01         0.00000E+00
    0.43186E-02        -0.11417E-01         0.00000E+00
    0.43115E-02        -0.11703E-01         0.00000E+00
    0.42963E-02        -0.11993E-01         0.00000E+00
    0.42722E-02        -0.12289E-01         0.00000E+00
    0.42383E-02        -0.12590E-01         0.00000E+00
    0.41938E-02        -0.12897E-01         0.00000E+00
    0.41377E-02        -0.13209E-01         0.00000E+00
    0.40692E-02        -0.13527E-01         0.00000E+00
    0.39871E-02        -0.13850E-01         0.00000E+00
    0.38905E-02        -0.14177E-01         0.00000E+00
    0.37783E-02        -0.14509E-01         0.00000E+00
    0.36494E-02        -0.14844E-01         0.00000E+00
    0.35029E-02        -0.15181E-01         0.00000E+00
    0.33374E-02        -0.15519E-01         0.00000E+00
    0.31517E-02        -0.15854E-01         0.00000E+00
    0.29443E-02        -0.16184E-01         0.00000E+00
    0.27133E-02        -0.16504E-01         0.00000E+00
    0.24562E-02        -0.16809E-01         0.00000E+00
    0.21693E-02        -0.17092E-01         0.00000E+00
    0.18472E-02        -0.17346E-01         0.00000E+00
    0.14822E-02        -0.17561E-01         0.00000E+00
    0.10630E-02        -0.17726E-01         0.00000E+00
    0.57487E-03        -0.17830E-01         0.00000E+00
    0.00000E+00        -0.17867E-01         0.00000E+00
    0.00000E+00         0.17601E-04         0.00000E+00
    0.18418E-03         0.71522E-05         0.00000E+00
    0.34438E-03        -0.23277E-04         0.00000E+00
    0.48552E-03        -0.71315E-04         0.00000E+00
    0.61176E-03        -0.13398E-03         0.00000E+00
    0.72631E-03        -0.20829E-03         0.00000E+00
    0.83149E-03        -0.29159E-03         0.00000E+00
    0.92893E-03        -0.38162E-03         0.00000E+00
    0.10198E-02        -0.47650E-03         0.00000E+00
    0.11049E-02        -0.57480E-03         0.00000E+00
    0.11849E-02        -0.67541E-03         0.00000E+00
    0.12604E-02        -0.77751E-03         0.00000E+00
    0.13317E-02        -0.88055E-03         0.00000E+00
    0.13994E-02        -0.98415E-03         0.00000E+00
    0.14637E-02        -0.10881E-02         0.00000E+00
    0.15250E-02        -0.11923E-02         0.00000E+00
    0.15837E-02        -0.12966E-02         0.00000E+00
    0.16402E-02        -0.14012E-02         0.00000E+00
    0.16946E-02        -0.15062E-02         0.00000E+00
    0.17474E-02        -0.16116E-02         0.00000E+00
    0.17988E-02        -0.17175E-02         0.00000E+00
    0.18490E-02        -0.18242E-02         0.00000E+00
    0.18983E-02        -0.19317E-02         0.00000E+00
    0.19469E-02        -0.20403E-02         0.00000E+00
    0.19950E-02        -0.21500E-02         0.00000E+00
    0.20429E-02        -0.22611E-02         0.00000E+00
    0.20905E-02        -0.23735E-02         0.00000E+00
    0.21382E-02        -0.24876E-02         0.00000E+00
    0.21860E-02        -0.26034E-02         0.00000E+00
    0.22340E-02        -0.27211E-02         0.00000E+00
    0.22824E-02        -0.28408E-02         0.00000E+00
    0.23312E-02        -0.29625E-02         0.00000E+00
    0.23805E-02        -0.30864E-02         0.00000E+00
    0.24304E-02        -0.32127E-02         0.00000E+00
    0.24808E-02        -0.33414E-02         0.00000E+00
    0.25319E-02        -0.34725E-02         0.00000E+00
    0.25837E-02        -0.36063E-02         0.00000E+00
    0.26362E-02        -0.37429E-02         0.00000E+00
    0.26894E-02        -0.38822E-02         0.00000E+00
    0.27433E-02        -0.40244E-02         0.00000E+00
    0.27979E-02        -0.41695E-02         0.00000E+00
    0.28533E-02        -0.43177E-02         0.00000E+00
    0.29093E-02        -0.44691E-02         0.00000E+00
    0.29660E-02        -0.46236E-02         0.00000E+00
    0.30233E-02        -0.47815E-02         0.00000E+00
    0.30813E-02        -0.49427E-02         0.00000E+00
    0.31398E-02        -0.51073E-02         0.00000E+00
    0.31988E-02        -0.52755E-02         0.00000E+00
    0.32583E-02        -0.54472E-02         0.00000E+00
    0.33182E-02        -0.56226E-02         0.00000E+00
    0.33784E-02        -0.58016E-02         0.00000E+00
    0.34389E-02        -0.59844E-02         0.00000E+00
    0.34996E-02        -0.61711E-02         0.00000E+00
    0.35604E-02        -0.63616E-02         0.00000E+00
    0.36212E-02        -0.65560E-02         0.00000E+00
    0.36819E-02        -0.67545E-02         0.00000E+00
    0.37424E-02        -0.69570E-02         0.00000E+00
    0.38025E-02        -0.71636E-02         0.00000E+00
    0.38622E-02        -0.73743E-02         0.00000E+00
    0.39212E-02        -0.75892E-02         0.00000E+00
    0.39795E-02        -0.78084E-02         0.00000E+00
    0.40368E-02        -0.80318E-02         0.00000E+00
    0.40930E-02        -0.82596E-02         0.00000E+00
    0.41478E-02        -0.84917E-02         0.00000E+00
    0.42010E-02        -0.87283E-02         0.00000E+00
    0.42525E-02        -0.89694E-02         0.00000E+00
    0.43019E-02        -0.92149E-02         0.00000E+00
    0.43489E-02        -0.94651E-02         0.00000E+00
    0.43933E-02        -0.97198E-02         0.00000E+00
    0.44346E-02        -0.99793E-02         0.00000E+00
    0.44726E-02        -0.10243E-01         0.00000E+00
    0.45067E-02        -0.10512E-01         0.00000E+00
    0.45367E-02        -0.10786E-01         0.00000E+00
    0.45619E-02        -0.11065E-01         0.00000E+00
    0.45818E-02        -0.11349E-01         0.00000E+00
    0.45959E-02        -0.11638E-01         0.00000E+00
    0.46035E-02        -0.11932E-01         0.00000E+00
    0.46040E-02        -0.12232E-01         0.00000E+00
    0.45966E-02        -0.12537E-01         0.00000E+00
    0.45806E-02        -0.12848E-01         0.00000E+00
    0.45550E-02        -0.13165E-01         0.00000E+00
    0.45191E-02        -0.13487E-01         0.00000E+00
    0.44718E-02        -0.13815E-01         0.00000E+00
    0.44122E-02        -0.14149E-01         0.00000E+00
    0.43392E-02        -0.14488E-01         0.00000E+00
    0.42517E-02        -0.14834E-01         0.00000E+00
    0.41486E-02        -0.15184E-01         0.00000E+00
    0.40288E-02        -0.15539E-01         0.00000E+00
    0.38911E-02        -0.15897E-01         0.00000E+00
    0.37342E-02        -0.16257E-01         0.00000E+00
    0.35570E-02        -0.16618E-01         0.00000E+00
    0.33580E-02        -0.16976E-01         0.00000E+00
    0.31355E-02        -0.17329E-01         0.00000E+00
    0.28876E-02        -0.17671E-01         0.00000E+00
    0.26115E-02        -0.17997E-01         0.00000E+00
    0.23036E-02        -0.18300E-01         0.00000E+00
    0.19584E-02        -0.18571E-01         0.00000E+00
    0.15681E-02        -0.18799E-01         0.00000E+00
    0.11216E-02        -0.18975E-01         0.00000E+00
    0.60460E-03        -0.19086E-01         0.00000E+00
    0.00000E+00        -0.19124E-01         0.00000E+00
    0.00000E+00         0.12646E-04         0.00000E+00
    0.19327E-03         0.16107E-05         0.00000E+00
    0.36235E-03        -0.30577E-04         0.00000E+00
    0.51201E-03        -0.81506E-04         0.00000E+00
    0.64630E-03        -0.14806E-03         0.00000E+00
    0.76838E-03        -0.22710E-03         0.00000E+00
    0.88056E-03        -0.31575E-03         0.00000E+00
    0.98450E-03        -0.41158E-03         0.00000E+00
    0.10814E-02        -0.51260E-03         0.00000E+00
    0.11721E-02        -0.61727E-03         0.00000E+00
    0.12573E-02        -0.72439E-03         0.00000E+00
    0.13376E-02        -0.83312E-03         0.00000E+00
    0.14134E-02        -0.94284E-03         0.00000E+00
    0.14853E-02        -0.10532E-02         0.00000E+00
    0.15535E-02        -0.11639E-02         0.00000E+00
    0.16186E-02        -0.12748E-02         0.00000E+00
    0.16809E-02        -0.13860E-02         0.00000E+00
    0.17407E-02        -0.14975E-02         0.00000E+00
    0.17985E-02        -0.16093E-02         0.00000E+00
    0.18544E-02        -0.17216E-02         0.00000E+00
    0.19088E-02        -0.18346E-02         0.00000E+00
    0.19621E-02        -0.19483E-02         0.00000E+00
    0.20143E-02        -0.20629E-02         0.00000E+00
    0.20658E-02        -0.21787E-02         0.00000E+00
    0.21168E-02        -0.22957E-02         0.00000E+00
    0.21675E-02        -0.24141E-02         0.00000E+00
    0.22181E-02        -0.25341E-02         0.00000E+00
    0.22686E-02        -0.26557E-02         0.00000E+00
    0.23193E-02        -0.27793E-02         0.00000E+00
    0.23702E-02        -0.29048E-02         0.00000E+00
    0.24215E-02        -0.30324E-02         0.00000E+00
    0.24732E-02        -0.31623E-02         0.00000E+00
    0.25255E-02        -0.32945E-02         0.00000E+00
    0.25784E-02        -0.34292E-02         0.00000E+00
    0.26319E-02        -0.35665E-02         0.00000E+00
    0.26861E-02        -0.37064E-02         0.00000E+00
    0.27411E-02        -0.38492E-02         0.00000E+00
    0.27967E-02        -0.39948E-02         0.00000E+00
    0.28532E-02        -0.41434E-02         0.00000E+00
    0.29103E-02        -0.42951E-02         0.00000E+00
    0.29683E-02        -0.44500E-02         0.00000E+00
    0.30270E-02        -0.46081E-02         0.00000E+00
    0.30864E-02        -0.47696E-02         0.00000E+00
    0.31466E-02        -0.49345E-02         0.00000E+00
    0.32074E-02        -0.51029E-02         0.00000E+00
    0.32689E-02        -0.52748E-02         0.00000E+00
    0.33310E-02        -0.54505E-02         0.00000E+00
    0.33936E-02        -0.56299E-02         0.00000E+00
    0.34567E-02        -0.58130E-02         0.00000E+00
    0.35203E-02        -0.60001E-02         0.00000E+00
    0.35842E-02        -0.61911E-02         0.00000E+00
    0.36484E-02        -0.63861E-02         0.00000E+00
    0.37128E-02        -0.65852E-02         0.00000E+00
    0.37773E-02        -0.67884E-02         0.00000E+00
    0.38418E-02        -0.69958E-02         0.00000E+00
    0.39063E-02        -0.72075E-02         0.00000E+00
    0.39704E-02        -0.74234E-02         0.00000E+00
    0.40343E-02        -0.76438E-02         0.00000E+00
    0.40976E-02        -0.78685E-02         0.00000E+00
    0.41603E-02        -0.80977E-02         0.00000E+00
    0.42221E-02        -0.83314E-02         0.00000E+00
    0.42830E-02        -0.85697E-02         0.00000E+00
    0.43426E-02        -0.88126E-02         0.00000E+00
    0.44008E-02        -0.90602E-02         0.00000E+00
    0.44574E-02        -0.93124E-02         0.00000E+00
    0.45121E-02        -0.95694E-02         0.00000E+00
    0.45645E-02        -0.98313E-02         0.00000E+00
    0.46145E-02        -0.10098E-01         0.00000E+00
    0.46616E-02        -0.10370E-01         0.00000E+00
    0.47056E-02        -0.10646E-01         0.00000E+00
    0.47460E-02        -0.10928E-01         0.00000E+00
    0.47823E-02        -0.11214E-01         0.00000E+00
    0.48142E-02        -0.11506E-01         0.00000E+00
    0.48411E-02        -0.11803E-01         0.00000E+00
    0.48624E-02        -0.12106E-01         0.00000E+00
    0.48775E-02        -0.12414E-01         0.00000E+00
    0.48858E-02        -0.12728E-01         0.00000E+00
    0.48865E-02        -0.13047E-01         0.00000E+00
    0.48789E-02        -0.13372E-01         0.00000E+00
    0.48620E-02        -0.13703E-01         0.00000E+00
    0.48352E-02        -0.14040E-01         0.00000E+00
    0.47972E-02        -0.14383E-01         0.00000E+00
    0.47472E-02        -0.14733E-01         0.00000E+00
    0.46841E-02        -0.15088E-01         0.00000E+00
    0.46067E-02        -0.15450E-01         0.00000E+00
    0.45139E-02        -0.15817E-01         0.00000E+00
    0.44044E-02        -0.16190E-01         0.00000E+00
    0.42771E-02        -0.16567E-01         0.00000E+00
    0.41306E-02        -0.16949E-01         0.00000E+00
    0.39636E-02        -0.17332E-01         0.00000E+00
    0.37747E-02        -0.17716E-01         0.00000E+00
    0.35623E-02        -0.18098E-01         0.00000E+00
    0.33248E-02        -0.18473E-01         0.00000E+00
    0.30599E-02        -0.18837E-01         0.00000E+00
    0.27650E-02        -0.19184E-01         0.00000E+00
    0.24361E-02        -0.19506E-01         0.00000E+00
    0.20679E-02        -0.19793E-01         0.00000E+00
    0.16524E-02        -0.20036E-01         0.00000E+00
    0.11790E-02        -0.20222E-01         0.00000E+00
    0.63367E-03        -0.20340E-01         0.00000E+00
    0.00000E+00        -0.20380E-01         0.00000E+00
    0.00000E+00         0.72367E-05         0.00000E+00
    0.20218E-03        -0.43962E-05         0.00000E+00
    0.37999E-03        -0.38368E-04         0.00000E+00
    0.53806E-03        -0.92212E-04         0.00000E+00
    0.68032E-03        -0.16268E-03         0.00000E+00
    0.80989E-03        -0.24644E-03         0.00000E+00
    0.92904E-03        -0.34044E-03         0.00000E+00
    0.10395E-02        -0.44207E-03         0.00000E+00
    0.11423E-02        -0.54921E-03         0.00000E+00
    0.12386E-02        -0.66022E-03         0.00000E+00
    0.13289E-02        -0.77384E-03         0.00000E+00
    0.14140E-02        -0.88916E-03         0.00000E+00
    0.14943E-02        -0.10056E-02         0.00000E+00
    0.15703E-02        -0.11226E-02         0.00000E+00
    0.16425E-02        -0.12400E-02         0.00000E+00
    0.17113E-02        -0.13578E-02         0.00000E+00
    0.17771E-02        -0.14758E-02         0.00000E+00
    0.18403E-02        -0.15941E-02         0.00000E+00
    0.19012E-02        -0.17128E-02         0.00000E+00
    0.19603E-02        -0.18320E-02         0.00000E+00
    0.20177E-02        -0.19519E-02         0.00000E+00
    0.20739E-02        -0.20726E-02         0.00000E+00
    0.21290E-02        -0.21944E-02         0.00000E+00
    0.21834E-02        -0.23173E-02         0.00000E+00
    0.22373E-02        -0.24416E-02         0.00000E+00
    0.22908E-02        -0.25674E-02         0.00000E+00
    0.23441E-02        -0.26948E-02         0.00000E+00
    0.23975E-02        -0.28241E-02         0.00000E+00
    0.24510E-02        -0.29553E-02         0.00000E+00
    0.25048E-02        -0.30887E-02         0.00000E+00
    0.25589E-02        -0.32243E-02         0.00000E+00
    0.26136E-02        -0.33623E-02         0.00000E+00
    0.26688E-02        -0.35028E-02         0.00000E+00
    0.27247E-02        -0.36459E-02         0.00000E+00
    0.27812E-02        -0.37918E-02         0.00000E+00
    0.28385E-02        -0.39405E-02         0.00000E+00
    0.28965E-02        -0.40922E-02         0.00000E+00
    0.29553E-02        -0.42470E-02         0.00000E+00
    0.30150E-02        -0.44049E-02         0.00000E+00
    0.30754E-02        -0.45661E-02         0.00000E+00
    0.31366E-02        -0.47307E-02         0.00000E+00
    0.31986E-02        -0.48988E-02         0.00000E+00
    0.32615E-02        -0.50703E-02         0.00000E+00
    0.33250E-02        -0.52456E-02         0.00000E+00
    0.33893E-02        -0.54245E-02         0.00000E+00
    0.34543E-02        -0.56073E-02         0.00000E+00
    0.35199E-02        -0.57939E-02         0.00000E+00
    0.35861E-02        -0.59845E-02         0.00000E+00
    0.36528E-02        -0.61791E-02         0.00000E+00
    0.37200E-02        -0.63779E-02         0.00000E+00
    0.37875E-02        -0.65809E-02         0.00000E+00
    0.38554E-02        -0.67881E-02         0.00000E+00
    0.39235E-02        -0.69996E-02         0.00000E+00
    0.39917E-02        -0.72155E-02         0.00000E+00
    0.40599E-02        -0.74359E-02         0.00000E+00
    0.41280E-02        -0.76607E-02         0.00000E+00
    0.41958E-02        -0.78902E-02         0.00000E+00
    0.42633E-02        -0.81243E-02         0.00000E+00
    0.43303E-02        -0.83630E-02         0.00000E+00
    0.43966E-02        -0.86065E-02         0.00000E+00
    0.44620E-02        -0.88548E-02         0.00000E+00
    0.45263E-02        -0.91079E-02         0.00000E+00
    0.45894E-02        -0.93659E-02         0.00000E+00
    0.46510E-02        -0.96288E-02         0.00000E+00
    0.47108E-02        -0.98968E-02         0.00000E+00
    0.47686E-02        -0.10170E-01         0.00000E+00
    0.48242E-02        -0.10448E-01         0.00000E+00
    0.48771E-02        -0.10731E-01         0.00000E+00
    0.49270E-02        -0.11019E-01         0.00000E+00
    0.49736E-02        -0.11313E-01         0.00000E+00
    0.50164E-02        -0.11612E-01         0.00000E+00
    0.50549E-02        -0.11916E-01         0.00000E+00
    0.50888E-02        -0.12226E-01         0.00000E+00
    0.51173E-02        -0.12542E-01         0.00000E+00
    0.51400E-02        -0.12863E-01         0.00000E+00
    0.51562E-02        -0.13190E-01         0.00000E+00
    0.51651E-02        -0.13523E-01         0.00000E+00
    0.51661E-02        -0.13861E-01         0.00000E+00
    0.51583E-02        -0.14206E-01         0.00000E+00
    0.51407E-02        -0.14558E-01         0.00000E+00
    0.51125E-02        -0.14915E-01         0.00000E+00
    0.50727E-02        -0.15279E-01         0.00000E+00
    0.50201E-02        -0.15650E-01         0.00000E+00
    0.49535E-02        -0.16027E-01         0.00000E+00
    0.48719E-02        -0.16410E-01         0.00000E+00
    0.47738E-02        -0.16800E-01         0.00000E+00
    0.46581E-02        -0.17195E-01         0.00000E+00
    0.45233E-02        -0.17595E-01         0.00000E+00
    0.43681E-02        -0.17999E-01         0.00000E+00
    0.41910E-02        -0.18406E-01         0.00000E+00
    0.39905E-02        -0.18813E-01         0.00000E+00
    0.37648E-02        -0.19217E-01         0.00000E+00
    0.35123E-02        -0.19615E-01         0.00000E+00
    0.32305E-02        -0.20001E-01         0.00000E+00
    0.29167E-02        -0.20369E-01         0.00000E+00
    0.25669E-02        -0.20710E-01         0.00000E+00
    0.21757E-02        -0.21015E-01         0.00000E+00
    0.17354E-02        -0.21272E-01         0.00000E+00
    0.12353E-02        -0.21468E-01         0.00000E+00
    0.66216E-03        -0.21593E-01         0.00000E+00
    0.00000E+00        -0.21635E-01         0.00000E+00
    0.00000E+00         0.14147E-05         0.00000E+00
    0.21093E-03        -0.10829E-04         0.00000E+00
    0.39734E-03        -0.46614E-04         0.00000E+00
    0.56371E-03        -0.10340E-03         0.00000E+00
    0.71388E-03        -0.17781E-03         0.00000E+00
    0.85088E-03        -0.26631E-03         0.00000E+00
    0.97698E-03        -0.36565E-03         0.00000E+00
    0.10938E-02        -0.47307E-03         0.00000E+00
    0.12027E-02        -0.58632E-03         0.00000E+00
    0.13045E-02        -0.70366E-03         0.00000E+00
    0.13999E-02        -0.82375E-03         0.00000E+00
    0.14897E-02        -0.94565E-03         0.00000E+00
    0.15744E-02        -0.10687E-02         0.00000E+00
    0.16546E-02        -0.11924E-02         0.00000E+00
    0.17306E-02        -0.13166E-02         0.00000E+00
    0.18030E-02        -0.14411E-02         0.00000E+00
    0.18723E-02        -0.15658E-02         0.00000E+00
    0.19388E-02        -0.16909E-02         0.00000E+00
    0.20029E-02        -0.18165E-02         0.00000E+00
    0.20650E-02        -0.19426E-02         0.00000E+00
    0.21254E-02        -0.20695E-02         0.00000E+00
    0.21845E-02        -0.21973E-02         0.00000E+00
    0.22425E-02        -0.23261E-02         0.00000E+00
    0.22997E-02        -0.24562E-02         0.00000E+00
    0.23563E-02        -0.25878E-02         0.00000E+00
    0.24126E-02        -0.27209E-02         0.00000E+00
    0.24687E-02        -0.28558E-02         0.00000E+00
    0.25248E-02        -0.29927E-02         0.00000E+00
    0.25811E-02        -0.31317E-02         0.00000E+00
    0.26377E-02        -0.32729E-02         0.00000E+00
    0.26947E-02        -0.34165E-02         0.00000E+00
    0.27523E-02        -0.35626E-02         0.00000E+00
    0.28104E-02        -0.37114E-02         0.00000E+00
    0.28692E-02        -0.38629E-02         0.00000E+00
    0.29287E-02        -0.40174E-02         0.00000E+00
    0.29890E-02        -0.41749E-02         0.00000E+00
    0.30501E-02        -0.43356E-02         0.00000E+00
    0.31120E-02        -0.44994E-02         0.00000E+00
    0.31748E-02        -0.46667E-02         0.00000E+00
    0.32384E-02        -0.48374E-02         0.00000E+00
    0.33029E-02        -0.50117E-02         0.00000E+00
    0.33682E-02        -0.51897E-02         0.00000E+00
    0.34344E-02        -0.53714E-02         0.00000E+00
    0.35013E-02        -0.55569E-02         0.00000E+00
    0.35690E-02        -0.57464E-02         0.00000E+00
    0.36374E-02        -0.59399E-02         0.00000E+00
    0.37065E-02        -0.61376E-02         0.00000E+00
    0.37762E-02        -0.63394E-02         0.00000E+00
    0.38465E-02        -0.65455E-02         0.00000E+00
    0.39173E-02        -0.67560E-02         0.00000E+00
    0.39884E-02        -0.69709E-02         0.00000E+00
    0.40599E-02        -0.71903E-02         0.00000E+00
    0.41316E-02        -0.74143E-02         0.00000E+00
    0.42035E-02        -0.76429E-02         0.00000E+00
    0.42753E-02        -0.78762E-02         0.00000E+00
    0.43471E-02        -0.81143E-02         0.00000E+00
    0.44186E-02        -0.83572E-02         0.00000E+00
    0.44897E-02        -0.86050E-02         0.00000E+00
    0.45602E-02        -0.88578E-02         0.00000E+00
    0.46301E-02        -0.91155E-02         0.00000E+00
    0.46990E-02        -0.93784E-02         0.00000E+00
    0.47668E-02        -0.96463E-02         0.00000E+00
    0.48333E-02        -0.99194E-02         0.00000E+00
    0.48982E-02        -0.10198E-01         0.00000E+00
    0.49613E-02        -0.10481E-01         0.00000E+00
    0.50223E-02        -0.10770E-01         0.00000E+00
    0.50809E-02        -0.11064E-01         0.00000E+00
    0.51367E-02        -0.11364E-01         0.00000E+00
    0.51894E-02        -0.11669E-01         0.00000E+00
    0.52385E-02        -0.11980E-01         0.00000E+00
    0.52837E-02        -0.12297E-01         0.00000E+00
    0.53245E-02        -0.12619E-01         0.00000E+00
    0.53603E-02        -0.12946E-01         0.00000E+00
    0.53906E-02        -0.13280E-01         0.00000E+00
    0.54146E-02        -0.13620E-01         0.00000E+00
    0.54319E-02        -0.13966E-01         0.00000E+00
    0.54416E-02        -0.14318E-01         0.00000E+00
    0.54428E-02        -0.14676E-01         0.00000E+00
    0.54349E-02        -0.15041E-01         0.00000E+00
    0.54167E-02        -0.15412E-01         0.00000E+00
    0.53873E-02        -0.15790E-01         0.00000E+00
    0.53455E-02        -0.16175E-01         0.00000E+00
    0.52904E-02        -0.16566E-01         0.00000E+00
    0.52205E-02        -0.16965E-01         0.00000E+00
    0.51347E-02        -0.17370E-01         0.00000E+00
    0.50315E-02        -0.17782E-01         0.00000E+00
    0.49096E-02        -0.18199E-01         0.00000E+00
    0.47675E-02        -0.18622E-01         0.00000E+00
    0.46037E-02        -0.19049E-01         0.00000E+00
    0.44166E-02        -0.19479E-01         0.00000E+00
    0.42045E-02        -0.19909E-01         0.00000E+00
    0.39657E-02        -0.20336E-01         0.00000E+00
    0.36982E-02        -0.20756E-01         0.00000E+00
    0.33995E-02        -0.21164E-01         0.00000E+00
    0.30669E-02        -0.21553E-01         0.00000E+00
    0.26962E-02        -0.21913E-01         0.00000E+00
    0.22821E-02        -0.22235E-01         0.00000E+00
    0.18170E-02        -0.22506E-01         0.00000E+00
    0.12907E-02        -0.22713E-01         0.00000E+00
    0.69014E-03        -0.22844E-01         0.00000E+00
    0.00000E+00        -0.22889E-01         0.00000E+00
    0.00000E+00        -0.47803E-05         0.00000E+00
    0.21953E-03        -0.17648E-04         0.00000E+00
    0.41442E-03        -0.55281E-04         0.00000E+00
    0.58900E-03        -0.11505E-03         0.00000E+00
    0.74702E-03        -0.19343E-03         0.00000E+00
    0.89141E-03        -0.28668E-03         0.00000E+00
    0.10244E-02        -0.39137E-03         0.00000E+00
    0.11477E-02        -0.50458E-03         0.00000E+00
    0.12625E-02        -0.62393E-03         0.00000E+00
    0.13697E-02        -0.74757E-03         0.00000E+00
    0.14703E-02        -0.87412E-03         0.00000E+00
    0.15647E-02        -0.10026E-02         0.00000E+00
    0.16538E-02        -0.11322E-02         0.00000E+00
    0.17380E-02        -0.12626E-02         0.00000E+00
    0.18179E-02        -0.13935E-02         0.00000E+00
    0.18939E-02        -0.15247E-02         0.00000E+00
    0.19665E-02        -0.16562E-02         0.00000E+00
    0.20362E-02        -0.17881E-02         0.00000E+00
    0.21035E-02        -0.19205E-02         0.00000E+00
    0.21686E-02        -0.20536E-02         0.00000E+00
    0.22319E-02        -0.21874E-02         0.00000E+00
    0.22938E-02        -0.23222E-02         0.00000E+00
    0.23546E-02        -0.24581E-02         0.00000E+00
    0.24146E-02        -0.25954E-02         0.00000E+00
    0.24739E-02        -0.27342E-02         0.00000E+00
    0.25329E-02        -0.28747E-02         0.00000E+00
    0.25918E-02        -0.30171E-02         0.00000E+00
    0.26506E-02        -0.31615E-02         0.00000E+00
    0.27097E-02        -0.33082E-02         0.00000E+00
    0.27691E-02        -0.34573E-02         0.00000E+00
    0.28289E-02        -0.36088E-02         0.00000E+00
    0.28892E-02        -0.37631E-02         0.00000E+00
    0.29502E-02        -0.39201E-02         0.00000E+00
    0.30119E-02        -0.40802E-02         0.00000E+00
    0.30744E-02        -0.42432E-02         0.00000E+00
    0.31376E-02        -0.44095E-02         0.00000E+00
    0.32018E-02        -0.45791E-02         0.00000E+00
    0.32668E-02        -0.47521E-02         0.00000E+00
    0.33326E-02        -0.49287E-02         0.00000E+00
    0.33994E-02        -0.51090E-02         0.00000E+00
    0.34671E-02        -0.52930E-02         0.00000E+00
    0.35357E-02        -0.54808E-02         0.00000E+00
    0.36051E-02        -0.56726E-02         0.00000E+00
    0.36754E-02        -0.58685E-02         0.00000E+00
    0.37465E-02        -0.60686E-02         0.00000E+00
    0.38183E-02        -0.62729E-02         0.00000E+00
    0.38909E-02        -0.64815E-02         0.00000E+00
    0.39641E-02        -0.66946E-02         0.00000E+00
    0.40379E-02        -0.69122E-02         0.00000E+00
    0.41122E-02        -0.71343E-02         0.00000E+00
    0.41869E-02        -0.73612E-02         0.00000E+00
    0.42620E-02        -0.75928E-02         0.00000E+00
    0.43373E-02        -0.78292E-02         0.00000E+00
    0.44127E-02        -0.80705E-02         0.00000E+00
    0.44882E-02        -0.83168E-02         0.00000E+00
    0.45635E-02        -0.85681E-02         0.00000E+00
    0.46386E-02        -0.88245E-02         0.00000E+00
    0.47133E-02        -0.90860E-02         0.00000E+00
    0.47874E-02        -0.93528E-02         0.00000E+00
    0.48608E-02        -0.96248E-02         0.00000E+00
    0.49332E-02        -0.99022E-02         0.00000E+00
    0.50045E-02        -0.10185E-01         0.00000E+00
    0.50743E-02        -0.10473E-01         0.00000E+00
    0.51426E-02        -0.10767E-01         0.00000E+00
    0.52089E-02        -0.11066E-01         0.00000E+00
    0.52730E-02        -0.11371E-01         0.00000E+00
    0.53346E-02        -0.11681E-01         0.00000E+00
    0.53933E-02        -0.11998E-01         0.00000E+00
    0.54488E-02        -0.12320E-01         0.00000E+00
    0.55005E-02        -0.12647E-01         0.00000E+00
    0.55481E-02        -0.12981E-01         0.00000E+00
    0.55911E-02        -0.13321E-01         0.00000E+00
    0.56289E-02        -0.13667E-01         0.00000E+00
    0.56608E-02        -0.14019E-01         0.00000E+00
    0.56864E-02        -0.14377E-01         0.00000E+00
    0.57047E-02        -0.14741E-01         0.00000E+00
    0.57151E-02        -0.15113E-01         0.00000E+00
    0.57167E-02        -0.15490E-01         0.00000E+00
    0.57087E-02        -0.15875E-01         0.00000E+00
    0.56899E-02        -0.16266E-01         0.00000E+00
    0.56593E-02        -0.16665E-01         0.00000E+00
    0.56158E-02        -0.17070E-01         0.00000E+00
    0.55582E-02        -0.17483E-01         0.00000E+00
    0.54852E-02        -0.17903E-01         0.00000E+00
    0.53953E-02        -0.18329E-01         0.00000E+00
    0.52871E-02        -0.18763E-01         0.00000E+00
    0.51591E-02        -0.19203E-01         0.00000E+00
    0.50098E-02        -0.19648E-01         0.00000E+00
    0.48375E-02        -0.20098E-01         0.00000E+00
    0.46405E-02        -0.20550E-01         0.00000E+00
    0.44170E-02        -0.21003E-01         0.00000E+00
    0.41650E-02        -0.21453E-01         0.00000E+00
    0.38826E-02        -0.21896E-01         0.00000E+00
    0.35671E-02        -0.22325E-01         0.00000E+00
    0.32156E-02        -0.22735E-01         0.00000E+00
    0.28241E-02        -0.23114E-01         0.00000E+00
    0.23872E-02        -0.23454E-01         0.00000E+00
    0.18976E-02        -0.23739E-01         0.00000E+00
    0.13453E-02        -0.23957E-01         0.00000E+00
    0.71767E-03        -0.24095E-01         0.00000E+00
    0.00000E+00        -0.24142E-01         0.00000E+00
    0.00000E+00        -0.11309E-04         0.00000E+00
    0.22801E-03        -0.24816E-04         0.00000E+00
    0.43126E-03        -0.64335E-04         0.00000E+00
    0.61397E-03        -0.12713E-03         0.00000E+00
    0.77976E-03        -0.20951E-03         0.00000E+00
    0.93151E-03        -0.30753E-03         0.00000E+00
    0.10714E-02        -0.41759E-03         0.00000E+00
    0.12010E-02        -0.53658E-03         0.00000E+00
    0.13217E-02        -0.66202E-03         0.00000E+00
    0.14344E-02        -0.79196E-03         0.00000E+00
    0.15400E-02        -0.92494E-03         0.00000E+00
    0.16391E-02        -0.10599E-02         0.00000E+00
    0.17324E-02        -0.11962E-02         0.00000E+00
    0.18206E-02        -0.13332E-02         0.00000E+00
    0.19042E-02        -0.14707E-02         0.00000E+00
    0.19838E-02        -0.16087E-02         0.00000E+00
    0.20598E-02        -0.17470E-02         0.00000E+00
    0.21327E-02        -0.18857E-02         0.00000E+00
    0.22029E-02        -0.20249E-02         0.00000E+00
    0.22710E-02        -0.21648E-02         0.00000E+00
    0.23372E-02        -0.23055E-02         0.00000E+00
    0.24019E-02        -0.24473E-02         0.00000E+00
    0.24654E-02        -0.25903E-02         0.00000E+00
    0.25281E-02        -0.27347E-02         0.00000E+00
    0.25902E-02        -0.28808E-02         0.00000E+00
    0.26518E-02        -0.30287E-02         0.00000E+00
    0.27134E-02        -0.31786E-02         0.00000E+00
    0.27749E-02        -0.33306E-02         0.00000E+00
    0.28367E-02        -0.34850E-02         0.00000E+00
    0.28988E-02        -0.36419E-02         0.00000E+00
    0.29613E-02        -0.38014E-02         0.00000E+00
    0.30245E-02        -0.39638E-02         0.00000E+00
    0.30883E-02        -0.41292E-02         0.00000E+00
    0.31529E-02        -0.42976E-02         0.00000E+00
    0.32182E-02        -0.44693E-02         0.00000E+00
    0.32844E-02        -0.46444E-02         0.00000E+00
    0.33515E-02        -0.48229E-02         0.00000E+00
    0.34196E-02        -0.50051E-02         0.00000E+00
    0.34885E-02        -0.51910E-02         0.00000E+00
    0.35585E-02        -0.53807E-02         0.00000E+00
    0.36293E-02        -0.55744E-02         0.00000E+00
    0.37011E-02        -0.57722E-02         0.00000E+00
    0.37738E-02        -0.59742E-02         0.00000E+00
    0.38474E-02        -0.61804E-02         0.00000E+00
    0.39218E-02        -0.63910E-02         0.00000E+00
    0.39970E-02        -0.66061E-02         0.00000E+00
    0.40730E-02        -0.68257E-02         0.00000E+00
    0.41496E-02        -0.70500E-02         0.00000E+00
    0.42269E-02        -0.72791E-02         0.00000E+00
    0.43047E-02        -0.75130E-02         0.00000E+00
    0.43829E-02        -0.77518E-02         0.00000E+00
    0.44615E-02        -0.79955E-02         0.00000E+00
    0.45404E-02        -0.82444E-02         0.00000E+00
    0.46194E-02        -0.84984E-02         0.00000E+00
    0.46985E-02        -0.87576E-02         0.00000E+00
    0.47774E-02        -0.90221E-02         0.00000E+00
    0.48560E-02        -0.92920E-02         0.00000E+00
    0.49343E-02        -0.95673E-02         0.00000E+00
    0.50119E-02        -0.98480E-02         0.00000E+00
    0.50888E-02        -0.10134E-01         0.00000E+00
    0.51646E-02        -0.10426E-01         0.00000E+00
    0.52393E-02        -0.10724E-01         0.00000E+00
    0.53125E-02        -0.11027E-01         0.00000E+00
    0.53840E-02        -0.11336E-01         0.00000E+00
    0.54536E-02        -0.11651E-01         0.00000E+00
    0.55208E-02        -0.11972E-01         0.00000E+00
    0.55854E-02        -0.12298E-01         0.00000E+00
    0.56470E-02        -0.12631E-01         0.00000E+00
    0.57052E-02        -0.12970E-01         0.00000E+00
    0.57595E-02        -0.13315E-01         0.00000E+00
    0.58095E-02        -0.13666E-01         0.00000E+00
    0.58547E-02        -0.14023E-01         0.00000E+00
    0.58945E-02        -0.14387E-01         0.00000E+00
    0.59282E-02        -0.14757E-01         0.00000E+00
    0.59551E-02        -0.15134E-01         0.00000E+00
    0.59746E-02        -0.15517E-01         0.00000E+00
    0.59858E-02        -0.15907E-01         0.00000E+00
    0.59878E-02        -0.16305E-01         0.00000E+00
    0.59797E-02        -0.16709E-01         0.00000E+00
    0.59604E-02        -0.17120E-01         0.00000E+00
    0.59288E-02        -0.17539E-01         0.00000E+00
    0.58836E-02        -0.17965E-01         0.00000E+00
    0.58236E-02        -0.18399E-01         0.00000E+00
    0.57475E-02        -0.18840E-01         0.00000E+00
    0.56536E-02        -0.19288E-01         0.00000E+00
    0.55406E-02        -0.19744E-01         0.00000E+00
    0.54067E-02        -0.20206E-01         0.00000E+00
    0.52503E-02        -0.20673E-01         0.00000E+00
    0.50696E-02        -0.21146E-01         0.00000E+00
    0.48628E-02        -0.21621E-01         0.00000E+00
    0.46279E-02        -0.22097E-01         0.00000E+00
    0.43630E-02        -0.22569E-01         0.00000E+00
    0.40656E-02        -0.23034E-01         0.00000E+00
    0.37334E-02        -0.23485E-01         0.00000E+00
    0.33631E-02        -0.23915E-01         0.00000E+00
    0.29508E-02        -0.24315E-01         0.00000E+00
    0.24913E-02        -0.24671E-01         0.00000E+00
    0.19772E-02        -0.24971E-01         0.00000E+00
    0.13991E-02        -0.25200E-01         0.00000E+00
    0.74482E-03        -0.25344E-01         0.00000E+00
    0.00000E+00        -0.25394E-01         0.00000E+00
    0.00000E+00        -0.18134E-04         0.00000E+00
    0.23638E-03        -0.32298E-04         0.00000E+00
    0.44789E-03        -0.73744E-04         0.00000E+00
    0.63866E-03        -0.13962E-03         0.00000E+00
    0.81217E-03        -0.22603E-03         0.00000E+00
    0.97122E-03        -0.32887E-03         0.00000E+00
    0.11179E-02        -0.44430E-03         0.00000E+00
    0.12539E-02        -0.56908E-03         0.00000E+00
    0.13805E-02        -0.70059E-03         0.00000E+00
    0.14985E-02        -0.83680E-03         0.00000E+00
    0.16091E-02        -0.97620E-03         0.00000E+00
    0.17128E-02        -0.11177E-02         0.00000E+00
    0.18104E-02        -0.12605E-02         0.00000E+00
    0.19025E-02        -0.14042E-02         0.00000E+00
    0.19898E-02        -0.15484E-02         0.00000E+00
    0.20728E-02        -0.16930E-02         0.00000E+00
    0.21521E-02        -0.18380E-02         0.00000E+00
    0.22281E-02        -0.19835E-02         0.00000E+00
    0.23013E-02        -0.21295E-02         0.00000E+00
    0.23723E-02        -0.22763E-02         0.00000E+00
    0.24413E-02        -0.24239E-02         0.00000E+00
    0.25087E-02        -0.25727E-02         0.00000E+00
    0.25750E-02        -0.27228E-02         0.00000E+00
    0.26403E-02        -0.28744E-02         0.00000E+00
    0.27050E-02        -0.30277E-02         0.00000E+00
    0.27693E-02        -0.31829E-02         0.00000E+00
    0.28335E-02        -0.33402E-02         0.00000E+00
    0.28977E-02        -0.34999E-02         0.00000E+00
    0.29621E-02        -0.36620E-02         0.00000E+00
    0.30269E-02        -0.38267E-02         0.00000E+00
    0.30922E-02        -0.39943E-02         0.00000E+00
    0.31581E-02        -0.41648E-02         0.00000E+00
    0.32247E-02        -0.43384E-02         0.00000E+00
    0.32920E-02        -0.45153E-02         0.00000E+00
    0.33603E-02        -0.46956E-02         0.00000E+00
    0.34294E-02        -0.48794E-02         0.00000E+00
    0.34994E-02        -0.50669E-02         0.00000E+00
    0.35705E-02        -0.52582E-02         0.00000E+00
    0.36425E-02        -0.54535E-02         0.00000E+00
    0.37155E-02        -0.56527E-02         0.00000E+00
    0.37895E-02        -0.58562E-02         0.00000E+00
    0.38644E-02        -0.60639E-02         0.00000E+00
    0.39403E-02        -0.62759E-02         0.00000E+00
    0.40172E-02        -0.64925E-02         0.00000E+00
    0.40949E-02        -0.67137E-02         0.00000E+00
    0.41734E-02        -0.69395E-02         0.00000E+00
    0.42528E-02        -0.71702E-02         0.00000E+00
    0.43328E-02        -0.74057E-02         0.00000E+00
    0.44135E-02        -0.76462E-02         0.00000E+00
    0.44948E-02        -0.78918E-02         0.00000E+00
    0.45765E-02        -0.81426E-02         0.00000E+00
    0.46586E-02        -0.83985E-02         0.00000E+00
    0.47410E-02        -0.86598E-02         0.00000E+00
    0.48236E-02        -0.89265E-02         0.00000E+00
    0.49061E-02        -0.91987E-02         0.00000E+00
    0.49886E-02        -0.94764E-02         0.00000E+00
    0.50707E-02        -0.97597E-02         0.00000E+00
    0.51525E-02        -0.10049E-01         0.00000E+00
    0.52336E-02        -0.10344E-01         0.00000E+00
    0.53139E-02        -0.10644E-01         0.00000E+00
    0.53932E-02        -0.10951E-01         0.00000E+00
    0.54713E-02        -0.11263E-01         0.00000E+00
    0.55478E-02        -0.11581E-01         0.00000E+00
    0.56226E-02        -0.11906E-01         0.00000E+00
    0.56953E-02        -0.12236E-01         0.00000E+00
    0.57657E-02        -0.12573E-01         0.00000E+00
    0.58332E-02        -0.12916E-01         0.00000E+00
    0.58977E-02        -0.13265E-01         0.00000E+00
    0.59586E-02        -0.13620E-01         0.00000E+00
    0.60155E-02        -0.13982E-01         0.00000E+00
    0.60680E-02        -0.14351E-01         0.00000E+00
    0.61153E-02        -0.14726E-01         0.00000E+00
    0.61571E-02        -0.15107E-01         0.00000E+00
    0.61925E-02        -0.15496E-01         0.00000E+00
    0.62210E-02        -0.15891E-01         0.00000E+00
    0.62417E-02        -0.16293E-01         0.00000E+00
    0.62537E-02        -0.16702E-01         0.00000E+00
    0.62562E-02        -0.17119E-01         0.00000E+00
    0.62480E-02        -0.17543E-01         0.00000E+00
    0.62283E-02        -0.17974E-01         0.00000E+00
    0.61957E-02        -0.18413E-01         0.00000E+00
    0.61489E-02        -0.18860E-01         0.00000E+00
    0.60867E-02        -0.19314E-01         0.00000E+00
    0.60075E-02        -0.19776E-01         0.00000E+00
    0.59098E-02        -0.20246E-01         0.00000E+00
    0.57920E-02        -0.20724E-01         0.00000E+00
    0.56523E-02        -0.21208E-01         0.00000E+00
    0.54889E-02        -0.21698E-01         0.00000E+00
    0.53000E-02        -0.22193E-01         0.00000E+00
    0.50835E-02        -0.22691E-01         0.00000E+00
    0.48374E-02        -0.23189E-01         0.00000E+00
    0.45596E-02        -0.23684E-01         0.00000E+00
    0.42475E-02        -0.24171E-01         0.00000E+00
    0.38985E-02        -0.24644E-01         0.00000E+00
    0.35095E-02        -0.25095E-01         0.00000E+00
    0.30765E-02        -0.25513E-01         0.00000E+00
    0.25943E-02        -0.25887E-01         0.00000E+00
    0.20560E-02        -0.26202E-01         0.00000E+00
    0.14524E-02        -0.26442E-01         0.00000E+00
    0.77164E-03        -0.26593E-01         0.00000E+00
    0.00000E+00        -0.26645E-01         0.00000E+00
    0.00000E+00        -0.25218E-04         0.00000E+00
    0.24466E-03        -0.40056E-04         0.00000E+00
    0.46435E-03        -0.83475E-04         0.00000E+00
    0.66309E-03        -0.15248E-03         0.00000E+00
    0.84427E-03        -0.24299E-03         0.00000E+00
    0.10106E-02        -0.35066E-03         0.00000E+00
    0.11641E-02        -0.47148E-03         0.00000E+00
    0.13064E-02        -0.60205E-03         0.00000E+00
    0.14387E-02        -0.73963E-03         0.00000E+00
    0.15622E-02        -0.88210E-03         0.00000E+00
    0.16776E-02        -0.10279E-02         0.00000E+00
    0.17858E-02        -0.11759E-02         0.00000E+00
    0.18876E-02        -0.13252E-02         0.00000E+00
    0.19836E-02        -0.14755E-02         0.00000E+00
    0.20745E-02        -0.16263E-02         0.00000E+00
    0.21609E-02        -0.17776E-02         0.00000E+00
    0.22434E-02        -0.19293E-02         0.00000E+00
    0.23225E-02        -0.20816E-02         0.00000E+00
    0.23987E-02        -0.22344E-02         0.00000E+00
    0.24724E-02        -0.23880E-02         0.00000E+00
    0.25442E-02        -0.25426E-02         0.00000E+00
    0.26143E-02        -0.26983E-02         0.00000E+00
    0.26832E-02        -0.28555E-02         0.00000E+00
    0.27511E-02        -0.30142E-02         0.00000E+00
    0.28184E-02        -0.31748E-02         0.00000E+00
    0.28854E-02        -0.33374E-02         0.00000E+00
    0.29521E-02        -0.35022E-02         0.00000E+00
    0.30189E-02        -0.36694E-02         0.00000E+00
    0.30860E-02        -0.38392E-02         0.00000E+00
    0.31534E-02        -0.40118E-02         0.00000E+00
    0.32213E-02        -0.41873E-02         0.00000E+00
    0.32899E-02        -0.43659E-02         0.00000E+00
    0.33593E-02        -0.45478E-02         0.00000E+00
    0.34294E-02        -0.47332E-02         0.00000E+00
    0.35005E-02        -0.49221E-02         0.00000E+00
    0.35725E-02        -0.51147E-02         0.00000E+00
    0.36454E-02        -0.53112E-02         0.00000E+00
    0.37194E-02        -0.55116E-02         0.00000E+00
    0.37944E-02        -0.57162E-02         0.00000E+00
    0.38705E-02        -0.59250E-02         0.00000E+00
    0.39475E-02        -0.61381E-02         0.00000E+00
    0.40256E-02        -0.63557E-02         0.00000E+00
    0.41047E-02        -0.65779E-02         0.00000E+00
    0.41848E-02        -0.68049E-02         0.00000E+00
    0.42657E-02        -0.70366E-02         0.00000E+00
    0.43476E-02        -0.72732E-02         0.00000E+00
    0.44303E-02        -0.75149E-02         0.00000E+00
    0.45137E-02        -0.77617E-02         0.00000E+00
    0.45978E-02        -0.80136E-02         0.00000E+00
    0.46825E-02        -0.82709E-02         0.00000E+00
    0.47676E-02        -0.85336E-02         0.00000E+00
    0.48532E-02        -0.88018E-02         0.00000E+00
    0.49391E-02        -0.90755E-02         0.00000E+00
    0.50251E-02        -0.93549E-02         0.00000E+00
    0.51112E-02        -0.96400E-02         0.00000E+00
    0.51971E-02        -0.99310E-02         0.00000E+00
    0.52828E-02        -0.10228E-01         0.00000E+00
    0.53680E-02        -0.10530E-01         0.00000E+00
    0.54526E-02        -0.10839E-01         0.00000E+00
    0.55364E-02        -0.11154E-01         0.00000E+00
    0.56191E-02        -0.11475E-01         0.00000E+00
    0.57005E-02        -0.11802E-01         0.00000E+00
    0.57803E-02        -0.12136E-01         0.00000E+00
    0.58583E-02        -0.12475E-01         0.00000E+00
    0.59342E-02        -0.12822E-01         0.00000E+00
    0.60076E-02        -0.13174E-01         0.00000E+00
    0.60781E-02        -0.13533E-01         0.00000E+00
    0.61455E-02        -0.13899E-01         0.00000E+00
    0.62091E-02        -0.14271E-01         0.00000E+00
    0.62686E-02        -0.14650E-01         0.00000E+00
    0.63234E-02        -0.15036E-01         0.00000E+00
    0.63730E-02        -0.15428E-01         0.00000E+00
    0.64168E-02        -0.15828E-01         0.00000E+00
    0.64540E-02        -0.16234E-01         0.00000E+00
    0.64840E-02        -0.16648E-01         0.00000E+00
    0.65058E-02        -0.17069E-01         0.00000E+00
    0.65187E-02        -0.17497E-01         0.00000E+00
    0.65217E-02        -0.17933E-01         0.00000E+00
    0.65137E-02        -0.18376E-01         0.00000E+00
    0.64935E-02        -0.18827E-01         0.00000E+00
    0.64600E-02        -0.19287E-01         0.00000E+00
    0.64118E-02        -0.19754E-01         0.00000E+00
    0.63474E-02        -0.20229E-01         0.00000E+00
    0.62653E-02        -0.20713E-01         0.00000E+00
    0.61639E-02        -0.21204E-01         0.00000E+00
    0.60415E-02        -0.21703E-01         0.00000E+00
    0.58961E-02        -0.22209E-01         0.00000E+00
    0.57259E-02        -0.22721E-01         0.00000E+00
    0.55289E-02        -0.23239E-01         0.00000E+00
    0.53029E-02        -0.23759E-01         0.00000E+00
    0.50457E-02        -0.24280E-01         0.00000E+00
    0.47550E-02        -0.24797E-01         0.00000E+00
    0.44283E-02        -0.25307E-01         0.00000E+00
    0.40627E-02        -0.25801E-01         0.00000E+00
    0.36550E-02        -0.26273E-01         0.00000E+00
    0.32014E-02        -0.26711E-01         0.00000E+00
    0.26966E-02        -0.27102E-01         0.00000E+00
    0.21342E-02        -0.27431E-01         0.00000E+00
    0.15051E-02        -0.27683E-01         0.00000E+00
    0.79819E-03        -0.27841E-01         0.00000E+00
    0.00000E+00        -0.27895E-01         0.00000E+00
    0.00000E+00        -0.32524E-04         0.00000E+00
    0.25285E-03        -0.48057E-04         0.00000E+00
    0.48065E-03        -0.93500E-04         0.00000E+00
    0.68731E-03        -0.16570E-03         0.00000E+00
    0.87612E-03        -0.26035E-03         0.00000E+00
    0.10497E-02        -0.37289E-03         0.00000E+00
    0.12099E-02        -0.49912E-03         0.00000E+00
    0.13585E-02        -0.63548E-03         0.00000E+00
    0.14966E-02        -0.77912E-03         0.00000E+00
    0.16253E-02        -0.92785E-03         0.00000E+00
    0.17456E-02        -0.10800E-02         0.00000E+00
    0.18583E-02        -0.12345E-02         0.00000E+00
    0.19642E-02        -0.13903E-02         0.00000E+00
    0.20640E-02        -0.15472E-02         0.00000E+00
    0.21584E-02        -0.17046E-02         0.00000E+00
    0.22482E-02        -0.18626E-02         0.00000E+00
    0.23338E-02        -0.20210E-02         0.00000E+00
    0.24159E-02        -0.21799E-02         0.00000E+00
    0.24949E-02        -0.23395E-02         0.00000E+00
    0.25714E-02        -0.25000E-02         0.00000E+00
    0.26459E-02        -0.26615E-02         0.00000E+00
    0.27187E-02        -0.28242E-02         0.00000E+00
    0.27901E-02        -0.29884E-02         0.00000E+00
    0.28606E-02        -0.31543E-02         0.00000E+00
    0.29305E-02        -0.33221E-02         0.00000E+00
    0.29999E-02        -0.34920E-02         0.00000E+00
    0.30693E-02        -0.36643E-02         0.00000E+00
    0.31386E-02        -0.38391E-02         0.00000E+00
    0.32082E-02        -0.40166E-02         0.00000E+00
    0.32783E-02        -0.41970E-02         0.00000E+00
    0.33489E-02        -0.43805E-02         0.00000E+00
    0.34201E-02        -0.45673E-02         0.00000E+00
    0.34921E-02        -0.47575E-02         0.00000E+00
    0.35650E-02        -0.49513E-02         0.00000E+00
    0.36389E-02        -0.51488E-02         0.00000E+00
    0.37137E-02        -0.53502E-02         0.00000E+00
    0.37895E-02        -0.55556E-02         0.00000E+00
    0.38664E-02        -0.57652E-02         0.00000E+00
    0.39444E-02        -0.59791E-02         0.00000E+00
    0.40234E-02        -0.61974E-02         0.00000E+00
    0.41036E-02        -0.64203E-02         0.00000E+00
    0.41848E-02        -0.66478E-02         0.00000E+00
    0.42670E-02        -0.68802E-02         0.00000E+00
    0.43502E-02        -0.71174E-02         0.00000E+00
    0.44344E-02        -0.73597E-02         0.00000E+00
    0.45195E-02        -0.76071E-02         0.00000E+00
    0.46055E-02        -0.78598E-02         0.00000E+00
    0.46922E-02        -0.81178E-02         0.00000E+00
    0.47797E-02        -0.83813E-02         0.00000E+00
    0.48677E-02        -0.86503E-02         0.00000E+00
    0.49563E-02        -0.89249E-02         0.00000E+00
    0.50453E-02        -0.92053E-02         0.00000E+00
    0.51347E-02        -0.94915E-02         0.00000E+00
    0.52241E-02        -0.97835E-02         0.00000E+00
    0.53137E-02        -0.10082E-01         0.00000E+00
    0.54031E-02        -0.10386E-01         0.00000E+00
    0.54922E-02        -0.10696E-01         0.00000E+00
    0.55809E-02        -0.11012E-01         0.00000E+00
    0.56689E-02        -0.11335E-01         0.00000E+00
    0.57560E-02        -0.11664E-01         0.00000E+00
    0.58421E-02        -0.12000E-01         0.00000E+00
    0.59268E-02        -0.12342E-01         0.00000E+00
    0.60099E-02        -0.12690E-01         0.00000E+00
    0.60912E-02        -0.13045E-01         0.00000E+00
    0.61702E-02        -0.13407E-01         0.00000E+00
    0.62466E-02        -0.13775E-01         0.00000E+00
    0.63201E-02        -0.14151E-01         0.00000E+00
    0.63903E-02        -0.14533E-01         0.00000E+00
    0.64566E-02        -0.14922E-01         0.00000E+00
    0.65187E-02        -0.15318E-01         0.00000E+00
    0.65760E-02        -0.15721E-01         0.00000E+00
    0.66278E-02        -0.16131E-01         0.00000E+00
    0.66736E-02        -0.16548E-01         0.00000E+00
    0.67126E-02        -0.16973E-01         0.00000E+00
    0.67441E-02        -0.17405E-01         0.00000E+00
    0.67672E-02        -0.17844E-01         0.00000E+00
    0.67810E-02        -0.18291E-01         0.00000E+00
    0.67845E-02        -0.18747E-01         0.00000E+00
    0.67767E-02        -0.19210E-01         0.00000E+00
    0.67562E-02        -0.19681E-01         0.00000E+00
    0.67218E-02        -0.20160E-01         0.00000E+00
    0.66722E-02        -0.20648E-01         0.00000E+00
    0.66058E-02        -0.21144E-01         0.00000E+00
    0.65210E-02        -0.21648E-01         0.00000E+00
    0.64160E-02        -0.22161E-01         0.00000E+00
    0.62891E-02        -0.22682E-01         0.00000E+00
    0.61382E-02        -0.23210E-01         0.00000E+00
    0.59613E-02        -0.23744E-01         0.00000E+00
    0.57563E-02        -0.24284E-01         0.00000E+00
    0.55210E-02        -0.24826E-01         0.00000E+00
    0.52528E-02        -0.25370E-01         0.00000E+00
    0.49494E-02        -0.25910E-01         0.00000E+00
    0.46081E-02        -0.26441E-01         0.00000E+00
    0.42260E-02        -0.26957E-01         0.00000E+00
    0.37998E-02        -0.27450E-01         0.00000E+00
    0.33255E-02        -0.27907E-01         0.00000E+00
    0.27983E-02        -0.28316E-01         0.00000E+00
    0.22117E-02        -0.28660E-01         0.00000E+00
    0.15574E-02        -0.28923E-01         0.00000E+00
    0.82452E-03        -0.29089E-01         0.00000E+00
    0.00000E+00        -0.29146E-01         0.00000E+00
    0.00000E+00        -0.40017E-04         0.00000E+00
    0.26098E-03        -0.56266E-04         0.00000E+00
    0.49682E-03        -0.10379E-03         0.00000E+00
    0.71135E-03        -0.17925E-03         0.00000E+00
    0.90774E-03        -0.27810E-03         0.00000E+00
    0.10885E-02        -0.39556E-03         0.00000E+00
    0.12554E-02        -0.52722E-03         0.00000E+00
    0.14102E-02        -0.66938E-03         0.00000E+00
    0.15540E-02        -0.81908E-03         0.00000E+00
    0.16880E-02        -0.97403E-03         0.00000E+00
    0.18130E-02        -0.11326E-02         0.00000E+00
    0.19301E-02        -0.12934E-02         0.00000E+00
    0.20401E-02        -0.14558E-02         0.00000E+00
    0.21436E-02        -0.16192E-02         0.00000E+00
    0.22416E-02        -0.17833E-02         0.00000E+00
    0.23345E-02        -0.19478E-02         0.00000E+00
    0.24232E-02        -0.21129E-02         0.00000E+00
    0.25082E-02        -0.22786E-02         0.00000E+00
    0.25901E-02        -0.24450E-02         0.00000E+00
    0.26693E-02        -0.26122E-02         0.00000E+00
    0.27464E-02        -0.27806E-02         0.00000E+00
    0.28218E-02        -0.29503E-02         0.00000E+00
    0.28958E-02        -0.31216E-02         0.00000E+00
    0.29688E-02        -0.32946E-02         0.00000E+00
    0.30411E-02        -0.34696E-02         0.00000E+00
    0.31131E-02        -0.36469E-02         0.00000E+00
    0.31849E-02        -0.38266E-02         0.00000E+00
    0.32568E-02        -0.40090E-02         0.00000E+00
    0.33289E-02        -0.41942E-02         0.00000E+00
    0.34015E-02        -0.43825E-02         0.00000E+00
    0.34747E-02        -0.45740E-02         0.00000E+00
    0.35486E-02        -0.47689E-02         0.00000E+00
    0.36233E-02        -0.49673E-02         0.00000E+00
    0.36989E-02        -0.51696E-02         0.00000E+00
    0.37754E-02        -0.53757E-02         0.00000E+00
    0.38530E-02        -0.55859E-02         0.00000E+00
    0.39317E-02        -0.58003E-02         0.00000E+00
    0.40115E-02        -0.60190E-02         0.00000E+00
    0.40924E-02        -0.62422E-02         0.00000E+00
    0.41744E-02        -0.64701E-02         0.00000E+00
    0.42575E-02        -0.67027E-02         0.00000E+00
    0.43418E-02        -0.69401E-02         0.00000E+00
    0.44271E-02        -0.71826E-02         0.00000E+00
    0.45135E-02        -0.74302E-02         0.00000E+00
    0.46009E-02        -0.76831E-02         0.00000E+00
    0.46892E-02        -0.79413E-02         0.00000E+00
    0.47784E-02        -0.82049E-02         0.00000E+00
    0.48684E-02        -0.84742E-02         0.00000E+00
    0.49592E-02        -0.87491E-02         0.00000E+00
    0.50506E-02        -0.90298E-02         0.00000E+00
    0.51426E-02        -0.93164E-02         0.00000E+00
    0.52350E-02        -0.96090E-02         0.00000E+00
    0.53277E-02        -0.99076E-02         0.00000E+00
    0.54206E-02        -0.10212E-01         0.00000E+00
    0.55135E-02        -0.10523E-01         0.00000E+00
    0.56064E-02        -0.10841E-01         0.00000E+00
    0.56989E-02        -0.11164E-01         0.00000E+00
    0.57910E-02        -0.11495E-01         0.00000E+00
    0.58824E-02        -0.11831E-01         0.00000E+00
    0.59729E-02        -0.12175E-01         0.00000E+00
    0.60623E-02        -0.12525E-01         0.00000E+00
    0.61503E-02        -0.12881E-01         0.00000E+00
    0.62367E-02        -0.13245E-01         0.00000E+00
    0.63211E-02        -0.13615E-01         0.00000E+00
    0.64032E-02        -0.13993E-01         0.00000E+00
    0.64827E-02        -0.14377E-01         0.00000E+00
    0.65592E-02        -0.14768E-01         0.00000E+00
    0.66322E-02        -0.15167E-01         0.00000E+00
    0.67012E-02        -0.15573E-01         0.00000E+00
    0.67659E-02        -0.15985E-01         0.00000E+00
    0.68256E-02        -0.16406E-01         0.00000E+00
    0.68796E-02        -0.16833E-01         0.00000E+00
    0.69274E-02        -0.17268E-01         0.00000E+00
    0.69683E-02        -0.17711E-01         0.00000E+00
    0.70013E-02        -0.18162E-01         0.00000E+00
    0.70257E-02        -0.18620E-01         0.00000E+00
    0.70405E-02        -0.19086E-01         0.00000E+00
    0.70446E-02        -0.19560E-01         0.00000E+00
    0.70370E-02        -0.20043E-01         0.00000E+00
    0.70163E-02        -0.20534E-01         0.00000E+00
    0.69812E-02        -0.21033E-01         0.00000E+00
    0.69303E-02        -0.21541E-01         0.00000E+00
    0.68620E-02        -0.22058E-01         0.00000E+00
    0.67745E-02        -0.22583E-01         0.00000E+00
    0.66661E-02        -0.23117E-01         0.00000E+00
    0.65348E-02        -0.23660E-01         0.00000E+00
    0.63786E-02        -0.24209E-01         0.00000E+00
    0.61952E-02        -0.24766E-01         0.00000E+00
    0.59824E-02        -0.25328E-01         0.00000E+00
    0.57378E-02        -0.25893E-01         0.00000E+00
    0.54589E-02        -0.26459E-01         0.00000E+00
    0.51430E-02        -0.27021E-01         0.00000E+00
    0.47872E-02        -0.27574E-01         0.00000E+00
    0.43887E-02        -0.28112E-01         0.00000E+00
    0.39439E-02        -0.28625E-01         0.00000E+00
    0.34491E-02        -0.29102E-01         0.00000E+00
    0.28995E-02        -0.29529E-01         0.00000E+00
    0.22889E-02        -0.29888E-01         0.00000E+00
    0.16095E-02        -0.30163E-01         0.00000E+00
    0.85068E-03        -0.30336E-01         0.00000E+00
    0.00000E+00        -0.30396E-01         0.00000E+00
    0.00000E+00        -0.47660E-04         0.00000E+00
    0.26905E-03        -0.64649E-04         0.00000E+00
    0.51289E-03        -0.11431E-03         0.00000E+00
    0.73526E-03        -0.19310E-03         0.00000E+00
    0.93919E-03        -0.29622E-03         0.00000E+00
    0.11271E-02        -0.41864E-03         0.00000E+00
    0.13007E-02        -0.55575E-03         0.00000E+00
    0.14617E-02        -0.70372E-03         0.00000E+00
    0.16111E-02        -0.85947E-03         0.00000E+00
    0.17502E-02        -0.10206E-02         0.00000E+00
    0.18800E-02        -0.11855E-02         0.00000E+00
    0.20014E-02        -0.13528E-02         0.00000E+00
    0.21153E-02        -0.15217E-02         0.00000E+00
    0.22226E-02        -0.16916E-02         0.00000E+00
    0.23239E-02        -0.18622E-02         0.00000E+00
    0.24201E-02        -0.20334E-02         0.00000E+00
    0.25118E-02        -0.22051E-02         0.00000E+00
    0.25996E-02        -0.23775E-02         0.00000E+00
    0.26842E-02        -0.25506E-02         0.00000E+00
    0.27661E-02        -0.27247E-02         0.00000E+00
    0.28458E-02        -0.29000E-02         0.00000E+00
    0.29236E-02        -0.30766E-02         0.00000E+00
    0.30001E-02        -0.32549E-02         0.00000E+00
    0.30756E-02        -0.34351E-02         0.00000E+00
    0.31504E-02        -0.36173E-02         0.00000E+00
    0.32248E-02        -0.38020E-02         0.00000E+00
    0.32991E-02        -0.39891E-02         0.00000E+00
    0.33734E-02        -0.41791E-02         0.00000E+00
    0.34481E-02        -0.43720E-02         0.00000E+00
    0.35232E-02        -0.45681E-02         0.00000E+00
    0.35989E-02        -0.47676E-02         0.00000E+00
    0.36753E-02        -0.49706E-02         0.00000E+00
    0.37527E-02        -0.51774E-02         0.00000E+00
    0.38309E-02        -0.53880E-02         0.00000E+00
    0.39102E-02        -0.56028E-02         0.00000E+00
    0.39905E-02        -0.58218E-02         0.00000E+00
    0.40720E-02        -0.60451E-02         0.00000E+00
    0.41546E-02        -0.62730E-02         0.00000E+00
    0.42384E-02        -0.65055E-02         0.00000E+00
    0.43233E-02        -0.67429E-02         0.00000E+00
    0.44094E-02        -0.69852E-02         0.00000E+00
    0.44967E-02        -0.72326E-02         0.00000E+00
    0.45851E-02        -0.74853E-02         0.00000E+00
    0.46746E-02        -0.77432E-02         0.00000E+00
    0.47651E-02        -0.80066E-02         0.00000E+00
    0.48566E-02        -0.82756E-02         0.00000E+00
    0.49490E-02        -0.85503E-02         0.00000E+00
    0.50423E-02        -0.88308E-02         0.00000E+00
    0.51363E-02        -0.91172E-02         0.00000E+00
    0.52311E-02        -0.94096E-02         0.00000E+00
    0.53264E-02        -0.97081E-02         0.00000E+00
    0.54221E-02        -0.10013E-01         0.00000E+00
    0.55182E-02        -0.10324E-01         0.00000E+00
    0.56145E-02        -0.10641E-01         0.00000E+00
    0.57108E-02        -0.10965E-01         0.00000E+00
    0.58070E-02        -0.11296E-01         0.00000E+00
    0.59030E-02        -0.11633E-01         0.00000E+00
    0.59984E-02        -0.11977E-01         0.00000E+00
    0.60932E-02        -0.12328E-01         0.00000E+00
    0.61871E-02        -0.12685E-01         0.00000E+00
    0.62798E-02        -0.13050E-01         0.00000E+00
    0.63711E-02        -0.13421E-01         0.00000E+00
    0.64606E-02        -0.13800E-01         0.00000E+00
    0.65482E-02        -0.14186E-01         0.00000E+00
    0.66334E-02        -0.14579E-01         0.00000E+00
    0.67159E-02        -0.14979E-01         0.00000E+00
    0.67953E-02        -0.15386E-01         0.00000E+00
    0.68711E-02        -0.15801E-01         0.00000E+00
    0.69429E-02        -0.16223E-01         0.00000E+00
    0.70101E-02        -0.16653E-01         0.00000E+00
    0.70722E-02        -0.17091E-01         0.00000E+00
    0.71285E-02        -0.17536E-01         0.00000E+00
    0.71784E-02        -0.17989E-01         0.00000E+00
    0.72211E-02        -0.18450E-01         0.00000E+00
    0.72557E-02        -0.18918E-01         0.00000E+00
    0.72815E-02        -0.19395E-01         0.00000E+00
    0.72973E-02        -0.19880E-01         0.00000E+00
    0.73021E-02        -0.20374E-01         0.00000E+00
    0.72947E-02        -0.20876E-01         0.00000E+00
    0.72739E-02        -0.21387E-01         0.00000E+00
    0.72382E-02        -0.21906E-01         0.00000E+00
    0.71861E-02        -0.22435E-01         0.00000E+00
    0.71159E-02        -0.22972E-01         0.00000E+00
    0.70260E-02        -0.23518E-01         0.00000E+00
    0.69143E-02        -0.24073E-01         0.00000E+00
    0.67788E-02        -0.24637E-01         0.00000E+00
    0.66173E-02        -0.25208E-01         0.00000E+00
    0.64277E-02        -0.25787E-01         0.00000E+00
    0.62073E-02        -0.26371E-01         0.00000E+00
    0.59536E-02        -0.26958E-01         0.00000E+00
    0.56640E-02        -0.27546E-01         0.00000E+00
    0.53357E-02        -0.28131E-01         0.00000E+00
    0.49657E-02        -0.28706E-01         0.00000E+00
    0.45508E-02        -0.29266E-01         0.00000E+00
    0.40877E-02        -0.29800E-01         0.00000E+00
    0.35724E-02        -0.30296E-01         0.00000E+00
    0.30004E-02        -0.30741E-01         0.00000E+00
    0.23659E-02        -0.31116E-01         0.00000E+00
    0.16613E-02        -0.31402E-01         0.00000E+00
    0.87674E-03        -0.31583E-01         0.00000E+00
    0.00000E+00        -0.31645E-01         0.00000E+00
    0.00000E+00        -0.55420E-04         0.00000E+00
    0.27708E-03        -0.73174E-04         0.00000E+00
    0.52889E-03        -0.12504E-03         0.00000E+00
    0.75906E-03        -0.20724E-03         0.00000E+00
    0.97051E-03        -0.31469E-03         0.00000E+00
    0.11655E-02        -0.44212E-03         0.00000E+00
    0.13458E-02        -0.58472E-03         0.00000E+00
    0.15128E-02        -0.73850E-03         0.00000E+00
    0.16679E-02        -0.90029E-03         0.00000E+00
    0.18121E-02        -0.10677E-02         0.00000E+00
    0.19465E-02        -0.12389E-02         0.00000E+00
    0.20722E-02        -0.14126E-02         0.00000E+00
    0.21900E-02        -0.15879E-02         0.00000E+00
    0.23008E-02        -0.17643E-02         0.00000E+00
    0.24055E-02        -0.19415E-02         0.00000E+00
    0.25048E-02        -0.21193E-02         0.00000E+00
    0.25994E-02        -0.22976E-02         0.00000E+00
    0.26900E-02        -0.24767E-02         0.00000E+00
    0.27773E-02        -0.26566E-02         0.00000E+00
    0.28618E-02        -0.28375E-02         0.00000E+00
    0.29439E-02        -0.30196E-02         0.00000E+00
    0.30243E-02        -0.32032E-02         0.00000E+00
    0.31032E-02        -0.33885E-02         0.00000E+00
    0.31811E-02        -0.35758E-02         0.00000E+00
    0.32583E-02        -0.37653E-02         0.00000E+00
    0.33351E-02        -0.39572E-02         0.00000E+00
    0.34117E-02        -0.41518E-02         0.00000E+00
    0.34885E-02        -0.43493E-02         0.00000E+00
    0.35656E-02        -0.45500E-02         0.00000E+00
    0.36432E-02        -0.47539E-02         0.00000E+00
    0.37214E-02        -0.49614E-02         0.00000E+00
    0.38004E-02        -0.51725E-02         0.00000E+00
    0.38803E-02        -0.53876E-02         0.00000E+00
    0.39612E-02        -0.56067E-02         0.00000E+00
    0.40431E-02        -0.58301E-02         0.00000E+00
    0.41262E-02        -0.60578E-02         0.00000E+00
    0.42104E-02        -0.62901E-02         0.00000E+00
    0.42958E-02        -0.65272E-02         0.00000E+00
    0.43824E-02        -0.67691E-02         0.00000E+00
    0.44702E-02        -0.70160E-02         0.00000E+00
    0.45593E-02        -0.72680E-02         0.00000E+00
    0.46495E-02        -0.75253E-02         0.00000E+00
    0.47409E-02        -0.77881E-02         0.00000E+00
    0.48335E-02        -0.80564E-02         0.00000E+00
    0.49271E-02        -0.83304E-02         0.00000E+00
    0.50217E-02        -0.86102E-02         0.00000E+00
    0.51173E-02        -0.88959E-02         0.00000E+00
    0.52138E-02        -0.91876E-02         0.00000E+00
    0.53111E-02        -0.94855E-02         0.00000E+00
    0.54091E-02        -0.97896E-02         0.00000E+00
    0.55077E-02        -0.10100E-01         0.00000E+00
    0.56068E-02        -0.10417E-01         0.00000E+00
    0.57062E-02        -0.10741E-01         0.00000E+00
    0.58058E-02        -0.11071E-01         0.00000E+00
    0.59055E-02        -0.11408E-01         0.00000E+00
    0.60051E-02        -0.11751E-01         0.00000E+00
    0.61044E-02        -0.12102E-01         0.00000E+00
    0.62032E-02        -0.12460E-01         0.00000E+00
    0.63013E-02        -0.12824E-01         0.00000E+00
    0.63984E-02        -0.13196E-01         0.00000E+00
    0.64944E-02        -0.13575E-01         0.00000E+00
    0.65889E-02        -0.13961E-01         0.00000E+00
    0.66817E-02        -0.14355E-01         0.00000E+00
    0.67724E-02        -0.14756E-01         0.00000E+00
    0.68607E-02        -0.15165E-01         0.00000E+00
    0.69463E-02        -0.15581E-01         0.00000E+00
    0.70285E-02        -0.16004E-01         0.00000E+00
    0.71072E-02        -0.16436E-01         0.00000E+00
    0.71817E-02        -0.16875E-01         0.00000E+00
    0.72515E-02        -0.17321E-01         0.00000E+00
    0.73160E-02        -0.17776E-01         0.00000E+00
    0.73745E-02        -0.18239E-01         0.00000E+00
    0.74265E-02        -0.18709E-01         0.00000E+00
    0.74710E-02        -0.19188E-01         0.00000E+00
    0.75073E-02        -0.19675E-01         0.00000E+00
    0.75344E-02        -0.20171E-01         0.00000E+00
    0.75513E-02        -0.20675E-01         0.00000E+00
    0.75568E-02        -0.21187E-01         0.00000E+00
    0.75498E-02        -0.21709E-01         0.00000E+00
    0.75289E-02        -0.22239E-01         0.00000E+00
    0.74927E-02        -0.22779E-01         0.00000E+00
    0.74395E-02        -0.23327E-01         0.00000E+00
    0.73677E-02        -0.23885E-01         0.00000E+00
    0.72754E-02        -0.24453E-01         0.00000E+00
    0.71605E-02        -0.25029E-01         0.00000E+00
    0.70210E-02        -0.25614E-01         0.00000E+00
    0.68546E-02        -0.26207E-01         0.00000E+00
    0.66587E-02        -0.26807E-01         0.00000E+00
    0.64309E-02        -0.27413E-01         0.00000E+00
    0.61684E-02        -0.28023E-01         0.00000E+00
    0.58684E-02        -0.28633E-01         0.00000E+00
    0.55279E-02        -0.29240E-01         0.00000E+00
    0.51437E-02        -0.29837E-01         0.00000E+00
    0.47127E-02        -0.30418E-01         0.00000E+00
    0.42312E-02        -0.30973E-01         0.00000E+00
    0.36956E-02        -0.31489E-01         0.00000E+00
    0.31012E-02        -0.31951E-01         0.00000E+00
    0.24427E-02        -0.32342E-01         0.00000E+00
    0.17130E-02        -0.32641E-01         0.00000E+00
    0.90275E-03        -0.32830E-01         0.00000E+00
    0.00000E+00        -0.32895E-01         0.00000E+00
    0.00000E+00        -0.63261E-04         0.00000E+00
    0.28509E-03        -0.81808E-04         0.00000E+00
    0.54484E-03        -0.13595E-03         0.00000E+00
    0.78279E-03        -0.22164E-03         0.00000E+00
    0.10017E-02        -0.33351E-03         0.00000E+00
    0.12038E-02        -0.46599E-03         0.00000E+00
    0.13907E-02        -0.61410E-03         0.00000E+00
    0.15638E-02        -0.77371E-03         0.00000E+00
    0.17244E-02        -0.94154E-03         0.00000E+00
    0.18736E-02        -0.11151E-02         0.00000E+00
    0.20126E-02        -0.12926E-02         0.00000E+00
    0.21424E-02        -0.14727E-02         0.00000E+00
    0.22640E-02        -0.16545E-02         0.00000E+00
    0.23783E-02        -0.18374E-02         0.00000E+00
    0.24863E-02        -0.20211E-02         0.00000E+00
    0.25886E-02        -0.22054E-02         0.00000E+00
    0.26861E-02        -0.23904E-02         0.00000E+00
    0.27795E-02        -0.25761E-02         0.00000E+00
    0.28694E-02        -0.27627E-02         0.00000E+00
    0.29563E-02        -0.29504E-02         0.00000E+00
    0.30409E-02        -0.31394E-02         0.00000E+00
    0.31237E-02        -0.33299E-02         0.00000E+00
    0.32050E-02        -0.35223E-02         0.00000E+00
    0.32852E-02        -0.37167E-02         0.00000E+00
    0.33647E-02        -0.39134E-02         0.00000E+00
    0.34439E-02        -0.41127E-02         0.00000E+00
    0.35229E-02        -0.43147E-02         0.00000E+00
    0.36020E-02        -0.45198E-02         0.00000E+00
    0.36815E-02        -0.47281E-02         0.00000E+00
    0.37615E-02        -0.49399E-02         0.00000E+00
    0.38422E-02        -0.51554E-02         0.00000E+00
    0.39237E-02        -0.53747E-02         0.00000E+00
    0.40062E-02        -0.55980E-02         0.00000E+00
    0.40896E-02        -0.58256E-02         0.00000E+00
    0.41742E-02        -0.60575E-02         0.00000E+00
    0.42599E-02        -0.62941E-02         0.00000E+00
    0.43468E-02        -0.65354E-02         0.00000E+00
    0.44350E-02        -0.67815E-02         0.00000E+00
    0.45244E-02        -0.70328E-02         0.00000E+00
    0.46151E-02        -0.72892E-02         0.00000E+00
    0.47071E-02        -0.75510E-02         0.00000E+00
    0.48002E-02        -0.78182E-02         0.00000E+00
    0.48946E-02        -0.80911E-02         0.00000E+00
    0.49902E-02        -0.83698E-02         0.00000E+00
    0.50869E-02        -0.86543E-02         0.00000E+00
    0.51846E-02        -0.89449E-02         0.00000E+00
    0.52834E-02        -0.92416E-02         0.00000E+00
    0.53830E-02        -0.95446E-02         0.00000E+00
    0.54835E-02        -0.98539E-02         0.00000E+00
    0.55847E-02        -0.10170E-01         0.00000E+00
    0.56866E-02        -0.10492E-01         0.00000E+00
    0.57889E-02        -0.10821E-01         0.00000E+00
    0.58916E-02        -0.11157E-01         0.00000E+00
    0.59946E-02        -0.11500E-01         0.00000E+00
    0.60976E-02        -0.11850E-01         0.00000E+00
    0.62005E-02        -0.12207E-01         0.00000E+00
    0.63031E-02        -0.12571E-01         0.00000E+00
    0.64052E-02        -0.12942E-01         0.00000E+00
    0.65066E-02        -0.13321E-01         0.00000E+00
    0.66070E-02        -0.13707E-01         0.00000E+00
    0.67063E-02        -0.14101E-01         0.00000E+00
    0.68040E-02        -0.14502E-01         0.00000E+00
    0.69000E-02        -0.14910E-01         0.00000E+00
    0.69938E-02        -0.15327E-01         0.00000E+00
    0.70852E-02        -0.15751E-01         0.00000E+00
    0.71737E-02        -0.16183E-01         0.00000E+00
    0.72589E-02        -0.16622E-01         0.00000E+00
    0.73403E-02        -0.17070E-01         0.00000E+00
    0.74175E-02        -0.17526E-01         0.00000E+00
    0.74899E-02        -0.17989E-01         0.00000E+00
    0.75568E-02        -0.18461E-01         0.00000E+00
    0.76177E-02        -0.18941E-01         0.00000E+00
    0.76717E-02        -0.19430E-01         0.00000E+00
    0.77181E-02        -0.19927E-01         0.00000E+00
    0.77561E-02        -0.20432E-01         0.00000E+00
    0.77846E-02        -0.20946E-01         0.00000E+00
    0.78026E-02        -0.21469E-01         0.00000E+00
    0.78089E-02        -0.22001E-01         0.00000E+00
    0.78024E-02        -0.22542E-01         0.00000E+00
    0.77815E-02        -0.23092E-01         0.00000E+00
    0.77449E-02        -0.23651E-01         0.00000E+00
    0.76908E-02        -0.24220E-01         0.00000E+00
    0.76174E-02        -0.24798E-01         0.00000E+00
    0.75228E-02        -0.25386E-01         0.00000E+00
    0.74050E-02        -0.25984E-01         0.00000E+00
    0.72617E-02        -0.26590E-01         0.00000E+00
    0.70904E-02        -0.27205E-01         0.00000E+00
    0.68886E-02        -0.27827E-01         0.00000E+00
    0.66535E-02        -0.28455E-01         0.00000E+00
    0.63824E-02        -0.29086E-01         0.00000E+00
    0.60721E-02        -0.29719E-01         0.00000E+00
    0.57196E-02        -0.30347E-01         0.00000E+00
    0.53215E-02        -0.30967E-01         0.00000E+00
    0.48744E-02        -0.31569E-01         0.00000E+00
    0.43747E-02        -0.32145E-01         0.00000E+00
    0.38187E-02        -0.32681E-01         0.00000E+00
    0.32020E-02        -0.33161E-01         0.00000E+00
    0.25196E-02        -0.33568E-01         0.00000E+00
    0.17648E-02        -0.33880E-01         0.00000E+00
    0.92876E-03        -0.34077E-01         0.00000E+00
    0.00000E+00        -0.34145E-01         0.00000E+00
    0.00000E+00        -0.71149E-04         0.00000E+00
    0.29309E-03        -0.90519E-04         0.00000E+00
    0.56078E-03        -0.14701E-03         0.00000E+00
    0.80651E-03        -0.23629E-03         0.00000E+00
    0.10329E-02        -0.35264E-03         0.00000E+00
    0.12421E-02        -0.49024E-03         0.00000E+00
    0.14355E-02        -0.64389E-03         0.00000E+00
    0.16146E-02        -0.80933E-03         0.00000E+00
    0.17806E-02        -0.98320E-03         0.00000E+00
    0.19348E-02        -0.11630E-02         0.00000E+00
    0.20783E-02        -0.13467E-02         0.00000E+00
    0.22122E-02        -0.15332E-02         0.00000E+00
    0.23375E-02        -0.17214E-02         0.00000E+00
    0.24552E-02        -0.19107E-02         0.00000E+00
    0.25663E-02        -0.21010E-02         0.00000E+00
    0.26716E-02        -0.22919E-02         0.00000E+00
    0.27719E-02        -0.24835E-02         0.00000E+00
    0.28679E-02        -0.26758E-02         0.00000E+00
    0.29603E-02        -0.28691E-02         0.00000E+00
    0.30498E-02        -0.30636E-02         0.00000E+00
    0.31368E-02        -0.32594E-02         0.00000E+00
    0.32218E-02        -0.34569E-02         0.00000E+00
    0.33054E-02        -0.36562E-02         0.00000E+00
    0.33880E-02        -0.38577E-02         0.00000E+00
    0.34698E-02        -0.40617E-02         0.00000E+00
    0.35512E-02        -0.42683E-02         0.00000E+00
    0.36326E-02        -0.44778E-02         0.00000E+00
    0.37140E-02        -0.46904E-02         0.00000E+00
    0.37959E-02        -0.49065E-02         0.00000E+00
    0.38783E-02        -0.51261E-02         0.00000E+00
    0.39614E-02        -0.53495E-02         0.00000E+00
    0.40454E-02        -0.55769E-02         0.00000E+00
    0.41303E-02        -0.58086E-02         0.00000E+00
    0.42163E-02        -0.60446E-02         0.00000E+00
    0.43034E-02        -0.62852E-02         0.00000E+00
    0.43918E-02        -0.65305E-02         0.00000E+00
    0.44814E-02        -0.67808E-02         0.00000E+00
    0.45723E-02        -0.70361E-02         0.00000E+00
    0.46645E-02        -0.72966E-02         0.00000E+00
    0.47580E-02        -0.75626E-02         0.00000E+00
    0.48528E-02        -0.78341E-02         0.00000E+00
    0.49488E-02        -0.81113E-02         0.00000E+00
    0.50462E-02        -0.83943E-02         0.00000E+00
    0.51447E-02        -0.86834E-02         0.00000E+00
    0.52444E-02        -0.89785E-02         0.00000E+00
    0.53452E-02        -0.92798E-02         0.00000E+00
    0.54471E-02        -0.95875E-02         0.00000E+00
    0.55499E-02        -0.99018E-02         0.00000E+00
    0.56535E-02        -0.10223E-01         0.00000E+00
    0.57580E-02        -0.10550E-01         0.00000E+00
    0.58630E-02        -0.10885E-01         0.00000E+00
    0.59686E-02        -0.11226E-01         0.00000E+00
    0.60746E-02        -0.11574E-01         0.00000E+00
    0.61808E-02        -0.11930E-01         0.00000E+00
    0.62871E-02        -0.12293E-01         0.00000E+00
    0.63933E-02        -0.12663E-01         0.00000E+00
    0.64991E-02        -0.13040E-01         0.00000E+00
    0.66045E-02        -0.13425E-01         0.00000E+00
    0.67092E-02        -0.13818E-01         0.00000E+00
    0.68129E-02        -0.14218E-01         0.00000E+00
    0.69153E-02        -0.14626E-01         0.00000E+00
    0.70163E-02        -0.15042E-01         0.00000E+00
    0.71154E-02        -0.15466E-01         0.00000E+00
    0.72123E-02        -0.15897E-01         0.00000E+00
    0.73067E-02        -0.16337E-01         0.00000E+00
    0.73982E-02        -0.16785E-01         0.00000E+00
    0.74863E-02        -0.17241E-01         0.00000E+00
    0.75705E-02        -0.17705E-01         0.00000E+00
    0.76504E-02        -0.18177E-01         0.00000E+00
    0.77254E-02        -0.18658E-01         0.00000E+00
    0.77947E-02        -0.19147E-01         0.00000E+00
    0.78579E-02        -0.19644E-01         0.00000E+00
    0.79140E-02        -0.20150E-01         0.00000E+00
    0.79624E-02        -0.20665E-01         0.00000E+00
    0.80021E-02        -0.21189E-01         0.00000E+00
    0.80320E-02        -0.21722E-01         0.00000E+00
    0.80512E-02        -0.22263E-01         0.00000E+00
    0.80584E-02        -0.22814E-01         0.00000E+00
    0.80524E-02        -0.23374E-01         0.00000E+00
    0.80317E-02        -0.23944E-01         0.00000E+00
    0.79947E-02        -0.24523E-01         0.00000E+00
    0.79397E-02        -0.25112E-01         0.00000E+00
    0.78650E-02        -0.25711E-01         0.00000E+00
    0.77684E-02        -0.26320E-01         0.00000E+00
    0.76477E-02        -0.26938E-01         0.00000E+00
    0.75007E-02        -0.27565E-01         0.00000E+00
    0.73248E-02        -0.28202E-01         0.00000E+00
    0.71172E-02        -0.28845E-01         0.00000E+00
    0.68752E-02        -0.29495E-01         0.00000E+00
    0.65956E-02        -0.30149E-01         0.00000E+00
    0.62753E-02        -0.30803E-01         0.00000E+00
    0.59109E-02        -0.31454E-01         0.00000E+00
    0.54990E-02        -0.32095E-01         0.00000E+00
    0.50361E-02        -0.32719E-01         0.00000E+00
    0.45184E-02        -0.33315E-01         0.00000E+00
    0.39421E-02        -0.33871E-01         0.00000E+00
    0.33031E-02        -0.34371E-01         0.00000E+00
    0.25967E-02        -0.34793E-01         0.00000E+00
    0.18167E-02        -0.35118E-01         0.00000E+00
    0.95483E-03        -0.35324E-01         0.00000E+00
    0.00000E+00        -0.35394E-01         0.00000E+00
    0.00000E+00        -0.79049E-04         0.00000E+00
    0.30110E-03        -0.99277E-04         0.00000E+00
    0.57673E-03        -0.15820E-03         0.00000E+00
    0.83024E-03        -0.25116E-03         0.00000E+00
    0.10641E-02        -0.37208E-03         0.00000E+00
    0.12803E-02        -0.51485E-03         0.00000E+00
    0.14802E-02        -0.67407E-03         0.00000E+00
    0.16652E-02        -0.84536E-03         0.00000E+00
    0.18366E-02        -0.10253E-02         0.00000E+00
    0.19957E-02        -0.12112E-02         0.00000E+00
    0.21436E-02        -0.14012E-02         0.00000E+00
    0.22814E-02        -0.15940E-02         0.00000E+00
    0.24104E-02        -0.17886E-02         0.00000E+00
    0.25315E-02        -0.19844E-02         0.00000E+00
    0.26457E-02        -0.21811E-02         0.00000E+00
    0.27538E-02        -0.23786E-02         0.00000E+00
    0.28568E-02        -0.25767E-02         0.00000E+00
    0.29554E-02        -0.27757E-02         0.00000E+00
    0.30503E-02        -0.29757E-02         0.00000E+00
    0.31421E-02        -0.31769E-02         0.00000E+00
    0.32314E-02        -0.33796E-02         0.00000E+00
    0.33188E-02        -0.35840E-02         0.00000E+00
    0.34046E-02        -0.37904E-02         0.00000E+00
    0.34894E-02        -0.39990E-02         0.00000E+00
    0.35734E-02        -0.42101E-02         0.00000E+00
    0.36571E-02        -0.44241E-02         0.00000E+00
    0.37407E-02        -0.46410E-02         0.00000E+00
    0.38245E-02        -0.48612E-02         0.00000E+00
    0.39086E-02        -0.50849E-02         0.00000E+00
    0.39934E-02        -0.53124E-02         0.00000E+00
    0.40789E-02        -0.55438E-02         0.00000E+00
    0.41653E-02        -0.57794E-02         0.00000E+00
    0.42526E-02        -0.60193E-02         0.00000E+00
    0.43411E-02        -0.62638E-02         0.00000E+00
    0.44308E-02        -0.65130E-02         0.00000E+00
    0.45218E-02        -0.67671E-02         0.00000E+00
    0.46140E-02        -0.70263E-02         0.00000E+00
    0.47076E-02        -0.72908E-02         0.00000E+00
    0.48025E-02        -0.75607E-02         0.00000E+00
    0.48988E-02        -0.78362E-02         0.00000E+00
    0.49964E-02        -0.81174E-02         0.00000E+00
    0.50953E-02        -0.84046E-02         0.00000E+00
    0.51956E-02        -0.86977E-02         0.00000E+00
    0.52970E-02        -0.89971E-02         0.00000E+00
    0.53997E-02        -0.93028E-02         0.00000E+00
    0.55036E-02        -0.96149E-02         0.00000E+00
    0.56085E-02        -0.99337E-02         0.00000E+00
    0.57144E-02        -0.10259E-01         0.00000E+00
    0.58212E-02        -0.10591E-01         0.00000E+00
    0.59287E-02        -0.10931E-01         0.00000E+00
    0.60370E-02        -0.11277E-01         0.00000E+00
    0.61458E-02        -0.11631E-01         0.00000E+00
    0.62550E-02        -0.11991E-01         0.00000E+00
    0.63644E-02        -0.12360E-01         0.00000E+00
    0.64740E-02        -0.12735E-01         0.00000E+00
    0.65834E-02        -0.13119E-01         0.00000E+00
    0.66925E-02        -0.13510E-01         0.00000E+00
    0.68012E-02        -0.13908E-01         0.00000E+00
    0.69091E-02        -0.14315E-01         0.00000E+00
    0.70160E-02        -0.14729E-01         0.00000E+00
    0.71216E-02        -0.15152E-01         0.00000E+00
    0.72257E-02        -0.15583E-01         0.00000E+00
    0.73280E-02        -0.16021E-01         0.00000E+00
    0.74280E-02        -0.16468E-01         0.00000E+00
    0.75254E-02        -0.16923E-01         0.00000E+00
    0.76199E-02        -0.17387E-01         0.00000E+00
    0.77108E-02        -0.17859E-01         0.00000E+00
    0.77979E-02        -0.18339E-01         0.00000E+00
    0.78804E-02        -0.18828E-01         0.00000E+00
    0.79580E-02        -0.19326E-01         0.00000E+00
    0.80298E-02        -0.19832E-01         0.00000E+00
    0.80952E-02        -0.20347E-01         0.00000E+00
    0.81535E-02        -0.20871E-01         0.00000E+00
    0.82039E-02        -0.21404E-01         0.00000E+00
    0.82453E-02        -0.21946E-01         0.00000E+00
    0.82767E-02        -0.22497E-01         0.00000E+00
    0.82972E-02        -0.23057E-01         0.00000E+00
    0.83053E-02        -0.23627E-01         0.00000E+00
    0.82999E-02        -0.24207E-01         0.00000E+00
    0.82794E-02        -0.24796E-01         0.00000E+00
    0.82422E-02        -0.25395E-01         0.00000E+00
    0.81866E-02        -0.26004E-01         0.00000E+00
    0.81105E-02        -0.26624E-01         0.00000E+00
    0.80120E-02        -0.27253E-01         0.00000E+00
    0.78887E-02        -0.27892E-01         0.00000E+00
    0.77382E-02        -0.28540E-01         0.00000E+00
    0.75579E-02        -0.29198E-01         0.00000E+00
    0.73448E-02        -0.29863E-01         0.00000E+00
    0.70959E-02        -0.30535E-01         0.00000E+00
    0.68081E-02        -0.31210E-01         0.00000E+00
    0.64780E-02        -0.31887E-01         0.00000E+00
    0.61021E-02        -0.32559E-01         0.00000E+00
    0.56766E-02        -0.33222E-01         0.00000E+00
    0.51980E-02        -0.33868E-01         0.00000E+00
    0.46623E-02        -0.34485E-01         0.00000E+00
    0.40659E-02        -0.35061E-01         0.00000E+00
    0.34046E-02        -0.35579E-01         0.00000E+00
    0.26741E-02        -0.36018E-01         0.00000E+00
    0.18689E-02        -0.36356E-01         0.00000E+00
    0.98102E-03        -0.36571E-01         0.00000E+00
    0.00000E+00        -0.36644E-01         0.00000E+00
    0.00000E+00        -0.86928E-04         0.00000E+00
    0.30913E-03        -0.10805E-03         0.00000E+00
    0.59273E-03        -0.16950E-03         0.00000E+00
    0.85404E-03        -0.26625E-03         0.00000E+00
    0.10954E-02        -0.39182E-03         0.00000E+00
    0.13185E-02        -0.53981E-03         0.00000E+00
    0.15249E-02        -0.70464E-03         0.00000E+00
    0.17158E-02        -0.88178E-03         0.00000E+00
    0.18925E-02        -0.10677E-02         0.00000E+00
    0.20563E-02        -0.12598E-02         0.00000E+00
    0.22085E-02        -0.14561E-02         0.00000E+00
    0.23503E-02        -0.16552E-02         0.00000E+00
    0.24828E-02        -0.18562E-02         0.00000E+00
    0.26071E-02        -0.20584E-02         0.00000E+00
    0.27243E-02        -0.22616E-02         0.00000E+00
    0.28352E-02        -0.24655E-02         0.00000E+00
    0.29409E-02        -0.26703E-02         0.00000E+00
    0.30419E-02        -0.28759E-02         0.00000E+00
    0.31392E-02        -0.30826E-02         0.00000E+00
    0.32333E-02        -0.32905E-02         0.00000E+00
    0.33249E-02        -0.35000E-02         0.00000E+00
    0.34145E-02        -0.37113E-02         0.00000E+00
    0.35025E-02        -0.39247E-02         0.00000E+00
    0.35895E-02        -0.41404E-02         0.00000E+00
    0.36757E-02        -0.43588E-02         0.00000E+00
    0.37616E-02        -0.45800E-02         0.00000E+00
    0.38474E-02        -0.48044E-02         0.00000E+00
    0.39334E-02        -0.50322E-02         0.00000E+00
    0.40198E-02        -0.52636E-02         0.00000E+00
    0.41069E-02        -0.54989E-02         0.00000E+00
    0.41947E-02        -0.57383E-02         0.00000E+00
    0.42834E-02        -0.59820E-02         0.00000E+00
    0.43732E-02        -0.62302E-02         0.00000E+00
    0.44642E-02        -0.64831E-02         0.00000E+00
    0.45564E-02        -0.67409E-02         0.00000E+00
    0.46499E-02        -0.70038E-02         0.00000E+00
    0.47447E-02        -0.72720E-02         0.00000E+00
    0.48409E-02        -0.75456E-02         0.00000E+00
    0.49385E-02        -0.78249E-02         0.00000E+00
    0.50375E-02        -0.81099E-02         0.00000E+00
    0.51379E-02        -0.84009E-02         0.00000E+00
    0.52397E-02        -0.86980E-02         0.00000E+00
    0.53428E-02        -0.90013E-02         0.00000E+00
    0.54472E-02        -0.93110E-02         0.00000E+00
    0.55528E-02        -0.96273E-02         0.00000E+00
    0.56597E-02        -0.99502E-02         0.00000E+00
    0.57676E-02        -0.10280E-01         0.00000E+00
    0.58765E-02        -0.10617E-01         0.00000E+00
    0.59864E-02        -0.10960E-01         0.00000E+00
    0.60971E-02        -0.11311E-01         0.00000E+00
    0.62085E-02        -0.11670E-01         0.00000E+00
    0.63205E-02        -0.12035E-01         0.00000E+00
    0.64329E-02        -0.12409E-01         0.00000E+00
    0.65455E-02        -0.12790E-01         0.00000E+00
    0.66582E-02        -0.13178E-01         0.00000E+00
    0.67709E-02        -0.13575E-01         0.00000E+00
    0.68833E-02        -0.13979E-01         0.00000E+00
    0.69951E-02        -0.14392E-01         0.00000E+00
    0.71062E-02        -0.14812E-01         0.00000E+00
    0.72163E-02        -0.15241E-01         0.00000E+00
    0.73252E-02        -0.15678E-01         0.00000E+00
    0.74324E-02        -0.16123E-01         0.00000E+00
    0.75377E-02        -0.16577E-01         0.00000E+00
    0.76408E-02        -0.17039E-01         0.00000E+00
    0.77413E-02        -0.17510E-01         0.00000E+00
    0.78386E-02        -0.17989E-01         0.00000E+00
    0.79325E-02        -0.18477E-01         0.00000E+00
    0.80223E-02        -0.18974E-01         0.00000E+00
    0.81076E-02        -0.19480E-01         0.00000E+00
    0.81877E-02        -0.19994E-01         0.00000E+00
    0.82620E-02        -0.20518E-01         0.00000E+00
    0.83297E-02        -0.21050E-01         0.00000E+00
    0.83902E-02        -0.21592E-01         0.00000E+00
    0.84425E-02        -0.22143E-01         0.00000E+00
    0.84857E-02        -0.22703E-01         0.00000E+00
    0.85187E-02        -0.23272E-01         0.00000E+00
    0.85405E-02        -0.23851E-01         0.00000E+00
    0.85497E-02        -0.24440E-01         0.00000E+00
    0.85449E-02        -0.25039E-01         0.00000E+00
    0.85247E-02        -0.25648E-01         0.00000E+00
    0.84874E-02        -0.26267E-01         0.00000E+00
    0.84312E-02        -0.26896E-01         0.00000E+00
    0.83541E-02        -0.27536E-01         0.00000E+00
    0.82538E-02        -0.28185E-01         0.00000E+00
    0.81281E-02        -0.28845E-01         0.00000E+00
    0.79743E-02        -0.29515E-01         0.00000E+00
    0.77897E-02        -0.30194E-01         0.00000E+00
    0.75713E-02        -0.30880E-01         0.00000E+00
    0.73159E-02        -0.31574E-01         0.00000E+00
    0.70201E-02        -0.32271E-01         0.00000E+00
    0.66805E-02        -0.32969E-01         0.00000E+00
    0.62932E-02        -0.33664E-01         0.00000E+00
    0.58544E-02        -0.34349E-01         0.00000E+00
    0.53602E-02        -0.35015E-01         0.00000E+00
    0.48068E-02        -0.35654E-01         0.00000E+00
    0.41903E-02        -0.36250E-01         0.00000E+00
    0.35067E-02        -0.36786E-01         0.00000E+00
    0.27521E-02        -0.37243E-01         0.00000E+00
    0.19214E-02        -0.37594E-01         0.00000E+00
    0.10074E-02        -0.37818E-01         0.00000E+00
    0.00000E+00        -0.37895E-01         0.00000E+00
    0.00000E+00        -0.94752E-04         0.00000E+00
    0.31720E-03        -0.11681E-03         0.00000E+00
    0.60881E-03        -0.18088E-03         0.00000E+00
    0.87794E-03        -0.28152E-03         0.00000E+00
    0.11268E-02        -0.41184E-03         0.00000E+00
    0.13569E-02        -0.56512E-03         0.00000E+00
    0.15696E-02        -0.73557E-03         0.00000E+00
    0.17663E-02        -0.91858E-03         0.00000E+00
    0.19482E-02        -0.11106E-02         0.00000E+00
    0.21167E-02        -0.13088E-02         0.00000E+00
    0.22731E-02        -0.15113E-02         0.00000E+00
    0.24187E-02        -0.17167E-02         0.00000E+00
    0.25547E-02        -0.19240E-02         0.00000E+00
    0.26821E-02        -0.21327E-02         0.00000E+00
    0.28022E-02        -0.23423E-02         0.00000E+00
    0.29159E-02        -0.25527E-02         0.00000E+00
    0.30240E-02        -0.27640E-02         0.00000E+00
    0.31275E-02        -0.29763E-02         0.00000E+00
    0.32271E-02        -0.31896E-02         0.00000E+00
    0.33234E-02        -0.34043E-02         0.00000E+00
    0.34172E-02        -0.36206E-02         0.00000E+00
    0.35089E-02        -0.38388E-02         0.00000E+00
    0.35991E-02        -0.40592E-02         0.00000E+00
    0.36882E-02        -0.42820E-02         0.00000E+00
    0.37766E-02        -0.45075E-02         0.00000E+00
    0.38646E-02        -0.47361E-02         0.00000E+00
    0.39526E-02        -0.49679E-02         0.00000E+00
    0.40407E-02        -0.52033E-02         0.00000E+00
    0.41294E-02        -0.54424E-02         0.00000E+00
    0.42187E-02        -0.56855E-02         0.00000E+00
    0.43088E-02        -0.59329E-02         0.00000E+00
    0.43999E-02        -0.61847E-02         0.00000E+00
    0.44921E-02        -0.64412E-02         0.00000E+00
    0.45854E-02        -0.67026E-02         0.00000E+00
    0.46801E-02        -0.69690E-02         0.00000E+00
    0.47761E-02        -0.72407E-02         0.00000E+00
    0.48735E-02        -0.75179E-02         0.00000E+00
    0.49723E-02        -0.78007E-02         0.00000E+00
    0.50725E-02        -0.80893E-02         0.00000E+00
    0.51742E-02        -0.83838E-02         0.00000E+00
    0.52774E-02        -0.86845E-02         0.00000E+00
    0.53819E-02        -0.89915E-02         0.00000E+00
    0.54879E-02        -0.93050E-02         0.00000E+00
    0.55951E-02        -0.96251E-02         0.00000E+00
    0.57037E-02        -0.99519E-02         0.00000E+00
    0.58135E-02        -0.10286E-01         0.00000E+00
    0.59244E-02        -0.10626E-01         0.00000E+00
    0.60364E-02        -0.10974E-01         0.00000E+00
    0.61493E-02        -0.11330E-01         0.00000E+00
    0.62631E-02        -0.11692E-01         0.00000E+00
    0.63776E-02        -0.12063E-01         0.00000E+00
    0.64927E-02        -0.12440E-01         0.00000E+00
    0.66082E-02        -0.12826E-01         0.00000E+00
    0.67240E-02        -0.13220E-01         0.00000E+00
    0.68399E-02        -0.13621E-01         0.00000E+00
    0.69558E-02        -0.14031E-01         0.00000E+00
    0.70713E-02        -0.14449E-01         0.00000E+00
    0.71864E-02        -0.14875E-01         0.00000E+00
    0.73006E-02        -0.15310E-01         0.00000E+00
    0.74139E-02        -0.15753E-01         0.00000E+00
    0.75259E-02        -0.16204E-01         0.00000E+00
    0.76362E-02        -0.16664E-01         0.00000E+00
    0.77447E-02        -0.17133E-01         0.00000E+00
    0.78508E-02        -0.17610E-01         0.00000E+00
    0.79542E-02        -0.18097E-01         0.00000E+00
    0.80545E-02        -0.18592E-01         0.00000E+00
    0.81512E-02        -0.19096E-01         0.00000E+00
    0.82439E-02        -0.19609E-01         0.00000E+00
    0.83318E-02        -0.20131E-01         0.00000E+00
    0.84145E-02        -0.20663E-01         0.00000E+00
    0.84913E-02        -0.21203E-01         0.00000E+00
    0.85614E-02        -0.21753E-01         0.00000E+00
    0.86240E-02        -0.22312E-01         0.00000E+00
    0.86783E-02        -0.22881E-01         0.00000E+00
    0.87234E-02        -0.23459E-01         0.00000E+00
    0.87580E-02        -0.24047E-01         0.00000E+00
    0.87811E-02        -0.24645E-01         0.00000E+00
    0.87914E-02        -0.25253E-01         0.00000E+00
    0.87874E-02        -0.25871E-01         0.00000E+00
    0.87677E-02        -0.26499E-01         0.00000E+00
    0.87304E-02        -0.27138E-01         0.00000E+00
    0.86738E-02        -0.27787E-01         0.00000E+00
    0.85956E-02        -0.28447E-01         0.00000E+00
    0.84938E-02        -0.29117E-01         0.00000E+00
    0.83658E-02        -0.29798E-01         0.00000E+00
    0.82089E-02        -0.30489E-01         0.00000E+00
    0.80203E-02        -0.31189E-01         0.00000E+00
    0.77969E-02        -0.31897E-01         0.00000E+00
    0.75352E-02        -0.32612E-01         0.00000E+00
    0.72317E-02        -0.33331E-01         0.00000E+00
    0.68828E-02        -0.34051E-01         0.00000E+00
    0.64844E-02        -0.34767E-01         0.00000E+00
    0.60325E-02        -0.35474E-01         0.00000E+00
    0.55231E-02        -0.36162E-01         0.00000E+00
    0.49520E-02        -0.36821E-01         0.00000E+00
    0.43155E-02        -0.37438E-01         0.00000E+00
    0.36096E-02        -0.37993E-01         0.00000E+00
    0.28308E-02        -0.38466E-01         0.00000E+00
    0.19744E-02        -0.38832E-01         0.00000E+00
    0.10340E-02        -0.39065E-01         0.00000E+00
    0.00000E+00        -0.39146E-01         0.00000E+00
    0.00000E+00        -0.10249E-03         0.00000E+00
    0.32533E-03        -0.12552E-03         0.00000E+00
    0.62501E-03        -0.19233E-03         0.00000E+00
    0.90201E-03        -0.29698E-03         0.00000E+00
    0.11583E-02        -0.43214E-03         0.00000E+00
    0.13954E-02        -0.59075E-03         0.00000E+00
    0.16144E-02        -0.76687E-03         0.00000E+00
    0.18168E-02        -0.95576E-03         0.00000E+00
    0.20039E-02        -0.11538E-02         0.00000E+00
    0.21770E-02        -0.13581E-02         0.00000E+00
    0.23375E-02        -0.15669E-02         0.00000E+00
    0.24867E-02        -0.17785E-02         0.00000E+00
    0.26260E-02        -0.19922E-02         0.00000E+00
    0.27566E-02        -0.22072E-02         0.00000E+00
    0.28794E-02        -0.24233E-02         0.00000E+00
    0.29957E-02        -0.26402E-02         0.00000E+00
    0.31063E-02        -0.28580E-02         0.00000E+00
    0.32121E-02        -0.30768E-02         0.00000E+00
    0.33139E-02        -0.32968E-02         0.00000E+00
    0.34124E-02        -0.35183E-02         0.00000E+00
    0.35083E-02        -0.37414E-02         0.00000E+00
    0.36021E-02        -0.39665E-02         0.00000E+00
    0.36944E-02        -0.41938E-02         0.00000E+00
    0.37855E-02        -0.44237E-02         0.00000E+00
    0.38760E-02        -0.46565E-02         0.00000E+00
    0.39661E-02        -0.48923E-02         0.00000E+00
    0.40562E-02        -0.51316E-02         0.00000E+00
    0.41465E-02        -0.53745E-02         0.00000E+00
    0.42374E-02        -0.56213E-02         0.00000E+00
    0.43289E-02        -0.58723E-02         0.00000E+00
    0.44212E-02        -0.61276E-02         0.00000E+00
    0.45146E-02        -0.63876E-02         0.00000E+00
    0.46091E-02        -0.66524E-02         0.00000E+00
    0.47049E-02        -0.69222E-02         0.00000E+00
    0.48020E-02        -0.71973E-02         0.00000E+00
    0.49004E-02        -0.74778E-02         0.00000E+00
    0.50003E-02        -0.77639E-02         0.00000E+00
    0.51017E-02        -0.80558E-02         0.00000E+00
    0.52046E-02        -0.83538E-02         0.00000E+00
    0.53089E-02        -0.86579E-02         0.00000E+00
    0.54148E-02        -0.89683E-02         0.00000E+00
    0.55221E-02        -0.92853E-02         0.00000E+00
    0.56308E-02        -0.96089E-02         0.00000E+00
    0.57409E-02        -0.99393E-02         0.00000E+00
    0.58523E-02        -0.10277E-01         0.00000E+00
    0.59650E-02        -0.10621E-01         0.00000E+00
    0.60789E-02        -0.10973E-01         0.00000E+00
    0.61938E-02        -0.11332E-01         0.00000E+00
    0.63098E-02        -0.11699E-01         0.00000E+00
    0.64266E-02        -0.12073E-01         0.00000E+00
    0.65442E-02        -0.12456E-01         0.00000E+00
    0.66624E-02        -0.12846E-01         0.00000E+00
    0.67810E-02        -0.13244E-01         0.00000E+00
    0.68999E-02        -0.13650E-01         0.00000E+00
    0.70190E-02        -0.14065E-01         0.00000E+00
    0.71380E-02        -0.14487E-01         0.00000E+00
    0.72567E-02        -0.14919E-01         0.00000E+00
    0.73749E-02        -0.15359E-01         0.00000E+00
    0.74923E-02        -0.15807E-01         0.00000E+00
    0.76087E-02        -0.16264E-01         0.00000E+00
    0.77238E-02        -0.16730E-01         0.00000E+00
    0.78373E-02        -0.17205E-01         0.00000E+00
    0.79488E-02        -0.17689E-01         0.00000E+00
    0.80579E-02        -0.18182E-01         0.00000E+00
    0.81643E-02        -0.18684E-01         0.00000E+00
    0.82676E-02        -0.19195E-01         0.00000E+00
    0.83671E-02        -0.19715E-01         0.00000E+00
    0.84625E-02        -0.20244E-01         0.00000E+00
    0.85532E-02        -0.20783E-01         0.00000E+00
    0.86385E-02        -0.21331E-01         0.00000E+00
    0.87177E-02        -0.21889E-01         0.00000E+00
    0.87902E-02        -0.22456E-01         0.00000E+00
    0.88550E-02        -0.23033E-01         0.00000E+00
    0.89114E-02        -0.23620E-01         0.00000E+00
    0.89583E-02        -0.24216E-01         0.00000E+00
    0.89946E-02        -0.24823E-01         0.00000E+00
    0.90191E-02        -0.25439E-01         0.00000E+00
    0.90306E-02        -0.26066E-01         0.00000E+00
    0.90275E-02        -0.26703E-01         0.00000E+00
    0.90083E-02        -0.27351E-01         0.00000E+00
    0.89712E-02        -0.28009E-01         0.00000E+00
    0.89142E-02        -0.28679E-01         0.00000E+00
    0.88353E-02        -0.29358E-01         0.00000E+00
    0.87321E-02        -0.30049E-01         0.00000E+00
    0.86020E-02        -0.30751E-01         0.00000E+00
    0.84422E-02        -0.31462E-01         0.00000E+00
    0.82499E-02        -0.32183E-01         0.00000E+00
    0.80216E-02        -0.32913E-01         0.00000E+00
    0.77539E-02        -0.33649E-01         0.00000E+00
    0.74430E-02        -0.34390E-01         0.00000E+00
    0.70850E-02        -0.35132E-01         0.00000E+00
    0.66758E-02        -0.35870E-01         0.00000E+00
    0.62111E-02        -0.36598E-01         0.00000E+00
    0.56867E-02        -0.37308E-01         0.00000E+00
    0.50982E-02        -0.37988E-01         0.00000E+00
    0.44417E-02        -0.38625E-01         0.00000E+00
    0.37136E-02        -0.39199E-01         0.00000E+00
    0.29103E-02        -0.39690E-01         0.00000E+00
    0.20281E-02        -0.40070E-01         0.00000E+00
    0.10610E-02        -0.40313E-01         0.00000E+00
    0.00000E+00        -0.40397E-01         0.00000E+00
    0.00000E+00        -0.11010E-03         0.00000E+00
    0.33355E-03        -0.13416E-03         0.00000E+00
    0.64137E-03        -0.20381E-03         0.00000E+00
    0.92628E-03        -0.31261E-03         0.00000E+00
    0.11901E-02        -0.45269E-03         0.00000E+00
    0.14341E-02        -0.61671E-03         0.00000E+00
    0.16594E-02        -0.79852E-03         0.00000E+00
    0.18674E-02        -0.99329E-03         0.00000E+00
    0.20595E-02        -0.11973E-02         0.00000E+00
    0.22371E-02        -0.14078E-02         0.00000E+00
    0.24016E-02        -0.16227E-02         0.00000E+00
    0.25544E-02        -0.18407E-02         0.00000E+00
    0.26969E-02        -0.20606E-02         0.00000E+00
    0.28304E-02        -0.22820E-02         0.00000E+00
    0.29560E-02        -0.25045E-02         0.00000E+00
    0.30747E-02        -0.27279E-02         0.00000E+00
    0.31877E-02        -0.29522E-02         0.00000E+00
    0.32958E-02        -0.31776E-02         0.00000E+00
    0.33997E-02        -0.34043E-02         0.00000E+00
    0.35003E-02        -0.36324E-02         0.00000E+00
    0.35983E-02        -0.38623E-02         0.00000E+00
    0.36941E-02        -0.40943E-02         0.00000E+00
    0.37884E-02        -0.43286E-02         0.00000E+00
    0.38816E-02        -0.45656E-02         0.00000E+00
    0.39740E-02        -0.48056E-02         0.00000E+00
    0.40662E-02        -0.50487E-02         0.00000E+00
    0.41584E-02        -0.52954E-02         0.00000E+00
    0.42508E-02        -0.55459E-02         0.00000E+00
    0.43437E-02        -0.58004E-02         0.00000E+00
    0.44374E-02        -0.60592E-02         0.00000E+00
    0.45320E-02        -0.63225E-02         0.00000E+00
    0.46276E-02        -0.65906E-02         0.00000E+00
    0.47244E-02        -0.68637E-02         0.00000E+00
    0.48225E-02        -0.71419E-02         0.00000E+00
    0.49220E-02        -0.74256E-02         0.00000E+00
    0.50229E-02        -0.77149E-02         0.00000E+00
    0.51252E-02        -0.80100E-02         0.00000E+00
    0.52291E-02        -0.83111E-02         0.00000E+00
    0.53346E-02        -0.86184E-02         0.00000E+00
    0.54415E-02        -0.89320E-02         0.00000E+00
    0.55500E-02        -0.92522E-02         0.00000E+00
    0.56600E-02        -0.95791E-02         0.00000E+00
    0.57715E-02        -0.99129E-02         0.00000E+00
    0.58844E-02        -0.10254E-01         0.00000E+00
    0.59987E-02        -0.10602E-01         0.00000E+00
    0.61143E-02        -0.10957E-01         0.00000E+00
    0.62310E-02        -0.11320E-01         0.00000E+00
    0.63489E-02        -0.11690E-01         0.00000E+00
    0.64679E-02        -0.12068E-01         0.00000E+00
    0.65877E-02        -0.12455E-01         0.00000E+00
    0.67083E-02        -0.12849E-01         0.00000E+00
    0.68295E-02        -0.13251E-01         0.00000E+00
    0.69513E-02        -0.13662E-01         0.00000E+00
    0.70733E-02        -0.14080E-01         0.00000E+00
    0.71955E-02        -0.14508E-01         0.00000E+00
    0.73176E-02        -0.14944E-01         0.00000E+00
    0.74394E-02        -0.15389E-01         0.00000E+00
    0.75608E-02        -0.15842E-01         0.00000E+00
    0.76813E-02        -0.16305E-01         0.00000E+00
    0.78008E-02        -0.16776E-01         0.00000E+00
    0.79190E-02        -0.17257E-01         0.00000E+00
    0.80355E-02        -0.17746E-01         0.00000E+00
    0.81501E-02        -0.18245E-01         0.00000E+00
    0.82622E-02        -0.18753E-01         0.00000E+00
    0.83716E-02        -0.19270E-01         0.00000E+00
    0.84777E-02        -0.19797E-01         0.00000E+00
    0.85801E-02        -0.20334E-01         0.00000E+00
    0.86783E-02        -0.20879E-01         0.00000E+00
    0.87716E-02        -0.21435E-01         0.00000E+00
    0.88595E-02        -0.22000E-01         0.00000E+00
    0.89413E-02        -0.22575E-01         0.00000E+00
    0.90161E-02        -0.23159E-01         0.00000E+00
    0.90832E-02        -0.23754E-01         0.00000E+00
    0.91417E-02        -0.24358E-01         0.00000E+00
    0.91905E-02        -0.24973E-01         0.00000E+00
    0.92285E-02        -0.25598E-01         0.00000E+00
    0.92546E-02        -0.26233E-01         0.00000E+00
    0.92673E-02        -0.26879E-01         0.00000E+00
    0.92652E-02        -0.27535E-01         0.00000E+00
    0.92466E-02        -0.28202E-01         0.00000E+00
    0.92097E-02        -0.28880E-01         0.00000E+00
    0.91526E-02        -0.29569E-01         0.00000E+00
    0.90730E-02        -0.30270E-01         0.00000E+00
    0.89686E-02        -0.30981E-01         0.00000E+00
    0.88366E-02        -0.31703E-01         0.00000E+00
    0.86743E-02        -0.32435E-01         0.00000E+00
    0.84784E-02        -0.33177E-01         0.00000E+00
    0.82455E-02        -0.33928E-01         0.00000E+00
    0.79721E-02        -0.34686E-01         0.00000E+00
    0.76541E-02        -0.35448E-01         0.00000E+00
    0.72874E-02        -0.36211E-01         0.00000E+00
    0.68677E-02        -0.36971E-01         0.00000E+00
    0.63905E-02        -0.37721E-01         0.00000E+00
    0.58512E-02        -0.38452E-01         0.00000E+00
    0.52455E-02        -0.39153E-01         0.00000E+00
    0.45692E-02        -0.39811E-01         0.00000E+00
    0.38188E-02        -0.40405E-01         0.00000E+00
    0.29910E-02        -0.40913E-01         0.00000E+00
    0.20825E-02        -0.41309E-01         0.00000E+00
    0.10884E-02        -0.41562E-01         0.00000E+00
    0.00000E+00        -0.41650E-01         0.00000E+00
    0.00000E+00        -0.11755E-03         0.00000E+00
    0.34188E-03        -0.14270E-03         0.00000E+00
    0.65794E-03        -0.21533E-03         0.00000E+00
    0.95083E-03        -0.32839E-03         0.00000E+00
    0.12221E-02        -0.47350E-03         0.00000E+00
    0.14730E-02        -0.64297E-03         0.00000E+00
    0.17046E-02        -0.83051E-03         0.00000E+00
    0.19181E-02        -0.10312E-02         0.00000E+00
    0.21151E-02        -0.12412E-02         0.00000E+00
    0.22970E-02        -0.14578E-02         0.00000E+00
    0.24654E-02        -0.16789E-02         0.00000E+00
    0.26217E-02        -0.19031E-02         0.00000E+00
    0.27674E-02        -0.21294E-02         0.00000E+00
    0.29037E-02        -0.23571E-02         0.00000E+00
    0.30318E-02        -0.25859E-02         0.00000E+00
    0.31530E-02        -0.28158E-02         0.00000E+00
    0.32683E-02        -0.30466E-02         0.00000E+00
    0.33785E-02        -0.32786E-02         0.00000E+00
    0.34845E-02        -0.35119E-02         0.00000E+00
    0.35872E-02        -0.37467E-02         0.00000E+00
    0.36871E-02        -0.39834E-02         0.00000E+00
    0.37849E-02        -0.42223E-02         0.00000E+00
    0.38811E-02        -0.44636E-02         0.00000E+00
    0.39762E-02        -0.47077E-02         0.00000E+00
    0.40707E-02        -0.49548E-02         0.00000E+00
    0.41648E-02        -0.52053E-02         0.00000E+00
    0.42590E-02        -0.54594E-02         0.00000E+00
    0.43535E-02        -0.57174E-02         0.00000E+00
    0.44485E-02        -0.59796E-02         0.00000E+00
    0.45443E-02        -0.62462E-02         0.00000E+00
    0.46410E-02        -0.65175E-02         0.00000E+00
    0.47388E-02        -0.67937E-02         0.00000E+00
    0.48379E-02        -0.70751E-02         0.00000E+00
    0.49383E-02        -0.73618E-02         0.00000E+00
    0.50401E-02        -0.76541E-02         0.00000E+00
    0.51434E-02        -0.79522E-02         0.00000E+00
    0.52482E-02        -0.82563E-02         0.00000E+00
    0.53546E-02        -0.85665E-02         0.00000E+00
    0.54626E-02        -0.88832E-02         0.00000E+00
    0.55721E-02        -0.92064E-02         0.00000E+00
    0.56832E-02        -0.95363E-02         0.00000E+00
    0.57959E-02        -0.98731E-02         0.00000E+00
    0.59101E-02        -0.10217E-01         0.00000E+00
    0.60258E-02        -0.10568E-01         0.00000E+00
    0.61428E-02        -0.10927E-01         0.00000E+00
    0.62612E-02        -0.11293E-01         0.00000E+00
    0.63809E-02        -0.11667E-01         0.00000E+00
    0.65017E-02        -0.12048E-01         0.00000E+00
    0.66236E-02        -0.12438E-01         0.00000E+00
    0.67464E-02        -0.12836E-01         0.00000E+00
    0.68700E-02        -0.13242E-01         0.00000E+00
    0.69942E-02        -0.13656E-01         0.00000E+00
    0.71190E-02        -0.14079E-01         0.00000E+00
    0.72441E-02        -0.14511E-01         0.00000E+00
    0.73694E-02        -0.14951E-01         0.00000E+00
    0.74946E-02        -0.15401E-01         0.00000E+00
    0.76195E-02        -0.15859E-01         0.00000E+00
    0.77439E-02        -0.16326E-01         0.00000E+00
    0.78675E-02        -0.16803E-01         0.00000E+00
    0.79901E-02        -0.17288E-01         0.00000E+00
    0.81114E-02        -0.17783E-01         0.00000E+00
    0.82310E-02        -0.18287E-01         0.00000E+00
    0.83485E-02        -0.18801E-01         0.00000E+00
    0.84637E-02        -0.19325E-01         0.00000E+00
    0.85760E-02        -0.19858E-01         0.00000E+00
    0.86850E-02        -0.20400E-01         0.00000E+00
    0.87903E-02        -0.20952E-01         0.00000E+00
    0.88912E-02        -0.21515E-01         0.00000E+00
    0.89872E-02        -0.22087E-01         0.00000E+00
    0.90777E-02        -0.22668E-01         0.00000E+00
    0.91620E-02        -0.23260E-01         0.00000E+00
    0.92392E-02        -0.23862E-01         0.00000E+00
    0.93086E-02        -0.24474E-01         0.00000E+00
    0.93692E-02        -0.25097E-01         0.00000E+00
    0.94200E-02        -0.25730E-01         0.00000E+00
    0.94598E-02        -0.26373E-01         0.00000E+00
    0.94874E-02        -0.27027E-01         0.00000E+00
    0.95014E-02        -0.27691E-01         0.00000E+00
    0.95004E-02        -0.28367E-01         0.00000E+00
    0.94826E-02        -0.29053E-01         0.00000E+00
    0.94461E-02        -0.29751E-01         0.00000E+00
    0.93890E-02        -0.30460E-01         0.00000E+00
    0.93089E-02        -0.31180E-01         0.00000E+00
    0.92035E-02        -0.31912E-01         0.00000E+00
    0.90698E-02        -0.32654E-01         0.00000E+00
    0.89051E-02        -0.33407E-01         0.00000E+00
    0.87059E-02        -0.34170E-01         0.00000E+00
    0.84688E-02        -0.34942E-01         0.00000E+00
    0.81899E-02        -0.35722E-01         0.00000E+00
    0.78651E-02        -0.36505E-01         0.00000E+00
    0.74900E-02        -0.37290E-01         0.00000E+00
    0.70601E-02        -0.38072E-01         0.00000E+00
    0.65706E-02        -0.38843E-01         0.00000E+00
    0.60169E-02        -0.39595E-01         0.00000E+00
    0.53941E-02        -0.40318E-01         0.00000E+00
    0.46982E-02        -0.40996E-01         0.00000E+00
    0.39255E-02        -0.41610E-01         0.00000E+00
    0.30730E-02        -0.42136E-01         0.00000E+00
    0.21380E-02        -0.42547E-01         0.00000E+00
    0.11163E-02        -0.42811E-01         0.00000E+00
    0.00000E+00        -0.42903E-01         0.00000E+00
    0.00000E+00        -0.12482E-03         0.00000E+00
    0.35033E-03        -0.15111E-03         0.00000E+00
    0.67476E-03        -0.22685E-03         0.00000E+00
    0.97571E-03        -0.34431E-03         0.00000E+00
    0.12546E-02        -0.49455E-03         0.00000E+00
    0.15123E-02        -0.66953E-03         0.00000E+00
    0.17500E-02        -0.86282E-03         0.00000E+00
    0.19689E-02        -0.10694E-02         0.00000E+00
    0.21707E-02        -0.12855E-02         0.00000E+00
    0.23569E-02        -0.15082E-02         0.00000E+00
    0.25290E-02        -0.17354E-02         0.00000E+00
    0.26887E-02        -0.19658E-02         0.00000E+00
    0.28373E-02        -0.21984E-02         0.00000E+00
    0.29764E-02        -0.24324E-02         0.00000E+00
    0.31070E-02        -0.26676E-02         0.00000E+00
    0.32305E-02        -0.29039E-02         0.00000E+00
    0.33480E-02        -0.31412E-02         0.00000E+00
    0.34602E-02        -0.33797E-02         0.00000E+00
    0.35683E-02        -0.36196E-02         0.00000E+00
    0.36729E-02        -0.38612E-02         0.00000E+00
    0.37747E-02        -0.41047E-02         0.00000E+00
    0.38744E-02        -0.43504E-02         0.00000E+00
    0.39725E-02        -0.45987E-02         0.00000E+00
    0.40695E-02        -0.48498E-02         0.00000E+00
    0.41659E-02        -0.51041E-02         0.00000E+00
    0.42620E-02        -0.53619E-02         0.00000E+00
    0.43581E-02        -0.56234E-02         0.00000E+00
    0.44546E-02        -0.58890E-02         0.00000E+00
    0.45516E-02        -0.61589E-02         0.00000E+00
    0.46495E-02        -0.64334E-02         0.00000E+00
    0.47484E-02        -0.67126E-02         0.00000E+00
    0.48483E-02        -0.69970E-02         0.00000E+00
    0.49496E-02        -0.72866E-02         0.00000E+00
    0.50523E-02        -0.75818E-02         0.00000E+00
    0.51564E-02        -0.78827E-02         0.00000E+00
    0.52620E-02        -0.81896E-02         0.00000E+00
    0.53692E-02        -0.85027E-02         0.00000E+00
    0.54781E-02        -0.88221E-02         0.00000E+00
    0.55885E-02        -0.91481E-02         0.00000E+00
    0.57006E-02        -0.94808E-02         0.00000E+00
    0.58143E-02        -0.98204E-02         0.00000E+00
    0.59296E-02        -0.10167E-01         0.00000E+00
    0.60465E-02        -0.10521E-01         0.00000E+00
    0.61649E-02        -0.10883E-01         0.00000E+00
    0.62847E-02        -0.11252E-01         0.00000E+00
    0.64059E-02        -0.11629E-01         0.00000E+00
    0.65284E-02        -0.12014E-01         0.00000E+00
    0.66521E-02        -0.12407E-01         0.00000E+00
    0.67769E-02        -0.12808E-01         0.00000E+00
    0.69026E-02        -0.13217E-01         0.00000E+00
    0.70292E-02        -0.13635E-01         0.00000E+00
    0.71564E-02        -0.14062E-01         0.00000E+00
    0.72842E-02        -0.14497E-01         0.00000E+00
    0.74124E-02        -0.14942E-01         0.00000E+00
    0.75406E-02        -0.15395E-01         0.00000E+00
    0.76689E-02        -0.15858E-01         0.00000E+00
    0.77969E-02        -0.16329E-01         0.00000E+00
    0.79244E-02        -0.16810E-01         0.00000E+00
    0.80511E-02        -0.17300E-01         0.00000E+00
    0.81767E-02        -0.17800E-01         0.00000E+00
    0.83010E-02        -0.18310E-01         0.00000E+00
    0.84236E-02        -0.18829E-01         0.00000E+00
    0.85442E-02        -0.19358E-01         0.00000E+00
    0.86623E-02        -0.19896E-01         0.00000E+00
    0.87775E-02        -0.20445E-01         0.00000E+00
    0.88894E-02        -0.21003E-01         0.00000E+00
    0.89975E-02        -0.21571E-01         0.00000E+00
    0.91012E-02        -0.22150E-01         0.00000E+00
    0.92000E-02        -0.22738E-01         0.00000E+00
    0.92931E-02        -0.23337E-01         0.00000E+00
    0.93799E-02        -0.23946E-01         0.00000E+00
    0.94595E-02        -0.24565E-01         0.00000E+00
    0.95312E-02        -0.25195E-01         0.00000E+00
    0.95940E-02        -0.25835E-01         0.00000E+00
    0.96467E-02        -0.26486E-01         0.00000E+00
    0.96884E-02        -0.27148E-01         0.00000E+00
    0.97177E-02        -0.27820E-01         0.00000E+00
    0.97331E-02        -0.28504E-01         0.00000E+00
    0.97332E-02        -0.29198E-01         0.00000E+00
    0.97163E-02        -0.29904E-01         0.00000E+00
    0.96804E-02        -0.30622E-01         0.00000E+00
    0.96234E-02        -0.31350E-01         0.00000E+00
    0.95430E-02        -0.32091E-01         0.00000E+00
    0.94367E-02        -0.32842E-01         0.00000E+00
    0.93016E-02        -0.33605E-01         0.00000E+00
    0.91347E-02        -0.34379E-01         0.00000E+00
    0.89325E-02        -0.35163E-01         0.00000E+00
    0.86914E-02        -0.35956E-01         0.00000E+00
    0.84073E-02        -0.36757E-01         0.00000E+00
    0.80761E-02        -0.37562E-01         0.00000E+00
    0.76929E-02        -0.38368E-01         0.00000E+00
    0.72532E-02        -0.39171E-01         0.00000E+00
    0.67518E-02        -0.39964E-01         0.00000E+00
    0.61839E-02        -0.40738E-01         0.00000E+00
    0.55444E-02        -0.41482E-01         0.00000E+00
    0.48290E-02        -0.42180E-01         0.00000E+00
    0.40339E-02        -0.42814E-01         0.00000E+00
    0.31565E-02        -0.43359E-01         0.00000E+00
    0.21945E-02        -0.43786E-01         0.00000E+00
    0.11447E-02        -0.44061E-01         0.00000E+00
    0.00000E+00        -0.44157E-01         0.00000E+00
    0.00000E+00        -0.13186E-03         0.00000E+00
    0.35895E-03        -0.15936E-03         0.00000E+00
    0.69188E-03        -0.23837E-03         0.00000E+00
    0.10010E-02        -0.36038E-03         0.00000E+00
    0.12874E-02        -0.51583E-03         0.00000E+00
    0.15519E-02        -0.69639E-03         0.00000E+00
    0.17957E-02        -0.89545E-03         0.00000E+00
    0.20200E-02        -0.11079E-02         0.00000E+00
    0.22265E-02        -0.13300E-02         0.00000E+00
    0.24168E-02        -0.15588E-02         0.00000E+00
    0.25925E-02        -0.17922E-02         0.00000E+00
    0.27554E-02        -0.20288E-02         0.00000E+00
    0.29069E-02        -0.22676E-02         0.00000E+00
    0.30485E-02        -0.25080E-02         0.00000E+00
    0.31816E-02        -0.27495E-02         0.00000E+00
    0.33073E-02        -0.29922E-02         0.00000E+00
    0.34268E-02        -0.32360E-02         0.00000E+00
    0.35411E-02        -0.34810E-02         0.00000E+00
    0.36510E-02        -0.37276E-02         0.00000E+00
    0.37575E-02        -0.39758E-02         0.00000E+00
    0.38611E-02        -0.42261E-02         0.00000E+00
    0.39627E-02        -0.44787E-02         0.00000E+00
    0.40626E-02        -0.47339E-02         0.00000E+00
    0.41615E-02        -0.49921E-02         0.00000E+00
    0.42597E-02        -0.52536E-02         0.00000E+00
    0.43577E-02        -0.55187E-02         0.00000E+00
    0.44557E-02        -0.57876E-02         0.00000E+00
    0.45541E-02        -0.60608E-02         0.00000E+00
    0.46532E-02        -0.63383E-02         0.00000E+00
    0.47531E-02        -0.66206E-02         0.00000E+00
    0.48540E-02        -0.69079E-02         0.00000E+00
    0.49561E-02        -0.72004E-02         0.00000E+00
    0.50596E-02        -0.74983E-02         0.00000E+00
    0.51644E-02        -0.78019E-02         0.00000E+00
    0.52708E-02        -0.81115E-02         0.00000E+00
    0.53787E-02        -0.84272E-02         0.00000E+00
    0.54883E-02        -0.87492E-02         0.00000E+00
    0.55996E-02        -0.90778E-02         0.00000E+00
    0.57125E-02        -0.94131E-02         0.00000E+00
    0.58271E-02        -0.97553E-02         0.00000E+00
    0.59433E-02        -0.10105E-01         0.00000E+00
    0.60612E-02        -0.10461E-01         0.00000E+00
    0.61807E-02        -0.10826E-01         0.00000E+00
    0.63018E-02        -0.11198E-01         0.00000E+00
    0.64244E-02        -0.11577E-01         0.00000E+00
    0.65483E-02        -0.11965E-01         0.00000E+00
    0.66736E-02        -0.12361E-01         0.00000E+00
    0.68001E-02        -0.12765E-01         0.00000E+00
    0.69278E-02        -0.13178E-01         0.00000E+00
    0.70564E-02        -0.13599E-01         0.00000E+00
    0.71859E-02        -0.14029E-01         0.00000E+00
    0.73161E-02        -0.14468E-01         0.00000E+00
    0.74469E-02        -0.14916E-01         0.00000E+00
    0.75780E-02        -0.15373E-01         0.00000E+00
    0.77093E-02        -0.15839E-01         0.00000E+00
    0.78406E-02        -0.16314E-01         0.00000E+00
    0.79716E-02        -0.16800E-01         0.00000E+00
    0.81021E-02        -0.17294E-01         0.00000E+00
    0.82319E-02        -0.17799E-01         0.00000E+00
    0.83605E-02        -0.18313E-01         0.00000E+00
    0.84879E-02        -0.18836E-01         0.00000E+00
    0.86135E-02        -0.19370E-01         0.00000E+00
    0.87370E-02        -0.19914E-01         0.00000E+00
    0.88581E-02        -0.20468E-01         0.00000E+00
    0.89762E-02        -0.21032E-01         0.00000E+00
    0.90910E-02        -0.21606E-01         0.00000E+00
    0.92019E-02        -0.22190E-01         0.00000E+00
    0.93084E-02        -0.22785E-01         0.00000E+00
    0.94099E-02        -0.23390E-01         0.00000E+00
    0.95056E-02        -0.24006E-01         0.00000E+00
    0.95949E-02        -0.24632E-01         0.00000E+00
    0.96770E-02        -0.25269E-01         0.00000E+00
    0.97510E-02        -0.25916E-01         0.00000E+00
    0.98160E-02        -0.26574E-01         0.00000E+00
    0.98708E-02        -0.27243E-01         0.00000E+00
    0.99144E-02        -0.27923E-01         0.00000E+00
    0.99453E-02        -0.28614E-01         0.00000E+00
    0.99623E-02        -0.29316E-01         0.00000E+00
    0.99637E-02        -0.30030E-01         0.00000E+00
    0.99477E-02        -0.30755E-01         0.00000E+00
    0.99125E-02        -0.31492E-01         0.00000E+00
    0.98558E-02        -0.32240E-01         0.00000E+00
    0.97753E-02        -0.33001E-01         0.00000E+00
    0.96683E-02        -0.33773E-01         0.00000E+00
    0.95320E-02        -0.34556E-01         0.00000E+00
    0.93632E-02        -0.35351E-01         0.00000E+00
    0.91583E-02        -0.36156E-01         0.00000E+00
    0.89135E-02        -0.36970E-01         0.00000E+00
    0.86246E-02        -0.37791E-01         0.00000E+00
    0.82872E-02        -0.38618E-01         0.00000E+00
    0.78964E-02        -0.39446E-01         0.00000E+00
    0.74472E-02        -0.40270E-01         0.00000E+00
    0.69343E-02        -0.41084E-01         0.00000E+00
    0.63524E-02        -0.41880E-01         0.00000E+00
    0.56965E-02        -0.42644E-01         0.00000E+00
    0.49617E-02        -0.43363E-01         0.00000E+00
    0.41444E-02        -0.44017E-01         0.00000E+00
    0.32418E-02        -0.44581E-01         0.00000E+00
    0.22525E-02        -0.45024E-01         0.00000E+00
    0.11739E-02        -0.45312E-01         0.00000E+00
    0.00000E+00        -0.45412E-01         0.00000E+00
    0.00000E+00        -0.13863E-03         0.00000E+00
    0.36777E-03        -0.16744E-03         0.00000E+00
    0.70937E-03        -0.24987E-03         0.00000E+00
    0.10267E-02        -0.37658E-03         0.00000E+00
    0.13207E-02        -0.53734E-03         0.00000E+00
    0.15921E-02        -0.72351E-03         0.00000E+00
    0.18418E-02        -0.92837E-03         0.00000E+00
    0.20713E-02        -0.11468E-02         0.00000E+00
    0.22823E-02        -0.13749E-02         0.00000E+00
    0.24766E-02        -0.16097E-02         0.00000E+00
    0.26559E-02        -0.18493E-02         0.00000E+00
    0.28218E-02        -0.20921E-02         0.00000E+00
    0.29761E-02        -0.23371E-02         0.00000E+00
    0.31202E-02        -0.25837E-02         0.00000E+00
    0.32555E-02        -0.28316E-02         0.00000E+00
    0.33833E-02        -0.30807E-02         0.00000E+00
    0.35048E-02        -0.33310E-02         0.00000E+00
    0.36210E-02        -0.35825E-02         0.00000E+00
    0.37328E-02        -0.38356E-02         0.00000E+00
    0.38410E-02        -0.40906E-02         0.00000E+00
    0.39464E-02        -0.43476E-02         0.00000E+00
    0.40497E-02        -0.46070E-02         0.00000E+00
    0.41514E-02        -0.48692E-02         0.00000E+00
    0.42521E-02        -0.51345E-02         0.00000E+00
    0.43521E-02        -0.54032E-02         0.00000E+00
    0.44519E-02        -0.56755E-02         0.00000E+00
    0.45518E-02        -0.59519E-02         0.00000E+00
    0.46521E-02        -0.62326E-02         0.00000E+00
    0.47531E-02        -0.65179E-02         0.00000E+00
    0.48550E-02        -0.68080E-02         0.00000E+00
    0.49579E-02        -0.71032E-02         0.00000E+00
    0.50621E-02        -0.74038E-02         0.00000E+00
    0.51677E-02        -0.77101E-02         0.00000E+00
    0.52747E-02        -0.80221E-02         0.00000E+00
    0.53833E-02        -0.83403E-02         0.00000E+00
    0.54936E-02        -0.86648E-02         0.00000E+00
    0.56055E-02        -0.89958E-02         0.00000E+00
    0.57191E-02        -0.93335E-02         0.00000E+00
    0.58344E-02        -0.96782E-02         0.00000E+00
    0.59515E-02        -0.10030E-01         0.00000E+00
    0.60702E-02        -0.10389E-01         0.00000E+00
    0.61907E-02        -0.10756E-01         0.00000E+00
    0.63128E-02        -0.11130E-01         0.00000E+00
    0.64365E-02        -0.11512E-01         0.00000E+00
    0.65617E-02        -0.11903E-01         0.00000E+00
    0.66884E-02        -0.12301E-01         0.00000E+00
    0.68165E-02        -0.12708E-01         0.00000E+00
    0.69458E-02        -0.13123E-01         0.00000E+00
    0.70763E-02        -0.13548E-01         0.00000E+00
    0.72078E-02        -0.13981E-01         0.00000E+00
    0.73402E-02        -0.14422E-01         0.00000E+00
    0.74733E-02        -0.14874E-01         0.00000E+00
    0.76070E-02        -0.15334E-01         0.00000E+00
    0.77411E-02        -0.15804E-01         0.00000E+00
    0.78754E-02        -0.16283E-01         0.00000E+00
    0.80096E-02        -0.16772E-01         0.00000E+00
    0.81437E-02        -0.17270E-01         0.00000E+00
    0.82772E-02        -0.17778E-01         0.00000E+00
    0.84099E-02        -0.18297E-01         0.00000E+00
    0.85416E-02        -0.18825E-01         0.00000E+00
    0.86719E-02        -0.19363E-01         0.00000E+00
    0.88005E-02        -0.19912E-01         0.00000E+00
    0.89270E-02        -0.20471E-01         0.00000E+00
    0.90510E-02        -0.21040E-01         0.00000E+00
    0.91721E-02        -0.21619E-01         0.00000E+00
    0.92897E-02        -0.22209E-01         0.00000E+00
    0.94035E-02        -0.22810E-01         0.00000E+00
    0.95127E-02        -0.23421E-01         0.00000E+00
    0.96169E-02        -0.24042E-01         0.00000E+00
    0.97153E-02        -0.24675E-01         0.00000E+00
    0.98071E-02        -0.25318E-01         0.00000E+00
    0.98917E-02        -0.25972E-01         0.00000E+00
    0.99681E-02        -0.26637E-01         0.00000E+00
    0.10035E-01        -0.27313E-01         0.00000E+00
    0.10092E-01        -0.28000E-01         0.00000E+00
    0.10138E-01        -0.28698E-01         0.00000E+00
    0.10170E-01        -0.29408E-01         0.00000E+00
    0.10189E-01        -0.30129E-01         0.00000E+00
    0.10192E-01        -0.30861E-01         0.00000E+00
    0.10177E-01        -0.31606E-01         0.00000E+00
    0.10142E-01        -0.32362E-01         0.00000E+00
    0.10086E-01        -0.33130E-01         0.00000E+00
    0.10006E-01        -0.33911E-01         0.00000E+00
    0.98984E-02        -0.34703E-01         0.00000E+00
    0.97611E-02        -0.35507E-01         0.00000E+00
    0.95906E-02        -0.36322E-01         0.00000E+00
    0.93833E-02        -0.37147E-01         0.00000E+00
    0.91351E-02        -0.37982E-01         0.00000E+00
    0.88417E-02        -0.38825E-01         0.00000E+00
    0.84985E-02        -0.39673E-01         0.00000E+00
    0.81004E-02        -0.40522E-01         0.00000E+00
    0.76421E-02        -0.41368E-01         0.00000E+00
    0.71181E-02        -0.42204E-01         0.00000E+00
    0.65227E-02        -0.43020E-01         0.00000E+00
    0.58506E-02        -0.43806E-01         0.00000E+00
    0.50968E-02        -0.44546E-01         0.00000E+00
    0.42572E-02        -0.45220E-01         0.00000E+00
    0.33293E-02        -0.45804E-01         0.00000E+00
    0.23120E-02        -0.46264E-01         0.00000E+00
    0.12039E-02        -0.46563E-01         0.00000E+00
    0.00000E+00        -0.46668E-01         0.00000E+00
    0.00000E+00        -0.14512E-03         0.00000E+00
    0.37681E-03        -0.17531E-03         0.00000E+00
    0.72729E-03        -0.26135E-03         0.00000E+00
    0.10531E-02        -0.39291E-03         0.00000E+00
    0.13547E-02        -0.55907E-03         0.00000E+00
    0.16327E-02        -0.75091E-03         0.00000E+00
    0.18883E-02        -0.96159E-03         0.00000E+00
    0.21229E-02        -0.11859E-02         0.00000E+00
    0.23384E-02        -0.14200E-02         0.00000E+00
    0.25365E-02        -0.16609E-02         0.00000E+00
    0.27191E-02        -0.19066E-02         0.00000E+00
    0.28880E-02        -0.21556E-02         0.00000E+00
    0.30449E-02        -0.24068E-02         0.00000E+00
    0.31913E-02        -0.26597E-02         0.00000E+00
    0.33288E-02        -0.29139E-02         0.00000E+00
    0.34586E-02        -0.31694E-02         0.00000E+00
    0.35820E-02        -0.34261E-02         0.00000E+00
    0.37000E-02        -0.36842E-02         0.00000E+00
    0.38135E-02        -0.39439E-02         0.00000E+00
    0.39234E-02        -0.42054E-02         0.00000E+00
    0.40305E-02        -0.44692E-02         0.00000E+00
    0.41355E-02        -0.47355E-02         0.00000E+00
    0.42389E-02        -0.50047E-02         0.00000E+00
    0.43413E-02        -0.52770E-02         0.00000E+00
    0.44430E-02        -0.55529E-02         0.00000E+00
    0.45446E-02        -0.58325E-02         0.00000E+00
    0.46463E-02        -0.61163E-02         0.00000E+00
    0.47485E-02        -0.64045E-02         0.00000E+00
    0.48514E-02        -0.66975E-02         0.00000E+00
    0.49552E-02        -0.69954E-02         0.00000E+00
    0.50602E-02        -0.72986E-02         0.00000E+00
    0.51664E-02        -0.76074E-02         0.00000E+00
    0.52740E-02        -0.79219E-02         0.00000E+00
    0.53832E-02        -0.82424E-02         0.00000E+00
    0.54940E-02        -0.85692E-02         0.00000E+00
    0.56065E-02        -0.89025E-02         0.00000E+00
    0.57206E-02        -0.92425E-02         0.00000E+00
    0.58366E-02        -0.95894E-02         0.00000E+00
    0.59543E-02        -0.99434E-02         0.00000E+00
    0.60738E-02        -0.10305E-01         0.00000E+00
    0.61950E-02        -0.10674E-01         0.00000E+00
    0.63180E-02        -0.11050E-01         0.00000E+00
    0.64427E-02        -0.11435E-01         0.00000E+00
    0.65690E-02        -0.11827E-01         0.00000E+00
    0.66969E-02        -0.12228E-01         0.00000E+00
    0.68262E-02        -0.12637E-01         0.00000E+00
    0.69570E-02        -0.13055E-01         0.00000E+00
    0.70891E-02        -0.13482E-01         0.00000E+00
    0.72224E-02        -0.13918E-01         0.00000E+00
    0.73567E-02        -0.14362E-01         0.00000E+00
    0.74920E-02        -0.14816E-01         0.00000E+00
    0.76280E-02        -0.15279E-01         0.00000E+00
    0.77646E-02        -0.15752E-01         0.00000E+00
    0.79016E-02        -0.16235E-01         0.00000E+00
    0.80388E-02        -0.16727E-01         0.00000E+00
    0.81761E-02        -0.17229E-01         0.00000E+00
    0.83131E-02        -0.17741E-01         0.00000E+00
    0.84495E-02        -0.18263E-01         0.00000E+00
    0.85853E-02        -0.18795E-01         0.00000E+00
    0.87199E-02        -0.19337E-01         0.00000E+00
    0.88532E-02        -0.19890E-01         0.00000E+00
    0.89848E-02        -0.20453E-01         0.00000E+00
    0.91142E-02        -0.21027E-01         0.00000E+00
    0.92411E-02        -0.21611E-01         0.00000E+00
    0.93651E-02        -0.22206E-01         0.00000E+00
    0.94856E-02        -0.22812E-01         0.00000E+00
    0.96022E-02        -0.23429E-01         0.00000E+00
    0.97142E-02        -0.24056E-01         0.00000E+00
    0.98210E-02        -0.24694E-01         0.00000E+00
    0.99221E-02        -0.25343E-01         0.00000E+00
    0.10017E-01        -0.26004E-01         0.00000E+00
    0.10104E-01        -0.26675E-01         0.00000E+00
    0.10182E-01        -0.27357E-01         0.00000E+00
    0.10252E-01        -0.28051E-01         0.00000E+00
    0.10311E-01        -0.28756E-01         0.00000E+00
    0.10358E-01        -0.29473E-01         0.00000E+00
    0.10393E-01        -0.30201E-01         0.00000E+00
    0.10413E-01        -0.30941E-01         0.00000E+00
    0.10418E-01        -0.31693E-01         0.00000E+00
    0.10404E-01        -0.32456E-01         0.00000E+00
    0.10370E-01        -0.33232E-01         0.00000E+00
    0.10315E-01        -0.34020E-01         0.00000E+00
    0.10235E-01        -0.34820E-01         0.00000E+00
    0.10127E-01        -0.35633E-01         0.00000E+00
    0.99889E-02        -0.36457E-01         0.00000E+00
    0.98170E-02        -0.37292E-01         0.00000E+00
    0.96075E-02        -0.38139E-01         0.00000E+00
    0.93563E-02        -0.38995E-01         0.00000E+00
    0.90588E-02        -0.39858E-01         0.00000E+00
    0.87102E-02        -0.40727E-01         0.00000E+00
    0.83052E-02        -0.41598E-01         0.00000E+00
    0.78383E-02        -0.42465E-01         0.00000E+00
    0.73035E-02        -0.43322E-01         0.00000E+00
    0.66950E-02        -0.44160E-01         0.00000E+00
    0.60071E-02        -0.44967E-01         0.00000E+00
    0.52343E-02        -0.45728E-01         0.00000E+00
    0.43725E-02        -0.46423E-01         0.00000E+00
    0.34191E-02        -0.47025E-01         0.00000E+00
    0.23733E-02        -0.47503E-01         0.00000E+00
    0.12349E-02        -0.47815E-01         0.00000E+00
    0.00000E+00        -0.47925E-01         0.00000E+00
    0.00000E+00        -0.15128E-03         0.00000E+00
    0.38614E-03        -0.18295E-03         0.00000E+00
    0.74573E-03        -0.27281E-03         0.00000E+00
    0.10800E-02        -0.40936E-03         0.00000E+00
    0.13893E-02        -0.58101E-03         0.00000E+00
    0.16740E-02        -0.77856E-03         0.00000E+00
    0.19353E-02        -0.99508E-03         0.00000E+00
    0.21749E-02        -0.12253E-02         0.00000E+00
    0.23946E-02        -0.14654E-02         0.00000E+00
    0.25964E-02        -0.17124E-02         0.00000E+00
    0.27822E-02        -0.19642E-02         0.00000E+00
    0.29539E-02        -0.22193E-02         0.00000E+00
    0.31133E-02        -0.24767E-02         0.00000E+00
    0.32620E-02        -0.27359E-02         0.00000E+00
    0.34015E-02        -0.29964E-02         0.00000E+00
    0.35332E-02        -0.32582E-02         0.00000E+00
    0.36583E-02        -0.35213E-02         0.00000E+00
    0.37780E-02        -0.37859E-02         0.00000E+00
    0.38932E-02        -0.40522E-02         0.00000E+00
    0.40048E-02        -0.43205E-02         0.00000E+00
    0.41135E-02        -0.45910E-02         0.00000E+00
    0.42201E-02        -0.48641E-02         0.00000E+00
    0.43251E-02        -0.51402E-02         0.00000E+00
    0.44291E-02        -0.54196E-02         0.00000E+00
    0.45326E-02        -0.57026E-02         0.00000E+00
    0.46359E-02        -0.59896E-02         0.00000E+00
    0.47394E-02        -0.62808E-02         0.00000E+00
    0.48433E-02        -0.65766E-02         0.00000E+00
    0.49481E-02        -0.68772E-02         0.00000E+00
    0.50538E-02        -0.71830E-02         0.00000E+00
    0.51607E-02        -0.74942E-02         0.00000E+00
    0.52689E-02        -0.78110E-02         0.00000E+00
    0.53786E-02        -0.81338E-02         0.00000E+00
    0.54899E-02        -0.84628E-02         0.00000E+00
    0.56028E-02        -0.87983E-02         0.00000E+00
    0.57174E-02        -0.91403E-02         0.00000E+00
    0.58339E-02        -0.94893E-02         0.00000E+00
    0.59521E-02        -0.98453E-02         0.00000E+00
    0.60722E-02        -0.10209E-01         0.00000E+00
    0.61940E-02        -0.10580E-01         0.00000E+00
    0.63177E-02        -0.10958E-01         0.00000E+00
    0.64432E-02        -0.11345E-01         0.00000E+00
    0.65704E-02        -0.11739E-01         0.00000E+00
    0.66993E-02        -0.12142E-01         0.00000E+00
    0.68297E-02        -0.12554E-01         0.00000E+00
    0.69618E-02        -0.12974E-01         0.00000E+00
    0.70952E-02        -0.13403E-01         0.00000E+00
    0.72300E-02        -0.13841E-01         0.00000E+00
    0.73661E-02        -0.14288E-01         0.00000E+00
    0.75032E-02        -0.14744E-01         0.00000E+00
    0.76413E-02        -0.15210E-01         0.00000E+00
    0.77801E-02        -0.15686E-01         0.00000E+00
    0.79196E-02        -0.16171E-01         0.00000E+00
    0.80595E-02        -0.16666E-01         0.00000E+00
    0.81997E-02        -0.17171E-01         0.00000E+00
    0.83398E-02        -0.17686E-01         0.00000E+00
    0.84798E-02        -0.18211E-01         0.00000E+00
    0.86192E-02        -0.18747E-01         0.00000E+00
    0.87579E-02        -0.19293E-01         0.00000E+00
    0.88955E-02        -0.19850E-01         0.00000E+00
    0.90317E-02        -0.20417E-01         0.00000E+00
    0.91662E-02        -0.20995E-01         0.00000E+00
    0.92986E-02        -0.21584E-01         0.00000E+00
    0.94284E-02        -0.22183E-01         0.00000E+00
    0.95552E-02        -0.22794E-01         0.00000E+00
    0.96786E-02        -0.23415E-01         0.00000E+00
    0.97980E-02        -0.24048E-01         0.00000E+00
    0.99128E-02        -0.24691E-01         0.00000E+00
    0.10022E-01        -0.25346E-01         0.00000E+00
    0.10126E-01        -0.26012E-01         0.00000E+00
    0.10223E-01        -0.26689E-01         0.00000E+00
    0.10313E-01        -0.27378E-01         0.00000E+00
    0.10394E-01        -0.28078E-01         0.00000E+00
    0.10466E-01        -0.28790E-01         0.00000E+00
    0.10527E-01        -0.29513E-01         0.00000E+00
    0.10577E-01        -0.30248E-01         0.00000E+00
    0.10613E-01        -0.30994E-01         0.00000E+00
    0.10635E-01        -0.31753E-01         0.00000E+00
    0.10641E-01        -0.32524E-01         0.00000E+00
    0.10629E-01        -0.33307E-01         0.00000E+00
    0.10596E-01        -0.34102E-01         0.00000E+00
    0.10541E-01        -0.34910E-01         0.00000E+00
    0.10462E-01        -0.35730E-01         0.00000E+00
    0.10354E-01        -0.36562E-01         0.00000E+00
    0.10215E-01        -0.37406E-01         0.00000E+00
    0.10042E-01        -0.38263E-01         0.00000E+00
    0.98311E-02        -0.39130E-01         0.00000E+00
    0.95772E-02        -0.40006E-01         0.00000E+00
    0.92760E-02        -0.40891E-01         0.00000E+00
    0.89224E-02        -0.41781E-01         0.00000E+00
    0.85109E-02        -0.42673E-01         0.00000E+00
    0.80357E-02        -0.43561E-01         0.00000E+00
    0.74907E-02        -0.44440E-01         0.00000E+00
    0.68695E-02        -0.45299E-01         0.00000E+00
    0.61661E-02        -0.46127E-01         0.00000E+00
    0.53747E-02        -0.46909E-01         0.00000E+00
    0.44908E-02        -0.47624E-01         0.00000E+00
    0.35116E-02        -0.48247E-01         0.00000E+00
    0.24367E-02        -0.48743E-01         0.00000E+00
    0.12670E-02        -0.49069E-01         0.00000E+00
    0.00000E+00        -0.49184E-01         0.00000E+00
    0.00000E+00        -0.15707E-03         0.00000E+00
    0.39579E-03        -0.19035E-03         0.00000E+00
    0.76476E-03        -0.28424E-03         0.00000E+00
    0.11077E-02        -0.42594E-03         0.00000E+00
    0.14246E-02        -0.60316E-03         0.00000E+00
    0.17159E-02        -0.80646E-03         0.00000E+00
    0.19829E-02        -0.10288E-02         0.00000E+00
    0.22273E-02        -0.12650E-02         0.00000E+00
    0.24511E-02        -0.15111E-02         0.00000E+00
    0.26564E-02        -0.17641E-02         0.00000E+00
    0.28453E-02        -0.20220E-02         0.00000E+00
    0.30196E-02        -0.22832E-02         0.00000E+00
    0.31814E-02        -0.25468E-02         0.00000E+00
    0.33321E-02        -0.28122E-02         0.00000E+00
    0.34736E-02        -0.30790E-02         0.00000E+00
    0.36071E-02        -0.33472E-02         0.00000E+00
    0.37339E-02        -0.36167E-02         0.00000E+00
    0.38551E-02        -0.38878E-02         0.00000E+00
    0.39719E-02        -0.41607E-02         0.00000E+00
    0.40850E-02        -0.44356E-02         0.00000E+00
    0.41953E-02        -0.47129E-02         0.00000E+00
    0.43034E-02        -0.49928E-02         0.00000E+00
    0.44100E-02        -0.52759E-02         0.00000E+00
    0.45156E-02        -0.55623E-02         0.00000E+00
    0.46207E-02        -0.58525E-02         0.00000E+00
    0.47256E-02        -0.61467E-02         0.00000E+00
    0.48308E-02        -0.64454E-02         0.00000E+00
    0.49366E-02        -0.67487E-02         0.00000E+00
    0.50431E-02        -0.70570E-02         0.00000E+00
    0.51507E-02        -0.73706E-02         0.00000E+00
    0.52595E-02        -0.76898E-02         0.00000E+00
    0.53697E-02        -0.80148E-02         0.00000E+00
    0.54814E-02        -0.83459E-02         0.00000E+00
    0.55947E-02        -0.86833E-02         0.00000E+00
    0.57097E-02        -0.90274E-02         0.00000E+00
    0.58265E-02        -0.93782E-02         0.00000E+00
    0.59451E-02        -0.97362E-02         0.00000E+00
    0.60656E-02        -0.10101E-01         0.00000E+00
    0.61880E-02        -0.10474E-01         0.00000E+00
    0.63122E-02        -0.10855E-01         0.00000E+00
    0.64383E-02        -0.11243E-01         0.00000E+00
    0.65662E-02        -0.11639E-01         0.00000E+00
    0.66959E-02        -0.12044E-01         0.00000E+00
    0.68273E-02        -0.12458E-01         0.00000E+00
    0.69604E-02        -0.12880E-01         0.00000E+00
    0.70950E-02        -0.13310E-01         0.00000E+00
    0.72311E-02        -0.13750E-01         0.00000E+00
    0.73686E-02        -0.14200E-01         0.00000E+00
    0.75074E-02        -0.14658E-01         0.00000E+00
    0.76472E-02        -0.15126E-01         0.00000E+00
    0.77881E-02        -0.15604E-01         0.00000E+00
    0.79298E-02        -0.16092E-01         0.00000E+00
    0.80721E-02        -0.16589E-01         0.00000E+00
    0.82149E-02        -0.17097E-01         0.00000E+00
    0.83579E-02        -0.17615E-01         0.00000E+00
    0.85010E-02        -0.18143E-01         0.00000E+00
    0.86438E-02        -0.18682E-01         0.00000E+00
    0.87862E-02        -0.19232E-01         0.00000E+00
    0.89278E-02        -0.19792E-01         0.00000E+00
    0.90683E-02        -0.20362E-01         0.00000E+00
    0.92075E-02        -0.20944E-01         0.00000E+00
    0.93449E-02        -0.21537E-01         0.00000E+00
    0.94802E-02        -0.22141E-01         0.00000E+00
    0.96129E-02        -0.22755E-01         0.00000E+00
    0.97426E-02        -0.23381E-01         0.00000E+00
    0.98688E-02        -0.24019E-01         0.00000E+00
    0.99910E-02        -0.24667E-01         0.00000E+00
    0.10109E-01        -0.25327E-01         0.00000E+00
    0.10221E-01        -0.25998E-01         0.00000E+00
    0.10327E-01        -0.26681E-01         0.00000E+00
    0.10427E-01        -0.27375E-01         0.00000E+00
    0.10519E-01        -0.28081E-01         0.00000E+00
    0.10603E-01        -0.28799E-01         0.00000E+00
    0.10677E-01        -0.29528E-01         0.00000E+00
    0.10740E-01        -0.30269E-01         0.00000E+00
    0.10792E-01        -0.31023E-01         0.00000E+00
    0.10831E-01        -0.31788E-01         0.00000E+00
    0.10855E-01        -0.32565E-01         0.00000E+00
    0.10862E-01        -0.33355E-01         0.00000E+00
    0.10851E-01        -0.34157E-01         0.00000E+00
    0.10820E-01        -0.34972E-01         0.00000E+00
    0.10766E-01        -0.35799E-01         0.00000E+00
    0.10687E-01        -0.36639E-01         0.00000E+00
    0.10580E-01        -0.37491E-01         0.00000E+00
    0.10441E-01        -0.38356E-01         0.00000E+00
    0.10267E-01        -0.39232E-01         0.00000E+00
    0.10054E-01        -0.40120E-01         0.00000E+00
    0.97978E-02        -0.41018E-01         0.00000E+00
    0.94933E-02        -0.41923E-01         0.00000E+00
    0.91351E-02        -0.42834E-01         0.00000E+00
    0.87176E-02        -0.43747E-01         0.00000E+00
    0.82346E-02        -0.44657E-01         0.00000E+00
    0.76798E-02        -0.45557E-01         0.00000E+00
    0.70464E-02        -0.46437E-01         0.00000E+00
    0.63279E-02        -0.47287E-01         0.00000E+00
    0.55183E-02        -0.48090E-01         0.00000E+00
    0.46124E-02        -0.48826E-01         0.00000E+00
    0.36072E-02        -0.49468E-01         0.00000E+00
    0.25026E-02        -0.49983E-01         0.00000E+00
    0.13005E-02        -0.50323E-01         0.00000E+00
    0.00000E+00        -0.50444E-01         0.00000E+00
    0.00000E+00        -0.16246E-03         0.00000E+00
    0.40584E-03        -0.19748E-03         0.00000E+00
    0.78449E-03        -0.29564E-03         0.00000E+00
    0.11363E-02        -0.44265E-03         0.00000E+00
    0.14608E-02        -0.62551E-03         0.00000E+00
    0.17586E-02        -0.83459E-03         0.00000E+00
    0.20311E-02        -0.10628E-02         0.00000E+00
    0.22802E-02        -0.13049E-02         0.00000E+00
    0.25079E-02        -0.15570E-02         0.00000E+00
    0.27166E-02        -0.18160E-02         0.00000E+00
    0.29083E-02        -0.20799E-02         0.00000E+00
    0.30852E-02        -0.23473E-02         0.00000E+00
    0.32491E-02        -0.26171E-02         0.00000E+00
    0.34018E-02        -0.28887E-02         0.00000E+00
    0.35450E-02        -0.31618E-02         0.00000E+00
    0.36802E-02        -0.34363E-02         0.00000E+00
    0.38085E-02        -0.37123E-02         0.00000E+00
    0.39313E-02        -0.39898E-02         0.00000E+00
    0.40495E-02        -0.42693E-02         0.00000E+00
    0.41641E-02        -0.45508E-02         0.00000E+00
    0.42758E-02        -0.48348E-02         0.00000E+00
    0.43855E-02        -0.51216E-02         0.00000E+00
    0.44936E-02        -0.54116E-02         0.00000E+00
    0.46007E-02        -0.57051E-02         0.00000E+00
    0.47074E-02        -0.60024E-02         0.00000E+00
    0.48139E-02        -0.63040E-02         0.00000E+00
    0.49208E-02        -0.66100E-02         0.00000E+00
    0.50282E-02        -0.69209E-02         0.00000E+00
    0.51365E-02        -0.72369E-02         0.00000E+00
    0.52459E-02        -0.75583E-02         0.00000E+00
    0.53566E-02        -0.78854E-02         0.00000E+00
    0.54687E-02        -0.82186E-02         0.00000E+00
    0.55823E-02        -0.85580E-02         0.00000E+00
    0.56976E-02        -0.89039E-02         0.00000E+00
    0.58147E-02        -0.92565E-02         0.00000E+00
    0.59336E-02        -0.96162E-02         0.00000E+00
    0.60544E-02        -0.99831E-02         0.00000E+00
    0.61771E-02        -0.10357E-01         0.00000E+00
    0.63018E-02        -0.10740E-01         0.00000E+00
    0.64283E-02        -0.11130E-01         0.00000E+00
    0.65567E-02        -0.11528E-01         0.00000E+00
    0.66871E-02        -0.11934E-01         0.00000E+00
    0.68192E-02        -0.12349E-01         0.00000E+00
    0.69531E-02        -0.12773E-01         0.00000E+00
    0.70887E-02        -0.13205E-01         0.00000E+00
    0.72259E-02        -0.13647E-01         0.00000E+00
    0.73647E-02        -0.14098E-01         0.00000E+00
    0.75048E-02        -0.14558E-01         0.00000E+00
    0.76463E-02        -0.15028E-01         0.00000E+00
    0.77889E-02        -0.15508E-01         0.00000E+00
    0.79325E-02        -0.15998E-01         0.00000E+00
    0.80769E-02        -0.16498E-01         0.00000E+00
    0.82221E-02        -0.17008E-01         0.00000E+00
    0.83677E-02        -0.17528E-01         0.00000E+00
    0.85135E-02        -0.18059E-01         0.00000E+00
    0.86595E-02        -0.18601E-01         0.00000E+00
    0.88052E-02        -0.19153E-01         0.00000E+00
    0.89504E-02        -0.19716E-01         0.00000E+00
    0.90950E-02        -0.20290E-01         0.00000E+00
    0.92384E-02        -0.20875E-01         0.00000E+00
    0.93805E-02        -0.21471E-01         0.00000E+00
    0.95208E-02        -0.22079E-01         0.00000E+00
    0.96589E-02        -0.22697E-01         0.00000E+00
    0.97945E-02        -0.23327E-01         0.00000E+00
    0.99271E-02        -0.23969E-01         0.00000E+00
    0.10056E-01        -0.24622E-01         0.00000E+00
    0.10181E-01        -0.25287E-01         0.00000E+00
    0.10301E-01        -0.25963E-01         0.00000E+00
    0.10416E-01        -0.26650E-01         0.00000E+00
    0.10525E-01        -0.27350E-01         0.00000E+00
    0.10628E-01        -0.28061E-01         0.00000E+00
    0.10722E-01        -0.28785E-01         0.00000E+00
    0.10809E-01        -0.29520E-01         0.00000E+00
    0.10885E-01        -0.30267E-01         0.00000E+00
    0.10951E-01        -0.31026E-01         0.00000E+00
    0.11005E-01        -0.31797E-01         0.00000E+00
    0.11046E-01        -0.32581E-01         0.00000E+00
    0.11071E-01        -0.33377E-01         0.00000E+00
    0.11081E-01        -0.34186E-01         0.00000E+00
    0.11072E-01        -0.35007E-01         0.00000E+00
    0.11042E-01        -0.35841E-01         0.00000E+00
    0.10989E-01        -0.36688E-01         0.00000E+00
    0.10911E-01        -0.37548E-01         0.00000E+00
    0.10804E-01        -0.38420E-01         0.00000E+00
    0.10665E-01        -0.39305E-01         0.00000E+00
    0.10491E-01        -0.40202E-01         0.00000E+00
    0.10277E-01        -0.41110E-01         0.00000E+00
    0.10018E-01        -0.42028E-01         0.00000E+00
    0.97108E-02        -0.42955E-01         0.00000E+00
    0.93484E-02        -0.43887E-01         0.00000E+00
    0.89254E-02        -0.44821E-01         0.00000E+00
    0.84352E-02        -0.45752E-01         0.00000E+00
    0.78710E-02        -0.46673E-01         0.00000E+00
    0.72259E-02        -0.47575E-01         0.00000E+00
    0.64928E-02        -0.48446E-01         0.00000E+00
    0.56652E-02        -0.49270E-01         0.00000E+00
    0.47376E-02        -0.50026E-01         0.00000E+00
    0.37063E-02        -0.50689E-01         0.00000E+00
    0.25712E-02        -0.51223E-01         0.00000E+00
    0.13355E-02        -0.51579E-01         0.00000E+00
    0.00000E+00        -0.51706E-01         0.00000E+00
    0.00000E+00        -0.16741E-03         0.00000E+00
    0.41635E-03        -0.20435E-03         0.00000E+00
    0.80504E-03        -0.30703E-03         0.00000E+00
    0.11658E-02        -0.45949E-03         0.00000E+00
    0.14980E-02        -0.64805E-03         0.00000E+00
    0.18022E-02        -0.86293E-03         0.00000E+00
    0.20800E-02        -0.10970E-02         0.00000E+00
    0.23336E-02        -0.13451E-02         0.00000E+00
    0.25651E-02        -0.16031E-02         0.00000E+00
    0.27769E-02        -0.18681E-02         0.00000E+00
    0.29714E-02        -0.21381E-02         0.00000E+00
    0.31505E-02        -0.24116E-02         0.00000E+00
    0.33165E-02        -0.26876E-02         0.00000E+00
    0.34711E-02        -0.29654E-02         0.00000E+00
    0.36159E-02        -0.32448E-02         0.00000E+00
    0.37526E-02        -0.35256E-02         0.00000E+00
    0.38824E-02        -0.38079E-02         0.00000E+00
    0.40066E-02        -0.40920E-02         0.00000E+00
    0.41262E-02        -0.43779E-02         0.00000E+00
    0.42421E-02        -0.46661E-02         0.00000E+00
    0.43553E-02        -0.49569E-02         0.00000E+00
    0.44663E-02        -0.52505E-02         0.00000E+00
    0.45758E-02        -0.55474E-02         0.00000E+00
    0.46844E-02        -0.58480E-02         0.00000E+00
    0.47926E-02        -0.61525E-02         0.00000E+00
    0.49008E-02        -0.64613E-02         0.00000E+00
    0.50092E-02        -0.67747E-02         0.00000E+00
    0.51183E-02        -0.70931E-02         0.00000E+00
    0.52283E-02        -0.74168E-02         0.00000E+00
    0.53395E-02        -0.77461E-02         0.00000E+00
    0.54519E-02        -0.80812E-02         0.00000E+00
    0.55659E-02        -0.84224E-02         0.00000E+00
    0.56814E-02        -0.87701E-02         0.00000E+00
    0.57987E-02        -0.91245E-02         0.00000E+00
    0.59179E-02        -0.94858E-02         0.00000E+00
    0.60389E-02        -0.98542E-02         0.00000E+00
    0.61618E-02        -0.10230E-01         0.00000E+00
    0.62867E-02        -0.10614E-01         0.00000E+00
    0.64135E-02        -0.11005E-01         0.00000E+00
    0.65423E-02        -0.11405E-01         0.00000E+00
    0.66731E-02        -0.11812E-01         0.00000E+00
    0.68058E-02        -0.12229E-01         0.00000E+00
    0.69403E-02        -0.12654E-01         0.00000E+00
    0.70767E-02        -0.13088E-01         0.00000E+00
    0.72148E-02        -0.13531E-01         0.00000E+00
    0.73545E-02        -0.13984E-01         0.00000E+00
    0.74959E-02        -0.14446E-01         0.00000E+00
    0.76386E-02        -0.14917E-01         0.00000E+00
    0.77827E-02        -0.15399E-01         0.00000E+00
    0.79280E-02        -0.15890E-01         0.00000E+00
    0.80743E-02        -0.16392E-01         0.00000E+00
    0.82215E-02        -0.16904E-01         0.00000E+00
    0.83695E-02        -0.17427E-01         0.00000E+00
    0.85179E-02        -0.17960E-01         0.00000E+00
    0.86666E-02        -0.18504E-01         0.00000E+00
    0.88153E-02        -0.19058E-01         0.00000E+00
    0.89639E-02        -0.19624E-01         0.00000E+00
    0.91120E-02        -0.20201E-01         0.00000E+00
    0.92594E-02        -0.20789E-01         0.00000E+00
    0.94057E-02        -0.21388E-01         0.00000E+00
    0.95507E-02        -0.21999E-01         0.00000E+00
    0.96938E-02        -0.22621E-01         0.00000E+00
    0.98349E-02        -0.23254E-01         0.00000E+00
    0.99733E-02        -0.23900E-01         0.00000E+00
    0.10109E-01        -0.24557E-01         0.00000E+00
    0.10241E-01        -0.25225E-01         0.00000E+00
    0.10368E-01        -0.25906E-01         0.00000E+00
    0.10491E-01        -0.26598E-01         0.00000E+00
    0.10609E-01        -0.27303E-01         0.00000E+00
    0.10721E-01        -0.28019E-01         0.00000E+00
    0.10826E-01        -0.28747E-01         0.00000E+00
    0.10923E-01        -0.29488E-01         0.00000E+00
    0.11012E-01        -0.30240E-01         0.00000E+00
    0.11091E-01        -0.31005E-01         0.00000E+00
    0.11159E-01        -0.31783E-01         0.00000E+00
    0.11215E-01        -0.32572E-01         0.00000E+00
    0.11258E-01        -0.33374E-01         0.00000E+00
    0.11286E-01        -0.34189E-01         0.00000E+00
    0.11297E-01        -0.35017E-01         0.00000E+00
    0.11290E-01        -0.35857E-01         0.00000E+00
    0.11262E-01        -0.36711E-01         0.00000E+00
    0.11210E-01        -0.37577E-01         0.00000E+00
    0.11133E-01        -0.38457E-01         0.00000E+00
    0.11027E-01        -0.39349E-01         0.00000E+00
    0.10888E-01        -0.40254E-01         0.00000E+00
    0.10713E-01        -0.41171E-01         0.00000E+00
    0.10499E-01        -0.42100E-01         0.00000E+00
    0.10239E-01        -0.43039E-01         0.00000E+00
    0.99286E-02        -0.43986E-01         0.00000E+00
    0.95626E-02        -0.44939E-01         0.00000E+00
    0.91344E-02        -0.45894E-01         0.00000E+00
    0.86375E-02        -0.46846E-01         0.00000E+00
    0.80645E-02        -0.47789E-01         0.00000E+00
    0.74082E-02        -0.48712E-01         0.00000E+00
    0.66611E-02        -0.49604E-01         0.00000E+00
    0.58160E-02        -0.50449E-01         0.00000E+00
    0.48668E-02        -0.51226E-01         0.00000E+00
    0.38093E-02        -0.51910E-01         0.00000E+00
    0.26431E-02        -0.52463E-01         0.00000E+00
    0.13723E-02        -0.52836E-01         0.00000E+00
    0.00000E+00        -0.52970E-01         0.00000E+00
    0.00000E+00        -0.17188E-03         0.00000E+00
    0.42741E-03        -0.21094E-03         0.00000E+00
    0.82654E-03        -0.31841E-03         0.00000E+00
    0.11964E-02        -0.47646E-03         0.00000E+00
    0.15362E-02        -0.67076E-03         0.00000E+00
    0.18467E-02        -0.89148E-03         0.00000E+00
    0.21297E-02        -0.11315E-02         0.00000E+00
    0.23876E-02        -0.13854E-02         0.00000E+00
    0.26227E-02        -0.16494E-02         0.00000E+00
    0.28375E-02        -0.19205E-02         0.00000E+00
    0.30344E-02        -0.21965E-02         0.00000E+00
    0.32158E-02        -0.24761E-02         0.00000E+00
    0.33836E-02        -0.27582E-02         0.00000E+00
    0.35398E-02        -0.30422E-02         0.00000E+00
    0.36862E-02        -0.33278E-02         0.00000E+00
    0.38243E-02        -0.36150E-02         0.00000E+00
    0.39555E-02        -0.39037E-02         0.00000E+00
    0.40809E-02        -0.41942E-02         0.00000E+00
    0.42018E-02        -0.44867E-02         0.00000E+00
    0.43191E-02        -0.47815E-02         0.00000E+00
    0.44335E-02        -0.50790E-02         0.00000E+00
    0.45458E-02        -0.53795E-02         0.00000E+00
    0.46568E-02        -0.56833E-02         0.00000E+00
    0.47668E-02        -0.59909E-02         0.00000E+00
    0.48764E-02        -0.63025E-02         0.00000E+00
    0.49861E-02        -0.66186E-02         0.00000E+00
    0.50961E-02        -0.69395E-02         0.00000E+00
    0.52068E-02        -0.72654E-02         0.00000E+00
    0.53185E-02        -0.75968E-02         0.00000E+00
    0.54313E-02        -0.79339E-02         0.00000E+00
    0.55456E-02        -0.82770E-02         0.00000E+00
    0.56613E-02        -0.86264E-02         0.00000E+00
    0.57788E-02        -0.89823E-02         0.00000E+00
    0.58980E-02        -0.93451E-02         0.00000E+00
    0.60191E-02        -0.97151E-02         0.00000E+00
    0.61421E-02        -0.10092E-01         0.00000E+00
    0.62671E-02        -0.10477E-01         0.00000E+00
    0.63942E-02        -0.10870E-01         0.00000E+00
    0.65232E-02        -0.11271E-01         0.00000E+00
    0.66542E-02        -0.11680E-01         0.00000E+00
    0.67873E-02        -0.12097E-01         0.00000E+00
    0.69223E-02        -0.12524E-01         0.00000E+00
    0.70592E-02        -0.12959E-01         0.00000E+00
    0.71980E-02        -0.13403E-01         0.00000E+00
    0.73386E-02        -0.13857E-01         0.00000E+00
    0.74808E-02        -0.14320E-01         0.00000E+00
    0.76247E-02        -0.14793E-01         0.00000E+00
    0.77701E-02        -0.15276E-01         0.00000E+00
    0.79168E-02        -0.15769E-01         0.00000E+00
    0.80647E-02        -0.16273E-01         0.00000E+00
    0.82137E-02        -0.16786E-01         0.00000E+00
    0.83636E-02        -0.17310E-01         0.00000E+00
    0.85143E-02        -0.17845E-01         0.00000E+00
    0.86655E-02        -0.18391E-01         0.00000E+00
    0.88170E-02        -0.18948E-01         0.00000E+00
    0.89685E-02        -0.19516E-01         0.00000E+00
    0.91199E-02        -0.20095E-01         0.00000E+00
    0.92709E-02        -0.20685E-01         0.00000E+00
    0.94211E-02        -0.21287E-01         0.00000E+00
    0.95703E-02        -0.21901E-01         0.00000E+00
    0.97181E-02        -0.22526E-01         0.00000E+00
    0.98641E-02        -0.23163E-01         0.00000E+00
    0.10008E-01        -0.23811E-01         0.00000E+00
    0.10149E-01        -0.24472E-01         0.00000E+00
    0.10288E-01        -0.25144E-01         0.00000E+00
    0.10422E-01        -0.25829E-01         0.00000E+00
    0.10553E-01        -0.26525E-01         0.00000E+00
    0.10679E-01        -0.27234E-01         0.00000E+00
    0.10799E-01        -0.27955E-01         0.00000E+00
    0.10914E-01        -0.28688E-01         0.00000E+00
    0.11021E-01        -0.29433E-01         0.00000E+00
    0.11121E-01        -0.30191E-01         0.00000E+00
    0.11212E-01        -0.30961E-01         0.00000E+00
    0.11294E-01        -0.31744E-01         0.00000E+00
    0.11364E-01        -0.32539E-01         0.00000E+00
    0.11423E-01        -0.33347E-01         0.00000E+00
    0.11468E-01        -0.34168E-01         0.00000E+00
    0.11498E-01        -0.35001E-01         0.00000E+00
    0.11511E-01        -0.35848E-01         0.00000E+00
    0.11506E-01        -0.36707E-01         0.00000E+00
    0.11479E-01        -0.37580E-01         0.00000E+00
    0.11429E-01        -0.38466E-01         0.00000E+00
    0.11353E-01        -0.39365E-01         0.00000E+00
    0.11248E-01        -0.40278E-01         0.00000E+00
    0.11110E-01        -0.41203E-01         0.00000E+00
    0.10935E-01        -0.42140E-01         0.00000E+00
    0.10720E-01        -0.43089E-01         0.00000E+00
    0.10459E-01        -0.44049E-01         0.00000E+00
    0.10147E-01        -0.45017E-01         0.00000E+00
    0.97775E-02        -0.45991E-01         0.00000E+00
    0.93449E-02        -0.46967E-01         0.00000E+00
    0.88417E-02        -0.47940E-01         0.00000E+00
    0.82606E-02        -0.48904E-01         0.00000E+00
    0.75936E-02        -0.49848E-01         0.00000E+00
    0.68330E-02        -0.50761E-01         0.00000E+00
    0.59708E-02        -0.51627E-01         0.00000E+00
    0.50004E-02        -0.52426E-01         0.00000E+00
    0.39168E-02        -0.53130E-01         0.00000E+00
    0.27188E-02        -0.53704E-01         0.00000E+00
    0.14112E-02        -0.54094E-01         0.00000E+00
    0.00000E+00        -0.54235E-01         0.00000E+00
    0.00000E+00        -0.17583E-03         0.00000E+00
    0.43915E-03        -0.21725E-03         0.00000E+00
    0.84916E-03        -0.32981E-03         0.00000E+00
    0.12283E-02        -0.49355E-03         0.00000E+00
    0.15756E-02        -0.69365E-03         0.00000E+00
    0.18922E-02        -0.92020E-03         0.00000E+00
    0.21803E-02        -0.11661E-02         0.00000E+00
    0.24422E-02        -0.14260E-02         0.00000E+00
    0.26807E-02        -0.16959E-02         0.00000E+00
    0.28983E-02        -0.19729E-02         0.00000E+00
    0.30976E-02        -0.22550E-02         0.00000E+00
    0.32809E-02        -0.25407E-02         0.00000E+00
    0.34504E-02        -0.28289E-02         0.00000E+00
    0.36082E-02        -0.31191E-02         0.00000E+00
    0.37559E-02        -0.34110E-02         0.00000E+00
    0.38953E-02        -0.37044E-02         0.00000E+00
    0.40277E-02        -0.39995E-02         0.00000E+00
    0.41544E-02        -0.42965E-02         0.00000E+00
    0.42764E-02        -0.45955E-02         0.00000E+00
    0.43949E-02        -0.48970E-02         0.00000E+00
    0.45105E-02        -0.52012E-02         0.00000E+00
    0.46242E-02        -0.55085E-02         0.00000E+00
    0.47364E-02        -0.58193E-02         0.00000E+00
    0.48478E-02        -0.61339E-02         0.00000E+00
    0.49588E-02        -0.64527E-02         0.00000E+00
    0.50699E-02        -0.67761E-02         0.00000E+00
    0.51814E-02        -0.71043E-02         0.00000E+00
    0.52937E-02        -0.74378E-02         0.00000E+00
    0.54070E-02        -0.77769E-02         0.00000E+00
    0.55215E-02        -0.81218E-02         0.00000E+00
    0.56374E-02        -0.84728E-02         0.00000E+00
    0.57550E-02        -0.88304E-02         0.00000E+00
    0.58743E-02        -0.91946E-02         0.00000E+00
    0.59954E-02        -0.95659E-02         0.00000E+00
    0.61184E-02        -0.99444E-02         0.00000E+00
    0.62435E-02        -0.10330E-01         0.00000E+00
    0.63705E-02        -0.10724E-01         0.00000E+00
    0.64997E-02        -0.11126E-01         0.00000E+00
    0.66308E-02        -0.11536E-01         0.00000E+00
    0.67641E-02        -0.11955E-01         0.00000E+00
    0.68994E-02        -0.12382E-01         0.00000E+00
    0.70367E-02        -0.12819E-01         0.00000E+00
    0.71760E-02        -0.13264E-01         0.00000E+00
    0.73171E-02        -0.13719E-01         0.00000E+00
    0.74601E-02        -0.14183E-01         0.00000E+00
    0.76048E-02        -0.14657E-01         0.00000E+00
    0.77512E-02        -0.15141E-01         0.00000E+00
    0.78991E-02        -0.15635E-01         0.00000E+00
    0.80484E-02        -0.16140E-01         0.00000E+00
    0.81990E-02        -0.16655E-01         0.00000E+00
    0.83506E-02        -0.17180E-01         0.00000E+00
    0.85032E-02        -0.17717E-01         0.00000E+00
    0.86566E-02        -0.18264E-01         0.00000E+00
    0.88105E-02        -0.18823E-01         0.00000E+00
    0.89647E-02        -0.19392E-01         0.00000E+00
    0.91191E-02        -0.19973E-01         0.00000E+00
    0.92733E-02        -0.20566E-01         0.00000E+00
    0.94270E-02        -0.21170E-01         0.00000E+00
    0.95801E-02        -0.21786E-01         0.00000E+00
    0.97321E-02        -0.22414E-01         0.00000E+00
    0.98827E-02        -0.23053E-01         0.00000E+00
    0.10032E-01        -0.23705E-01         0.00000E+00
    0.10178E-01        -0.24368E-01         0.00000E+00
    0.10322E-01        -0.25044E-01         0.00000E+00
    0.10464E-01        -0.25732E-01         0.00000E+00
    0.10601E-01        -0.26432E-01         0.00000E+00
    0.10734E-01        -0.27145E-01         0.00000E+00
    0.10863E-01        -0.27870E-01         0.00000E+00
    0.10986E-01        -0.28607E-01         0.00000E+00
    0.11103E-01        -0.29357E-01         0.00000E+00
    0.11214E-01        -0.30119E-01         0.00000E+00
    0.11316E-01        -0.30894E-01         0.00000E+00
    0.11410E-01        -0.31682E-01         0.00000E+00
    0.11494E-01        -0.32482E-01         0.00000E+00
    0.11567E-01        -0.33296E-01         0.00000E+00
    0.11628E-01        -0.34122E-01         0.00000E+00
    0.11676E-01        -0.34961E-01         0.00000E+00
    0.11708E-01        -0.35813E-01         0.00000E+00
    0.11723E-01        -0.36679E-01         0.00000E+00
    0.11720E-01        -0.37557E-01         0.00000E+00
    0.11695E-01        -0.38449E-01         0.00000E+00
    0.11647E-01        -0.39355E-01         0.00000E+00
    0.11572E-01        -0.40274E-01         0.00000E+00
    0.11468E-01        -0.41206E-01         0.00000E+00
    0.11331E-01        -0.42151E-01         0.00000E+00
    0.11157E-01        -0.43109E-01         0.00000E+00
    0.10941E-01        -0.44079E-01         0.00000E+00
    0.10679E-01        -0.45059E-01         0.00000E+00
    0.10365E-01        -0.46048E-01         0.00000E+00
    0.99935E-02        -0.47042E-01         0.00000E+00
    0.95568E-02        -0.48039E-01         0.00000E+00
    0.90480E-02        -0.49034E-01         0.00000E+00
    0.84593E-02        -0.50018E-01         0.00000E+00
    0.77824E-02        -0.50983E-01         0.00000E+00
    0.70088E-02        -0.51918E-01         0.00000E+00
    0.61301E-02        -0.52805E-01         0.00000E+00
    0.51389E-02        -0.53625E-01         0.00000E+00
    0.40291E-02        -0.54351E-01         0.00000E+00
    0.27987E-02        -0.54944E-01         0.00000E+00
    0.14528E-02        -0.55353E-01         0.00000E+00
    0.00000E+00        -0.55503E-01         0.00000E+00
    0.00000E+00        -0.17922E-03         0.00000E+00
    0.45170E-03        -0.22330E-03         0.00000E+00
    0.87306E-03        -0.34126E-03         0.00000E+00
    0.12615E-02        -0.51077E-03         0.00000E+00
    0.16163E-02        -0.71668E-03         0.00000E+00
    0.19389E-02        -0.94910E-03         0.00000E+00
    0.22317E-02        -0.12009E-02         0.00000E+00
    0.24976E-02        -0.14666E-02         0.00000E+00
    0.27392E-02        -0.17425E-02         0.00000E+00
    0.29594E-02        -0.20256E-02         0.00000E+00
    0.31608E-02        -0.23137E-02         0.00000E+00
    0.33459E-02        -0.26054E-02         0.00000E+00
    0.35170E-02        -0.28997E-02         0.00000E+00
    0.36761E-02        -0.31961E-02         0.00000E+00
    0.38251E-02        -0.34942E-02         0.00000E+00
    0.39656E-02        -0.37940E-02         0.00000E+00
    0.40991E-02        -0.40955E-02         0.00000E+00
    0.42269E-02        -0.43989E-02         0.00000E+00
    0.43500E-02        -0.47045E-02         0.00000E+00
    0.44696E-02        -0.50125E-02         0.00000E+00
    0.45864E-02        -0.53234E-02         0.00000E+00
    0.47012E-02        -0.56376E-02         0.00000E+00
    0.48147E-02        -0.59553E-02         0.00000E+00
    0.49273E-02        -0.62769E-02         0.00000E+00
    0.50397E-02        -0.66029E-02         0.00000E+00
    0.51522E-02        -0.69335E-02         0.00000E+00
    0.52652E-02        -0.72692E-02         0.00000E+00
    0.53790E-02        -0.76102E-02         0.00000E+00
    0.54938E-02        -0.79569E-02         0.00000E+00
    0.56100E-02        -0.83097E-02         0.00000E+00
    0.57276E-02        -0.86687E-02         0.00000E+00
    0.58469E-02        -0.90344E-02         0.00000E+00
    0.59680E-02        -0.94069E-02         0.00000E+00
    0.60909E-02        -0.97866E-02         0.00000E+00
    0.62159E-02        -0.10174E-01         0.00000E+00
    0.63429E-02        -0.10569E-01         0.00000E+00
    0.64719E-02        -0.10971E-01         0.00000E+00
    0.66031E-02        -0.11383E-01         0.00000E+00
    0.67364E-02        -0.11802E-01         0.00000E+00
    0.68718E-02        -0.12230E-01         0.00000E+00
    0.70093E-02        -0.12667E-01         0.00000E+00
    0.71489E-02        -0.13113E-01         0.00000E+00
    0.72905E-02        -0.13569E-01         0.00000E+00
    0.74340E-02        -0.14034E-01         0.00000E+00
    0.75794E-02        -0.14509E-01         0.00000E+00
    0.77265E-02        -0.14994E-01         0.00000E+00
    0.78754E-02        -0.15489E-01         0.00000E+00
    0.80258E-02        -0.15995E-01         0.00000E+00
    0.81776E-02        -0.16510E-01         0.00000E+00
    0.83308E-02        -0.17037E-01         0.00000E+00
    0.84850E-02        -0.17575E-01         0.00000E+00
    0.86403E-02        -0.18123E-01         0.00000E+00
    0.87963E-02        -0.18683E-01         0.00000E+00
    0.89529E-02        -0.19254E-01         0.00000E+00
    0.91099E-02        -0.19837E-01         0.00000E+00
    0.92670E-02        -0.20431E-01         0.00000E+00
    0.94239E-02        -0.21037E-01         0.00000E+00
    0.95805E-02        -0.21655E-01         0.00000E+00
    0.97363E-02        -0.22285E-01         0.00000E+00
    0.98912E-02        -0.22926E-01         0.00000E+00
    0.10045E-01        -0.23580E-01         0.00000E+00
    0.10196E-01        -0.24247E-01         0.00000E+00
    0.10346E-01        -0.24925E-01         0.00000E+00
    0.10493E-01        -0.25616E-01         0.00000E+00
    0.10637E-01        -0.26320E-01         0.00000E+00
    0.10777E-01        -0.27036E-01         0.00000E+00
    0.10913E-01        -0.27764E-01         0.00000E+00
    0.11045E-01        -0.28505E-01         0.00000E+00
    0.11171E-01        -0.29259E-01         0.00000E+00
    0.11290E-01        -0.30026E-01         0.00000E+00
    0.11403E-01        -0.30805E-01         0.00000E+00
    0.11509E-01        -0.31598E-01         0.00000E+00
    0.11605E-01        -0.32403E-01         0.00000E+00
    0.11692E-01        -0.33221E-01         0.00000E+00
    0.11767E-01        -0.34052E-01         0.00000E+00
    0.11831E-01        -0.34897E-01         0.00000E+00
    0.11881E-01        -0.35754E-01         0.00000E+00
    0.11915E-01        -0.36625E-01         0.00000E+00
    0.11933E-01        -0.37509E-01         0.00000E+00
    0.11931E-01        -0.38407E-01         0.00000E+00
    0.11909E-01        -0.39318E-01         0.00000E+00
    0.11862E-01        -0.40243E-01         0.00000E+00
    0.11789E-01        -0.41182E-01         0.00000E+00
    0.11687E-01        -0.42134E-01         0.00000E+00
    0.11551E-01        -0.43100E-01         0.00000E+00
    0.11377E-01        -0.44078E-01         0.00000E+00
    0.11162E-01        -0.45068E-01         0.00000E+00
    0.10900E-01        -0.46068E-01         0.00000E+00
    0.10585E-01        -0.47078E-01         0.00000E+00
    0.10210E-01        -0.48093E-01         0.00000E+00
    0.97703E-02        -0.49111E-01         0.00000E+00
    0.92566E-02        -0.50127E-01         0.00000E+00
    0.86609E-02        -0.51132E-01         0.00000E+00
    0.79746E-02        -0.52119E-01         0.00000E+00
    0.71887E-02        -0.53074E-01         0.00000E+00
    0.62942E-02        -0.53983E-01         0.00000E+00
    0.52826E-02        -0.54824E-01         0.00000E+00
    0.41469E-02        -0.55570E-01         0.00000E+00
    0.28836E-02        -0.56185E-01         0.00000E+00
    0.14974E-02        -0.56613E-01         0.00000E+00
    0.00000E+00        -0.56772E-01         0.00000E+00
    0.00000E+00        -0.18200E-03         0.00000E+00
    0.46524E-03        -0.22913E-03         0.00000E+00
    0.89847E-03        -0.35277E-03         0.00000E+00
    0.12963E-02        -0.52811E-03         0.00000E+00
    0.16584E-02        -0.73986E-03         0.00000E+00
    0.19868E-02        -0.97814E-03         0.00000E+00
    0.22842E-02        -0.12358E-02         0.00000E+00
    0.25537E-02        -0.15075E-02         0.00000E+00
    0.27982E-02        -0.17893E-02         0.00000E+00
    0.30207E-02        -0.20783E-02         0.00000E+00
    0.32241E-02        -0.23725E-02         0.00000E+00
    0.34108E-02        -0.26702E-02         0.00000E+00
    0.35832E-02        -0.29707E-02         0.00000E+00
    0.37435E-02        -0.32732E-02         0.00000E+00
    0.38936E-02        -0.35776E-02         0.00000E+00
    0.40352E-02        -0.38836E-02         0.00000E+00
    0.41697E-02        -0.41915E-02         0.00000E+00
    0.42984E-02        -0.45013E-02         0.00000E+00
    0.44226E-02        -0.48134E-02         0.00000E+00
    0.45432E-02        -0.51281E-02         0.00000E+00
    0.46611E-02        -0.54457E-02         0.00000E+00
    0.47770E-02        -0.57667E-02         0.00000E+00
    0.48916E-02        -0.60913E-02         0.00000E+00
    0.50055E-02        -0.64200E-02         0.00000E+00
    0.51192E-02        -0.67531E-02         0.00000E+00
    0.52330E-02        -0.70910E-02         0.00000E+00
    0.53474E-02        -0.74341E-02         0.00000E+00
    0.54626E-02        -0.77827E-02         0.00000E+00
    0.55790E-02        -0.81371E-02         0.00000E+00
    0.56967E-02        -0.84976E-02         0.00000E+00
    0.58160E-02        -0.88647E-02         0.00000E+00
    0.59370E-02        -0.92384E-02         0.00000E+00
    0.60598E-02        -0.96193E-02         0.00000E+00
    0.61846E-02        -0.10007E-01         0.00000E+00
    0.63114E-02        -0.10403E-01         0.00000E+00
    0.64403E-02        -0.10807E-01         0.00000E+00
    0.65714E-02        -0.11219E-01         0.00000E+00
    0.67046E-02        -0.11639E-01         0.00000E+00
    0.68399E-02        -0.12068E-01         0.00000E+00
    0.69775E-02        -0.12505E-01         0.00000E+00
    0.71172E-02        -0.12952E-01         0.00000E+00
    0.72589E-02        -0.13408E-01         0.00000E+00
    0.74028E-02        -0.13874E-01         0.00000E+00
    0.75486E-02        -0.14350E-01         0.00000E+00
    0.76963E-02        -0.14835E-01         0.00000E+00
    0.78459E-02        -0.15331E-01         0.00000E+00
    0.79972E-02        -0.15837E-01         0.00000E+00
    0.81501E-02        -0.16354E-01         0.00000E+00
    0.83044E-02        -0.16881E-01         0.00000E+00
    0.84601E-02        -0.17419E-01         0.00000E+00
    0.86170E-02        -0.17969E-01         0.00000E+00
    0.87748E-02        -0.18530E-01         0.00000E+00
    0.89335E-02        -0.19102E-01         0.00000E+00
    0.90928E-02        -0.19686E-01         0.00000E+00
    0.92524E-02        -0.20281E-01         0.00000E+00
    0.94122E-02        -0.20889E-01         0.00000E+00
    0.95719E-02        -0.21508E-01         0.00000E+00
    0.97313E-02        -0.22140E-01         0.00000E+00
    0.98899E-02        -0.22783E-01         0.00000E+00
    0.10047E-01        -0.23439E-01         0.00000E+00
    0.10204E-01        -0.24108E-01         0.00000E+00
    0.10358E-01        -0.24789E-01         0.00000E+00
    0.10511E-01        -0.25482E-01         0.00000E+00
    0.10660E-01        -0.26189E-01         0.00000E+00
    0.10807E-01        -0.26907E-01         0.00000E+00
    0.10950E-01        -0.27639E-01         0.00000E+00
    0.11089E-01        -0.28384E-01         0.00000E+00
    0.11223E-01        -0.29141E-01         0.00000E+00
    0.11352E-01        -0.29912E-01         0.00000E+00
    0.11475E-01        -0.30695E-01         0.00000E+00
    0.11590E-01        -0.31491E-01         0.00000E+00
    0.11698E-01        -0.32301E-01         0.00000E+00
    0.11797E-01        -0.33124E-01         0.00000E+00
    0.11887E-01        -0.33960E-01         0.00000E+00
    0.11965E-01        -0.34809E-01         0.00000E+00
    0.12031E-01        -0.35671E-01         0.00000E+00
    0.12083E-01        -0.36547E-01         0.00000E+00
    0.12120E-01        -0.37437E-01         0.00000E+00
    0.12140E-01        -0.38340E-01         0.00000E+00
    0.12141E-01        -0.39257E-01         0.00000E+00
    0.12121E-01        -0.40188E-01         0.00000E+00
    0.12076E-01        -0.41132E-01         0.00000E+00
    0.12005E-01        -0.42090E-01         0.00000E+00
    0.11904E-01        -0.43062E-01         0.00000E+00
    0.11770E-01        -0.44048E-01         0.00000E+00
    0.11597E-01        -0.45046E-01         0.00000E+00
    0.11382E-01        -0.46056E-01         0.00000E+00
    0.11120E-01        -0.47078E-01         0.00000E+00
    0.10804E-01        -0.48108E-01         0.00000E+00
    0.10429E-01        -0.49144E-01         0.00000E+00
    0.99856E-02        -0.50183E-01         0.00000E+00
    0.94675E-02        -0.51219E-01         0.00000E+00
    0.88656E-02        -0.52246E-01         0.00000E+00
    0.81707E-02        -0.53253E-01         0.00000E+00
    0.73732E-02        -0.54230E-01         0.00000E+00
    0.64635E-02        -0.55160E-01         0.00000E+00
    0.54320E-02        -0.56022E-01         0.00000E+00
    0.42707E-02        -0.56790E-01         0.00000E+00
    0.29743E-02        -0.57425E-01         0.00000E+00
    0.15458E-02        -0.57874E-01         0.00000E+00
    0.00000E+00        -0.58044E-01         0.00000E+00
    0.00000E+00        -0.18412E-03         0.00000E+00
    0.48005E-03        -0.23480E-03         0.00000E+00
    0.92562E-03        -0.36436E-03         0.00000E+00
    0.13327E-02        -0.54554E-03         0.00000E+00
    0.17020E-02        -0.76314E-03         0.00000E+00
    0.20359E-02        -0.10073E-02         0.00000E+00
    0.23377E-02        -0.12708E-02         0.00000E+00
    0.26106E-02        -0.15484E-02         0.00000E+00
    0.28578E-02        -0.18362E-02         0.00000E+00
    0.30825E-02        -0.21312E-02         0.00000E+00
    0.32875E-02        -0.24313E-02         0.00000E+00
    0.34756E-02        -0.27351E-02         0.00000E+00
    0.36493E-02        -0.30417E-02         0.00000E+00
    0.38106E-02        -0.33504E-02         0.00000E+00
    0.39616E-02        -0.36610E-02         0.00000E+00
    0.41041E-02        -0.39733E-02         0.00000E+00
    0.42394E-02        -0.42875E-02         0.00000E+00
    0.43691E-02        -0.46038E-02         0.00000E+00
    0.44942E-02        -0.49224E-02         0.00000E+00
    0.46157E-02        -0.52437E-02         0.00000E+00
    0.47346E-02        -0.55681E-02         0.00000E+00
    0.48515E-02        -0.58958E-02         0.00000E+00
    0.49672E-02        -0.62274E-02         0.00000E+00
    0.50823E-02        -0.65631E-02         0.00000E+00
    0.51972E-02        -0.69034E-02         0.00000E+00
    0.53123E-02        -0.72486E-02         0.00000E+00
    0.54280E-02        -0.75990E-02         0.00000E+00
    0.55447E-02        -0.79552E-02         0.00000E+00
    0.56625E-02        -0.83172E-02         0.00000E+00
    0.57818E-02        -0.86856E-02         0.00000E+00
    0.59027E-02        -0.90606E-02         0.00000E+00
    0.60253E-02        -0.94425E-02         0.00000E+00
    0.61499E-02        -0.98316E-02         0.00000E+00
    0.62764E-02        -0.10228E-01         0.00000E+00
    0.64051E-02        -0.10633E-01         0.00000E+00
    0.65358E-02        -0.11045E-01         0.00000E+00
    0.66688E-02        -0.11466E-01         0.00000E+00
    0.68040E-02        -0.11895E-01         0.00000E+00
    0.69414E-02        -0.12334E-01         0.00000E+00
    0.70810E-02        -0.12781E-01         0.00000E+00
    0.72228E-02        -0.13237E-01         0.00000E+00
    0.73668E-02        -0.13703E-01         0.00000E+00
    0.75129E-02        -0.14179E-01         0.00000E+00
    0.76610E-02        -0.14665E-01         0.00000E+00
    0.78110E-02        -0.15161E-01         0.00000E+00
    0.79629E-02        -0.15668E-01         0.00000E+00
    0.81166E-02        -0.16185E-01         0.00000E+00
    0.82720E-02        -0.16713E-01         0.00000E+00
    0.84288E-02        -0.17252E-01         0.00000E+00
    0.85870E-02        -0.17802E-01         0.00000E+00
    0.87464E-02        -0.18363E-01         0.00000E+00
    0.89068E-02        -0.18936E-01         0.00000E+00
    0.90681E-02        -0.19521E-01         0.00000E+00
    0.92300E-02        -0.20117E-01         0.00000E+00
    0.93924E-02        -0.20726E-01         0.00000E+00
    0.95549E-02        -0.21346E-01         0.00000E+00
    0.97173E-02        -0.21979E-01         0.00000E+00
    0.98793E-02        -0.22624E-01         0.00000E+00
    0.10041E-01        -0.23282E-01         0.00000E+00
    0.10201E-01        -0.23952E-01         0.00000E+00
    0.10360E-01        -0.24635E-01         0.00000E+00
    0.10517E-01        -0.25331E-01         0.00000E+00
    0.10672E-01        -0.26039E-01         0.00000E+00
    0.10825E-01        -0.26761E-01         0.00000E+00
    0.10974E-01        -0.27495E-01         0.00000E+00
    0.11120E-01        -0.28243E-01         0.00000E+00
    0.11262E-01        -0.29003E-01         0.00000E+00
    0.11399E-01        -0.29777E-01         0.00000E+00
    0.11531E-01        -0.30564E-01         0.00000E+00
    0.11656E-01        -0.31364E-01         0.00000E+00
    0.11774E-01        -0.32177E-01         0.00000E+00
    0.11885E-01        -0.33004E-01         0.00000E+00
    0.11987E-01        -0.33844E-01         0.00000E+00
    0.12079E-01        -0.34698E-01         0.00000E+00
    0.12160E-01        -0.35565E-01         0.00000E+00
    0.12228E-01        -0.36446E-01         0.00000E+00
    0.12283E-01        -0.37340E-01         0.00000E+00
    0.12323E-01        -0.38249E-01         0.00000E+00
    0.12345E-01        -0.39171E-01         0.00000E+00
    0.12349E-01        -0.40107E-01         0.00000E+00
    0.12330E-01        -0.41057E-01         0.00000E+00
    0.12288E-01        -0.42021E-01         0.00000E+00
    0.12219E-01        -0.42999E-01         0.00000E+00
    0.12120E-01        -0.43990E-01         0.00000E+00
    0.11987E-01        -0.44996E-01         0.00000E+00
    0.11816E-01        -0.46014E-01         0.00000E+00
    0.11603E-01        -0.47045E-01         0.00000E+00
    0.11341E-01        -0.48087E-01         0.00000E+00
    0.11025E-01        -0.49137E-01         0.00000E+00
    0.10648E-01        -0.50194E-01         0.00000E+00
    0.10203E-01        -0.51254E-01         0.00000E+00
    0.96809E-02        -0.52311E-01         0.00000E+00
    0.90735E-02        -0.53359E-01         0.00000E+00
    0.83707E-02        -0.54388E-01         0.00000E+00
    0.75625E-02        -0.55386E-01         0.00000E+00
    0.66382E-02        -0.56337E-01         0.00000E+00
    0.55876E-02        -0.57220E-01         0.00000E+00
    0.44012E-02        -0.58009E-01         0.00000E+00
    0.30716E-02        -0.58666E-01         0.00000E+00
    0.15989E-02        -0.59135E-01         0.00000E+00
    0.00000E+00        -0.59319E-01         0.00000E+00
    0.00000E+00        -0.18551E-03         0.00000E+00
    0.49647E-03        -0.24038E-03         0.00000E+00
    0.95479E-03        -0.37605E-03         0.00000E+00
    0.13711E-02        -0.56306E-03         0.00000E+00
    0.17472E-02        -0.78653E-03         0.00000E+00
    0.20865E-02        -0.10366E-02         0.00000E+00
    0.23924E-02        -0.13060E-02         0.00000E+00
    0.26684E-02        -0.15895E-02         0.00000E+00
    0.29180E-02        -0.18832E-02         0.00000E+00
    0.31446E-02        -0.21841E-02         0.00000E+00
    0.33511E-02        -0.24903E-02         0.00000E+00
    0.35404E-02        -0.28001E-02         0.00000E+00
    0.37150E-02        -0.31128E-02         0.00000E+00
    0.38773E-02        -0.34276E-02         0.00000E+00
    0.40291E-02        -0.37444E-02         0.00000E+00
    0.41723E-02        -0.40630E-02         0.00000E+00
    0.43084E-02        -0.43836E-02         0.00000E+00
    0.44388E-02        -0.47063E-02         0.00000E+00
    0.45647E-02        -0.50315E-02         0.00000E+00
    0.46871E-02        -0.53594E-02         0.00000E+00
    0.48068E-02        -0.56905E-02         0.00000E+00
    0.49248E-02        -0.60250E-02         0.00000E+00
    0.50415E-02        -0.63635E-02         0.00000E+00
    0.51577E-02        -0.67062E-02         0.00000E+00
    0.52737E-02        -0.70537E-02         0.00000E+00
    0.53901E-02        -0.74061E-02         0.00000E+00
    0.55071E-02        -0.77640E-02         0.00000E+00
    0.56251E-02        -0.81277E-02         0.00000E+00
    0.57444E-02        -0.84974E-02         0.00000E+00
    0.58652E-02        -0.88736E-02         0.00000E+00
    0.59876E-02        -0.92566E-02         0.00000E+00
    0.61118E-02        -0.96466E-02         0.00000E+00
    0.62381E-02        -0.10044E-01         0.00000E+00
    0.63663E-02        -0.10449E-01         0.00000E+00
    0.64968E-02        -0.10862E-01         0.00000E+00
    0.66294E-02        -0.11283E-01         0.00000E+00
    0.67643E-02        -0.11713E-01         0.00000E+00
    0.69014E-02        -0.12152E-01         0.00000E+00
    0.70408E-02        -0.12599E-01         0.00000E+00
    0.71825E-02        -0.13056E-01         0.00000E+00
    0.73264E-02        -0.13522E-01         0.00000E+00
    0.74725E-02        -0.13998E-01         0.00000E+00
    0.76207E-02        -0.14485E-01         0.00000E+00
    0.77711E-02        -0.14981E-01         0.00000E+00
    0.79234E-02        -0.15487E-01         0.00000E+00
    0.80777E-02        -0.16005E-01         0.00000E+00
    0.82337E-02        -0.16533E-01         0.00000E+00
    0.83914E-02        -0.17072E-01         0.00000E+00
    0.85507E-02        -0.17622E-01         0.00000E+00
    0.87114E-02        -0.18184E-01         0.00000E+00
    0.88733E-02        -0.18758E-01         0.00000E+00
    0.90363E-02        -0.19343E-01         0.00000E+00
    0.92002E-02        -0.19940E-01         0.00000E+00
    0.93647E-02        -0.20549E-01         0.00000E+00
    0.95297E-02        -0.21170E-01         0.00000E+00
    0.96948E-02        -0.21804E-01         0.00000E+00
    0.98599E-02        -0.22450E-01         0.00000E+00
    0.10025E-01        -0.23109E-01         0.00000E+00
    0.10189E-01        -0.23781E-01         0.00000E+00
    0.10352E-01        -0.24465E-01         0.00000E+00
    0.10514E-01        -0.25163E-01         0.00000E+00
    0.10674E-01        -0.25873E-01         0.00000E+00
    0.10832E-01        -0.26597E-01         0.00000E+00
    0.10987E-01        -0.27333E-01         0.00000E+00
    0.11139E-01        -0.28083E-01         0.00000E+00
    0.11288E-01        -0.28846E-01         0.00000E+00
    0.11432E-01        -0.29623E-01         0.00000E+00
    0.11572E-01        -0.30413E-01         0.00000E+00
    0.11706E-01        -0.31216E-01         0.00000E+00
    0.11834E-01        -0.32033E-01         0.00000E+00
    0.11956E-01        -0.32864E-01         0.00000E+00
    0.12069E-01        -0.33708E-01         0.00000E+00
    0.12174E-01        -0.34565E-01         0.00000E+00
    0.12268E-01        -0.35437E-01         0.00000E+00
    0.12352E-01        -0.36322E-01         0.00000E+00
    0.12423E-01        -0.37221E-01         0.00000E+00
    0.12481E-01        -0.38134E-01         0.00000E+00
    0.12523E-01        -0.39060E-01         0.00000E+00
    0.12548E-01        -0.40001E-01         0.00000E+00
    0.12554E-01        -0.40956E-01         0.00000E+00
    0.12538E-01        -0.41926E-01         0.00000E+00
    0.12499E-01        -0.42909E-01         0.00000E+00
    0.12432E-01        -0.43907E-01         0.00000E+00
    0.12335E-01        -0.44918E-01         0.00000E+00
    0.12204E-01        -0.45944E-01         0.00000E+00
    0.12035E-01        -0.46982E-01         0.00000E+00
    0.11823E-01        -0.48033E-01         0.00000E+00
    0.11562E-01        -0.49096E-01         0.00000E+00
    0.11246E-01        -0.50167E-01         0.00000E+00
    0.10869E-01        -0.51245E-01         0.00000E+00
    0.10422E-01        -0.52325E-01         0.00000E+00
    0.98970E-02        -0.53403E-01         0.00000E+00
    0.92848E-02        -0.54472E-01         0.00000E+00
    0.85750E-02        -0.55522E-01         0.00000E+00
    0.77567E-02        -0.56541E-01         0.00000E+00
    0.68188E-02        -0.57513E-01         0.00000E+00
    0.57499E-02        -0.58418E-01         0.00000E+00
    0.45389E-02        -0.59228E-01         0.00000E+00
    0.31764E-02        -0.59906E-01         0.00000E+00
    0.16580E-02        -0.60397E-01         0.00000E+00
    0.00000E+00        -0.60596E-01         0.00000E+00
    0.00000E+00        -0.18613E-03         0.00000E+00
    0.51503E-03        -0.24604E-03         0.00000E+00
    0.98623E-03        -0.38781E-03         0.00000E+00
    0.14115E-02        -0.58064E-03         0.00000E+00
    0.17943E-02        -0.80999E-03         0.00000E+00
    0.21386E-02        -0.10659E-02         0.00000E+00
    0.24482E-02        -0.13412E-02         0.00000E+00
    0.27271E-02        -0.16306E-02         0.00000E+00
    0.29789E-02        -0.19302E-02         0.00000E+00
    0.32071E-02        -0.22371E-02         0.00000E+00
    0.34148E-02        -0.25492E-02         0.00000E+00
    0.36051E-02        -0.28652E-02         0.00000E+00
    0.37806E-02        -0.31839E-02         0.00000E+00
    0.39435E-02        -0.35049E-02         0.00000E+00
    0.40959E-02        -0.38279E-02         0.00000E+00
    0.42397E-02        -0.41528E-02         0.00000E+00
    0.43765E-02        -0.44797E-02         0.00000E+00
    0.45076E-02        -0.48089E-02         0.00000E+00
    0.46342E-02        -0.51406E-02         0.00000E+00
    0.47573E-02        -0.54751E-02         0.00000E+00
    0.48779E-02        -0.58128E-02         0.00000E+00
    0.49967E-02        -0.61542E-02         0.00000E+00
    0.51144E-02        -0.64996E-02         0.00000E+00
    0.52316E-02        -0.68494E-02         0.00000E+00
    0.53488E-02        -0.72040E-02         0.00000E+00
    0.54663E-02        -0.75637E-02         0.00000E+00
    0.55846E-02        -0.79290E-02         0.00000E+00
    0.57039E-02        -0.83002E-02         0.00000E+00
    0.58246E-02        -0.86776E-02         0.00000E+00
    0.59468E-02        -0.90617E-02         0.00000E+00
    0.60707E-02        -0.94526E-02         0.00000E+00
    0.61966E-02        -0.98508E-02         0.00000E+00
    0.63244E-02        -0.10256E-01         0.00000E+00
    0.64544E-02        -0.10670E-01         0.00000E+00
    0.65866E-02        -0.11092E-01         0.00000E+00
    0.67210E-02        -0.11522E-01         0.00000E+00
    0.68577E-02        -0.11960E-01         0.00000E+00
    0.69968E-02        -0.12408E-01         0.00000E+00
    0.71381E-02        -0.12865E-01         0.00000E+00
    0.72818E-02        -0.13331E-01         0.00000E+00
    0.74278E-02        -0.13808E-01         0.00000E+00
    0.75760E-02        -0.14294E-01         0.00000E+00
    0.77264E-02        -0.14790E-01         0.00000E+00
    0.78789E-02        -0.15296E-01         0.00000E+00
    0.80335E-02        -0.15814E-01         0.00000E+00
    0.81901E-02        -0.16342E-01         0.00000E+00
    0.83484E-02        -0.16881E-01         0.00000E+00
    0.85085E-02        -0.17431E-01         0.00000E+00
    0.86702E-02        -0.17993E-01         0.00000E+00
    0.88334E-02        -0.18567E-01         0.00000E+00
    0.89978E-02        -0.19152E-01         0.00000E+00
    0.91633E-02        -0.19749E-01         0.00000E+00
    0.93297E-02        -0.20359E-01         0.00000E+00
    0.94968E-02        -0.20981E-01         0.00000E+00
    0.96643E-02        -0.21615E-01         0.00000E+00
    0.98321E-02        -0.22262E-01         0.00000E+00
    0.99999E-02        -0.22922E-01         0.00000E+00
    0.10167E-01        -0.23594E-01         0.00000E+00
    0.10334E-01        -0.24280E-01         0.00000E+00
    0.10500E-01        -0.24978E-01         0.00000E+00
    0.10664E-01        -0.25690E-01         0.00000E+00
    0.10827E-01        -0.26415E-01         0.00000E+00
    0.10988E-01        -0.27154E-01         0.00000E+00
    0.11146E-01        -0.27905E-01         0.00000E+00
    0.11301E-01        -0.28671E-01         0.00000E+00
    0.11452E-01        -0.29450E-01         0.00000E+00
    0.11600E-01        -0.30242E-01         0.00000E+00
    0.11742E-01        -0.31049E-01         0.00000E+00
    0.11879E-01        -0.31868E-01         0.00000E+00
    0.12010E-01        -0.32702E-01         0.00000E+00
    0.12134E-01        -0.33550E-01         0.00000E+00
    0.12250E-01        -0.34411E-01         0.00000E+00
    0.12358E-01        -0.35286E-01         0.00000E+00
    0.12455E-01        -0.36175E-01         0.00000E+00
    0.12542E-01        -0.37078E-01         0.00000E+00
    0.12616E-01        -0.37995E-01         0.00000E+00
    0.12676E-01        -0.38927E-01         0.00000E+00
    0.12721E-01        -0.39872E-01         0.00000E+00
    0.12749E-01        -0.40832E-01         0.00000E+00
    0.12757E-01        -0.41806E-01         0.00000E+00
    0.12744E-01        -0.42795E-01         0.00000E+00
    0.12707E-01        -0.43797E-01         0.00000E+00
    0.12643E-01        -0.44815E-01         0.00000E+00
    0.12549E-01        -0.45846E-01         0.00000E+00
    0.12420E-01        -0.46892E-01         0.00000E+00
    0.12253E-01        -0.47950E-01         0.00000E+00
    0.12042E-01        -0.49022E-01         0.00000E+00
    0.11783E-01        -0.50104E-01         0.00000E+00
    0.11468E-01        -0.51196E-01         0.00000E+00
    0.11091E-01        -0.52295E-01         0.00000E+00
    0.10643E-01        -0.53396E-01         0.00000E+00
    0.10116E-01        -0.54495E-01         0.00000E+00
    0.94997E-02        -0.55585E-01         0.00000E+00
    0.87837E-02        -0.56656E-01         0.00000E+00
    0.79564E-02        -0.57696E-01         0.00000E+00
    0.70057E-02        -0.58689E-01         0.00000E+00
    0.59193E-02        -0.59615E-01         0.00000E+00
    0.46845E-02        -0.60446E-01         0.00000E+00
    0.32899E-02        -0.61145E-01         0.00000E+00
    0.17249E-02        -0.61659E-01         0.00000E+00
    0.00000E+00        -0.61875E-01         0.00000E+00
    0.00000E+00        -0.18591E-03         0.00000E+00
    0.53650E-03        -0.25197E-03         0.00000E+00
    0.10201E-02        -0.39954E-03         0.00000E+00
    0.14541E-02        -0.59827E-03         0.00000E+00
    0.18433E-02        -0.83347E-03         0.00000E+00
    0.21922E-02        -0.10952E-02         0.00000E+00
    0.25053E-02        -0.13764E-02         0.00000E+00
    0.27868E-02        -0.16717E-02         0.00000E+00
    0.30404E-02        -0.19772E-02         0.00000E+00
    0.32700E-02        -0.22901E-02         0.00000E+00
    0.34788E-02        -0.26082E-02         0.00000E+00
    0.36699E-02        -0.29302E-02         0.00000E+00
    0.38459E-02        -0.32550E-02         0.00000E+00
    0.40093E-02        -0.35822E-02         0.00000E+00
    0.41623E-02        -0.39114E-02         0.00000E+00
    0.43065E-02        -0.42426E-02         0.00000E+00
    0.44438E-02        -0.45759E-02         0.00000E+00
    0.45754E-02        -0.49114E-02         0.00000E+00
    0.47026E-02        -0.52496E-02         0.00000E+00
    0.48264E-02        -0.55908E-02         0.00000E+00
    0.49478E-02        -0.59352E-02         0.00000E+00
    0.50674E-02        -0.62834E-02         0.00000E+00
    0.51860E-02        -0.66357E-02         0.00000E+00
    0.53042E-02        -0.69925E-02         0.00000E+00
    0.54224E-02        -0.73543E-02         0.00000E+00
    0.55410E-02        -0.77213E-02         0.00000E+00
    0.56605E-02        -0.80940E-02         0.00000E+00
    0.57811E-02        -0.84727E-02         0.00000E+00
    0.59031E-02        -0.88578E-02         0.00000E+00
    0.60267E-02        -0.92497E-02         0.00000E+00
    0.61521E-02        -0.96486E-02         0.00000E+00
    0.62795E-02        -0.10055E-01         0.00000E+00
    0.64089E-02        -0.10469E-01         0.00000E+00
    0.65406E-02        -0.10891E-01         0.00000E+00
    0.66744E-02        -0.11321E-01         0.00000E+00
    0.68106E-02        -0.11760E-01         0.00000E+00
    0.69492E-02        -0.12208E-01         0.00000E+00
    0.70901E-02        -0.12665E-01         0.00000E+00
    0.72334E-02        -0.13131E-01         0.00000E+00
    0.73790E-02        -0.13607E-01         0.00000E+00
    0.75270E-02        -0.14093E-01         0.00000E+00
    0.76773E-02        -0.14589E-01         0.00000E+00
    0.78298E-02        -0.15095E-01         0.00000E+00
    0.79846E-02        -0.15612E-01         0.00000E+00
    0.81413E-02        -0.16140E-01         0.00000E+00
    0.83001E-02        -0.16679E-01         0.00000E+00
    0.84608E-02        -0.17229E-01         0.00000E+00
    0.86232E-02        -0.17791E-01         0.00000E+00
    0.87873E-02        -0.18364E-01         0.00000E+00
    0.89528E-02        -0.18949E-01         0.00000E+00
    0.91197E-02        -0.19546E-01         0.00000E+00
    0.92877E-02        -0.20156E-01         0.00000E+00
    0.94566E-02        -0.20778E-01         0.00000E+00
    0.96262E-02        -0.21412E-01         0.00000E+00
    0.97964E-02        -0.22060E-01         0.00000E+00
    0.99668E-02        -0.22720E-01         0.00000E+00
    0.10137E-01        -0.23393E-01         0.00000E+00
    0.10307E-01        -0.24079E-01         0.00000E+00
    0.10477E-01        -0.24779E-01         0.00000E+00
    0.10645E-01        -0.25491E-01         0.00000E+00
    0.10812E-01        -0.26218E-01         0.00000E+00
    0.10978E-01        -0.26957E-01         0.00000E+00
    0.11141E-01        -0.27711E-01         0.00000E+00
    0.11302E-01        -0.28478E-01         0.00000E+00
    0.11460E-01        -0.29259E-01         0.00000E+00
    0.11614E-01        -0.30053E-01         0.00000E+00
    0.11764E-01        -0.30862E-01         0.00000E+00
    0.11909E-01        -0.31684E-01         0.00000E+00
    0.12049E-01        -0.32521E-01         0.00000E+00
    0.12183E-01        -0.33371E-01         0.00000E+00
    0.12310E-01        -0.34236E-01         0.00000E+00
    0.12429E-01        -0.35114E-01         0.00000E+00
    0.12539E-01        -0.36007E-01         0.00000E+00
    0.12639E-01        -0.36914E-01         0.00000E+00
    0.12728E-01        -0.37835E-01         0.00000E+00
    0.12805E-01        -0.38770E-01         0.00000E+00
    0.12869E-01        -0.39720E-01         0.00000E+00
    0.12916E-01        -0.40684E-01         0.00000E+00
    0.12947E-01        -0.41663E-01         0.00000E+00
    0.12958E-01        -0.42656E-01         0.00000E+00
    0.12948E-01        -0.43663E-01         0.00000E+00
    0.12914E-01        -0.44686E-01         0.00000E+00
    0.12853E-01        -0.45723E-01         0.00000E+00
    0.12761E-01        -0.46774E-01         0.00000E+00
    0.12635E-01        -0.47840E-01         0.00000E+00
    0.12470E-01        -0.48919E-01         0.00000E+00
    0.12262E-01        -0.50010E-01         0.00000E+00
    0.12004E-01        -0.51113E-01         0.00000E+00
    0.11691E-01        -0.52226E-01         0.00000E+00
    0.11314E-01        -0.53345E-01         0.00000E+00
    0.10866E-01        -0.54467E-01         0.00000E+00
    0.10338E-01        -0.55587E-01         0.00000E+00
    0.97184E-02        -0.56698E-01         0.00000E+00
    0.89971E-02        -0.57790E-01         0.00000E+00
    0.81617E-02        -0.58851E-01         0.00000E+00
    0.71993E-02        -0.59865E-01         0.00000E+00
    0.60963E-02        -0.60813E-01         0.00000E+00
    0.48388E-02        -0.61665E-01         0.00000E+00
    0.34126E-02        -0.62385E-01         0.00000E+00
    0.18025E-02        -0.62920E-01         0.00000E+00
    0.00000E+00        -0.63158E-01         0.00000E+00
CELL_DATA       5000
VECTORS vDarcy double 
    0.68472E-08         0.19473E-12         0.00000E+00
    0.68452E-08         0.44609E-12         0.00000E+00
    0.68470E-08         0.53354E-12         0.00000E+00
    0.68535E-08         0.57244E-12         0.00000E+00
    0.68656E-08         0.57589E-12         0.00000E+00
    0.68837E-08         0.55791E-12         0.00000E+00
    0.69082E-08         0.52602E-12         0.00000E+00
    0.69394E-08         0.48604E-12         0.00000E+00
    0.69774E-08         0.44198E-12         0.00000E+00
    0.70223E-08         0.39667E-12         0.00000E+00
    0.70743E-08         0.35202E-12         0.00000E+00
    0.71332E-08         0.30924E-12         0.00000E+00
    0.71990E-08         0.26905E-12         0.00000E+00
    0.72718E-08         0.23178E-12         0.00000E+00
    0.73515E-08         0.19754E-12         0.00000E+00
    0.74380E-08         0.16624E-12         0.00000E+00
    0.75313E-08         0.13771E-12         0.00000E+00
    0.76312E-08         0.11172E-12         0.00000E+00
    0.77378E-08         0.88002E-13         0.00000E+00
    0.78510E-08         0.66278E-13         0.00000E+00
    0.79707E-08         0.46284E-13         0.00000E+00
    0.80969E-08         0.27769E-13         0.00000E+00
    0.82294E-08         0.10498E-13         0.00000E+00
    0.83683E-08        -0.57407E-14         0.00000E+00
    0.85135E-08        -0.21138E-13         0.00000E+00
    0.86649E-08        -0.35862E-13         0.00000E+00
    0.88225E-08        -0.50064E-13         0.00000E+00
    0.89862E-08        -0.63873E-13         0.00000E+00
    0.91560E-08        -0.77405E-13         0.00000E+00
    0.93318E-08        -0.90759E-13         0.00000E+00
    0.95136E-08        -0.10402E-12         0.00000E+00
    0.97012E-08        -0.11726E-12         0.00000E+00
    0.98947E-08        -0.13055E-12         0.00000E+00
    0.10094E-07        -0.14394E-12         0.00000E+00
    0.10299E-07        -0.15747E-12         0.00000E+00
    0.10509E-07        -0.17119E-12         0.00000E+00
    0.10725E-07        -0.18511E-12         0.00000E+00
    0.10947E-07        -0.19927E-12         0.00000E+00
    0.11174E-07        -0.21369E-12         0.00000E+00
    0.11406E-07        -0.22837E-12         0.00000E+00
    0.11643E-07        -0.24333E-12         0.00000E+00
    0.11885E-07        -0.25856E-12         0.00000E+00
    0.12132E-07        -0.27407E-12         0.00000E+00
    0.12384E-07        -0.28984E-12         0.00000E+00
    0.12640E-07        -0.30586E-12         0.00000E+00
    0.12901E-07        -0.32210E-12         0.00000E+00
    0.13166E-07        -0.33856E-12         0.00000E+00
    0.13435E-07        -0.35520E-12         0.00000E+00
    0.13708E-07        -0.37198E-12         0.00000E+00
    0.13985E-07        -0.38887E-12         0.00000E+00
    0.14265E-07        -0.40582E-12         0.00000E+00
    0.14549E-07        -0.42278E-12         0.00000E+00
    0.14836E-07        -0.43969E-12         0.00000E+00
    0.15125E-07        -0.45650E-12         0.00000E+00
    0.15417E-07        -0.47313E-12         0.00000E+00
    0.15712E-07        -0.48952E-12         0.00000E+00
    0.16008E-07        -0.50557E-12         0.00000E+00
    0.16306E-07        -0.52120E-12         0.00000E+00
    0.16606E-07        -0.53631E-12         0.00000E+00
    0.16907E-07        -0.55080E-12         0.00000E+00
    0.17208E-07        -0.56456E-12         0.00000E+00
    0.17510E-07        -0.57747E-12         0.00000E+00
    0.17812E-07        -0.58940E-12         0.00000E+00
    0.18113E-07        -0.60021E-12         0.00000E+00
    0.18414E-07        -0.60976E-12         0.00000E+00
    0.18714E-07        -0.61789E-12         0.00000E+00
    0.19012E-07        -0.62443E-12         0.00000E+00
    0.19308E-07        -0.62920E-12         0.00000E+00
    0.19602E-07        -0.63201E-12         0.00000E+00
    0.19893E-07        -0.63265E-12         0.00000E+00
    0.20180E-07        -0.63089E-12         0.00000E+00
    0.20464E-07        -0.62650E-12         0.00000E+00
    0.20743E-07        -0.61922E-12         0.00000E+00
    0.21018E-07        -0.60876E-12         0.00000E+00
    0.21287E-07        -0.59483E-12         0.00000E+00
    0.21551E-07        -0.57710E-12         0.00000E+00
    0.21808E-07        -0.55522E-12         0.00000E+00
    0.22058E-07        -0.52879E-12         0.00000E+00
    0.22300E-07        -0.49742E-12         0.00000E+00
    0.22535E-07        -0.46065E-12         0.00000E+00
    0.22761E-07        -0.41803E-12         0.00000E+00
    0.22978E-07        -0.36906E-12         0.00000E+00
    0.23185E-07        -0.31326E-12         0.00000E+00
    0.23382E-07        -0.25014E-12         0.00000E+00
    0.23568E-07        -0.17927E-12         0.00000E+00
    0.23743E-07        -0.10029E-12         0.00000E+00
    0.23906E-07        -0.12997E-13         0.00000E+00
    0.24057E-07         0.82576E-13         0.00000E+00
    0.24196E-07         0.18604E-12         0.00000E+00
    0.24321E-07         0.29648E-12         0.00000E+00
    0.24433E-07         0.41223E-12         0.00000E+00
    0.24531E-07         0.53065E-12         0.00000E+00
    0.24616E-07         0.64770E-12         0.00000E+00
    0.24686E-07         0.75760E-12         0.00000E+00
    0.24743E-07         0.85236E-12         0.00000E+00
    0.24787E-07         0.92071E-12         0.00000E+00
    0.24819E-07         0.94850E-12         0.00000E+00
    0.24838E-07         0.90954E-12         0.00000E+00
    0.24847E-07         0.78135E-12         0.00000E+00
    0.24849E-07         0.34700E-12         0.00000E+00
    0.68473E-08         0.55468E-12         0.00000E+00
    0.68453E-08         0.12929E-11         0.00000E+00
    0.68470E-08         0.15692E-11         0.00000E+00
    0.68535E-08         0.16890E-11         0.00000E+00
    0.68656E-08         0.17033E-11         0.00000E+00
    0.68837E-08         0.16517E-11         0.00000E+00
    0.69082E-08         0.15581E-11         0.00000E+00
    0.69394E-08         0.14398E-11         0.00000E+00
    0.69774E-08         0.13091E-11         0.00000E+00
    0.70223E-08         0.11746E-11         0.00000E+00
    0.70742E-08         0.10420E-11         0.00000E+00
    0.71331E-08         0.91497E-12         0.00000E+00
    0.71990E-08         0.79565E-12         0.00000E+00
    0.72718E-08         0.68507E-12         0.00000E+00
    0.73515E-08         0.58351E-12         0.00000E+00
    0.74380E-08         0.49075E-12         0.00000E+00
    0.75313E-08         0.40626E-12         0.00000E+00
    0.76312E-08         0.32932E-12         0.00000E+00
    0.77378E-08         0.25914E-12         0.00000E+00
    0.78510E-08         0.19491E-12         0.00000E+00
    0.79707E-08         0.13582E-12         0.00000E+00
    0.80968E-08         0.81120E-13         0.00000E+00
    0.82294E-08         0.30112E-13         0.00000E+00
    0.83683E-08        -0.17837E-13         0.00000E+00
    0.85135E-08        -0.63294E-13         0.00000E+00
    0.86649E-08        -0.10676E-12         0.00000E+00
    0.88225E-08        -0.14869E-12         0.00000E+00
    0.89862E-08        -0.18946E-12         0.00000E+00
    0.91560E-08        -0.22942E-12         0.00000E+00
    0.93318E-08        -0.26886E-12         0.00000E+00
    0.95136E-08        -0.30803E-12         0.00000E+00
    0.97012E-08        -0.34716E-12         0.00000E+00
    0.98947E-08        -0.38643E-12         0.00000E+00
    0.10094E-07        -0.42600E-12         0.00000E+00
    0.10299E-07        -0.46600E-12         0.00000E+00
    0.10509E-07        -0.50655E-12         0.00000E+00
    0.10725E-07        -0.54773E-12         0.00000E+00
    0.10947E-07        -0.58962E-12         0.00000E+00
    0.11174E-07        -0.63227E-12         0.00000E+00
    0.11406E-07        -0.67571E-12         0.00000E+00
    0.11643E-07        -0.71997E-12         0.00000E+00
    0.11885E-07        -0.76505E-12         0.00000E+00
    0.12132E-07        -0.81094E-12         0.00000E+00
    0.12384E-07        -0.85761E-12         0.00000E+00
    0.12640E-07        -0.90503E-12         0.00000E+00
    0.12901E-07        -0.95314E-12         0.00000E+00
    0.13166E-07        -0.10019E-11         0.00000E+00
    0.13435E-07        -0.10511E-11         0.00000E+00
    0.13708E-07        -0.11008E-11         0.00000E+00
    0.13985E-07        -0.11509E-11         0.00000E+00
    0.14265E-07        -0.12011E-11         0.00000E+00
    0.14549E-07        -0.12513E-11         0.00000E+00
    0.14836E-07        -0.13014E-11         0.00000E+00
    0.15125E-07        -0.13512E-11         0.00000E+00
    0.15417E-07        -0.14005E-11         0.00000E+00
    0.15712E-07        -0.14491E-11         0.00000E+00
    0.16008E-07        -0.14967E-11         0.00000E+00
    0.16306E-07        -0.15430E-11         0.00000E+00
    0.16606E-07        -0.15878E-11         0.00000E+00
    0.16907E-07        -0.16308E-11         0.00000E+00
    0.17208E-07        -0.16717E-11         0.00000E+00
    0.17510E-07        -0.17100E-11         0.00000E+00
    0.17812E-07        -0.17454E-11         0.00000E+00
    0.18113E-07        -0.17776E-11         0.00000E+00
    0.18414E-07        -0.18060E-11         0.00000E+00
    0.18714E-07        -0.18302E-11         0.00000E+00
    0.19012E-07        -0.18497E-11         0.00000E+00
    0.19308E-07        -0.18640E-11         0.00000E+00
    0.19602E-07        -0.18725E-11         0.00000E+00
    0.19893E-07        -0.18745E-11         0.00000E+00
    0.20180E-07        -0.18695E-11         0.00000E+00
    0.20464E-07        -0.18567E-11         0.00000E+00
    0.20743E-07        -0.18354E-11         0.00000E+00
    0.21018E-07        -0.18047E-11         0.00000E+00
    0.21287E-07        -0.17637E-11         0.00000E+00
    0.21551E-07        -0.17114E-11         0.00000E+00
    0.21808E-07        -0.16468E-11         0.00000E+00
    0.22058E-07        -0.15688E-11         0.00000E+00
    0.22300E-07        -0.14761E-11         0.00000E+00
    0.22535E-07        -0.13674E-11         0.00000E+00
    0.22761E-07        -0.12413E-11         0.00000E+00
    0.22978E-07        -0.10964E-11         0.00000E+00
    0.23185E-07        -0.93116E-12         0.00000E+00
    0.23382E-07        -0.74417E-12         0.00000E+00
    0.23568E-07        -0.53411E-12         0.00000E+00
    0.23743E-07        -0.29989E-12         0.00000E+00
    0.23906E-07        -0.40897E-13         0.00000E+00
    0.24057E-07         0.24279E-12         0.00000E+00
    0.24196E-07         0.55001E-12         0.00000E+00
    0.24321E-07         0.87804E-12         0.00000E+00
    0.24433E-07         0.12219E-11         0.00000E+00
    0.24531E-07         0.15736E-11         0.00000E+00
    0.24616E-07         0.19209E-11         0.00000E+00
    0.24686E-07         0.22465E-11         0.00000E+00
    0.24743E-07         0.25259E-11         0.00000E+00
    0.24787E-07         0.27254E-11         0.00000E+00
    0.24819E-07         0.28001E-11         0.00000E+00
    0.24838E-07         0.26761E-11         0.00000E+00
    0.24847E-07         0.22625E-11         0.00000E+00
    0.24848E-07         0.98641E-12         0.00000E+00
    0.68476E-08         0.86256E-12         0.00000E+00
    0.68454E-08         0.20549E-11         0.00000E+00
    0.68470E-08         0.25422E-11         0.00000E+00
    0.68535E-08         0.27498E-11         0.00000E+00
    0.68656E-08         0.27818E-11         0.00000E+00
    0.68837E-08         0.27013E-11         0.00000E+00
    0.69082E-08         0.25499E-11         0.00000E+00
    0.69393E-08         0.23567E-11         0.00000E+00
    0.69774E-08         0.21425E-11         0.00000E+00
    0.70223E-08         0.19216E-11         0.00000E+00
    0.70742E-08         0.17037E-11         0.00000E+00
    0.71331E-08         0.14951E-11         0.00000E+00
    0.71990E-08         0.12992E-11         0.00000E+00
    0.72718E-08         0.11177E-11         0.00000E+00
    0.73515E-08         0.95124E-12         0.00000E+00
    0.74380E-08         0.79930E-12         0.00000E+00
    0.75312E-08         0.66103E-12         0.00000E+00
    0.76312E-08         0.53523E-12         0.00000E+00
    0.77378E-08         0.42057E-12         0.00000E+00
    0.78510E-08         0.31571E-12         0.00000E+00
    0.79707E-08         0.21931E-12         0.00000E+00
    0.80968E-08         0.13011E-12         0.00000E+00
    0.82294E-08         0.46978E-13         0.00000E+00
    0.83683E-08        -0.31148E-13         0.00000E+00
    0.85135E-08        -0.10520E-12         0.00000E+00
    0.86649E-08        -0.17601E-12         0.00000E+00
    0.88225E-08        -0.24431E-12         0.00000E+00
    0.89862E-08        -0.31073E-12         0.00000E+00
    0.91560E-08        -0.37584E-12         0.00000E+00
    0.93318E-08        -0.44012E-12         0.00000E+00
    0.95136E-08        -0.50398E-12         0.00000E+00
    0.97012E-08        -0.56779E-12         0.00000E+00
    0.98947E-08        -0.63184E-12         0.00000E+00
    0.10094E-07        -0.69640E-12         0.00000E+00
    0.10299E-07        -0.76169E-12         0.00000E+00
    0.10509E-07        -0.82789E-12         0.00000E+00
    0.10725E-07        -0.89514E-12         0.00000E+00
    0.10947E-07        -0.96356E-12         0.00000E+00
    0.11174E-07        -0.10332E-11         0.00000E+00
    0.11406E-07        -0.11042E-11         0.00000E+00
    0.11643E-07        -0.11766E-11         0.00000E+00
    0.11885E-07        -0.12502E-11         0.00000E+00
    0.12132E-07        -0.13253E-11         0.00000E+00
    0.12384E-07        -0.14016E-11         0.00000E+00
    0.12640E-07        -0.14791E-11         0.00000E+00
    0.12901E-07        -0.15578E-11         0.00000E+00
    0.13166E-07        -0.16376E-11         0.00000E+00
    0.13435E-07        -0.17182E-11         0.00000E+00
    0.13708E-07        -0.17995E-11         0.00000E+00
    0.13985E-07        -0.18814E-11         0.00000E+00
    0.14265E-07        -0.19636E-11         0.00000E+00
    0.14549E-07        -0.20458E-11         0.00000E+00
    0.14836E-07        -0.21279E-11         0.00000E+00
    0.15125E-07        -0.22095E-11         0.00000E+00
    0.15417E-07        -0.22902E-11         0.00000E+00
    0.15712E-07        -0.23698E-11         0.00000E+00
    0.16008E-07        -0.24478E-11         0.00000E+00
    0.16306E-07        -0.25237E-11         0.00000E+00
    0.16606E-07        -0.25972E-11         0.00000E+00
    0.16907E-07        -0.26677E-11         0.00000E+00
    0.17208E-07        -0.27347E-11         0.00000E+00
    0.17510E-07        -0.27977E-11         0.00000E+00
    0.17812E-07        -0.28559E-11         0.00000E+00
    0.18113E-07        -0.29087E-11         0.00000E+00
    0.18414E-07        -0.29555E-11         0.00000E+00
    0.18714E-07        -0.29954E-11         0.00000E+00
    0.19012E-07        -0.30277E-11         0.00000E+00
    0.19308E-07        -0.30515E-11         0.00000E+00
    0.19602E-07        -0.30657E-11         0.00000E+00
    0.19893E-07        -0.30696E-11         0.00000E+00
    0.20180E-07        -0.30618E-11         0.00000E+00
    0.20464E-07        -0.30414E-11         0.00000E+00
    0.20743E-07        -0.30070E-11         0.00000E+00
    0.21018E-07        -0.29572E-11         0.00000E+00
    0.21287E-07        -0.28907E-11         0.00000E+00
    0.21551E-07        -0.28057E-11         0.00000E+00
    0.21808E-07        -0.27006E-11         0.00000E+00
    0.22058E-07        -0.25735E-11         0.00000E+00
    0.22300E-07        -0.24223E-11         0.00000E+00
    0.22535E-07        -0.22449E-11         0.00000E+00
    0.22761E-07        -0.20390E-11         0.00000E+00
    0.22978E-07        -0.18021E-11         0.00000E+00
    0.23185E-07        -0.15318E-11         0.00000E+00
    0.23382E-07        -0.12257E-11         0.00000E+00
    0.23568E-07        -0.88158E-12         0.00000E+00
    0.23743E-07        -0.49761E-12         0.00000E+00
    0.23906E-07        -0.72737E-13         0.00000E+00
    0.24058E-07         0.39294E-12         0.00000E+00
    0.24196E-07         0.89753E-12         0.00000E+00
    0.24321E-07         0.14365E-11         0.00000E+00
    0.24433E-07         0.20015E-11         0.00000E+00
    0.24531E-07         0.25792E-11         0.00000E+00
    0.24616E-07         0.31493E-11         0.00000E+00
    0.24686E-07         0.36822E-11         0.00000E+00
    0.24743E-07         0.41367E-11         0.00000E+00
    0.24787E-07         0.44562E-11         0.00000E+00
    0.24819E-07         0.45622E-11         0.00000E+00
    0.24838E-07         0.43371E-11         0.00000E+00
    0.24847E-07         0.35918E-11         0.00000E+00
    0.24848E-07         0.15299E-11         0.00000E+00
    0.68480E-08         0.11303E-11         0.00000E+00
    0.68455E-08         0.27435E-11         0.00000E+00
    0.68471E-08         0.34531E-11         0.00000E+00
    0.68536E-08         0.37562E-11         0.00000E+00
    0.68656E-08         0.38114E-11         0.00000E+00
    0.68836E-08         0.37067E-11         0.00000E+00
    0.69081E-08         0.35013E-11         0.00000E+00
    0.69393E-08         0.32364E-11         0.00000E+00
    0.69773E-08         0.29416E-11         0.00000E+00
    0.70222E-08         0.26372E-11         0.00000E+00
    0.70741E-08         0.23369E-11         0.00000E+00
    0.71331E-08         0.20493E-11         0.00000E+00
    0.71989E-08         0.17794E-11         0.00000E+00
    0.72717E-08         0.15297E-11         0.00000E+00
    0.73514E-08         0.13007E-11         0.00000E+00
    0.74379E-08         0.10919E-11         0.00000E+00
    0.75312E-08         0.90200E-12         0.00000E+00
    0.76312E-08         0.72944E-12         0.00000E+00
    0.77378E-08         0.57230E-12         0.00000E+00
    0.78510E-08         0.42870E-12         0.00000E+00
    0.79707E-08         0.29677E-12         0.00000E+00
    0.80968E-08         0.17478E-12         0.00000E+00
    0.82294E-08         0.61130E-13         0.00000E+00
    0.83683E-08        -0.45641E-13         0.00000E+00
    0.85134E-08        -0.14682E-12         0.00000E+00
    0.86649E-08        -0.24357E-12         0.00000E+00
    0.88225E-08        -0.33689E-12         0.00000E+00
    0.89862E-08        -0.42766E-12         0.00000E+00
    0.91560E-08        -0.51665E-12         0.00000E+00
    0.93318E-08        -0.60453E-12         0.00000E+00
    0.95135E-08        -0.69186E-12         0.00000E+00
    0.97012E-08        -0.77914E-12         0.00000E+00
    0.98947E-08        -0.86679E-12         0.00000E+00
    0.10094E-07        -0.95516E-12         0.00000E+00
    0.10299E-07        -0.10446E-11         0.00000E+00
    0.10509E-07        -0.11352E-11         0.00000E+00
    0.10725E-07        -0.12273E-11         0.00000E+00
    0.10947E-07        -0.13211E-11         0.00000E+00
    0.11174E-07        -0.14166E-11         0.00000E+00
    0.11406E-07        -0.15139E-11         0.00000E+00
    0.11643E-07        -0.16131E-11         0.00000E+00
    0.11885E-07        -0.17142E-11         0.00000E+00
    0.12132E-07        -0.18171E-11         0.00000E+00
    0.12384E-07        -0.19218E-11         0.00000E+00
    0.12640E-07        -0.20282E-11         0.00000E+00
    0.12901E-07        -0.21362E-11         0.00000E+00
    0.13166E-07        -0.22456E-11         0.00000E+00
    0.13435E-07        -0.23563E-11         0.00000E+00
    0.13708E-07        -0.24680E-11         0.00000E+00
    0.13985E-07        -0.25804E-11         0.00000E+00
    0.14265E-07        -0.26933E-11         0.00000E+00
    0.14549E-07        -0.28063E-11         0.00000E+00
    0.14836E-07        -0.29190E-11         0.00000E+00
    0.15125E-07        -0.30311E-11         0.00000E+00
    0.15417E-07        -0.31421E-11         0.00000E+00
    0.15712E-07        -0.32515E-11         0.00000E+00
    0.16008E-07        -0.33587E-11         0.00000E+00
    0.16306E-07        -0.34632E-11         0.00000E+00
    0.16606E-07        -0.35643E-11         0.00000E+00
    0.16907E-07        -0.36614E-11         0.00000E+00
    0.17208E-07        -0.37537E-11         0.00000E+00
    0.17510E-07        -0.38404E-11         0.00000E+00
    0.17812E-07        -0.39207E-11         0.00000E+00
    0.18113E-07        -0.39936E-11         0.00000E+00
    0.18414E-07        -0.40583E-11         0.00000E+00
    0.18714E-07        -0.41135E-11         0.00000E+00
    0.19012E-07        -0.41583E-11         0.00000E+00
    0.19308E-07        -0.41915E-11         0.00000E+00
    0.19602E-07        -0.42117E-11         0.00000E+00
    0.19893E-07        -0.42175E-11         0.00000E+00
    0.20180E-07        -0.42076E-11         0.00000E+00
    0.20464E-07        -0.41802E-11         0.00000E+00
    0.20743E-07        -0.41338E-11         0.00000E+00
    0.21018E-07        -0.40662E-11         0.00000E+00
    0.21287E-07        -0.39757E-11         0.00000E+00
    0.21551E-07        -0.38599E-11         0.00000E+00
    0.21808E-07        -0.37164E-11         0.00000E+00
    0.22058E-07        -0.35427E-11         0.00000E+00
    0.22300E-07        -0.33359E-11         0.00000E+00
    0.22535E-07        -0.30931E-11         0.00000E+00
    0.22761E-07        -0.28109E-11         0.00000E+00
    0.22978E-07        -0.24861E-11         0.00000E+00
    0.23185E-07        -0.21151E-11         0.00000E+00
    0.23382E-07        -0.16947E-11         0.00000E+00
    0.23568E-07        -0.12217E-11         0.00000E+00
    0.23743E-07        -0.69358E-12         0.00000E+00
    0.23907E-07        -0.10875E-12         0.00000E+00
    0.24058E-07         0.53267E-12         0.00000E+00
    0.24196E-07         0.12281E-11         0.00000E+00
    0.24321E-07         0.19711E-11         0.00000E+00
    0.24433E-07         0.27503E-11         0.00000E+00
    0.24531E-07         0.35468E-11         0.00000E+00
    0.24616E-07         0.43318E-11         0.00000E+00
    0.24687E-07         0.50638E-11         0.00000E+00
    0.24744E-07         0.56842E-11         0.00000E+00
    0.24787E-07         0.61128E-11         0.00000E+00
    0.24819E-07         0.62370E-11         0.00000E+00
    0.24838E-07         0.58935E-11         0.00000E+00
    0.24847E-07         0.47904E-11         0.00000E+00
    0.24847E-07         0.20002E-11         0.00000E+00
    0.68485E-08         0.13664E-11         0.00000E+00
    0.68458E-08         0.33685E-11         0.00000E+00
    0.68472E-08         0.43043E-11         0.00000E+00
    0.68536E-08         0.47093E-11         0.00000E+00
    0.68656E-08         0.47925E-11         0.00000E+00
    0.68836E-08         0.46677E-11         0.00000E+00
    0.69081E-08         0.44118E-11         0.00000E+00
    0.69392E-08         0.40785E-11         0.00000E+00
    0.69772E-08         0.37062E-11         0.00000E+00
    0.70222E-08         0.33212E-11         0.00000E+00
    0.70741E-08         0.29412E-11         0.00000E+00
    0.71330E-08         0.25774E-11         0.00000E+00
    0.71989E-08         0.22362E-11         0.00000E+00
    0.72717E-08         0.19207E-11         0.00000E+00
    0.73514E-08         0.16317E-11         0.00000E+00
    0.74379E-08         0.13684E-11         0.00000E+00
    0.75312E-08         0.11292E-11         0.00000E+00
    0.76311E-08         0.91198E-12         0.00000E+00
    0.77377E-08         0.71437E-12         0.00000E+00
    0.78509E-08         0.53392E-12         0.00000E+00
    0.79706E-08         0.36826E-12         0.00000E+00
    0.80968E-08         0.21517E-12         0.00000E+00
    0.82293E-08         0.72611E-13         0.00000E+00
    0.83682E-08        -0.61274E-13         0.00000E+00
    0.85134E-08        -0.18813E-12         0.00000E+00
    0.86648E-08        -0.30942E-12         0.00000E+00
    0.88224E-08        -0.42641E-12         0.00000E+00
    0.89862E-08        -0.54023E-12         0.00000E+00
    0.91560E-08        -0.65184E-12         0.00000E+00
    0.93318E-08        -0.76207E-12         0.00000E+00
    0.95135E-08        -0.87166E-12         0.00000E+00
    0.97012E-08        -0.98122E-12         0.00000E+00
    0.98947E-08        -0.10913E-11         0.00000E+00
    0.10094E-07        -0.12023E-11         0.00000E+00
    0.10299E-07        -0.13146E-11         0.00000E+00
    0.10509E-07        -0.14285E-11         0.00000E+00
    0.10725E-07        -0.15444E-11         0.00000E+00
    0.10947E-07        -0.16623E-11         0.00000E+00
    0.11174E-07        -0.17824E-11         0.00000E+00
    0.11406E-07        -0.19048E-11         0.00000E+00
    0.11643E-07        -0.20296E-11         0.00000E+00
    0.11885E-07        -0.21568E-11         0.00000E+00
    0.12132E-07        -0.22864E-11         0.00000E+00
    0.12384E-07        -0.24182E-11         0.00000E+00
    0.12640E-07        -0.25522E-11         0.00000E+00
    0.12901E-07        -0.26882E-11         0.00000E+00
    0.13166E-07        -0.28261E-11         0.00000E+00
    0.13435E-07        -0.29655E-11         0.00000E+00
    0.13708E-07        -0.31062E-11         0.00000E+00
    0.13985E-07        -0.32479E-11         0.00000E+00
    0.14265E-07        -0.33902E-11         0.00000E+00
    0.14549E-07        -0.35326E-11         0.00000E+00
    0.14836E-07        -0.36748E-11         0.00000E+00
    0.15125E-07        -0.38162E-11         0.00000E+00
    0.15417E-07        -0.39562E-11         0.00000E+00
    0.15712E-07        -0.40942E-11         0.00000E+00
    0.16008E-07        -0.42295E-11         0.00000E+00
    0.16306E-07        -0.43614E-11         0.00000E+00
    0.16606E-07        -0.44891E-11         0.00000E+00
    0.16907E-07        -0.46118E-11         0.00000E+00
    0.17208E-07        -0.47284E-11         0.00000E+00
    0.17510E-07        -0.48381E-11         0.00000E+00
    0.17812E-07        -0.49397E-11         0.00000E+00
    0.18113E-07        -0.50321E-11         0.00000E+00
    0.18414E-07        -0.51141E-11         0.00000E+00
    0.18714E-07        -0.51843E-11         0.00000E+00
    0.19012E-07        -0.52414E-11         0.00000E+00
    0.19308E-07        -0.52839E-11         0.00000E+00
    0.19602E-07        -0.53101E-11         0.00000E+00
    0.19893E-07        -0.53183E-11         0.00000E+00
    0.20180E-07        -0.53067E-11         0.00000E+00
    0.20464E-07        -0.52731E-11         0.00000E+00
    0.20743E-07        -0.52155E-11         0.00000E+00
    0.21018E-07        -0.51315E-11         0.00000E+00
    0.21287E-07        -0.50185E-11         0.00000E+00
    0.21551E-07        -0.48736E-11         0.00000E+00
    0.21808E-07        -0.46940E-11         0.00000E+00
    0.22058E-07        -0.44762E-11         0.00000E+00
    0.22300E-07        -0.42167E-11         0.00000E+00
    0.22535E-07        -0.39116E-11         0.00000E+00
    0.22761E-07        -0.35568E-11         0.00000E+00
    0.22978E-07        -0.31481E-11         0.00000E+00
    0.23185E-07        -0.26810E-11         0.00000E+00
    0.23382E-07        -0.21511E-11         0.00000E+00
    0.23568E-07        -0.15546E-11         0.00000E+00
    0.23743E-07        -0.88790E-12         0.00000E+00
    0.23907E-07        -0.14916E-12         0.00000E+00
    0.24058E-07         0.66162E-12         0.00000E+00
    0.24196E-07         0.15412E-11         0.00000E+00
    0.24321E-07         0.24814E-11         0.00000E+00
    0.24433E-07         0.34675E-11         0.00000E+00
    0.24532E-07         0.44753E-11         0.00000E+00
    0.24616E-07         0.54675E-11         0.00000E+00
    0.24687E-07         0.63904E-11         0.00000E+00
    0.24744E-07         0.71680E-11         0.00000E+00
    0.24787E-07         0.76953E-11         0.00000E+00
    0.24819E-07         0.78262E-11         0.00000E+00
    0.24838E-07         0.73488E-11         0.00000E+00
    0.24847E-07         0.58764E-11         0.00000E+00
    0.24846E-07         0.24132E-11         0.00000E+00
    0.68491E-08         0.15769E-11         0.00000E+00
    0.68460E-08         0.39382E-11         0.00000E+00
    0.68474E-08         0.50986E-11         0.00000E+00
    0.68536E-08         0.56103E-11         0.00000E+00
    0.68656E-08         0.57255E-11         0.00000E+00
    0.68836E-08         0.55844E-11         0.00000E+00
    0.69080E-08         0.52812E-11         0.00000E+00
    0.69392E-08         0.48827E-11         0.00000E+00
    0.69771E-08         0.44358E-11         0.00000E+00
    0.70221E-08         0.39732E-11         0.00000E+00
    0.70740E-08         0.35164E-11         0.00000E+00
    0.71329E-08         0.30793E-11         0.00000E+00
    0.71988E-08         0.26695E-11         0.00000E+00
    0.72716E-08         0.22908E-11         0.00000E+00
    0.73513E-08         0.19442E-11         0.00000E+00
    0.74378E-08         0.16288E-11         0.00000E+00
    0.75311E-08         0.13426E-11         0.00000E+00
    0.76311E-08         0.10829E-11         0.00000E+00
    0.77377E-08         0.84680E-12         0.00000E+00
    0.78509E-08         0.63141E-12         0.00000E+00
    0.79706E-08         0.43382E-12         0.00000E+00
    0.80968E-08         0.25134E-12         0.00000E+00
    0.82293E-08         0.81472E-13         0.00000E+00
    0.83682E-08        -0.78003E-13         0.00000E+00
    0.85134E-08        -0.22908E-12         0.00000E+00
    0.86648E-08        -0.37351E-12         0.00000E+00
    0.88224E-08        -0.51284E-12         0.00000E+00
    0.89861E-08        -0.64841E-12         0.00000E+00
    0.91559E-08        -0.78137E-12         0.00000E+00
    0.93317E-08        -0.91274E-12         0.00000E+00
    0.95135E-08        -0.10434E-11         0.00000E+00
    0.97012E-08        -0.11740E-11         0.00000E+00
    0.98946E-08        -0.13053E-11         0.00000E+00
    0.10094E-07        -0.14377E-11         0.00000E+00
    0.10299E-07        -0.15718E-11         0.00000E+00
    0.10509E-07        -0.17079E-11         0.00000E+00
    0.10725E-07        -0.18462E-11         0.00000E+00
    0.10947E-07        -0.19870E-11         0.00000E+00
    0.11174E-07        -0.21306E-11         0.00000E+00
    0.11406E-07        -0.22769E-11         0.00000E+00
    0.11643E-07        -0.24261E-11         0.00000E+00
    0.11885E-07        -0.25782E-11         0.00000E+00
    0.12132E-07        -0.27331E-11         0.00000E+00
    0.12384E-07        -0.28908E-11         0.00000E+00
    0.12640E-07        -0.30511E-11         0.00000E+00
    0.12901E-07        -0.32139E-11         0.00000E+00
    0.13166E-07        -0.33789E-11         0.00000E+00
    0.13435E-07        -0.35457E-11         0.00000E+00
    0.13708E-07        -0.37142E-11         0.00000E+00
    0.13985E-07        -0.38838E-11         0.00000E+00
    0.14265E-07        -0.40542E-11         0.00000E+00
    0.14549E-07        -0.42249E-11         0.00000E+00
    0.14836E-07        -0.43952E-11         0.00000E+00
    0.15125E-07        -0.45646E-11         0.00000E+00
    0.15417E-07        -0.47324E-11         0.00000E+00
    0.15712E-07        -0.48978E-11         0.00000E+00
    0.16008E-07        -0.50601E-11         0.00000E+00
    0.16306E-07        -0.52183E-11         0.00000E+00
    0.16606E-07        -0.53716E-11         0.00000E+00
    0.16907E-07        -0.55188E-11         0.00000E+00
    0.17208E-07        -0.56589E-11         0.00000E+00
    0.17510E-07        -0.57906E-11         0.00000E+00
    0.17812E-07        -0.59128E-11         0.00000E+00
    0.18113E-07        -0.60240E-11         0.00000E+00
    0.18414E-07        -0.61228E-11         0.00000E+00
    0.18714E-07        -0.62076E-11         0.00000E+00
    0.19012E-07        -0.62768E-11         0.00000E+00
    0.19308E-07        -0.63285E-11         0.00000E+00
    0.19602E-07        -0.63608E-11         0.00000E+00
    0.19893E-07        -0.63716E-11         0.00000E+00
    0.20180E-07        -0.63588E-11         0.00000E+00
    0.20464E-07        -0.63198E-11         0.00000E+00
    0.20744E-07        -0.62520E-11         0.00000E+00
    0.21018E-07        -0.61527E-11         0.00000E+00
    0.21287E-07        -0.60187E-11         0.00000E+00
    0.21551E-07        -0.58467E-11         0.00000E+00
    0.21808E-07        -0.56330E-11         0.00000E+00
    0.22058E-07        -0.53736E-11         0.00000E+00
    0.22300E-07        -0.50643E-11         0.00000E+00
    0.22535E-07        -0.47002E-11         0.00000E+00
    0.22761E-07        -0.42765E-11         0.00000E+00
    0.22978E-07        -0.37880E-11         0.00000E+00
    0.23185E-07        -0.32292E-11         0.00000E+00
    0.23382E-07        -0.25949E-11         0.00000E+00
    0.23569E-07        -0.18800E-11         0.00000E+00
    0.23744E-07        -0.10806E-11         0.00000E+00
    0.23907E-07        -0.19414E-12         0.00000E+00
    0.24058E-07         0.77949E-12         0.00000E+00
    0.24196E-07         0.18363E-11         0.00000E+00
    0.24322E-07         0.29667E-11         0.00000E+00
    0.24434E-07         0.41524E-11         0.00000E+00
    0.24532E-07         0.53639E-11         0.00000E+00
    0.24616E-07         0.65557E-11         0.00000E+00
    0.24687E-07         0.76614E-11         0.00000E+00
    0.24744E-07         0.85875E-11         0.00000E+00
    0.24788E-07         0.92043E-11         0.00000E+00
    0.24819E-07         0.93317E-11         0.00000E+00
    0.24838E-07         0.87080E-11         0.00000E+00
    0.24846E-07         0.68654E-11         0.00000E+00
    0.24845E-07         0.27807E-11         0.00000E+00
    0.68497E-08         0.17665E-11         0.00000E+00
    0.68464E-08         0.44595E-11         0.00000E+00
    0.68475E-08         0.58393E-11         0.00000E+00
    0.68537E-08         0.64604E-11         0.00000E+00
    0.68656E-08         0.66110E-11         0.00000E+00
    0.68835E-08         0.64566E-11         0.00000E+00
    0.69079E-08         0.61094E-11         0.00000E+00
    0.69391E-08         0.56487E-11         0.00000E+00
    0.69770E-08         0.51303E-11         0.00000E+00
    0.70220E-08         0.45929E-11         0.00000E+00
    0.70739E-08         0.40623E-11         0.00000E+00
    0.71328E-08         0.35546E-11         0.00000E+00
    0.71987E-08         0.30790E-11         0.00000E+00
    0.72715E-08         0.26399E-11         0.00000E+00
    0.73512E-08         0.22383E-11         0.00000E+00
    0.74378E-08         0.18732E-11         0.00000E+00
    0.75311E-08         0.15422E-11         0.00000E+00
    0.76310E-08         0.12421E-11         0.00000E+00
    0.77377E-08         0.96965E-12         0.00000E+00
    0.78509E-08         0.72124E-12         0.00000E+00
    0.79706E-08         0.49352E-12         0.00000E+00
    0.80967E-08         0.28333E-12         0.00000E+00
    0.82293E-08         0.87768E-13         0.00000E+00
    0.83682E-08        -0.95774E-13         0.00000E+00
    0.85134E-08        -0.26962E-12         0.00000E+00
    0.86648E-08        -0.43581E-12         0.00000E+00
    0.88224E-08        -0.59614E-12         0.00000E+00
    0.89861E-08        -0.75216E-12         0.00000E+00
    0.91559E-08        -0.90523E-12         0.00000E+00
    0.93317E-08        -0.10565E-11         0.00000E+00
    0.95135E-08        -0.12070E-11         0.00000E+00
    0.97011E-08        -0.13575E-11         0.00000E+00
    0.98946E-08        -0.15088E-11         0.00000E+00
    0.10094E-07        -0.16616E-11         0.00000E+00
    0.10299E-07        -0.18162E-11         0.00000E+00
    0.10509E-07        -0.19732E-11         0.00000E+00
    0.10725E-07        -0.21328E-11         0.00000E+00
    0.10947E-07        -0.22954E-11         0.00000E+00
    0.11174E-07        -0.24612E-11         0.00000E+00
    0.11406E-07        -0.26302E-11         0.00000E+00
    0.11643E-07        -0.28026E-11         0.00000E+00
    0.11885E-07        -0.29783E-11         0.00000E+00
    0.12132E-07        -0.31574E-11         0.00000E+00
    0.12384E-07        -0.33397E-11         0.00000E+00
    0.12640E-07        -0.35250E-11         0.00000E+00
    0.12901E-07        -0.37132E-11         0.00000E+00
    0.13166E-07        -0.39040E-11         0.00000E+00
    0.13435E-07        -0.40970E-11         0.00000E+00
    0.13708E-07        -0.42919E-11         0.00000E+00
    0.13985E-07        -0.44883E-11         0.00000E+00
    0.14265E-07        -0.46855E-11         0.00000E+00
    0.14549E-07        -0.48830E-11         0.00000E+00
    0.14836E-07        -0.50802E-11         0.00000E+00
    0.15125E-07        -0.52763E-11         0.00000E+00
    0.15417E-07        -0.54707E-11         0.00000E+00
    0.15712E-07        -0.56624E-11         0.00000E+00
    0.16008E-07        -0.58504E-11         0.00000E+00
    0.16306E-07        -0.60338E-11         0.00000E+00
    0.16606E-07        -0.62115E-11         0.00000E+00
    0.16907E-07        -0.63823E-11         0.00000E+00
    0.17208E-07        -0.65449E-11         0.00000E+00
    0.17510E-07        -0.66979E-11         0.00000E+00
    0.17812E-07        -0.68399E-11         0.00000E+00
    0.18113E-07        -0.69693E-11         0.00000E+00
    0.18414E-07        -0.70844E-11         0.00000E+00
    0.18714E-07        -0.71834E-11         0.00000E+00
    0.19012E-07        -0.72643E-11         0.00000E+00
    0.19308E-07        -0.73252E-11         0.00000E+00
    0.19602E-07        -0.73636E-11         0.00000E+00
    0.19893E-07        -0.73774E-11         0.00000E+00
    0.20180E-07        -0.73638E-11         0.00000E+00
    0.20464E-07        -0.73200E-11         0.00000E+00
    0.20744E-07        -0.72431E-11         0.00000E+00
    0.21018E-07        -0.71297E-11         0.00000E+00
    0.21287E-07        -0.69763E-11         0.00000E+00
    0.21551E-07        -0.67789E-11         0.00000E+00
    0.21808E-07        -0.65333E-11         0.00000E+00
    0.22058E-07        -0.62348E-11         0.00000E+00
    0.22300E-07        -0.58785E-11         0.00000E+00
    0.22535E-07        -0.54587E-11         0.00000E+00
    0.22761E-07        -0.49698E-11         0.00000E+00
    0.22978E-07        -0.44055E-11         0.00000E+00
    0.23185E-07        -0.37596E-11         0.00000E+00
    0.23382E-07        -0.30258E-11         0.00000E+00
    0.23569E-07        -0.21981E-11         0.00000E+00
    0.23744E-07        -0.12719E-11         0.00000E+00
    0.23907E-07        -0.24385E-12         0.00000E+00
    0.24058E-07         0.88600E-12         0.00000E+00
    0.24197E-07         0.21132E-11         0.00000E+00
    0.24322E-07         0.34263E-11         0.00000E+00
    0.24434E-07         0.48042E-11         0.00000E+00
    0.24532E-07         0.62118E-11         0.00000E+00
    0.24616E-07         0.75954E-11         0.00000E+00
    0.24687E-07         0.88761E-11         0.00000E+00
    0.24744E-07         0.99426E-11         0.00000E+00
    0.24788E-07         0.10640E-10         0.00000E+00
    0.24818E-07         0.10755E-10         0.00000E+00
    0.24837E-07         0.99768E-11         0.00000E+00
    0.24846E-07         0.77701E-11         0.00000E+00
    0.24844E-07         0.31113E-11         0.00000E+00
    0.68505E-08         0.19385E-11         0.00000E+00
    0.68468E-08         0.49381E-11         0.00000E+00
    0.68477E-08         0.65296E-11         0.00000E+00
    0.68538E-08         0.72612E-11         0.00000E+00
    0.68655E-08         0.74494E-11         0.00000E+00
    0.68835E-08         0.72845E-11         0.00000E+00
    0.69078E-08         0.68962E-11         0.00000E+00
    0.69390E-08         0.63761E-11         0.00000E+00
    0.69769E-08         0.57892E-11         0.00000E+00
    0.70219E-08         0.51801E-11         0.00000E+00
    0.70738E-08         0.45786E-11         0.00000E+00
    0.71327E-08         0.40033E-11         0.00000E+00
    0.71986E-08         0.34647E-11         0.00000E+00
    0.72714E-08         0.29678E-11         0.00000E+00
    0.73512E-08         0.25138E-11         0.00000E+00
    0.74377E-08         0.21015E-11         0.00000E+00
    0.75310E-08         0.17280E-11         0.00000E+00
    0.76310E-08         0.13898E-11         0.00000E+00
    0.77376E-08         0.10830E-11         0.00000E+00
    0.78508E-08         0.80346E-12         0.00000E+00
    0.79705E-08         0.54741E-12         0.00000E+00
    0.80967E-08         0.31122E-12         0.00000E+00
    0.82292E-08         0.91564E-13         0.00000E+00
    0.83681E-08        -0.11453E-12         0.00000E+00
    0.85133E-08        -0.30969E-12         0.00000E+00
    0.86647E-08        -0.49626E-12         0.00000E+00
    0.88223E-08        -0.67627E-12         0.00000E+00
    0.89861E-08        -0.85147E-12         0.00000E+00
    0.91559E-08        -0.10234E-11         0.00000E+00
    0.93317E-08        -0.11934E-11         0.00000E+00
    0.95134E-08        -0.13625E-11         0.00000E+00
    0.97011E-08        -0.15317E-11         0.00000E+00
    0.98946E-08        -0.17019E-11         0.00000E+00
    0.10094E-07        -0.18737E-11         0.00000E+00
    0.10299E-07        -0.20478E-11         0.00000E+00
    0.10509E-07        -0.22245E-11         0.00000E+00
    0.10725E-07        -0.24043E-11         0.00000E+00
    0.10947E-07        -0.25874E-11         0.00000E+00
    0.11174E-07        -0.27742E-11         0.00000E+00
    0.11406E-07        -0.29647E-11         0.00000E+00
    0.11643E-07        -0.31590E-11         0.00000E+00
    0.11885E-07        -0.33572E-11         0.00000E+00
    0.12132E-07        -0.35591E-11         0.00000E+00
    0.12384E-07        -0.37647E-11         0.00000E+00
    0.12640E-07        -0.39739E-11         0.00000E+00
    0.12901E-07        -0.41862E-11         0.00000E+00
    0.13166E-07        -0.44015E-11         0.00000E+00
    0.13435E-07        -0.46194E-11         0.00000E+00
    0.13708E-07        -0.48395E-11         0.00000E+00
    0.13985E-07        -0.50611E-11         0.00000E+00
    0.14265E-07        -0.52838E-11         0.00000E+00
    0.14549E-07        -0.55069E-11         0.00000E+00
    0.14836E-07        -0.57297E-11         0.00000E+00
    0.15125E-07        -0.59514E-11         0.00000E+00
    0.15417E-07        -0.61710E-11         0.00000E+00
    0.15712E-07        -0.63877E-11         0.00000E+00
    0.16008E-07        -0.66004E-11         0.00000E+00
    0.16306E-07        -0.68078E-11         0.00000E+00
    0.16606E-07        -0.70089E-11         0.00000E+00
    0.16907E-07        -0.72022E-11         0.00000E+00
    0.17208E-07        -0.73864E-11         0.00000E+00
    0.17510E-07        -0.75598E-11         0.00000E+00
    0.17812E-07        -0.77209E-11         0.00000E+00
    0.18113E-07        -0.78678E-11         0.00000E+00
    0.18414E-07        -0.79986E-11         0.00000E+00
    0.18714E-07        -0.81113E-11         0.00000E+00
    0.19012E-07        -0.82038E-11         0.00000E+00
    0.19308E-07        -0.82736E-11         0.00000E+00
    0.19602E-07        -0.83184E-11         0.00000E+00
    0.19893E-07        -0.83352E-11         0.00000E+00
    0.20180E-07        -0.83213E-11         0.00000E+00
    0.20464E-07        -0.82735E-11         0.00000E+00
    0.20744E-07        -0.81884E-11         0.00000E+00
    0.21018E-07        -0.80621E-11         0.00000E+00
    0.21287E-07        -0.78908E-11         0.00000E+00
    0.21551E-07        -0.76698E-11         0.00000E+00
    0.21808E-07        -0.73945E-11         0.00000E+00
    0.22058E-07        -0.70594E-11         0.00000E+00
    0.22300E-07        -0.66590E-11         0.00000E+00
    0.22535E-07        -0.61868E-11         0.00000E+00
    0.22761E-07        -0.56363E-11         0.00000E+00
    0.22978E-07        -0.50005E-11         0.00000E+00
    0.23185E-07        -0.42720E-11         0.00000E+00
    0.23383E-07        -0.34437E-11         0.00000E+00
    0.23569E-07        -0.25088E-11         0.00000E+00
    0.23744E-07        -0.14615E-11         0.00000E+00
    0.23907E-07        -0.29840E-12         0.00000E+00
    0.24058E-07         0.98089E-12         0.00000E+00
    0.24197E-07         0.23713E-11         0.00000E+00
    0.24322E-07         0.38599E-11         0.00000E+00
    0.24434E-07         0.54223E-11         0.00000E+00
    0.24532E-07         0.70184E-11         0.00000E+00
    0.24617E-07         0.85859E-11         0.00000E+00
    0.24687E-07         0.10034E-10         0.00000E+00
    0.24744E-07         0.11233E-10         0.00000E+00
    0.24788E-07         0.12004E-10         0.00000E+00
    0.24818E-07         0.12100E-10         0.00000E+00
    0.24837E-07         0.11161E-10         0.00000E+00
    0.24845E-07         0.86015E-11         0.00000E+00
    0.24843E-07         0.34112E-11         0.00000E+00
    0.68513E-08         0.20955E-11         0.00000E+00
    0.68472E-08         0.53789E-11         0.00000E+00
    0.68479E-08         0.71727E-11         0.00000E+00
    0.68539E-08         0.80140E-11         0.00000E+00
    0.68655E-08         0.82414E-11         0.00000E+00
    0.68834E-08         0.80683E-11         0.00000E+00
    0.69077E-08         0.76413E-11         0.00000E+00
    0.69388E-08         0.70648E-11         0.00000E+00
    0.69768E-08         0.64122E-11         0.00000E+00
    0.70217E-08         0.57345E-11         0.00000E+00
    0.70737E-08         0.50651E-11         0.00000E+00
    0.71326E-08         0.44252E-11         0.00000E+00
    0.71985E-08         0.38265E-11         0.00000E+00
    0.72713E-08         0.32746E-11         0.00000E+00
    0.73511E-08         0.27708E-11         0.00000E+00
    0.74376E-08         0.23137E-11         0.00000E+00
    0.75309E-08         0.19001E-11         0.00000E+00
    0.76309E-08         0.15260E-11         0.00000E+00
    0.77375E-08         0.11868E-11         0.00000E+00
    0.78507E-08         0.87815E-12         0.00000E+00
    0.79705E-08         0.59558E-12         0.00000E+00
    0.80966E-08         0.33508E-12         0.00000E+00
    0.82292E-08         0.92932E-13         0.00000E+00
    0.83681E-08        -0.13419E-12         0.00000E+00
    0.85133E-08        -0.34925E-12         0.00000E+00
    0.86647E-08        -0.55482E-12         0.00000E+00
    0.88223E-08        -0.75318E-12         0.00000E+00
    0.89860E-08        -0.94628E-12         0.00000E+00
    0.91558E-08        -0.11358E-11         0.00000E+00
    0.93316E-08        -0.13232E-11         0.00000E+00
    0.95134E-08        -0.15098E-11         0.00000E+00
    0.97011E-08        -0.16966E-11         0.00000E+00
    0.98945E-08        -0.18845E-11         0.00000E+00
    0.10094E-07        -0.20743E-11         0.00000E+00
    0.10299E-07        -0.22665E-11         0.00000E+00
    0.10509E-07        -0.24618E-11         0.00000E+00
    0.10725E-07        -0.26606E-11         0.00000E+00
    0.10947E-07        -0.28631E-11         0.00000E+00
    0.11174E-07        -0.30697E-11         0.00000E+00
    0.11406E-07        -0.32804E-11         0.00000E+00
    0.11643E-07        -0.34955E-11         0.00000E+00
    0.11885E-07        -0.37148E-11         0.00000E+00
    0.12132E-07        -0.39384E-11         0.00000E+00
    0.12384E-07        -0.41660E-11         0.00000E+00
    0.12640E-07        -0.43976E-11         0.00000E+00
    0.12901E-07        -0.46329E-11         0.00000E+00
    0.13166E-07        -0.48714E-11         0.00000E+00
    0.13435E-07        -0.51128E-11         0.00000E+00
    0.13708E-07        -0.53567E-11         0.00000E+00
    0.13985E-07        -0.56024E-11         0.00000E+00
    0.14265E-07        -0.58493E-11         0.00000E+00
    0.14549E-07        -0.60967E-11         0.00000E+00
    0.14836E-07        -0.63438E-11         0.00000E+00
    0.15125E-07        -0.65897E-11         0.00000E+00
    0.15417E-07        -0.68334E-11         0.00000E+00
    0.15712E-07        -0.70739E-11         0.00000E+00
    0.16008E-07        -0.73099E-11         0.00000E+00
    0.16306E-07        -0.75403E-11         0.00000E+00
    0.16606E-07        -0.77637E-11         0.00000E+00
    0.16906E-07        -0.79785E-11         0.00000E+00
    0.17208E-07        -0.81833E-11         0.00000E+00
    0.17510E-07        -0.83762E-11         0.00000E+00
    0.17812E-07        -0.85556E-11         0.00000E+00
    0.18113E-07        -0.87193E-11         0.00000E+00
    0.18414E-07        -0.88653E-11         0.00000E+00
    0.18714E-07        -0.89914E-11         0.00000E+00
    0.19012E-07        -0.90951E-11         0.00000E+00
    0.19308E-07        -0.91738E-11         0.00000E+00
    0.19602E-07        -0.92248E-11         0.00000E+00
    0.19893E-07        -0.92450E-11         0.00000E+00
    0.20180E-07        -0.92313E-11         0.00000E+00
    0.20464E-07        -0.91801E-11         0.00000E+00
    0.20744E-07        -0.90876E-11         0.00000E+00
    0.21018E-07        -0.89497E-11         0.00000E+00
    0.21287E-07        -0.87619E-11         0.00000E+00
    0.21551E-07        -0.85192E-11         0.00000E+00
    0.21808E-07        -0.82162E-11         0.00000E+00
    0.22058E-07        -0.78471E-11         0.00000E+00
    0.22301E-07        -0.74054E-11         0.00000E+00
    0.22535E-07        -0.68841E-11         0.00000E+00
    0.22761E-07        -0.62758E-11         0.00000E+00
    0.22978E-07        -0.55726E-11         0.00000E+00
    0.23186E-07        -0.47662E-11         0.00000E+00
    0.23383E-07        -0.38485E-11         0.00000E+00
    0.23569E-07        -0.28118E-11         0.00000E+00
    0.23744E-07        -0.16497E-11         0.00000E+00
    0.23908E-07        -0.35789E-12         0.00000E+00
    0.24059E-07         0.10640E-11         0.00000E+00
    0.24197E-07         0.26103E-11         0.00000E+00
    0.24323E-07         0.42668E-11         0.00000E+00
    0.24434E-07         0.60061E-11         0.00000E+00
    0.24533E-07         0.77828E-11         0.00000E+00
    0.24617E-07         0.95266E-11         0.00000E+00
    0.24688E-07         0.11134E-10         0.00000E+00
    0.24744E-07         0.12459E-10         0.00000E+00
    0.24788E-07         0.13297E-10         0.00000E+00
    0.24818E-07         0.13367E-10         0.00000E+00
    0.24837E-07         0.12267E-10         0.00000E+00
    0.24844E-07         0.93683E-11         0.00000E+00
    0.24841E-07         0.36856E-11         0.00000E+00
    0.68522E-08         0.22397E-11         0.00000E+00
    0.68477E-08         0.57859E-11         0.00000E+00
    0.68482E-08         0.77717E-11         0.00000E+00
    0.68540E-08         0.87203E-11         0.00000E+00
    0.68655E-08         0.89876E-11         0.00000E+00
    0.68833E-08         0.88080E-11         0.00000E+00
    0.69076E-08         0.83448E-11         0.00000E+00
    0.69387E-08         0.77144E-11         0.00000E+00
    0.69767E-08         0.69992E-11         0.00000E+00
    0.70216E-08         0.62558E-11         0.00000E+00
    0.70735E-08         0.55216E-11         0.00000E+00
    0.71325E-08         0.48200E-11         0.00000E+00
    0.71984E-08         0.41641E-11         0.00000E+00
    0.72712E-08         0.35601E-11         0.00000E+00
    0.73510E-08         0.30092E-11         0.00000E+00
    0.74375E-08         0.25099E-11         0.00000E+00
    0.75308E-08         0.20586E-11         0.00000E+00
    0.76308E-08         0.16507E-11         0.00000E+00
    0.77375E-08         0.12813E-11         0.00000E+00
    0.78507E-08         0.94539E-12         0.00000E+00
    0.79704E-08         0.63812E-12         0.00000E+00
    0.80966E-08         0.35500E-12         0.00000E+00
    0.82291E-08         0.91951E-13         0.00000E+00
    0.83680E-08        -0.15471E-12         0.00000E+00
    0.85132E-08        -0.38821E-12         0.00000E+00
    0.86647E-08        -0.61143E-12         0.00000E+00
    0.88223E-08        -0.82683E-12         0.00000E+00
    0.89860E-08        -0.10366E-11         0.00000E+00
    0.91558E-08        -0.12425E-11         0.00000E+00
    0.93316E-08        -0.14462E-11         0.00000E+00
    0.95134E-08        -0.16490E-11         0.00000E+00
    0.97010E-08        -0.18521E-11         0.00000E+00
    0.98945E-08        -0.20566E-11         0.00000E+00
    0.10094E-07        -0.22631E-11         0.00000E+00
    0.10299E-07        -0.24724E-11         0.00000E+00
    0.10509E-07        -0.26852E-11         0.00000E+00
    0.10725E-07        -0.29017E-11         0.00000E+00
    0.10947E-07        -0.31224E-11         0.00000E+00
    0.11173E-07        -0.33476E-11         0.00000E+00
    0.11405E-07        -0.35774E-11         0.00000E+00
    0.11643E-07        -0.38119E-11         0.00000E+00
    0.11885E-07        -0.40512E-11         0.00000E+00
    0.12132E-07        -0.42951E-11         0.00000E+00
    0.12384E-07        -0.45436E-11         0.00000E+00
    0.12640E-07        -0.47964E-11         0.00000E+00
    0.12901E-07        -0.50532E-11         0.00000E+00
    0.13166E-07        -0.53136E-11         0.00000E+00
    0.13435E-07        -0.55773E-11         0.00000E+00
    0.13708E-07        -0.58437E-11         0.00000E+00
    0.13985E-07        -0.61121E-11         0.00000E+00
    0.14265E-07        -0.63819E-11         0.00000E+00
    0.14549E-07        -0.66522E-11         0.00000E+00
    0.14836E-07        -0.69223E-11         0.00000E+00
    0.15125E-07        -0.71911E-11         0.00000E+00
    0.15417E-07        -0.74577E-11         0.00000E+00
    0.15712E-07        -0.77207E-11         0.00000E+00
    0.16008E-07        -0.79790E-11         0.00000E+00
    0.16306E-07        -0.82312E-11         0.00000E+00
    0.16606E-07        -0.84757E-11         0.00000E+00
    0.16906E-07        -0.87111E-11         0.00000E+00
    0.17208E-07        -0.89355E-11         0.00000E+00
    0.17510E-07        -0.91471E-11         0.00000E+00
    0.17812E-07        -0.93439E-11         0.00000E+00
    0.18113E-07        -0.95237E-11         0.00000E+00
    0.18414E-07        -0.96843E-11         0.00000E+00
    0.18714E-07        -0.98233E-11         0.00000E+00
    0.19012E-07        -0.99379E-11         0.00000E+00
    0.19308E-07        -0.10025E-10         0.00000E+00
    0.19602E-07        -0.10083E-10         0.00000E+00
    0.19893E-07        -0.10107E-10         0.00000E+00
    0.20180E-07        -0.10093E-10         0.00000E+00
    0.20464E-07        -0.10039E-10         0.00000E+00
    0.20744E-07        -0.99405E-11         0.00000E+00
    0.21018E-07        -0.97921E-11         0.00000E+00
    0.21287E-07        -0.95893E-11         0.00000E+00
    0.21551E-07        -0.93266E-11         0.00000E+00
    0.21808E-07        -0.89982E-11         0.00000E+00
    0.22058E-07        -0.85975E-11         0.00000E+00
    0.22301E-07        -0.81174E-11         0.00000E+00
    0.22535E-07        -0.75503E-11         0.00000E+00
    0.22761E-07        -0.68879E-11         0.00000E+00
    0.22978E-07        -0.61215E-11         0.00000E+00
    0.23186E-07        -0.52418E-11         0.00000E+00
    0.23383E-07        -0.42399E-11         0.00000E+00
    0.23569E-07        -0.31071E-11         0.00000E+00
    0.23744E-07        -0.18362E-11         0.00000E+00
    0.23908E-07        -0.42235E-12         0.00000E+00
    0.24059E-07         0.11350E-11         0.00000E+00
    0.24197E-07         0.28300E-11         0.00000E+00
    0.24323E-07         0.46467E-11         0.00000E+00
    0.24435E-07         0.65550E-11         0.00000E+00
    0.24533E-07         0.85044E-11         0.00000E+00
    0.24617E-07         0.10417E-10         0.00000E+00
    0.24688E-07         0.12177E-10         0.00000E+00
    0.24745E-07         0.13620E-10         0.00000E+00
    0.24788E-07         0.14519E-10         0.00000E+00
    0.24818E-07         0.14560E-10         0.00000E+00
    0.24836E-07         0.13300E-10         0.00000E+00
    0.24843E-07         0.10078E-10         0.00000E+00
    0.24840E-07         0.39381E-11         0.00000E+00
    0.68531E-08         0.23727E-11         0.00000E+00
    0.68483E-08         0.61624E-11         0.00000E+00
    0.68485E-08         0.83293E-11         0.00000E+00
    0.68541E-08         0.93818E-11         0.00000E+00
    0.68655E-08         0.96887E-11         0.00000E+00
    0.68833E-08         0.95039E-11         0.00000E+00
    0.69075E-08         0.90065E-11         0.00000E+00
    0.69386E-08         0.83248E-11         0.00000E+00
    0.69765E-08         0.75498E-11         0.00000E+00
    0.70214E-08         0.67438E-11         0.00000E+00
    0.70734E-08         0.59479E-11         0.00000E+00
    0.71323E-08         0.51878E-11         0.00000E+00
    0.71983E-08         0.44777E-11         0.00000E+00
    0.72711E-08         0.38243E-11         0.00000E+00
    0.73509E-08         0.32291E-11         0.00000E+00
    0.74374E-08         0.26902E-11         0.00000E+00
    0.75307E-08         0.22035E-11         0.00000E+00
    0.76308E-08         0.17641E-11         0.00000E+00
    0.77374E-08         0.13665E-11         0.00000E+00
    0.78506E-08         0.10053E-11         0.00000E+00
    0.79703E-08         0.67511E-12         0.00000E+00
    0.80965E-08         0.37107E-12         0.00000E+00
    0.82291E-08         0.88708E-13         0.00000E+00
    0.83680E-08        -0.17598E-12         0.00000E+00
    0.85132E-08        -0.42652E-12         0.00000E+00
    0.86646E-08        -0.66602E-12         0.00000E+00
    0.88222E-08        -0.89715E-12         0.00000E+00
    0.89860E-08        -0.11223E-11         0.00000E+00
    0.91558E-08        -0.13433E-11         0.00000E+00
    0.93316E-08        -0.15621E-11         0.00000E+00
    0.95133E-08        -0.17800E-11         0.00000E+00
    0.97010E-08        -0.19983E-11         0.00000E+00
    0.98945E-08        -0.22181E-11         0.00000E+00
    0.10094E-07        -0.24403E-11         0.00000E+00
    0.10299E-07        -0.26655E-11         0.00000E+00
    0.10509E-07        -0.28945E-11         0.00000E+00
    0.10725E-07        -0.31277E-11         0.00000E+00
    0.10947E-07        -0.33654E-11         0.00000E+00
    0.11173E-07        -0.36080E-11         0.00000E+00
    0.11405E-07        -0.38556E-11         0.00000E+00
    0.11643E-07        -0.41084E-11         0.00000E+00
    0.11885E-07        -0.43664E-11         0.00000E+00
    0.12132E-07        -0.46294E-11         0.00000E+00
    0.12383E-07        -0.48974E-11         0.00000E+00
    0.12640E-07        -0.51701E-11         0.00000E+00
    0.12901E-07        -0.54471E-11         0.00000E+00
    0.13166E-07        -0.57282E-11         0.00000E+00
    0.13435E-07        -0.60128E-11         0.00000E+00
    0.13708E-07        -0.63003E-11         0.00000E+00
    0.13985E-07        -0.65901E-11         0.00000E+00
    0.14265E-07        -0.68815E-11         0.00000E+00
    0.14549E-07        -0.71735E-11         0.00000E+00
    0.14835E-07        -0.74653E-11         0.00000E+00
    0.15125E-07        -0.77558E-11         0.00000E+00
    0.15417E-07        -0.80439E-11         0.00000E+00
    0.15712E-07        -0.83282E-11         0.00000E+00
    0.16008E-07        -0.86076E-11         0.00000E+00
    0.16306E-07        -0.88803E-11         0.00000E+00
    0.16606E-07        -0.91450E-11         0.00000E+00
    0.16906E-07        -0.93998E-11         0.00000E+00
    0.17208E-07        -0.96428E-11         0.00000E+00
    0.17510E-07        -0.98722E-11         0.00000E+00
    0.17812E-07        -0.10086E-10         0.00000E+00
    0.18113E-07        -0.10281E-10         0.00000E+00
    0.18414E-07        -0.10456E-10         0.00000E+00
    0.18714E-07        -0.10607E-10         0.00000E+00
    0.19012E-07        -0.10732E-10         0.00000E+00
    0.19308E-07        -0.10828E-10         0.00000E+00
    0.19602E-07        -0.10892E-10         0.00000E+00
    0.19893E-07        -0.10919E-10         0.00000E+00
    0.20180E-07        -0.10907E-10         0.00000E+00
    0.20464E-07        -0.10851E-10         0.00000E+00
    0.20744E-07        -0.10747E-10         0.00000E+00
    0.21018E-07        -0.10589E-10         0.00000E+00
    0.21288E-07        -0.10373E-10         0.00000E+00
    0.21551E-07        -0.10092E-10         0.00000E+00
    0.21808E-07        -0.97400E-11         0.00000E+00
    0.22058E-07        -0.93102E-11         0.00000E+00
    0.22301E-07        -0.87947E-11         0.00000E+00
    0.22535E-07        -0.81851E-11         0.00000E+00
    0.22762E-07        -0.74723E-11         0.00000E+00
    0.22979E-07        -0.66468E-11         0.00000E+00
    0.23186E-07        -0.56986E-11         0.00000E+00
    0.23383E-07        -0.46176E-11         0.00000E+00
    0.23570E-07        -0.33944E-11         0.00000E+00
    0.23745E-07        -0.20210E-11         0.00000E+00
    0.23908E-07        -0.49180E-12         0.00000E+00
    0.24059E-07         0.11939E-11         0.00000E+00
    0.24198E-07         0.30300E-11         0.00000E+00
    0.24323E-07         0.49991E-11         0.00000E+00
    0.24435E-07         0.70684E-11         0.00000E+00
    0.24533E-07         0.91826E-11         0.00000E+00
    0.24618E-07         0.11256E-10         0.00000E+00
    0.24688E-07         0.13161E-10         0.00000E+00
    0.24745E-07         0.14717E-10         0.00000E+00
    0.24788E-07         0.15672E-10         0.00000E+00
    0.24818E-07         0.15681E-10         0.00000E+00
    0.24836E-07         0.14265E-10         0.00000E+00
    0.24842E-07         0.10737E-10         0.00000E+00
    0.24838E-07         0.41718E-11         0.00000E+00
    0.68540E-08         0.24956E-11         0.00000E+00
    0.68489E-08         0.65112E-11         0.00000E+00
    0.68488E-08         0.88480E-11         0.00000E+00
    0.68542E-08         0.99997E-11         0.00000E+00
    0.68655E-08         0.10345E-10         0.00000E+00
    0.68832E-08         0.10156E-10         0.00000E+00
    0.69074E-08         0.96263E-11         0.00000E+00
    0.69384E-08         0.88958E-11         0.00000E+00
    0.69763E-08         0.80638E-11         0.00000E+00
    0.70213E-08         0.71982E-11         0.00000E+00
    0.70732E-08         0.63438E-11         0.00000E+00
    0.71322E-08         0.55283E-11         0.00000E+00
    0.71981E-08         0.47671E-11         0.00000E+00
    0.72710E-08         0.40673E-11         0.00000E+00
    0.73507E-08         0.34305E-11         0.00000E+00
    0.74373E-08         0.28544E-11         0.00000E+00
    0.75306E-08         0.23348E-11         0.00000E+00
    0.76307E-08         0.18662E-11         0.00000E+00
    0.77373E-08         0.14425E-11         0.00000E+00
    0.78505E-08         0.10579E-11         0.00000E+00
    0.79703E-08         0.70667E-12         0.00000E+00
    0.80965E-08         0.38339E-12         0.00000E+00
    0.82290E-08         0.83299E-13         0.00000E+00
    0.83679E-08        -0.19793E-12         0.00000E+00
    0.85131E-08        -0.46409E-12         0.00000E+00
    0.86646E-08        -0.71852E-12         0.00000E+00
    0.88222E-08        -0.96410E-12         0.00000E+00
    0.89859E-08        -0.12033E-11         0.00000E+00
    0.91557E-08        -0.14383E-11         0.00000E+00
    0.93315E-08        -0.16710E-11         0.00000E+00
    0.95133E-08        -0.19028E-11         0.00000E+00
    0.97009E-08        -0.21352E-11         0.00000E+00
    0.98944E-08        -0.23692E-11         0.00000E+00
    0.10094E-07        -0.26058E-11         0.00000E+00
    0.10299E-07        -0.28458E-11         0.00000E+00
    0.10509E-07        -0.30899E-11         0.00000E+00
    0.10725E-07        -0.33384E-11         0.00000E+00
    0.10947E-07        -0.35920E-11         0.00000E+00
    0.11173E-07        -0.38508E-11         0.00000E+00
    0.11405E-07        -0.41151E-11         0.00000E+00
    0.11643E-07        -0.43849E-11         0.00000E+00
    0.11885E-07        -0.46603E-11         0.00000E+00
    0.12132E-07        -0.49412E-11         0.00000E+00
    0.12383E-07        -0.52274E-11         0.00000E+00
    0.12640E-07        -0.55187E-11         0.00000E+00
    0.12901E-07        -0.58148E-11         0.00000E+00
    0.13166E-07        -0.61151E-11         0.00000E+00
    0.13435E-07        -0.64193E-11         0.00000E+00
    0.13708E-07        -0.67267E-11         0.00000E+00
    0.13985E-07        -0.70366E-11         0.00000E+00
    0.14265E-07        -0.73482E-11         0.00000E+00
    0.14549E-07        -0.76605E-11         0.00000E+00
    0.14835E-07        -0.79727E-11         0.00000E+00
    0.15125E-07        -0.82836E-11         0.00000E+00
    0.15417E-07        -0.85919E-11         0.00000E+00
    0.15711E-07        -0.88963E-11         0.00000E+00
    0.16008E-07        -0.91955E-11         0.00000E+00
    0.16306E-07        -0.94877E-11         0.00000E+00
    0.16606E-07        -0.97713E-11         0.00000E+00
    0.16906E-07        -0.10044E-10         0.00000E+00
    0.17208E-07        -0.10305E-10         0.00000E+00
    0.17510E-07        -0.10551E-10         0.00000E+00
    0.17812E-07        -0.10781E-10         0.00000E+00
    0.18113E-07        -0.10991E-10         0.00000E+00
    0.18414E-07        -0.11179E-10         0.00000E+00
    0.18714E-07        -0.11342E-10         0.00000E+00
    0.19012E-07        -0.11477E-10         0.00000E+00
    0.19308E-07        -0.11582E-10         0.00000E+00
    0.19602E-07        -0.11652E-10         0.00000E+00
    0.19893E-07        -0.11683E-10         0.00000E+00
    0.20180E-07        -0.11673E-10         0.00000E+00
    0.20464E-07        -0.11615E-10         0.00000E+00
    0.20744E-07        -0.11506E-10         0.00000E+00
    0.21018E-07        -0.11340E-10         0.00000E+00
    0.21288E-07        -0.11112E-10         0.00000E+00
    0.21551E-07        -0.10814E-10         0.00000E+00
    0.21808E-07        -0.10441E-10         0.00000E+00
    0.22058E-07        -0.99848E-11         0.00000E+00
    0.22301E-07        -0.94367E-11         0.00000E+00
    0.22536E-07        -0.87878E-11         0.00000E+00
    0.22762E-07        -0.80285E-11         0.00000E+00
    0.22979E-07        -0.71482E-11         0.00000E+00
    0.23186E-07        -0.61361E-11         0.00000E+00
    0.23383E-07        -0.49814E-11         0.00000E+00
    0.23570E-07        -0.36736E-11         0.00000E+00
    0.23745E-07        -0.22039E-11         0.00000E+00
    0.23909E-07        -0.56619E-12         0.00000E+00
    0.24060E-07         0.12406E-11         0.00000E+00
    0.24198E-07         0.32100E-11         0.00000E+00
    0.24324E-07         0.53236E-11         0.00000E+00
    0.24436E-07         0.75458E-11         0.00000E+00
    0.24534E-07         0.98169E-11         0.00000E+00
    0.24618E-07         0.12043E-10         0.00000E+00
    0.24689E-07         0.14087E-10         0.00000E+00
    0.24745E-07         0.15749E-10         0.00000E+00
    0.24788E-07         0.16756E-10         0.00000E+00
    0.24818E-07         0.16733E-10         0.00000E+00
    0.24836E-07         0.15166E-10         0.00000E+00
    0.24841E-07         0.11350E-10         0.00000E+00
    0.24836E-07         0.43891E-11         0.00000E+00
    0.68551E-08         0.26096E-11         0.00000E+00
    0.68495E-08         0.68347E-11         0.00000E+00
    0.68491E-08         0.93300E-11         0.00000E+00
    0.68544E-08         0.10576E-10         0.00000E+00
    0.68655E-08         0.10958E-10         0.00000E+00
    0.68831E-08         0.10765E-10         0.00000E+00
    0.69073E-08         0.10204E-10         0.00000E+00
    0.69382E-08         0.94272E-11         0.00000E+00
    0.69762E-08         0.85411E-11         0.00000E+00
    0.70211E-08         0.76190E-11         0.00000E+00
    0.70730E-08         0.67092E-11         0.00000E+00
    0.71320E-08         0.58414E-11         0.00000E+00
    0.71980E-08         0.50322E-11         0.00000E+00
    0.72708E-08         0.42890E-11         0.00000E+00
    0.73506E-08         0.36134E-11         0.00000E+00
    0.74372E-08         0.30029E-11         0.00000E+00
    0.75305E-08         0.24528E-11         0.00000E+00
    0.76306E-08         0.19571E-11         0.00000E+00
    0.77372E-08         0.15095E-11         0.00000E+00
    0.78505E-08         0.11035E-11         0.00000E+00
    0.79702E-08         0.73290E-12         0.00000E+00
    0.80964E-08         0.39208E-12         0.00000E+00
    0.82290E-08         0.75824E-13         0.00000E+00
    0.83679E-08        -0.22046E-12         0.00000E+00
    0.85131E-08        -0.50084E-12         0.00000E+00
    0.86645E-08        -0.76886E-12         0.00000E+00
    0.88221E-08        -0.10276E-11         0.00000E+00
    0.89859E-08        -0.12797E-11         0.00000E+00
    0.91557E-08        -0.15275E-11         0.00000E+00
    0.93315E-08        -0.17728E-11         0.00000E+00
    0.95132E-08        -0.20174E-11         0.00000E+00
    0.97009E-08        -0.22626E-11         0.00000E+00
    0.98944E-08        -0.25097E-11         0.00000E+00
    0.10094E-07        -0.27596E-11         0.00000E+00
    0.10299E-07        -0.30133E-11         0.00000E+00
    0.10509E-07        -0.32712E-11         0.00000E+00
    0.10725E-07        -0.35341E-11         0.00000E+00
    0.10947E-07        -0.38023E-11         0.00000E+00
    0.11173E-07        -0.40761E-11         0.00000E+00
    0.11405E-07        -0.43558E-11         0.00000E+00
    0.11642E-07        -0.46414E-11         0.00000E+00
    0.11885E-07        -0.49330E-11         0.00000E+00
    0.12132E-07        -0.52305E-11         0.00000E+00
    0.12383E-07        -0.55337E-11         0.00000E+00
    0.12640E-07        -0.58423E-11         0.00000E+00
    0.12901E-07        -0.61560E-11         0.00000E+00
    0.13166E-07        -0.64744E-11         0.00000E+00
    0.13435E-07        -0.67969E-11         0.00000E+00
    0.13708E-07        -0.71228E-11         0.00000E+00
    0.13985E-07        -0.74514E-11         0.00000E+00
    0.14265E-07        -0.77818E-11         0.00000E+00
    0.14549E-07        -0.81132E-11         0.00000E+00
    0.14835E-07        -0.84445E-11         0.00000E+00
    0.15125E-07        -0.87744E-11         0.00000E+00
    0.15417E-07        -0.91017E-11         0.00000E+00
    0.15711E-07        -0.94250E-11         0.00000E+00
    0.16008E-07        -0.97427E-11         0.00000E+00
    0.16306E-07        -0.10053E-10         0.00000E+00
    0.16606E-07        -0.10355E-10         0.00000E+00
    0.16906E-07        -0.10645E-10         0.00000E+00
    0.17208E-07        -0.10923E-10         0.00000E+00
    0.17510E-07        -0.11185E-10         0.00000E+00
    0.17812E-07        -0.11429E-10         0.00000E+00
    0.18113E-07        -0.11653E-10         0.00000E+00
    0.18414E-07        -0.11854E-10         0.00000E+00
    0.18714E-07        -0.12028E-10         0.00000E+00
    0.19012E-07        -0.12174E-10         0.00000E+00
    0.19308E-07        -0.12286E-10         0.00000E+00
    0.19602E-07        -0.12363E-10         0.00000E+00
    0.19893E-07        -0.12398E-10         0.00000E+00
    0.20180E-07        -0.12389E-10         0.00000E+00
    0.20464E-07        -0.12331E-10         0.00000E+00
    0.20744E-07        -0.12218E-10         0.00000E+00
    0.21018E-07        -0.12045E-10         0.00000E+00
    0.21288E-07        -0.11806E-10         0.00000E+00
    0.21551E-07        -0.11494E-10         0.00000E+00
    0.21808E-07        -0.11102E-10         0.00000E+00
    0.22058E-07        -0.10621E-10         0.00000E+00
    0.22301E-07        -0.10043E-10         0.00000E+00
    0.22536E-07        -0.93583E-11         0.00000E+00
    0.22762E-07        -0.85560E-11         0.00000E+00
    0.22979E-07        -0.76252E-11         0.00000E+00
    0.23186E-07        -0.65541E-11         0.00000E+00
    0.23384E-07        -0.53309E-11         0.00000E+00
    0.23570E-07        -0.39443E-11         0.00000E+00
    0.23745E-07        -0.23848E-11         0.00000E+00
    0.23909E-07        -0.64544E-12         0.00000E+00
    0.24060E-07         0.12751E-11         0.00000E+00
    0.24199E-07         0.33700E-11         0.00000E+00
    0.24324E-07         0.56199E-11         0.00000E+00
    0.24436E-07         0.79868E-11         0.00000E+00
    0.24534E-07         0.10407E-10         0.00000E+00
    0.24619E-07         0.12779E-10         0.00000E+00
    0.24689E-07         0.14953E-10         0.00000E+00
    0.24745E-07         0.16717E-10         0.00000E+00
    0.24788E-07         0.17773E-10         0.00000E+00
    0.24818E-07         0.17718E-10         0.00000E+00
    0.24835E-07         0.16008E-10         0.00000E+00
    0.24840E-07         0.11922E-10         0.00000E+00
    0.24835E-07         0.45918E-11         0.00000E+00
    0.68561E-08         0.27156E-11         0.00000E+00
    0.68502E-08         0.71349E-11         0.00000E+00
    0.68495E-08         0.97773E-11         0.00000E+00
    0.68545E-08         0.11111E-10         0.00000E+00
    0.68656E-08         0.11528E-10         0.00000E+00
    0.68830E-08         0.11330E-10         0.00000E+00
    0.69071E-08         0.10740E-10         0.00000E+00
    0.69381E-08         0.99189E-11         0.00000E+00
    0.69760E-08         0.89813E-11         0.00000E+00
    0.70209E-08         0.80059E-11         0.00000E+00
    0.70729E-08         0.70440E-11         0.00000E+00
    0.71318E-08         0.61272E-11         0.00000E+00
    0.71978E-08         0.52731E-11         0.00000E+00
    0.72707E-08         0.44895E-11         0.00000E+00
    0.73505E-08         0.37779E-11         0.00000E+00
    0.74371E-08         0.31356E-11         0.00000E+00
    0.75304E-08         0.25574E-11         0.00000E+00
    0.76305E-08         0.20370E-11         0.00000E+00
    0.77372E-08         0.15675E-11         0.00000E+00
    0.78504E-08         0.11420E-11         0.00000E+00
    0.79701E-08         0.75394E-12         0.00000E+00
    0.80963E-08         0.39724E-12         0.00000E+00
    0.82289E-08         0.66394E-13         0.00000E+00
    0.83678E-08        -0.24348E-12         0.00000E+00
    0.85130E-08        -0.53668E-12         0.00000E+00
    0.86645E-08        -0.81697E-12         0.00000E+00
    0.88221E-08        -0.10876E-11         0.00000E+00
    0.89858E-08        -0.13514E-11         0.00000E+00
    0.91556E-08        -0.16106E-11         0.00000E+00
    0.93314E-08        -0.18675E-11         0.00000E+00
    0.95132E-08        -0.21237E-11         0.00000E+00
    0.97008E-08        -0.23807E-11         0.00000E+00
    0.98943E-08        -0.26397E-11         0.00000E+00
    0.10094E-07        -0.29018E-11         0.00000E+00
    0.10298E-07        -0.31679E-11         0.00000E+00
    0.10509E-07        -0.34386E-11         0.00000E+00
    0.10725E-07        -0.37146E-11         0.00000E+00
    0.10946E-07        -0.39962E-11         0.00000E+00
    0.11173E-07        -0.42839E-11         0.00000E+00
    0.11405E-07        -0.45778E-11         0.00000E+00
    0.11642E-07        -0.48780E-11         0.00000E+00
    0.11885E-07        -0.51845E-11         0.00000E+00
    0.12132E-07        -0.54974E-11         0.00000E+00
    0.12383E-07        -0.58162E-11         0.00000E+00
    0.12640E-07        -0.61409E-11         0.00000E+00
    0.12900E-07        -0.64710E-11         0.00000E+00
    0.13166E-07        -0.68060E-11         0.00000E+00
    0.13435E-07        -0.71454E-11         0.00000E+00
    0.13708E-07        -0.74885E-11         0.00000E+00
    0.13985E-07        -0.78345E-11         0.00000E+00
    0.14265E-07        -0.81825E-11         0.00000E+00
    0.14549E-07        -0.85316E-11         0.00000E+00
    0.14835E-07        -0.88806E-11         0.00000E+00
    0.15125E-07        -0.92282E-11         0.00000E+00
    0.15417E-07        -0.95732E-11         0.00000E+00
    0.15711E-07        -0.99141E-11         0.00000E+00
    0.16008E-07        -0.10249E-10         0.00000E+00
    0.16306E-07        -0.10577E-10         0.00000E+00
    0.16606E-07        -0.10895E-10         0.00000E+00
    0.16906E-07        -0.11202E-10         0.00000E+00
    0.17208E-07        -0.11495E-10         0.00000E+00
    0.17510E-07        -0.11772E-10         0.00000E+00
    0.17811E-07        -0.12030E-10         0.00000E+00
    0.18113E-07        -0.12267E-10         0.00000E+00
    0.18414E-07        -0.12480E-10         0.00000E+00
    0.18714E-07        -0.12666E-10         0.00000E+00
    0.19012E-07        -0.12821E-10         0.00000E+00
    0.19308E-07        -0.12941E-10         0.00000E+00
    0.19602E-07        -0.13024E-10         0.00000E+00
    0.19893E-07        -0.13064E-10         0.00000E+00
    0.20180E-07        -0.13057E-10         0.00000E+00
    0.20464E-07        -0.12998E-10         0.00000E+00
    0.20744E-07        -0.12882E-10         0.00000E+00
    0.21018E-07        -0.12703E-10         0.00000E+00
    0.21288E-07        -0.12455E-10         0.00000E+00
    0.21551E-07        -0.12130E-10         0.00000E+00
    0.21808E-07        -0.11720E-10         0.00000E+00
    0.22058E-07        -0.11218E-10         0.00000E+00
    0.22301E-07        -0.10613E-10         0.00000E+00
    0.22536E-07        -0.98959E-11         0.00000E+00
    0.22762E-07        -0.90545E-11         0.00000E+00
    0.22979E-07        -0.80774E-11         0.00000E+00
    0.23187E-07        -0.69520E-11         0.00000E+00
    0.23384E-07        -0.56657E-11         0.00000E+00
    0.23570E-07        -0.42063E-11         0.00000E+00
    0.23746E-07        -0.25633E-11         0.00000E+00
    0.23909E-07        -0.72943E-12         0.00000E+00
    0.24061E-07         0.12972E-11         0.00000E+00
    0.24199E-07         0.35097E-11         0.00000E+00
    0.24325E-07         0.58876E-11         0.00000E+00
    0.24437E-07         0.83909E-11         0.00000E+00
    0.24535E-07         0.10951E-10         0.00000E+00
    0.24619E-07         0.13461E-10         0.00000E+00
    0.24689E-07         0.15761E-10         0.00000E+00
    0.24746E-07         0.17621E-10         0.00000E+00
    0.24788E-07         0.18724E-10         0.00000E+00
    0.24818E-07         0.18638E-10         0.00000E+00
    0.24834E-07         0.16794E-10         0.00000E+00
    0.24839E-07         0.12457E-10         0.00000E+00
    0.24833E-07         0.47816E-11         0.00000E+00
    0.68572E-08         0.28141E-11         0.00000E+00
    0.68509E-08         0.74134E-11         0.00000E+00
    0.68499E-08         0.10192E-10         0.00000E+00
    0.68547E-08         0.11606E-10         0.00000E+00
    0.68656E-08         0.12055E-10         0.00000E+00
    0.68829E-08         0.11853E-10         0.00000E+00
    0.69070E-08         0.11234E-10         0.00000E+00
    0.69379E-08         0.10371E-10         0.00000E+00
    0.69758E-08         0.93844E-11         0.00000E+00
    0.70207E-08         0.83587E-11         0.00000E+00
    0.70727E-08         0.73480E-11         0.00000E+00
    0.71317E-08         0.63855E-11         0.00000E+00
    0.71976E-08         0.54897E-11         0.00000E+00
    0.72706E-08         0.46688E-11         0.00000E+00
    0.73503E-08         0.39241E-11         0.00000E+00
    0.74370E-08         0.32526E-11         0.00000E+00
    0.75303E-08         0.26489E-11         0.00000E+00
    0.76304E-08         0.21060E-11         0.00000E+00
    0.77371E-08         0.16167E-11         0.00000E+00
    0.78503E-08         0.11737E-11         0.00000E+00
    0.79701E-08         0.76993E-12         0.00000E+00
    0.80963E-08         0.39901E-12         0.00000E+00
    0.82288E-08         0.55127E-13         0.00000E+00
    0.83678E-08        -0.26687E-12         0.00000E+00
    0.85130E-08        -0.57152E-12         0.00000E+00
    0.86644E-08        -0.86277E-12         0.00000E+00
    0.88220E-08        -0.11440E-11         0.00000E+00
    0.89858E-08        -0.14182E-11         0.00000E+00
    0.91556E-08        -0.16878E-11         0.00000E+00
    0.93314E-08        -0.19551E-11         0.00000E+00
    0.95131E-08        -0.22217E-11         0.00000E+00
    0.97008E-08        -0.24893E-11         0.00000E+00
    0.98943E-08        -0.27591E-11         0.00000E+00
    0.10093E-07        -0.30322E-11         0.00000E+00
    0.10298E-07        -0.33096E-11         0.00000E+00
    0.10509E-07        -0.35920E-11         0.00000E+00
    0.10725E-07        -0.38799E-11         0.00000E+00
    0.10946E-07        -0.41739E-11         0.00000E+00
    0.11173E-07        -0.44742E-11         0.00000E+00
    0.11405E-07        -0.47810E-11         0.00000E+00
    0.11642E-07        -0.50946E-11         0.00000E+00
    0.11884E-07        -0.54149E-11         0.00000E+00
    0.12132E-07        -0.57418E-11         0.00000E+00
    0.12383E-07        -0.60750E-11         0.00000E+00
    0.12640E-07        -0.64144E-11         0.00000E+00
    0.12900E-07        -0.67596E-11         0.00000E+00
    0.13165E-07        -0.71100E-11         0.00000E+00
    0.13435E-07        -0.74650E-11         0.00000E+00
    0.13708E-07        -0.78239E-11         0.00000E+00
    0.13985E-07        -0.81859E-11         0.00000E+00
    0.14265E-07        -0.85502E-11         0.00000E+00
    0.14548E-07        -0.89156E-11         0.00000E+00
    0.14835E-07        -0.92809E-11         0.00000E+00
    0.15125E-07        -0.96450E-11         0.00000E+00
    0.15417E-07        -0.10006E-10         0.00000E+00
    0.15711E-07        -0.10364E-10         0.00000E+00
    0.16008E-07        -0.10715E-10         0.00000E+00
    0.16306E-07        -0.11058E-10         0.00000E+00
    0.16605E-07        -0.11392E-10         0.00000E+00
    0.16906E-07        -0.11714E-10         0.00000E+00
    0.17208E-07        -0.12021E-10         0.00000E+00
    0.17509E-07        -0.12312E-10         0.00000E+00
    0.17811E-07        -0.12584E-10         0.00000E+00
    0.18113E-07        -0.12834E-10         0.00000E+00
    0.18414E-07        -0.13058E-10         0.00000E+00
    0.18714E-07        -0.13254E-10         0.00000E+00
    0.19012E-07        -0.13418E-10         0.00000E+00
    0.19308E-07        -0.13547E-10         0.00000E+00
    0.19602E-07        -0.13635E-10         0.00000E+00
    0.19893E-07        -0.13680E-10         0.00000E+00
    0.20180E-07        -0.13675E-10         0.00000E+00
    0.20464E-07        -0.13617E-10         0.00000E+00
    0.20744E-07        -0.13499E-10         0.00000E+00
    0.21018E-07        -0.13315E-10         0.00000E+00
    0.21288E-07        -0.13058E-10         0.00000E+00
    0.21551E-07        -0.12722E-10         0.00000E+00
    0.21808E-07        -0.12297E-10         0.00000E+00
    0.22059E-07        -0.11776E-10         0.00000E+00
    0.22301E-07        -0.11147E-10         0.00000E+00
    0.22536E-07        -0.10400E-10         0.00000E+00
    0.22762E-07        -0.95235E-11         0.00000E+00
    0.22979E-07        -0.85044E-11         0.00000E+00
    0.23187E-07        -0.73295E-11         0.00000E+00
    0.23384E-07        -0.59854E-11         0.00000E+00
    0.23571E-07        -0.44591E-11         0.00000E+00
    0.23746E-07        -0.27393E-11         0.00000E+00
    0.23910E-07        -0.81796E-12         0.00000E+00
    0.24061E-07         0.13072E-11         0.00000E+00
    0.24200E-07         0.36292E-11         0.00000E+00
    0.24325E-07         0.61267E-11         0.00000E+00
    0.24437E-07         0.87577E-11         0.00000E+00
    0.24535E-07         0.11450E-10         0.00000E+00
    0.24620E-07         0.14090E-10         0.00000E+00
    0.24690E-07         0.16508E-10         0.00000E+00
    0.24746E-07         0.18461E-10         0.00000E+00
    0.24789E-07         0.19608E-10         0.00000E+00
    0.24818E-07         0.19496E-10         0.00000E+00
    0.24834E-07         0.17526E-10         0.00000E+00
    0.24838E-07         0.12956E-10         0.00000E+00
    0.24831E-07         0.49596E-11         0.00000E+00
    0.68584E-08         0.29058E-11         0.00000E+00
    0.68516E-08         0.76716E-11         0.00000E+00
    0.68503E-08         0.10574E-10         0.00000E+00
    0.68548E-08         0.12062E-10         0.00000E+00
    0.68656E-08         0.12540E-10         0.00000E+00
    0.68828E-08         0.12332E-10         0.00000E+00
    0.69068E-08         0.11686E-10         0.00000E+00
    0.69377E-08         0.10782E-10         0.00000E+00
    0.69756E-08         0.97501E-11         0.00000E+00
    0.70205E-08         0.86773E-11         0.00000E+00
    0.70725E-08         0.76211E-11         0.00000E+00
    0.71315E-08         0.66163E-11         0.00000E+00
    0.71975E-08         0.56821E-11         0.00000E+00
    0.72704E-08         0.48269E-11         0.00000E+00
    0.73502E-08         0.40520E-11         0.00000E+00
    0.74368E-08         0.33541E-11         0.00000E+00
    0.75302E-08         0.27273E-11         0.00000E+00
    0.76303E-08         0.21643E-11         0.00000E+00
    0.77370E-08         0.16573E-11         0.00000E+00
    0.78502E-08         0.11987E-11         0.00000E+00
    0.79700E-08         0.78100E-12         0.00000E+00
    0.80962E-08         0.39752E-12         0.00000E+00
    0.82288E-08         0.42149E-13         0.00000E+00
    0.83677E-08        -0.29053E-12         0.00000E+00
    0.85129E-08        -0.60525E-12         0.00000E+00
    0.86643E-08        -0.90615E-12         0.00000E+00
    0.88220E-08        -0.11968E-11         0.00000E+00
    0.89857E-08        -0.14802E-11         0.00000E+00
    0.91555E-08        -0.17590E-11         0.00000E+00
    0.93313E-08        -0.20354E-11         0.00000E+00
    0.95131E-08        -0.23114E-11         0.00000E+00
    0.97007E-08        -0.25884E-11         0.00000E+00
    0.98942E-08        -0.28679E-11         0.00000E+00
    0.10093E-07        -0.31510E-11         0.00000E+00
    0.10298E-07        -0.34385E-11         0.00000E+00
    0.10509E-07        -0.37314E-11         0.00000E+00
    0.10725E-07        -0.40301E-11         0.00000E+00
    0.10946E-07        -0.43352E-11         0.00000E+00
    0.11173E-07        -0.46469E-11         0.00000E+00
    0.11405E-07        -0.49656E-11         0.00000E+00
    0.11642E-07        -0.52913E-11         0.00000E+00
    0.11884E-07        -0.56240E-11         0.00000E+00
    0.12131E-07        -0.59637E-11         0.00000E+00
    0.12383E-07        -0.63101E-11         0.00000E+00
    0.12640E-07        -0.66630E-11         0.00000E+00
    0.12900E-07        -0.70218E-11         0.00000E+00
    0.13165E-07        -0.73862E-11         0.00000E+00
    0.13435E-07        -0.77555E-11         0.00000E+00
    0.13708E-07        -0.81289E-11         0.00000E+00
    0.13984E-07        -0.85057E-11         0.00000E+00
    0.14265E-07        -0.88848E-11         0.00000E+00
    0.14548E-07        -0.92651E-11         0.00000E+00
    0.14835E-07        -0.96456E-11         0.00000E+00
    0.15125E-07        -0.10025E-10         0.00000E+00
    0.15417E-07        -0.10401E-10         0.00000E+00
    0.15711E-07        -0.10773E-10         0.00000E+00
    0.16008E-07        -0.11139E-10         0.00000E+00
    0.16306E-07        -0.11498E-10         0.00000E+00
    0.16605E-07        -0.11846E-10         0.00000E+00
    0.16906E-07        -0.12181E-10         0.00000E+00
    0.17208E-07        -0.12503E-10         0.00000E+00
    0.17509E-07        -0.12807E-10         0.00000E+00
    0.17811E-07        -0.13091E-10         0.00000E+00
    0.18113E-07        -0.13352E-10         0.00000E+00
    0.18414E-07        -0.13587E-10         0.00000E+00
    0.18714E-07        -0.13793E-10         0.00000E+00
    0.19012E-07        -0.13966E-10         0.00000E+00
    0.19308E-07        -0.14102E-10         0.00000E+00
    0.19602E-07        -0.14196E-10         0.00000E+00
    0.19893E-07        -0.14245E-10         0.00000E+00
    0.20180E-07        -0.14244E-10         0.00000E+00
    0.20464E-07        -0.14186E-10         0.00000E+00
    0.20744E-07        -0.14066E-10         0.00000E+00
    0.21018E-07        -0.13879E-10         0.00000E+00
    0.21288E-07        -0.13616E-10         0.00000E+00
    0.21551E-07        -0.13270E-10         0.00000E+00
    0.21808E-07        -0.12832E-10         0.00000E+00
    0.22059E-07        -0.12293E-10         0.00000E+00
    0.22301E-07        -0.11643E-10         0.00000E+00
    0.22536E-07        -0.10870E-10         0.00000E+00
    0.22762E-07        -0.99623E-11         0.00000E+00
    0.22980E-07        -0.89054E-11         0.00000E+00
    0.23187E-07        -0.76859E-11         0.00000E+00
    0.23384E-07        -0.62895E-11         0.00000E+00
    0.23571E-07        -0.47024E-11         0.00000E+00
    0.23746E-07        -0.29124E-11         0.00000E+00
    0.23910E-07        -0.91081E-12         0.00000E+00
    0.24061E-07         0.13051E-11         0.00000E+00
    0.24200E-07         0.37282E-11         0.00000E+00
    0.24326E-07         0.63369E-11         0.00000E+00
    0.24438E-07         0.90870E-11         0.00000E+00
    0.24536E-07         0.11903E-10         0.00000E+00
    0.24620E-07         0.14666E-10         0.00000E+00
    0.24690E-07         0.17196E-10         0.00000E+00
    0.24746E-07         0.19236E-10         0.00000E+00
    0.24789E-07         0.20428E-10         0.00000E+00
    0.24817E-07         0.20292E-10         0.00000E+00
    0.24833E-07         0.18209E-10         0.00000E+00
    0.24837E-07         0.13424E-10         0.00000E+00
    0.24829E-07         0.51270E-11         0.00000E+00
    0.68596E-08         0.29911E-11         0.00000E+00
    0.68523E-08         0.79106E-11         0.00000E+00
    0.68507E-08         0.10927E-10         0.00000E+00
    0.68550E-08         0.12481E-10         0.00000E+00
    0.68656E-08         0.12983E-10         0.00000E+00
    0.68827E-08         0.12768E-10         0.00000E+00
    0.69066E-08         0.12095E-10         0.00000E+00
    0.69375E-08         0.11153E-10         0.00000E+00
    0.69753E-08         0.10078E-10         0.00000E+00
    0.70203E-08         0.89617E-11         0.00000E+00
    0.70723E-08         0.78634E-11         0.00000E+00
    0.71313E-08         0.68196E-11         0.00000E+00
    0.71973E-08         0.58503E-11         0.00000E+00
    0.72702E-08         0.49640E-11         0.00000E+00
    0.73501E-08         0.41618E-11         0.00000E+00
    0.74367E-08         0.34402E-11         0.00000E+00
    0.75301E-08         0.27928E-11         0.00000E+00
    0.76302E-08         0.22120E-11         0.00000E+00
    0.77369E-08         0.16895E-11         0.00000E+00
    0.78501E-08         0.12171E-11         0.00000E+00
    0.79699E-08         0.78732E-12         0.00000E+00
    0.80961E-08         0.39293E-12         0.00000E+00
    0.82287E-08         0.27593E-13         0.00000E+00
    0.83676E-08        -0.31433E-12         0.00000E+00
    0.85128E-08        -0.63777E-12         0.00000E+00
    0.86643E-08        -0.94704E-12         0.00000E+00
    0.88219E-08        -0.12458E-11         0.00000E+00
    0.89856E-08        -0.15372E-11         0.00000E+00
    0.91554E-08        -0.18241E-11         0.00000E+00
    0.93313E-08        -0.21086E-11         0.00000E+00
    0.95130E-08        -0.23927E-11         0.00000E+00
    0.97007E-08        -0.26781E-11         0.00000E+00
    0.98942E-08        -0.29661E-11         0.00000E+00
    0.10093E-07        -0.32580E-11         0.00000E+00
    0.10298E-07        -0.35546E-11         0.00000E+00
    0.10509E-07        -0.38568E-11         0.00000E+00
    0.10725E-07        -0.41651E-11         0.00000E+00
    0.10946E-07        -0.44801E-11         0.00000E+00
    0.11173E-07        -0.48022E-11         0.00000E+00
    0.11405E-07        -0.51314E-11         0.00000E+00
    0.11642E-07        -0.54680E-11         0.00000E+00
    0.11884E-07        -0.58120E-11         0.00000E+00
    0.12131E-07        -0.61632E-11         0.00000E+00
    0.12383E-07        -0.65215E-11         0.00000E+00
    0.12639E-07        -0.68865E-11         0.00000E+00
    0.12900E-07        -0.72578E-11         0.00000E+00
    0.13165E-07        -0.76348E-11         0.00000E+00
    0.13434E-07        -0.80170E-11         0.00000E+00
    0.13708E-07        -0.84036E-11         0.00000E+00
    0.13984E-07        -0.87937E-11         0.00000E+00
    0.14265E-07        -0.91863E-11         0.00000E+00
    0.14548E-07        -0.95803E-11         0.00000E+00
    0.14835E-07        -0.99744E-11         0.00000E+00
    0.15125E-07        -0.10367E-10         0.00000E+00
    0.15417E-07        -0.10758E-10         0.00000E+00
    0.15711E-07        -0.11143E-10         0.00000E+00
    0.16008E-07        -0.11523E-10         0.00000E+00
    0.16306E-07        -0.11895E-10         0.00000E+00
    0.16605E-07        -0.12256E-10         0.00000E+00
    0.16906E-07        -0.12605E-10         0.00000E+00
    0.17207E-07        -0.12938E-10         0.00000E+00
    0.17509E-07        -0.13254E-10         0.00000E+00
    0.17811E-07        -0.13550E-10         0.00000E+00
    0.18113E-07        -0.13822E-10         0.00000E+00
    0.18414E-07        -0.14067E-10         0.00000E+00
    0.18714E-07        -0.14283E-10         0.00000E+00
    0.19012E-07        -0.14464E-10         0.00000E+00
    0.19308E-07        -0.14607E-10         0.00000E+00
    0.19602E-07        -0.14707E-10         0.00000E+00
    0.19893E-07        -0.14761E-10         0.00000E+00
    0.20180E-07        -0.14762E-10         0.00000E+00
    0.20464E-07        -0.14705E-10         0.00000E+00
    0.20744E-07        -0.14585E-10         0.00000E+00
    0.21018E-07        -0.14395E-10         0.00000E+00
    0.21288E-07        -0.14126E-10         0.00000E+00
    0.21551E-07        -0.13772E-10         0.00000E+00
    0.21809E-07        -0.13324E-10         0.00000E+00
    0.22059E-07        -0.12771E-10         0.00000E+00
    0.22302E-07        -0.12102E-10         0.00000E+00
    0.22536E-07        -0.11306E-10         0.00000E+00
    0.22763E-07        -0.10370E-10         0.00000E+00
    0.22980E-07        -0.92801E-11         0.00000E+00
    0.23187E-07        -0.80209E-11         0.00000E+00
    0.23385E-07        -0.65776E-11         0.00000E+00
    0.23571E-07        -0.49356E-11         0.00000E+00
    0.23747E-07        -0.30822E-11         0.00000E+00
    0.23910E-07        -0.10077E-11         0.00000E+00
    0.24062E-07         0.12910E-11         0.00000E+00
    0.24201E-07         0.38070E-11         0.00000E+00
    0.24326E-07         0.65180E-11         0.00000E+00
    0.24438E-07         0.93785E-11         0.00000E+00
    0.24537E-07         0.12310E-10         0.00000E+00
    0.24621E-07         0.15187E-10         0.00000E+00
    0.24691E-07         0.17823E-10         0.00000E+00
    0.24747E-07         0.19947E-10         0.00000E+00
    0.24789E-07         0.21183E-10         0.00000E+00
    0.24817E-07         0.21029E-10         0.00000E+00
    0.24833E-07         0.18843E-10         0.00000E+00
    0.24835E-07         0.13861E-10         0.00000E+00
    0.24827E-07         0.52846E-11         0.00000E+00
    0.68608E-08         0.30704E-11         0.00000E+00
    0.68531E-08         0.81315E-11         0.00000E+00
    0.68512E-08         0.11250E-10         0.00000E+00
    0.68552E-08         0.12863E-10         0.00000E+00
    0.68656E-08         0.13385E-10         0.00000E+00
    0.68826E-08         0.13162E-10         0.00000E+00
    0.69065E-08         0.12462E-10         0.00000E+00
    0.69373E-08         0.11484E-10         0.00000E+00
    0.69751E-08         0.10369E-10         0.00000E+00
    0.70200E-08         0.92117E-11         0.00000E+00
    0.70720E-08         0.80747E-11         0.00000E+00
    0.71311E-08         0.69955E-11         0.00000E+00
    0.71971E-08         0.59944E-11         0.00000E+00
    0.72701E-08         0.50802E-11         0.00000E+00
    0.73499E-08         0.42537E-11         0.00000E+00
    0.74366E-08         0.35111E-11         0.00000E+00
    0.75300E-08         0.28457E-11         0.00000E+00
    0.76301E-08         0.22493E-11         0.00000E+00
    0.77368E-08         0.17133E-11         0.00000E+00
    0.78500E-08         0.12292E-11         0.00000E+00
    0.79698E-08         0.78904E-12         0.00000E+00
    0.80960E-08         0.38538E-12         0.00000E+00
    0.82286E-08         0.11599E-13         0.00000E+00
    0.83676E-08        -0.33814E-12         0.00000E+00
    0.85128E-08        -0.66897E-12         0.00000E+00
    0.86642E-08        -0.98533E-12         0.00000E+00
    0.88218E-08        -0.12910E-11         0.00000E+00
    0.89856E-08        -0.15893E-11         0.00000E+00
    0.91554E-08        -0.18830E-11         0.00000E+00
    0.93312E-08        -0.21744E-11         0.00000E+00
    0.95130E-08        -0.24656E-11         0.00000E+00
    0.97006E-08        -0.27582E-11         0.00000E+00
    0.98941E-08        -0.30537E-11         0.00000E+00
    0.10093E-07        -0.33533E-11         0.00000E+00
    0.10298E-07        -0.36578E-11         0.00000E+00
    0.10509E-07        -0.39682E-11         0.00000E+00
    0.10725E-07        -0.42850E-11         0.00000E+00
    0.10946E-07        -0.46088E-11         0.00000E+00
    0.11173E-07        -0.49399E-11         0.00000E+00
    0.11405E-07        -0.52786E-11         0.00000E+00
    0.11642E-07        -0.56249E-11         0.00000E+00
    0.11884E-07        -0.59788E-11         0.00000E+00
    0.12131E-07        -0.63403E-11         0.00000E+00
    0.12383E-07        -0.67091E-11         0.00000E+00
    0.12639E-07        -0.70849E-11         0.00000E+00
    0.12900E-07        -0.74673E-11         0.00000E+00
    0.13165E-07        -0.78557E-11         0.00000E+00
    0.13434E-07        -0.82495E-11         0.00000E+00
    0.13707E-07        -0.86479E-11         0.00000E+00
    0.13984E-07        -0.90499E-11         0.00000E+00
    0.14265E-07        -0.94547E-11         0.00000E+00
    0.14548E-07        -0.98609E-11         0.00000E+00
    0.14835E-07        -0.10267E-10         0.00000E+00
    0.15125E-07        -0.10673E-10         0.00000E+00
    0.15417E-07        -0.11075E-10         0.00000E+00
    0.15711E-07        -0.11474E-10         0.00000E+00
    0.16007E-07        -0.11866E-10         0.00000E+00
    0.16306E-07        -0.12249E-10         0.00000E+00
    0.16605E-07        -0.12623E-10         0.00000E+00
    0.16906E-07        -0.12983E-10         0.00000E+00
    0.17207E-07        -0.13328E-10         0.00000E+00
    0.17509E-07        -0.13655E-10         0.00000E+00
    0.17811E-07        -0.13962E-10         0.00000E+00
    0.18113E-07        -0.14244E-10         0.00000E+00
    0.18414E-07        -0.14498E-10         0.00000E+00
    0.18714E-07        -0.14722E-10         0.00000E+00
    0.19012E-07        -0.14911E-10         0.00000E+00
    0.19308E-07        -0.15061E-10         0.00000E+00
    0.19602E-07        -0.15167E-10         0.00000E+00
    0.19893E-07        -0.15225E-10         0.00000E+00
    0.20180E-07        -0.15230E-10         0.00000E+00
    0.20464E-07        -0.15175E-10         0.00000E+00
    0.20744E-07        -0.15055E-10         0.00000E+00
    0.21019E-07        -0.14862E-10         0.00000E+00
    0.21288E-07        -0.14590E-10         0.00000E+00
    0.21551E-07        -0.14230E-10         0.00000E+00
    0.21809E-07        -0.13772E-10         0.00000E+00
    0.22059E-07        -0.13207E-10         0.00000E+00
    0.22302E-07        -0.12522E-10         0.00000E+00
    0.22537E-07        -0.11707E-10         0.00000E+00
    0.22763E-07        -0.10747E-10         0.00000E+00
    0.22980E-07        -0.96278E-11         0.00000E+00
    0.23188E-07        -0.83336E-11         0.00000E+00
    0.23385E-07        -0.68490E-11         0.00000E+00
    0.23572E-07        -0.51584E-11         0.00000E+00
    0.23747E-07        -0.32482E-11         0.00000E+00
    0.23911E-07        -0.11082E-11         0.00000E+00
    0.24062E-07         0.12652E-11         0.00000E+00
    0.24201E-07         0.38655E-11         0.00000E+00
    0.24327E-07         0.66700E-11         0.00000E+00
    0.24439E-07         0.96318E-11         0.00000E+00
    0.24537E-07         0.12670E-10         0.00000E+00
    0.24621E-07         0.15654E-10         0.00000E+00
    0.24691E-07         0.18390E-10         0.00000E+00
    0.24747E-07         0.20594E-10         0.00000E+00
    0.24789E-07         0.21874E-10         0.00000E+00
    0.24817E-07         0.21707E-10         0.00000E+00
    0.24832E-07         0.19431E-10         0.00000E+00
    0.24834E-07         0.14270E-10         0.00000E+00
    0.24825E-07         0.54329E-11         0.00000E+00
    0.68620E-08         0.31441E-11         0.00000E+00
    0.68539E-08         0.83348E-11         0.00000E+00
    0.68516E-08         0.11544E-10         0.00000E+00
    0.68554E-08         0.13208E-10         0.00000E+00
    0.68656E-08         0.13746E-10         0.00000E+00
    0.68825E-08         0.13512E-10         0.00000E+00
    0.69063E-08         0.12787E-10         0.00000E+00
    0.69371E-08         0.11775E-10         0.00000E+00
    0.69749E-08         0.10622E-10         0.00000E+00
    0.70198E-08         0.94272E-11         0.00000E+00
    0.70718E-08         0.82551E-11         0.00000E+00
    0.71308E-08         0.71439E-11         0.00000E+00
    0.71969E-08         0.61145E-11         0.00000E+00
    0.72699E-08         0.51756E-11         0.00000E+00
    0.73497E-08         0.43279E-11         0.00000E+00
    0.74364E-08         0.35671E-11         0.00000E+00
    0.75298E-08         0.28861E-11         0.00000E+00
    0.76299E-08         0.22764E-11         0.00000E+00
    0.77367E-08         0.17290E-11         0.00000E+00
    0.78499E-08         0.12352E-11         0.00000E+00
    0.79697E-08         0.78636E-12         0.00000E+00
    0.80960E-08         0.37504E-12         0.00000E+00
    0.82286E-08        -0.56815E-14         0.00000E+00
    0.83675E-08        -0.36184E-12         0.00000E+00
    0.85127E-08        -0.69873E-12         0.00000E+00
    0.86642E-08        -0.10209E-11         0.00000E+00
    0.88218E-08        -0.13323E-11         0.00000E+00
    0.89855E-08        -0.16363E-11         0.00000E+00
    0.91553E-08        -0.19357E-11         0.00000E+00
    0.93311E-08        -0.22329E-11         0.00000E+00
    0.95129E-08        -0.25301E-11         0.00000E+00
    0.97006E-08        -0.28289E-11         0.00000E+00
    0.98940E-08        -0.31307E-11         0.00000E+00
    0.10093E-07        -0.34368E-11         0.00000E+00
    0.10298E-07        -0.37482E-11         0.00000E+00
    0.10509E-07        -0.40656E-11         0.00000E+00
    0.10725E-07        -0.43898E-11         0.00000E+00
    0.10946E-07        -0.47212E-11         0.00000E+00
    0.11173E-07        -0.50602E-11         0.00000E+00
    0.11405E-07        -0.54070E-11         0.00000E+00
    0.11642E-07        -0.57618E-11         0.00000E+00
    0.11884E-07        -0.61245E-11         0.00000E+00
    0.12131E-07        -0.64950E-11         0.00000E+00
    0.12383E-07        -0.68730E-11         0.00000E+00
    0.12639E-07        -0.72584E-11         0.00000E+00
    0.12900E-07        -0.76506E-11         0.00000E+00
    0.13165E-07        -0.80490E-11         0.00000E+00
    0.13434E-07        -0.84530E-11         0.00000E+00
    0.13707E-07        -0.88618E-11         0.00000E+00
    0.13984E-07        -0.92744E-11         0.00000E+00
    0.14265E-07        -0.96899E-11         0.00000E+00
    0.14548E-07        -0.10107E-10         0.00000E+00
    0.14835E-07        -0.10525E-10         0.00000E+00
    0.15124E-07        -0.10941E-10         0.00000E+00
    0.15417E-07        -0.11355E-10         0.00000E+00
    0.15711E-07        -0.11764E-10         0.00000E+00
    0.16007E-07        -0.12167E-10         0.00000E+00
    0.16306E-07        -0.12562E-10         0.00000E+00
    0.16605E-07        -0.12946E-10         0.00000E+00
    0.16906E-07        -0.13317E-10         0.00000E+00
    0.17207E-07        -0.13672E-10         0.00000E+00
    0.17509E-07        -0.14009E-10         0.00000E+00
    0.17811E-07        -0.14325E-10         0.00000E+00
    0.18113E-07        -0.14616E-10         0.00000E+00
    0.18414E-07        -0.14880E-10         0.00000E+00
    0.18713E-07        -0.15112E-10         0.00000E+00
    0.19012E-07        -0.15308E-10         0.00000E+00
    0.19308E-07        -0.15464E-10         0.00000E+00
    0.19602E-07        -0.15576E-10         0.00000E+00
    0.19893E-07        -0.15639E-10         0.00000E+00
    0.20180E-07        -0.15647E-10         0.00000E+00
    0.20464E-07        -0.15594E-10         0.00000E+00
    0.20744E-07        -0.15475E-10         0.00000E+00
    0.21019E-07        -0.15281E-10         0.00000E+00
    0.21288E-07        -0.15006E-10         0.00000E+00
    0.21552E-07        -0.14641E-10         0.00000E+00
    0.21809E-07        -0.14176E-10         0.00000E+00
    0.22059E-07        -0.13601E-10         0.00000E+00
    0.22302E-07        -0.12904E-10         0.00000E+00
    0.22537E-07        -0.12072E-10         0.00000E+00
    0.22763E-07        -0.11092E-10         0.00000E+00
    0.22980E-07        -0.99478E-11         0.00000E+00
    0.23188E-07        -0.86236E-11         0.00000E+00
    0.23385E-07        -0.71031E-11         0.00000E+00
    0.23572E-07        -0.53700E-11         0.00000E+00
    0.23748E-07        -0.34100E-11         0.00000E+00
    0.23911E-07        -0.12121E-11         0.00000E+00
    0.24063E-07         0.12280E-11         0.00000E+00
    0.24202E-07         0.39040E-11         0.00000E+00
    0.24327E-07         0.67928E-11         0.00000E+00
    0.24439E-07         0.98469E-11         0.00000E+00
    0.24538E-07         0.12983E-10         0.00000E+00
    0.24622E-07         0.16066E-10         0.00000E+00
    0.24692E-07         0.18895E-10         0.00000E+00
    0.24748E-07         0.21176E-10         0.00000E+00
    0.24789E-07         0.22501E-10         0.00000E+00
    0.24817E-07         0.22328E-10         0.00000E+00
    0.24831E-07         0.19973E-10         0.00000E+00
    0.24833E-07         0.14651E-10         0.00000E+00
    0.24822E-07         0.55725E-11         0.00000E+00
    0.68633E-08         0.32122E-11         0.00000E+00
    0.68548E-08         0.85212E-11         0.00000E+00
    0.68521E-08         0.11811E-10         0.00000E+00
    0.68556E-08         0.13517E-10         0.00000E+00
    0.68656E-08         0.14065E-10         0.00000E+00
    0.68824E-08         0.13820E-10         0.00000E+00
    0.69061E-08         0.13069E-10         0.00000E+00
    0.69368E-08         0.12024E-10         0.00000E+00
    0.69746E-08         0.10837E-10         0.00000E+00
    0.70196E-08         0.96082E-11         0.00000E+00
    0.70716E-08         0.84045E-11         0.00000E+00
    0.71306E-08         0.72650E-11         0.00000E+00
    0.71967E-08         0.62108E-11         0.00000E+00
    0.72697E-08         0.52504E-11         0.00000E+00
    0.73496E-08         0.43844E-11         0.00000E+00
    0.74363E-08         0.36082E-11         0.00000E+00
    0.75297E-08         0.29142E-11         0.00000E+00
    0.76298E-08         0.22936E-11         0.00000E+00
    0.77366E-08         0.17369E-11         0.00000E+00
    0.78499E-08         0.12351E-11         0.00000E+00
    0.79696E-08         0.77946E-12         0.00000E+00
    0.80959E-08         0.36208E-12         0.00000E+00
    0.82285E-08        -0.24093E-13         0.00000E+00
    0.83674E-08        -0.38529E-12         0.00000E+00
    0.85127E-08        -0.72693E-12         0.00000E+00
    0.86641E-08        -0.10537E-11         0.00000E+00
    0.88217E-08        -0.13696E-11         0.00000E+00
    0.89855E-08        -0.16781E-11         0.00000E+00
    0.91553E-08        -0.19821E-11         0.00000E+00
    0.93311E-08        -0.22841E-11         0.00000E+00
    0.95128E-08        -0.25861E-11         0.00000E+00
    0.97005E-08        -0.28899E-11         0.00000E+00
    0.98940E-08        -0.31970E-11         0.00000E+00
    0.10093E-07        -0.35086E-11         0.00000E+00
    0.10298E-07        -0.38257E-11         0.00000E+00
    0.10509E-07        -0.41491E-11         0.00000E+00
    0.10725E-07        -0.44795E-11         0.00000E+00
    0.10946E-07        -0.48173E-11         0.00000E+00
    0.11173E-07        -0.51630E-11         0.00000E+00
    0.11405E-07        -0.55168E-11         0.00000E+00
    0.11642E-07        -0.58788E-11         0.00000E+00
    0.11884E-07        -0.62490E-11         0.00000E+00
    0.12131E-07        -0.66272E-11         0.00000E+00
    0.12383E-07        -0.70133E-11         0.00000E+00
    0.12639E-07        -0.74069E-11         0.00000E+00
    0.12900E-07        -0.78075E-11         0.00000E+00
    0.13165E-07        -0.82146E-11         0.00000E+00
    0.13434E-07        -0.86274E-11         0.00000E+00
    0.13707E-07        -0.90453E-11         0.00000E+00
    0.13984E-07        -0.94672E-11         0.00000E+00
    0.14264E-07        -0.98920E-11         0.00000E+00
    0.14548E-07        -0.10319E-10         0.00000E+00
    0.14835E-07        -0.10746E-10         0.00000E+00
    0.15124E-07        -0.11172E-10         0.00000E+00
    0.15416E-07        -0.11595E-10         0.00000E+00
    0.15711E-07        -0.12014E-10         0.00000E+00
    0.16007E-07        -0.12427E-10         0.00000E+00
    0.16306E-07        -0.12831E-10         0.00000E+00
    0.16605E-07        -0.13225E-10         0.00000E+00
    0.16906E-07        -0.13605E-10         0.00000E+00
    0.17207E-07        -0.13970E-10         0.00000E+00
    0.17509E-07        -0.14316E-10         0.00000E+00
    0.17811E-07        -0.14641E-10         0.00000E+00
    0.18113E-07        -0.14940E-10         0.00000E+00
    0.18414E-07        -0.15212E-10         0.00000E+00
    0.18713E-07        -0.15451E-10         0.00000E+00
    0.19012E-07        -0.15654E-10         0.00000E+00
    0.19308E-07        -0.15816E-10         0.00000E+00
    0.19602E-07        -0.15934E-10         0.00000E+00
    0.19893E-07        -0.16001E-10         0.00000E+00
    0.20180E-07        -0.16012E-10         0.00000E+00
    0.20464E-07        -0.15962E-10         0.00000E+00
    0.20744E-07        -0.15844E-10         0.00000E+00
    0.21019E-07        -0.15651E-10         0.00000E+00
    0.21288E-07        -0.15374E-10         0.00000E+00
    0.21552E-07        -0.15006E-10         0.00000E+00
    0.21809E-07        -0.14536E-10         0.00000E+00
    0.22059E-07        -0.13953E-10         0.00000E+00
    0.22302E-07        -0.13246E-10         0.00000E+00
    0.22537E-07        -0.12401E-10         0.00000E+00
    0.22763E-07        -0.11404E-10         0.00000E+00
    0.22981E-07        -0.10239E-10         0.00000E+00
    0.23188E-07        -0.88902E-11         0.00000E+00
    0.23386E-07        -0.73393E-11         0.00000E+00
    0.23573E-07        -0.55700E-11         0.00000E+00
    0.23748E-07        -0.35670E-11         0.00000E+00
    0.23912E-07        -0.13187E-11         0.00000E+00
    0.24063E-07         0.11798E-11         0.00000E+00
    0.24202E-07         0.39225E-11         0.00000E+00
    0.24328E-07         0.68866E-11         0.00000E+00
    0.24440E-07         0.10024E-10         0.00000E+00
    0.24538E-07         0.13248E-10         0.00000E+00
    0.24623E-07         0.16423E-10         0.00000E+00
    0.24692E-07         0.19339E-10         0.00000E+00
    0.24748E-07         0.21693E-10         0.00000E+00
    0.24789E-07         0.23064E-10         0.00000E+00
    0.24817E-07         0.22891E-10         0.00000E+00
    0.24830E-07         0.20472E-10         0.00000E+00
    0.24831E-07         0.15006E-10         0.00000E+00
    0.24820E-07         0.57039E-11         0.00000E+00
    0.68646E-08         0.32751E-11         0.00000E+00
    0.68556E-08         0.86911E-11         0.00000E+00
    0.68526E-08         0.12050E-10         0.00000E+00
    0.68558E-08         0.13790E-10         0.00000E+00
    0.68656E-08         0.14344E-10         0.00000E+00
    0.68823E-08         0.14085E-10         0.00000E+00
    0.69059E-08         0.13308E-10         0.00000E+00
    0.69366E-08         0.12233E-10         0.00000E+00
    0.69744E-08         0.11014E-10         0.00000E+00
    0.70193E-08         0.97547E-11         0.00000E+00
    0.70713E-08         0.85231E-11         0.00000E+00
    0.71304E-08         0.73589E-11         0.00000E+00
    0.71965E-08         0.62833E-11         0.00000E+00
    0.72695E-08         0.53048E-11         0.00000E+00
    0.73494E-08         0.44236E-11         0.00000E+00
    0.74361E-08         0.36347E-11         0.00000E+00
    0.75296E-08         0.29303E-11         0.00000E+00
    0.76297E-08         0.23010E-11         0.00000E+00
    0.77365E-08         0.17372E-11         0.00000E+00
    0.78498E-08         0.12293E-11         0.00000E+00
    0.79696E-08         0.76854E-12         0.00000E+00
    0.80958E-08         0.34669E-12         0.00000E+00
    0.82284E-08        -0.43471E-13         0.00000E+00
    0.83674E-08        -0.40833E-12         0.00000E+00
    0.85126E-08        -0.75344E-12         0.00000E+00
    0.86640E-08        -0.10836E-11         0.00000E+00
    0.88217E-08        -0.14029E-11         0.00000E+00
    0.89854E-08        -0.17148E-11         0.00000E+00
    0.91552E-08        -0.20222E-11         0.00000E+00
    0.93310E-08        -0.23278E-11         0.00000E+00
    0.95128E-08        -0.26336E-11         0.00000E+00
    0.97004E-08        -0.29414E-11         0.00000E+00
    0.98939E-08        -0.32526E-11         0.00000E+00
    0.10093E-07        -0.35686E-11         0.00000E+00
    0.10298E-07        -0.38903E-11         0.00000E+00
    0.10509E-07        -0.42185E-11         0.00000E+00
    0.10725E-07        -0.45540E-11         0.00000E+00
    0.10946E-07        -0.48971E-11         0.00000E+00
    0.11173E-07        -0.52484E-11         0.00000E+00
    0.11405E-07        -0.56079E-11         0.00000E+00
    0.11642E-07        -0.59759E-11         0.00000E+00
    0.11884E-07        -0.63523E-11         0.00000E+00
    0.12131E-07        -0.67371E-11         0.00000E+00
    0.12383E-07        -0.71298E-11         0.00000E+00
    0.12639E-07        -0.75303E-11         0.00000E+00
    0.12900E-07        -0.79381E-11         0.00000E+00
    0.13165E-07        -0.83525E-11         0.00000E+00
    0.13434E-07        -0.87729E-11         0.00000E+00
    0.13707E-07        -0.91984E-11         0.00000E+00
    0.13984E-07        -0.96281E-11         0.00000E+00
    0.14264E-07        -0.10061E-10         0.00000E+00
    0.14548E-07        -0.10496E-10         0.00000E+00
    0.14835E-07        -0.10931E-10         0.00000E+00
    0.15124E-07        -0.11365E-10         0.00000E+00
    0.15416E-07        -0.11797E-10         0.00000E+00
    0.15711E-07        -0.12225E-10         0.00000E+00
    0.16007E-07        -0.12646E-10         0.00000E+00
    0.16305E-07        -0.13058E-10         0.00000E+00
    0.16605E-07        -0.13460E-10         0.00000E+00
    0.16906E-07        -0.13849E-10         0.00000E+00
    0.17207E-07        -0.14222E-10         0.00000E+00
    0.17509E-07        -0.14576E-10         0.00000E+00
    0.17811E-07        -0.14908E-10         0.00000E+00
    0.18113E-07        -0.15215E-10         0.00000E+00
    0.18414E-07        -0.15493E-10         0.00000E+00
    0.18713E-07        -0.15739E-10         0.00000E+00
    0.19012E-07        -0.15948E-10         0.00000E+00
    0.19308E-07        -0.16117E-10         0.00000E+00
    0.19602E-07        -0.16239E-10         0.00000E+00
    0.19893E-07        -0.16311E-10         0.00000E+00
    0.20180E-07        -0.16327E-10         0.00000E+00
    0.20464E-07        -0.16279E-10         0.00000E+00
    0.20744E-07        -0.16163E-10         0.00000E+00
    0.21019E-07        -0.15971E-10         0.00000E+00
    0.21288E-07        -0.15694E-10         0.00000E+00
    0.21552E-07        -0.15324E-10         0.00000E+00
    0.21809E-07        -0.14850E-10         0.00000E+00
    0.22059E-07        -0.14262E-10         0.00000E+00
    0.22302E-07        -0.13548E-10         0.00000E+00
    0.22537E-07        -0.12693E-10         0.00000E+00
    0.22763E-07        -0.11683E-10         0.00000E+00
    0.22981E-07        -0.10502E-10         0.00000E+00
    0.23189E-07        -0.91325E-11         0.00000E+00
    0.23386E-07        -0.75569E-11         0.00000E+00
    0.23573E-07        -0.57575E-11         0.00000E+00
    0.23748E-07        -0.37185E-11         0.00000E+00
    0.23912E-07        -0.14276E-11         0.00000E+00
    0.24064E-07         0.11209E-11         0.00000E+00
    0.24203E-07         0.39215E-11         0.00000E+00
    0.24329E-07         0.69514E-11         0.00000E+00
    0.24441E-07         0.10162E-10         0.00000E+00
    0.24539E-07         0.13466E-10         0.00000E+00
    0.24623E-07         0.16723E-10         0.00000E+00
    0.24693E-07         0.19720E-10         0.00000E+00
    0.24748E-07         0.22145E-10         0.00000E+00
    0.24789E-07         0.23564E-10         0.00000E+00
    0.24816E-07         0.23398E-10         0.00000E+00
    0.24830E-07         0.20927E-10         0.00000E+00
    0.24830E-07         0.15336E-10         0.00000E+00
    0.24818E-07         0.58273E-11         0.00000E+00
    0.68659E-08         0.33328E-11         0.00000E+00
    0.68565E-08         0.88448E-11         0.00000E+00
    0.68531E-08         0.12262E-10         0.00000E+00
    0.68560E-08         0.14028E-10         0.00000E+00
    0.68657E-08         0.14581E-10         0.00000E+00
    0.68822E-08         0.14306E-10         0.00000E+00
    0.69057E-08         0.13505E-10         0.00000E+00
    0.69364E-08         0.12401E-10         0.00000E+00
    0.69741E-08         0.11153E-10         0.00000E+00
    0.70191E-08         0.98666E-11         0.00000E+00
    0.70711E-08         0.86109E-11         0.00000E+00
    0.71302E-08         0.74257E-11         0.00000E+00
    0.71963E-08         0.63323E-11         0.00000E+00
    0.72693E-08         0.53390E-11         0.00000E+00
    0.73492E-08         0.44457E-11         0.00000E+00
    0.74360E-08         0.36469E-11         0.00000E+00
    0.75294E-08         0.29346E-11         0.00000E+00
    0.76296E-08         0.22990E-11         0.00000E+00
    0.77364E-08         0.17300E-11         0.00000E+00
    0.78497E-08         0.12180E-11         0.00000E+00
    0.79695E-08         0.75381E-12         0.00000E+00
    0.80957E-08         0.32906E-12         0.00000E+00
    0.82283E-08        -0.63642E-13         0.00000E+00
    0.83673E-08        -0.43082E-12         0.00000E+00
    0.85125E-08        -0.77812E-12         0.00000E+00
    0.86640E-08        -0.11104E-11         0.00000E+00
    0.88216E-08        -0.14319E-11         0.00000E+00
    0.89853E-08        -0.17461E-11         0.00000E+00
    0.91551E-08        -0.20559E-11         0.00000E+00
    0.93310E-08        -0.23641E-11         0.00000E+00
    0.95127E-08        -0.26726E-11         0.00000E+00
    0.97004E-08        -0.29832E-11         0.00000E+00
    0.98938E-08        -0.32976E-11         0.00000E+00
    0.10093E-07        -0.36168E-11         0.00000E+00
    0.10298E-07        -0.39420E-11         0.00000E+00
    0.10508E-07        -0.42740E-11         0.00000E+00
    0.10725E-07        -0.46133E-11         0.00000E+00
    0.10946E-07        -0.49607E-11         0.00000E+00
    0.11173E-07        -0.53163E-11         0.00000E+00
    0.11405E-07        -0.56804E-11         0.00000E+00
    0.11642E-07        -0.60532E-11         0.00000E+00
    0.11884E-07        -0.64346E-11         0.00000E+00
    0.12131E-07        -0.68245E-11         0.00000E+00
    0.12383E-07        -0.72227E-11         0.00000E+00
    0.12639E-07        -0.76288E-11         0.00000E+00
    0.12900E-07        -0.80423E-11         0.00000E+00
    0.13165E-07        -0.84627E-11         0.00000E+00
    0.13434E-07        -0.88892E-11         0.00000E+00
    0.13707E-07        -0.93210E-11         0.00000E+00
    0.13984E-07        -0.97572E-11         0.00000E+00
    0.14264E-07        -0.10197E-10         0.00000E+00
    0.14548E-07        -0.10638E-10         0.00000E+00
    0.14835E-07        -0.11080E-10         0.00000E+00
    0.15124E-07        -0.11522E-10         0.00000E+00
    0.15416E-07        -0.11960E-10         0.00000E+00
    0.15711E-07        -0.12395E-10         0.00000E+00
    0.16007E-07        -0.12823E-10         0.00000E+00
    0.16305E-07        -0.13243E-10         0.00000E+00
    0.16605E-07        -0.13652E-10         0.00000E+00
    0.16906E-07        -0.14047E-10         0.00000E+00
    0.17207E-07        -0.14427E-10         0.00000E+00
    0.17509E-07        -0.14788E-10         0.00000E+00
    0.17811E-07        -0.15127E-10         0.00000E+00
    0.18113E-07        -0.15440E-10         0.00000E+00
    0.18414E-07        -0.15725E-10         0.00000E+00
    0.18713E-07        -0.15977E-10         0.00000E+00
    0.19012E-07        -0.16192E-10         0.00000E+00
    0.19308E-07        -0.16365E-10         0.00000E+00
    0.19602E-07        -0.16493E-10         0.00000E+00
    0.19893E-07        -0.16569E-10         0.00000E+00
    0.20180E-07        -0.16588E-10         0.00000E+00
    0.20464E-07        -0.16545E-10         0.00000E+00
    0.20744E-07        -0.16431E-10         0.00000E+00
    0.21019E-07        -0.16240E-10         0.00000E+00
    0.21288E-07        -0.15964E-10         0.00000E+00
    0.21552E-07        -0.15594E-10         0.00000E+00
    0.21809E-07        -0.15119E-10         0.00000E+00
    0.22059E-07        -0.14528E-10         0.00000E+00
    0.22302E-07        -0.13808E-10         0.00000E+00
    0.22537E-07        -0.12947E-10         0.00000E+00
    0.22764E-07        -0.11928E-10         0.00000E+00
    0.22981E-07        -0.10735E-10         0.00000E+00
    0.23189E-07        -0.93499E-11         0.00000E+00
    0.23386E-07        -0.77550E-11         0.00000E+00
    0.23573E-07        -0.59319E-11         0.00000E+00
    0.23749E-07        -0.38640E-11         0.00000E+00
    0.23913E-07        -0.15382E-11         0.00000E+00
    0.24064E-07         0.10519E-11         0.00000E+00
    0.24203E-07         0.39012E-11         0.00000E+00
    0.24329E-07         0.69874E-11         0.00000E+00
    0.24441E-07         0.10261E-10         0.00000E+00
    0.24540E-07         0.13636E-10         0.00000E+00
    0.24624E-07         0.16968E-10         0.00000E+00
    0.24694E-07         0.20039E-10         0.00000E+00
    0.24749E-07         0.22531E-10         0.00000E+00
    0.24790E-07         0.23999E-10         0.00000E+00
    0.24816E-07         0.23848E-10         0.00000E+00
    0.24829E-07         0.21339E-10         0.00000E+00
    0.24828E-07         0.15640E-10         0.00000E+00
    0.24815E-07         0.59428E-11         0.00000E+00
    0.68673E-08         0.33853E-11         0.00000E+00
    0.68574E-08         0.89824E-11         0.00000E+00
    0.68536E-08         0.12447E-10         0.00000E+00
    0.68562E-08         0.14229E-10         0.00000E+00
    0.68657E-08         0.14778E-10         0.00000E+00
    0.68821E-08         0.14484E-10         0.00000E+00
    0.69055E-08         0.13658E-10         0.00000E+00
    0.69361E-08         0.12527E-10         0.00000E+00
    0.69739E-08         0.11253E-10         0.00000E+00
    0.70188E-08         0.99441E-11         0.00000E+00
    0.70708E-08         0.86680E-11         0.00000E+00
    0.71300E-08         0.74656E-11         0.00000E+00
    0.71961E-08         0.63580E-11         0.00000E+00
    0.72691E-08         0.53533E-11         0.00000E+00
    0.73491E-08         0.44509E-11         0.00000E+00
    0.74358E-08         0.36452E-11         0.00000E+00
    0.75293E-08         0.29274E-11         0.00000E+00
    0.76295E-08         0.22877E-11         0.00000E+00
    0.77362E-08         0.17157E-11         0.00000E+00
    0.78496E-08         0.12014E-11         0.00000E+00
    0.79694E-08         0.73550E-12         0.00000E+00
    0.80956E-08         0.30939E-12         0.00000E+00
    0.82283E-08        -0.84426E-13         0.00000E+00
    0.83672E-08        -0.45259E-12         0.00000E+00
    0.85124E-08        -0.80084E-12         0.00000E+00
    0.86639E-08        -0.11341E-11         0.00000E+00
    0.88215E-08        -0.14566E-11         0.00000E+00
    0.89853E-08        -0.17720E-11         0.00000E+00
    0.91551E-08        -0.20832E-11         0.00000E+00
    0.93309E-08        -0.23928E-11         0.00000E+00
    0.95127E-08        -0.27029E-11         0.00000E+00
    0.97003E-08        -0.30154E-11         0.00000E+00
    0.98938E-08        -0.33318E-11         0.00000E+00
    0.10093E-07        -0.36533E-11         0.00000E+00
    0.10298E-07        -0.39809E-11         0.00000E+00
    0.10508E-07        -0.43154E-11         0.00000E+00
    0.10724E-07        -0.46576E-11         0.00000E+00
    0.10946E-07        -0.50079E-11         0.00000E+00
    0.11173E-07        -0.53667E-11         0.00000E+00
    0.11405E-07        -0.57343E-11         0.00000E+00
    0.11642E-07        -0.61106E-11         0.00000E+00
    0.11884E-07        -0.64958E-11         0.00000E+00
    0.12131E-07        -0.68896E-11         0.00000E+00
    0.12383E-07        -0.72919E-11         0.00000E+00
    0.12639E-07        -0.77023E-11         0.00000E+00
    0.12900E-07        -0.81203E-11         0.00000E+00
    0.13165E-07        -0.85452E-11         0.00000E+00
    0.13434E-07        -0.89765E-11         0.00000E+00
    0.13707E-07        -0.94132E-11         0.00000E+00
    0.13984E-07        -0.98545E-11         0.00000E+00
    0.14264E-07        -0.10299E-10         0.00000E+00
    0.14548E-07        -0.10746E-10         0.00000E+00
    0.14835E-07        -0.11193E-10         0.00000E+00
    0.15124E-07        -0.11640E-10         0.00000E+00
    0.15416E-07        -0.12085E-10         0.00000E+00
    0.15711E-07        -0.12525E-10         0.00000E+00
    0.16007E-07        -0.12959E-10         0.00000E+00
    0.16305E-07        -0.13384E-10         0.00000E+00
    0.16605E-07        -0.13799E-10         0.00000E+00
    0.16906E-07        -0.14200E-10         0.00000E+00
    0.17207E-07        -0.14586E-10         0.00000E+00
    0.17509E-07        -0.14952E-10         0.00000E+00
    0.17811E-07        -0.15297E-10         0.00000E+00
    0.18113E-07        -0.15616E-10         0.00000E+00
    0.18413E-07        -0.15906E-10         0.00000E+00
    0.18713E-07        -0.16163E-10         0.00000E+00
    0.19012E-07        -0.16383E-10         0.00000E+00
    0.19308E-07        -0.16562E-10         0.00000E+00
    0.19602E-07        -0.16694E-10         0.00000E+00
    0.19893E-07        -0.16775E-10         0.00000E+00
    0.20180E-07        -0.16798E-10         0.00000E+00
    0.20464E-07        -0.16758E-10         0.00000E+00
    0.20744E-07        -0.16647E-10         0.00000E+00
    0.21019E-07        -0.16459E-10         0.00000E+00
    0.21288E-07        -0.16185E-10         0.00000E+00
    0.21552E-07        -0.15816E-10         0.00000E+00
    0.21809E-07        -0.15341E-10         0.00000E+00
    0.22060E-07        -0.14749E-10         0.00000E+00
    0.22302E-07        -0.14027E-10         0.00000E+00
    0.22537E-07        -0.13162E-10         0.00000E+00
    0.22764E-07        -0.12138E-10         0.00000E+00
    0.22981E-07        -0.10937E-10         0.00000E+00
    0.23189E-07        -0.95415E-11         0.00000E+00
    0.23387E-07        -0.79330E-11         0.00000E+00
    0.23574E-07        -0.60924E-11         0.00000E+00
    0.23749E-07        -0.40026E-11         0.00000E+00
    0.23913E-07        -0.16497E-11         0.00000E+00
    0.24065E-07         0.97325E-12         0.00000E+00
    0.24204E-07         0.38621E-11         0.00000E+00
    0.24330E-07         0.69949E-11         0.00000E+00
    0.24442E-07         0.10323E-10         0.00000E+00
    0.24540E-07         0.13757E-10         0.00000E+00
    0.24624E-07         0.17155E-10         0.00000E+00
    0.24694E-07         0.20294E-10         0.00000E+00
    0.24749E-07         0.22851E-10         0.00000E+00
    0.24790E-07         0.24369E-10         0.00000E+00
    0.24816E-07         0.24240E-10         0.00000E+00
    0.24828E-07         0.21708E-10         0.00000E+00
    0.24827E-07         0.15919E-10         0.00000E+00
    0.24813E-07         0.60505E-11         0.00000E+00
    0.68686E-08         0.34328E-11         0.00000E+00
    0.68582E-08         0.91039E-11         0.00000E+00
    0.68541E-08         0.12605E-10         0.00000E+00
    0.68565E-08         0.14395E-10         0.00000E+00
    0.68657E-08         0.14933E-10         0.00000E+00
    0.68819E-08         0.14618E-10         0.00000E+00
    0.69053E-08         0.13768E-10         0.00000E+00
    0.69359E-08         0.12613E-10         0.00000E+00
    0.69736E-08         0.11316E-10         0.00000E+00
    0.70185E-08         0.99871E-11         0.00000E+00
    0.70706E-08         0.86945E-11         0.00000E+00
    0.71297E-08         0.74788E-11         0.00000E+00
    0.71959E-08         0.63607E-11         0.00000E+00
    0.72689E-08         0.53479E-11         0.00000E+00
    0.73489E-08         0.44396E-11         0.00000E+00
    0.74357E-08         0.36296E-11         0.00000E+00
    0.75292E-08         0.29091E-11         0.00000E+00
    0.76293E-08         0.22676E-11         0.00000E+00
    0.77361E-08         0.16946E-11         0.00000E+00
    0.78495E-08         0.11798E-11         0.00000E+00
    0.79693E-08         0.71383E-12         0.00000E+00
    0.80955E-08         0.28790E-12         0.00000E+00
    0.82282E-08        -0.10564E-12         0.00000E+00
    0.83671E-08        -0.47348E-12         0.00000E+00
    0.85124E-08        -0.82146E-12         0.00000E+00
    0.86638E-08        -0.11545E-11         0.00000E+00
    0.88215E-08        -0.14770E-11         0.00000E+00
    0.89852E-08        -0.17924E-11         0.00000E+00
    0.91550E-08        -0.21039E-11         0.00000E+00
    0.93308E-08        -0.24139E-11         0.00000E+00
    0.95126E-08        -0.27246E-11         0.00000E+00
    0.97002E-08        -0.30379E-11         0.00000E+00
    0.98937E-08        -0.33552E-11         0.00000E+00
    0.10093E-07        -0.36779E-11         0.00000E+00
    0.10298E-07        -0.40068E-11         0.00000E+00
    0.10508E-07        -0.43429E-11         0.00000E+00
    0.10724E-07        -0.46868E-11         0.00000E+00
    0.10946E-07        -0.50389E-11         0.00000E+00
    0.11173E-07        -0.53998E-11         0.00000E+00
    0.11405E-07        -0.57695E-11         0.00000E+00
    0.11642E-07        -0.61482E-11         0.00000E+00
    0.11884E-07        -0.65359E-11         0.00000E+00
    0.12131E-07        -0.69324E-11         0.00000E+00
    0.12383E-07        -0.73375E-11         0.00000E+00
    0.12639E-07        -0.77508E-11         0.00000E+00
    0.12900E-07        -0.81719E-11         0.00000E+00
    0.13165E-07        -0.86001E-11         0.00000E+00
    0.13434E-07        -0.90348E-11         0.00000E+00
    0.13707E-07        -0.94750E-11         0.00000E+00
    0.13984E-07        -0.99199E-11         0.00000E+00
    0.14264E-07        -0.10368E-10         0.00000E+00
    0.14548E-07        -0.10819E-10         0.00000E+00
    0.14834E-07        -0.11270E-10         0.00000E+00
    0.15124E-07        -0.11721E-10         0.00000E+00
    0.15416E-07        -0.12170E-10         0.00000E+00
    0.15711E-07        -0.12614E-10         0.00000E+00
    0.16007E-07        -0.13053E-10         0.00000E+00
    0.16305E-07        -0.13483E-10         0.00000E+00
    0.16605E-07        -0.13902E-10         0.00000E+00
    0.16906E-07        -0.14308E-10         0.00000E+00
    0.17207E-07        -0.14698E-10         0.00000E+00
    0.17509E-07        -0.15069E-10         0.00000E+00
    0.17811E-07        -0.15418E-10         0.00000E+00
    0.18112E-07        -0.15742E-10         0.00000E+00
    0.18413E-07        -0.16037E-10         0.00000E+00
    0.18713E-07        -0.16298E-10         0.00000E+00
    0.19012E-07        -0.16523E-10         0.00000E+00
    0.19308E-07        -0.16706E-10         0.00000E+00
    0.19602E-07        -0.16842E-10         0.00000E+00
    0.19893E-07        -0.16927E-10         0.00000E+00
    0.20180E-07        -0.16954E-10         0.00000E+00
    0.20464E-07        -0.16918E-10         0.00000E+00
    0.20744E-07        -0.16811E-10         0.00000E+00
    0.21019E-07        -0.16626E-10         0.00000E+00
    0.21288E-07        -0.16355E-10         0.00000E+00
    0.21552E-07        -0.15988E-10         0.00000E+00
    0.21809E-07        -0.15515E-10         0.00000E+00
    0.22060E-07        -0.14925E-10         0.00000E+00
    0.22303E-07        -0.14204E-10         0.00000E+00
    0.22538E-07        -0.13338E-10         0.00000E+00
    0.22764E-07        -0.12312E-10         0.00000E+00
    0.22982E-07        -0.11107E-10         0.00000E+00
    0.23189E-07        -0.97064E-11         0.00000E+00
    0.23387E-07        -0.80898E-11         0.00000E+00
    0.23574E-07        -0.62382E-11         0.00000E+00
    0.23750E-07        -0.41336E-11         0.00000E+00
    0.23914E-07        -0.17615E-11         0.00000E+00
    0.24066E-07         0.88571E-12         0.00000E+00
    0.24205E-07         0.38047E-11         0.00000E+00
    0.24331E-07         0.69741E-11         0.00000E+00
    0.24443E-07         0.10346E-10         0.00000E+00
    0.24541E-07         0.13831E-10         0.00000E+00
    0.24625E-07         0.17285E-10         0.00000E+00
    0.24695E-07         0.20486E-10         0.00000E+00
    0.24750E-07         0.23102E-10         0.00000E+00
    0.24790E-07         0.24672E-10         0.00000E+00
    0.24816E-07         0.24575E-10         0.00000E+00
    0.24827E-07         0.22033E-10         0.00000E+00
    0.24825E-07         0.16173E-10         0.00000E+00
    0.24811E-07         0.61505E-11         0.00000E+00
    0.68700E-08         0.34752E-11         0.00000E+00
    0.68591E-08         0.92091E-11         0.00000E+00
    0.68546E-08         0.12735E-10         0.00000E+00
    0.68567E-08         0.14524E-10         0.00000E+00
    0.68657E-08         0.15045E-10         0.00000E+00
    0.68818E-08         0.14708E-10         0.00000E+00
    0.69051E-08         0.13834E-10         0.00000E+00
    0.69356E-08         0.12656E-10         0.00000E+00
    0.69733E-08         0.11341E-10         0.00000E+00
    0.70183E-08         0.99958E-11         0.00000E+00
    0.70703E-08         0.86907E-11         0.00000E+00
    0.71295E-08         0.74655E-11         0.00000E+00
    0.71956E-08         0.63406E-11         0.00000E+00
    0.72688E-08         0.53232E-11         0.00000E+00
    0.73487E-08         0.44121E-11         0.00000E+00
    0.74355E-08         0.36007E-11         0.00000E+00
    0.75290E-08         0.28798E-11         0.00000E+00
    0.76292E-08         0.22388E-11         0.00000E+00
    0.77360E-08         0.16668E-11         0.00000E+00
    0.78494E-08         0.11535E-11         0.00000E+00
    0.79692E-08         0.68906E-12         0.00000E+00
    0.80955E-08         0.26479E-12         0.00000E+00
    0.82281E-08        -0.12707E-12         0.00000E+00
    0.83671E-08        -0.49333E-12         0.00000E+00
    0.85123E-08        -0.83982E-12         0.00000E+00
    0.86638E-08        -0.11716E-11         0.00000E+00
    0.88214E-08        -0.14929E-11         0.00000E+00
    0.89852E-08        -0.18073E-11         0.00000E+00
    0.91550E-08        -0.21179E-11         0.00000E+00
    0.93308E-08        -0.24273E-11         0.00000E+00
    0.95125E-08        -0.27376E-11         0.00000E+00
    0.97002E-08        -0.30507E-11         0.00000E+00
    0.98937E-08        -0.33680E-11         0.00000E+00
    0.10093E-07        -0.36907E-11         0.00000E+00
    0.10298E-07        -0.40199E-11         0.00000E+00
    0.10508E-07        -0.43564E-11         0.00000E+00
    0.10724E-07        -0.47008E-11         0.00000E+00
    0.10946E-07        -0.50537E-11         0.00000E+00
    0.11173E-07        -0.54154E-11         0.00000E+00
    0.11405E-07        -0.57861E-11         0.00000E+00
    0.11642E-07        -0.61659E-11         0.00000E+00
    0.11884E-07        -0.65549E-11         0.00000E+00
    0.12131E-07        -0.69528E-11         0.00000E+00
    0.12382E-07        -0.73594E-11         0.00000E+00
    0.12639E-07        -0.77743E-11         0.00000E+00
    0.12900E-07        -0.81972E-11         0.00000E+00
    0.13165E-07        -0.86273E-11         0.00000E+00
    0.13434E-07        -0.90640E-11         0.00000E+00
    0.13707E-07        -0.95063E-11         0.00000E+00
    0.13984E-07        -0.99534E-11         0.00000E+00
    0.14264E-07        -0.10404E-10         0.00000E+00
    0.14548E-07        -0.10857E-10         0.00000E+00
    0.14834E-07        -0.11311E-10         0.00000E+00
    0.15124E-07        -0.11765E-10         0.00000E+00
    0.15416E-07        -0.12216E-10         0.00000E+00
    0.15710E-07        -0.12664E-10         0.00000E+00
    0.16007E-07        -0.13105E-10         0.00000E+00
    0.16305E-07        -0.13538E-10         0.00000E+00
    0.16605E-07        -0.13960E-10         0.00000E+00
    0.16905E-07        -0.14370E-10         0.00000E+00
    0.17207E-07        -0.14763E-10         0.00000E+00
    0.17509E-07        -0.15138E-10         0.00000E+00
    0.17811E-07        -0.15490E-10         0.00000E+00
    0.18112E-07        -0.15818E-10         0.00000E+00
    0.18413E-07        -0.16116E-10         0.00000E+00
    0.18713E-07        -0.16381E-10         0.00000E+00
    0.19011E-07        -0.16610E-10         0.00000E+00
    0.19308E-07        -0.16797E-10         0.00000E+00
    0.19602E-07        -0.16937E-10         0.00000E+00
    0.19893E-07        -0.17026E-10         0.00000E+00
    0.20180E-07        -0.17057E-10         0.00000E+00
    0.20464E-07        -0.17025E-10         0.00000E+00
    0.20744E-07        -0.16923E-10         0.00000E+00
    0.21019E-07        -0.16742E-10         0.00000E+00
    0.21288E-07        -0.16474E-10         0.00000E+00
    0.21552E-07        -0.16111E-10         0.00000E+00
    0.21809E-07        -0.15642E-10         0.00000E+00
    0.22060E-07        -0.15055E-10         0.00000E+00
    0.22303E-07        -0.14337E-10         0.00000E+00
    0.22538E-07        -0.13474E-10         0.00000E+00
    0.22764E-07        -0.12449E-10         0.00000E+00
    0.22982E-07        -0.11245E-10         0.00000E+00
    0.23190E-07        -0.98438E-11         0.00000E+00
    0.23387E-07        -0.82247E-11         0.00000E+00
    0.23574E-07        -0.63682E-11         0.00000E+00
    0.23750E-07        -0.42560E-11         0.00000E+00
    0.23914E-07        -0.18728E-11         0.00000E+00
    0.24066E-07         0.78996E-12         0.00000E+00
    0.24205E-07         0.37296E-11         0.00000E+00
    0.24331E-07         0.69256E-11         0.00000E+00
    0.24443E-07         0.10330E-10         0.00000E+00
    0.24542E-07         0.13856E-10         0.00000E+00
    0.24626E-07         0.17358E-10         0.00000E+00
    0.24695E-07         0.20612E-10         0.00000E+00
    0.24750E-07         0.23286E-10         0.00000E+00
    0.24790E-07         0.24909E-10         0.00000E+00
    0.24815E-07         0.24850E-10         0.00000E+00
    0.24827E-07         0.22314E-10         0.00000E+00
    0.24824E-07         0.16402E-10         0.00000E+00
    0.24808E-07         0.62426E-11         0.00000E+00
    0.68714E-08         0.35123E-11         0.00000E+00
    0.68601E-08         0.92979E-11         0.00000E+00
    0.68551E-08         0.12837E-10         0.00000E+00
    0.68569E-08         0.14616E-10         0.00000E+00
    0.68657E-08         0.15116E-10         0.00000E+00
    0.68817E-08         0.14754E-10         0.00000E+00
    0.69049E-08         0.13856E-10         0.00000E+00
    0.69354E-08         0.12659E-10         0.00000E+00
    0.69731E-08         0.11327E-10         0.00000E+00
    0.70180E-08         0.99703E-11         0.00000E+00
    0.70701E-08         0.86567E-11         0.00000E+00
    0.71292E-08         0.74260E-11         0.00000E+00
    0.71954E-08         0.62981E-11         0.00000E+00
    0.72686E-08         0.52796E-11         0.00000E+00
    0.73486E-08         0.43688E-11         0.00000E+00
    0.74354E-08         0.35588E-11         0.00000E+00
    0.75289E-08         0.28401E-11         0.00000E+00
    0.76291E-08         0.22018E-11         0.00000E+00
    0.77359E-08         0.16328E-11         0.00000E+00
    0.78493E-08         0.11227E-11         0.00000E+00
    0.79691E-08         0.66144E-12         0.00000E+00
    0.80954E-08         0.24031E-12         0.00000E+00
    0.82280E-08        -0.14854E-12         0.00000E+00
    0.83670E-08        -0.51194E-12         0.00000E+00
    0.85122E-08        -0.85577E-12         0.00000E+00
    0.86637E-08        -0.11851E-11         0.00000E+00
    0.88213E-08        -0.15041E-11         0.00000E+00
    0.89851E-08        -0.18165E-11         0.00000E+00
    0.91549E-08        -0.21253E-11         0.00000E+00
    0.93307E-08        -0.24331E-11         0.00000E+00
    0.95125E-08        -0.27419E-11         0.00000E+00
    0.97001E-08        -0.30537E-11         0.00000E+00
    0.98936E-08        -0.33699E-11         0.00000E+00
    0.10093E-07        -0.36916E-11         0.00000E+00
    0.10298E-07        -0.40200E-11         0.00000E+00
    0.10508E-07        -0.43559E-11         0.00000E+00
    0.10724E-07        -0.46998E-11         0.00000E+00
    0.10946E-07        -0.50522E-11         0.00000E+00
    0.11172E-07        -0.54136E-11         0.00000E+00
    0.11404E-07        -0.57841E-11         0.00000E+00
    0.11642E-07        -0.61639E-11         0.00000E+00
    0.11884E-07        -0.65528E-11         0.00000E+00
    0.12131E-07        -0.69508E-11         0.00000E+00
    0.12382E-07        -0.73577E-11         0.00000E+00
    0.12639E-07        -0.77729E-11         0.00000E+00
    0.12899E-07        -0.81962E-11         0.00000E+00
    0.13165E-07        -0.86268E-11         0.00000E+00
    0.13434E-07        -0.90641E-11         0.00000E+00
    0.13707E-07        -0.95071E-11         0.00000E+00
    0.13984E-07        -0.99550E-11         0.00000E+00
    0.14264E-07        -0.10407E-10         0.00000E+00
    0.14548E-07        -0.10861E-10         0.00000E+00
    0.14834E-07        -0.11316E-10         0.00000E+00
    0.15124E-07        -0.11771E-10         0.00000E+00
    0.15416E-07        -0.12224E-10         0.00000E+00
    0.15710E-07        -0.12672E-10         0.00000E+00
    0.16007E-07        -0.13115E-10         0.00000E+00
    0.16305E-07        -0.13550E-10         0.00000E+00
    0.16605E-07        -0.13974E-10         0.00000E+00
    0.16905E-07        -0.14386E-10         0.00000E+00
    0.17207E-07        -0.14781E-10         0.00000E+00
    0.17509E-07        -0.15158E-10         0.00000E+00
    0.17811E-07        -0.15513E-10         0.00000E+00
    0.18112E-07        -0.15843E-10         0.00000E+00
    0.18413E-07        -0.16144E-10         0.00000E+00
    0.18713E-07        -0.16413E-10         0.00000E+00
    0.19011E-07        -0.16644E-10         0.00000E+00
    0.19308E-07        -0.16835E-10         0.00000E+00
    0.19602E-07        -0.16979E-10         0.00000E+00
    0.19893E-07        -0.17071E-10         0.00000E+00
    0.20180E-07        -0.17107E-10         0.00000E+00
    0.20464E-07        -0.17079E-10         0.00000E+00
    0.20744E-07        -0.16980E-10         0.00000E+00
    0.21019E-07        -0.16804E-10         0.00000E+00
    0.21288E-07        -0.16542E-10         0.00000E+00
    0.21552E-07        -0.16184E-10         0.00000E+00
    0.21809E-07        -0.15720E-10         0.00000E+00
    0.22060E-07        -0.15139E-10         0.00000E+00
    0.22303E-07        -0.14426E-10         0.00000E+00
    0.22538E-07        -0.13569E-10         0.00000E+00
    0.22765E-07        -0.12549E-10         0.00000E+00
    0.22982E-07        -0.11350E-10         0.00000E+00
    0.23190E-07        -0.99526E-11         0.00000E+00
    0.23388E-07        -0.83365E-11         0.00000E+00
    0.23575E-07        -0.64816E-11         0.00000E+00
    0.23751E-07        -0.43689E-11         0.00000E+00
    0.23915E-07        -0.19825E-11         0.00000E+00
    0.24067E-07         0.68680E-12         0.00000E+00
    0.24206E-07         0.36374E-11         0.00000E+00
    0.24332E-07         0.68497E-11         0.00000E+00
    0.24444E-07         0.10277E-10         0.00000E+00
    0.24543E-07         0.13833E-10         0.00000E+00
    0.24627E-07         0.17373E-10         0.00000E+00
    0.24696E-07         0.20673E-10         0.00000E+00
    0.24751E-07         0.23400E-10         0.00000E+00
    0.24790E-07         0.25078E-10         0.00000E+00
    0.24815E-07         0.25065E-10         0.00000E+00
    0.24826E-07         0.22549E-10         0.00000E+00
    0.24822E-07         0.16603E-10         0.00000E+00
    0.24806E-07         0.63266E-11         0.00000E+00
    0.68728E-08         0.35441E-11         0.00000E+00
    0.68610E-08         0.93697E-11         0.00000E+00
    0.68556E-08         0.12911E-10         0.00000E+00
    0.68571E-08         0.14670E-10         0.00000E+00
    0.68657E-08         0.15143E-10         0.00000E+00
    0.68815E-08         0.14754E-10         0.00000E+00
    0.69046E-08         0.13834E-10         0.00000E+00
    0.69351E-08         0.12619E-10         0.00000E+00
    0.69728E-08         0.11275E-10         0.00000E+00
    0.70177E-08         0.99106E-11         0.00000E+00
    0.70698E-08         0.85928E-11         0.00000E+00
    0.71290E-08         0.73607E-11         0.00000E+00
    0.71952E-08         0.62335E-11         0.00000E+00
    0.72684E-08         0.52173E-11         0.00000E+00
    0.73484E-08         0.43100E-11         0.00000E+00
    0.74352E-08         0.35043E-11         0.00000E+00
    0.75288E-08         0.27902E-11         0.00000E+00
    0.76290E-08         0.21569E-11         0.00000E+00
    0.77358E-08         0.15929E-11         0.00000E+00
    0.78492E-08         0.10877E-11         0.00000E+00
    0.79690E-08         0.63123E-12         0.00000E+00
    0.80953E-08         0.21469E-12         0.00000E+00
    0.82280E-08        -0.16982E-12         0.00000E+00
    0.83669E-08        -0.52914E-12         0.00000E+00
    0.85122E-08        -0.86915E-12         0.00000E+00
    0.86636E-08        -0.11949E-11         0.00000E+00
    0.88213E-08        -0.15106E-11         0.00000E+00
    0.89850E-08        -0.18200E-11         0.00000E+00
    0.91548E-08        -0.21259E-11         0.00000E+00
    0.93307E-08        -0.24311E-11         0.00000E+00
    0.95124E-08        -0.27375E-11         0.00000E+00
    0.97001E-08        -0.30470E-11         0.00000E+00
    0.98935E-08        -0.33610E-11         0.00000E+00
    0.10093E-07        -0.36808E-11         0.00000E+00
    0.10298E-07        -0.40073E-11         0.00000E+00
    0.10508E-07        -0.43414E-11         0.00000E+00
    0.10724E-07        -0.46836E-11         0.00000E+00
    0.10946E-07        -0.50345E-11         0.00000E+00
    0.11172E-07        -0.53944E-11         0.00000E+00
    0.11404E-07        -0.57636E-11         0.00000E+00
    0.11641E-07        -0.61420E-11         0.00000E+00
    0.11884E-07        -0.65297E-11         0.00000E+00
    0.12131E-07        -0.69266E-11         0.00000E+00
    0.12382E-07        -0.73323E-11         0.00000E+00
    0.12639E-07        -0.77466E-11         0.00000E+00
    0.12899E-07        -0.81689E-11         0.00000E+00
    0.13164E-07        -0.85987E-11         0.00000E+00
    0.13434E-07        -0.90351E-11         0.00000E+00
    0.13707E-07        -0.94775E-11         0.00000E+00
    0.13983E-07        -0.99248E-11         0.00000E+00
    0.14264E-07        -0.10376E-10         0.00000E+00
    0.14547E-07        -0.10830E-10         0.00000E+00
    0.14834E-07        -0.11284E-10         0.00000E+00
    0.15124E-07        -0.11739E-10         0.00000E+00
    0.15416E-07        -0.12192E-10         0.00000E+00
    0.15710E-07        -0.12641E-10         0.00000E+00
    0.16007E-07        -0.13084E-10         0.00000E+00
    0.16305E-07        -0.13519E-10         0.00000E+00
    0.16605E-07        -0.13944E-10         0.00000E+00
    0.16905E-07        -0.14355E-10         0.00000E+00
    0.17207E-07        -0.14752E-10         0.00000E+00
    0.17509E-07        -0.15130E-10         0.00000E+00
    0.17811E-07        -0.15486E-10         0.00000E+00
    0.18112E-07        -0.15818E-10         0.00000E+00
    0.18413E-07        -0.16121E-10         0.00000E+00
    0.18713E-07        -0.16392E-10         0.00000E+00
    0.19011E-07        -0.16626E-10         0.00000E+00
    0.19308E-07        -0.16819E-10         0.00000E+00
    0.19602E-07        -0.16966E-10         0.00000E+00
    0.19893E-07        -0.17062E-10         0.00000E+00
    0.20180E-07        -0.17101E-10         0.00000E+00
    0.20464E-07        -0.17078E-10         0.00000E+00
    0.20744E-07        -0.16985E-10         0.00000E+00
    0.21019E-07        -0.16814E-10         0.00000E+00
    0.21288E-07        -0.16558E-10         0.00000E+00
    0.21552E-07        -0.16206E-10         0.00000E+00
    0.21810E-07        -0.15749E-10         0.00000E+00
    0.22060E-07        -0.15175E-10         0.00000E+00
    0.22303E-07        -0.14471E-10         0.00000E+00
    0.22538E-07        -0.13621E-10         0.00000E+00
    0.22765E-07        -0.12610E-10         0.00000E+00
    0.22982E-07        -0.11420E-10         0.00000E+00
    0.23190E-07        -0.10032E-10         0.00000E+00
    0.23388E-07        -0.84243E-11         0.00000E+00
    0.23575E-07        -0.65773E-11         0.00000E+00
    0.23751E-07        -0.44713E-11         0.00000E+00
    0.23915E-07        -0.20899E-11         0.00000E+00
    0.24067E-07         0.57714E-12         0.00000E+00
    0.24206E-07         0.35289E-11         0.00000E+00
    0.24332E-07         0.67470E-11         0.00000E+00
    0.24445E-07         0.10186E-10         0.00000E+00
    0.24543E-07         0.13761E-10         0.00000E+00
    0.24627E-07         0.17330E-10         0.00000E+00
    0.24697E-07         0.20668E-10         0.00000E+00
    0.24751E-07         0.23443E-10         0.00000E+00
    0.24791E-07         0.25176E-10         0.00000E+00
    0.24815E-07         0.25218E-10         0.00000E+00
    0.24825E-07         0.22737E-10         0.00000E+00
    0.24821E-07         0.16778E-10         0.00000E+00
    0.24803E-07         0.64021E-11         0.00000E+00
    0.68742E-08         0.35704E-11         0.00000E+00
    0.68619E-08         0.94240E-11         0.00000E+00
    0.68561E-08         0.12955E-10         0.00000E+00
    0.68573E-08         0.14685E-10         0.00000E+00
    0.68657E-08         0.15126E-10         0.00000E+00
    0.68814E-08         0.14709E-10         0.00000E+00
    0.69044E-08         0.13767E-10         0.00000E+00
    0.69348E-08         0.12538E-10         0.00000E+00
    0.69725E-08         0.11185E-10         0.00000E+00
    0.70175E-08         0.98172E-11         0.00000E+00
    0.70696E-08         0.84993E-11         0.00000E+00
    0.71288E-08         0.72698E-11         0.00000E+00
    0.71950E-08         0.61472E-11         0.00000E+00
    0.72682E-08         0.51369E-11         0.00000E+00
    0.73482E-08         0.42361E-11         0.00000E+00
    0.74351E-08         0.34375E-11         0.00000E+00
    0.75286E-08         0.27306E-11         0.00000E+00
    0.76289E-08         0.21044E-11         0.00000E+00
    0.77357E-08         0.15474E-11         0.00000E+00
    0.78491E-08         0.10488E-11         0.00000E+00
    0.79689E-08         0.59872E-12         0.00000E+00
    0.80952E-08         0.18817E-12         0.00000E+00
    0.82279E-08        -0.19070E-12         0.00000E+00
    0.83669E-08        -0.54474E-12         0.00000E+00
    0.85121E-08        -0.87981E-12         0.00000E+00
    0.86636E-08        -0.12009E-11         0.00000E+00
    0.88212E-08        -0.15123E-11         0.00000E+00
    0.89850E-08        -0.18176E-11         0.00000E+00
    0.91548E-08        -0.21197E-11         0.00000E+00
    0.93306E-08        -0.24212E-11         0.00000E+00
    0.95124E-08        -0.27242E-11         0.00000E+00
    0.97000E-08        -0.30304E-11         0.00000E+00
    0.98935E-08        -0.33413E-11         0.00000E+00
    0.10093E-07        -0.36580E-11         0.00000E+00
    0.10298E-07        -0.39816E-11         0.00000E+00
    0.10508E-07        -0.43129E-11         0.00000E+00
    0.10724E-07        -0.46524E-11         0.00000E+00
    0.10946E-07        -0.50006E-11         0.00000E+00
    0.11172E-07        -0.53579E-11         0.00000E+00
    0.11404E-07        -0.57245E-11         0.00000E+00
    0.11641E-07        -0.61004E-11         0.00000E+00
    0.11884E-07        -0.64856E-11         0.00000E+00
    0.12131E-07        -0.68800E-11         0.00000E+00
    0.12382E-07        -0.72834E-11         0.00000E+00
    0.12639E-07        -0.76953E-11         0.00000E+00
    0.12899E-07        -0.81153E-11         0.00000E+00
    0.13164E-07        -0.85428E-11         0.00000E+00
    0.13434E-07        -0.89771E-11         0.00000E+00
    0.13707E-07        -0.94173E-11         0.00000E+00
    0.13983E-07        -0.98626E-11         0.00000E+00
    0.14264E-07        -0.10312E-10         0.00000E+00
    0.14547E-07        -0.10764E-10         0.00000E+00
    0.14834E-07        -0.11217E-10         0.00000E+00
    0.15124E-07        -0.11670E-10         0.00000E+00
    0.15416E-07        -0.12121E-10         0.00000E+00
    0.15710E-07        -0.12568E-10         0.00000E+00
    0.16007E-07        -0.13010E-10         0.00000E+00
    0.16305E-07        -0.13444E-10         0.00000E+00
    0.16604E-07        -0.13868E-10         0.00000E+00
    0.16905E-07        -0.14279E-10         0.00000E+00
    0.17207E-07        -0.14675E-10         0.00000E+00
    0.17509E-07        -0.15053E-10         0.00000E+00
    0.17811E-07        -0.15410E-10         0.00000E+00
    0.18112E-07        -0.15742E-10         0.00000E+00
    0.18413E-07        -0.16046E-10         0.00000E+00
    0.18713E-07        -0.16318E-10         0.00000E+00
    0.19011E-07        -0.16554E-10         0.00000E+00
    0.19308E-07        -0.16749E-10         0.00000E+00
    0.19602E-07        -0.16899E-10         0.00000E+00
    0.19893E-07        -0.16998E-10         0.00000E+00
    0.20180E-07        -0.17041E-10         0.00000E+00
    0.20464E-07        -0.17022E-10         0.00000E+00
    0.20744E-07        -0.16934E-10         0.00000E+00
    0.21019E-07        -0.16770E-10         0.00000E+00
    0.21289E-07        -0.16520E-10         0.00000E+00
    0.21552E-07        -0.16176E-10         0.00000E+00
    0.21810E-07        -0.15728E-10         0.00000E+00
    0.22060E-07        -0.15163E-10         0.00000E+00
    0.22303E-07        -0.14469E-10         0.00000E+00
    0.22538E-07        -0.13631E-10         0.00000E+00
    0.22765E-07        -0.12632E-10         0.00000E+00
    0.22983E-07        -0.11455E-10         0.00000E+00
    0.23191E-07        -0.10080E-10         0.00000E+00
    0.23388E-07        -0.84869E-11         0.00000E+00
    0.23576E-07        -0.66541E-11         0.00000E+00
    0.23752E-07        -0.45621E-11         0.00000E+00
    0.23916E-07        -0.21937E-11         0.00000E+00
    0.24068E-07         0.46195E-12         0.00000E+00
    0.24207E-07         0.34050E-11         0.00000E+00
    0.24333E-07         0.66183E-11         0.00000E+00
    0.24446E-07         0.10058E-10         0.00000E+00
    0.24544E-07         0.13642E-10         0.00000E+00
    0.24628E-07         0.17228E-10         0.00000E+00
    0.24697E-07         0.20596E-10         0.00000E+00
    0.24752E-07         0.23414E-10         0.00000E+00
    0.24791E-07         0.25203E-10         0.00000E+00
    0.24815E-07         0.25306E-10         0.00000E+00
    0.24824E-07         0.22875E-10         0.00000E+00
    0.24819E-07         0.16923E-10         0.00000E+00
    0.24800E-07         0.64688E-11         0.00000E+00
    0.68757E-08         0.35909E-11         0.00000E+00
    0.68628E-08         0.94601E-11         0.00000E+00
    0.68566E-08         0.12968E-10         0.00000E+00
    0.68575E-08         0.14660E-10         0.00000E+00
    0.68656E-08         0.15063E-10         0.00000E+00
    0.68812E-08         0.14617E-10         0.00000E+00
    0.69042E-08         0.13655E-10         0.00000E+00
    0.69346E-08         0.12414E-10         0.00000E+00
    0.69722E-08         0.11058E-10         0.00000E+00
    0.70172E-08         0.96900E-11         0.00000E+00
    0.70693E-08         0.83765E-11         0.00000E+00
    0.71285E-08         0.71539E-11         0.00000E+00
    0.71948E-08         0.60397E-11         0.00000E+00
    0.72680E-08         0.50387E-11         0.00000E+00
    0.73481E-08         0.41478E-11         0.00000E+00
    0.74349E-08         0.33589E-11         0.00000E+00
    0.75285E-08         0.26617E-11         0.00000E+00
    0.76288E-08         0.20447E-11         0.00000E+00
    0.77356E-08         0.14966E-11         0.00000E+00
    0.78490E-08         0.10064E-11         0.00000E+00
    0.79689E-08         0.56419E-12         0.00000E+00
    0.80951E-08         0.16102E-12         0.00000E+00
    0.82278E-08        -0.21095E-12         0.00000E+00
    0.83668E-08        -0.55854E-12         0.00000E+00
    0.85120E-08        -0.88757E-12         0.00000E+00
    0.86635E-08        -0.12030E-11         0.00000E+00
    0.88212E-08        -0.15091E-11         0.00000E+00
    0.89849E-08        -0.18093E-11         0.00000E+00
    0.91547E-08        -0.21066E-11         0.00000E+00
    0.93305E-08        -0.24035E-11         0.00000E+00
    0.95123E-08        -0.27020E-11         0.00000E+00
    0.96999E-08        -0.30040E-11         0.00000E+00
    0.98934E-08        -0.33107E-11         0.00000E+00
    0.10093E-07        -0.36234E-11         0.00000E+00
    0.10298E-07        -0.39431E-11         0.00000E+00
    0.10508E-07        -0.42704E-11         0.00000E+00
    0.10724E-07        -0.46061E-11         0.00000E+00
    0.10945E-07        -0.49505E-11         0.00000E+00
    0.11172E-07        -0.53040E-11         0.00000E+00
    0.11404E-07        -0.56668E-11         0.00000E+00
    0.11641E-07        -0.60390E-11         0.00000E+00
    0.11883E-07        -0.64205E-11         0.00000E+00
    0.12130E-07        -0.68112E-11         0.00000E+00
    0.12382E-07        -0.72109E-11         0.00000E+00
    0.12638E-07        -0.76191E-11         0.00000E+00
    0.12899E-07        -0.80355E-11         0.00000E+00
    0.13164E-07        -0.84593E-11         0.00000E+00
    0.13433E-07        -0.88900E-11         0.00000E+00
    0.13707E-07        -0.93267E-11         0.00000E+00
    0.13983E-07        -0.97684E-11         0.00000E+00
    0.14264E-07        -0.10214E-10         0.00000E+00
    0.14547E-07        -0.10663E-10         0.00000E+00
    0.14834E-07        -0.11112E-10         0.00000E+00
    0.15124E-07        -0.11562E-10         0.00000E+00
    0.15416E-07        -0.12010E-10         0.00000E+00
    0.15710E-07        -0.12455E-10         0.00000E+00
    0.16007E-07        -0.12894E-10         0.00000E+00
    0.16305E-07        -0.13326E-10         0.00000E+00
    0.16604E-07        -0.13747E-10         0.00000E+00
    0.16905E-07        -0.14157E-10         0.00000E+00
    0.17207E-07        -0.14551E-10         0.00000E+00
    0.17509E-07        -0.14928E-10         0.00000E+00
    0.17811E-07        -0.15283E-10         0.00000E+00
    0.18112E-07        -0.15615E-10         0.00000E+00
    0.18413E-07        -0.15919E-10         0.00000E+00
    0.18713E-07        -0.16191E-10         0.00000E+00
    0.19011E-07        -0.16428E-10         0.00000E+00
    0.19308E-07        -0.16624E-10         0.00000E+00
    0.19602E-07        -0.16777E-10         0.00000E+00
    0.19893E-07        -0.16879E-10         0.00000E+00
    0.20180E-07        -0.16926E-10         0.00000E+00
    0.20464E-07        -0.16912E-10         0.00000E+00
    0.20744E-07        -0.16829E-10         0.00000E+00
    0.21019E-07        -0.16671E-10         0.00000E+00
    0.21289E-07        -0.16429E-10         0.00000E+00
    0.21552E-07        -0.16094E-10         0.00000E+00
    0.21810E-07        -0.15655E-10         0.00000E+00
    0.22060E-07        -0.15102E-10         0.00000E+00
    0.22303E-07        -0.14421E-10         0.00000E+00
    0.22539E-07        -0.13597E-10         0.00000E+00
    0.22765E-07        -0.12614E-10         0.00000E+00
    0.22983E-07        -0.11454E-10         0.00000E+00
    0.23191E-07        -0.10097E-10         0.00000E+00
    0.23389E-07        -0.85232E-11         0.00000E+00
    0.23576E-07        -0.67110E-11         0.00000E+00
    0.23752E-07        -0.46400E-11         0.00000E+00
    0.23916E-07        -0.22928E-11         0.00000E+00
    0.24068E-07         0.34230E-12         0.00000E+00
    0.24208E-07         0.32666E-11         0.00000E+00
    0.24334E-07         0.64643E-11         0.00000E+00
    0.24446E-07         0.98937E-11         0.00000E+00
    0.24545E-07         0.13474E-10         0.00000E+00
    0.24629E-07         0.17067E-10         0.00000E+00
    0.24698E-07         0.20456E-10         0.00000E+00
    0.24752E-07         0.23311E-10         0.00000E+00
    0.24791E-07         0.25155E-10         0.00000E+00
    0.24815E-07         0.25327E-10         0.00000E+00
    0.24823E-07         0.22962E-10         0.00000E+00
    0.24817E-07         0.17039E-10         0.00000E+00
    0.24798E-07         0.65261E-11         0.00000E+00
    0.68771E-08         0.36053E-11         0.00000E+00
    0.68637E-08         0.94770E-11         0.00000E+00
    0.68571E-08         0.12950E-10         0.00000E+00
    0.68576E-08         0.14595E-10         0.00000E+00
    0.68656E-08         0.14955E-10         0.00000E+00
    0.68811E-08         0.14478E-10         0.00000E+00
    0.69040E-08         0.13498E-10         0.00000E+00
    0.69343E-08         0.12249E-10         0.00000E+00
    0.69720E-08         0.10892E-10         0.00000E+00
    0.70169E-08         0.95296E-11         0.00000E+00
    0.70691E-08         0.82249E-11         0.00000E+00
    0.71283E-08         0.70134E-11         0.00000E+00
    0.71946E-08         0.59115E-11         0.00000E+00
    0.72678E-08         0.49233E-11         0.00000E+00
    0.73479E-08         0.40453E-11         0.00000E+00
    0.74348E-08         0.32690E-11         0.00000E+00
    0.75284E-08         0.25838E-11         0.00000E+00
    0.76286E-08         0.19783E-11         0.00000E+00
    0.77355E-08         0.14409E-11         0.00000E+00
    0.78489E-08         0.96080E-12         0.00000E+00
    0.79688E-08         0.52795E-12         0.00000E+00
    0.80951E-08         0.13350E-12         0.00000E+00
    0.82277E-08        -0.23035E-12         0.00000E+00
    0.83667E-08        -0.57034E-12         0.00000E+00
    0.85120E-08        -0.89225E-12         0.00000E+00
    0.86635E-08        -0.12010E-11         0.00000E+00
    0.88211E-08        -0.15007E-11         0.00000E+00
    0.89848E-08        -0.17949E-11         0.00000E+00
    0.91547E-08        -0.20864E-11         0.00000E+00
    0.93305E-08        -0.23778E-11         0.00000E+00
    0.95122E-08        -0.26710E-11         0.00000E+00
    0.96999E-08        -0.29677E-11         0.00000E+00
    0.98933E-08        -0.32693E-11         0.00000E+00
    0.10093E-07        -0.35769E-11         0.00000E+00
    0.10297E-07        -0.38916E-11         0.00000E+00
    0.10508E-07        -0.42140E-11         0.00000E+00
    0.10724E-07        -0.45447E-11         0.00000E+00
    0.10945E-07        -0.48842E-11         0.00000E+00
    0.11172E-07        -0.52328E-11         0.00000E+00
    0.11404E-07        -0.55907E-11         0.00000E+00
    0.11641E-07        -0.59579E-11         0.00000E+00
    0.11883E-07        -0.63344E-11         0.00000E+00
    0.12130E-07        -0.67202E-11         0.00000E+00
    0.12382E-07        -0.71148E-11         0.00000E+00
    0.12638E-07        -0.75180E-11         0.00000E+00
    0.12899E-07        -0.79294E-11         0.00000E+00
    0.13164E-07        -0.83482E-11         0.00000E+00
    0.13433E-07        -0.87739E-11         0.00000E+00
    0.13706E-07        -0.92056E-11         0.00000E+00
    0.13983E-07        -0.96423E-11         0.00000E+00
    0.14264E-07        -0.10083E-10         0.00000E+00
    0.14547E-07        -0.10527E-10         0.00000E+00
    0.14834E-07        -0.10972E-10         0.00000E+00
    0.15123E-07        -0.11417E-10         0.00000E+00
    0.15416E-07        -0.11861E-10         0.00000E+00
    0.15710E-07        -0.12301E-10         0.00000E+00
    0.16006E-07        -0.12736E-10         0.00000E+00
    0.16305E-07        -0.13164E-10         0.00000E+00
    0.16604E-07        -0.13582E-10         0.00000E+00
    0.16905E-07        -0.13988E-10         0.00000E+00
    0.17207E-07        -0.14379E-10         0.00000E+00
    0.17508E-07        -0.14753E-10         0.00000E+00
    0.17810E-07        -0.15107E-10         0.00000E+00
    0.18112E-07        -0.15437E-10         0.00000E+00
    0.18413E-07        -0.15739E-10         0.00000E+00
    0.18713E-07        -0.16011E-10         0.00000E+00
    0.19011E-07        -0.16248E-10         0.00000E+00
    0.19308E-07        -0.16445E-10         0.00000E+00
    0.19602E-07        -0.16599E-10         0.00000E+00
    0.19893E-07        -0.16704E-10         0.00000E+00
    0.20180E-07        -0.16755E-10         0.00000E+00
    0.20464E-07        -0.16745E-10         0.00000E+00
    0.20744E-07        -0.16668E-10         0.00000E+00
    0.21019E-07        -0.16517E-10         0.00000E+00
    0.21289E-07        -0.16283E-10         0.00000E+00
    0.21552E-07        -0.15958E-10         0.00000E+00
    0.21810E-07        -0.15531E-10         0.00000E+00
    0.22060E-07        -0.14991E-10         0.00000E+00
    0.22304E-07        -0.14325E-10         0.00000E+00
    0.22539E-07        -0.13518E-10         0.00000E+00
    0.22765E-07        -0.12553E-10         0.00000E+00
    0.22983E-07        -0.11414E-10         0.00000E+00
    0.23191E-07        -0.10081E-10         0.00000E+00
    0.23389E-07        -0.85319E-11         0.00000E+00
    0.23576E-07        -0.67465E-11         0.00000E+00
    0.23752E-07        -0.47039E-11         0.00000E+00
    0.23917E-07        -0.23861E-11         0.00000E+00
    0.24069E-07         0.21938E-12         0.00000E+00
    0.24208E-07         0.31147E-11         0.00000E+00
    0.24334E-07         0.62859E-11         0.00000E+00
    0.24447E-07         0.96930E-11         0.00000E+00
    0.24545E-07         0.13258E-10         0.00000E+00
    0.24629E-07         0.16847E-10         0.00000E+00
    0.24698E-07         0.20246E-10         0.00000E+00
    0.24752E-07         0.23132E-10         0.00000E+00
    0.24791E-07         0.25031E-10         0.00000E+00
    0.24815E-07         0.25278E-10         0.00000E+00
    0.24823E-07         0.22994E-10         0.00000E+00
    0.24816E-07         0.17121E-10         0.00000E+00
    0.24795E-07         0.65734E-11         0.00000E+00
    0.68785E-08         0.36133E-11         0.00000E+00
    0.68646E-08         0.94736E-11         0.00000E+00
    0.68575E-08         0.12898E-10         0.00000E+00
    0.68578E-08         0.14486E-10         0.00000E+00
    0.68656E-08         0.14800E-10         0.00000E+00
    0.68809E-08         0.14291E-10         0.00000E+00
    0.69037E-08         0.13295E-10         0.00000E+00
    0.69340E-08         0.12042E-10         0.00000E+00
    0.69717E-08         0.10689E-10         0.00000E+00
    0.70167E-08         0.93361E-11         0.00000E+00
    0.70688E-08         0.80448E-11         0.00000E+00
    0.71281E-08         0.68487E-11         0.00000E+00
    0.71944E-08         0.57631E-11         0.00000E+00
    0.72676E-08         0.47913E-11         0.00000E+00
    0.73477E-08         0.39292E-11         0.00000E+00
    0.74346E-08         0.31683E-11         0.00000E+00
    0.75282E-08         0.24976E-11         0.00000E+00
    0.76285E-08         0.19056E-11         0.00000E+00
    0.77354E-08         0.13808E-11         0.00000E+00
    0.78488E-08         0.91235E-12         0.00000E+00
    0.79687E-08         0.49031E-12         0.00000E+00
    0.80950E-08         0.10588E-12         0.00000E+00
    0.82277E-08        -0.24864E-12         0.00000E+00
    0.83667E-08        -0.57994E-12         0.00000E+00
    0.85119E-08        -0.89370E-12         0.00000E+00
    0.86634E-08        -0.11948E-11         0.00000E+00
    0.88210E-08        -0.14872E-11         0.00000E+00
    0.89848E-08        -0.17744E-11         0.00000E+00
    0.91546E-08        -0.20592E-11         0.00000E+00
    0.93304E-08        -0.23441E-11         0.00000E+00
    0.95122E-08        -0.26309E-11         0.00000E+00
    0.96998E-08        -0.29214E-11         0.00000E+00
    0.98933E-08        -0.32169E-11         0.00000E+00
    0.10092E-07        -0.35185E-11         0.00000E+00
    0.10297E-07        -0.38272E-11         0.00000E+00
    0.10508E-07        -0.41436E-11         0.00000E+00
    0.10724E-07        -0.44683E-11         0.00000E+00
    0.10945E-07        -0.48017E-11         0.00000E+00
    0.11172E-07        -0.51443E-11         0.00000E+00
    0.11404E-07        -0.54960E-11         0.00000E+00
    0.11641E-07        -0.58571E-11         0.00000E+00
    0.11883E-07        -0.62274E-11         0.00000E+00
    0.12130E-07        -0.66069E-11         0.00000E+00
    0.12382E-07        -0.69952E-11         0.00000E+00
    0.12638E-07        -0.73921E-11         0.00000E+00
    0.12899E-07        -0.77970E-11         0.00000E+00
    0.13164E-07        -0.82094E-11         0.00000E+00
    0.13433E-07        -0.86286E-11         0.00000E+00
    0.13706E-07        -0.90539E-11         0.00000E+00
    0.13983E-07        -0.94842E-11         0.00000E+00
    0.14263E-07        -0.99186E-11         0.00000E+00
    0.14547E-07        -0.10356E-10         0.00000E+00
    0.14834E-07        -0.10795E-10         0.00000E+00
    0.15123E-07        -0.11234E-10         0.00000E+00
    0.15415E-07        -0.11672E-10         0.00000E+00
    0.15710E-07        -0.12106E-10         0.00000E+00
    0.16006E-07        -0.12535E-10         0.00000E+00
    0.16305E-07        -0.12958E-10         0.00000E+00
    0.16604E-07        -0.13371E-10         0.00000E+00
    0.16905E-07        -0.13772E-10         0.00000E+00
    0.17206E-07        -0.14159E-10         0.00000E+00
    0.17508E-07        -0.14529E-10         0.00000E+00
    0.17810E-07        -0.14880E-10         0.00000E+00
    0.18112E-07        -0.15207E-10         0.00000E+00
    0.18413E-07        -0.15507E-10         0.00000E+00
    0.18713E-07        -0.15777E-10         0.00000E+00
    0.19011E-07        -0.16013E-10         0.00000E+00
    0.19308E-07        -0.16211E-10         0.00000E+00
    0.19602E-07        -0.16366E-10         0.00000E+00
    0.19893E-07        -0.16473E-10         0.00000E+00
    0.20180E-07        -0.16527E-10         0.00000E+00
    0.20464E-07        -0.16522E-10         0.00000E+00
    0.20744E-07        -0.16451E-10         0.00000E+00
    0.21019E-07        -0.16307E-10         0.00000E+00
    0.21289E-07        -0.16083E-10         0.00000E+00
    0.21552E-07        -0.15768E-10         0.00000E+00
    0.21810E-07        -0.15354E-10         0.00000E+00
    0.22061E-07        -0.14829E-10         0.00000E+00
    0.22304E-07        -0.14180E-10         0.00000E+00
    0.22539E-07        -0.13392E-10         0.00000E+00
    0.22766E-07        -0.12450E-10         0.00000E+00
    0.22983E-07        -0.11336E-10         0.00000E+00
    0.23191E-07        -0.10030E-10         0.00000E+00
    0.23389E-07        -0.85118E-11         0.00000E+00
    0.23577E-07        -0.67595E-11         0.00000E+00
    0.23753E-07        -0.47524E-11         0.00000E+00
    0.23917E-07        -0.24721E-11         0.00000E+00
    0.24069E-07         0.94455E-13         0.00000E+00
    0.24209E-07         0.29507E-11         0.00000E+00
    0.24335E-07         0.60840E-11         0.00000E+00
    0.24448E-07         0.94569E-11         0.00000E+00
    0.24546E-07         0.12995E-10         0.00000E+00
    0.24630E-07         0.16567E-10         0.00000E+00
    0.24699E-07         0.19967E-10         0.00000E+00
    0.24753E-07         0.22877E-10         0.00000E+00
    0.24791E-07         0.24828E-10         0.00000E+00
    0.24814E-07         0.25156E-10         0.00000E+00
    0.24822E-07         0.22969E-10         0.00000E+00
    0.24814E-07         0.17170E-10         0.00000E+00
    0.24793E-07         0.66097E-11         0.00000E+00
    0.68800E-08         0.36143E-11         0.00000E+00
    0.68655E-08         0.94487E-11         0.00000E+00
    0.68580E-08         0.12810E-10         0.00000E+00
    0.68580E-08         0.14333E-10         0.00000E+00
    0.68655E-08         0.14595E-10         0.00000E+00
    0.68807E-08         0.14056E-10         0.00000E+00
    0.69035E-08         0.13045E-10         0.00000E+00
    0.69338E-08         0.11792E-10         0.00000E+00
    0.69714E-08         0.10448E-10         0.00000E+00
    0.70164E-08         0.91101E-11         0.00000E+00
    0.70686E-08         0.78368E-11         0.00000E+00
    0.71279E-08         0.66604E-11         0.00000E+00
    0.71942E-08         0.55950E-11         0.00000E+00
    0.72674E-08         0.46432E-11         0.00000E+00
    0.73476E-08         0.38002E-11         0.00000E+00
    0.74345E-08         0.30573E-11         0.00000E+00
    0.75281E-08         0.24034E-11         0.00000E+00
    0.76284E-08         0.18270E-11         0.00000E+00
    0.77353E-08         0.13166E-11         0.00000E+00
    0.78487E-08         0.86140E-12         0.00000E+00
    0.79686E-08         0.45158E-12         0.00000E+00
    0.80949E-08         0.78454E-13         0.00000E+00
    0.82276E-08        -0.26560E-12         0.00000E+00
    0.83666E-08        -0.58712E-12         0.00000E+00
    0.85119E-08        -0.89172E-12         0.00000E+00
    0.86633E-08        -0.11841E-11         0.00000E+00
    0.88210E-08        -0.14683E-11         0.00000E+00
    0.89847E-08        -0.17476E-11         0.00000E+00
    0.91545E-08        -0.20248E-11         0.00000E+00
    0.93304E-08        -0.23023E-11         0.00000E+00
    0.95121E-08        -0.25819E-11         0.00000E+00
    0.96998E-08        -0.28653E-11         0.00000E+00
    0.98932E-08        -0.31537E-11         0.00000E+00
    0.10092E-07        -0.34483E-11         0.00000E+00
    0.10297E-07        -0.37499E-11         0.00000E+00
    0.10508E-07        -0.40592E-11         0.00000E+00
    0.10724E-07        -0.43768E-11         0.00000E+00
    0.10945E-07        -0.47031E-11         0.00000E+00
    0.11172E-07        -0.50384E-11         0.00000E+00
    0.11404E-07        -0.53829E-11         0.00000E+00
    0.11641E-07        -0.57366E-11         0.00000E+00
    0.11883E-07        -0.60994E-11         0.00000E+00
    0.12130E-07        -0.64714E-11         0.00000E+00
    0.12382E-07        -0.68521E-11         0.00000E+00
    0.12638E-07        -0.72412E-11         0.00000E+00
    0.12899E-07        -0.76384E-11         0.00000E+00
    0.13164E-07        -0.80430E-11         0.00000E+00
    0.13433E-07        -0.84543E-11         0.00000E+00
    0.13706E-07        -0.88717E-11         0.00000E+00
    0.13983E-07        -0.92942E-11         0.00000E+00
    0.14263E-07        -0.97207E-11         0.00000E+00
    0.14547E-07        -0.10150E-10         0.00000E+00
    0.14834E-07        -0.10581E-10         0.00000E+00
    0.15123E-07        -0.11013E-10         0.00000E+00
    0.15415E-07        -0.11443E-10         0.00000E+00
    0.15710E-07        -0.11870E-10         0.00000E+00
    0.16006E-07        -0.12292E-10         0.00000E+00
    0.16304E-07        -0.12708E-10         0.00000E+00
    0.16604E-07        -0.13115E-10         0.00000E+00
    0.16905E-07        -0.13510E-10         0.00000E+00
    0.17206E-07        -0.13891E-10         0.00000E+00
    0.17508E-07        -0.14256E-10         0.00000E+00
    0.17810E-07        -0.14602E-10         0.00000E+00
    0.18112E-07        -0.14925E-10         0.00000E+00
    0.18413E-07        -0.15222E-10         0.00000E+00
    0.18713E-07        -0.15490E-10         0.00000E+00
    0.19011E-07        -0.15724E-10         0.00000E+00
    0.19308E-07        -0.15921E-10         0.00000E+00
    0.19602E-07        -0.16077E-10         0.00000E+00
    0.19893E-07        -0.16186E-10         0.00000E+00
    0.20180E-07        -0.16242E-10         0.00000E+00
    0.20464E-07        -0.16242E-10         0.00000E+00
    0.20744E-07        -0.16177E-10         0.00000E+00
    0.21019E-07        -0.16041E-10         0.00000E+00
    0.21289E-07        -0.15826E-10         0.00000E+00
    0.21553E-07        -0.15524E-10         0.00000E+00
    0.21810E-07        -0.15124E-10         0.00000E+00
    0.22061E-07        -0.14615E-10         0.00000E+00
    0.22304E-07        -0.13985E-10         0.00000E+00
    0.22539E-07        -0.13220E-10         0.00000E+00
    0.22766E-07        -0.12304E-10         0.00000E+00
    0.22984E-07        -0.11218E-10         0.00000E+00
    0.23192E-07        -0.99443E-11         0.00000E+00
    0.23390E-07        -0.84615E-11         0.00000E+00
    0.23577E-07        -0.67484E-11         0.00000E+00
    0.23753E-07        -0.47840E-11         0.00000E+00
    0.23918E-07        -0.25495E-11         0.00000E+00
    0.24070E-07        -0.31105E-13         0.00000E+00
    0.24210E-07         0.27756E-11         0.00000E+00
    0.24336E-07         0.58598E-11         0.00000E+00
    0.24448E-07         0.91864E-11         0.00000E+00
    0.24547E-07         0.12684E-10         0.00000E+00
    0.24631E-07         0.16228E-10         0.00000E+00
    0.24700E-07         0.19618E-10         0.00000E+00
    0.24754E-07         0.22542E-10         0.00000E+00
    0.24792E-07         0.24543E-10         0.00000E+00
    0.24814E-07         0.24958E-10         0.00000E+00
    0.24821E-07         0.22882E-10         0.00000E+00
    0.24813E-07         0.17180E-10         0.00000E+00
    0.24790E-07         0.66341E-11         0.00000E+00
    0.68814E-08         0.36078E-11         0.00000E+00
    0.68664E-08         0.94005E-11         0.00000E+00
    0.68585E-08         0.12686E-10         0.00000E+00
    0.68581E-08         0.14133E-10         0.00000E+00
    0.68655E-08         0.14341E-10         0.00000E+00
    0.68806E-08         0.13771E-10         0.00000E+00
    0.69033E-08         0.12750E-10         0.00000E+00
    0.69335E-08         0.11500E-10         0.00000E+00
    0.69712E-08         0.10170E-10         0.00000E+00
    0.70161E-08         0.88518E-11         0.00000E+00
    0.70683E-08         0.76015E-11         0.00000E+00
    0.71276E-08         0.64492E-11         0.00000E+00
    0.71940E-08         0.54080E-11         0.00000E+00
    0.72673E-08         0.44795E-11         0.00000E+00
    0.73474E-08         0.36587E-11         0.00000E+00
    0.74343E-08         0.29365E-11         0.00000E+00
    0.75280E-08         0.23018E-11         0.00000E+00
    0.76283E-08         0.17430E-11         0.00000E+00
    0.77352E-08         0.12488E-11         0.00000E+00
    0.78486E-08         0.80835E-12         0.00000E+00
    0.79685E-08         0.41211E-12         0.00000E+00
    0.80949E-08         0.51502E-13         0.00000E+00
    0.82275E-08        -0.28096E-12         0.00000E+00
    0.83665E-08        -0.59168E-12         0.00000E+00
    0.85118E-08        -0.88614E-12         0.00000E+00
    0.86633E-08        -0.11689E-11         0.00000E+00
    0.88209E-08        -0.14440E-11         0.00000E+00
    0.89847E-08        -0.17145E-11         0.00000E+00
    0.91545E-08        -0.19832E-11         0.00000E+00
    0.93303E-08        -0.22524E-11         0.00000E+00
    0.95121E-08        -0.25238E-11         0.00000E+00
    0.96997E-08        -0.27991E-11         0.00000E+00
    0.98932E-08        -0.30795E-11         0.00000E+00
    0.10092E-07        -0.33661E-11         0.00000E+00
    0.10297E-07        -0.36596E-11         0.00000E+00
    0.10508E-07        -0.39609E-11         0.00000E+00
    0.10724E-07        -0.42703E-11         0.00000E+00
    0.10945E-07        -0.45884E-11         0.00000E+00
    0.11172E-07        -0.49153E-11         0.00000E+00
    0.11404E-07        -0.52513E-11         0.00000E+00
    0.11641E-07        -0.55964E-11         0.00000E+00
    0.11883E-07        -0.59506E-11         0.00000E+00
    0.12130E-07        -0.63137E-11         0.00000E+00
    0.12382E-07        -0.66854E-11         0.00000E+00
    0.12638E-07        -0.70655E-11         0.00000E+00
    0.12899E-07        -0.74535E-11         0.00000E+00
    0.13164E-07        -0.78489E-11         0.00000E+00
    0.13433E-07        -0.82510E-11         0.00000E+00
    0.13706E-07        -0.86590E-11         0.00000E+00
    0.13983E-07        -0.90721E-11         0.00000E+00
    0.14263E-07        -0.94893E-11         0.00000E+00
    0.14547E-07        -0.99094E-11         0.00000E+00
    0.14834E-07        -0.10331E-10         0.00000E+00
    0.15123E-07        -0.10754E-10         0.00000E+00
    0.15415E-07        -0.11175E-10         0.00000E+00
    0.15710E-07        -0.11593E-10         0.00000E+00
    0.16006E-07        -0.12007E-10         0.00000E+00
    0.16304E-07        -0.12414E-10         0.00000E+00
    0.16604E-07        -0.12813E-10         0.00000E+00
    0.16905E-07        -0.13200E-10         0.00000E+00
    0.17206E-07        -0.13575E-10         0.00000E+00
    0.17508E-07        -0.13933E-10         0.00000E+00
    0.17810E-07        -0.14273E-10         0.00000E+00
    0.18112E-07        -0.14591E-10         0.00000E+00
    0.18413E-07        -0.14883E-10         0.00000E+00
    0.18713E-07        -0.15148E-10         0.00000E+00
    0.19011E-07        -0.15380E-10         0.00000E+00
    0.19308E-07        -0.15576E-10         0.00000E+00
    0.19602E-07        -0.15731E-10         0.00000E+00
    0.19893E-07        -0.15841E-10         0.00000E+00
    0.20180E-07        -0.15900E-10         0.00000E+00
    0.20464E-07        -0.15904E-10         0.00000E+00
    0.20744E-07        -0.15845E-10         0.00000E+00
    0.21019E-07        -0.15717E-10         0.00000E+00
    0.21289E-07        -0.15513E-10         0.00000E+00
    0.21553E-07        -0.15224E-10         0.00000E+00
    0.21810E-07        -0.14839E-10         0.00000E+00
    0.22061E-07        -0.14349E-10         0.00000E+00
    0.22304E-07        -0.13740E-10         0.00000E+00
    0.22539E-07        -0.13000E-10         0.00000E+00
    0.22766E-07        -0.12112E-10         0.00000E+00
    0.22984E-07        -0.11059E-10         0.00000E+00
    0.23192E-07        -0.98214E-11         0.00000E+00
    0.23390E-07        -0.83796E-11         0.00000E+00
    0.23578E-07        -0.67119E-11         0.00000E+00
    0.23754E-07        -0.47973E-11         0.00000E+00
    0.23918E-07        -0.26167E-11         0.00000E+00
    0.24071E-07        -0.15582E-12         0.00000E+00
    0.24210E-07         0.25910E-11         0.00000E+00
    0.24336E-07         0.56144E-11         0.00000E+00
    0.24449E-07         0.88822E-11         0.00000E+00
    0.24548E-07         0.12327E-10         0.00000E+00
    0.24631E-07         0.15830E-10         0.00000E+00
    0.24700E-07         0.19196E-10         0.00000E+00
    0.24754E-07         0.22127E-10         0.00000E+00
    0.24792E-07         0.24172E-10         0.00000E+00
    0.24814E-07         0.24677E-10         0.00000E+00
    0.24820E-07         0.22729E-10         0.00000E+00
    0.24811E-07         0.17150E-10         0.00000E+00
    0.24787E-07         0.66454E-11         0.00000E+00
    0.68829E-08         0.35931E-11         0.00000E+00
    0.68672E-08         0.93273E-11         0.00000E+00
    0.68589E-08         0.12521E-10         0.00000E+00
    0.68582E-08         0.13884E-10         0.00000E+00
    0.68654E-08         0.14035E-10         0.00000E+00
    0.68804E-08         0.13435E-10         0.00000E+00
    0.69030E-08         0.12407E-10         0.00000E+00
    0.69332E-08         0.11167E-10         0.00000E+00
    0.69709E-08         0.98553E-11         0.00000E+00
    0.70159E-08         0.85619E-11         0.00000E+00
    0.70681E-08         0.73393E-11         0.00000E+00
    0.71274E-08         0.62156E-11         0.00000E+00
    0.71938E-08         0.52026E-11         0.00000E+00
    0.72671E-08         0.43011E-11         0.00000E+00
    0.73473E-08         0.35055E-11         0.00000E+00
    0.74342E-08         0.28066E-11         0.00000E+00
    0.75279E-08         0.21933E-11         0.00000E+00
    0.76282E-08         0.16541E-11         0.00000E+00
    0.77351E-08         0.11777E-11         0.00000E+00
    0.78486E-08         0.75357E-12         0.00000E+00
    0.79685E-08         0.37224E-12         0.00000E+00
    0.80948E-08         0.25326E-13         0.00000E+00
    0.82275E-08        -0.29446E-12         0.00000E+00
    0.83665E-08        -0.59338E-12         0.00000E+00
    0.85117E-08        -0.87676E-12         0.00000E+00
    0.86632E-08        -0.11491E-11         0.00000E+00
    0.88209E-08        -0.14141E-11         0.00000E+00
    0.89846E-08        -0.16750E-11         0.00000E+00
    0.91544E-08        -0.19343E-11         0.00000E+00
    0.93302E-08        -0.21943E-11         0.00000E+00
    0.95120E-08        -0.24566E-11         0.00000E+00
    0.96996E-08        -0.27229E-11         0.00000E+00
    0.98931E-08        -0.29944E-11         0.00000E+00
    0.10092E-07        -0.32720E-11         0.00000E+00
    0.10297E-07        -0.35565E-11         0.00000E+00
    0.10508E-07        -0.38486E-11         0.00000E+00
    0.10724E-07        -0.41488E-11         0.00000E+00
    0.10945E-07        -0.44575E-11         0.00000E+00
    0.11172E-07        -0.47750E-11         0.00000E+00
    0.11404E-07        -0.51013E-11         0.00000E+00
    0.11641E-07        -0.54366E-11         0.00000E+00
    0.11883E-07        -0.57808E-11         0.00000E+00
    0.12130E-07        -0.61338E-11         0.00000E+00
    0.12382E-07        -0.64953E-11         0.00000E+00
    0.12638E-07        -0.68650E-11         0.00000E+00
    0.12899E-07        -0.72425E-11         0.00000E+00
    0.13164E-07        -0.76272E-11         0.00000E+00
    0.13433E-07        -0.80185E-11         0.00000E+00
    0.13706E-07        -0.84157E-11         0.00000E+00
    0.13983E-07        -0.88180E-11         0.00000E+00
    0.14263E-07        -0.92243E-11         0.00000E+00
    0.14547E-07        -0.96336E-11         0.00000E+00
    0.14834E-07        -0.10045E-10         0.00000E+00
    0.15123E-07        -0.10456E-10         0.00000E+00
    0.15415E-07        -0.10867E-10         0.00000E+00
    0.15710E-07        -0.11275E-10         0.00000E+00
    0.16006E-07        -0.11678E-10         0.00000E+00
    0.16304E-07        -0.12076E-10         0.00000E+00
    0.16604E-07        -0.12465E-10         0.00000E+00
    0.16905E-07        -0.12844E-10         0.00000E+00
    0.17206E-07        -0.13210E-10         0.00000E+00
    0.17508E-07        -0.13560E-10         0.00000E+00
    0.17810E-07        -0.13893E-10         0.00000E+00
    0.18112E-07        -0.14204E-10         0.00000E+00
    0.18413E-07        -0.14491E-10         0.00000E+00
    0.18713E-07        -0.14751E-10         0.00000E+00
    0.19011E-07        -0.14980E-10         0.00000E+00
    0.19307E-07        -0.15173E-10         0.00000E+00
    0.19601E-07        -0.15328E-10         0.00000E+00
    0.19893E-07        -0.15438E-10         0.00000E+00
    0.20180E-07        -0.15500E-10         0.00000E+00
    0.20464E-07        -0.15508E-10         0.00000E+00
    0.20744E-07        -0.15455E-10         0.00000E+00
    0.21019E-07        -0.15336E-10         0.00000E+00
    0.21289E-07        -0.15143E-10         0.00000E+00
    0.21553E-07        -0.14867E-10         0.00000E+00
    0.21810E-07        -0.14499E-10         0.00000E+00
    0.22061E-07        -0.14028E-10         0.00000E+00
    0.22304E-07        -0.13443E-10         0.00000E+00
    0.22539E-07        -0.12730E-10         0.00000E+00
    0.22766E-07        -0.11874E-10         0.00000E+00
    0.22984E-07        -0.10856E-10         0.00000E+00
    0.23192E-07        -0.96603E-11         0.00000E+00
    0.23390E-07        -0.82646E-11         0.00000E+00
    0.23578E-07        -0.66484E-11         0.00000E+00
    0.23754E-07        -0.47907E-11         0.00000E+00
    0.23919E-07        -0.26722E-11         0.00000E+00
    0.24071E-07        -0.27809E-12         0.00000E+00
    0.24211E-07         0.23982E-11         0.00000E+00
    0.24337E-07         0.53493E-11         0.00000E+00
    0.24450E-07         0.85456E-11         0.00000E+00
    0.24548E-07         0.11924E-10         0.00000E+00
    0.24632E-07         0.15371E-10         0.00000E+00
    0.24701E-07         0.18702E-10         0.00000E+00
    0.24755E-07         0.21628E-10         0.00000E+00
    0.24792E-07         0.23713E-10         0.00000E+00
    0.24814E-07         0.24311E-10         0.00000E+00
    0.24820E-07         0.22504E-10         0.00000E+00
    0.24810E-07         0.17075E-10         0.00000E+00
    0.24785E-07         0.66422E-11         0.00000E+00
    0.68843E-08         0.35694E-11         0.00000E+00
    0.68681E-08         0.92267E-11         0.00000E+00
    0.68593E-08         0.12314E-10         0.00000E+00
    0.68584E-08         0.13585E-10         0.00000E+00
    0.68654E-08         0.13675E-10         0.00000E+00
    0.68802E-08         0.13048E-10         0.00000E+00
    0.69028E-08         0.12017E-10         0.00000E+00
    0.69330E-08         0.10791E-10         0.00000E+00
    0.69706E-08         0.95040E-11         0.00000E+00
    0.70156E-08         0.82408E-11         0.00000E+00
    0.70678E-08         0.70510E-11         0.00000E+00
    0.71272E-08         0.59605E-11         0.00000E+00
    0.71936E-08         0.49796E-11         0.00000E+00
    0.72669E-08         0.41085E-11         0.00000E+00
    0.73471E-08         0.33411E-11         0.00000E+00
    0.74341E-08         0.26682E-11         0.00000E+00
    0.75278E-08         0.20786E-11         0.00000E+00
    0.76281E-08         0.15608E-11         0.00000E+00
    0.77350E-08         0.11039E-11         0.00000E+00
    0.78485E-08         0.69748E-12         0.00000E+00
    0.79684E-08         0.33231E-12         0.00000E+00
    0.80947E-08         0.23288E-15         0.00000E+00
    0.82274E-08        -0.30585E-12         0.00000E+00
    0.83664E-08        -0.59201E-12         0.00000E+00
    0.85117E-08        -0.86340E-12         0.00000E+00
    0.86632E-08        -0.11244E-11         0.00000E+00
    0.88208E-08        -0.13785E-11         0.00000E+00
    0.89846E-08        -0.16289E-11         0.00000E+00
    0.91544E-08        -0.18780E-11         0.00000E+00
    0.93302E-08        -0.21279E-11         0.00000E+00
    0.95120E-08        -0.23803E-11         0.00000E+00
    0.96996E-08        -0.26367E-11         0.00000E+00
    0.98931E-08        -0.28983E-11         0.00000E+00
    0.10092E-07        -0.31659E-11         0.00000E+00
    0.10297E-07        -0.34404E-11         0.00000E+00
    0.10508E-07        -0.37224E-11         0.00000E+00
    0.10724E-07        -0.40123E-11         0.00000E+00
    0.10945E-07        -0.43106E-11         0.00000E+00
    0.11172E-07        -0.46174E-11         0.00000E+00
    0.11404E-07        -0.49329E-11         0.00000E+00
    0.11641E-07        -0.52572E-11         0.00000E+00
    0.11883E-07        -0.55902E-11         0.00000E+00
    0.12130E-07        -0.59318E-11         0.00000E+00
    0.12382E-07        -0.62817E-11         0.00000E+00
    0.12638E-07        -0.66397E-11         0.00000E+00
    0.12899E-07        -0.70052E-11         0.00000E+00
    0.13164E-07        -0.73779E-11         0.00000E+00
    0.13433E-07        -0.77570E-11         0.00000E+00
    0.13706E-07        -0.81420E-11         0.00000E+00
    0.13983E-07        -0.85319E-11         0.00000E+00
    0.14263E-07        -0.89258E-11         0.00000E+00
    0.14547E-07        -0.93227E-11         0.00000E+00
    0.14833E-07        -0.97214E-11         0.00000E+00
    0.15123E-07        -0.10121E-10         0.00000E+00
    0.15415E-07        -0.10519E-10         0.00000E+00
    0.15710E-07        -0.10915E-10         0.00000E+00
    0.16006E-07        -0.11307E-10         0.00000E+00
    0.16304E-07        -0.11693E-10         0.00000E+00
    0.16604E-07        -0.12072E-10         0.00000E+00
    0.16905E-07        -0.12440E-10         0.00000E+00
    0.17206E-07        -0.12796E-10         0.00000E+00
    0.17508E-07        -0.13137E-10         0.00000E+00
    0.17810E-07        -0.13461E-10         0.00000E+00
    0.18112E-07        -0.13765E-10         0.00000E+00
    0.18413E-07        -0.14045E-10         0.00000E+00
    0.18713E-07        -0.14300E-10         0.00000E+00
    0.19011E-07        -0.14524E-10         0.00000E+00
    0.19307E-07        -0.14714E-10         0.00000E+00
    0.19601E-07        -0.14867E-10         0.00000E+00
    0.19893E-07        -0.14978E-10         0.00000E+00
    0.20180E-07        -0.15041E-10         0.00000E+00
    0.20464E-07        -0.15053E-10         0.00000E+00
    0.20744E-07        -0.15007E-10         0.00000E+00
    0.21019E-07        -0.14896E-10         0.00000E+00
    0.21289E-07        -0.14714E-10         0.00000E+00
    0.21553E-07        -0.14452E-10         0.00000E+00
    0.21810E-07        -0.14102E-10         0.00000E+00
    0.22061E-07        -0.13653E-10         0.00000E+00
    0.22304E-07        -0.13093E-10         0.00000E+00
    0.22540E-07        -0.12410E-10         0.00000E+00
    0.22766E-07        -0.11588E-10         0.00000E+00
    0.22984E-07        -0.10610E-10         0.00000E+00
    0.23193E-07        -0.94594E-11         0.00000E+00
    0.23391E-07        -0.81150E-11         0.00000E+00
    0.23578E-07        -0.65563E-11         0.00000E+00
    0.23755E-07        -0.47625E-11         0.00000E+00
    0.23919E-07        -0.27142E-11         0.00000E+00
    0.24072E-07        -0.39621E-12         0.00000E+00
    0.24211E-07         0.21990E-11         0.00000E+00
    0.24338E-07         0.50659E-11         0.00000E+00
    0.24450E-07         0.81777E-11         0.00000E+00
    0.24549E-07         0.11476E-10         0.00000E+00
    0.24633E-07         0.14854E-10         0.00000E+00
    0.24702E-07         0.18135E-10         0.00000E+00
    0.24755E-07         0.21045E-10         0.00000E+00
    0.24793E-07         0.23161E-10         0.00000E+00
    0.24814E-07         0.23853E-10         0.00000E+00
    0.24819E-07         0.22202E-10         0.00000E+00
    0.24808E-07         0.16950E-10         0.00000E+00
    0.24782E-07         0.66227E-11         0.00000E+00
    0.68857E-08         0.35358E-11         0.00000E+00
    0.68689E-08         0.90963E-11         0.00000E+00
    0.68597E-08         0.12060E-10         0.00000E+00
    0.68585E-08         0.13231E-10         0.00000E+00
    0.68653E-08         0.13261E-10         0.00000E+00
    0.68800E-08         0.12609E-10         0.00000E+00
    0.69026E-08         0.11580E-10         0.00000E+00
    0.69327E-08         0.10373E-10         0.00000E+00
    0.69704E-08         0.91167E-11         0.00000E+00
    0.70154E-08         0.78893E-11         0.00000E+00
    0.70676E-08         0.67373E-11         0.00000E+00
    0.71270E-08         0.56845E-11         0.00000E+00
    0.71934E-08         0.47397E-11         0.00000E+00
    0.72668E-08         0.39025E-11         0.00000E+00
    0.73470E-08         0.31664E-11         0.00000E+00
    0.74340E-08         0.25219E-11         0.00000E+00
    0.75277E-08         0.19581E-11         0.00000E+00
    0.76280E-08         0.14637E-11         0.00000E+00
    0.77349E-08         0.10278E-11         0.00000E+00
    0.78484E-08         0.64048E-12         0.00000E+00
    0.79683E-08         0.29270E-12         0.00000E+00
    0.80947E-08        -0.23462E-13         0.00000E+00
    0.82274E-08        -0.31486E-12         0.00000E+00
    0.83664E-08        -0.58734E-12         0.00000E+00
    0.85116E-08        -0.84587E-12         0.00000E+00
    0.86631E-08        -0.10946E-11         0.00000E+00
    0.88208E-08        -0.13371E-11         0.00000E+00
    0.89845E-08        -0.15761E-11         0.00000E+00
    0.91543E-08        -0.18141E-11         0.00000E+00
    0.93301E-08        -0.20532E-11         0.00000E+00
    0.95119E-08        -0.22948E-11         0.00000E+00
    0.96995E-08        -0.25405E-11         0.00000E+00
    0.98930E-08        -0.27912E-11         0.00000E+00
    0.10092E-07        -0.30480E-11         0.00000E+00
    0.10297E-07        -0.33115E-11         0.00000E+00
    0.10508E-07        -0.35823E-11         0.00000E+00
    0.10724E-07        -0.38609E-11         0.00000E+00
    0.10945E-07        -0.41476E-11         0.00000E+00
    0.11172E-07        -0.44427E-11         0.00000E+00
    0.11404E-07        -0.47462E-11         0.00000E+00
    0.11641E-07        -0.50583E-11         0.00000E+00
    0.11883E-07        -0.53788E-11         0.00000E+00
    0.12130E-07        -0.57077E-11         0.00000E+00
    0.12382E-07        -0.60447E-11         0.00000E+00
    0.12638E-07        -0.63896E-11         0.00000E+00
    0.12899E-07        -0.67418E-11         0.00000E+00
    0.13164E-07        -0.71010E-11         0.00000E+00
    0.13433E-07        -0.74665E-11         0.00000E+00
    0.13706E-07        -0.78377E-11         0.00000E+00
    0.13983E-07        -0.82137E-11         0.00000E+00
    0.14263E-07        -0.85937E-11         0.00000E+00
    0.14547E-07        -0.89767E-11         0.00000E+00
    0.14833E-07        -0.93615E-11         0.00000E+00
    0.15123E-07        -0.97470E-11         0.00000E+00
    0.15415E-07        -0.10132E-10         0.00000E+00
    0.15710E-07        -0.10514E-10         0.00000E+00
    0.16006E-07        -0.10893E-10         0.00000E+00
    0.16304E-07        -0.11266E-10         0.00000E+00
    0.16604E-07        -0.11632E-10         0.00000E+00
    0.16905E-07        -0.11989E-10         0.00000E+00
    0.17206E-07        -0.12333E-10         0.00000E+00
    0.17508E-07        -0.12664E-10         0.00000E+00
    0.17810E-07        -0.12978E-10         0.00000E+00
    0.18112E-07        -0.13273E-10         0.00000E+00
    0.18413E-07        -0.13545E-10         0.00000E+00
    0.18713E-07        -0.13793E-10         0.00000E+00
    0.19011E-07        -0.14011E-10         0.00000E+00
    0.19307E-07        -0.14198E-10         0.00000E+00
    0.19601E-07        -0.14348E-10         0.00000E+00
    0.19893E-07        -0.14458E-10         0.00000E+00
    0.20180E-07        -0.14524E-10         0.00000E+00
    0.20464E-07        -0.14539E-10         0.00000E+00
    0.20744E-07        -0.14499E-10         0.00000E+00
    0.21019E-07        -0.14397E-10         0.00000E+00
    0.21289E-07        -0.14227E-10         0.00000E+00
    0.21553E-07        -0.13980E-10         0.00000E+00
    0.21810E-07        -0.13648E-10         0.00000E+00
    0.22061E-07        -0.13222E-10         0.00000E+00
    0.22304E-07        -0.12689E-10         0.00000E+00
    0.22540E-07        -0.12038E-10         0.00000E+00
    0.22767E-07        -0.11253E-10         0.00000E+00
    0.22984E-07        -0.10319E-10         0.00000E+00
    0.23193E-07        -0.92173E-11         0.00000E+00
    0.23391E-07        -0.79291E-11         0.00000E+00
    0.23579E-07        -0.64338E-11         0.00000E+00
    0.23755E-07        -0.47108E-11         0.00000E+00
    0.23920E-07        -0.27409E-11         0.00000E+00
    0.24072E-07        -0.50837E-12         0.00000E+00
    0.24212E-07         0.19952E-11         0.00000E+00
    0.24338E-07         0.47659E-11         0.00000E+00
    0.24451E-07         0.77799E-11         0.00000E+00
    0.24550E-07         0.10983E-10         0.00000E+00
    0.24634E-07         0.14277E-10         0.00000E+00
    0.24702E-07         0.17494E-10         0.00000E+00
    0.24756E-07         0.20374E-10         0.00000E+00
    0.24793E-07         0.22513E-10         0.00000E+00
    0.24814E-07         0.23298E-10         0.00000E+00
    0.24818E-07         0.21816E-10         0.00000E+00
    0.24807E-07         0.16770E-10         0.00000E+00
    0.24779E-07         0.65849E-11         0.00000E+00
    0.68871E-08         0.34909E-11         0.00000E+00
    0.68697E-08         0.89330E-11         0.00000E+00
    0.68601E-08         0.11758E-10         0.00000E+00
    0.68585E-08         0.12820E-10         0.00000E+00
    0.68652E-08         0.12789E-10         0.00000E+00
    0.68798E-08         0.12116E-10         0.00000E+00
    0.69023E-08         0.11095E-10         0.00000E+00
    0.69325E-08         0.99144E-11         0.00000E+00
    0.69701E-08         0.86940E-11         0.00000E+00
    0.70151E-08         0.75081E-11         0.00000E+00
    0.70674E-08         0.63991E-11         0.00000E+00
    0.71268E-08         0.53885E-11         0.00000E+00
    0.71932E-08         0.44839E-11         0.00000E+00
    0.72666E-08         0.36839E-11         0.00000E+00
    0.73468E-08         0.29819E-11         0.00000E+00
    0.74338E-08         0.23684E-11         0.00000E+00
    0.75276E-08         0.18325E-11         0.00000E+00
    0.76279E-08         0.13632E-11         0.00000E+00
    0.77349E-08         0.94991E-12         0.00000E+00
    0.78483E-08         0.58301E-12         0.00000E+00
    0.79683E-08         0.25377E-12         0.00000E+00
    0.80946E-08        -0.45438E-13         0.00000E+00
    0.82273E-08        -0.32120E-12         0.00000E+00
    0.83663E-08        -0.57913E-12         0.00000E+00
    0.85116E-08        -0.82397E-12         0.00000E+00
    0.86631E-08        -0.10597E-11         0.00000E+00
    0.88207E-08        -0.12896E-11         0.00000E+00
    0.89845E-08        -0.15166E-11         0.00000E+00
    0.91543E-08        -0.17427E-11         0.00000E+00
    0.93301E-08        -0.19701E-11         0.00000E+00
    0.95119E-08        -0.22001E-11         0.00000E+00
    0.96995E-08        -0.24341E-11         0.00000E+00
    0.98930E-08        -0.26731E-11         0.00000E+00
    0.10092E-07        -0.29181E-11         0.00000E+00
    0.10297E-07        -0.31696E-11         0.00000E+00
    0.10508E-07        -0.34282E-11         0.00000E+00
    0.10724E-07        -0.36945E-11         0.00000E+00
    0.10945E-07        -0.39685E-11         0.00000E+00
    0.11172E-07        -0.42507E-11         0.00000E+00
    0.11404E-07        -0.45411E-11         0.00000E+00
    0.11641E-07        -0.48398E-11         0.00000E+00
    0.11883E-07        -0.51466E-11         0.00000E+00
    0.12130E-07        -0.54616E-11         0.00000E+00
    0.12382E-07        -0.57843E-11         0.00000E+00
    0.12638E-07        -0.61147E-11         0.00000E+00
    0.12899E-07        -0.64522E-11         0.00000E+00
    0.13164E-07        -0.67965E-11         0.00000E+00
    0.13433E-07        -0.71469E-11         0.00000E+00
    0.13706E-07        -0.75028E-11         0.00000E+00
    0.13983E-07        -0.78635E-11         0.00000E+00
    0.14263E-07        -0.82280E-11         0.00000E+00
    0.14547E-07        -0.85955E-11         0.00000E+00
    0.14833E-07        -0.89649E-11         0.00000E+00
    0.15123E-07        -0.93350E-11         0.00000E+00
    0.15415E-07        -0.97045E-11         0.00000E+00
    0.15709E-07        -0.10072E-10         0.00000E+00
    0.16006E-07        -0.10436E-10         0.00000E+00
    0.16304E-07        -0.10795E-10         0.00000E+00
    0.16604E-07        -0.11147E-10         0.00000E+00
    0.16904E-07        -0.11489E-10         0.00000E+00
    0.17206E-07        -0.11821E-10         0.00000E+00
    0.17508E-07        -0.12140E-10         0.00000E+00
    0.17810E-07        -0.12443E-10         0.00000E+00
    0.18112E-07        -0.12727E-10         0.00000E+00
    0.18413E-07        -0.12991E-10         0.00000E+00
    0.18713E-07        -0.13230E-10         0.00000E+00
    0.19011E-07        -0.13442E-10         0.00000E+00
    0.19307E-07        -0.13624E-10         0.00000E+00
    0.19601E-07        -0.13771E-10         0.00000E+00
    0.19893E-07        -0.13880E-10         0.00000E+00
    0.20180E-07        -0.13946E-10         0.00000E+00
    0.20464E-07        -0.13965E-10         0.00000E+00
    0.20744E-07        -0.13930E-10         0.00000E+00
    0.21019E-07        -0.13837E-10         0.00000E+00
    0.21289E-07        -0.13679E-10         0.00000E+00
    0.21553E-07        -0.13448E-10         0.00000E+00
    0.21810E-07        -0.13136E-10         0.00000E+00
    0.22061E-07        -0.12734E-10         0.00000E+00
    0.22304E-07        -0.12230E-10         0.00000E+00
    0.22540E-07        -0.11613E-10         0.00000E+00
    0.22767E-07        -0.10868E-10         0.00000E+00
    0.22985E-07        -0.99804E-11         0.00000E+00
    0.23193E-07        -0.89324E-11         0.00000E+00
    0.23391E-07        -0.77053E-11         0.00000E+00
    0.23579E-07        -0.62793E-11         0.00000E+00
    0.23755E-07        -0.46340E-11         0.00000E+00
    0.23920E-07        -0.27504E-11         0.00000E+00
    0.24073E-07        -0.61262E-12         0.00000E+00
    0.24212E-07         0.17886E-11         0.00000E+00
    0.24339E-07         0.44510E-11         0.00000E+00
    0.24452E-07         0.73538E-11         0.00000E+00
    0.24550E-07         0.10448E-10         0.00000E+00
    0.24634E-07         0.13641E-10         0.00000E+00
    0.24703E-07         0.16779E-10         0.00000E+00
    0.24756E-07         0.19614E-10         0.00000E+00
    0.24793E-07         0.21765E-10         0.00000E+00
    0.24814E-07         0.22641E-10         0.00000E+00
    0.24818E-07         0.21338E-10         0.00000E+00
    0.24805E-07         0.16529E-10         0.00000E+00
    0.24777E-07         0.65264E-11         0.00000E+00
    0.68885E-08         0.34336E-11         0.00000E+00
    0.68705E-08         0.87332E-11         0.00000E+00
    0.68604E-08         0.11401E-10         0.00000E+00
    0.68586E-08         0.12350E-10         0.00000E+00
    0.68651E-08         0.12259E-10         0.00000E+00
    0.68797E-08         0.11570E-10         0.00000E+00
    0.69021E-08         0.10563E-10         0.00000E+00
    0.69322E-08         0.94141E-11         0.00000E+00
    0.69699E-08         0.82364E-11         0.00000E+00
    0.70149E-08         0.70979E-11         0.00000E+00
    0.70672E-08         0.60371E-11         0.00000E+00
    0.71266E-08         0.50734E-11         0.00000E+00
    0.71931E-08         0.42129E-11         0.00000E+00
    0.72665E-08         0.34536E-11         0.00000E+00
    0.73467E-08         0.27886E-11         0.00000E+00
    0.74337E-08         0.22084E-11         0.00000E+00
    0.75275E-08         0.17024E-11         0.00000E+00
    0.76278E-08         0.12599E-11         0.00000E+00
    0.77348E-08         0.87074E-12         0.00000E+00
    0.78483E-08         0.52552E-12         0.00000E+00
    0.79682E-08         0.21591E-12         0.00000E+00
    0.80945E-08        -0.65367E-13         0.00000E+00
    0.82273E-08        -0.32460E-12         0.00000E+00
    0.83663E-08        -0.56714E-12         0.00000E+00
    0.85115E-08        -0.79750E-12         0.00000E+00
    0.86630E-08        -0.10194E-11         0.00000E+00
    0.88207E-08        -0.12361E-11         0.00000E+00
    0.89844E-08        -0.14502E-11         0.00000E+00
    0.91542E-08        -0.16637E-11         0.00000E+00
    0.93301E-08        -0.18785E-11         0.00000E+00
    0.95118E-08        -0.20961E-11         0.00000E+00
    0.96995E-08        -0.23176E-11         0.00000E+00
    0.98929E-08        -0.25441E-11         0.00000E+00
    0.10092E-07        -0.27763E-11         0.00000E+00
    0.10297E-07        -0.30148E-11         0.00000E+00
    0.10507E-07        -0.32603E-11         0.00000E+00
    0.10723E-07        -0.35131E-11         0.00000E+00
    0.10945E-07        -0.37735E-11         0.00000E+00
    0.11172E-07        -0.40416E-11         0.00000E+00
    0.11404E-07        -0.43177E-11         0.00000E+00
    0.11641E-07        -0.46018E-11         0.00000E+00
    0.11883E-07        -0.48937E-11         0.00000E+00
    0.12130E-07        -0.51933E-11         0.00000E+00
    0.12381E-07        -0.55006E-11         0.00000E+00
    0.12638E-07        -0.58151E-11         0.00000E+00
    0.12899E-07        -0.61365E-11         0.00000E+00
    0.13164E-07        -0.64644E-11         0.00000E+00
    0.13433E-07        -0.67983E-11         0.00000E+00
    0.13706E-07        -0.71374E-11         0.00000E+00
    0.13983E-07        -0.74812E-11         0.00000E+00
    0.14263E-07        -0.78287E-11         0.00000E+00
    0.14547E-07        -0.81792E-11         0.00000E+00
    0.14833E-07        -0.85315E-11         0.00000E+00
    0.15123E-07        -0.88846E-11         0.00000E+00
    0.15415E-07        -0.92372E-11         0.00000E+00
    0.15709E-07        -0.95881E-11         0.00000E+00
    0.16006E-07        -0.99357E-11         0.00000E+00
    0.16304E-07        -0.10278E-10         0.00000E+00
    0.16604E-07        -0.10615E-10         0.00000E+00
    0.16904E-07        -0.10943E-10         0.00000E+00
    0.17206E-07        -0.11260E-10         0.00000E+00
    0.17508E-07        -0.11565E-10         0.00000E+00
    0.17810E-07        -0.11855E-10         0.00000E+00
    0.18112E-07        -0.12128E-10         0.00000E+00
    0.18413E-07        -0.12381E-10         0.00000E+00
    0.18713E-07        -0.12611E-10         0.00000E+00
    0.19011E-07        -0.12816E-10         0.00000E+00
    0.19307E-07        -0.12991E-10         0.00000E+00
    0.19601E-07        -0.13135E-10         0.00000E+00
    0.19893E-07        -0.13242E-10         0.00000E+00
    0.20180E-07        -0.13308E-10         0.00000E+00
    0.20464E-07        -0.13330E-10         0.00000E+00
    0.20744E-07        -0.13301E-10         0.00000E+00
    0.21019E-07        -0.13217E-10         0.00000E+00
    0.21289E-07        -0.13071E-10         0.00000E+00
    0.21553E-07        -0.12856E-10         0.00000E+00
    0.21811E-07        -0.12565E-10         0.00000E+00
    0.22061E-07        -0.12188E-10         0.00000E+00
    0.22305E-07        -0.11715E-10         0.00000E+00
    0.22540E-07        -0.11134E-10         0.00000E+00
    0.22767E-07        -0.10432E-10         0.00000E+00
    0.22985E-07        -0.95936E-11         0.00000E+00
    0.23193E-07        -0.86031E-11         0.00000E+00
    0.23392E-07        -0.74419E-11         0.00000E+00
    0.23579E-07        -0.60907E-11         0.00000E+00
    0.23756E-07        -0.45299E-11         0.00000E+00
    0.23920E-07        -0.27406E-11         0.00000E+00
    0.24073E-07        -0.70690E-12         0.00000E+00
    0.24213E-07         0.15812E-11         0.00000E+00
    0.24339E-07         0.41231E-11         0.00000E+00
    0.24452E-07         0.69009E-11         0.00000E+00
    0.24551E-07         0.98704E-11         0.00000E+00
    0.24635E-07         0.12947E-10         0.00000E+00
    0.24704E-07         0.15988E-10         0.00000E+00
    0.24757E-07         0.18764E-10         0.00000E+00
    0.24794E-07         0.20913E-10         0.00000E+00
    0.24814E-07         0.21873E-10         0.00000E+00
    0.24817E-07         0.20760E-10         0.00000E+00
    0.24804E-07         0.16219E-10         0.00000E+00
    0.24774E-07         0.64443E-11         0.00000E+00
    0.68899E-08         0.33619E-11         0.00000E+00
    0.68712E-08         0.84926E-11         0.00000E+00
    0.68607E-08         0.10987E-10         0.00000E+00
    0.68587E-08         0.11816E-10         0.00000E+00
    0.68650E-08         0.11668E-10         0.00000E+00
    0.68795E-08         0.10969E-10         0.00000E+00
    0.69019E-08         0.99819E-11         0.00000E+00
    0.69320E-08         0.88729E-11         0.00000E+00
    0.69697E-08         0.77447E-11         0.00000E+00
    0.70147E-08         0.66595E-11         0.00000E+00
    0.70670E-08         0.56524E-11         0.00000E+00
    0.71264E-08         0.47402E-11         0.00000E+00
    0.71929E-08         0.39277E-11         0.00000E+00
    0.72663E-08         0.32124E-11         0.00000E+00
    0.73466E-08         0.25872E-11         0.00000E+00
    0.74336E-08         0.20427E-11         0.00000E+00
    0.75274E-08         0.15686E-11         0.00000E+00
    0.76278E-08         0.11545E-11         0.00000E+00
    0.77347E-08         0.79080E-12         0.00000E+00
    0.78482E-08         0.46844E-12         0.00000E+00
    0.79681E-08         0.17951E-12         0.00000E+00
    0.80945E-08        -0.82914E-13         0.00000E+00
    0.82272E-08        -0.32478E-12         0.00000E+00
    0.83662E-08        -0.55115E-12         0.00000E+00
    0.85115E-08        -0.76626E-12         0.00000E+00
    0.86630E-08        -0.97369E-12         0.00000E+00
    0.88206E-08        -0.11764E-11         0.00000E+00
    0.89844E-08        -0.13768E-11         0.00000E+00
    0.91542E-08        -0.15769E-11         0.00000E+00
    0.93300E-08        -0.17785E-11         0.00000E+00
    0.95118E-08        -0.19828E-11         0.00000E+00
    0.96994E-08        -0.21910E-11         0.00000E+00
    0.98929E-08        -0.24039E-11         0.00000E+00
    0.10092E-07        -0.26225E-11         0.00000E+00
    0.10297E-07        -0.28472E-11         0.00000E+00
    0.10507E-07        -0.30785E-11         0.00000E+00
    0.10723E-07        -0.33168E-11         0.00000E+00
    0.10945E-07        -0.35624E-11         0.00000E+00
    0.11172E-07        -0.38155E-11         0.00000E+00
    0.11404E-07        -0.40761E-11         0.00000E+00
    0.11641E-07        -0.43443E-11         0.00000E+00
    0.11883E-07        -0.46200E-11         0.00000E+00
    0.12130E-07        -0.49031E-11         0.00000E+00
    0.12381E-07        -0.51935E-11         0.00000E+00
    0.12638E-07        -0.54908E-11         0.00000E+00
    0.12898E-07        -0.57947E-11         0.00000E+00
    0.13164E-07        -0.61048E-11         0.00000E+00
    0.13433E-07        -0.64206E-11         0.00000E+00
    0.13706E-07        -0.67415E-11         0.00000E+00
    0.13983E-07        -0.70668E-11         0.00000E+00
    0.14263E-07        -0.73958E-11         0.00000E+00
    0.14546E-07        -0.77276E-11         0.00000E+00
    0.14833E-07        -0.80613E-11         0.00000E+00
    0.15123E-07        -0.83958E-11         0.00000E+00
    0.15415E-07        -0.87300E-11         0.00000E+00
    0.15709E-07        -0.90625E-11         0.00000E+00
    0.16006E-07        -0.93921E-11         0.00000E+00
    0.16304E-07        -0.97173E-11         0.00000E+00
    0.16604E-07        -0.10036E-10         0.00000E+00
    0.16904E-07        -0.10348E-10         0.00000E+00
    0.17206E-07        -0.10649E-10         0.00000E+00
    0.17508E-07        -0.10939E-10         0.00000E+00
    0.17810E-07        -0.11215E-10         0.00000E+00
    0.18112E-07        -0.11475E-10         0.00000E+00
    0.18413E-07        -0.11716E-10         0.00000E+00
    0.18713E-07        -0.11936E-10         0.00000E+00
    0.19011E-07        -0.12132E-10         0.00000E+00
    0.19307E-07        -0.12301E-10         0.00000E+00
    0.19601E-07        -0.12439E-10         0.00000E+00
    0.19893E-07        -0.12543E-10         0.00000E+00
    0.20180E-07        -0.12609E-10         0.00000E+00
    0.20464E-07        -0.12633E-10         0.00000E+00
    0.20744E-07        -0.12610E-10         0.00000E+00
    0.21019E-07        -0.12535E-10         0.00000E+00
    0.21289E-07        -0.12402E-10         0.00000E+00
    0.21553E-07        -0.12204E-10         0.00000E+00
    0.21811E-07        -0.11934E-10         0.00000E+00
    0.22061E-07        -0.11583E-10         0.00000E+00
    0.22305E-07        -0.11141E-10         0.00000E+00
    0.22540E-07        -0.10599E-10         0.00000E+00
    0.22767E-07        -0.99419E-11         0.00000E+00
    0.22985E-07        -0.91568E-11         0.00000E+00
    0.23193E-07        -0.82276E-11         0.00000E+00
    0.23392E-07        -0.71370E-11         0.00000E+00
    0.23579E-07        -0.58663E-11         0.00000E+00
    0.23756E-07        -0.43967E-11         0.00000E+00
    0.23921E-07        -0.27095E-11         0.00000E+00
    0.24073E-07        -0.78901E-12         0.00000E+00
    0.24213E-07         0.13753E-11         0.00000E+00
    0.24340E-07         0.37844E-11         0.00000E+00
    0.24453E-07         0.64233E-11         0.00000E+00
    0.24551E-07         0.92526E-11         0.00000E+00
    0.24635E-07         0.12196E-10         0.00000E+00
    0.24704E-07         0.15123E-10         0.00000E+00
    0.24757E-07         0.17820E-10         0.00000E+00
    0.24794E-07         0.19952E-10         0.00000E+00
    0.24814E-07         0.20988E-10         0.00000E+00
    0.24817E-07         0.20072E-10         0.00000E+00
    0.24803E-07         0.15832E-10         0.00000E+00
    0.24772E-07         0.63349E-11         0.00000E+00
    0.68912E-08         0.32739E-11         0.00000E+00
    0.68719E-08         0.82064E-11         0.00000E+00
    0.68610E-08         0.10509E-10         0.00000E+00
    0.68587E-08         0.11216E-10         0.00000E+00
    0.68649E-08         0.11014E-10         0.00000E+00
    0.68793E-08         0.10311E-10         0.00000E+00
    0.69017E-08         0.93534E-11         0.00000E+00
    0.69318E-08         0.82915E-11         0.00000E+00
    0.69694E-08         0.72197E-11         0.00000E+00
    0.70145E-08         0.61941E-11         0.00000E+00
    0.70668E-08         0.52460E-11         0.00000E+00
    0.71263E-08         0.43899E-11         0.00000E+00
    0.71928E-08         0.36294E-11         0.00000E+00
    0.72662E-08         0.29613E-11         0.00000E+00
    0.73465E-08         0.23786E-11         0.00000E+00
    0.74335E-08         0.18720E-11         0.00000E+00
    0.75273E-08         0.14316E-11         0.00000E+00
    0.76277E-08         0.10476E-11         0.00000E+00
    0.77347E-08         0.71063E-12         0.00000E+00
    0.78481E-08         0.41225E-12         0.00000E+00
    0.79681E-08         0.14496E-12         0.00000E+00
    0.80944E-08        -0.97737E-13         0.00000E+00
    0.82272E-08        -0.32144E-12         0.00000E+00
    0.83662E-08        -0.53089E-12         0.00000E+00
    0.85115E-08        -0.73006E-12         0.00000E+00
    0.86630E-08        -0.92227E-12         0.00000E+00
    0.88206E-08        -0.11103E-11         0.00000E+00
    0.89844E-08        -0.12963E-11         0.00000E+00
    0.91542E-08        -0.14823E-11         0.00000E+00
    0.93300E-08        -0.16698E-11         0.00000E+00
    0.95117E-08        -0.18601E-11         0.00000E+00
    0.96994E-08        -0.20541E-11         0.00000E+00
    0.98928E-08        -0.22528E-11         0.00000E+00
    0.10092E-07        -0.24568E-11         0.00000E+00
    0.10297E-07        -0.26667E-11         0.00000E+00
    0.10507E-07        -0.28828E-11         0.00000E+00
    0.10723E-07        -0.31057E-11         0.00000E+00
    0.10945E-07        -0.33354E-11         0.00000E+00
    0.11172E-07        -0.35722E-11         0.00000E+00
    0.11404E-07        -0.38162E-11         0.00000E+00
    0.11641E-07        -0.40673E-11         0.00000E+00
    0.11883E-07        -0.43256E-11         0.00000E+00
    0.12130E-07        -0.45909E-11         0.00000E+00
    0.12381E-07        -0.48631E-11         0.00000E+00
    0.12638E-07        -0.51418E-11         0.00000E+00
    0.12898E-07        -0.54268E-11         0.00000E+00
    0.13163E-07        -0.57177E-11         0.00000E+00
    0.13433E-07        -0.60139E-11         0.00000E+00
    0.13706E-07        -0.63150E-11         0.00000E+00
    0.13982E-07        -0.66204E-11         0.00000E+00
    0.14263E-07        -0.69293E-11         0.00000E+00
    0.14546E-07        -0.72408E-11         0.00000E+00
    0.14833E-07        -0.75542E-11         0.00000E+00
    0.15123E-07        -0.78685E-11         0.00000E+00
    0.15415E-07        -0.81826E-11         0.00000E+00
    0.15709E-07        -0.84952E-11         0.00000E+00
    0.16006E-07        -0.88052E-11         0.00000E+00
    0.16304E-07        -0.91110E-11         0.00000E+00
    0.16604E-07        -0.94113E-11         0.00000E+00
    0.16904E-07        -0.97044E-11         0.00000E+00
    0.17206E-07        -0.99885E-11         0.00000E+00
    0.17508E-07        -0.10262E-10         0.00000E+00
    0.17810E-07        -0.10522E-10         0.00000E+00
    0.18112E-07        -0.10768E-10         0.00000E+00
    0.18413E-07        -0.10996E-10         0.00000E+00
    0.18712E-07        -0.11204E-10         0.00000E+00
    0.19011E-07        -0.11390E-10         0.00000E+00
    0.19307E-07        -0.11551E-10         0.00000E+00
    0.19601E-07        -0.11683E-10         0.00000E+00
    0.19893E-07        -0.11784E-10         0.00000E+00
    0.20180E-07        -0.11849E-10         0.00000E+00
    0.20464E-07        -0.11875E-10         0.00000E+00
    0.20744E-07        -0.11857E-10         0.00000E+00
    0.21019E-07        -0.11790E-10         0.00000E+00
    0.21289E-07        -0.11670E-10         0.00000E+00
    0.21553E-07        -0.11489E-10         0.00000E+00
    0.21811E-07        -0.11241E-10         0.00000E+00
    0.22061E-07        -0.10917E-10         0.00000E+00
    0.22305E-07        -0.10509E-10         0.00000E+00
    0.22540E-07        -0.10007E-10         0.00000E+00
    0.22767E-07        -0.93977E-11         0.00000E+00
    0.22985E-07        -0.86685E-11         0.00000E+00
    0.23194E-07        -0.78043E-11         0.00000E+00
    0.23392E-07        -0.67887E-11         0.00000E+00
    0.23580E-07        -0.56041E-11         0.00000E+00
    0.23756E-07        -0.42320E-11         0.00000E+00
    0.23921E-07        -0.26548E-11         0.00000E+00
    0.24074E-07        -0.85664E-12         0.00000E+00
    0.24214E-07         0.11733E-11         0.00000E+00
    0.24340E-07         0.34372E-11         0.00000E+00
    0.24453E-07         0.59230E-11         0.00000E+00
    0.24552E-07         0.85962E-11         0.00000E+00
    0.24636E-07         0.11389E-10         0.00000E+00
    0.24705E-07         0.14182E-10         0.00000E+00
    0.24758E-07         0.16781E-10         0.00000E+00
    0.24794E-07         0.18879E-10         0.00000E+00
    0.24814E-07         0.19979E-10         0.00000E+00
    0.24817E-07         0.19264E-10         0.00000E+00
    0.24801E-07         0.15356E-10         0.00000E+00
    0.24769E-07         0.61939E-11         0.00000E+00
    0.68925E-08         0.31670E-11         0.00000E+00
    0.68725E-08         0.78685E-11         0.00000E+00
    0.68612E-08         0.99626E-11         0.00000E+00
    0.68587E-08         0.10545E-10         0.00000E+00
    0.68648E-08         0.10295E-10         0.00000E+00
    0.68791E-08         0.95981E-11         0.00000E+00
    0.69015E-08         0.86772E-11         0.00000E+00
    0.69316E-08         0.76704E-11         0.00000E+00
    0.69692E-08         0.66622E-11         0.00000E+00
    0.70143E-08         0.57026E-11         0.00000E+00
    0.70666E-08         0.48190E-11         0.00000E+00
    0.71261E-08         0.40236E-11         0.00000E+00
    0.71926E-08         0.33188E-11         0.00000E+00
    0.72661E-08         0.27012E-11         0.00000E+00
    0.73464E-08         0.21636E-11         0.00000E+00
    0.74334E-08         0.16972E-11         0.00000E+00
    0.75272E-08         0.12923E-11         0.00000E+00
    0.76276E-08         0.93977E-12         0.00000E+00
    0.77346E-08         0.63078E-12         0.00000E+00
    0.78481E-08         0.35742E-12         0.00000E+00
    0.79680E-08         0.11269E-12         0.00000E+00
    0.80944E-08        -0.10949E-12         0.00000E+00
    0.82271E-08        -0.31430E-12         0.00000E+00
    0.83661E-08        -0.50614E-12         0.00000E+00
    0.85114E-08        -0.68870E-12         0.00000E+00
    0.86629E-08        -0.86502E-12         0.00000E+00
    0.88206E-08        -0.10377E-11         0.00000E+00
    0.89843E-08        -0.12087E-11         0.00000E+00
    0.91541E-08        -0.13799E-11         0.00000E+00
    0.93299E-08        -0.15526E-11         0.00000E+00
    0.95117E-08        -0.17280E-11         0.00000E+00
    0.96993E-08        -0.19071E-11         0.00000E+00
    0.98928E-08        -0.20906E-11         0.00000E+00
    0.10092E-07        -0.22792E-11         0.00000E+00
    0.10297E-07        -0.24733E-11         0.00000E+00
    0.10507E-07        -0.26733E-11         0.00000E+00
    0.10723E-07        -0.28797E-11         0.00000E+00
    0.10945E-07        -0.30925E-11         0.00000E+00
    0.11171E-07        -0.33119E-11         0.00000E+00
    0.11403E-07        -0.35381E-11         0.00000E+00
    0.11641E-07        -0.37710E-11         0.00000E+00
    0.11883E-07        -0.40106E-11         0.00000E+00
    0.12130E-07        -0.42568E-11         0.00000E+00
    0.12381E-07        -0.45094E-11         0.00000E+00
    0.12638E-07        -0.47682E-11         0.00000E+00
    0.12898E-07        -0.50328E-11         0.00000E+00
    0.13163E-07        -0.53030E-11         0.00000E+00
    0.13433E-07        -0.55783E-11         0.00000E+00
    0.13706E-07        -0.58581E-11         0.00000E+00
    0.13982E-07        -0.61419E-11         0.00000E+00
    0.14263E-07        -0.64290E-11         0.00000E+00
    0.14546E-07        -0.67188E-11         0.00000E+00
    0.14833E-07        -0.70103E-11         0.00000E+00
    0.15123E-07        -0.73027E-11         0.00000E+00
    0.15415E-07        -0.75950E-11         0.00000E+00
    0.15709E-07        -0.78860E-11         0.00000E+00
    0.16006E-07        -0.81747E-11         0.00000E+00
    0.16304E-07        -0.84596E-11         0.00000E+00
    0.16603E-07        -0.87395E-11         0.00000E+00
    0.16904E-07        -0.90128E-11         0.00000E+00
    0.17206E-07        -0.92779E-11         0.00000E+00
    0.17508E-07        -0.95330E-11         0.00000E+00
    0.17810E-07        -0.97764E-11         0.00000E+00
    0.18111E-07        -0.10006E-10         0.00000E+00
    0.18413E-07        -0.10220E-10         0.00000E+00
    0.18712E-07        -0.10415E-10         0.00000E+00
    0.19011E-07        -0.10590E-10         0.00000E+00
    0.19307E-07        -0.10741E-10         0.00000E+00
    0.19601E-07        -0.10867E-10         0.00000E+00
    0.19893E-07        -0.10963E-10         0.00000E+00
    0.20180E-07        -0.11026E-10         0.00000E+00
    0.20464E-07        -0.11053E-10         0.00000E+00
    0.20744E-07        -0.11040E-10         0.00000E+00
    0.21019E-07        -0.10982E-10         0.00000E+00
    0.21289E-07        -0.10875E-10         0.00000E+00
    0.21553E-07        -0.10711E-10         0.00000E+00
    0.21811E-07        -0.10486E-10         0.00000E+00
    0.22061E-07        -0.10190E-10         0.00000E+00
    0.22305E-07        -0.98174E-11         0.00000E+00
    0.22540E-07        -0.93567E-11         0.00000E+00
    0.22767E-07        -0.87974E-11         0.00000E+00
    0.22985E-07        -0.81270E-11         0.00000E+00
    0.23194E-07        -0.73314E-11         0.00000E+00
    0.23392E-07        -0.63952E-11         0.00000E+00
    0.23580E-07        -0.53018E-11         0.00000E+00
    0.23757E-07        -0.40338E-11         0.00000E+00
    0.23921E-07        -0.25740E-11         0.00000E+00
    0.24074E-07        -0.90734E-12         0.00000E+00
    0.24214E-07         0.97746E-12         0.00000E+00
    0.24341E-07         0.30838E-11         0.00000E+00
    0.24454E-07         0.54021E-11         0.00000E+00
    0.24553E-07         0.79030E-11         0.00000E+00
    0.24637E-07         0.10526E-10         0.00000E+00
    0.24705E-07         0.13166E-10         0.00000E+00
    0.24758E-07         0.15647E-10         0.00000E+00
    0.24795E-07         0.17689E-10         0.00000E+00
    0.24814E-07         0.18838E-10         0.00000E+00
    0.24816E-07         0.18324E-10         0.00000E+00
    0.24800E-07         0.14780E-10         0.00000E+00
    0.24767E-07         0.60160E-11         0.00000E+00
    0.68937E-08         0.30380E-11         0.00000E+00
    0.68731E-08         0.74720E-11         0.00000E+00
    0.68614E-08         0.93406E-11         0.00000E+00
    0.68587E-08         0.97991E-11         0.00000E+00
    0.68647E-08         0.95107E-11         0.00000E+00
    0.68790E-08         0.88280E-11         0.00000E+00
    0.69013E-08         0.79536E-11         0.00000E+00
    0.69314E-08         0.70104E-11         0.00000E+00
    0.69690E-08         0.60734E-11         0.00000E+00
    0.70141E-08         0.51862E-11         0.00000E+00
    0.70665E-08         0.43725E-11         0.00000E+00
    0.71260E-08         0.36424E-11         0.00000E+00
    0.71925E-08         0.29973E-11         0.00000E+00
    0.72660E-08         0.24332E-11         0.00000E+00
    0.73463E-08         0.19433E-11         0.00000E+00
    0.74334E-08         0.15190E-11         0.00000E+00
    0.75271E-08         0.11513E-11         0.00000E+00
    0.76276E-08         0.83166E-12         0.00000E+00
    0.77345E-08         0.55180E-12         0.00000E+00
    0.78480E-08         0.30443E-12         0.00000E+00
    0.79680E-08         0.83087E-13         0.00000E+00
    0.80944E-08        -0.11782E-12         0.00000E+00
    0.82271E-08        -0.30306E-12         0.00000E+00
    0.83661E-08        -0.47665E-12         0.00000E+00
    0.85114E-08        -0.64196E-12         0.00000E+00
    0.86629E-08        -0.80178E-12         0.00000E+00
    0.88205E-08        -0.95842E-12         0.00000E+00
    0.89843E-08        -0.11138E-11         0.00000E+00
    0.91541E-08        -0.12695E-11         0.00000E+00
    0.93299E-08        -0.14267E-11         0.00000E+00
    0.95117E-08        -0.15865E-11         0.00000E+00
    0.96993E-08        -0.17499E-11         0.00000E+00
    0.98927E-08        -0.19174E-11         0.00000E+00
    0.10092E-07        -0.20896E-11         0.00000E+00
    0.10297E-07        -0.22670E-11         0.00000E+00
    0.10507E-07        -0.24500E-11         0.00000E+00
    0.10723E-07        -0.26388E-11         0.00000E+00
    0.10945E-07        -0.28337E-11         0.00000E+00
    0.11171E-07        -0.30347E-11         0.00000E+00
    0.11403E-07        -0.32419E-11         0.00000E+00
    0.11641E-07        -0.34554E-11         0.00000E+00
    0.11883E-07        -0.36750E-11         0.00000E+00
    0.12130E-07        -0.39008E-11         0.00000E+00
    0.12381E-07        -0.41325E-11         0.00000E+00
    0.12638E-07        -0.43700E-11         0.00000E+00
    0.12898E-07        -0.46129E-11         0.00000E+00
    0.13163E-07        -0.48609E-11         0.00000E+00
    0.13432E-07        -0.51136E-11         0.00000E+00
    0.13706E-07        -0.53706E-11         0.00000E+00
    0.13982E-07        -0.56313E-11         0.00000E+00
    0.14263E-07        -0.58951E-11         0.00000E+00
    0.14546E-07        -0.61614E-11         0.00000E+00
    0.14833E-07        -0.64294E-11         0.00000E+00
    0.15123E-07        -0.66983E-11         0.00000E+00
    0.15415E-07        -0.69671E-11         0.00000E+00
    0.15709E-07        -0.72349E-11         0.00000E+00
    0.16006E-07        -0.75006E-11         0.00000E+00
    0.16304E-07        -0.77630E-11         0.00000E+00
    0.16603E-07        -0.80208E-11         0.00000E+00
    0.16904E-07        -0.82727E-11         0.00000E+00
    0.17206E-07        -0.85171E-11         0.00000E+00
    0.17508E-07        -0.87525E-11         0.00000E+00
    0.17810E-07        -0.89772E-11         0.00000E+00
    0.18111E-07        -0.91894E-11         0.00000E+00
    0.18412E-07        -0.93872E-11         0.00000E+00
    0.18712E-07        -0.95683E-11         0.00000E+00
    0.19011E-07        -0.97307E-11         0.00000E+00
    0.19307E-07        -0.98718E-11         0.00000E+00
    0.19601E-07        -0.99891E-11         0.00000E+00
    0.19892E-07        -0.10080E-10         0.00000E+00
    0.20180E-07        -0.10141E-10         0.00000E+00
    0.20464E-07        -0.10169E-10         0.00000E+00
    0.20744E-07        -0.10160E-10         0.00000E+00
    0.21019E-07        -0.10111E-10         0.00000E+00
    0.21289E-07        -0.10015E-10         0.00000E+00
    0.21553E-07        -0.98695E-11         0.00000E+00
    0.21811E-07        -0.96670E-11         0.00000E+00
    0.22062E-07        -0.94011E-11         0.00000E+00
    0.22305E-07        -0.90640E-11         0.00000E+00
    0.22540E-07        -0.86469E-11         0.00000E+00
    0.22767E-07        -0.81396E-11         0.00000E+00
    0.22985E-07        -0.75306E-11         0.00000E+00
    0.23194E-07        -0.68070E-11         0.00000E+00
    0.23392E-07        -0.59545E-11         0.00000E+00
    0.23580E-07        -0.49574E-11         0.00000E+00
    0.23757E-07        -0.37996E-11         0.00000E+00
    0.23922E-07        -0.24649E-11         0.00000E+00
    0.24074E-07        -0.93853E-12         0.00000E+00
    0.24214E-07         0.79059E-12         0.00000E+00
    0.24341E-07         0.27269E-11         0.00000E+00
    0.24454E-07         0.48633E-11         0.00000E+00
    0.24553E-07         0.71751E-11         0.00000E+00
    0.24637E-07         0.96100E-11         0.00000E+00
    0.24706E-07         0.12075E-10         0.00000E+00
    0.24759E-07         0.14415E-10         0.00000E+00
    0.24795E-07         0.16378E-10         0.00000E+00
    0.24814E-07         0.17556E-10         0.00000E+00
    0.24816E-07         0.17237E-10         0.00000E+00
    0.24799E-07         0.14090E-10         0.00000E+00
    0.24764E-07         0.57947E-11         0.00000E+00
    0.68949E-08         0.28828E-11         0.00000E+00
    0.68736E-08         0.70085E-11         0.00000E+00
    0.68616E-08         0.86364E-11         0.00000E+00
    0.68587E-08         0.89756E-11         0.00000E+00
    0.68646E-08         0.86581E-11         0.00000E+00
    0.68788E-08         0.80007E-11         0.00000E+00
    0.69011E-08         0.71829E-11         0.00000E+00
    0.69312E-08         0.63124E-11         0.00000E+00
    0.69689E-08         0.54543E-11         0.00000E+00
    0.70140E-08         0.46462E-11         0.00000E+00
    0.70663E-08         0.39079E-11         0.00000E+00
    0.71258E-08         0.32476E-11         0.00000E+00
    0.71924E-08         0.26658E-11         0.00000E+00
    0.72659E-08         0.21584E-11         0.00000E+00
    0.73462E-08         0.17186E-11         0.00000E+00
    0.74333E-08         0.13384E-11         0.00000E+00
    0.75271E-08         0.10095E-11         0.00000E+00
    0.76275E-08         0.72396E-12         0.00000E+00
    0.77345E-08         0.47429E-12         0.00000E+00
    0.78480E-08         0.25379E-12         0.00000E+00
    0.79680E-08         0.56591E-13         0.00000E+00
    0.80943E-08        -0.12237E-12         0.00000E+00
    0.82270E-08        -0.28741E-12         0.00000E+00
    0.83661E-08        -0.44216E-12         0.00000E+00
    0.85114E-08        -0.58964E-12         0.00000E+00
    0.86629E-08        -0.73237E-12         0.00000E+00
    0.88205E-08        -0.87242E-12         0.00000E+00
    0.89843E-08        -0.10115E-11         0.00000E+00
    0.91541E-08        -0.11510E-11         0.00000E+00
    0.93299E-08        -0.12920E-11         0.00000E+00
    0.95116E-08        -0.14356E-11         0.00000E+00
    0.96993E-08        -0.15824E-11         0.00000E+00
    0.98927E-08        -0.17331E-11         0.00000E+00
    0.10092E-07        -0.18881E-11         0.00000E+00
    0.10297E-07        -0.20480E-11         0.00000E+00
    0.10507E-07        -0.22129E-11         0.00000E+00
    0.10723E-07        -0.23832E-11         0.00000E+00
    0.10945E-07        -0.25590E-11         0.00000E+00
    0.11171E-07        -0.27404E-11         0.00000E+00
    0.11403E-07        -0.29276E-11         0.00000E+00
    0.11640E-07        -0.31204E-11         0.00000E+00
    0.11883E-07        -0.33189E-11         0.00000E+00
    0.12130E-07        -0.35229E-11         0.00000E+00
    0.12381E-07        -0.37324E-11         0.00000E+00
    0.12638E-07        -0.39472E-11         0.00000E+00
    0.12898E-07        -0.41669E-11         0.00000E+00
    0.13163E-07        -0.43912E-11         0.00000E+00
    0.13432E-07        -0.46200E-11         0.00000E+00
    0.13706E-07        -0.48526E-11         0.00000E+00
    0.13982E-07        -0.50886E-11         0.00000E+00
    0.14263E-07        -0.53275E-11         0.00000E+00
    0.14546E-07        -0.55688E-11         0.00000E+00
    0.14833E-07        -0.58116E-11         0.00000E+00
    0.15122E-07        -0.60552E-11         0.00000E+00
    0.15415E-07        -0.62990E-11         0.00000E+00
    0.15709E-07        -0.65418E-11         0.00000E+00
    0.16006E-07        -0.67828E-11         0.00000E+00
    0.16304E-07        -0.70209E-11         0.00000E+00
    0.16603E-07        -0.72550E-11         0.00000E+00
    0.16904E-07        -0.74837E-11         0.00000E+00
    0.17206E-07        -0.77059E-11         0.00000E+00
    0.17508E-07        -0.79200E-11         0.00000E+00
    0.17810E-07        -0.81245E-11         0.00000E+00
    0.18111E-07        -0.83178E-11         0.00000E+00
    0.18412E-07        -0.84982E-11         0.00000E+00
    0.18712E-07        -0.86637E-11         0.00000E+00
    0.19011E-07        -0.88123E-11         0.00000E+00
    0.19307E-07        -0.89419E-11         0.00000E+00
    0.19601E-07        -0.90501E-11         0.00000E+00
    0.19892E-07        -0.91345E-11         0.00000E+00
    0.20180E-07        -0.91922E-11         0.00000E+00
    0.20464E-07        -0.92202E-11         0.00000E+00
    0.20744E-07        -0.92153E-11         0.00000E+00
    0.21019E-07        -0.91736E-11         0.00000E+00
    0.21289E-07        -0.90911E-11         0.00000E+00
    0.21553E-07        -0.89629E-11         0.00000E+00
    0.21811E-07        -0.87839E-11         0.00000E+00
    0.22062E-07        -0.85479E-11         0.00000E+00
    0.22305E-07        -0.82479E-11         0.00000E+00
    0.22541E-07        -0.78758E-11         0.00000E+00
    0.22768E-07        -0.74226E-11         0.00000E+00
    0.22986E-07        -0.68776E-11         0.00000E+00
    0.23194E-07        -0.62293E-11         0.00000E+00
    0.23393E-07        -0.54644E-11         0.00000E+00
    0.23580E-07        -0.45686E-11         0.00000E+00
    0.23757E-07        -0.35271E-11         0.00000E+00
    0.23922E-07        -0.23247E-11         0.00000E+00
    0.24075E-07        -0.94747E-12         0.00000E+00
    0.24215E-07         0.61548E-12         0.00000E+00
    0.24342E-07         0.23693E-11         0.00000E+00
    0.24455E-07         0.43092E-11         0.00000E+00
    0.24554E-07         0.64150E-11         0.00000E+00
    0.24638E-07         0.86421E-11         0.00000E+00
    0.24706E-07         0.10910E-10         0.00000E+00
    0.24759E-07         0.13084E-10         0.00000E+00
    0.24795E-07         0.14944E-10         0.00000E+00
    0.24814E-07         0.16126E-10         0.00000E+00
    0.24816E-07         0.15991E-10         0.00000E+00
    0.24798E-07         0.13267E-10         0.00000E+00
    0.24762E-07         0.55216E-11         0.00000E+00
    0.68960E-08         0.26964E-11         0.00000E+00
    0.68741E-08         0.64679E-11         0.00000E+00
    0.68617E-08         0.78424E-11         0.00000E+00
    0.68587E-08         0.80704E-11         0.00000E+00
    0.68645E-08         0.77360E-11         0.00000E+00
    0.68787E-08         0.71161E-11         0.00000E+00
    0.69009E-08         0.63657E-11         0.00000E+00
    0.69310E-08         0.55774E-11         0.00000E+00
    0.69687E-08         0.48062E-11         0.00000E+00
    0.70138E-08         0.40838E-11         0.00000E+00
    0.70662E-08         0.34266E-11         0.00000E+00
    0.71257E-08         0.28406E-11         0.00000E+00
    0.71923E-08         0.23258E-11         0.00000E+00
    0.72658E-08         0.18778E-11         0.00000E+00
    0.73461E-08         0.14904E-11         0.00000E+00
    0.74332E-08         0.11562E-11         0.00000E+00
    0.75270E-08         0.86756E-12         0.00000E+00
    0.76274E-08         0.61735E-12         0.00000E+00
    0.77344E-08         0.39882E-12         0.00000E+00
    0.78480E-08         0.20599E-12         0.00000E+00
    0.79679E-08         0.33625E-13         0.00000E+00
    0.80943E-08        -0.12279E-12         0.00000E+00
    0.82270E-08        -0.26707E-12         0.00000E+00
    0.83660E-08        -0.40243E-12         0.00000E+00
    0.85113E-08        -0.53155E-12         0.00000E+00
    0.86628E-08        -0.65664E-12         0.00000E+00
    0.88205E-08        -0.77952E-12         0.00000E+00
    0.89842E-08        -0.90170E-12         0.00000E+00
    0.91540E-08        -0.10244E-11         0.00000E+00
    0.93299E-08        -0.11486E-11         0.00000E+00
    0.95116E-08        -0.12751E-11         0.00000E+00
    0.96992E-08        -0.14047E-11         0.00000E+00
    0.98927E-08        -0.15377E-11         0.00000E+00
    0.10092E-07        -0.16748E-11         0.00000E+00
    0.10297E-07        -0.18161E-11         0.00000E+00
    0.10507E-07        -0.19621E-11         0.00000E+00
    0.10723E-07        -0.21128E-11         0.00000E+00
    0.10945E-07        -0.22685E-11         0.00000E+00
    0.11171E-07        -0.24293E-11         0.00000E+00
    0.11403E-07        -0.25952E-11         0.00000E+00
    0.11640E-07        -0.27662E-11         0.00000E+00
    0.11883E-07        -0.29422E-11         0.00000E+00
    0.12129E-07        -0.31233E-11         0.00000E+00
    0.12381E-07        -0.33092E-11         0.00000E+00
    0.12637E-07        -0.34998E-11         0.00000E+00
    0.12898E-07        -0.36949E-11         0.00000E+00
    0.13163E-07        -0.38942E-11         0.00000E+00
    0.13432E-07        -0.40974E-11         0.00000E+00
    0.13705E-07        -0.43041E-11         0.00000E+00
    0.13982E-07        -0.45138E-11         0.00000E+00
    0.14263E-07        -0.47263E-11         0.00000E+00
    0.14546E-07        -0.49407E-11         0.00000E+00
    0.14833E-07        -0.51567E-11         0.00000E+00
    0.15122E-07        -0.53735E-11         0.00000E+00
    0.15415E-07        -0.55904E-11         0.00000E+00
    0.15709E-07        -0.58066E-11         0.00000E+00
    0.16005E-07        -0.60212E-11         0.00000E+00
    0.16304E-07        -0.62333E-11         0.00000E+00
    0.16603E-07        -0.64419E-11         0.00000E+00
    0.16904E-07        -0.66459E-11         0.00000E+00
    0.17206E-07        -0.68441E-11         0.00000E+00
    0.17508E-07        -0.70352E-11         0.00000E+00
    0.17810E-07        -0.72179E-11         0.00000E+00
    0.18111E-07        -0.73908E-11         0.00000E+00
    0.18412E-07        -0.75523E-11         0.00000E+00
    0.18712E-07        -0.77007E-11         0.00000E+00
    0.19011E-07        -0.78342E-11         0.00000E+00
    0.19307E-07        -0.79511E-11         0.00000E+00
    0.19601E-07        -0.80490E-11         0.00000E+00
    0.19892E-07        -0.81260E-11         0.00000E+00
    0.20180E-07        -0.81795E-11         0.00000E+00
    0.20464E-07        -0.82068E-11         0.00000E+00
    0.20744E-07        -0.82050E-11         0.00000E+00
    0.21019E-07        -0.81709E-11         0.00000E+00
    0.21289E-07        -0.81008E-11         0.00000E+00
    0.21553E-07        -0.79904E-11         0.00000E+00
    0.21811E-07        -0.78352E-11         0.00000E+00
    0.22062E-07        -0.76297E-11         0.00000E+00
    0.22305E-07        -0.73677E-11         0.00000E+00
    0.22541E-07        -0.70421E-11         0.00000E+00
    0.22768E-07        -0.66447E-11         0.00000E+00
    0.22986E-07        -0.61663E-11         0.00000E+00
    0.23194E-07        -0.55962E-11         0.00000E+00
    0.23393E-07        -0.49228E-11         0.00000E+00
    0.23581E-07        -0.41332E-11         0.00000E+00
    0.23757E-07        -0.32138E-11         0.00000E+00
    0.23922E-07        -0.21508E-11         0.00000E+00
    0.24075E-07        -0.93131E-12         0.00000E+00
    0.24215E-07         0.45509E-12         0.00000E+00
    0.24342E-07         0.20140E-11         0.00000E+00
    0.24455E-07         0.37428E-11         0.00000E+00
    0.24554E-07         0.56252E-11         0.00000E+00
    0.24638E-07         0.76244E-11         0.00000E+00
    0.24707E-07         0.96727E-11         0.00000E+00
    0.24759E-07         0.11655E-10         0.00000E+00
    0.24796E-07         0.13382E-10         0.00000E+00
    0.24815E-07         0.14540E-10         0.00000E+00
    0.24816E-07         0.14569E-10         0.00000E+00
    0.24797E-07         0.12292E-10         0.00000E+00
    0.24760E-07         0.51863E-11         0.00000E+00
    0.68971E-08         0.24722E-11         0.00000E+00
    0.68745E-08         0.58383E-11         0.00000E+00
    0.68618E-08         0.69508E-11         0.00000E+00
    0.68586E-08         0.70799E-11         0.00000E+00
    0.68644E-08         0.67432E-11         0.00000E+00
    0.68785E-08         0.61741E-11         0.00000E+00
    0.69008E-08         0.55029E-11         0.00000E+00
    0.69309E-08         0.48066E-11         0.00000E+00
    0.69686E-08         0.41305E-11         0.00000E+00
    0.70137E-08         0.35007E-11         0.00000E+00
    0.70661E-08         0.29299E-11         0.00000E+00
    0.71256E-08         0.24228E-11         0.00000E+00
    0.71922E-08         0.19784E-11         0.00000E+00
    0.72657E-08         0.15927E-11         0.00000E+00
    0.73460E-08         0.12599E-11         0.00000E+00
    0.74332E-08         0.97334E-12         0.00000E+00
    0.75270E-08         0.72634E-12         0.00000E+00
    0.76274E-08         0.51252E-12         0.00000E+00
    0.77344E-08         0.32600E-12         0.00000E+00
    0.78479E-08         0.16155E-12         0.00000E+00
    0.79679E-08         0.14625E-13         0.00000E+00
    0.80943E-08        -0.11869E-12         0.00000E+00
    0.82270E-08        -0.24171E-12         0.00000E+00
    0.83660E-08        -0.35721E-12         0.00000E+00
    0.85113E-08        -0.46747E-12         0.00000E+00
    0.86628E-08        -0.57442E-12         0.00000E+00
    0.88205E-08        -0.67961E-12         0.00000E+00
    0.89842E-08        -0.78432E-12         0.00000E+00
    0.91540E-08        -0.88961E-12         0.00000E+00
    0.93298E-08        -0.99631E-12         0.00000E+00
    0.95116E-08        -0.11051E-11         0.00000E+00
    0.96992E-08        -0.12167E-11         0.00000E+00
    0.98927E-08        -0.13313E-11         0.00000E+00
    0.10092E-07        -0.14495E-11         0.00000E+00
    0.10297E-07        -0.15714E-11         0.00000E+00
    0.10507E-07        -0.16975E-11         0.00000E+00
    0.10723E-07        -0.18277E-11         0.00000E+00
    0.10945E-07        -0.19623E-11         0.00000E+00
    0.11171E-07        -0.21013E-11         0.00000E+00
    0.11403E-07        -0.22448E-11         0.00000E+00
    0.11640E-07        -0.23927E-11         0.00000E+00
    0.11882E-07        -0.25451E-11         0.00000E+00
    0.12129E-07        -0.27018E-11         0.00000E+00
    0.12381E-07        -0.28629E-11         0.00000E+00
    0.12637E-07        -0.30280E-11         0.00000E+00
    0.12898E-07        -0.31970E-11         0.00000E+00
    0.13163E-07        -0.33697E-11         0.00000E+00
    0.13432E-07        -0.35458E-11         0.00000E+00
    0.13705E-07        -0.37251E-11         0.00000E+00
    0.13982E-07        -0.39070E-11         0.00000E+00
    0.14263E-07        -0.40912E-11         0.00000E+00
    0.14546E-07        -0.42773E-11         0.00000E+00
    0.14833E-07        -0.44648E-11         0.00000E+00
    0.15122E-07        -0.46530E-11         0.00000E+00
    0.15415E-07        -0.48413E-11         0.00000E+00
    0.15709E-07        -0.50291E-11         0.00000E+00
    0.16005E-07        -0.52156E-11         0.00000E+00
    0.16304E-07        -0.54000E-11         0.00000E+00
    0.16603E-07        -0.55814E-11         0.00000E+00
    0.16904E-07        -0.57589E-11         0.00000E+00
    0.17206E-07        -0.59314E-11         0.00000E+00
    0.17508E-07        -0.60979E-11         0.00000E+00
    0.17810E-07        -0.62572E-11         0.00000E+00
    0.18111E-07        -0.64080E-11         0.00000E+00
    0.18412E-07        -0.65491E-11         0.00000E+00
    0.18712E-07        -0.66790E-11         0.00000E+00
    0.19011E-07        -0.67961E-11         0.00000E+00
    0.19307E-07        -0.68988E-11         0.00000E+00
    0.19601E-07        -0.69853E-11         0.00000E+00
    0.19892E-07        -0.70538E-11         0.00000E+00
    0.20180E-07        -0.71021E-11         0.00000E+00
    0.20464E-07        -0.71279E-11         0.00000E+00
    0.20744E-07        -0.71286E-11         0.00000E+00
    0.21019E-07        -0.71016E-11         0.00000E+00
    0.21289E-07        -0.70436E-11         0.00000E+00
    0.21553E-07        -0.69510E-11         0.00000E+00
    0.21811E-07        -0.68198E-11         0.00000E+00
    0.22062E-07        -0.66453E-11         0.00000E+00
    0.22305E-07        -0.64222E-11         0.00000E+00
    0.22541E-07        -0.61443E-11         0.00000E+00
    0.22768E-07        -0.58045E-11         0.00000E+00
    0.22986E-07        -0.53948E-11         0.00000E+00
    0.23194E-07        -0.49059E-11         0.00000E+00
    0.23393E-07        -0.43276E-11         0.00000E+00
    0.23581E-07        -0.36486E-11         0.00000E+00
    0.23757E-07        -0.28569E-11         0.00000E+00
    0.23922E-07        -0.19403E-11         0.00000E+00
    0.24075E-07        -0.88705E-12         0.00000E+00
    0.24215E-07         0.31257E-12         0.00000E+00
    0.24342E-07         0.16643E-11         0.00000E+00
    0.24455E-07         0.31671E-11         0.00000E+00
    0.24554E-07         0.48086E-11         0.00000E+00
    0.24638E-07         0.65594E-11         0.00000E+00
    0.24707E-07         0.83637E-11         0.00000E+00
    0.24760E-07         0.10127E-10         0.00000E+00
    0.24796E-07         0.11690E-10         0.00000E+00
    0.24815E-07         0.12790E-10         0.00000E+00
    0.24815E-07         0.12954E-10         0.00000E+00
    0.24797E-07         0.11138E-10         0.00000E+00
    0.24758E-07         0.47751E-11         0.00000E+00
    0.68980E-08         0.22015E-11         0.00000E+00
    0.68748E-08         0.51051E-11         0.00000E+00
    0.68619E-08         0.59536E-11         0.00000E+00
    0.68586E-08         0.60010E-11         0.00000E+00
    0.68643E-08         0.56788E-11         0.00000E+00
    0.68784E-08         0.51750E-11         0.00000E+00
    0.69007E-08         0.45954E-11         0.00000E+00
    0.69307E-08         0.40013E-11         0.00000E+00
    0.69684E-08         0.34288E-11         0.00000E+00
    0.70136E-08         0.28983E-11         0.00000E+00
    0.70660E-08         0.24195E-11         0.00000E+00
    0.71255E-08         0.19955E-11         0.00000E+00
    0.71921E-08         0.16250E-11         0.00000E+00
    0.72656E-08         0.13043E-11         0.00000E+00
    0.73460E-08         0.10281E-11         0.00000E+00
    0.74331E-08         0.79084E-12         0.00000E+00
    0.75269E-08         0.58668E-12         0.00000E+00
    0.76274E-08         0.41020E-12         0.00000E+00
    0.77344E-08         0.25645E-12         0.00000E+00
    0.78479E-08         0.12100E-12         0.00000E+00
    0.79679E-08         0.30590E-16         0.00000E+00
    0.80942E-08        -0.10973E-12         0.00000E+00
    0.82270E-08        -0.21105E-12         0.00000E+00
    0.83660E-08        -0.30624E-12         0.00000E+00
    0.85113E-08        -0.39721E-12         0.00000E+00
    0.86628E-08        -0.48555E-12         0.00000E+00
    0.88204E-08        -0.57255E-12         0.00000E+00
    0.89842E-08        -0.65927E-12         0.00000E+00
    0.91540E-08        -0.74657E-12         0.00000E+00
    0.93298E-08        -0.83516E-12         0.00000E+00
    0.95116E-08        -0.92560E-12         0.00000E+00
    0.96992E-08        -0.10184E-11         0.00000E+00
    0.98926E-08        -0.11138E-11         0.00000E+00
    0.10092E-07        -0.12123E-11         0.00000E+00
    0.10297E-07        -0.13140E-11         0.00000E+00
    0.10507E-07        -0.14192E-11         0.00000E+00
    0.10723E-07        -0.15279E-11         0.00000E+00
    0.10945E-07        -0.16403E-11         0.00000E+00
    0.11171E-07        -0.17564E-11         0.00000E+00
    0.11403E-07        -0.18764E-11         0.00000E+00
    0.11640E-07        -0.20001E-11         0.00000E+00
    0.11882E-07        -0.21275E-11         0.00000E+00
    0.12129E-07        -0.22587E-11         0.00000E+00
    0.12381E-07        -0.23935E-11         0.00000E+00
    0.12637E-07        -0.25317E-11         0.00000E+00
    0.12898E-07        -0.26732E-11         0.00000E+00
    0.13163E-07        -0.28179E-11         0.00000E+00
    0.13432E-07        -0.29654E-11         0.00000E+00
    0.13705E-07        -0.31156E-11         0.00000E+00
    0.13982E-07        -0.32681E-11         0.00000E+00
    0.14262E-07        -0.34225E-11         0.00000E+00
    0.14546E-07        -0.35786E-11         0.00000E+00
    0.14833E-07        -0.37358E-11         0.00000E+00
    0.15122E-07        -0.38937E-11         0.00000E+00
    0.15414E-07        -0.40517E-11         0.00000E+00
    0.15709E-07        -0.42094E-11         0.00000E+00
    0.16005E-07        -0.43660E-11         0.00000E+00
    0.16304E-07        -0.45209E-11         0.00000E+00
    0.16603E-07        -0.46733E-11         0.00000E+00
    0.16904E-07        -0.48225E-11         0.00000E+00
    0.17206E-07        -0.49677E-11         0.00000E+00
    0.17508E-07        -0.51078E-11         0.00000E+00
    0.17810E-07        -0.52420E-11         0.00000E+00
    0.18111E-07        -0.53693E-11         0.00000E+00
    0.18412E-07        -0.54884E-11         0.00000E+00
    0.18712E-07        -0.55982E-11         0.00000E+00
    0.19011E-07        -0.56974E-11         0.00000E+00
    0.19307E-07        -0.57846E-11         0.00000E+00
    0.19601E-07        -0.58585E-11         0.00000E+00
    0.19892E-07        -0.59173E-11         0.00000E+00
    0.20180E-07        -0.59594E-11         0.00000E+00
    0.20464E-07        -0.59827E-11         0.00000E+00
    0.20744E-07        -0.59853E-11         0.00000E+00
    0.21019E-07        -0.59648E-11         0.00000E+00
    0.21289E-07        -0.59186E-11         0.00000E+00
    0.21553E-07        -0.58436E-11         0.00000E+00
    0.21811E-07        -0.57365E-11         0.00000E+00
    0.22062E-07        -0.55934E-11         0.00000E+00
    0.22305E-07        -0.54099E-11         0.00000E+00
    0.22541E-07        -0.51808E-11         0.00000E+00
    0.22768E-07        -0.49002E-11         0.00000E+00
    0.22986E-07        -0.45612E-11         0.00000E+00
    0.23194E-07        -0.41562E-11         0.00000E+00
    0.23393E-07        -0.36765E-11         0.00000E+00
    0.23581E-07        -0.31125E-11         0.00000E+00
    0.23758E-07        -0.24540E-11         0.00000E+00
    0.23923E-07        -0.16904E-11         0.00000E+00
    0.24076E-07        -0.81155E-12         0.00000E+00
    0.24216E-07         0.19123E-12         0.00000E+00
    0.24343E-07         0.13236E-11         0.00000E+00
    0.24456E-07         0.25857E-11         0.00000E+00
    0.24555E-07         0.39686E-11         0.00000E+00
    0.24639E-07         0.54497E-11         0.00000E+00
    0.24707E-07         0.69852E-11         0.00000E+00
    0.24760E-07         0.84993E-11         0.00000E+00
    0.24796E-07         0.98656E-11         0.00000E+00
    0.24815E-07         0.10870E-10         0.00000E+00
    0.24815E-07         0.11131E-10         0.00000E+00
    0.24796E-07         0.97775E-11         0.00000E+00
    0.24756E-07         0.42702E-11         0.00000E+00
    0.68988E-08         0.18729E-11         0.00000E+00
    0.68750E-08         0.42509E-11         0.00000E+00
    0.68619E-08         0.48428E-11         0.00000E+00
    0.68586E-08         0.48310E-11         0.00000E+00
    0.68642E-08         0.45419E-11         0.00000E+00
    0.68783E-08         0.41194E-11         0.00000E+00
    0.69005E-08         0.36444E-11         0.00000E+00
    0.69306E-08         0.31631E-11         0.00000E+00
    0.69683E-08         0.27028E-11         0.00000E+00
    0.70135E-08         0.22784E-11         0.00000E+00
    0.70659E-08         0.18970E-11         0.00000E+00
    0.71255E-08         0.15604E-11         0.00000E+00
    0.71921E-08         0.12671E-11         0.00000E+00
    0.72656E-08         0.10138E-11         0.00000E+00
    0.73459E-08         0.79622E-12         0.00000E+00
    0.74331E-08         0.60966E-12         0.00000E+00
    0.75269E-08         0.44943E-12         0.00000E+00
    0.76273E-08         0.31113E-12         0.00000E+00
    0.77343E-08         0.19078E-12         0.00000E+00
    0.78479E-08         0.84852E-13         0.00000E+00
    0.79678E-08        -0.97149E-14         0.00000E+00
    0.80942E-08        -0.95524E-13         0.00000E+00
    0.82270E-08        -0.17477E-12         0.00000E+00
    0.83660E-08        -0.24927E-12         0.00000E+00
    0.85113E-08        -0.32056E-12         0.00000E+00
    0.86628E-08        -0.38987E-12         0.00000E+00
    0.88204E-08        -0.45821E-12         0.00000E+00
    0.89842E-08        -0.52643E-12         0.00000E+00
    0.91540E-08        -0.59520E-12         0.00000E+00
    0.93298E-08        -0.66507E-12         0.00000E+00
    0.95115E-08        -0.73648E-12         0.00000E+00
    0.96992E-08        -0.80980E-12         0.00000E+00
    0.98926E-08        -0.88532E-12         0.00000E+00
    0.10092E-07        -0.96328E-12         0.00000E+00
    0.10297E-07        -0.10439E-11         0.00000E+00
    0.10507E-07        -0.11272E-11         0.00000E+00
    0.10723E-07        -0.12134E-11         0.00000E+00
    0.10945E-07        -0.13026E-11         0.00000E+00
    0.11171E-07        -0.13948E-11         0.00000E+00
    0.11403E-07        -0.14901E-11         0.00000E+00
    0.11640E-07        -0.15884E-11         0.00000E+00
    0.11882E-07        -0.16896E-11         0.00000E+00
    0.12129E-07        -0.17939E-11         0.00000E+00
    0.12381E-07        -0.19010E-11         0.00000E+00
    0.12637E-07        -0.20110E-11         0.00000E+00
    0.12898E-07        -0.21236E-11         0.00000E+00
    0.13163E-07        -0.22387E-11         0.00000E+00
    0.13432E-07        -0.23561E-11         0.00000E+00
    0.13705E-07        -0.24756E-11         0.00000E+00
    0.13982E-07        -0.25970E-11         0.00000E+00
    0.14262E-07        -0.27201E-11         0.00000E+00
    0.14546E-07        -0.28444E-11         0.00000E+00
    0.14833E-07        -0.29696E-11         0.00000E+00
    0.15122E-07        -0.30955E-11         0.00000E+00
    0.15414E-07        -0.32215E-11         0.00000E+00
    0.15709E-07        -0.33472E-11         0.00000E+00
    0.16005E-07        -0.34722E-11         0.00000E+00
    0.16304E-07        -0.35958E-11         0.00000E+00
    0.16603E-07        -0.37175E-11         0.00000E+00
    0.16904E-07        -0.38367E-11         0.00000E+00
    0.17206E-07        -0.39527E-11         0.00000E+00
    0.17508E-07        -0.40648E-11         0.00000E+00
    0.17810E-07        -0.41722E-11         0.00000E+00
    0.18111E-07        -0.42741E-11         0.00000E+00
    0.18412E-07        -0.43696E-11         0.00000E+00
    0.18712E-07        -0.44578E-11         0.00000E+00
    0.19011E-07        -0.45377E-11         0.00000E+00
    0.19307E-07        -0.46081E-11         0.00000E+00
    0.19601E-07        -0.46679E-11         0.00000E+00
    0.19892E-07        -0.47159E-11         0.00000E+00
    0.20180E-07        -0.47507E-11         0.00000E+00
    0.20464E-07        -0.47707E-11         0.00000E+00
    0.20744E-07        -0.47743E-11         0.00000E+00
    0.21019E-07        -0.47597E-11         0.00000E+00
    0.21289E-07        -0.47248E-11         0.00000E+00
    0.21553E-07        -0.46672E-11         0.00000E+00
    0.21811E-07        -0.45842E-11         0.00000E+00
    0.22062E-07        -0.44728E-11         0.00000E+00
    0.22305E-07        -0.43295E-11         0.00000E+00
    0.22541E-07        -0.41501E-11         0.00000E+00
    0.22768E-07        -0.39300E-11         0.00000E+00
    0.22986E-07        -0.36637E-11         0.00000E+00
    0.23195E-07        -0.33451E-11         0.00000E+00
    0.23393E-07        -0.29671E-11         0.00000E+00
    0.23581E-07        -0.25222E-11         0.00000E+00
    0.23758E-07        -0.20020E-11         0.00000E+00
    0.23923E-07        -0.13979E-11         0.00000E+00
    0.24076E-07        -0.70152E-12         0.00000E+00
    0.24216E-07         0.94583E-13         0.00000E+00
    0.24343E-07         0.99547E-12         0.00000E+00
    0.24456E-07         0.20021E-11         0.00000E+00
    0.24555E-07         0.31086E-11         0.00000E+00
    0.24639E-07         0.42986E-11         0.00000E+00
    0.24708E-07         0.55394E-11         0.00000E+00
    0.24760E-07         0.67739E-11         0.00000E+00
    0.24796E-07         0.79065E-11         0.00000E+00
    0.24815E-07         0.87730E-11         0.00000E+00
    0.24815E-07         0.90815E-11         0.00000E+00
    0.24796E-07         0.81727E-11         0.00000E+00
    0.24754E-07         0.36480E-11         0.00000E+00
    0.68995E-08         0.14705E-11         0.00000E+00
    0.68752E-08         0.32548E-11         0.00000E+00
    0.68620E-08         0.36116E-11         0.00000E+00
    0.68585E-08         0.35678E-11         0.00000E+00
    0.68641E-08         0.33321E-11         0.00000E+00
    0.68782E-08         0.30081E-11         0.00000E+00
    0.69005E-08         0.26512E-11         0.00000E+00
    0.69306E-08         0.22938E-11         0.00000E+00
    0.69683E-08         0.19543E-11         0.00000E+00
    0.70134E-08         0.16429E-11         0.00000E+00
    0.70658E-08         0.13642E-11         0.00000E+00
    0.71254E-08         0.11190E-11         0.00000E+00
    0.71920E-08         0.90603E-12         0.00000E+00
    0.72655E-08         0.72258E-12         0.00000E+00
    0.73459E-08         0.56535E-12         0.00000E+00
    0.74330E-08         0.43080E-12         0.00000E+00
    0.75269E-08         0.31545E-12         0.00000E+00
    0.76273E-08         0.21605E-12         0.00000E+00
    0.77343E-08         0.12965E-12         0.00000E+00
    0.78479E-08         0.53653E-13         0.00000E+00
    0.79678E-08        -0.14163E-13         0.00000E+00
    0.80942E-08        -0.75703E-13         0.00000E+00
    0.82269E-08        -0.13256E-12         0.00000E+00
    0.83660E-08        -0.18607E-12         0.00000E+00
    0.85113E-08        -0.23732E-12         0.00000E+00
    0.86628E-08        -0.28721E-12         0.00000E+00
    0.88204E-08        -0.33648E-12         0.00000E+00
    0.89842E-08        -0.38573E-12         0.00000E+00
    0.91540E-08        -0.43544E-12         0.00000E+00
    0.93298E-08        -0.48601E-12         0.00000E+00
    0.95115E-08        -0.53775E-12         0.00000E+00
    0.96992E-08        -0.59094E-12         0.00000E+00
    0.98926E-08        -0.64576E-12         0.00000E+00
    0.10092E-07        -0.70240E-12         0.00000E+00
    0.10297E-07        -0.76099E-12         0.00000E+00
    0.10507E-07        -0.82162E-12         0.00000E+00
    0.10723E-07        -0.88439E-12         0.00000E+00
    0.10945E-07        -0.94934E-12         0.00000E+00
    0.11171E-07        -0.10165E-11         0.00000E+00
    0.11403E-07        -0.10859E-11         0.00000E+00
    0.11640E-07        -0.11576E-11         0.00000E+00
    0.11882E-07        -0.12314E-11         0.00000E+00
    0.12129E-07        -0.13075E-11         0.00000E+00
    0.12381E-07        -0.13857E-11         0.00000E+00
    0.12637E-07        -0.14659E-11         0.00000E+00
    0.12898E-07        -0.15481E-11         0.00000E+00
    0.13163E-07        -0.16321E-11         0.00000E+00
    0.13432E-07        -0.17179E-11         0.00000E+00
    0.13705E-07        -0.18052E-11         0.00000E+00
    0.13982E-07        -0.18940E-11         0.00000E+00
    0.14262E-07        -0.19839E-11         0.00000E+00
    0.14546E-07        -0.20748E-11         0.00000E+00
    0.14833E-07        -0.21664E-11         0.00000E+00
    0.15122E-07        -0.22584E-11         0.00000E+00
    0.15414E-07        -0.23506E-11         0.00000E+00
    0.15709E-07        -0.24426E-11         0.00000E+00
    0.16005E-07        -0.25341E-11         0.00000E+00
    0.16304E-07        -0.26246E-11         0.00000E+00
    0.16603E-07        -0.27138E-11         0.00000E+00
    0.16904E-07        -0.28012E-11         0.00000E+00
    0.17206E-07        -0.28862E-11         0.00000E+00
    0.17508E-07        -0.29685E-11         0.00000E+00
    0.17810E-07        -0.30474E-11         0.00000E+00
    0.18111E-07        -0.31223E-11         0.00000E+00
    0.18412E-07        -0.31926E-11         0.00000E+00
    0.18712E-07        -0.32576E-11         0.00000E+00
    0.19011E-07        -0.33166E-11         0.00000E+00
    0.19307E-07        -0.33687E-11         0.00000E+00
    0.19601E-07        -0.34132E-11         0.00000E+00
    0.19892E-07        -0.34491E-11         0.00000E+00
    0.20180E-07        -0.34754E-11         0.00000E+00
    0.20464E-07        -0.34910E-11         0.00000E+00
    0.20744E-07        -0.34948E-11         0.00000E+00
    0.21019E-07        -0.34854E-11         0.00000E+00
    0.21289E-07        -0.34612E-11         0.00000E+00
    0.21553E-07        -0.34206E-11         0.00000E+00
    0.21811E-07        -0.33617E-11         0.00000E+00
    0.22062E-07        -0.32822E-11         0.00000E+00
    0.22305E-07        -0.31795E-11         0.00000E+00
    0.22541E-07        -0.30507E-11         0.00000E+00
    0.22768E-07        -0.28923E-11         0.00000E+00
    0.22986E-07        -0.27003E-11         0.00000E+00
    0.23195E-07        -0.24704E-11         0.00000E+00
    0.23393E-07        -0.21972E-11         0.00000E+00
    0.23581E-07        -0.18752E-11         0.00000E+00
    0.23758E-07        -0.14982E-11         0.00000E+00
    0.23923E-07        -0.10598E-11         0.00000E+00
    0.24076E-07        -0.55352E-12         0.00000E+00
    0.24216E-07         0.26286E-13         0.00000E+00
    0.24343E-07         0.68380E-12         0.00000E+00
    0.24456E-07         0.14203E-11         0.00000E+00
    0.24555E-07         0.22325E-11         0.00000E+00
    0.24639E-07         0.31095E-11         0.00000E+00
    0.24708E-07         0.40291E-11         0.00000E+00
    0.24761E-07         0.49519E-11         0.00000E+00
    0.24797E-07         0.58118E-11         0.00000E+00
    0.24815E-07         0.64950E-11         0.00000E+00
    0.24815E-07         0.67921E-11         0.00000E+00
    0.24795E-07         0.62811E-11         0.00000E+00
    0.24753E-07         0.28761E-11         0.00000E+00
    0.69000E-08         0.97258E-12         0.00000E+00
    0.68753E-08         0.20917E-11         0.00000E+00
    0.68620E-08         0.22552E-11         0.00000E+00
    0.68585E-08         0.22091E-11         0.00000E+00
    0.68641E-08         0.20496E-11         0.00000E+00
    0.68782E-08         0.18421E-11         0.00000E+00
    0.69004E-08         0.16176E-11         0.00000E+00
    0.69305E-08         0.13951E-11         0.00000E+00
    0.69682E-08         0.11853E-11         0.00000E+00
    0.70134E-08         0.99376E-12         0.00000E+00
    0.70658E-08         0.82297E-12         0.00000E+00
    0.71254E-08         0.67321E-12         0.00000E+00
    0.71920E-08         0.54348E-12         0.00000E+00
    0.72655E-08         0.43202E-12         0.00000E+00
    0.73459E-08         0.33671E-12         0.00000E+00
    0.74330E-08         0.25532E-12         0.00000E+00
    0.75268E-08         0.18566E-12         0.00000E+00
    0.76273E-08         0.12572E-12         0.00000E+00
    0.77343E-08         0.73678E-13         0.00000E+00
    0.78478E-08         0.27941E-13         0.00000E+00
    0.79678E-08        -0.12862E-13         0.00000E+00
    0.80942E-08        -0.49894E-13         0.00000E+00
    0.82269E-08        -0.84127E-13         0.00000E+00
    0.83660E-08        -0.11637E-12         0.00000E+00
    0.85113E-08        -0.14729E-12         0.00000E+00
    0.86627E-08        -0.17743E-12         0.00000E+00
    0.88204E-08        -0.20724E-12         0.00000E+00
    0.89842E-08        -0.23707E-12         0.00000E+00
    0.91540E-08        -0.26723E-12         0.00000E+00
    0.93298E-08        -0.29794E-12         0.00000E+00
    0.95115E-08        -0.32940E-12         0.00000E+00
    0.96992E-08        -0.36177E-12         0.00000E+00
    0.98926E-08        -0.39517E-12         0.00000E+00
    0.10092E-07        -0.42970E-12         0.00000E+00
    0.10297E-07        -0.46544E-12         0.00000E+00
    0.10507E-07        -0.50245E-12         0.00000E+00
    0.10723E-07        -0.54078E-12         0.00000E+00
    0.10945E-07        -0.58047E-12         0.00000E+00
    0.11171E-07        -0.62153E-12         0.00000E+00
    0.11403E-07        -0.66397E-12         0.00000E+00
    0.11640E-07        -0.70780E-12         0.00000E+00
    0.11882E-07        -0.75299E-12         0.00000E+00
    0.12129E-07        -0.79954E-12         0.00000E+00
    0.12381E-07        -0.84740E-12         0.00000E+00
    0.12637E-07        -0.89653E-12         0.00000E+00
    0.12898E-07        -0.94687E-12         0.00000E+00
    0.13163E-07        -0.99835E-12         0.00000E+00
    0.13432E-07        -0.10509E-11         0.00000E+00
    0.13705E-07        -0.11044E-11         0.00000E+00
    0.13982E-07        -0.11588E-11         0.00000E+00
    0.14262E-07        -0.12139E-11         0.00000E+00
    0.14546E-07        -0.12697E-11         0.00000E+00
    0.14833E-07        -0.13259E-11         0.00000E+00
    0.15122E-07        -0.13823E-11         0.00000E+00
    0.15414E-07        -0.14389E-11         0.00000E+00
    0.15709E-07        -0.14954E-11         0.00000E+00
    0.16005E-07        -0.15516E-11         0.00000E+00
    0.16304E-07        -0.16072E-11         0.00000E+00
    0.16603E-07        -0.16620E-11         0.00000E+00
    0.16904E-07        -0.17158E-11         0.00000E+00
    0.17206E-07        -0.17681E-11         0.00000E+00
    0.17507E-07        -0.18187E-11         0.00000E+00
    0.17810E-07        -0.18673E-11         0.00000E+00
    0.18111E-07        -0.19135E-11         0.00000E+00
    0.18412E-07        -0.19569E-11         0.00000E+00
    0.18712E-07        -0.19971E-11         0.00000E+00
    0.19011E-07        -0.20336E-11         0.00000E+00
    0.19307E-07        -0.20659E-11         0.00000E+00
    0.19601E-07        -0.20937E-11         0.00000E+00
    0.19892E-07        -0.21162E-11         0.00000E+00
    0.20180E-07        -0.21328E-11         0.00000E+00
    0.20464E-07        -0.21430E-11         0.00000E+00
    0.20744E-07        -0.21460E-11         0.00000E+00
    0.21019E-07        -0.21410E-11         0.00000E+00
    0.21289E-07        -0.21270E-11         0.00000E+00
    0.21553E-07        -0.21030E-11         0.00000E+00
    0.21811E-07        -0.20679E-11         0.00000E+00
    0.22062E-07        -0.20202E-11         0.00000E+00
    0.22305E-07        -0.19585E-11         0.00000E+00
    0.22541E-07        -0.18809E-11         0.00000E+00
    0.22768E-07        -0.17852E-11         0.00000E+00
    0.22986E-07        -0.16692E-11         0.00000E+00
    0.23195E-07        -0.15299E-11         0.00000E+00
    0.23393E-07        -0.13643E-11         0.00000E+00
    0.23581E-07        -0.11688E-11         0.00000E+00
    0.23758E-07        -0.93963E-12         0.00000E+00
    0.23923E-07        -0.67270E-12         0.00000E+00
    0.24076E-07        -0.36398E-12         0.00000E+00
    0.24216E-07        -0.98031E-14         0.00000E+00
    0.24343E-07         0.39267E-12         0.00000E+00
    0.24456E-07         0.84462E-12         0.00000E+00
    0.24555E-07         0.13445E-11         0.00000E+00
    0.24639E-07         0.18863E-11         0.00000E+00
    0.24708E-07         0.24574E-11         0.00000E+00
    0.24761E-07         0.30354E-11         0.00000E+00
    0.24797E-07         0.35812E-11         0.00000E+00
    0.24815E-07         0.40311E-11         0.00000E+00
    0.24815E-07         0.42524E-11         0.00000E+00
    0.24795E-07         0.40510E-11         0.00000E+00
    0.24752E-07         0.19098E-11         0.00000E+00
    0.69002E-08         0.34828E-12         0.00000E+00
    0.68753E-08         0.73255E-12         0.00000E+00
    0.68620E-08         0.77266E-12         0.00000E+00
    0.68585E-08         0.75288E-12         0.00000E+00
    0.68640E-08         0.69510E-12         0.00000E+00
    0.68781E-08         0.62278E-12         0.00000E+00
    0.69004E-08         0.54545E-12         0.00000E+00
    0.69305E-08         0.46939E-12         0.00000E+00
    0.69682E-08         0.39796E-12         0.00000E+00
    0.70133E-08         0.33300E-12         0.00000E+00
    0.70658E-08         0.27523E-12         0.00000E+00
    0.71254E-08         0.22470E-12         0.00000E+00
    0.71920E-08         0.18101E-12         0.00000E+00
    0.72655E-08         0.14354E-12         0.00000E+00
    0.73459E-08         0.11155E-12         0.00000E+00
    0.74330E-08         0.84276E-13         0.00000E+00
    0.75268E-08         0.60962E-13         0.00000E+00
    0.76273E-08         0.40920E-13         0.00000E+00
    0.77343E-08         0.23534E-13         0.00000E+00
    0.78478E-08         0.82623E-14         0.00000E+00
    0.79678E-08        -0.53590E-14         0.00000E+00
    0.80942E-08        -0.17723E-13         0.00000E+00
    0.82269E-08        -0.29157E-13         0.00000E+00
    0.83660E-08        -0.39934E-13         0.00000E+00
    0.85112E-08        -0.50277E-13         0.00000E+00
    0.86627E-08        -0.60370E-13         0.00000E+00
    0.88204E-08        -0.70362E-13         0.00000E+00
    0.89842E-08        -0.80372E-13         0.00000E+00
    0.91540E-08        -0.90500E-13         0.00000E+00
    0.93298E-08        -0.10082E-12         0.00000E+00
    0.95115E-08        -0.11141E-12         0.00000E+00
    0.96991E-08        -0.12231E-12         0.00000E+00
    0.98926E-08        -0.13356E-12         0.00000E+00
    0.10092E-07        -0.14520E-12         0.00000E+00
    0.10297E-07        -0.15725E-12         0.00000E+00
    0.10507E-07        -0.16974E-12         0.00000E+00
    0.10723E-07        -0.18267E-12         0.00000E+00
    0.10945E-07        -0.19607E-12         0.00000E+00
    0.11171E-07        -0.20994E-12         0.00000E+00
    0.11403E-07        -0.22428E-12         0.00000E+00
    0.11640E-07        -0.23908E-12         0.00000E+00
    0.11882E-07        -0.25436E-12         0.00000E+00
    0.12129E-07        -0.27009E-12         0.00000E+00
    0.12381E-07        -0.28627E-12         0.00000E+00
    0.12637E-07        -0.30288E-12         0.00000E+00
    0.12898E-07        -0.31991E-12         0.00000E+00
    0.13163E-07        -0.33732E-12         0.00000E+00
    0.13432E-07        -0.35510E-12         0.00000E+00
    0.13705E-07        -0.37321E-12         0.00000E+00
    0.13982E-07        -0.39161E-12         0.00000E+00
    0.14262E-07        -0.41027E-12         0.00000E+00
    0.14546E-07        -0.42914E-12         0.00000E+00
    0.14833E-07        -0.44816E-12         0.00000E+00
    0.15122E-07        -0.46729E-12         0.00000E+00
    0.15414E-07        -0.48645E-12         0.00000E+00
    0.15709E-07        -0.50559E-12         0.00000E+00
    0.16005E-07        -0.52462E-12         0.00000E+00
    0.16304E-07        -0.54347E-12         0.00000E+00
    0.16603E-07        -0.56206E-12         0.00000E+00
    0.16904E-07        -0.58028E-12         0.00000E+00
    0.17206E-07        -0.59803E-12         0.00000E+00
    0.17507E-07        -0.61522E-12         0.00000E+00
    0.17810E-07        -0.63172E-12         0.00000E+00
    0.18111E-07        -0.64742E-12         0.00000E+00
    0.18412E-07        -0.66217E-12         0.00000E+00
    0.18712E-07        -0.67584E-12         0.00000E+00
    0.19011E-07        -0.68828E-12         0.00000E+00
    0.19307E-07        -0.69933E-12         0.00000E+00
    0.19601E-07        -0.70882E-12         0.00000E+00
    0.19892E-07        -0.71655E-12         0.00000E+00
    0.20180E-07        -0.72232E-12         0.00000E+00
    0.20464E-07        -0.72592E-12         0.00000E+00
    0.20744E-07        -0.72709E-12         0.00000E+00
    0.21019E-07        -0.72555E-12         0.00000E+00
    0.21289E-07        -0.72101E-12         0.00000E+00
    0.21553E-07        -0.71312E-12         0.00000E+00
    0.21811E-07        -0.70148E-12         0.00000E+00
    0.22062E-07        -0.68562E-12         0.00000E+00
    0.22305E-07        -0.66503E-12         0.00000E+00
    0.22541E-07        -0.63908E-12         0.00000E+00
    0.22768E-07        -0.60708E-12         0.00000E+00
    0.22986E-07        -0.56820E-12         0.00000E+00
    0.23195E-07        -0.52149E-12         0.00000E+00
    0.23393E-07        -0.46590E-12         0.00000E+00
    0.23581E-07        -0.40021E-12         0.00000E+00
    0.23758E-07        -0.32312E-12         0.00000E+00
    0.23923E-07        -0.23325E-12         0.00000E+00
    0.24076E-07        -0.12919E-12         0.00000E+00
    0.24216E-07        -0.96516E-14         0.00000E+00
    0.24343E-07         0.12638E-12         0.00000E+00
    0.24456E-07         0.27940E-12         0.00000E+00
    0.24555E-07         0.44899E-12         0.00000E+00
    0.24639E-07         0.63334E-12         0.00000E+00
    0.24708E-07         0.82837E-12         0.00000E+00
    0.24761E-07         0.10269E-11         0.00000E+00
    0.24797E-07         0.12160E-11         0.00000E+00
    0.24815E-07         0.13760E-11         0.00000E+00
    0.24815E-07         0.14595E-11         0.00000E+00
    0.24795E-07         0.14222E-11         0.00000E+00
    0.24752E-07         0.68574E-12         0.00000E+00
POINT_DATA       5151
VECTORS vDarcyNodal double 
    0.68471E-08         0.00000E+00         0.00000E+00
    0.68462E-08         0.38947E-12         0.00000E+00
    0.68461E-08         0.50272E-12         0.00000E+00
    0.68502E-08         0.56436E-12         0.00000E+00
    0.68596E-08         0.58052E-12         0.00000E+00
    0.68747E-08         0.57125E-12         0.00000E+00
    0.68960E-08         0.54457E-12         0.00000E+00
    0.69238E-08         0.50748E-12         0.00000E+00
    0.69584E-08         0.46461E-12         0.00000E+00
    0.69999E-08         0.41934E-12         0.00000E+00
    0.70483E-08         0.37399E-12         0.00000E+00
    0.71037E-08         0.33004E-12         0.00000E+00
    0.71661E-08         0.28844E-12         0.00000E+00
    0.72354E-08         0.24966E-12         0.00000E+00
    0.73117E-08         0.21391E-12         0.00000E+00
    0.73948E-08         0.18117E-12         0.00000E+00
    0.74846E-08         0.15131E-12         0.00000E+00
    0.75813E-08         0.12412E-12         0.00000E+00
    0.76845E-08         0.99329E-13         0.00000E+00
    0.77944E-08         0.76674E-13         0.00000E+00
    0.79109E-08         0.55881E-13         0.00000E+00
    0.80338E-08         0.36688E-13         0.00000E+00
    0.81631E-08         0.18850E-13         0.00000E+00
    0.82988E-08         0.21458E-14         0.00000E+00
    0.84409E-08        -0.13627E-13         0.00000E+00
    0.85892E-08        -0.28648E-13         0.00000E+00
    0.87437E-08        -0.43076E-13         0.00000E+00
    0.89043E-08        -0.57051E-13         0.00000E+00
    0.90711E-08        -0.70695E-13         0.00000E+00
    0.92439E-08        -0.84115E-13         0.00000E+00
    0.94227E-08        -0.97403E-13         0.00000E+00
    0.96074E-08        -0.11064E-12         0.00000E+00
    0.97980E-08        -0.12389E-12         0.00000E+00
    0.99943E-08        -0.13722E-12         0.00000E+00
    0.10196E-07        -0.15066E-12         0.00000E+00
    0.10404E-07        -0.16428E-12         0.00000E+00
    0.10617E-07        -0.17809E-12         0.00000E+00
    0.10836E-07        -0.19213E-12         0.00000E+00
    0.11060E-07        -0.20642E-12         0.00000E+00
    0.11290E-07        -0.22097E-12         0.00000E+00
    0.11524E-07        -0.23578E-12         0.00000E+00
    0.11764E-07        -0.25088E-12         0.00000E+00
    0.12009E-07        -0.26625E-12         0.00000E+00
    0.12258E-07        -0.28189E-12         0.00000E+00
    0.12512E-07        -0.29779E-12         0.00000E+00
    0.12771E-07        -0.31392E-12         0.00000E+00
    0.13033E-07        -0.33028E-12         0.00000E+00
    0.13301E-07        -0.34684E-12         0.00000E+00
    0.13572E-07        -0.36356E-12         0.00000E+00
    0.13847E-07        -0.38040E-12         0.00000E+00
    0.14125E-07        -0.39733E-12         0.00000E+00
    0.14407E-07        -0.41430E-12         0.00000E+00
    0.14692E-07        -0.43125E-12         0.00000E+00
    0.14981E-07        -0.44813E-12         0.00000E+00
    0.15271E-07        -0.46487E-12         0.00000E+00
    0.15565E-07        -0.48140E-12         0.00000E+00
    0.15860E-07        -0.49764E-12         0.00000E+00
    0.16157E-07        -0.51350E-12         0.00000E+00
    0.16456E-07        -0.52889E-12         0.00000E+00
    0.16756E-07        -0.54372E-12         0.00000E+00
    0.17057E-07        -0.55788E-12         0.00000E+00
    0.17359E-07        -0.57124E-12         0.00000E+00
    0.17661E-07        -0.58370E-12         0.00000E+00
    0.17963E-07        -0.59510E-12         0.00000E+00
    0.18264E-07        -0.60532E-12         0.00000E+00
    0.18564E-07        -0.61420E-12         0.00000E+00
    0.18863E-07        -0.62158E-12         0.00000E+00
    0.19160E-07        -0.62728E-12         0.00000E+00
    0.19455E-07        -0.63112E-12         0.00000E+00
    0.19747E-07        -0.63290E-12         0.00000E+00
    0.20037E-07        -0.63239E-12         0.00000E+00
    0.20322E-07        -0.62938E-12         0.00000E+00
    0.20604E-07        -0.62361E-12         0.00000E+00
    0.20881E-07        -0.61482E-12         0.00000E+00
    0.21153E-07        -0.60271E-12         0.00000E+00
    0.21419E-07        -0.58696E-12         0.00000E+00
    0.21679E-07        -0.56725E-12         0.00000E+00
    0.21933E-07        -0.54319E-12         0.00000E+00
    0.22179E-07        -0.51440E-12         0.00000E+00
    0.22417E-07        -0.48044E-12         0.00000E+00
    0.22648E-07        -0.44086E-12         0.00000E+00
    0.22869E-07        -0.39519E-12         0.00000E+00
    0.23081E-07        -0.34293E-12         0.00000E+00
    0.23283E-07        -0.28358E-12         0.00000E+00
    0.23475E-07        -0.21669E-12         0.00000E+00
    0.23656E-07        -0.14184E-12         0.00000E+00
    0.23825E-07        -0.58735E-13         0.00000E+00
    0.23982E-07         0.32741E-13         0.00000E+00
    0.24127E-07         0.13241E-12         0.00000E+00
    0.24258E-07         0.23967E-12         0.00000E+00
    0.24377E-07         0.35328E-12         0.00000E+00
    0.24482E-07         0.47118E-12         0.00000E+00
    0.24573E-07         0.59011E-12         0.00000E+00
    0.24651E-07         0.70530E-12         0.00000E+00
    0.24715E-07         0.80990E-12         0.00000E+00
    0.24765E-07         0.89483E-12         0.00000E+00
    0.24803E-07         0.94660E-12         0.00000E+00
    0.24828E-07         0.95039E-12         0.00000E+00
    0.24843E-07         0.86869E-12         0.00000E+00
    0.24848E-07         0.69400E-12         0.00000E+00
    0.24849E-07         0.00000E+00         0.00000E+00
    0.68472E-08         0.00000E+00         0.00000E+00
    0.68462E-08         0.74941E-12         0.00000E+00
    0.68461E-08         0.98955E-12         0.00000E+00
    0.68502E-08         0.11132E-11         0.00000E+00
    0.68596E-08         0.11482E-11         0.00000E+00
    0.68746E-08         0.11309E-11         0.00000E+00
    0.68960E-08         0.10787E-11         0.00000E+00
    0.69238E-08         0.10054E-11         0.00000E+00
    0.69584E-08         0.92045E-12         0.00000E+00
    0.69999E-08         0.83065E-12         0.00000E+00
    0.70483E-08         0.74061E-12         0.00000E+00
    0.71037E-08         0.65339E-12         0.00000E+00
    0.71661E-08         0.57082E-12         0.00000E+00
    0.72354E-08         0.49388E-12         0.00000E+00
    0.73117E-08         0.42297E-12         0.00000E+00
    0.73947E-08         0.35808E-12         0.00000E+00
    0.74846E-08         0.29892E-12         0.00000E+00
    0.75812E-08         0.24506E-12         0.00000E+00
    0.76845E-08         0.19599E-12         0.00000E+00
    0.77944E-08         0.15116E-12         0.00000E+00
    0.79109E-08         0.11003E-12         0.00000E+00
    0.80338E-08         0.72076E-13         0.00000E+00
    0.81631E-08         0.36813E-13         0.00000E+00
    0.82988E-08         0.37967E-14         0.00000E+00
    0.84409E-08        -0.27374E-13         0.00000E+00
    0.85892E-08        -0.57058E-13         0.00000E+00
    0.87437E-08        -0.85569E-13         0.00000E+00
    0.89043E-08        -0.11319E-12         0.00000E+00
    0.90711E-08        -0.14015E-12         0.00000E+00
    0.92439E-08        -0.16668E-12         0.00000E+00
    0.94227E-08        -0.19294E-12         0.00000E+00
    0.96074E-08        -0.21911E-12         0.00000E+00
    0.97980E-08        -0.24531E-12         0.00000E+00
    0.99943E-08        -0.27167E-12         0.00000E+00
    0.10196E-07        -0.29827E-12         0.00000E+00
    0.10404E-07        -0.32520E-12         0.00000E+00
    0.10617E-07        -0.35253E-12         0.00000E+00
    0.10836E-07        -0.38031E-12         0.00000E+00
    0.11060E-07        -0.40858E-12         0.00000E+00
    0.11290E-07        -0.43738E-12         0.00000E+00
    0.11524E-07        -0.46671E-12         0.00000E+00
    0.11764E-07        -0.49659E-12         0.00000E+00
    0.12009E-07        -0.52702E-12         0.00000E+00
    0.12258E-07        -0.55799E-12         0.00000E+00
    0.12512E-07        -0.58946E-12         0.00000E+00
    0.12771E-07        -0.62142E-12         0.00000E+00
    0.13033E-07        -0.65382E-12         0.00000E+00
    0.13301E-07        -0.68661E-12         0.00000E+00
    0.13572E-07        -0.71973E-12         0.00000E+00
    0.13847E-07        -0.75310E-12         0.00000E+00
    0.14125E-07        -0.78664E-12         0.00000E+00
    0.14407E-07        -0.82025E-12         0.00000E+00
    0.14692E-07        -0.85384E-12         0.00000E+00
    0.14981E-07        -0.88729E-12         0.00000E+00
    0.15271E-07        -0.92046E-12         0.00000E+00
    0.15565E-07        -0.95322E-12         0.00000E+00
    0.15860E-07        -0.98540E-12         0.00000E+00
    0.16157E-07        -0.10168E-11         0.00000E+00
    0.16456E-07        -0.10474E-11         0.00000E+00
    0.16756E-07        -0.10768E-11         0.00000E+00
    0.17057E-07        -0.11049E-11         0.00000E+00
    0.17359E-07        -0.11314E-11         0.00000E+00
    0.17661E-07        -0.11561E-11         0.00000E+00
    0.17963E-07        -0.11787E-11         0.00000E+00
    0.18264E-07        -0.11990E-11         0.00000E+00
    0.18564E-07        -0.12167E-11         0.00000E+00
    0.18863E-07        -0.12314E-11         0.00000E+00
    0.19160E-07        -0.12428E-11         0.00000E+00
    0.19455E-07        -0.12504E-11         0.00000E+00
    0.19747E-07        -0.12540E-11         0.00000E+00
    0.20037E-07        -0.12531E-11         0.00000E+00
    0.20322E-07        -0.12473E-11         0.00000E+00
    0.20604E-07        -0.12360E-11         0.00000E+00
    0.20881E-07        -0.12187E-11         0.00000E+00
    0.21153E-07        -0.11948E-11         0.00000E+00
    0.21419E-07        -0.11637E-11         0.00000E+00
    0.21679E-07        -0.11248E-11         0.00000E+00
    0.21933E-07        -0.10772E-11         0.00000E+00
    0.22179E-07        -0.10203E-11         0.00000E+00
    0.22417E-07        -0.95317E-12         0.00000E+00
    0.22648E-07        -0.87487E-12         0.00000E+00
    0.22869E-07        -0.78447E-12         0.00000E+00
    0.23081E-07        -0.68098E-12         0.00000E+00
    0.23283E-07        -0.56343E-12         0.00000E+00
    0.23475E-07        -0.43088E-12         0.00000E+00
    0.23656E-07        -0.28250E-12         0.00000E+00
    0.23825E-07        -0.11768E-12         0.00000E+00
    0.23982E-07         0.63790E-13         0.00000E+00
    0.24127E-07         0.26158E-12         0.00000E+00
    0.24258E-07         0.47447E-12         0.00000E+00
    0.24377E-07         0.70004E-12         0.00000E+00
    0.24482E-07         0.93409E-12         0.00000E+00
    0.24573E-07         0.11701E-11         0.00000E+00
    0.24651E-07         0.13985E-11         0.00000E+00
    0.24715E-07         0.16056E-11         0.00000E+00
    0.24765E-07         0.17727E-11         0.00000E+00
    0.24803E-07         0.18734E-11         0.00000E+00
    0.24828E-07         0.18752E-11         0.00000E+00
    0.24843E-07         0.17104E-11         0.00000E+00
    0.24848E-07         0.13334E-11         0.00000E+00
    0.24848E-07         0.00000E+00         0.00000E+00
    0.68474E-08         0.00000E+00         0.00000E+00
    0.68464E-08         0.14172E-11         0.00000E+00
    0.68462E-08         0.19305E-11         0.00000E+00
    0.68503E-08         0.21809E-11         0.00000E+00
    0.68596E-08         0.22580E-11         0.00000E+00
    0.68746E-08         0.22270E-11         0.00000E+00
    0.68959E-08         0.21260E-11         0.00000E+00
    0.69238E-08         0.19820E-11         0.00000E+00
    0.69584E-08         0.18145E-11         0.00000E+00
    0.69998E-08         0.16371E-11         0.00000E+00
    0.70483E-08         0.14591E-11         0.00000E+00
    0.71037E-08         0.12866E-11         0.00000E+00
    0.71661E-08         0.11234E-11         0.00000E+00
    0.72354E-08         0.97141E-12         0.00000E+00
    0.73116E-08         0.83140E-12         0.00000E+00
    0.73947E-08         0.70335E-12         0.00000E+00
    0.74846E-08         0.58670E-12         0.00000E+00
    0.75812E-08         0.48058E-12         0.00000E+00
    0.76845E-08         0.38396E-12         0.00000E+00
    0.77944E-08         0.29575E-12         0.00000E+00
    0.79108E-08         0.21486E-12         0.00000E+00
    0.80338E-08         0.14026E-12         0.00000E+00
    0.81631E-08         0.70973E-13         0.00000E+00
    0.82988E-08         0.61169E-14         0.00000E+00
    0.84409E-08        -0.55102E-13         0.00000E+00
    0.85892E-08        -0.11339E-12         0.00000E+00
    0.87437E-08        -0.16938E-12         0.00000E+00
    0.89043E-08        -0.22362E-12         0.00000E+00
    0.90711E-08        -0.27658E-12         0.00000E+00
    0.92439E-08        -0.32868E-12         0.00000E+00
    0.94227E-08        -0.38029E-12         0.00000E+00
    0.96074E-08        -0.43172E-12         0.00000E+00
    0.97980E-08        -0.48323E-12         0.00000E+00
    0.99943E-08        -0.53504E-12         0.00000E+00
    0.10196E-07        -0.58736E-12         0.00000E+00
    0.10404E-07        -0.64033E-12         0.00000E+00
    0.10617E-07        -0.69410E-12         0.00000E+00
    0.10836E-07        -0.74877E-12         0.00000E+00
    0.11060E-07        -0.80441E-12         0.00000E+00
    0.11290E-07        -0.86109E-12         0.00000E+00
    0.11524E-07        -0.91884E-12         0.00000E+00
    0.11764E-07        -0.97768E-12         0.00000E+00
    0.12009E-07        -0.10376E-11         0.00000E+00
    0.12258E-07        -0.10986E-11         0.00000E+00
    0.12512E-07        -0.11606E-11         0.00000E+00
    0.12771E-07        -0.12236E-11         0.00000E+00
    0.13033E-07        -0.12874E-11         0.00000E+00
    0.13301E-07        -0.13520E-11         0.00000E+00
    0.13572E-07        -0.14173E-11         0.00000E+00
    0.13847E-07        -0.14831E-11         0.00000E+00
    0.14125E-07        -0.15492E-11         0.00000E+00
    0.14407E-07        -0.16155E-11         0.00000E+00
    0.14692E-07        -0.16817E-11         0.00000E+00
    0.14981E-07        -0.17476E-11         0.00000E+00
    0.15271E-07        -0.18131E-11         0.00000E+00
    0.15565E-07        -0.18777E-11         0.00000E+00
    0.15860E-07        -0.19412E-11         0.00000E+00
    0.16157E-07        -0.20032E-11         0.00000E+00
    0.16456E-07        -0.20635E-11         0.00000E+00
    0.16756E-07        -0.21216E-11         0.00000E+00
    0.17057E-07        -0.21770E-11         0.00000E+00
    0.17359E-07        -0.22294E-11         0.00000E+00
    0.17661E-07        -0.22783E-11         0.00000E+00
    0.17963E-07        -0.23231E-11         0.00000E+00
    0.18264E-07        -0.23633E-11         0.00000E+00
    0.18564E-07        -0.23982E-11         0.00000E+00
    0.18863E-07        -0.24274E-11         0.00000E+00
    0.19160E-07        -0.24500E-11         0.00000E+00
    0.19455E-07        -0.24654E-11         0.00000E+00
    0.19747E-07        -0.24728E-11         0.00000E+00
    0.20037E-07        -0.24713E-11         0.00000E+00
    0.20322E-07        -0.24601E-11         0.00000E+00
    0.20604E-07        -0.24381E-11         0.00000E+00
    0.20881E-07        -0.24043E-11         0.00000E+00
    0.21153E-07        -0.23576E-11         0.00000E+00
    0.21419E-07        -0.22967E-11         0.00000E+00
    0.21679E-07        -0.22204E-11         0.00000E+00
    0.21933E-07        -0.21271E-11         0.00000E+00
    0.22179E-07        -0.20152E-11         0.00000E+00
    0.22417E-07        -0.18832E-11         0.00000E+00
    0.22648E-07        -0.17291E-11         0.00000E+00
    0.22869E-07        -0.15512E-11         0.00000E+00
    0.23081E-07        -0.13473E-11         0.00000E+00
    0.23283E-07        -0.11156E-11         0.00000E+00
    0.23475E-07        -0.85424E-12         0.00000E+00
    0.23656E-07        -0.56145E-12         0.00000E+00
    0.23825E-07        -0.23606E-12         0.00000E+00
    0.23982E-07         0.12242E-12         0.00000E+00
    0.24127E-07         0.51331E-12         0.00000E+00
    0.24258E-07         0.93423E-12         0.00000E+00
    0.24377E-07         0.13803E-11         0.00000E+00
    0.24482E-07         0.18431E-11         0.00000E+00
    0.24573E-07         0.23097E-11         0.00000E+00
    0.24651E-07         0.27605E-11         0.00000E+00
    0.24715E-07         0.31681E-11         0.00000E+00
    0.24765E-07         0.34944E-11         0.00000E+00
    0.24803E-07         0.36871E-11         0.00000E+00
    0.24828E-07         0.36752E-11         0.00000E+00
    0.24843E-07         0.33380E-11         0.00000E+00
    0.24848E-07         0.25163E-11         0.00000E+00
    0.24848E-07         0.00000E+00         0.00000E+00
    0.68478E-08         0.00000E+00         0.00000E+00
    0.68466E-08         0.19928E-11         0.00000E+00
    0.68463E-08         0.28055E-11         0.00000E+00
    0.68503E-08         0.31898E-11         0.00000E+00
    0.68596E-08         0.33163E-11         0.00000E+00
    0.68746E-08         0.32769E-11         0.00000E+00
    0.68959E-08         0.31311E-11         0.00000E+00
    0.69237E-08         0.29201E-11         0.00000E+00
    0.69583E-08         0.26731E-11         0.00000E+00
    0.69998E-08         0.24110E-11         0.00000E+00
    0.70482E-08         0.21478E-11         0.00000E+00
    0.71036E-08         0.18928E-11         0.00000E+00
    0.71660E-08         0.16515E-11         0.00000E+00
    0.72354E-08         0.14270E-11         0.00000E+00
    0.73116E-08         0.12204E-11         0.00000E+00
    0.73947E-08         0.10315E-11         0.00000E+00
    0.74846E-08         0.85963E-12         0.00000E+00
    0.75812E-08         0.70340E-12         0.00000E+00
    0.76845E-08         0.56127E-12         0.00000E+00
    0.77944E-08         0.43161E-12         0.00000E+00
    0.79108E-08         0.31280E-12         0.00000E+00
    0.80337E-08         0.20328E-12         0.00000E+00
    0.81631E-08         0.10162E-12         0.00000E+00
    0.82988E-08         0.64908E-14         0.00000E+00
    0.84409E-08        -0.83279E-13         0.00000E+00
    0.85892E-08        -0.16875E-12         0.00000E+00
    0.87437E-08        -0.25084E-12         0.00000E+00
    0.89043E-08        -0.33036E-12         0.00000E+00
    0.90711E-08        -0.40803E-12         0.00000E+00
    0.92439E-08        -0.48446E-12         0.00000E+00
    0.94227E-08        -0.56019E-12         0.00000E+00
    0.96074E-08        -0.63566E-12         0.00000E+00
    0.97980E-08        -0.71127E-12         0.00000E+00
    0.99943E-08        -0.78736E-12         0.00000E+00
    0.10196E-07        -0.86420E-12         0.00000E+00
    0.10404E-07        -0.94204E-12         0.00000E+00
    0.10617E-07        -0.10211E-11         0.00000E+00
    0.10836E-07        -0.11014E-11         0.00000E+00
    0.11060E-07        -0.11832E-11         0.00000E+00
    0.11290E-07        -0.12666E-11         0.00000E+00
    0.11524E-07        -0.13515E-11         0.00000E+00
    0.11764E-07        -0.14381E-11         0.00000E+00
    0.12009E-07        -0.15263E-11         0.00000E+00
    0.12258E-07        -0.16161E-11         0.00000E+00
    0.12512E-07        -0.17073E-11         0.00000E+00
    0.12771E-07        -0.18000E-11         0.00000E+00
    0.13033E-07        -0.18940E-11         0.00000E+00
    0.13301E-07        -0.19892E-11         0.00000E+00
    0.13572E-07        -0.20853E-11         0.00000E+00
    0.13847E-07        -0.21822E-11         0.00000E+00
    0.14125E-07        -0.22796E-11         0.00000E+00
    0.14407E-07        -0.23772E-11         0.00000E+00
    0.14692E-07        -0.24748E-11         0.00000E+00
    0.14981E-07        -0.25721E-11         0.00000E+00
    0.15271E-07        -0.26685E-11         0.00000E+00
    0.15565E-07        -0.27638E-11         0.00000E+00
    0.15860E-07        -0.28575E-11         0.00000E+00
    0.16157E-07        -0.29490E-11         0.00000E+00
    0.16456E-07        -0.30379E-11         0.00000E+00
    0.16756E-07        -0.31236E-11         0.00000E+00
    0.17057E-07        -0.32055E-11         0.00000E+00
    0.17359E-07        -0.32829E-11         0.00000E+00
    0.17661E-07        -0.33552E-11         0.00000E+00
    0.17963E-07        -0.34214E-11         0.00000E+00
    0.18264E-07        -0.34809E-11         0.00000E+00
    0.18564E-07        -0.35328E-11         0.00000E+00
    0.18863E-07        -0.35762E-11         0.00000E+00
    0.19160E-07        -0.36099E-11         0.00000E+00
    0.19455E-07        -0.36330E-11         0.00000E+00
    0.19747E-07        -0.36444E-11         0.00000E+00
    0.20037E-07        -0.36427E-11         0.00000E+00
    0.20322E-07        -0.36267E-11         0.00000E+00
    0.20604E-07        -0.35949E-11         0.00000E+00
    0.20881E-07        -0.35458E-11         0.00000E+00
    0.21153E-07        -0.34777E-11         0.00000E+00
    0.21419E-07        -0.33887E-11         0.00000E+00
    0.21679E-07        -0.32769E-11         0.00000E+00
    0.21933E-07        -0.31401E-11         0.00000E+00
    0.22179E-07        -0.29761E-11         0.00000E+00
    0.22417E-07        -0.27822E-11         0.00000E+00
    0.22648E-07        -0.25558E-11         0.00000E+00
    0.22869E-07        -0.22941E-11         0.00000E+00
    0.23081E-07        -0.19941E-11         0.00000E+00
    0.23283E-07        -0.16529E-11         0.00000E+00
    0.23475E-07        -0.12676E-11         0.00000E+00
    0.23656E-07        -0.83573E-12         0.00000E+00
    0.23825E-07        -0.35547E-12         0.00000E+00
    0.23982E-07         0.17398E-12         0.00000E+00
    0.24127E-07         0.75164E-12         0.00000E+00
    0.24259E-07         0.13740E-11         0.00000E+00
    0.24377E-07         0.20337E-11         0.00000E+00
    0.24482E-07         0.27182E-11         0.00000E+00
    0.24574E-07         0.34078E-11         0.00000E+00
    0.24651E-07         0.40732E-11         0.00000E+00
    0.24715E-07         0.46727E-11         0.00000E+00
    0.24765E-07         0.51482E-11         0.00000E+00
    0.24803E-07         0.54208E-11         0.00000E+00
    0.24828E-07         0.53785E-11         0.00000E+00
    0.24843E-07         0.48521E-11         0.00000E+00
    0.24847E-07         0.35301E-11         0.00000E+00
    0.24847E-07         0.00000E+00         0.00000E+00
    0.68482E-08         0.00000E+00         0.00000E+00
    0.68469E-08         0.24966E-11         0.00000E+00
    0.68464E-08         0.36154E-11         0.00000E+00
    0.68504E-08         0.41421E-11         0.00000E+00
    0.68596E-08         0.43234E-11         0.00000E+00
    0.68746E-08         0.42805E-11         0.00000E+00
    0.68959E-08         0.40939E-11         0.00000E+00
    0.69237E-08         0.38191E-11         0.00000E+00
    0.69583E-08         0.34958E-11         0.00000E+00
    0.69997E-08         0.31519E-11         0.00000E+00
    0.70482E-08         0.28064E-11         0.00000E+00
    0.71036E-08         0.24717E-11         0.00000E+00
    0.71660E-08         0.21551E-11         0.00000E+00
    0.72353E-08         0.18606E-11         0.00000E+00
    0.73116E-08         0.15898E-11         0.00000E+00
    0.73947E-08         0.13425E-11         0.00000E+00
    0.74846E-08         0.11177E-11         0.00000E+00
    0.75812E-08         0.91350E-12         0.00000E+00
    0.76845E-08         0.72792E-12         0.00000E+00
    0.77944E-08         0.55876E-12         0.00000E+00
    0.79108E-08         0.40386E-12         0.00000E+00
    0.80337E-08         0.26117E-12         0.00000E+00
    0.81631E-08         0.12878E-12         0.00000E+00
    0.82988E-08         0.49566E-14         0.00000E+00
    0.84408E-08        -0.11187E-12         0.00000E+00
    0.85891E-08        -0.22309E-12         0.00000E+00
    0.87436E-08        -0.32990E-12         0.00000E+00
    0.89043E-08        -0.43340E-12         0.00000E+00
    0.90711E-08        -0.53449E-12         0.00000E+00
    0.92439E-08        -0.63400E-12         0.00000E+00
    0.94227E-08        -0.73261E-12         0.00000E+00
    0.96074E-08        -0.83092E-12         0.00000E+00
    0.97979E-08        -0.92945E-12         0.00000E+00
    0.99943E-08        -0.10286E-11         0.00000E+00
    0.10196E-07        -0.11288E-11         0.00000E+00
    0.10404E-07        -0.12303E-11         0.00000E+00
    0.10617E-07        -0.13334E-11         0.00000E+00
    0.10836E-07        -0.14383E-11         0.00000E+00
    0.11060E-07        -0.15451E-11         0.00000E+00
    0.11290E-07        -0.16539E-11         0.00000E+00
    0.11524E-07        -0.17648E-11         0.00000E+00
    0.11764E-07        -0.18779E-11         0.00000E+00
    0.12008E-07        -0.19931E-11         0.00000E+00
    0.12258E-07        -0.21104E-11         0.00000E+00
    0.12512E-07        -0.22296E-11         0.00000E+00
    0.12771E-07        -0.23508E-11         0.00000E+00
    0.13033E-07        -0.24736E-11         0.00000E+00
    0.13301E-07        -0.25980E-11         0.00000E+00
    0.13572E-07        -0.27237E-11         0.00000E+00
    0.13847E-07        -0.28504E-11         0.00000E+00
    0.14125E-07        -0.29778E-11         0.00000E+00
    0.14407E-07        -0.31056E-11         0.00000E+00
    0.14692E-07        -0.32333E-11         0.00000E+00
    0.14981E-07        -0.33605E-11         0.00000E+00
    0.15271E-07        -0.34868E-11         0.00000E+00
    0.15565E-07        -0.36115E-11         0.00000E+00
    0.15860E-07        -0.37342E-11         0.00000E+00
    0.16157E-07        -0.38541E-11         0.00000E+00
    0.16456E-07        -0.39706E-11         0.00000E+00
    0.16756E-07        -0.40829E-11         0.00000E+00
    0.17057E-07        -0.41903E-11         0.00000E+00
    0.17359E-07        -0.42918E-11         0.00000E+00
    0.17661E-07        -0.43866E-11         0.00000E+00
    0.17963E-07        -0.44737E-11         0.00000E+00
    0.18264E-07        -0.45520E-11         0.00000E+00
    0.18564E-07        -0.46203E-11         0.00000E+00
    0.18863E-07        -0.46775E-11         0.00000E+00
    0.19160E-07        -0.47222E-11         0.00000E+00
    0.19455E-07        -0.47531E-11         0.00000E+00
    0.19747E-07        -0.47686E-11         0.00000E+00
    0.20037E-07        -0.47672E-11         0.00000E+00
    0.20322E-07        -0.47471E-11         0.00000E+00
    0.20604E-07        -0.47063E-11         0.00000E+00
    0.20881E-07        -0.46430E-11         0.00000E+00
    0.21153E-07        -0.45548E-11         0.00000E+00
    0.21419E-07        -0.44394E-11         0.00000E+00
    0.21679E-07        -0.42941E-11         0.00000E+00
    0.21933E-07        -0.41162E-11         0.00000E+00
    0.22179E-07        -0.39026E-11         0.00000E+00
    0.22418E-07        -0.36499E-11         0.00000E+00
    0.22648E-07        -0.33547E-11         0.00000E+00
    0.22869E-07        -0.30130E-11         0.00000E+00
    0.23081E-07        -0.26211E-11         0.00000E+00
    0.23284E-07        -0.21750E-11         0.00000E+00
    0.23475E-07        -0.16709E-11         0.00000E+00
    0.23656E-07        -0.11054E-11         0.00000E+00
    0.23825E-07        -0.47608E-12         0.00000E+00
    0.23982E-07         0.21817E-12         0.00000E+00
    0.24127E-07         0.97612E-12         0.00000E+00
    0.24259E-07         0.17931E-11         0.00000E+00
    0.24377E-07         0.26594E-11         0.00000E+00
    0.24482E-07         0.35584E-11         0.00000E+00
    0.24574E-07         0.44636E-11         0.00000E+00
    0.24651E-07         0.53357E-11         0.00000E+00
    0.24715E-07         0.61185E-11         0.00000E+00
    0.24766E-07         0.67337E-11         0.00000E+00
    0.24803E-07         0.70744E-11         0.00000E+00
    0.24828E-07         0.69888E-11         0.00000E+00
    0.24842E-07         0.62534E-11         0.00000E+00
    0.24847E-07         0.44134E-11         0.00000E+00
    0.24847E-07         0.00000E+00         0.00000E+00
    0.68488E-08         0.00000E+00         0.00000E+00
    0.68473E-08         0.29432E-11         0.00000E+00
    0.68466E-08         0.43635E-11         0.00000E+00
    0.68504E-08         0.50394E-11         0.00000E+00
    0.68596E-08         0.52801E-11         0.00000E+00
    0.68746E-08         0.52380E-11         0.00000E+00
    0.68958E-08         0.50141E-11         0.00000E+00
    0.69236E-08         0.46789E-11         0.00000E+00
    0.69582E-08         0.42824E-11         0.00000E+00
    0.69997E-08         0.38597E-11         0.00000E+00
    0.70481E-08         0.34347E-11         0.00000E+00
    0.71035E-08         0.30230E-11         0.00000E+00
    0.71659E-08         0.26337E-11         0.00000E+00
    0.72352E-08         0.22720E-11         0.00000E+00
    0.73115E-08         0.19396E-11         0.00000E+00
    0.73946E-08         0.16363E-11         0.00000E+00
    0.74845E-08         0.13608E-11         0.00000E+00
    0.75811E-08         0.11109E-11         0.00000E+00
    0.76844E-08         0.88393E-12         0.00000E+00
    0.77943E-08         0.67723E-12         0.00000E+00
    0.79108E-08         0.48810E-12         0.00000E+00
    0.80337E-08         0.31399E-12         0.00000E+00
    0.81630E-08         0.15252E-12         0.00000E+00
    0.82988E-08         0.15591E-14         0.00000E+00
    0.84408E-08        -0.14084E-12         0.00000E+00
    0.85891E-08        -0.27637E-12         0.00000E+00
    0.87436E-08        -0.40656E-12         0.00000E+00
    0.89043E-08        -0.53270E-12         0.00000E+00
    0.90710E-08        -0.65594E-12         0.00000E+00
    0.92438E-08        -0.77727E-12         0.00000E+00
    0.94226E-08        -0.89754E-12         0.00000E+00
    0.96073E-08        -0.10175E-11         0.00000E+00
    0.97979E-08        -0.11377E-11         0.00000E+00
    0.99943E-08        -0.12588E-11         0.00000E+00
    0.10196E-07        -0.13812E-11         0.00000E+00
    0.10404E-07        -0.15052E-11         0.00000E+00
    0.10617E-07        -0.16312E-11         0.00000E+00
    0.10836E-07        -0.17594E-11         0.00000E+00
    0.11060E-07        -0.18899E-11         0.00000E+00
    0.11290E-07        -0.20230E-11         0.00000E+00
    0.11524E-07        -0.21587E-11         0.00000E+00
    0.11764E-07        -0.22970E-11         0.00000E+00
    0.12008E-07        -0.24380E-11         0.00000E+00
    0.12258E-07        -0.25815E-11         0.00000E+00
    0.12512E-07        -0.27275E-11         0.00000E+00
    0.12770E-07        -0.28758E-11         0.00000E+00
    0.13033E-07        -0.30263E-11         0.00000E+00
    0.13301E-07        -0.31786E-11         0.00000E+00
    0.13572E-07        -0.33326E-11         0.00000E+00
    0.13847E-07        -0.34878E-11         0.00000E+00
    0.14125E-07        -0.36439E-11         0.00000E+00
    0.14407E-07        -0.38005E-11         0.00000E+00
    0.14692E-07        -0.39570E-11         0.00000E+00
    0.14980E-07        -0.41130E-11         0.00000E+00
    0.15271E-07        -0.42678E-11         0.00000E+00
    0.15565E-07        -0.44208E-11         0.00000E+00
    0.15860E-07        -0.45712E-11         0.00000E+00
    0.16157E-07        -0.47184E-11         0.00000E+00
    0.16456E-07        -0.48614E-11         0.00000E+00
    0.16756E-07        -0.49993E-11         0.00000E+00
    0.17057E-07        -0.51312E-11         0.00000E+00
    0.17359E-07        -0.52560E-11         0.00000E+00
    0.17661E-07        -0.53727E-11         0.00000E+00
    0.17963E-07        -0.54798E-11         0.00000E+00
    0.18264E-07        -0.55763E-11         0.00000E+00
    0.18564E-07        -0.56606E-11         0.00000E+00
    0.18863E-07        -0.57313E-11         0.00000E+00
    0.19160E-07        -0.57869E-11         0.00000E+00
    0.19455E-07        -0.58255E-11         0.00000E+00
    0.19747E-07        -0.58454E-11         0.00000E+00
    0.20037E-07        -0.58446E-11         0.00000E+00
    0.20322E-07        -0.58209E-11         0.00000E+00
    0.20604E-07        -0.57720E-11         0.00000E+00
    0.20881E-07        -0.56955E-11         0.00000E+00
    0.21153E-07        -0.55887E-11         0.00000E+00
    0.21419E-07        -0.54485E-11         0.00000E+00
    0.21679E-07        -0.52718E-11         0.00000E+00
    0.21933E-07        -0.50552E-11         0.00000E+00
    0.22179E-07        -0.47947E-11         0.00000E+00
    0.22418E-07        -0.44863E-11         0.00000E+00
    0.22648E-07        -0.41255E-11         0.00000E+00
    0.22869E-07        -0.37078E-11         0.00000E+00
    0.23081E-07        -0.32282E-11         0.00000E+00
    0.23284E-07        -0.26819E-11         0.00000E+00
    0.23475E-07        -0.20641E-11         0.00000E+00
    0.23656E-07        -0.13705E-11         0.00000E+00
    0.23825E-07        -0.59804E-12         0.00000E+00
    0.23982E-07         0.25474E-12         0.00000E+00
    0.24127E-07         0.11864E-11         0.00000E+00
    0.24259E-07         0.21911E-11         0.00000E+00
    0.24377E-07         0.32570E-11         0.00000E+00
    0.24483E-07         0.43630E-11         0.00000E+00
    0.24574E-07         0.54762E-11         0.00000E+00
    0.24651E-07         0.65470E-11         0.00000E+00
    0.24715E-07         0.75048E-11         0.00000E+00
    0.24766E-07         0.82507E-11         0.00000E+00
    0.24803E-07         0.86490E-11         0.00000E+00
    0.24828E-07         0.85089E-11         0.00000E+00
    0.24842E-07         0.75479E-11         0.00000E+00
    0.24846E-07         0.51940E-11         0.00000E+00
    0.24846E-07         0.00000E+00         0.00000E+00
    0.68494E-08         0.00000E+00         0.00000E+00
    0.68478E-08         0.33433E-11         0.00000E+00
    0.68468E-08         0.50544E-11         0.00000E+00
    0.68506E-08         0.58835E-11         0.00000E+00
    0.68596E-08         0.61872E-11         0.00000E+00
    0.68745E-08         0.61494E-11         0.00000E+00
    0.68958E-08         0.58916E-11         0.00000E+00
    0.69235E-08         0.54991E-11         0.00000E+00
    0.69581E-08         0.50323E-11         0.00000E+00
    0.69996E-08         0.45338E-11         0.00000E+00
    0.70480E-08         0.40323E-11         0.00000E+00
    0.71034E-08         0.35465E-11         0.00000E+00
    0.71658E-08         0.30874E-11         0.00000E+00
    0.72352E-08         0.26611E-11         0.00000E+00
    0.73114E-08         0.22696E-11         0.00000E+00
    0.73945E-08         0.19129E-11         0.00000E+00
    0.74844E-08         0.15891E-11         0.00000E+00
    0.75811E-08         0.12956E-11         0.00000E+00
    0.76844E-08         0.10294E-11         0.00000E+00
    0.77943E-08         0.78708E-12         0.00000E+00
    0.79107E-08         0.56557E-12         0.00000E+00
    0.80337E-08         0.36178E-12         0.00000E+00
    0.81630E-08         0.17289E-12         0.00000E+00
    0.82987E-08        -0.36496E-14         0.00000E+00
    0.84408E-08        -0.17013E-12         0.00000E+00
    0.85891E-08        -0.32857E-12         0.00000E+00
    0.87436E-08        -0.48075E-12         0.00000E+00
    0.89043E-08        -0.62823E-12         0.00000E+00
    0.90710E-08        -0.77234E-12         0.00000E+00
    0.92438E-08        -0.91426E-12         0.00000E+00
    0.94226E-08        -0.10550E-11         0.00000E+00
    0.96073E-08        -0.11954E-11         0.00000E+00
    0.97979E-08        -0.13362E-11         0.00000E+00
    0.99942E-08        -0.14780E-11         0.00000E+00
    0.10196E-07        -0.16213E-11         0.00000E+00
    0.10404E-07        -0.17667E-11         0.00000E+00
    0.10617E-07        -0.19143E-11         0.00000E+00
    0.10836E-07        -0.20646E-11         0.00000E+00
    0.11060E-07        -0.22178E-11         0.00000E+00
    0.11290E-07        -0.23739E-11         0.00000E+00
    0.11524E-07        -0.25331E-11         0.00000E+00
    0.11764E-07        -0.26955E-11         0.00000E+00
    0.12008E-07        -0.28610E-11         0.00000E+00
    0.12258E-07        -0.30295E-11         0.00000E+00
    0.12512E-07        -0.32010E-11         0.00000E+00
    0.12770E-07        -0.33752E-11         0.00000E+00
    0.13033E-07        -0.35519E-11         0.00000E+00
    0.13300E-07        -0.37309E-11         0.00000E+00
    0.13572E-07        -0.39118E-11         0.00000E+00
    0.13847E-07        -0.40943E-11         0.00000E+00
    0.14125E-07        -0.42778E-11         0.00000E+00
    0.14407E-07        -0.44619E-11         0.00000E+00
    0.14692E-07        -0.46460E-11         0.00000E+00
    0.14980E-07        -0.48294E-11         0.00000E+00
    0.15271E-07        -0.50115E-11         0.00000E+00
    0.15565E-07        -0.51915E-11         0.00000E+00
    0.15860E-07        -0.53686E-11         0.00000E+00
    0.16157E-07        -0.55419E-11         0.00000E+00
    0.16456E-07        -0.57103E-11         0.00000E+00
    0.16756E-07        -0.58728E-11         0.00000E+00
    0.17057E-07        -0.60283E-11         0.00000E+00
    0.17359E-07        -0.61755E-11         0.00000E+00
    0.17661E-07        -0.63131E-11         0.00000E+00
    0.17963E-07        -0.64396E-11         0.00000E+00
    0.18264E-07        -0.65537E-11         0.00000E+00
    0.18564E-07        -0.66535E-11         0.00000E+00
    0.18863E-07        -0.67375E-11         0.00000E+00
    0.19160E-07        -0.68036E-11         0.00000E+00
    0.19455E-07        -0.68500E-11         0.00000E+00
    0.19747E-07        -0.68744E-11         0.00000E+00
    0.20037E-07        -0.68746E-11         0.00000E+00
    0.20322E-07        -0.68479E-11         0.00000E+00
    0.20604E-07        -0.67918E-11         0.00000E+00
    0.20881E-07        -0.67033E-11         0.00000E+00
    0.21153E-07        -0.65791E-11         0.00000E+00
    0.21419E-07        -0.64159E-11         0.00000E+00
    0.21679E-07        -0.62097E-11         0.00000E+00
    0.21933E-07        -0.59566E-11         0.00000E+00
    0.22179E-07        -0.56519E-11         0.00000E+00
    0.22418E-07        -0.52908E-11         0.00000E+00
    0.22648E-07        -0.48681E-11         0.00000E+00
    0.22869E-07        -0.43782E-11         0.00000E+00
    0.23082E-07        -0.38153E-11         0.00000E+00
    0.23284E-07        -0.31735E-11         0.00000E+00
    0.23475E-07        -0.24471E-11         0.00000E+00
    0.23656E-07        -0.16311E-11         0.00000E+00
    0.23825E-07        -0.72145E-12         0.00000E+00
    0.23983E-07         0.28346E-12         0.00000E+00
    0.24127E-07         0.13820E-11         0.00000E+00
    0.24259E-07         0.25675E-11         0.00000E+00
    0.24378E-07         0.38255E-11         0.00000E+00
    0.24483E-07         0.51311E-11         0.00000E+00
    0.24574E-07         0.64446E-11         0.00000E+00
    0.24652E-07         0.77064E-11         0.00000E+00
    0.24715E-07         0.88311E-11         0.00000E+00
    0.24766E-07         0.96990E-11         0.00000E+00
    0.24803E-07         0.10146E-10         0.00000E+00
    0.24828E-07         0.99413E-11         0.00000E+00
    0.24842E-07         0.87435E-11         0.00000E+00
    0.24845E-07         0.58920E-11         0.00000E+00
    0.24845E-07         0.00000E+00         0.00000E+00
    0.68501E-08         0.00000E+00         0.00000E+00
    0.68483E-08         0.37049E-11         0.00000E+00
    0.68471E-08         0.56927E-11         0.00000E+00
    0.68507E-08         0.66762E-11         0.00000E+00
    0.68596E-08         0.70454E-11         0.00000E+00
    0.68745E-08         0.70149E-11         0.00000E+00
    0.68957E-08         0.67262E-11         0.00000E+00
    0.69235E-08         0.62794E-11         0.00000E+00
    0.69580E-08         0.57454E-11         0.00000E+00
    0.69995E-08         0.51740E-11         0.00000E+00
    0.70479E-08         0.45990E-11         0.00000E+00
    0.71033E-08         0.40420E-11         0.00000E+00
    0.71657E-08         0.35160E-11         0.00000E+00
    0.72351E-08         0.30278E-11         0.00000E+00
    0.73113E-08         0.25799E-11         0.00000E+00
    0.73945E-08         0.21722E-11         0.00000E+00
    0.74844E-08         0.18025E-11         0.00000E+00
    0.75810E-08         0.14677E-11         0.00000E+00
    0.76843E-08         0.11642E-11         0.00000E+00
    0.77942E-08         0.88837E-12         0.00000E+00
    0.79107E-08         0.63633E-12         0.00000E+00
    0.80336E-08         0.40461E-12         0.00000E+00
    0.81630E-08         0.18994E-12         0.00000E+00
    0.82987E-08        -0.10611E-13         0.00000E+00
    0.84407E-08        -0.19969E-12         0.00000E+00
    0.85890E-08        -0.37962E-12         0.00000E+00
    0.87436E-08        -0.55245E-12         0.00000E+00
    0.89042E-08        -0.71995E-12         0.00000E+00
    0.90710E-08        -0.88368E-12         0.00000E+00
    0.92438E-08        -0.10449E-11         0.00000E+00
    0.94226E-08        -0.12049E-11         0.00000E+00
    0.96073E-08        -0.13645E-11         0.00000E+00
    0.97979E-08        -0.15247E-11         0.00000E+00
    0.99942E-08        -0.16861E-11         0.00000E+00
    0.10196E-07        -0.18492E-11         0.00000E+00
    0.10404E-07        -0.20147E-11         0.00000E+00
    0.10617E-07        -0.21829E-11         0.00000E+00
    0.10836E-07        -0.23542E-11         0.00000E+00
    0.11060E-07        -0.25287E-11         0.00000E+00
    0.11290E-07        -0.27067E-11         0.00000E+00
    0.11524E-07        -0.28882E-11         0.00000E+00
    0.11764E-07        -0.30734E-11         0.00000E+00
    0.12008E-07        -0.32621E-11         0.00000E+00
    0.12258E-07        -0.34544E-11         0.00000E+00
    0.12512E-07        -0.36500E-11         0.00000E+00
    0.12770E-07        -0.38489E-11         0.00000E+00
    0.13033E-07        -0.40506E-11         0.00000E+00
    0.13300E-07        -0.42550E-11         0.00000E+00
    0.13572E-07        -0.44615E-11         0.00000E+00
    0.13847E-07        -0.46699E-11         0.00000E+00
    0.14125E-07        -0.48795E-11         0.00000E+00
    0.14407E-07        -0.50898E-11         0.00000E+00
    0.14692E-07        -0.53001E-11         0.00000E+00
    0.14980E-07        -0.55098E-11         0.00000E+00
    0.15271E-07        -0.57180E-11         0.00000E+00
    0.15564E-07        -0.59238E-11         0.00000E+00
    0.15860E-07        -0.61263E-11         0.00000E+00
    0.16157E-07        -0.63245E-11         0.00000E+00
    0.16456E-07        -0.65172E-11         0.00000E+00
    0.16756E-07        -0.67032E-11         0.00000E+00
    0.17057E-07        -0.68813E-11         0.00000E+00
    0.17359E-07        -0.70500E-11         0.00000E+00
    0.17661E-07        -0.72077E-11         0.00000E+00
    0.17962E-07        -0.73530E-11         0.00000E+00
    0.18264E-07        -0.74840E-11         0.00000E+00
    0.18564E-07        -0.75989E-11         0.00000E+00
    0.18863E-07        -0.76958E-11         0.00000E+00
    0.19160E-07        -0.77724E-11         0.00000E+00
    0.19455E-07        -0.78264E-11         0.00000E+00
    0.19747E-07        -0.78556E-11         0.00000E+00
    0.20037E-07        -0.78570E-11         0.00000E+00
    0.20322E-07        -0.78281E-11         0.00000E+00
    0.20604E-07        -0.77655E-11         0.00000E+00
    0.20881E-07        -0.76660E-11         0.00000E+00
    0.21153E-07        -0.75259E-11         0.00000E+00
    0.21419E-07        -0.73412E-11         0.00000E+00
    0.21679E-07        -0.71075E-11         0.00000E+00
    0.21933E-07        -0.68202E-11         0.00000E+00
    0.22179E-07        -0.64740E-11         0.00000E+00
    0.22418E-07        -0.60634E-11         0.00000E+00
    0.22648E-07        -0.55822E-11         0.00000E+00
    0.22870E-07        -0.50240E-11         0.00000E+00
    0.23082E-07        -0.43821E-11         0.00000E+00
    0.23284E-07        -0.36496E-11         0.00000E+00
    0.23476E-07        -0.28199E-11         0.00000E+00
    0.23656E-07        -0.18870E-11         0.00000E+00
    0.23826E-07        -0.84638E-12         0.00000E+00
    0.23983E-07         0.30413E-12         0.00000E+00
    0.24128E-07         0.15628E-11         0.00000E+00
    0.24259E-07         0.29217E-11         0.00000E+00
    0.24378E-07         0.43645E-11         0.00000E+00
    0.24483E-07         0.58621E-11         0.00000E+00
    0.24574E-07         0.73681E-11         0.00000E+00
    0.24652E-07         0.88132E-11         0.00000E+00
    0.24716E-07         0.10097E-10         0.00000E+00
    0.24766E-07         0.11079E-10         0.00000E+00
    0.24803E-07         0.11566E-10         0.00000E+00
    0.24828E-07         0.11289E-10         0.00000E+00
    0.24841E-07         0.98491E-11         0.00000E+00
    0.24844E-07         0.65225E-11         0.00000E+00
    0.24843E-07         0.00000E+00         0.00000E+00
    0.68509E-08         0.00000E+00         0.00000E+00
    0.68489E-08         0.40340E-11         0.00000E+00
    0.68474E-08         0.62830E-11         0.00000E+00
    0.68508E-08         0.74193E-11         0.00000E+00
    0.68597E-08         0.78559E-11         0.00000E+00
    0.68745E-08         0.78349E-11         0.00000E+00
    0.68956E-08         0.75179E-11         0.00000E+00
    0.69234E-08         0.70196E-11         0.00000E+00
    0.69579E-08         0.64213E-11         0.00000E+00
    0.69993E-08         0.57801E-11         0.00000E+00
    0.70478E-08         0.51345E-11         0.00000E+00
    0.71032E-08         0.45093E-11         0.00000E+00
    0.71656E-08         0.39192E-11         0.00000E+00
    0.72350E-08         0.33720E-11         0.00000E+00
    0.73113E-08         0.28704E-11         0.00000E+00
    0.73944E-08         0.24142E-11         0.00000E+00
    0.74843E-08         0.20010E-11         0.00000E+00
    0.75810E-08         0.16272E-11         0.00000E+00
    0.76843E-08         0.12886E-11         0.00000E+00
    0.77942E-08         0.98115E-12         0.00000E+00
    0.79106E-08         0.70045E-12         0.00000E+00
    0.80336E-08         0.44255E-12         0.00000E+00
    0.81629E-08         0.20375E-12         0.00000E+00
    0.82987E-08        -0.19258E-13         0.00000E+00
    0.84407E-08        -0.22946E-12         0.00000E+00
    0.85890E-08        -0.42948E-12         0.00000E+00
    0.87435E-08        -0.62161E-12         0.00000E+00
    0.89042E-08        -0.80784E-12         0.00000E+00
    0.90710E-08        -0.98991E-12         0.00000E+00
    0.92438E-08        -0.11693E-11         0.00000E+00
    0.94225E-08        -0.13473E-11         0.00000E+00
    0.96073E-08        -0.15250E-11         0.00000E+00
    0.97978E-08        -0.17033E-11         0.00000E+00
    0.99942E-08        -0.18831E-11         0.00000E+00
    0.10196E-07        -0.20649E-11         0.00000E+00
    0.10404E-07        -0.22494E-11         0.00000E+00
    0.10617E-07        -0.24369E-11         0.00000E+00
    0.10836E-07        -0.26279E-11         0.00000E+00
    0.11060E-07        -0.28226E-11         0.00000E+00
    0.11290E-07        -0.30212E-11         0.00000E+00
    0.11524E-07        -0.32239E-11         0.00000E+00
    0.11764E-07        -0.34306E-11         0.00000E+00
    0.12008E-07        -0.36414E-11         0.00000E+00
    0.12258E-07        -0.38561E-11         0.00000E+00
    0.12512E-07        -0.40747E-11         0.00000E+00
    0.12770E-07        -0.42968E-11         0.00000E+00
    0.13033E-07        -0.45223E-11         0.00000E+00
    0.13300E-07        -0.47507E-11         0.00000E+00
    0.13572E-07        -0.49816E-11         0.00000E+00
    0.13847E-07        -0.52145E-11         0.00000E+00
    0.14125E-07        -0.54489E-11         0.00000E+00
    0.14407E-07        -0.56842E-11         0.00000E+00
    0.14692E-07        -0.59195E-11         0.00000E+00
    0.14980E-07        -0.61540E-11         0.00000E+00
    0.15271E-07        -0.63870E-11         0.00000E+00
    0.15564E-07        -0.66174E-11         0.00000E+00
    0.15860E-07        -0.68442E-11         0.00000E+00
    0.16157E-07        -0.70661E-11         0.00000E+00
    0.16456E-07        -0.72820E-11         0.00000E+00
    0.16756E-07        -0.74906E-11         0.00000E+00
    0.17057E-07        -0.76902E-11         0.00000E+00
    0.17359E-07        -0.78795E-11         0.00000E+00
    0.17661E-07        -0.80566E-11         0.00000E+00
    0.17962E-07        -0.82198E-11         0.00000E+00
    0.18264E-07        -0.83672E-11         0.00000E+00
    0.18564E-07        -0.84967E-11         0.00000E+00
    0.18863E-07        -0.86060E-11         0.00000E+00
    0.19160E-07        -0.86928E-11         0.00000E+00
    0.19455E-07        -0.87546E-11         0.00000E+00
    0.19747E-07        -0.87885E-11         0.00000E+00
    0.20037E-07        -0.87917E-11         0.00000E+00
    0.20322E-07        -0.87609E-11         0.00000E+00
    0.20604E-07        -0.86927E-11         0.00000E+00
    0.20881E-07        -0.85833E-11         0.00000E+00
    0.21153E-07        -0.84286E-11         0.00000E+00
    0.21419E-07        -0.82241E-11         0.00000E+00
    0.21679E-07        -0.79649E-11         0.00000E+00
    0.21933E-07        -0.76458E-11         0.00000E+00
    0.22179E-07        -0.72608E-11         0.00000E+00
    0.22418E-07        -0.68036E-11         0.00000E+00
    0.22648E-07        -0.62674E-11         0.00000E+00
    0.22870E-07        -0.56448E-11         0.00000E+00
    0.23082E-07        -0.49283E-11         0.00000E+00
    0.23284E-07        -0.41099E-11         0.00000E+00
    0.23476E-07        -0.31822E-11         0.00000E+00
    0.23657E-07        -0.21383E-11         0.00000E+00
    0.23826E-07        -0.97289E-12         0.00000E+00
    0.23983E-07         0.31660E-12         0.00000E+00
    0.24128E-07         0.17283E-11         0.00000E+00
    0.24260E-07         0.32534E-11         0.00000E+00
    0.24378E-07         0.48733E-11         0.00000E+00
    0.24483E-07         0.65551E-11         0.00000E+00
    0.24575E-07         0.82460E-11         0.00000E+00
    0.24652E-07         0.98665E-11         0.00000E+00
    0.24716E-07         0.11302E-10         0.00000E+00
    0.24766E-07         0.12390E-10         0.00000E+00
    0.24803E-07         0.12911E-10         0.00000E+00
    0.24828E-07         0.12556E-10         0.00000E+00
    0.24841E-07         0.10873E-10         0.00000E+00
    0.24843E-07         0.70968E-11         0.00000E+00
    0.24842E-07         0.00000E+00         0.00000E+00
    0.68517E-08         0.00000E+00         0.00000E+00
    0.68496E-08         0.43353E-11         0.00000E+00
    0.68478E-08         0.68295E-11         0.00000E+00
    0.68510E-08         0.81149E-11         0.00000E+00
    0.68597E-08         0.86194E-11         0.00000E+00
    0.68745E-08         0.86096E-11         0.00000E+00
    0.68955E-08         0.82667E-11         0.00000E+00
    0.69232E-08         0.77194E-11         0.00000E+00
    0.69578E-08         0.70597E-11         0.00000E+00
    0.69992E-08         0.63517E-11         0.00000E+00
    0.70476E-08         0.56386E-11         0.00000E+00
    0.71031E-08         0.49482E-11         0.00000E+00
    0.71655E-08         0.42970E-11         0.00000E+00
    0.72349E-08         0.36936E-11         0.00000E+00
    0.73112E-08         0.31411E-11         0.00000E+00
    0.73943E-08         0.26390E-11         0.00000E+00
    0.74842E-08         0.21847E-11         0.00000E+00
    0.75809E-08         0.17741E-11         0.00000E+00
    0.76842E-08         0.14026E-11         0.00000E+00
    0.77941E-08         0.10655E-11         0.00000E+00
    0.79106E-08         0.75802E-12         0.00000E+00
    0.80335E-08         0.47568E-12         0.00000E+00
    0.81629E-08         0.21440E-12         0.00000E+00
    0.82986E-08        -0.29520E-13         0.00000E+00
    0.84407E-08        -0.25938E-12         0.00000E+00
    0.85890E-08        -0.47808E-12         0.00000E+00
    0.87435E-08        -0.68817E-12         0.00000E+00
    0.89042E-08        -0.89184E-12         0.00000E+00
    0.90709E-08        -0.10910E-11         0.00000E+00
    0.92437E-08        -0.12873E-11         0.00000E+00
    0.94225E-08        -0.14821E-11         0.00000E+00
    0.96072E-08        -0.16767E-11         0.00000E+00
    0.97978E-08        -0.18720E-11         0.00000E+00
    0.99941E-08        -0.20690E-11         0.00000E+00
    0.10196E-07        -0.22683E-11         0.00000E+00
    0.10404E-07        -0.24706E-11         0.00000E+00
    0.10617E-07        -0.26764E-11         0.00000E+00
    0.10836E-07        -0.28859E-11         0.00000E+00
    0.11060E-07        -0.30996E-11         0.00000E+00
    0.11290E-07        -0.33177E-11         0.00000E+00
    0.11524E-07        -0.35402E-11         0.00000E+00
    0.11764E-07        -0.37672E-11         0.00000E+00
    0.12008E-07        -0.39988E-11         0.00000E+00
    0.12258E-07        -0.42347E-11         0.00000E+00
    0.12512E-07        -0.44749E-11         0.00000E+00
    0.12770E-07        -0.47191E-11         0.00000E+00
    0.13033E-07        -0.49670E-11         0.00000E+00
    0.13300E-07        -0.52181E-11         0.00000E+00
    0.13571E-07        -0.54721E-11         0.00000E+00
    0.13846E-07        -0.57283E-11         0.00000E+00
    0.14125E-07        -0.59862E-11         0.00000E+00
    0.14407E-07        -0.62450E-11         0.00000E+00
    0.14692E-07        -0.65039E-11         0.00000E+00
    0.14980E-07        -0.67622E-11         0.00000E+00
    0.15271E-07        -0.70187E-11         0.00000E+00
    0.15564E-07        -0.72724E-11         0.00000E+00
    0.15860E-07        -0.75222E-11         0.00000E+00
    0.16157E-07        -0.77668E-11         0.00000E+00
    0.16456E-07        -0.80048E-11         0.00000E+00
    0.16756E-07        -0.82347E-11         0.00000E+00
    0.17057E-07        -0.84549E-11         0.00000E+00
    0.17359E-07        -0.86638E-11         0.00000E+00
    0.17661E-07        -0.88595E-11         0.00000E+00
    0.17962E-07        -0.90399E-11         0.00000E+00
    0.18264E-07        -0.92030E-11         0.00000E+00
    0.18564E-07        -0.93466E-11         0.00000E+00
    0.18863E-07        -0.94680E-11         0.00000E+00
    0.19160E-07        -0.95649E-11         0.00000E+00
    0.19455E-07        -0.96343E-11         0.00000E+00
    0.19747E-07        -0.96732E-11         0.00000E+00
    0.20037E-07        -0.96784E-11         0.00000E+00
    0.20322E-07        -0.96463E-11         0.00000E+00
    0.20604E-07        -0.95732E-11         0.00000E+00
    0.20881E-07        -0.94549E-11         0.00000E+00
    0.21153E-07        -0.92869E-11         0.00000E+00
    0.21419E-07        -0.90643E-11         0.00000E+00
    0.21679E-07        -0.87815E-11         0.00000E+00
    0.21933E-07        -0.84329E-11         0.00000E+00
    0.22179E-07        -0.80117E-11         0.00000E+00
    0.22418E-07        -0.75111E-11         0.00000E+00
    0.22648E-07        -0.69234E-11         0.00000E+00
    0.22870E-07        -0.62404E-11         0.00000E+00
    0.23082E-07        -0.54536E-11         0.00000E+00
    0.23284E-07        -0.45543E-11         0.00000E+00
    0.23476E-07        -0.35340E-11         0.00000E+00
    0.23657E-07        -0.23849E-11         0.00000E+00
    0.23826E-07        -0.11010E-11         0.00000E+00
    0.23983E-07         0.32073E-12         0.00000E+00
    0.24128E-07         0.18783E-11         0.00000E+00
    0.24260E-07         0.35621E-11         0.00000E+00
    0.24379E-07         0.53515E-11         0.00000E+00
    0.24484E-07         0.72097E-11         0.00000E+00
    0.24575E-07         0.90776E-11         0.00000E+00
    0.24653E-07         0.10866E-10         0.00000E+00
    0.24716E-07         0.12445E-10         0.00000E+00
    0.24766E-07         0.13634E-10         0.00000E+00
    0.24803E-07         0.14182E-10         0.00000E+00
    0.24827E-07         0.13745E-10         0.00000E+00
    0.24840E-07         0.11823E-10         0.00000E+00
    0.24842E-07         0.76237E-11         0.00000E+00
    0.24841E-07         0.18626E-20         0.00000E+00
    0.68526E-08         0.00000E+00         0.00000E+00
    0.68503E-08         0.46124E-11         0.00000E+00
    0.68482E-08         0.73358E-11         0.00000E+00
    0.68512E-08         0.87652E-11         0.00000E+00
    0.68598E-08         0.93369E-11         0.00000E+00
    0.68744E-08         0.93395E-11         0.00000E+00
    0.68954E-08         0.89725E-11         0.00000E+00
    0.69231E-08         0.83788E-11         0.00000E+00
    0.69576E-08         0.76604E-11         0.00000E+00
    0.69991E-08         0.68885E-11         0.00000E+00
    0.70475E-08         0.61110E-11         0.00000E+00
    0.71029E-08         0.53585E-11         0.00000E+00
    0.71654E-08         0.46493E-11         0.00000E+00
    0.72348E-08         0.39926E-11         0.00000E+00
    0.73110E-08         0.33919E-11         0.00000E+00
    0.73942E-08         0.28465E-11         0.00000E+00
    0.74841E-08         0.23536E-11         0.00000E+00
    0.75808E-08         0.19085E-11         0.00000E+00
    0.76841E-08         0.15063E-11         0.00000E+00
    0.77940E-08         0.11416E-11         0.00000E+00
    0.79105E-08         0.80913E-12         0.00000E+00
    0.80335E-08         0.50410E-12         0.00000E+00
    0.81628E-08         0.22197E-12         0.00000E+00
    0.82986E-08        -0.41314E-13         0.00000E+00
    0.84406E-08        -0.28937E-12         0.00000E+00
    0.85889E-08        -0.52537E-12         0.00000E+00
    0.87434E-08        -0.75208E-12         0.00000E+00
    0.89041E-08        -0.97190E-12         0.00000E+00
    0.90709E-08        -0.11869E-11         0.00000E+00
    0.92437E-08        -0.13989E-11         0.00000E+00
    0.94225E-08        -0.16094E-11         0.00000E+00
    0.96072E-08        -0.18197E-11         0.00000E+00
    0.97977E-08        -0.20308E-11         0.00000E+00
    0.99941E-08        -0.22439E-11         0.00000E+00
    0.10196E-07        -0.24595E-11         0.00000E+00
    0.10404E-07        -0.26785E-11         0.00000E+00
    0.10617E-07        -0.29012E-11         0.00000E+00
    0.10836E-07        -0.31282E-11         0.00000E+00
    0.11060E-07        -0.33597E-11         0.00000E+00
    0.11289E-07        -0.35959E-11         0.00000E+00
    0.11524E-07        -0.38371E-11         0.00000E+00
    0.11764E-07        -0.40832E-11         0.00000E+00
    0.12008E-07        -0.43343E-11         0.00000E+00
    0.12258E-07        -0.45902E-11         0.00000E+00
    0.12512E-07        -0.48508E-11         0.00000E+00
    0.12770E-07        -0.51157E-11         0.00000E+00
    0.13033E-07        -0.53846E-11         0.00000E+00
    0.13300E-07        -0.56572E-11         0.00000E+00
    0.13571E-07        -0.59329E-11         0.00000E+00
    0.13846E-07        -0.62111E-11         0.00000E+00
    0.14125E-07        -0.64911E-11         0.00000E+00
    0.14407E-07        -0.67722E-11         0.00000E+00
    0.14692E-07        -0.70535E-11         0.00000E+00
    0.14980E-07        -0.73341E-11         0.00000E+00
    0.15271E-07        -0.76129E-11         0.00000E+00
    0.15564E-07        -0.78887E-11         0.00000E+00
    0.15860E-07        -0.81603E-11         0.00000E+00
    0.16157E-07        -0.84263E-11         0.00000E+00
    0.16456E-07        -0.86852E-11         0.00000E+00
    0.16756E-07        -0.89355E-11         0.00000E+00
    0.17057E-07        -0.91754E-11         0.00000E+00
    0.17359E-07        -0.94030E-11         0.00000E+00
    0.17661E-07        -0.96163E-11         0.00000E+00
    0.17962E-07        -0.98132E-11         0.00000E+00
    0.18264E-07        -0.99914E-11         0.00000E+00
    0.18564E-07        -0.10148E-10         0.00000E+00
    0.18863E-07        -0.10282E-10         0.00000E+00
    0.19160E-07        -0.10388E-10         0.00000E+00
    0.19455E-07        -0.10465E-10         0.00000E+00
    0.19747E-07        -0.10509E-10         0.00000E+00
    0.20037E-07        -0.10517E-10         0.00000E+00
    0.20322E-07        -0.10484E-10         0.00000E+00
    0.20604E-07        -0.10407E-10         0.00000E+00
    0.20881E-07        -0.10281E-10         0.00000E+00
    0.21153E-07        -0.10101E-10         0.00000E+00
    0.21419E-07        -0.98614E-11         0.00000E+00
    0.21679E-07        -0.95571E-11         0.00000E+00
    0.21933E-07        -0.91811E-11         0.00000E+00
    0.22179E-07        -0.87265E-11         0.00000E+00
    0.22418E-07        -0.81856E-11         0.00000E+00
    0.22648E-07        -0.75498E-11         0.00000E+00
    0.22870E-07        -0.68104E-11         0.00000E+00
    0.23082E-07        -0.59578E-11         0.00000E+00
    0.23284E-07        -0.49825E-11         0.00000E+00
    0.23476E-07        -0.38750E-11         0.00000E+00
    0.23657E-07        -0.26266E-11         0.00000E+00
    0.23826E-07        -0.12306E-11         0.00000E+00
    0.23984E-07         0.31643E-12         0.00000E+00
    0.24128E-07         0.20125E-11         0.00000E+00
    0.24260E-07         0.38474E-11         0.00000E+00
    0.24379E-07         0.57984E-11         0.00000E+00
    0.24484E-07         0.78250E-11         0.00000E+00
    0.24575E-07         0.98621E-11         0.00000E+00
    0.24653E-07         0.11811E-10         0.00000E+00
    0.24716E-07         0.13527E-10         0.00000E+00
    0.24766E-07         0.14810E-10         0.00000E+00
    0.24803E-07         0.15381E-10         0.00000E+00
    0.24827E-07         0.14860E-10         0.00000E+00
    0.24840E-07         0.12705E-10         0.00000E+00
    0.24841E-07         0.81099E-11         0.00000E+00
    0.24839E-07         0.14618E-20         0.00000E+00
    0.68536E-08         0.00000E+00         0.00000E+00
    0.68511E-08         0.48683E-11         0.00000E+00
    0.68486E-08         0.78052E-11         0.00000E+00
    0.68514E-08         0.93721E-11         0.00000E+00
    0.68598E-08         0.10009E-10         0.00000E+00
    0.68744E-08         0.10025E-10         0.00000E+00
    0.68953E-08         0.96353E-11         0.00000E+00
    0.69230E-08         0.89975E-11         0.00000E+00
    0.69575E-08         0.82232E-11         0.00000E+00
    0.69989E-08         0.73904E-11         0.00000E+00
    0.70473E-08         0.65516E-11         0.00000E+00
    0.71028E-08         0.57401E-11         0.00000E+00
    0.71652E-08         0.49759E-11         0.00000E+00
    0.72346E-08         0.42689E-11         0.00000E+00
    0.73109E-08         0.36228E-11         0.00000E+00
    0.73941E-08         0.30369E-11         0.00000E+00
    0.74840E-08         0.25077E-11         0.00000E+00
    0.75807E-08         0.20306E-11         0.00000E+00
    0.76840E-08         0.15997E-11         0.00000E+00
    0.77940E-08         0.12094E-11         0.00000E+00
    0.79104E-08         0.85387E-12         0.00000E+00
    0.80334E-08         0.52790E-12         0.00000E+00
    0.81628E-08         0.22656E-12         0.00000E+00
    0.82985E-08        -0.54555E-13         0.00000E+00
    0.84406E-08        -0.31935E-12         0.00000E+00
    0.85889E-08        -0.57126E-12         0.00000E+00
    0.87434E-08        -0.81327E-12         0.00000E+00
    0.89041E-08        -0.10480E-11         0.00000E+00
    0.90708E-08        -0.12776E-11         0.00000E+00
    0.92436E-08        -0.15041E-11         0.00000E+00
    0.94224E-08        -0.17290E-11         0.00000E+00
    0.96071E-08        -0.19538E-11         0.00000E+00
    0.97977E-08        -0.21797E-11         0.00000E+00
    0.99941E-08        -0.24076E-11         0.00000E+00
    0.10196E-07        -0.26385E-11         0.00000E+00
    0.10404E-07        -0.28729E-11         0.00000E+00
    0.10617E-07        -0.31115E-11         0.00000E+00
    0.10836E-07        -0.33546E-11         0.00000E+00
    0.11060E-07        -0.36027E-11         0.00000E+00
    0.11289E-07        -0.38560E-11         0.00000E+00
    0.11524E-07        -0.41147E-11         0.00000E+00
    0.11764E-07        -0.43786E-11         0.00000E+00
    0.12008E-07        -0.46480E-11         0.00000E+00
    0.12258E-07        -0.49226E-11         0.00000E+00
    0.12512E-07        -0.52022E-11         0.00000E+00
    0.12770E-07        -0.54866E-11         0.00000E+00
    0.13033E-07        -0.57753E-11         0.00000E+00
    0.13300E-07        -0.60680E-11         0.00000E+00
    0.13571E-07        -0.63641E-11         0.00000E+00
    0.13846E-07        -0.66629E-11         0.00000E+00
    0.14125E-07        -0.69638E-11         0.00000E+00
    0.14407E-07        -0.72658E-11         0.00000E+00
    0.14692E-07        -0.75682E-11         0.00000E+00
    0.14980E-07        -0.78698E-11         0.00000E+00
    0.15271E-07        -0.81695E-11         0.00000E+00
    0.15564E-07        -0.84662E-11         0.00000E+00
    0.15860E-07        -0.87584E-11         0.00000E+00
    0.16157E-07        -0.90446E-11         0.00000E+00
    0.16456E-07        -0.93234E-11         0.00000E+00
    0.16756E-07        -0.95929E-11         0.00000E+00
    0.17057E-07        -0.98513E-11         0.00000E+00
    0.17359E-07        -0.10097E-10         0.00000E+00
    0.17661E-07        -0.10327E-10         0.00000E+00
    0.17962E-07        -0.10539E-10         0.00000E+00
    0.18264E-07        -0.10732E-10         0.00000E+00
    0.18564E-07        -0.10902E-10         0.00000E+00
    0.18863E-07        -0.11047E-10         0.00000E+00
    0.19160E-07        -0.11163E-10         0.00000E+00
    0.19455E-07        -0.11247E-10         0.00000E+00
    0.19747E-07        -0.11296E-10         0.00000E+00
    0.20037E-07        -0.11306E-10         0.00000E+00
    0.20322E-07        -0.11273E-10         0.00000E+00
    0.20604E-07        -0.11193E-10         0.00000E+00
    0.20881E-07        -0.11060E-10         0.00000E+00
    0.21153E-07        -0.10869E-10         0.00000E+00
    0.21419E-07        -0.10615E-10         0.00000E+00
    0.21679E-07        -0.10291E-10         0.00000E+00
    0.21933E-07        -0.98902E-11         0.00000E+00
    0.22179E-07        -0.94048E-11         0.00000E+00
    0.22418E-07        -0.88266E-11         0.00000E+00
    0.22649E-07        -0.81463E-11         0.00000E+00
    0.22870E-07        -0.73544E-11         0.00000E+00
    0.23082E-07        -0.64405E-11         0.00000E+00
    0.23285E-07        -0.53941E-11         0.00000E+00
    0.23476E-07        -0.42048E-11         0.00000E+00
    0.23657E-07        -0.28632E-11         0.00000E+00
    0.23827E-07        -0.13617E-11         0.00000E+00
    0.23984E-07         0.30368E-12         0.00000E+00
    0.24129E-07         0.21309E-11         0.00000E+00
    0.24261E-07         0.41091E-11         0.00000E+00
    0.24379E-07         0.62136E-11         0.00000E+00
    0.24485E-07         0.84006E-11         0.00000E+00
    0.24576E-07         0.10599E-10         0.00000E+00
    0.24653E-07         0.12700E-10         0.00000E+00
    0.24717E-07         0.14548E-10         0.00000E+00
    0.24767E-07         0.15919E-10         0.00000E+00
    0.24803E-07         0.16509E-10         0.00000E+00
    0.24827E-07         0.15905E-10         0.00000E+00
    0.24839E-07         0.13527E-10         0.00000E+00
    0.24840E-07         0.85609E-11         0.00000E+00
    0.24837E-07        -0.14617E-20         0.00000E+00
    0.68545E-08         0.00000E+00         0.00000E+00
    0.68519E-08         0.51052E-11         0.00000E+00
    0.68491E-08         0.82406E-11         0.00000E+00
    0.68516E-08         0.99374E-11         0.00000E+00
    0.68599E-08         0.10638E-10         0.00000E+00
    0.68743E-08         0.10666E-10         0.00000E+00
    0.68952E-08         0.10255E-10         0.00000E+00
    0.69228E-08         0.95753E-11         0.00000E+00
    0.69573E-08         0.87478E-11         0.00000E+00
    0.69987E-08         0.78571E-11         0.00000E+00
    0.70472E-08         0.69601E-11         0.00000E+00
    0.71026E-08         0.60929E-11         0.00000E+00
    0.71651E-08         0.52768E-11         0.00000E+00
    0.72345E-08         0.45225E-11         0.00000E+00
    0.73108E-08         0.38339E-11         0.00000E+00
    0.73940E-08         0.32100E-11         0.00000E+00
    0.74839E-08         0.26473E-11         0.00000E+00
    0.75806E-08         0.21403E-11         0.00000E+00
    0.76840E-08         0.16830E-11         0.00000E+00
    0.77939E-08         0.12690E-11         0.00000E+00
    0.79104E-08         0.89237E-12         0.00000E+00
    0.80333E-08         0.54720E-12         0.00000E+00
    0.81627E-08         0.22827E-12         0.00000E+00
    0.82985E-08        -0.69147E-13         0.00000E+00
    0.84405E-08        -0.34924E-12         0.00000E+00
    0.85888E-08        -0.61569E-12         0.00000E+00
    0.87433E-08        -0.87169E-12         0.00000E+00
    0.89040E-08        -0.11200E-11         0.00000E+00
    0.90708E-08        -0.13630E-11         0.00000E+00
    0.92436E-08        -0.16028E-11         0.00000E+00
    0.94224E-08        -0.18410E-11         0.00000E+00
    0.96071E-08        -0.20792E-11         0.00000E+00
    0.97977E-08        -0.23186E-11         0.00000E+00
    0.99940E-08        -0.25603E-11         0.00000E+00
    0.10196E-07        -0.28052E-11         0.00000E+00
    0.10404E-07        -0.30539E-11         0.00000E+00
    0.10617E-07        -0.33072E-11         0.00000E+00
    0.10836E-07        -0.35654E-11         0.00000E+00
    0.11060E-07        -0.38289E-11         0.00000E+00
    0.11289E-07        -0.40980E-11         0.00000E+00
    0.11524E-07        -0.43728E-11         0.00000E+00
    0.11764E-07        -0.46535E-11         0.00000E+00
    0.12008E-07        -0.49398E-11         0.00000E+00
    0.12258E-07        -0.52318E-11         0.00000E+00
    0.12512E-07        -0.55293E-11         0.00000E+00
    0.12770E-07        -0.58318E-11         0.00000E+00
    0.13033E-07        -0.61390E-11         0.00000E+00
    0.13300E-07        -0.64505E-11         0.00000E+00
    0.13571E-07        -0.67657E-11         0.00000E+00
    0.13846E-07        -0.70838E-11         0.00000E+00
    0.14125E-07        -0.74041E-11         0.00000E+00
    0.14407E-07        -0.77258E-11         0.00000E+00
    0.14692E-07        -0.80479E-11         0.00000E+00
    0.14980E-07        -0.83693E-11         0.00000E+00
    0.15271E-07        -0.86887E-11         0.00000E+00
    0.15564E-07        -0.90049E-11         0.00000E+00
    0.15860E-07        -0.93164E-11         0.00000E+00
    0.16157E-07        -0.96217E-11         0.00000E+00
    0.16456E-07        -0.99192E-11         0.00000E+00
    0.16756E-07        -0.10207E-10         0.00000E+00
    0.17057E-07        -0.10483E-10         0.00000E+00
    0.17359E-07        -0.10745E-10         0.00000E+00
    0.17661E-07        -0.10991E-10         0.00000E+00
    0.17962E-07        -0.11219E-10         0.00000E+00
    0.18264E-07        -0.11425E-10         0.00000E+00
    0.18564E-07        -0.11607E-10         0.00000E+00
    0.18863E-07        -0.11763E-10         0.00000E+00
    0.19160E-07        -0.11888E-10         0.00000E+00
    0.19455E-07        -0.11980E-10         0.00000E+00
    0.19747E-07        -0.12034E-10         0.00000E+00
    0.20037E-07        -0.12047E-10         0.00000E+00
    0.20322E-07        -0.12015E-10         0.00000E+00
    0.20604E-07        -0.11932E-10         0.00000E+00
    0.20881E-07        -0.11793E-10         0.00000E+00
    0.21153E-07        -0.11593E-10         0.00000E+00
    0.21419E-07        -0.11325E-10         0.00000E+00
    0.21680E-07        -0.10983E-10         0.00000E+00
    0.21933E-07        -0.10560E-10         0.00000E+00
    0.22180E-07        -0.10046E-10         0.00000E+00
    0.22418E-07        -0.94336E-11         0.00000E+00
    0.22649E-07        -0.87125E-11         0.00000E+00
    0.22870E-07        -0.78721E-11         0.00000E+00
    0.23083E-07        -0.69013E-11         0.00000E+00
    0.23285E-07        -0.57889E-11         0.00000E+00
    0.23477E-07        -0.45234E-11         0.00000E+00
    0.23658E-07        -0.30945E-11         0.00000E+00
    0.23827E-07        -0.14941E-11         0.00000E+00
    0.23984E-07         0.28246E-12         0.00000E+00
    0.24129E-07         0.22333E-11         0.00000E+00
    0.24261E-07         0.43467E-11         0.00000E+00
    0.24380E-07         0.65967E-11         0.00000E+00
    0.24485E-07         0.89359E-11         0.00000E+00
    0.24576E-07         0.11288E-10         0.00000E+00
    0.24654E-07         0.13534E-10         0.00000E+00
    0.24717E-07         0.15506E-10         0.00000E+00
    0.24767E-07         0.16961E-10         0.00000E+00
    0.24803E-07         0.17569E-10         0.00000E+00
    0.24827E-07         0.16882E-10         0.00000E+00
    0.24838E-07         0.14292E-10         0.00000E+00
    0.24838E-07         0.89809E-11         0.00000E+00
    0.24836E-07         0.00000E+00         0.00000E+00
    0.68556E-08         0.18626E-20         0.00000E+00
    0.68527E-08         0.53252E-11         0.00000E+00
    0.68496E-08         0.86444E-11         0.00000E+00
    0.68519E-08         0.10463E-10         0.00000E+00
    0.68600E-08         0.11223E-10         0.00000E+00
    0.68743E-08         0.11263E-10         0.00000E+00
    0.68951E-08         0.10832E-10         0.00000E+00
    0.69227E-08         0.10112E-10         0.00000E+00
    0.69571E-08         0.92339E-11         0.00000E+00
    0.69985E-08         0.82884E-11         0.00000E+00
    0.70470E-08         0.73365E-11         0.00000E+00
    0.71024E-08         0.64167E-11         0.00000E+00
    0.71649E-08         0.55519E-11         0.00000E+00
    0.72343E-08         0.47534E-11         0.00000E+00
    0.73107E-08         0.40251E-11         0.00000E+00
    0.73938E-08         0.33661E-11         0.00000E+00
    0.74838E-08         0.27723E-11         0.00000E+00
    0.75805E-08         0.22379E-11         0.00000E+00
    0.76839E-08         0.17563E-11         0.00000E+00
    0.77938E-08         0.13207E-11         0.00000E+00
    0.79103E-08         0.92474E-12         0.00000E+00
    0.80333E-08         0.56210E-12         0.00000E+00
    0.81626E-08         0.22721E-12         0.00000E+00
    0.82984E-08        -0.84990E-13         0.00000E+00
    0.84405E-08        -0.37895E-12         0.00000E+00
    0.85888E-08        -0.65858E-12         0.00000E+00
    0.87433E-08        -0.92726E-12         0.00000E+00
    0.89040E-08        -0.11879E-11         0.00000E+00
    0.90707E-08        -0.14431E-11         0.00000E+00
    0.92435E-08        -0.16950E-11         0.00000E+00
    0.94223E-08        -0.19453E-11         0.00000E+00
    0.96070E-08        -0.21957E-11         0.00000E+00
    0.97976E-08        -0.24475E-11         0.00000E+00
    0.99940E-08        -0.27019E-11         0.00000E+00
    0.10196E-07        -0.29596E-11         0.00000E+00
    0.10404E-07        -0.32215E-11         0.00000E+00
    0.10617E-07        -0.34883E-11         0.00000E+00
    0.10836E-07        -0.37604E-11         0.00000E+00
    0.11060E-07        -0.40381E-11         0.00000E+00
    0.11289E-07        -0.43219E-11         0.00000E+00
    0.11524E-07        -0.46117E-11         0.00000E+00
    0.11764E-07        -0.49077E-11         0.00000E+00
    0.12008E-07        -0.52099E-11         0.00000E+00
    0.12257E-07        -0.55180E-11         0.00000E+00
    0.12512E-07        -0.58319E-11         0.00000E+00
    0.12770E-07        -0.61513E-11         0.00000E+00
    0.13033E-07        -0.64757E-11         0.00000E+00
    0.13300E-07        -0.68047E-11         0.00000E+00
    0.13571E-07        -0.71376E-11         0.00000E+00
    0.13846E-07        -0.74737E-11         0.00000E+00
    0.14125E-07        -0.78122E-11         0.00000E+00
    0.14407E-07        -0.81522E-11         0.00000E+00
    0.14692E-07        -0.84926E-11         0.00000E+00
    0.14980E-07        -0.88324E-11         0.00000E+00
    0.15271E-07        -0.91702E-11         0.00000E+00
    0.15564E-07        -0.95047E-11         0.00000E+00
    0.15860E-07        -0.98343E-11         0.00000E+00
    0.16157E-07        -0.10158E-10         0.00000E+00
    0.16456E-07        -0.10472E-10         0.00000E+00
    0.16756E-07        -0.10777E-10         0.00000E+00
    0.17057E-07        -0.11070E-10         0.00000E+00
    0.17359E-07        -0.11348E-10         0.00000E+00
    0.17661E-07        -0.11609E-10         0.00000E+00
    0.17962E-07        -0.11850E-10         0.00000E+00
    0.18264E-07        -0.12070E-10         0.00000E+00
    0.18564E-07        -0.12264E-10         0.00000E+00
    0.18863E-07        -0.12430E-10         0.00000E+00
    0.19160E-07        -0.12564E-10         0.00000E+00
    0.19455E-07        -0.12663E-10         0.00000E+00
    0.19747E-07        -0.12723E-10         0.00000E+00
    0.20037E-07        -0.12739E-10         0.00000E+00
    0.20322E-07        -0.12707E-10         0.00000E+00
    0.20604E-07        -0.12622E-10         0.00000E+00
    0.20881E-07        -0.12478E-10         0.00000E+00
    0.21153E-07        -0.12270E-10         0.00000E+00
    0.21419E-07        -0.11991E-10         0.00000E+00
    0.21680E-07        -0.11633E-10         0.00000E+00
    0.21933E-07        -0.11189E-10         0.00000E+00
    0.22180E-07        -0.10650E-10         0.00000E+00
    0.22418E-07        -0.10006E-10         0.00000E+00
    0.22649E-07        -0.92477E-11         0.00000E+00
    0.22871E-07        -0.83628E-11         0.00000E+00
    0.23083E-07        -0.73398E-11         0.00000E+00
    0.23285E-07        -0.61663E-11         0.00000E+00
    0.23477E-07        -0.48302E-11         0.00000E+00
    0.23658E-07        -0.33204E-11         0.00000E+00
    0.23827E-07        -0.16277E-11         0.00000E+00
    0.23985E-07         0.25282E-12         0.00000E+00
    0.24130E-07         0.23195E-11         0.00000E+00
    0.24262E-07         0.45602E-11         0.00000E+00
    0.24380E-07         0.69473E-11         0.00000E+00
    0.24485E-07         0.94303E-11         0.00000E+00
    0.24577E-07         0.11927E-10         0.00000E+00
    0.24654E-07         0.14312E-10         0.00000E+00
    0.24717E-07         0.16402E-10         0.00000E+00
    0.24767E-07         0.17936E-10         0.00000E+00
    0.24803E-07         0.18560E-10         0.00000E+00
    0.24826E-07         0.17796E-10         0.00000E+00
    0.24837E-07         0.15006E-10         0.00000E+00
    0.24837E-07         0.93734E-11         0.00000E+00
    0.24834E-07         0.00000E+00         0.00000E+00
    0.68567E-08         0.00000E+00         0.00000E+00
    0.68536E-08         0.55296E-11         0.00000E+00
    0.68501E-08         0.90186E-11         0.00000E+00
    0.68521E-08         0.10950E-10         0.00000E+00
    0.68601E-08         0.11766E-10         0.00000E+00
    0.68743E-08         0.11817E-10         0.00000E+00
    0.68950E-08         0.11366E-10         0.00000E+00
    0.69225E-08         0.10608E-10         0.00000E+00
    0.69569E-08         0.96815E-11         0.00000E+00
    0.69983E-08         0.86841E-11         0.00000E+00
    0.70468E-08         0.76804E-11         0.00000E+00
    0.71023E-08         0.67115E-11         0.00000E+00
    0.71647E-08         0.58012E-11         0.00000E+00
    0.72342E-08         0.49616E-11         0.00000E+00
    0.73105E-08         0.41967E-11         0.00000E+00
    0.73937E-08         0.35053E-11         0.00000E+00
    0.74837E-08         0.28829E-11         0.00000E+00
    0.75804E-08         0.23234E-11         0.00000E+00
    0.76838E-08         0.18197E-11         0.00000E+00
    0.77937E-08         0.13646E-11         0.00000E+00
    0.79102E-08         0.95112E-12         0.00000E+00
    0.80332E-08         0.57275E-12         0.00000E+00
    0.81626E-08         0.22350E-12         0.00000E+00
    0.82983E-08        -0.10197E-12         0.00000E+00
    0.84404E-08        -0.40837E-12         0.00000E+00
    0.85887E-08        -0.69983E-12         0.00000E+00
    0.87432E-08        -0.97991E-12         0.00000E+00
    0.89039E-08        -0.12517E-11         0.00000E+00
    0.90707E-08        -0.15179E-11         0.00000E+00
    0.92435E-08        -0.17806E-11         0.00000E+00
    0.94223E-08        -0.20419E-11         0.00000E+00
    0.96070E-08        -0.23034E-11         0.00000E+00
    0.97976E-08        -0.25665E-11         0.00000E+00
    0.99939E-08        -0.28323E-11         0.00000E+00
    0.10196E-07        -0.31018E-11         0.00000E+00
    0.10404E-07        -0.33757E-11         0.00000E+00
    0.10617E-07        -0.36549E-11         0.00000E+00
    0.10836E-07        -0.39396E-11         0.00000E+00
    0.11060E-07        -0.42305E-11         0.00000E+00
    0.11289E-07        -0.45276E-11         0.00000E+00
    0.11524E-07        -0.48312E-11         0.00000E+00
    0.11763E-07        -0.51414E-11         0.00000E+00
    0.12008E-07        -0.54580E-11         0.00000E+00
    0.12257E-07        -0.57811E-11         0.00000E+00
    0.12511E-07        -0.61102E-11         0.00000E+00
    0.12770E-07        -0.64451E-11         0.00000E+00
    0.13033E-07        -0.67854E-11         0.00000E+00
    0.13300E-07        -0.71305E-11         0.00000E+00
    0.13571E-07        -0.74798E-11         0.00000E+00
    0.13846E-07        -0.78326E-11         0.00000E+00
    0.14125E-07        -0.81879E-11         0.00000E+00
    0.14407E-07        -0.85448E-11         0.00000E+00
    0.14692E-07        -0.89023E-11         0.00000E+00
    0.14980E-07        -0.92592E-11         0.00000E+00
    0.15271E-07        -0.96141E-11         0.00000E+00
    0.15564E-07        -0.99656E-11         0.00000E+00
    0.15860E-07        -0.10312E-10         0.00000E+00
    0.16157E-07        -0.10652E-10         0.00000E+00
    0.16456E-07        -0.10983E-10         0.00000E+00
    0.16756E-07        -0.11304E-10         0.00000E+00
    0.17057E-07        -0.11612E-10         0.00000E+00
    0.17359E-07        -0.11904E-10         0.00000E+00
    0.17660E-07        -0.12180E-10         0.00000E+00
    0.17962E-07        -0.12435E-10         0.00000E+00
    0.18263E-07        -0.12666E-10         0.00000E+00
    0.18564E-07        -0.12872E-10         0.00000E+00
    0.18863E-07        -0.13048E-10         0.00000E+00
    0.19160E-07        -0.13191E-10         0.00000E+00
    0.19455E-07        -0.13297E-10         0.00000E+00
    0.19747E-07        -0.13362E-10         0.00000E+00
    0.20037E-07        -0.13381E-10         0.00000E+00
    0.20322E-07        -0.13351E-10         0.00000E+00
    0.20604E-07        -0.13264E-10         0.00000E+00
    0.20881E-07        -0.13117E-10         0.00000E+00
    0.21153E-07        -0.12901E-10         0.00000E+00
    0.21419E-07        -0.12612E-10         0.00000E+00
    0.21680E-07        -0.12240E-10         0.00000E+00
    0.21933E-07        -0.11778E-10         0.00000E+00
    0.22180E-07        -0.11216E-10         0.00000E+00
    0.22419E-07        -0.10544E-10         0.00000E+00
    0.22649E-07        -0.97517E-11         0.00000E+00
    0.22871E-07        -0.88263E-11         0.00000E+00
    0.23083E-07        -0.77555E-11         0.00000E+00
    0.23285E-07        -0.65260E-11         0.00000E+00
    0.23477E-07        -0.51250E-11         0.00000E+00
    0.23658E-07        -0.35404E-11         0.00000E+00
    0.23828E-07        -0.17623E-11         0.00000E+00
    0.23985E-07         0.21487E-12         0.00000E+00
    0.24130E-07         0.23896E-11         0.00000E+00
    0.24262E-07         0.47493E-11         0.00000E+00
    0.24381E-07         0.72650E-11         0.00000E+00
    0.24486E-07         0.98835E-11         0.00000E+00
    0.24577E-07         0.12518E-10         0.00000E+00
    0.24655E-07         0.15034E-10         0.00000E+00
    0.24718E-07         0.17236E-10         0.00000E+00
    0.24767E-07         0.18846E-10         0.00000E+00
    0.24803E-07         0.19486E-10         0.00000E+00
    0.24826E-07         0.18648E-10         0.00000E+00
    0.24836E-07         0.15672E-10         0.00000E+00
    0.24835E-07         0.97412E-11         0.00000E+00
    0.24832E-07         0.00000E+00         0.00000E+00
    0.68578E-08        -0.18626E-20         0.00000E+00
    0.68545E-08         0.57199E-11         0.00000E+00
    0.68507E-08         0.93651E-11         0.00000E+00
    0.68524E-08         0.11401E-10         0.00000E+00
    0.68602E-08         0.12268E-10         0.00000E+00
    0.68742E-08         0.12327E-10         0.00000E+00
    0.68949E-08         0.11857E-10         0.00000E+00
    0.69223E-08         0.11062E-10         0.00000E+00
    0.69567E-08         0.10090E-10         0.00000E+00
    0.69981E-08         0.90441E-11         0.00000E+00
    0.70466E-08         0.79920E-11         0.00000E+00
    0.71021E-08         0.69771E-11         0.00000E+00
    0.71646E-08         0.60247E-11         0.00000E+00
    0.72340E-08         0.51471E-11         0.00000E+00
    0.73104E-08         0.43486E-11         0.00000E+00
    0.73936E-08         0.36275E-11         0.00000E+00
    0.74836E-08         0.29792E-11         0.00000E+00
    0.75803E-08         0.23970E-11         0.00000E+00
    0.76837E-08         0.18734E-11         0.00000E+00
    0.77936E-08         0.14007E-11         0.00000E+00
    0.79101E-08         0.97166E-12         0.00000E+00
    0.80331E-08         0.57927E-12         0.00000E+00
    0.81625E-08         0.21726E-12         0.00000E+00
    0.82983E-08        -0.11998E-12         0.00000E+00
    0.84403E-08        -0.43741E-12         0.00000E+00
    0.85887E-08        -0.73936E-12         0.00000E+00
    0.87432E-08        -0.10296E-11         0.00000E+00
    0.89039E-08        -0.13112E-11         0.00000E+00
    0.90706E-08        -0.15872E-11         0.00000E+00
    0.92434E-08        -0.18597E-11         0.00000E+00
    0.94222E-08        -0.21308E-11         0.00000E+00
    0.96069E-08        -0.24022E-11         0.00000E+00
    0.97975E-08        -0.26754E-11         0.00000E+00
    0.99939E-08        -0.29516E-11         0.00000E+00
    0.10196E-07        -0.32316E-11         0.00000E+00
    0.10404E-07        -0.35165E-11         0.00000E+00
    0.10617E-07        -0.38068E-11         0.00000E+00
    0.10836E-07        -0.41032E-11         0.00000E+00
    0.11060E-07        -0.44059E-11         0.00000E+00
    0.11289E-07        -0.47152E-11         0.00000E+00
    0.11524E-07        -0.50314E-11         0.00000E+00
    0.11763E-07        -0.53545E-11         0.00000E+00
    0.12008E-07        -0.56844E-11         0.00000E+00
    0.12257E-07        -0.60210E-11         0.00000E+00
    0.12511E-07        -0.63641E-11         0.00000E+00
    0.12770E-07        -0.67133E-11         0.00000E+00
    0.13033E-07        -0.70681E-11         0.00000E+00
    0.13300E-07        -0.74280E-11         0.00000E+00
    0.13571E-07        -0.77924E-11         0.00000E+00
    0.13846E-07        -0.81604E-11         0.00000E+00
    0.14125E-07        -0.85312E-11         0.00000E+00
    0.14407E-07        -0.89037E-11         0.00000E+00
    0.14692E-07        -0.92770E-11         0.00000E+00
    0.14980E-07        -0.96496E-11         0.00000E+00
    0.15271E-07        -0.10020E-10         0.00000E+00
    0.15564E-07        -0.10387E-10         0.00000E+00
    0.15859E-07        -0.10750E-10         0.00000E+00
    0.16157E-07        -0.11105E-10         0.00000E+00
    0.16456E-07        -0.11451E-10         0.00000E+00
    0.16756E-07        -0.11786E-10         0.00000E+00
    0.17057E-07        -0.12109E-10         0.00000E+00
    0.17359E-07        -0.12415E-10         0.00000E+00
    0.17660E-07        -0.12704E-10         0.00000E+00
    0.17962E-07        -0.12971E-10         0.00000E+00
    0.18263E-07        -0.13215E-10         0.00000E+00
    0.18564E-07        -0.13431E-10         0.00000E+00
    0.18863E-07        -0.13616E-10         0.00000E+00
    0.19160E-07        -0.13768E-10         0.00000E+00
    0.19455E-07        -0.13881E-10         0.00000E+00
    0.19747E-07        -0.13951E-10         0.00000E+00
    0.20037E-07        -0.13974E-10         0.00000E+00
    0.20322E-07        -0.13945E-10         0.00000E+00
    0.20604E-07        -0.13858E-10         0.00000E+00
    0.20881E-07        -0.13707E-10         0.00000E+00
    0.21153E-07        -0.13486E-10         0.00000E+00
    0.21419E-07        -0.13188E-10         0.00000E+00
    0.21680E-07        -0.12804E-10         0.00000E+00
    0.21933E-07        -0.12326E-10         0.00000E+00
    0.22180E-07        -0.11743E-10         0.00000E+00
    0.22419E-07        -0.11047E-10         0.00000E+00
    0.22649E-07        -0.10224E-10         0.00000E+00
    0.22871E-07        -0.92619E-11         0.00000E+00
    0.23083E-07        -0.81478E-11         0.00000E+00
    0.23286E-07        -0.68676E-11         0.00000E+00
    0.23478E-07        -0.54073E-11         0.00000E+00
    0.23659E-07        -0.37542E-11         0.00000E+00
    0.23828E-07        -0.18975E-11         0.00000E+00
    0.23986E-07         0.16875E-12         0.00000E+00
    0.24131E-07         0.24435E-11         0.00000E+00
    0.24263E-07         0.49139E-11         0.00000E+00
    0.24381E-07         0.75497E-11         0.00000E+00
    0.24487E-07         0.10295E-10         0.00000E+00
    0.24578E-07         0.13058E-10         0.00000E+00
    0.24655E-07         0.15698E-10         0.00000E+00
    0.24718E-07         0.18007E-10         0.00000E+00
    0.24767E-07         0.19690E-10         0.00000E+00
    0.24803E-07         0.20346E-10         0.00000E+00
    0.24826E-07         0.19442E-10         0.00000E+00
    0.24835E-07         0.16293E-10         0.00000E+00
    0.24834E-07         0.10087E-10         0.00000E+00
    0.24830E-07         0.00000E+00         0.00000E+00
    0.68590E-08         0.00000E+00         0.00000E+00
    0.68555E-08         0.58969E-11         0.00000E+00
    0.68512E-08         0.96854E-11         0.00000E+00
    0.68527E-08         0.11815E-10         0.00000E+00
    0.68603E-08         0.12728E-10         0.00000E+00
    0.68742E-08         0.12795E-10         0.00000E+00
    0.68947E-08         0.12305E-10         0.00000E+00
    0.69222E-08         0.11475E-10         0.00000E+00
    0.69565E-08         0.10460E-10         0.00000E+00
    0.69979E-08         0.93682E-11         0.00000E+00
    0.70464E-08         0.82709E-11         0.00000E+00
    0.71019E-08         0.72136E-11         0.00000E+00
    0.71644E-08         0.62223E-11         0.00000E+00
    0.72338E-08         0.53101E-11         0.00000E+00
    0.73102E-08         0.44809E-11         0.00000E+00
    0.73934E-08         0.37330E-11         0.00000E+00
    0.74835E-08         0.30613E-11         0.00000E+00
    0.75802E-08         0.24588E-11         0.00000E+00
    0.76836E-08         0.19175E-11         0.00000E+00
    0.77935E-08         0.14293E-11         0.00000E+00
    0.79101E-08         0.98650E-12         0.00000E+00
    0.80330E-08         0.58181E-12         0.00000E+00
    0.81624E-08         0.20864E-12         0.00000E+00
    0.82982E-08        -0.13889E-12         0.00000E+00
    0.84403E-08        -0.46596E-12         0.00000E+00
    0.85886E-08        -0.77707E-12         0.00000E+00
    0.87431E-08        -0.10761E-11         0.00000E+00
    0.89038E-08        -0.13665E-11         0.00000E+00
    0.90706E-08        -0.16510E-11         0.00000E+00
    0.92434E-08        -0.19321E-11         0.00000E+00
    0.94222E-08        -0.22119E-11         0.00000E+00
    0.96069E-08        -0.24922E-11         0.00000E+00
    0.97974E-08        -0.27743E-11         0.00000E+00
    0.99938E-08        -0.30597E-11         0.00000E+00
    0.10196E-07        -0.33493E-11         0.00000E+00
    0.10404E-07        -0.36439E-11         0.00000E+00
    0.10617E-07        -0.39443E-11         0.00000E+00
    0.10836E-07        -0.42510E-11         0.00000E+00
    0.11060E-07        -0.45643E-11         0.00000E+00
    0.11289E-07        -0.48847E-11         0.00000E+00
    0.11524E-07        -0.52123E-11         0.00000E+00
    0.11763E-07        -0.55470E-11         0.00000E+00
    0.12008E-07        -0.58890E-11         0.00000E+00
    0.12257E-07        -0.62379E-11         0.00000E+00
    0.12511E-07        -0.65937E-11         0.00000E+00
    0.12770E-07        -0.69558E-11         0.00000E+00
    0.13033E-07        -0.73238E-11         0.00000E+00
    0.13300E-07        -0.76972E-11         0.00000E+00
    0.13571E-07        -0.80753E-11         0.00000E+00
    0.13846E-07        -0.84572E-11         0.00000E+00
    0.14125E-07        -0.88421E-11         0.00000E+00
    0.14407E-07        -0.92289E-11         0.00000E+00
    0.14692E-07        -0.96165E-11         0.00000E+00
    0.14980E-07        -0.10004E-10         0.00000E+00
    0.15271E-07        -0.10389E-10         0.00000E+00
    0.15564E-07        -0.10770E-10         0.00000E+00
    0.15859E-07        -0.11147E-10         0.00000E+00
    0.16157E-07        -0.11516E-10         0.00000E+00
    0.16456E-07        -0.11876E-10         0.00000E+00
    0.16756E-07        -0.12225E-10         0.00000E+00
    0.17057E-07        -0.12561E-10         0.00000E+00
    0.17358E-07        -0.12880E-10         0.00000E+00
    0.17660E-07        -0.13181E-10         0.00000E+00
    0.17962E-07        -0.13460E-10         0.00000E+00
    0.18263E-07        -0.13714E-10         0.00000E+00
    0.18564E-07        -0.13941E-10         0.00000E+00
    0.18863E-07        -0.14135E-10         0.00000E+00
    0.19160E-07        -0.14294E-10         0.00000E+00
    0.19455E-07        -0.14414E-10         0.00000E+00
    0.19747E-07        -0.14490E-10         0.00000E+00
    0.20037E-07        -0.14516E-10         0.00000E+00
    0.20322E-07        -0.14489E-10         0.00000E+00
    0.20604E-07        -0.14402E-10         0.00000E+00
    0.20881E-07        -0.14249E-10         0.00000E+00
    0.21153E-07        -0.14024E-10         0.00000E+00
    0.21420E-07        -0.13718E-10         0.00000E+00
    0.21680E-07        -0.13324E-10         0.00000E+00
    0.21934E-07        -0.12832E-10         0.00000E+00
    0.22180E-07        -0.12232E-10         0.00000E+00
    0.22419E-07        -0.11513E-10         0.00000E+00
    0.22649E-07        -0.10663E-10         0.00000E+00
    0.22871E-07        -0.96692E-11         0.00000E+00
    0.23083E-07        -0.85164E-11         0.00000E+00
    0.23286E-07        -0.71904E-11         0.00000E+00
    0.23478E-07        -0.56767E-11         0.00000E+00
    0.23659E-07        -0.39614E-11         0.00000E+00
    0.23828E-07        -0.20332E-11         0.00000E+00
    0.23986E-07         0.11468E-12         0.00000E+00
    0.24131E-07         0.24814E-11         0.00000E+00
    0.24263E-07         0.50539E-11         0.00000E+00
    0.24382E-07         0.78010E-11         0.00000E+00
    0.24487E-07         0.10665E-10         0.00000E+00
    0.24578E-07         0.13549E-10         0.00000E+00
    0.24656E-07         0.16305E-10         0.00000E+00
    0.24719E-07         0.18715E-10         0.00000E+00
    0.24768E-07         0.20468E-10         0.00000E+00
    0.24803E-07         0.21142E-10         0.00000E+00
    0.24825E-07         0.20179E-10         0.00000E+00
    0.24835E-07         0.16873E-10         0.00000E+00
    0.24832E-07         0.10412E-10         0.00000E+00
    0.24828E-07         0.00000E+00         0.00000E+00
    0.68602E-08         0.00000E+00         0.00000E+00
    0.68564E-08         0.60615E-11         0.00000E+00
    0.68518E-08         0.99806E-11         0.00000E+00
    0.68530E-08         0.12196E-10         0.00000E+00
    0.68604E-08         0.13148E-10         0.00000E+00
    0.68741E-08         0.13220E-10         0.00000E+00
    0.68946E-08         0.12710E-10         0.00000E+00
    0.69220E-08         0.11847E-10         0.00000E+00
    0.69563E-08         0.10791E-10         0.00000E+00
    0.69977E-08         0.96562E-11         0.00000E+00
    0.70461E-08         0.85172E-11         0.00000E+00
    0.71017E-08         0.74209E-11         0.00000E+00
    0.71642E-08         0.63942E-11         0.00000E+00
    0.72337E-08         0.54505E-11         0.00000E+00
    0.73101E-08         0.45937E-11         0.00000E+00
    0.73933E-08         0.38219E-11         0.00000E+00
    0.74833E-08         0.31295E-11         0.00000E+00
    0.75801E-08         0.25090E-11         0.00000E+00
    0.76835E-08         0.19522E-11         0.00000E+00
    0.77935E-08         0.14505E-11         0.00000E+00
    0.79100E-08         0.99583E-12         0.00000E+00
    0.80330E-08         0.58053E-12         0.00000E+00
    0.81624E-08         0.19777E-12         0.00000E+00
    0.82981E-08        -0.15858E-12         0.00000E+00
    0.84402E-08        -0.49389E-12         0.00000E+00
    0.85885E-08        -0.81285E-12         0.00000E+00
    0.87431E-08        -0.11195E-11         0.00000E+00
    0.89037E-08        -0.14173E-11         0.00000E+00
    0.90705E-08        -0.17092E-11         0.00000E+00
    0.92433E-08        -0.19978E-11         0.00000E+00
    0.94221E-08        -0.22852E-11         0.00000E+00
    0.96068E-08        -0.25731E-11         0.00000E+00
    0.97974E-08        -0.28632E-11         0.00000E+00
    0.99937E-08        -0.31567E-11         0.00000E+00
    0.10196E-07        -0.34546E-11         0.00000E+00
    0.10404E-07        -0.37579E-11         0.00000E+00
    0.10617E-07        -0.40671E-11         0.00000E+00
    0.10836E-07        -0.43830E-11         0.00000E+00
    0.11060E-07        -0.47059E-11         0.00000E+00
    0.11289E-07        -0.50362E-11         0.00000E+00
    0.11524E-07        -0.53738E-11         0.00000E+00
    0.11763E-07        -0.57190E-11         0.00000E+00
    0.12008E-07        -0.60717E-11         0.00000E+00
    0.12257E-07        -0.64318E-11         0.00000E+00
    0.12511E-07        -0.67988E-11         0.00000E+00
    0.12770E-07        -0.71726E-11         0.00000E+00
    0.13033E-07        -0.75525E-11         0.00000E+00
    0.13300E-07        -0.79381E-11         0.00000E+00
    0.13571E-07        -0.83285E-11         0.00000E+00
    0.13846E-07        -0.87230E-11         0.00000E+00
    0.14124E-07        -0.91206E-11         0.00000E+00
    0.14406E-07        -0.95203E-11         0.00000E+00
    0.14692E-07        -0.99209E-11         0.00000E+00
    0.14980E-07        -0.10321E-10         0.00000E+00
    0.15271E-07        -0.10719E-10         0.00000E+00
    0.15564E-07        -0.11114E-10         0.00000E+00
    0.15859E-07        -0.11503E-10         0.00000E+00
    0.16157E-07        -0.11885E-10         0.00000E+00
    0.16455E-07        -0.12258E-10         0.00000E+00
    0.16756E-07        -0.12620E-10         0.00000E+00
    0.17057E-07        -0.12968E-10         0.00000E+00
    0.17358E-07        -0.13299E-10         0.00000E+00
    0.17660E-07        -0.13611E-10         0.00000E+00
    0.17962E-07        -0.13901E-10         0.00000E+00
    0.18263E-07        -0.14165E-10         0.00000E+00
    0.18564E-07        -0.14401E-10         0.00000E+00
    0.18863E-07        -0.14604E-10         0.00000E+00
    0.19160E-07        -0.14771E-10         0.00000E+00
    0.19455E-07        -0.14897E-10         0.00000E+00
    0.19747E-07        -0.14978E-10         0.00000E+00
    0.20037E-07        -0.15008E-10         0.00000E+00
    0.20322E-07        -0.14983E-10         0.00000E+00
    0.20604E-07        -0.14897E-10         0.00000E+00
    0.20881E-07        -0.14743E-10         0.00000E+00
    0.21153E-07        -0.14514E-10         0.00000E+00
    0.21420E-07        -0.14202E-10         0.00000E+00
    0.21680E-07        -0.13800E-10         0.00000E+00
    0.21934E-07        -0.13296E-10         0.00000E+00
    0.22180E-07        -0.12681E-10         0.00000E+00
    0.22419E-07        -0.11943E-10         0.00000E+00
    0.22650E-07        -0.11070E-10         0.00000E+00
    0.22871E-07        -0.10047E-10         0.00000E+00
    0.23084E-07        -0.88605E-11         0.00000E+00
    0.23286E-07        -0.74940E-11         0.00000E+00
    0.23478E-07        -0.59325E-11         0.00000E+00
    0.23659E-07        -0.41615E-11         0.00000E+00
    0.23829E-07        -0.21688E-11         0.00000E+00
    0.23986E-07         0.52907E-13         0.00000E+00
    0.24132E-07         0.25033E-11         0.00000E+00
    0.24264E-07         0.51693E-11         0.00000E+00
    0.24383E-07         0.80187E-11         0.00000E+00
    0.24488E-07         0.10992E-10         0.00000E+00
    0.24579E-07         0.13988E-10         0.00000E+00
    0.24656E-07         0.16854E-10         0.00000E+00
    0.24719E-07         0.19360E-10         0.00000E+00
    0.24768E-07         0.21181E-10         0.00000E+00
    0.24803E-07         0.21876E-10         0.00000E+00
    0.24825E-07         0.20860E-10         0.00000E+00
    0.24834E-07         0.17413E-10         0.00000E+00
    0.24830E-07         0.10717E-10         0.00000E+00
    0.24826E-07        -0.18626E-20         0.00000E+00
    0.68614E-08         0.00000E+00         0.00000E+00
    0.68575E-08         0.62145E-11         0.00000E+00
    0.68525E-08         0.10252E-10         0.00000E+00
    0.68534E-08         0.12542E-10         0.00000E+00
    0.68605E-08         0.13529E-10         0.00000E+00
    0.68741E-08         0.13602E-10         0.00000E+00
    0.68945E-08         0.13073E-10         0.00000E+00
    0.69218E-08         0.12176E-10         0.00000E+00
    0.69561E-08         0.11082E-10         0.00000E+00
    0.69975E-08         0.99081E-11         0.00000E+00
    0.70459E-08         0.87308E-11         0.00000E+00
    0.71014E-08         0.75990E-11         0.00000E+00
    0.71640E-08         0.65404E-11         0.00000E+00
    0.72335E-08         0.55686E-11         0.00000E+00
    0.73099E-08         0.46873E-11         0.00000E+00
    0.73932E-08         0.38943E-11         0.00000E+00
    0.74832E-08         0.31839E-11         0.00000E+00
    0.75800E-08         0.25479E-11         0.00000E+00
    0.76834E-08         0.19778E-11         0.00000E+00
    0.77934E-08         0.14646E-11         0.00000E+00
    0.79099E-08         0.99981E-12         0.00000E+00
    0.80329E-08         0.57560E-12         0.00000E+00
    0.81623E-08         0.18481E-12         0.00000E+00
    0.82981E-08        -0.17890E-12         0.00000E+00
    0.84401E-08        -0.52109E-12         0.00000E+00
    0.85885E-08        -0.84661E-12         0.00000E+00
    0.87430E-08        -0.11596E-11         0.00000E+00
    0.89037E-08        -0.14637E-11         0.00000E+00
    0.90705E-08        -0.17619E-11         0.00000E+00
    0.92433E-08        -0.20568E-11         0.00000E+00
    0.94221E-08        -0.23506E-11         0.00000E+00
    0.96068E-08        -0.26451E-11         0.00000E+00
    0.97973E-08        -0.29420E-11         0.00000E+00
    0.99937E-08        -0.32424E-11         0.00000E+00
    0.10196E-07        -0.35476E-11         0.00000E+00
    0.10403E-07        -0.38584E-11         0.00000E+00
    0.10617E-07        -0.41755E-11         0.00000E+00
    0.10835E-07        -0.44994E-11         0.00000E+00
    0.11060E-07        -0.48307E-11         0.00000E+00
    0.11289E-07        -0.51695E-11         0.00000E+00
    0.11524E-07        -0.55161E-11         0.00000E+00
    0.11763E-07        -0.58705E-11         0.00000E+00
    0.12008E-07        -0.62327E-11         0.00000E+00
    0.12257E-07        -0.66025E-11         0.00000E+00
    0.12511E-07        -0.69796E-11         0.00000E+00
    0.12770E-07        -0.73637E-11         0.00000E+00
    0.13033E-07        -0.77542E-11         0.00000E+00
    0.13300E-07        -0.81505E-11         0.00000E+00
    0.13571E-07        -0.85520E-11         0.00000E+00
    0.13846E-07        -0.89577E-11         0.00000E+00
    0.14124E-07        -0.93667E-11         0.00000E+00
    0.14406E-07        -0.97779E-11         0.00000E+00
    0.14692E-07        -0.10190E-10         0.00000E+00
    0.14980E-07        -0.10602E-10         0.00000E+00
    0.15271E-07        -0.11012E-10         0.00000E+00
    0.15564E-07        -0.11418E-10         0.00000E+00
    0.15859E-07        -0.11819E-10         0.00000E+00
    0.16157E-07        -0.12213E-10         0.00000E+00
    0.16455E-07        -0.12598E-10         0.00000E+00
    0.16756E-07        -0.12971E-10         0.00000E+00
    0.17057E-07        -0.13329E-10         0.00000E+00
    0.17358E-07        -0.13671E-10         0.00000E+00
    0.17660E-07        -0.13994E-10         0.00000E+00
    0.17962E-07        -0.14293E-10         0.00000E+00
    0.18263E-07        -0.14567E-10         0.00000E+00
    0.18564E-07        -0.14811E-10         0.00000E+00
    0.18863E-07        -0.15022E-10         0.00000E+00
    0.19160E-07        -0.15196E-10         0.00000E+00
    0.19455E-07        -0.15329E-10         0.00000E+00
    0.19747E-07        -0.15415E-10         0.00000E+00
    0.20037E-07        -0.15449E-10         0.00000E+00
    0.20322E-07        -0.15427E-10         0.00000E+00
    0.20604E-07        -0.15342E-10         0.00000E+00
    0.20881E-07        -0.15188E-10         0.00000E+00
    0.21153E-07        -0.14956E-10         0.00000E+00
    0.21420E-07        -0.14640E-10         0.00000E+00
    0.21680E-07        -0.14231E-10         0.00000E+00
    0.21934E-07        -0.13717E-10         0.00000E+00
    0.22180E-07        -0.13090E-10         0.00000E+00
    0.22419E-07        -0.12336E-10         0.00000E+00
    0.22650E-07        -0.11443E-10         0.00000E+00
    0.22872E-07        -0.10396E-10         0.00000E+00
    0.23084E-07        -0.91795E-11         0.00000E+00
    0.23287E-07        -0.77777E-11         0.00000E+00
    0.23479E-07        -0.61743E-11         0.00000E+00
    0.23660E-07        -0.43541E-11         0.00000E+00
    0.23829E-07        -0.23041E-11         0.00000E+00
    0.23987E-07        -0.16236E-13         0.00000E+00
    0.24132E-07         0.25095E-11         0.00000E+00
    0.24264E-07         0.52600E-11         0.00000E+00
    0.24383E-07         0.82028E-11         0.00000E+00
    0.24488E-07         0.11276E-10         0.00000E+00
    0.24580E-07         0.14377E-10         0.00000E+00
    0.24657E-07         0.17344E-10         0.00000E+00
    0.24719E-07         0.19941E-10         0.00000E+00
    0.24768E-07         0.21829E-10         0.00000E+00
    0.24803E-07         0.22546E-10         0.00000E+00
    0.24824E-07         0.21489E-10         0.00000E+00
    0.24832E-07         0.17916E-10         0.00000E+00
    0.24828E-07         0.11005E-10         0.00000E+00
    0.24823E-07         0.22640E-20         0.00000E+00
    0.68626E-08         0.00000E+00         0.00000E+00
    0.68585E-08         0.63563E-11         0.00000E+00
    0.68531E-08         0.10500E-10         0.00000E+00
    0.68537E-08         0.12855E-10         0.00000E+00
    0.68606E-08         0.13870E-10         0.00000E+00
    0.68740E-08         0.13941E-10         0.00000E+00
    0.68943E-08         0.13391E-10         0.00000E+00
    0.69216E-08         0.12464E-10         0.00000E+00
    0.69559E-08         0.11335E-10         0.00000E+00
    0.69972E-08         0.10124E-10         0.00000E+00
    0.70457E-08         0.89116E-11         0.00000E+00
    0.71012E-08         0.77480E-11         0.00000E+00
    0.71638E-08         0.66610E-11         0.00000E+00
    0.72333E-08         0.56643E-11         0.00000E+00
    0.73097E-08         0.47617E-11         0.00000E+00
    0.73930E-08         0.39506E-11         0.00000E+00
    0.74831E-08         0.32246E-11         0.00000E+00
    0.75798E-08         0.25756E-11         0.00000E+00
    0.76833E-08         0.19944E-11         0.00000E+00
    0.77933E-08         0.14716E-11         0.00000E+00
    0.79098E-08         0.99863E-12         0.00000E+00
    0.80328E-08         0.56719E-12         0.00000E+00
    0.81622E-08         0.16993E-12         0.00000E+00
    0.82980E-08        -0.19970E-12         0.00000E+00
    0.84401E-08        -0.54743E-12         0.00000E+00
    0.85884E-08        -0.87823E-12         0.00000E+00
    0.87429E-08        -0.11964E-11         0.00000E+00
    0.89036E-08        -0.15056E-11         0.00000E+00
    0.90704E-08        -0.18089E-11         0.00000E+00
    0.92432E-08        -0.21090E-11         0.00000E+00
    0.94220E-08        -0.24081E-11         0.00000E+00
    0.96067E-08        -0.27081E-11         0.00000E+00
    0.97973E-08        -0.30107E-11         0.00000E+00
    0.99936E-08        -0.33170E-11         0.00000E+00
    0.10196E-07        -0.36283E-11         0.00000E+00
    0.10403E-07        -0.39455E-11         0.00000E+00
    0.10617E-07        -0.42692E-11         0.00000E+00
    0.10835E-07        -0.46001E-11         0.00000E+00
    0.11060E-07        -0.49385E-11         0.00000E+00
    0.11289E-07        -0.52848E-11         0.00000E+00
    0.11523E-07        -0.56391E-11         0.00000E+00
    0.11763E-07        -0.60015E-11         0.00000E+00
    0.12008E-07        -0.63719E-11         0.00000E+00
    0.12257E-07        -0.67502E-11         0.00000E+00
    0.12511E-07        -0.71361E-11         0.00000E+00
    0.12770E-07        -0.75292E-11         0.00000E+00
    0.13033E-07        -0.79289E-11         0.00000E+00
    0.13300E-07        -0.83347E-11         0.00000E+00
    0.13571E-07        -0.87458E-11         0.00000E+00
    0.13846E-07        -0.91613E-11         0.00000E+00
    0.14124E-07        -0.95803E-11         0.00000E+00
    0.14406E-07        -0.10002E-10         0.00000E+00
    0.14691E-07        -0.10424E-10         0.00000E+00
    0.14980E-07        -0.10846E-10         0.00000E+00
    0.15270E-07        -0.11267E-10         0.00000E+00
    0.15564E-07        -0.11683E-10         0.00000E+00
    0.15859E-07        -0.12095E-10         0.00000E+00
    0.16156E-07        -0.12499E-10         0.00000E+00
    0.16455E-07        -0.12894E-10         0.00000E+00
    0.16756E-07        -0.13277E-10         0.00000E+00
    0.17057E-07        -0.13645E-10         0.00000E+00
    0.17358E-07        -0.13997E-10         0.00000E+00
    0.17660E-07        -0.14329E-10         0.00000E+00
    0.17962E-07        -0.14637E-10         0.00000E+00
    0.18263E-07        -0.14920E-10         0.00000E+00
    0.18564E-07        -0.15172E-10         0.00000E+00
    0.18863E-07        -0.15390E-10         0.00000E+00
    0.19160E-07        -0.15571E-10         0.00000E+00
    0.19455E-07        -0.15709E-10         0.00000E+00
    0.19747E-07        -0.15800E-10         0.00000E+00
    0.20037E-07        -0.15839E-10         0.00000E+00
    0.20322E-07        -0.15820E-10         0.00000E+00
    0.20604E-07        -0.15737E-10         0.00000E+00
    0.20881E-07        -0.15582E-10         0.00000E+00
    0.21153E-07        -0.15350E-10         0.00000E+00
    0.21420E-07        -0.15031E-10         0.00000E+00
    0.21680E-07        -0.14616E-10         0.00000E+00
    0.21934E-07        -0.14096E-10         0.00000E+00
    0.22181E-07        -0.13458E-10         0.00000E+00
    0.22419E-07        -0.12692E-10         0.00000E+00
    0.22650E-07        -0.11782E-10         0.00000E+00
    0.22872E-07        -0.10714E-10         0.00000E+00
    0.23084E-07        -0.94729E-11         0.00000E+00
    0.23287E-07        -0.80409E-11         0.00000E+00
    0.23479E-07        -0.64015E-11         0.00000E+00
    0.23660E-07        -0.45385E-11         0.00000E+00
    0.23830E-07        -0.24384E-11         0.00000E+00
    0.23987E-07        -0.92364E-13         0.00000E+00
    0.24133E-07         0.25002E-11         0.00000E+00
    0.24265E-07         0.53264E-11         0.00000E+00
    0.24384E-07         0.83531E-11         0.00000E+00
    0.24489E-07         0.11517E-10         0.00000E+00
    0.24580E-07         0.14713E-10         0.00000E+00
    0.24657E-07         0.17776E-10         0.00000E+00
    0.24720E-07         0.20458E-10         0.00000E+00
    0.24768E-07         0.22411E-10         0.00000E+00
    0.24803E-07         0.23155E-10         0.00000E+00
    0.24824E-07         0.22064E-10         0.00000E+00
    0.24831E-07         0.18381E-10         0.00000E+00
    0.24827E-07         0.11276E-10         0.00000E+00
    0.24821E-07        -0.40139E-21         0.00000E+00
    0.68639E-08         0.00000E+00         0.00000E+00
    0.68596E-08         0.64873E-11         0.00000E+00
    0.68538E-08         0.10725E-10         0.00000E+00
    0.68540E-08         0.13136E-10         0.00000E+00
    0.68607E-08         0.14171E-10         0.00000E+00
    0.68740E-08         0.14238E-10         0.00000E+00
    0.68942E-08         0.13667E-10         0.00000E+00
    0.69214E-08         0.12710E-10         0.00000E+00
    0.69556E-08         0.11547E-10         0.00000E+00
    0.69970E-08         0.10303E-10         0.00000E+00
    0.70454E-08         0.90598E-11         0.00000E+00
    0.71010E-08         0.78679E-11         0.00000E+00
    0.71636E-08         0.67561E-11         0.00000E+00
    0.72331E-08         0.57380E-11         0.00000E+00
    0.73096E-08         0.48172E-11         0.00000E+00
    0.73928E-08         0.39908E-11         0.00000E+00
    0.74829E-08         0.32521E-11         0.00000E+00
    0.75797E-08         0.25924E-11         0.00000E+00
    0.76831E-08         0.20022E-11         0.00000E+00
    0.77932E-08         0.14719E-11         0.00000E+00
    0.79097E-08         0.99251E-12         0.00000E+00
    0.80327E-08         0.55549E-12         0.00000E+00
    0.81621E-08         0.15328E-12         0.00000E+00
    0.82979E-08        -0.22085E-12         0.00000E+00
    0.84400E-08        -0.57277E-12         0.00000E+00
    0.85883E-08        -0.90760E-12         0.00000E+00
    0.87429E-08        -0.12297E-11         0.00000E+00
    0.89036E-08        -0.15428E-11         0.00000E+00
    0.90703E-08        -0.18501E-11         0.00000E+00
    0.92431E-08        -0.21543E-11         0.00000E+00
    0.94219E-08        -0.24576E-11         0.00000E+00
    0.96066E-08        -0.27621E-11         0.00000E+00
    0.97972E-08        -0.30692E-11         0.00000E+00
    0.99936E-08        -0.33804E-11         0.00000E+00
    0.10196E-07        -0.36968E-11         0.00000E+00
    0.10403E-07        -0.40192E-11         0.00000E+00
    0.10617E-07        -0.43484E-11         0.00000E+00
    0.10835E-07        -0.46850E-11         0.00000E+00
    0.11059E-07        -0.50294E-11         0.00000E+00
    0.11289E-07        -0.53820E-11         0.00000E+00
    0.11523E-07        -0.57428E-11         0.00000E+00
    0.11763E-07        -0.61119E-11         0.00000E+00
    0.12008E-07        -0.64894E-11         0.00000E+00
    0.12257E-07        -0.68749E-11         0.00000E+00
    0.12511E-07        -0.72682E-11         0.00000E+00
    0.12770E-07        -0.76690E-11         0.00000E+00
    0.13032E-07        -0.80766E-11         0.00000E+00
    0.13300E-07        -0.84905E-11         0.00000E+00
    0.13571E-07        -0.89098E-11         0.00000E+00
    0.13846E-07        -0.93338E-11         0.00000E+00
    0.14124E-07        -0.97614E-11         0.00000E+00
    0.14406E-07        -0.10192E-10         0.00000E+00
    0.14691E-07        -0.10623E-10         0.00000E+00
    0.14980E-07        -0.11054E-10         0.00000E+00
    0.15270E-07        -0.11483E-10         0.00000E+00
    0.15564E-07        -0.11909E-10         0.00000E+00
    0.15859E-07        -0.12330E-10         0.00000E+00
    0.16156E-07        -0.12743E-10         0.00000E+00
    0.16455E-07        -0.13147E-10         0.00000E+00
    0.16755E-07        -0.13539E-10         0.00000E+00
    0.17057E-07        -0.13916E-10         0.00000E+00
    0.17358E-07        -0.14276E-10         0.00000E+00
    0.17660E-07        -0.14616E-10         0.00000E+00
    0.17962E-07        -0.14933E-10         0.00000E+00
    0.18263E-07        -0.15223E-10         0.00000E+00
    0.18564E-07        -0.15482E-10         0.00000E+00
    0.18863E-07        -0.15708E-10         0.00000E+00
    0.19160E-07        -0.15894E-10         0.00000E+00
    0.19455E-07        -0.16038E-10         0.00000E+00
    0.19747E-07        -0.16134E-10         0.00000E+00
    0.20037E-07        -0.16177E-10         0.00000E+00
    0.20322E-07        -0.16162E-10         0.00000E+00
    0.20604E-07        -0.16080E-10         0.00000E+00
    0.20881E-07        -0.15927E-10         0.00000E+00
    0.21153E-07        -0.15695E-10         0.00000E+00
    0.21420E-07        -0.15374E-10         0.00000E+00
    0.21680E-07        -0.14956E-10         0.00000E+00
    0.21934E-07        -0.14430E-10         0.00000E+00
    0.22181E-07        -0.13785E-10         0.00000E+00
    0.22420E-07        -0.13008E-10         0.00000E+00
    0.22650E-07        -0.12086E-10         0.00000E+00
    0.22872E-07        -0.11002E-10         0.00000E+00
    0.23085E-07        -0.97398E-11         0.00000E+00
    0.23287E-07        -0.82829E-11         0.00000E+00
    0.23479E-07        -0.66133E-11         0.00000E+00
    0.23660E-07        -0.47142E-11         0.00000E+00
    0.23830E-07        -0.25713E-11         0.00000E+00
    0.23988E-07        -0.17502E-12         0.00000E+00
    0.24133E-07         0.24757E-11         0.00000E+00
    0.24265E-07         0.53683E-11         0.00000E+00
    0.24384E-07         0.84697E-11         0.00000E+00
    0.24490E-07         0.11716E-10         0.00000E+00
    0.24581E-07         0.14998E-10         0.00000E+00
    0.24658E-07         0.18148E-10         0.00000E+00
    0.24720E-07         0.20911E-10         0.00000E+00
    0.24769E-07         0.22927E-10         0.00000E+00
    0.24803E-07         0.23701E-10         0.00000E+00
    0.24823E-07         0.22588E-10         0.00000E+00
    0.24830E-07         0.18811E-10         0.00000E+00
    0.24825E-07         0.11531E-10         0.00000E+00
    0.24819E-07         0.00000E+00         0.00000E+00
    0.68652E-08         0.00000E+00         0.00000E+00
    0.68606E-08         0.66078E-11         0.00000E+00
    0.68544E-08         0.10928E-10         0.00000E+00
    0.68544E-08         0.13384E-10         0.00000E+00
    0.68608E-08         0.14433E-10         0.00000E+00
    0.68739E-08         0.14492E-10         0.00000E+00
    0.68940E-08         0.13899E-10         0.00000E+00
    0.69211E-08         0.12914E-10         0.00000E+00
    0.69554E-08         0.11720E-10         0.00000E+00
    0.69967E-08         0.10446E-10         0.00000E+00
    0.70452E-08         0.91752E-11         0.00000E+00
    0.71008E-08         0.79588E-11         0.00000E+00
    0.71633E-08         0.68258E-11         0.00000E+00
    0.72329E-08         0.57898E-11         0.00000E+00
    0.73094E-08         0.48540E-11         0.00000E+00
    0.73927E-08         0.40152E-11         0.00000E+00
    0.74828E-08         0.32664E-11         0.00000E+00
    0.75796E-08         0.25984E-11         0.00000E+00
    0.76830E-08         0.20015E-11         0.00000E+00
    0.77931E-08         0.14657E-11         0.00000E+00
    0.79096E-08         0.98165E-12         0.00000E+00
    0.80326E-08         0.54070E-12         0.00000E+00
    0.81621E-08         0.13506E-12         0.00000E+00
    0.82978E-08        -0.24217E-12         0.00000E+00
    0.84399E-08        -0.59698E-12         0.00000E+00
    0.85883E-08        -0.93458E-12         0.00000E+00
    0.87428E-08        -0.12594E-11         0.00000E+00
    0.89035E-08        -0.15753E-11         0.00000E+00
    0.90703E-08        -0.18855E-11         0.00000E+00
    0.92431E-08        -0.21927E-11         0.00000E+00
    0.94219E-08        -0.24992E-11         0.00000E+00
    0.96066E-08        -0.28070E-11         0.00000E+00
    0.97971E-08        -0.31176E-11         0.00000E+00
    0.99935E-08        -0.34326E-11         0.00000E+00
    0.10196E-07        -0.37529E-11         0.00000E+00
    0.10403E-07        -0.40794E-11         0.00000E+00
    0.10617E-07        -0.44130E-11         0.00000E+00
    0.10835E-07        -0.47543E-11         0.00000E+00
    0.11059E-07        -0.51035E-11         0.00000E+00
    0.11289E-07        -0.54611E-11         0.00000E+00
    0.11523E-07        -0.58272E-11         0.00000E+00
    0.11763E-07        -0.62019E-11         0.00000E+00
    0.12008E-07        -0.65851E-11         0.00000E+00
    0.12257E-07        -0.69765E-11         0.00000E+00
    0.12511E-07        -0.73760E-11         0.00000E+00
    0.12769E-07        -0.77831E-11         0.00000E+00
    0.13032E-07        -0.81973E-11         0.00000E+00
    0.13300E-07        -0.86179E-11         0.00000E+00
    0.13571E-07        -0.90442E-11         0.00000E+00
    0.13846E-07        -0.94752E-11         0.00000E+00
    0.14124E-07        -0.99101E-11         0.00000E+00
    0.14406E-07        -0.10348E-10         0.00000E+00
    0.14691E-07        -0.10786E-10         0.00000E+00
    0.14979E-07        -0.11225E-10         0.00000E+00
    0.15270E-07        -0.11662E-10         0.00000E+00
    0.15564E-07        -0.12096E-10         0.00000E+00
    0.15859E-07        -0.12524E-10         0.00000E+00
    0.16156E-07        -0.12945E-10         0.00000E+00
    0.16455E-07        -0.13356E-10         0.00000E+00
    0.16755E-07        -0.13756E-10         0.00000E+00
    0.17056E-07        -0.14141E-10         0.00000E+00
    0.17358E-07        -0.14508E-10         0.00000E+00
    0.17660E-07        -0.14856E-10         0.00000E+00
    0.17962E-07        -0.15179E-10         0.00000E+00
    0.18263E-07        -0.15476E-10         0.00000E+00
    0.18563E-07        -0.15742E-10         0.00000E+00
    0.18862E-07        -0.15974E-10         0.00000E+00
    0.19160E-07        -0.16166E-10         0.00000E+00
    0.19455E-07        -0.16316E-10         0.00000E+00
    0.19747E-07        -0.16417E-10         0.00000E+00
    0.20037E-07        -0.16464E-10         0.00000E+00
    0.20322E-07        -0.16451E-10         0.00000E+00
    0.20604E-07        -0.16373E-10         0.00000E+00
    0.20881E-07        -0.16222E-10         0.00000E+00
    0.21153E-07        -0.15990E-10         0.00000E+00
    0.21420E-07        -0.15669E-10         0.00000E+00
    0.21680E-07        -0.15249E-10         0.00000E+00
    0.21934E-07        -0.14720E-10         0.00000E+00
    0.22181E-07        -0.14070E-10         0.00000E+00
    0.22420E-07        -0.13286E-10         0.00000E+00
    0.22650E-07        -0.12354E-10         0.00000E+00
    0.22872E-07        -0.11257E-10         0.00000E+00
    0.23085E-07        -0.99795E-11         0.00000E+00
    0.23287E-07        -0.85029E-11         0.00000E+00
    0.23480E-07        -0.68090E-11         0.00000E+00
    0.23661E-07        -0.48804E-11         0.00000E+00
    0.23831E-07        -0.27021E-11         0.00000E+00
    0.23988E-07        -0.26370E-12         0.00000E+00
    0.24134E-07         0.24364E-11         0.00000E+00
    0.24266E-07         0.53863E-11         0.00000E+00
    0.24385E-07         0.85526E-11         0.00000E+00
    0.24490E-07         0.11871E-10         0.00000E+00
    0.24581E-07         0.15231E-10         0.00000E+00
    0.24658E-07         0.18460E-10         0.00000E+00
    0.24721E-07         0.21299E-10         0.00000E+00
    0.24769E-07         0.23377E-10         0.00000E+00
    0.24803E-07         0.24185E-10         0.00000E+00
    0.24823E-07         0.23060E-10         0.00000E+00
    0.24829E-07         0.19206E-10         0.00000E+00
    0.24823E-07         0.11770E-10         0.00000E+00
    0.24817E-07         0.00000E+00         0.00000E+00
    0.68666E-08         0.00000E+00         0.00000E+00
    0.68617E-08         0.67181E-11         0.00000E+00
    0.68551E-08         0.11109E-10         0.00000E+00
    0.68547E-08         0.13600E-10         0.00000E+00
    0.68609E-08         0.14656E-10         0.00000E+00
    0.68739E-08         0.14703E-10         0.00000E+00
    0.68939E-08         0.14088E-10         0.00000E+00
    0.69209E-08         0.13075E-10         0.00000E+00
    0.69551E-08         0.11853E-10         0.00000E+00
    0.69965E-08         0.10553E-10         0.00000E+00
    0.70449E-08         0.92580E-11         0.00000E+00
    0.71005E-08         0.80209E-11         0.00000E+00
    0.71631E-08         0.68704E-11         0.00000E+00
    0.72327E-08         0.58199E-11         0.00000E+00
    0.73092E-08         0.48724E-11         0.00000E+00
    0.73925E-08         0.40242E-11         0.00000E+00
    0.74826E-08         0.32679E-11         0.00000E+00
    0.75795E-08         0.25941E-11         0.00000E+00
    0.76829E-08         0.19926E-11         0.00000E+00
    0.77930E-08         0.14532E-11         0.00000E+00
    0.79095E-08         0.96629E-12         0.00000E+00
    0.80325E-08         0.52302E-12         0.00000E+00
    0.81620E-08         0.11543E-12         0.00000E+00
    0.82978E-08        -0.26350E-12         0.00000E+00
    0.84399E-08        -0.61991E-12         0.00000E+00
    0.85882E-08        -0.95906E-12         0.00000E+00
    0.87428E-08        -0.12855E-11         0.00000E+00
    0.89034E-08        -0.16030E-11         0.00000E+00
    0.90702E-08        -0.19150E-11         0.00000E+00
    0.92430E-08        -0.22241E-11         0.00000E+00
    0.94218E-08        -0.25327E-11         0.00000E+00
    0.96065E-08        -0.28428E-11         0.00000E+00
    0.97971E-08        -0.31559E-11         0.00000E+00
    0.99934E-08        -0.34735E-11         0.00000E+00
    0.10195E-07        -0.37966E-11         0.00000E+00
    0.10403E-07        -0.41263E-11         0.00000E+00
    0.10616E-07        -0.44631E-11         0.00000E+00
    0.10835E-07        -0.48078E-11         0.00000E+00
    0.11059E-07        -0.51608E-11         0.00000E+00
    0.11289E-07        -0.55222E-11         0.00000E+00
    0.11523E-07        -0.58924E-11         0.00000E+00
    0.11763E-07        -0.62714E-11         0.00000E+00
    0.12007E-07        -0.66590E-11         0.00000E+00
    0.12257E-07        -0.70551E-11         0.00000E+00
    0.12511E-07        -0.74595E-11         0.00000E+00
    0.12769E-07        -0.78716E-11         0.00000E+00
    0.13032E-07        -0.82910E-11         0.00000E+00
    0.13299E-07        -0.87170E-11         0.00000E+00
    0.13571E-07        -0.91488E-11         0.00000E+00
    0.13845E-07        -0.95855E-11         0.00000E+00
    0.14124E-07        -0.10026E-10         0.00000E+00
    0.14406E-07        -0.10470E-10         0.00000E+00
    0.14691E-07        -0.10914E-10         0.00000E+00
    0.14979E-07        -0.11359E-10         0.00000E+00
    0.15270E-07        -0.11802E-10         0.00000E+00
    0.15563E-07        -0.12242E-10         0.00000E+00
    0.15859E-07        -0.12677E-10         0.00000E+00
    0.16156E-07        -0.13105E-10         0.00000E+00
    0.16455E-07        -0.13522E-10         0.00000E+00
    0.16755E-07        -0.13928E-10         0.00000E+00
    0.17056E-07        -0.14320E-10         0.00000E+00
    0.17358E-07        -0.14693E-10         0.00000E+00
    0.17660E-07        -0.15047E-10         0.00000E+00
    0.17962E-07        -0.15377E-10         0.00000E+00
    0.18263E-07        -0.15680E-10         0.00000E+00
    0.18563E-07        -0.15951E-10         0.00000E+00
    0.18862E-07        -0.16189E-10         0.00000E+00
    0.19160E-07        -0.16387E-10         0.00000E+00
    0.19455E-07        -0.16541E-10         0.00000E+00
    0.19747E-07        -0.16646E-10         0.00000E+00
    0.20037E-07        -0.16698E-10         0.00000E+00
    0.20322E-07        -0.16689E-10         0.00000E+00
    0.20604E-07        -0.16614E-10         0.00000E+00
    0.20881E-07        -0.16465E-10         0.00000E+00
    0.21153E-07        -0.16235E-10         0.00000E+00
    0.21420E-07        -0.15915E-10         0.00000E+00
    0.21680E-07        -0.15495E-10         0.00000E+00
    0.21934E-07        -0.14964E-10         0.00000E+00
    0.22181E-07        -0.14312E-10         0.00000E+00
    0.22420E-07        -0.13524E-10         0.00000E+00
    0.22651E-07        -0.12585E-10         0.00000E+00
    0.22873E-07        -0.11480E-10         0.00000E+00
    0.23085E-07        -0.10191E-10         0.00000E+00
    0.23288E-07        -0.87001E-11         0.00000E+00
    0.23480E-07        -0.69879E-11         0.00000E+00
    0.23661E-07        -0.50365E-11         0.00000E+00
    0.23831E-07        -0.28301E-11         0.00000E+00
    0.23989E-07        -0.35779E-12         0.00000E+00
    0.24134E-07         0.23829E-11         0.00000E+00
    0.24267E-07         0.53804E-11         0.00000E+00
    0.24386E-07         0.86019E-11         0.00000E+00
    0.24491E-07         0.11982E-10         0.00000E+00
    0.24582E-07         0.15411E-10         0.00000E+00
    0.24659E-07         0.18712E-10         0.00000E+00
    0.24721E-07         0.21621E-10         0.00000E+00
    0.24769E-07         0.23760E-10         0.00000E+00
    0.24803E-07         0.24607E-10         0.00000E+00
    0.24822E-07         0.23481E-10         0.00000E+00
    0.24828E-07         0.19566E-10         0.00000E+00
    0.24821E-07         0.11993E-10         0.00000E+00
    0.24814E-07         0.00000E+00         0.00000E+00
    0.68679E-08         0.00000E+00         0.00000E+00
    0.68629E-08         0.68181E-11         0.00000E+00
    0.68558E-08         0.11268E-10         0.00000E+00
    0.68551E-08         0.13784E-10         0.00000E+00
    0.68610E-08         0.14840E-10         0.00000E+00
    0.68738E-08         0.14871E-10         0.00000E+00
    0.68937E-08         0.14232E-10         0.00000E+00
    0.69207E-08         0.13193E-10         0.00000E+00
    0.69549E-08         0.11946E-10         0.00000E+00
    0.69962E-08         0.10623E-10         0.00000E+00
    0.70447E-08         0.93082E-11         0.00000E+00
    0.71003E-08         0.80543E-11         0.00000E+00
    0.71629E-08         0.68901E-11         0.00000E+00
    0.72325E-08         0.58287E-11         0.00000E+00
    0.73090E-08         0.48726E-11         0.00000E+00
    0.73924E-08         0.40179E-11         0.00000E+00
    0.74825E-08         0.32569E-11         0.00000E+00
    0.75793E-08         0.25796E-11         0.00000E+00
    0.76828E-08         0.19757E-11         0.00000E+00
    0.77929E-08         0.14346E-11         0.00000E+00
    0.79094E-08         0.94665E-12         0.00000E+00
    0.80325E-08         0.50268E-12         0.00000E+00
    0.81619E-08         0.94614E-13         0.00000E+00
    0.82977E-08        -0.28468E-12         0.00000E+00
    0.84398E-08        -0.64140E-12         0.00000E+00
    0.85881E-08        -0.98090E-12         0.00000E+00
    0.87427E-08        -0.13078E-11         0.00000E+00
    0.89034E-08        -0.16259E-11         0.00000E+00
    0.90701E-08        -0.19385E-11         0.00000E+00
    0.92430E-08        -0.22485E-11         0.00000E+00
    0.94217E-08        -0.25581E-11         0.00000E+00
    0.96065E-08        -0.28694E-11         0.00000E+00
    0.97970E-08        -0.31839E-11         0.00000E+00
    0.99934E-08        -0.35031E-11         0.00000E+00
    0.10195E-07        -0.38280E-11         0.00000E+00
    0.10403E-07        -0.41596E-11         0.00000E+00
    0.10616E-07        -0.44987E-11         0.00000E+00
    0.10835E-07        -0.48457E-11         0.00000E+00
    0.11059E-07        -0.52012E-11         0.00000E+00
    0.11289E-07        -0.55653E-11         0.00000E+00
    0.11523E-07        -0.59384E-11         0.00000E+00
    0.11763E-07        -0.63204E-11         0.00000E+00
    0.12007E-07        -0.67112E-11         0.00000E+00
    0.12257E-07        -0.71108E-11         0.00000E+00
    0.12511E-07        -0.75186E-11         0.00000E+00
    0.12769E-07        -0.79345E-11         0.00000E+00
    0.13032E-07        -0.83577E-11         0.00000E+00
    0.13299E-07        -0.87877E-11         0.00000E+00
    0.13570E-07        -0.92236E-11         0.00000E+00
    0.13845E-07        -0.96646E-11         0.00000E+00
    0.14124E-07        -0.10110E-10         0.00000E+00
    0.14406E-07        -0.10558E-10         0.00000E+00
    0.14691E-07        -0.11007E-10         0.00000E+00
    0.14979E-07        -0.11457E-10         0.00000E+00
    0.15270E-07        -0.11905E-10         0.00000E+00
    0.15563E-07        -0.12350E-10         0.00000E+00
    0.15859E-07        -0.12789E-10         0.00000E+00
    0.16156E-07        -0.13222E-10         0.00000E+00
    0.16455E-07        -0.13645E-10         0.00000E+00
    0.16755E-07        -0.14056E-10         0.00000E+00
    0.17056E-07        -0.14452E-10         0.00000E+00
    0.17358E-07        -0.14831E-10         0.00000E+00
    0.17660E-07        -0.15190E-10         0.00000E+00
    0.17962E-07        -0.15525E-10         0.00000E+00
    0.18263E-07        -0.15833E-10         0.00000E+00
    0.18563E-07        -0.16110E-10         0.00000E+00
    0.18862E-07        -0.16352E-10         0.00000E+00
    0.19160E-07        -0.16554E-10         0.00000E+00
    0.19455E-07        -0.16713E-10         0.00000E+00
    0.19747E-07        -0.16823E-10         0.00000E+00
    0.20037E-07        -0.16879E-10         0.00000E+00
    0.20322E-07        -0.16874E-10         0.00000E+00
    0.20604E-07        -0.16802E-10         0.00000E+00
    0.20881E-07        -0.16657E-10         0.00000E+00
    0.21154E-07        -0.16429E-10         0.00000E+00
    0.21420E-07        -0.16111E-10         0.00000E+00
    0.21681E-07        -0.15693E-10         0.00000E+00
    0.21934E-07        -0.15163E-10         0.00000E+00
    0.22181E-07        -0.14510E-10         0.00000E+00
    0.22420E-07        -0.13721E-10         0.00000E+00
    0.22651E-07        -0.12779E-10         0.00000E+00
    0.22873E-07        -0.11670E-10         0.00000E+00
    0.23085E-07        -0.10374E-10         0.00000E+00
    0.23288E-07        -0.88737E-11         0.00000E+00
    0.23480E-07        -0.71491E-11         0.00000E+00
    0.23662E-07        -0.51816E-11         0.00000E+00
    0.23832E-07        -0.29546E-11         0.00000E+00
    0.23989E-07        -0.45664E-12         0.00000E+00
    0.24135E-07         0.23156E-11         0.00000E+00
    0.24267E-07         0.53512E-11         0.00000E+00
    0.24386E-07         0.86178E-11         0.00000E+00
    0.24492E-07         0.12051E-10         0.00000E+00
    0.24583E-07         0.15538E-10         0.00000E+00
    0.24660E-07         0.18903E-10         0.00000E+00
    0.24722E-07         0.21877E-10         0.00000E+00
    0.24770E-07         0.24076E-10         0.00000E+00
    0.24803E-07         0.24965E-10         0.00000E+00
    0.24822E-07         0.23850E-10         0.00000E+00
    0.24827E-07         0.19892E-10         0.00000E+00
    0.24819E-07         0.12201E-10         0.00000E+00
    0.24812E-07         0.00000E+00         0.00000E+00
    0.68693E-08         0.00000E+00         0.00000E+00
    0.68640E-08         0.69080E-11         0.00000E+00
    0.68565E-08         0.11405E-10         0.00000E+00
    0.68554E-08         0.13935E-10         0.00000E+00
    0.68611E-08         0.14983E-10         0.00000E+00
    0.68738E-08         0.14995E-10         0.00000E+00
    0.68935E-08         0.14332E-10         0.00000E+00
    0.69205E-08         0.13269E-10         0.00000E+00
    0.69546E-08         0.12000E-10         0.00000E+00
    0.69959E-08         0.10657E-10         0.00000E+00
    0.70444E-08         0.93260E-11         0.00000E+00
    0.71000E-08         0.80592E-11         0.00000E+00
    0.71627E-08         0.68850E-11         0.00000E+00
    0.72323E-08         0.58162E-11         0.00000E+00
    0.73088E-08         0.48549E-11         0.00000E+00
    0.73922E-08         0.39968E-11         0.00000E+00
    0.74823E-08         0.32336E-11         0.00000E+00
    0.75792E-08         0.25553E-11         0.00000E+00
    0.76827E-08         0.19511E-11         0.00000E+00
    0.77927E-08         0.14103E-11         0.00000E+00
    0.79093E-08         0.92300E-12         0.00000E+00
    0.80324E-08         0.47989E-12         0.00000E+00
    0.81618E-08         0.72798E-13         0.00000E+00
    0.82976E-08        -0.30551E-12         0.00000E+00
    0.84397E-08        -0.66130E-12         0.00000E+00
    0.85881E-08        -0.99998E-12         0.00000E+00
    0.87426E-08        -0.13261E-11         0.00000E+00
    0.89033E-08        -0.16437E-11         0.00000E+00
    0.90701E-08        -0.19560E-11         0.00000E+00
    0.92429E-08        -0.22658E-11         0.00000E+00
    0.94217E-08        -0.25754E-11         0.00000E+00
    0.96064E-08        -0.28869E-11         0.00000E+00
    0.97970E-08        -0.32017E-11         0.00000E+00
    0.99933E-08        -0.35215E-11         0.00000E+00
    0.10195E-07        -0.38471E-11         0.00000E+00
    0.10403E-07        -0.41796E-11         0.00000E+00
    0.10616E-07        -0.45197E-11         0.00000E+00
    0.10835E-07        -0.48679E-11         0.00000E+00
    0.11059E-07        -0.52247E-11         0.00000E+00
    0.11289E-07        -0.55904E-11         0.00000E+00
    0.11523E-07        -0.59652E-11         0.00000E+00
    0.11763E-07        -0.63490E-11         0.00000E+00
    0.12007E-07        -0.67418E-11         0.00000E+00
    0.12257E-07        -0.71434E-11         0.00000E+00
    0.12511E-07        -0.75535E-11         0.00000E+00
    0.12769E-07        -0.79717E-11         0.00000E+00
    0.13032E-07        -0.83974E-11         0.00000E+00
    0.13299E-07        -0.88300E-11         0.00000E+00
    0.13570E-07        -0.92687E-11         0.00000E+00
    0.13845E-07        -0.97126E-11         0.00000E+00
    0.14124E-07        -0.10161E-10         0.00000E+00
    0.14406E-07        -0.10612E-10         0.00000E+00
    0.14691E-07        -0.11064E-10         0.00000E+00
    0.14979E-07        -0.11517E-10         0.00000E+00
    0.15270E-07        -0.11969E-10         0.00000E+00
    0.15563E-07        -0.12417E-10         0.00000E+00
    0.15859E-07        -0.12861E-10         0.00000E+00
    0.16156E-07        -0.13297E-10         0.00000E+00
    0.16455E-07        -0.13724E-10         0.00000E+00
    0.16755E-07        -0.14139E-10         0.00000E+00
    0.17056E-07        -0.14539E-10         0.00000E+00
    0.17358E-07        -0.14922E-10         0.00000E+00
    0.17660E-07        -0.15285E-10         0.00000E+00
    0.17962E-07        -0.15624E-10         0.00000E+00
    0.18263E-07        -0.15936E-10         0.00000E+00
    0.18563E-07        -0.16217E-10         0.00000E+00
    0.18862E-07        -0.16463E-10         0.00000E+00
    0.19160E-07        -0.16670E-10         0.00000E+00
    0.19455E-07        -0.16833E-10         0.00000E+00
    0.19747E-07        -0.16947E-10         0.00000E+00
    0.20037E-07        -0.17006E-10         0.00000E+00
    0.20322E-07        -0.17006E-10         0.00000E+00
    0.20604E-07        -0.16938E-10         0.00000E+00
    0.20881E-07        -0.16796E-10         0.00000E+00
    0.21154E-07        -0.16572E-10         0.00000E+00
    0.21420E-07        -0.16258E-10         0.00000E+00
    0.21681E-07        -0.15842E-10         0.00000E+00
    0.21935E-07        -0.15315E-10         0.00000E+00
    0.22181E-07        -0.14665E-10         0.00000E+00
    0.22420E-07        -0.13876E-10         0.00000E+00
    0.22651E-07        -0.12936E-10         0.00000E+00
    0.22873E-07        -0.11825E-10         0.00000E+00
    0.23086E-07        -0.10527E-10         0.00000E+00
    0.23288E-07        -0.90228E-11         0.00000E+00
    0.23481E-07        -0.72917E-11         0.00000E+00
    0.23662E-07        -0.53147E-11         0.00000E+00
    0.23832E-07        -0.30748E-11         0.00000E+00
    0.23990E-07        -0.55950E-12         0.00000E+00
    0.24135E-07         0.22352E-11         0.00000E+00
    0.24268E-07         0.52991E-11         0.00000E+00
    0.24387E-07         0.86006E-11         0.00000E+00
    0.24492E-07         0.12075E-10         0.00000E+00
    0.24583E-07         0.15612E-10         0.00000E+00
    0.24660E-07         0.19032E-10         0.00000E+00
    0.24722E-07         0.22066E-10         0.00000E+00
    0.24770E-07         0.24322E-10         0.00000E+00
    0.24803E-07         0.25259E-10         0.00000E+00
    0.24821E-07         0.24165E-10         0.00000E+00
    0.24826E-07         0.20182E-10         0.00000E+00
    0.24817E-07         0.12393E-10         0.00000E+00
    0.24809E-07         0.00000E+00         0.00000E+00
    0.68707E-08         0.00000E+00         0.00000E+00
    0.68651E-08         0.69875E-11         0.00000E+00
    0.68572E-08         0.11520E-10         0.00000E+00
    0.68558E-08         0.14053E-10         0.00000E+00
    0.68612E-08         0.15086E-10         0.00000E+00
    0.68737E-08         0.15075E-10         0.00000E+00
    0.68934E-08         0.14388E-10         0.00000E+00
    0.69202E-08         0.13302E-10         0.00000E+00
    0.69543E-08         0.12013E-10         0.00000E+00
    0.69957E-08         0.10655E-10         0.00000E+00
    0.70442E-08         0.93115E-11         0.00000E+00
    0.70998E-08         0.80358E-11         0.00000E+00
    0.71625E-08         0.68556E-11         0.00000E+00
    0.72321E-08         0.57830E-11         0.00000E+00
    0.73087E-08         0.48198E-11         0.00000E+00
    0.73920E-08         0.39611E-11         0.00000E+00
    0.74822E-08         0.31985E-11         0.00000E+00
    0.75791E-08         0.25215E-11         0.00000E+00
    0.76826E-08         0.19191E-11         0.00000E+00
    0.77926E-08         0.13806E-11         0.00000E+00
    0.79092E-08         0.89559E-12         0.00000E+00
    0.80323E-08         0.45490E-12         0.00000E+00
    0.81617E-08         0.50199E-13         0.00000E+00
    0.82976E-08        -0.32581E-12         0.00000E+00
    0.84397E-08        -0.67945E-12         0.00000E+00
    0.85880E-08        -0.10161E-11         0.00000E+00
    0.87426E-08        -0.13405E-11         0.00000E+00
    0.89032E-08        -0.16565E-11         0.00000E+00
    0.90700E-08        -0.19673E-11         0.00000E+00
    0.92428E-08        -0.22759E-11         0.00000E+00
    0.94216E-08        -0.25845E-11         0.00000E+00
    0.96063E-08        -0.28951E-11         0.00000E+00
    0.97969E-08        -0.32093E-11         0.00000E+00
    0.99932E-08        -0.35285E-11         0.00000E+00
    0.10195E-07        -0.38538E-11         0.00000E+00
    0.10403E-07        -0.41861E-11         0.00000E+00
    0.10616E-07        -0.45261E-11         0.00000E+00
    0.10835E-07        -0.48744E-11         0.00000E+00
    0.11059E-07        -0.52315E-11         0.00000E+00
    0.11288E-07        -0.55975E-11         0.00000E+00
    0.11523E-07        -0.59727E-11         0.00000E+00
    0.11763E-07        -0.63571E-11         0.00000E+00
    0.12007E-07        -0.67506E-11         0.00000E+00
    0.12257E-07        -0.71530E-11         0.00000E+00
    0.12511E-07        -0.75640E-11         0.00000E+00
    0.12769E-07        -0.79833E-11         0.00000E+00
    0.13032E-07        -0.84101E-11         0.00000E+00
    0.13299E-07        -0.88440E-11         0.00000E+00
    0.13570E-07        -0.92840E-11         0.00000E+00
    0.13845E-07        -0.97294E-11         0.00000E+00
    0.14124E-07        -0.10179E-10         0.00000E+00
    0.14406E-07        -0.10632E-10         0.00000E+00
    0.14691E-07        -0.11086E-10         0.00000E+00
    0.14979E-07        -0.11541E-10         0.00000E+00
    0.15270E-07        -0.11995E-10         0.00000E+00
    0.15563E-07        -0.12445E-10         0.00000E+00
    0.15859E-07        -0.12891E-10         0.00000E+00
    0.16156E-07        -0.13329E-10         0.00000E+00
    0.16455E-07        -0.13759E-10         0.00000E+00
    0.16755E-07        -0.14176E-10         0.00000E+00
    0.17056E-07        -0.14579E-10         0.00000E+00
    0.17358E-07        -0.14965E-10         0.00000E+00
    0.17660E-07        -0.15331E-10         0.00000E+00
    0.17962E-07        -0.15673E-10         0.00000E+00
    0.18263E-07        -0.15988E-10         0.00000E+00
    0.18563E-07        -0.16272E-10         0.00000E+00
    0.18862E-07        -0.16522E-10         0.00000E+00
    0.19160E-07        -0.16732E-10         0.00000E+00
    0.19455E-07        -0.16899E-10         0.00000E+00
    0.19747E-07        -0.17017E-10         0.00000E+00
    0.20037E-07        -0.17080E-10         0.00000E+00
    0.20322E-07        -0.17084E-10         0.00000E+00
    0.20604E-07        -0.17020E-10         0.00000E+00
    0.20881E-07        -0.16883E-10         0.00000E+00
    0.21154E-07        -0.16663E-10         0.00000E+00
    0.21420E-07        -0.16353E-10         0.00000E+00
    0.21681E-07        -0.15943E-10         0.00000E+00
    0.21935E-07        -0.15420E-10         0.00000E+00
    0.22181E-07        -0.14774E-10         0.00000E+00
    0.22420E-07        -0.13990E-10         0.00000E+00
    0.22651E-07        -0.13053E-10         0.00000E+00
    0.22873E-07        -0.11945E-10         0.00000E+00
    0.23086E-07        -0.10650E-10         0.00000E+00
    0.23289E-07        -0.91464E-11         0.00000E+00
    0.23481E-07        -0.74148E-11         0.00000E+00
    0.23663E-07        -0.54351E-11         0.00000E+00
    0.23833E-07        -0.31898E-11         0.00000E+00
    0.23991E-07        -0.66554E-12         0.00000E+00
    0.24136E-07         0.21423E-11         0.00000E+00
    0.24269E-07         0.52246E-11         0.00000E+00
    0.24388E-07         0.85506E-11         0.00000E+00
    0.24493E-07         0.12057E-10         0.00000E+00
    0.24584E-07         0.15632E-10         0.00000E+00
    0.24661E-07         0.19099E-10         0.00000E+00
    0.24723E-07         0.22186E-10         0.00000E+00
    0.24770E-07         0.24499E-10         0.00000E+00
    0.24803E-07         0.25488E-10         0.00000E+00
    0.24821E-07         0.24427E-10         0.00000E+00
    0.24825E-07         0.20436E-10         0.00000E+00
    0.24815E-07         0.12569E-10         0.00000E+00
    0.24807E-07         0.00000E+00         0.00000E+00
    0.68721E-08         0.00000E+00         0.00000E+00
    0.68663E-08         0.70564E-11         0.00000E+00
    0.68579E-08         0.11611E-10         0.00000E+00
    0.68562E-08         0.14137E-10         0.00000E+00
    0.68613E-08         0.15148E-10         0.00000E+00
    0.68736E-08         0.15110E-10         0.00000E+00
    0.68932E-08         0.14398E-10         0.00000E+00
    0.69200E-08         0.13291E-10         0.00000E+00
    0.69541E-08         0.11986E-10         0.00000E+00
    0.69954E-08         0.10616E-10         0.00000E+00
    0.70439E-08         0.92650E-11         0.00000E+00
    0.70995E-08         0.79845E-11         0.00000E+00
    0.71622E-08         0.68021E-11         0.00000E+00
    0.72319E-08         0.57294E-11         0.00000E+00
    0.73085E-08         0.47675E-11         0.00000E+00
    0.73919E-08         0.39113E-11         0.00000E+00
    0.74821E-08         0.31518E-11         0.00000E+00
    0.75789E-08         0.24785E-11         0.00000E+00
    0.76825E-08         0.18801E-11         0.00000E+00
    0.77925E-08         0.13456E-11         0.00000E+00
    0.79091E-08         0.86470E-12         0.00000E+00
    0.80322E-08         0.42796E-12         0.00000E+00
    0.81617E-08         0.27036E-13         0.00000E+00
    0.82975E-08        -0.34540E-12         0.00000E+00
    0.84396E-08        -0.69568E-12         0.00000E+00
    0.85879E-08        -0.10292E-11         0.00000E+00
    0.87425E-08        -0.13507E-11         0.00000E+00
    0.89032E-08        -0.16640E-11         0.00000E+00
    0.90700E-08        -0.19724E-11         0.00000E+00
    0.92428E-08        -0.22788E-11         0.00000E+00
    0.94216E-08        -0.25853E-11         0.00000E+00
    0.96063E-08        -0.28941E-11         0.00000E+00
    0.97968E-08        -0.32066E-11         0.00000E+00
    0.99932E-08        -0.35243E-11         0.00000E+00
    0.10195E-07        -0.38481E-11         0.00000E+00
    0.10403E-07        -0.41792E-11         0.00000E+00
    0.10616E-07        -0.45180E-11         0.00000E+00
    0.10835E-07        -0.48653E-11         0.00000E+00
    0.11059E-07        -0.52214E-11         0.00000E+00
    0.11288E-07        -0.55866E-11         0.00000E+00
    0.11523E-07        -0.59611E-11         0.00000E+00
    0.11763E-07        -0.63448E-11         0.00000E+00
    0.12007E-07        -0.67377E-11         0.00000E+00
    0.12256E-07        -0.71397E-11         0.00000E+00
    0.12511E-07        -0.75503E-11         0.00000E+00
    0.12769E-07        -0.79692E-11         0.00000E+00
    0.13032E-07        -0.83959E-11         0.00000E+00
    0.13299E-07        -0.88296E-11         0.00000E+00
    0.13570E-07        -0.92696E-11         0.00000E+00
    0.13845E-07        -0.97150E-11         0.00000E+00
    0.14124E-07        -0.10165E-10         0.00000E+00
    0.14406E-07        -0.10618E-10         0.00000E+00
    0.14691E-07        -0.11073E-10         0.00000E+00
    0.14979E-07        -0.11528E-10         0.00000E+00
    0.15270E-07        -0.11982E-10         0.00000E+00
    0.15563E-07        -0.12433E-10         0.00000E+00
    0.15859E-07        -0.12880E-10         0.00000E+00
    0.16156E-07        -0.13319E-10         0.00000E+00
    0.16455E-07        -0.13750E-10         0.00000E+00
    0.16755E-07        -0.14168E-10         0.00000E+00
    0.17056E-07        -0.14573E-10         0.00000E+00
    0.17358E-07        -0.14960E-10         0.00000E+00
    0.17660E-07        -0.15328E-10         0.00000E+00
    0.17962E-07        -0.15672E-10         0.00000E+00
    0.18263E-07        -0.15989E-10         0.00000E+00
    0.18563E-07        -0.16276E-10         0.00000E+00
    0.18862E-07        -0.16528E-10         0.00000E+00
    0.19160E-07        -0.16742E-10         0.00000E+00
    0.19455E-07        -0.16912E-10         0.00000E+00
    0.19747E-07        -0.17033E-10         0.00000E+00
    0.20037E-07        -0.17100E-10         0.00000E+00
    0.20322E-07        -0.17108E-10         0.00000E+00
    0.20604E-07        -0.17049E-10         0.00000E+00
    0.20881E-07        -0.16916E-10         0.00000E+00
    0.21154E-07        -0.16702E-10         0.00000E+00
    0.21420E-07        -0.16398E-10         0.00000E+00
    0.21681E-07        -0.15993E-10         0.00000E+00
    0.21935E-07        -0.15477E-10         0.00000E+00
    0.22182E-07        -0.14837E-10         0.00000E+00
    0.22421E-07        -0.14060E-10         0.00000E+00
    0.22651E-07        -0.13130E-10         0.00000E+00
    0.22873E-07        -0.12030E-10         0.00000E+00
    0.23086E-07        -0.10741E-10         0.00000E+00
    0.23289E-07        -0.92435E-11         0.00000E+00
    0.23481E-07        -0.75173E-11         0.00000E+00
    0.23663E-07        -0.55417E-11         0.00000E+00
    0.23833E-07        -0.32985E-11         0.00000E+00
    0.23991E-07        -0.77388E-12         0.00000E+00
    0.24137E-07         0.20378E-11         0.00000E+00
    0.24269E-07         0.51284E-11         0.00000E+00
    0.24388E-07         0.84683E-11         0.00000E+00
    0.24494E-07         0.11995E-10         0.00000E+00
    0.24585E-07         0.15599E-10         0.00000E+00
    0.24662E-07         0.19104E-10         0.00000E+00
    0.24724E-07         0.22238E-10         0.00000E+00
    0.24771E-07         0.24605E-10         0.00000E+00
    0.24803E-07         0.25649E-10         0.00000E+00
    0.24820E-07         0.24633E-10         0.00000E+00
    0.24823E-07         0.20652E-10         0.00000E+00
    0.24813E-07         0.12729E-10         0.00000E+00
    0.24804E-07         0.00000E+00         0.00000E+00
    0.68735E-08         0.00000E+00         0.00000E+00
    0.68675E-08         0.71145E-11         0.00000E+00
    0.68586E-08         0.11679E-10         0.00000E+00
    0.68565E-08         0.14187E-10         0.00000E+00
    0.68614E-08         0.15168E-10         0.00000E+00
    0.68736E-08         0.15100E-10         0.00000E+00
    0.68930E-08         0.14363E-10         0.00000E+00
    0.69197E-08         0.13237E-10         0.00000E+00
    0.69538E-08         0.11919E-10         0.00000E+00
    0.69951E-08         0.10541E-10         0.00000E+00
    0.70436E-08         0.91865E-11         0.00000E+00
    0.70993E-08         0.79055E-11         0.00000E+00
    0.71620E-08         0.67249E-11         0.00000E+00
    0.72317E-08         0.56557E-11         0.00000E+00
    0.73083E-08         0.46985E-11         0.00000E+00
    0.73917E-08         0.38477E-11         0.00000E+00
    0.74819E-08         0.30941E-11         0.00000E+00
    0.75788E-08         0.24268E-11         0.00000E+00
    0.76823E-08         0.18344E-11         0.00000E+00
    0.77924E-08         0.13058E-11         0.00000E+00
    0.79091E-08         0.83063E-12         0.00000E+00
    0.80321E-08         0.39932E-12         0.00000E+00
    0.81616E-08         0.35385E-14         0.00000E+00
    0.82974E-08        -0.36406E-12         0.00000E+00
    0.84395E-08        -0.70981E-12         0.00000E+00
    0.85879E-08        -0.10391E-11         0.00000E+00
    0.87424E-08        -0.13567E-11         0.00000E+00
    0.89031E-08        -0.16663E-11         0.00000E+00
    0.90699E-08        -0.19713E-11         0.00000E+00
    0.92427E-08        -0.22744E-11         0.00000E+00
    0.94215E-08        -0.25779E-11         0.00000E+00
    0.96062E-08        -0.28838E-11         0.00000E+00
    0.97968E-08        -0.31936E-11         0.00000E+00
    0.99931E-08        -0.35087E-11         0.00000E+00
    0.10195E-07        -0.38301E-11         0.00000E+00
    0.10403E-07        -0.41588E-11         0.00000E+00
    0.10616E-07        -0.44954E-11         0.00000E+00
    0.10835E-07        -0.48406E-11         0.00000E+00
    0.11059E-07        -0.51946E-11         0.00000E+00
    0.11288E-07        -0.55578E-11         0.00000E+00
    0.11523E-07        -0.59303E-11         0.00000E+00
    0.11762E-07        -0.63121E-11         0.00000E+00
    0.12007E-07        -0.67032E-11         0.00000E+00
    0.12256E-07        -0.71034E-11         0.00000E+00
    0.12510E-07        -0.75123E-11         0.00000E+00
    0.12769E-07        -0.79296E-11         0.00000E+00
    0.13032E-07        -0.83546E-11         0.00000E+00
    0.13299E-07        -0.87868E-11         0.00000E+00
    0.13570E-07        -0.92254E-11         0.00000E+00
    0.13845E-07        -0.96694E-11         0.00000E+00
    0.14124E-07        -0.10118E-10         0.00000E+00
    0.14406E-07        -0.10570E-10         0.00000E+00
    0.14691E-07        -0.11023E-10         0.00000E+00
    0.14979E-07        -0.11478E-10         0.00000E+00
    0.15270E-07        -0.11931E-10         0.00000E+00
    0.15563E-07        -0.12381E-10         0.00000E+00
    0.15858E-07        -0.12827E-10         0.00000E+00
    0.16156E-07        -0.13266E-10         0.00000E+00
    0.16455E-07        -0.13696E-10         0.00000E+00
    0.16755E-07        -0.14115E-10         0.00000E+00
    0.17056E-07        -0.14520E-10         0.00000E+00
    0.17358E-07        -0.14908E-10         0.00000E+00
    0.17660E-07        -0.15276E-10         0.00000E+00
    0.17961E-07        -0.15621E-10         0.00000E+00
    0.18263E-07        -0.15939E-10         0.00000E+00
    0.18563E-07        -0.16228E-10         0.00000E+00
    0.18862E-07        -0.16482E-10         0.00000E+00
    0.19160E-07        -0.16697E-10         0.00000E+00
    0.19455E-07        -0.16870E-10         0.00000E+00
    0.19747E-07        -0.16995E-10         0.00000E+00
    0.20037E-07        -0.17066E-10         0.00000E+00
    0.20322E-07        -0.17077E-10         0.00000E+00
    0.20604E-07        -0.17023E-10         0.00000E+00
    0.20882E-07        -0.16896E-10         0.00000E+00
    0.21154E-07        -0.16688E-10         0.00000E+00
    0.21420E-07        -0.16390E-10         0.00000E+00
    0.21681E-07        -0.15993E-10         0.00000E+00
    0.21935E-07        -0.15485E-10         0.00000E+00
    0.22182E-07        -0.14854E-10         0.00000E+00
    0.22421E-07        -0.14086E-10         0.00000E+00
    0.22652E-07        -0.13166E-10         0.00000E+00
    0.22874E-07        -0.12077E-10         0.00000E+00
    0.23086E-07        -0.10799E-10         0.00000E+00
    0.23289E-07        -0.93131E-11         0.00000E+00
    0.23482E-07        -0.75981E-11         0.00000E+00
    0.23663E-07        -0.56334E-11         0.00000E+00
    0.23833E-07        -0.34000E-11         0.00000E+00
    0.23992E-07        -0.88351E-12         0.00000E+00
    0.24137E-07         0.19226E-11         0.00000E+00
    0.24270E-07         0.50113E-11         0.00000E+00
    0.24389E-07         0.83541E-11         0.00000E+00
    0.24494E-07         0.11891E-10         0.00000E+00
    0.24586E-07         0.15513E-10         0.00000E+00
    0.24662E-07         0.19045E-10         0.00000E+00
    0.24724E-07         0.22219E-10         0.00000E+00
    0.24771E-07         0.24638E-10         0.00000E+00
    0.24803E-07         0.25742E-10         0.00000E+00
    0.24820E-07         0.24782E-10         0.00000E+00
    0.24822E-07         0.20830E-10         0.00000E+00
    0.24811E-07         0.12871E-10         0.00000E+00
    0.24802E-07         0.00000E+00         0.00000E+00
    0.68749E-08         0.00000E+00         0.00000E+00
    0.68686E-08         0.71613E-11         0.00000E+00
    0.68593E-08         0.11723E-10         0.00000E+00
    0.68569E-08         0.14200E-10         0.00000E+00
    0.68615E-08         0.15145E-10         0.00000E+00
    0.68735E-08         0.15044E-10         0.00000E+00
    0.68928E-08         0.14282E-10         0.00000E+00
    0.69195E-08         0.13140E-10         0.00000E+00
    0.69535E-08         0.11813E-10         0.00000E+00
    0.69949E-08         0.10431E-10         0.00000E+00
    0.70434E-08         0.90766E-11         0.00000E+00
    0.70991E-08         0.77993E-11         0.00000E+00
    0.71618E-08         0.66245E-11         0.00000E+00
    0.72315E-08         0.55624E-11         0.00000E+00
    0.73081E-08         0.46132E-11         0.00000E+00
    0.73916E-08         0.37707E-11         0.00000E+00
    0.74818E-08         0.30256E-11         0.00000E+00
    0.75787E-08         0.23667E-11         0.00000E+00
    0.76822E-08         0.17824E-11         0.00000E+00
    0.77923E-08         0.12616E-11         0.00000E+00
    0.79090E-08         0.79366E-12         0.00000E+00
    0.80320E-08         0.36925E-12         0.00000E+00
    0.81615E-08        -0.20058E-13         0.00000E+00
    0.82973E-08        -0.38160E-12         0.00000E+00
    0.84395E-08        -0.72168E-12         0.00000E+00
    0.85878E-08        -0.10457E-11         0.00000E+00
    0.87424E-08        -0.13582E-11         0.00000E+00
    0.89031E-08        -0.16631E-11         0.00000E+00
    0.90698E-08        -0.19637E-11         0.00000E+00
    0.92427E-08        -0.22626E-11         0.00000E+00
    0.94214E-08        -0.25621E-11         0.00000E+00
    0.96061E-08        -0.28641E-11         0.00000E+00
    0.97967E-08        -0.31702E-11         0.00000E+00
    0.99930E-08        -0.34817E-11         0.00000E+00
    0.10195E-07        -0.37997E-11         0.00000E+00
    0.10403E-07        -0.41250E-11         0.00000E+00
    0.10616E-07        -0.44583E-11         0.00000E+00
    0.10835E-07        -0.48002E-11         0.00000E+00
    0.11059E-07        -0.51510E-11         0.00000E+00
    0.11288E-07        -0.55110E-11         0.00000E+00
    0.11523E-07        -0.58803E-11         0.00000E+00
    0.11762E-07        -0.62591E-11         0.00000E+00
    0.12007E-07        -0.66471E-11         0.00000E+00
    0.12256E-07        -0.70442E-11         0.00000E+00
    0.12510E-07        -0.74501E-11         0.00000E+00
    0.12769E-07        -0.78644E-11         0.00000E+00
    0.13032E-07        -0.82864E-11         0.00000E+00
    0.13299E-07        -0.87157E-11         0.00000E+00
    0.13570E-07        -0.91514E-11         0.00000E+00
    0.13845E-07        -0.95926E-11         0.00000E+00
    0.14124E-07        -0.10038E-10         0.00000E+00
    0.14406E-07        -0.10487E-10         0.00000E+00
    0.14691E-07        -0.10939E-10         0.00000E+00
    0.14979E-07        -0.11390E-10         0.00000E+00
    0.15270E-07        -0.11841E-10         0.00000E+00
    0.15563E-07        -0.12290E-10         0.00000E+00
    0.15858E-07        -0.12733E-10         0.00000E+00
    0.16156E-07        -0.13171E-10         0.00000E+00
    0.16455E-07        -0.13599E-10         0.00000E+00
    0.16755E-07        -0.14016E-10         0.00000E+00
    0.17056E-07        -0.14420E-10         0.00000E+00
    0.17358E-07        -0.14807E-10         0.00000E+00
    0.17660E-07        -0.15174E-10         0.00000E+00
    0.17961E-07        -0.15519E-10         0.00000E+00
    0.18263E-07        -0.15838E-10         0.00000E+00
    0.18563E-07        -0.16127E-10         0.00000E+00
    0.18862E-07        -0.16382E-10         0.00000E+00
    0.19160E-07        -0.16599E-10         0.00000E+00
    0.19455E-07        -0.16774E-10         0.00000E+00
    0.19747E-07        -0.16901E-10         0.00000E+00
    0.20037E-07        -0.16976E-10         0.00000E+00
    0.20322E-07        -0.16992E-10         0.00000E+00
    0.20604E-07        -0.16942E-10         0.00000E+00
    0.20882E-07        -0.16821E-10         0.00000E+00
    0.21154E-07        -0.16619E-10         0.00000E+00
    0.21420E-07        -0.16329E-10         0.00000E+00
    0.21681E-07        -0.15941E-10         0.00000E+00
    0.21935E-07        -0.15443E-10         0.00000E+00
    0.22182E-07        -0.14823E-10         0.00000E+00
    0.22421E-07        -0.14067E-10         0.00000E+00
    0.22652E-07        -0.13160E-10         0.00000E+00
    0.22874E-07        -0.12085E-10         0.00000E+00
    0.23087E-07        -0.10823E-10         0.00000E+00
    0.23290E-07        -0.93539E-11         0.00000E+00
    0.23482E-07        -0.76561E-11         0.00000E+00
    0.23664E-07        -0.57090E-11         0.00000E+00
    0.23834E-07        -0.34931E-11         0.00000E+00
    0.23992E-07        -0.99336E-12         0.00000E+00
    0.24138E-07         0.17976E-11         0.00000E+00
    0.24270E-07         0.48739E-11         0.00000E+00
    0.24390E-07         0.82087E-11         0.00000E+00
    0.24495E-07         0.11743E-10         0.00000E+00
    0.24586E-07         0.15372E-10         0.00000E+00
    0.24663E-07         0.18923E-10         0.00000E+00
    0.24725E-07         0.22129E-10         0.00000E+00
    0.24771E-07         0.24596E-10         0.00000E+00
    0.24803E-07         0.25762E-10         0.00000E+00
    0.24819E-07         0.24870E-10         0.00000E+00
    0.24821E-07         0.20967E-10         0.00000E+00
    0.24809E-07         0.12995E-10         0.00000E+00
    0.24799E-07         0.00000E+00         0.00000E+00
    0.68764E-08         0.00000E+00         0.00000E+00
    0.68698E-08         0.71962E-11         0.00000E+00
    0.68600E-08         0.11741E-10         0.00000E+00
    0.68572E-08         0.14177E-10         0.00000E+00
    0.68616E-08         0.15078E-10         0.00000E+00
    0.68734E-08         0.14941E-10         0.00000E+00
    0.68926E-08         0.14154E-10         0.00000E+00
    0.69193E-08         0.12998E-10         0.00000E+00
    0.69533E-08         0.11665E-10         0.00000E+00
    0.69946E-08         0.10284E-10         0.00000E+00
    0.70431E-08         0.89353E-11         0.00000E+00
    0.70988E-08         0.76661E-11         0.00000E+00
    0.71616E-08         0.65012E-11         0.00000E+00
    0.72313E-08         0.54500E-11         0.00000E+00
    0.73079E-08         0.45121E-11         0.00000E+00
    0.73914E-08         0.36810E-11         0.00000E+00
    0.74816E-08         0.29469E-11         0.00000E+00
    0.75786E-08         0.22986E-11         0.00000E+00
    0.76821E-08         0.17244E-11         0.00000E+00
    0.77922E-08         0.12131E-11         0.00000E+00
    0.79089E-08         0.75411E-12         0.00000E+00
    0.80320E-08         0.33803E-12         0.00000E+00
    0.81614E-08        -0.43509E-13         0.00000E+00
    0.82973E-08        -0.39779E-12         0.00000E+00
    0.84394E-08        -0.73108E-12         0.00000E+00
    0.85878E-08        -0.10487E-11         0.00000E+00
    0.87423E-08        -0.13553E-11         0.00000E+00
    0.89030E-08        -0.16545E-11         0.00000E+00
    0.90698E-08        -0.19496E-11         0.00000E+00
    0.92426E-08        -0.22434E-11         0.00000E+00
    0.94214E-08        -0.25379E-11         0.00000E+00
    0.96061E-08        -0.28351E-11         0.00000E+00
    0.97966E-08        -0.31365E-11         0.00000E+00
    0.99930E-08        -0.34434E-11         0.00000E+00
    0.10195E-07        -0.37569E-11         0.00000E+00
    0.10403E-07        -0.40777E-11         0.00000E+00
    0.10616E-07        -0.44066E-11         0.00000E+00
    0.10835E-07        -0.47441E-11         0.00000E+00
    0.11059E-07        -0.50906E-11         0.00000E+00
    0.11288E-07        -0.54462E-11         0.00000E+00
    0.11523E-07        -0.58113E-11         0.00000E+00
    0.11762E-07        -0.61856E-11         0.00000E+00
    0.12007E-07        -0.65693E-11         0.00000E+00
    0.12256E-07        -0.69621E-11         0.00000E+00
    0.12510E-07        -0.73636E-11         0.00000E+00
    0.12769E-07        -0.77735E-11         0.00000E+00
    0.13032E-07        -0.81913E-11         0.00000E+00
    0.13299E-07        -0.86162E-11         0.00000E+00
    0.13570E-07        -0.90476E-11         0.00000E+00
    0.13845E-07        -0.94846E-11         0.00000E+00
    0.14123E-07        -0.99261E-11         0.00000E+00
    0.14405E-07        -0.10371E-10         0.00000E+00
    0.14691E-07        -0.10818E-10         0.00000E+00
    0.14979E-07        -0.11266E-10         0.00000E+00
    0.15270E-07        -0.11713E-10         0.00000E+00
    0.15563E-07        -0.12158E-10         0.00000E+00
    0.15858E-07        -0.12598E-10         0.00000E+00
    0.16156E-07        -0.13032E-10         0.00000E+00
    0.16455E-07        -0.13457E-10         0.00000E+00
    0.16755E-07        -0.13872E-10         0.00000E+00
    0.17056E-07        -0.14273E-10         0.00000E+00
    0.17358E-07        -0.14658E-10         0.00000E+00
    0.17659E-07        -0.15023E-10         0.00000E+00
    0.17961E-07        -0.15367E-10         0.00000E+00
    0.18263E-07        -0.15685E-10         0.00000E+00
    0.18563E-07        -0.15973E-10         0.00000E+00
    0.18862E-07        -0.16229E-10         0.00000E+00
    0.19159E-07        -0.16447E-10         0.00000E+00
    0.19455E-07        -0.16623E-10         0.00000E+00
    0.19747E-07        -0.16753E-10         0.00000E+00
    0.20037E-07        -0.16830E-10         0.00000E+00
    0.20322E-07        -0.16850E-10         0.00000E+00
    0.20604E-07        -0.16806E-10         0.00000E+00
    0.20882E-07        -0.16691E-10         0.00000E+00
    0.21154E-07        -0.16497E-10         0.00000E+00
    0.21421E-07        -0.16215E-10         0.00000E+00
    0.21681E-07        -0.15837E-10         0.00000E+00
    0.21935E-07        -0.15350E-10         0.00000E+00
    0.22182E-07        -0.14743E-10         0.00000E+00
    0.22421E-07        -0.14002E-10         0.00000E+00
    0.22652E-07        -0.13112E-10         0.00000E+00
    0.22874E-07        -0.12055E-10         0.00000E+00
    0.23087E-07        -0.10813E-10         0.00000E+00
    0.23290E-07        -0.93649E-11         0.00000E+00
    0.23483E-07        -0.76902E-11         0.00000E+00
    0.23664E-07        -0.57673E-11         0.00000E+00
    0.23834E-07        -0.35766E-11         0.00000E+00
    0.23993E-07        -0.11023E-11         0.00000E+00
    0.24138E-07         0.16639E-11         0.00000E+00
    0.24271E-07         0.47174E-11         0.00000E+00
    0.24390E-07         0.80328E-11         0.00000E+00
    0.24496E-07         0.11554E-10         0.00000E+00
    0.24587E-07         0.15178E-10         0.00000E+00
    0.24664E-07         0.18736E-10         0.00000E+00
    0.24725E-07         0.21966E-10         0.00000E+00
    0.24772E-07         0.24477E-10         0.00000E+00
    0.24803E-07         0.25709E-10         0.00000E+00
    0.24819E-07         0.24896E-10         0.00000E+00
    0.24820E-07         0.21060E-10         0.00000E+00
    0.24807E-07         0.13100E-10         0.00000E+00
    0.24797E-07         0.00000E+00         0.00000E+00
    0.68778E-08         0.00000E+00         0.00000E+00
    0.68710E-08         0.72186E-11         0.00000E+00
    0.68607E-08         0.11732E-10         0.00000E+00
    0.68575E-08         0.14116E-10         0.00000E+00
    0.68617E-08         0.14965E-10         0.00000E+00
    0.68733E-08         0.14790E-10         0.00000E+00
    0.68924E-08         0.13980E-10         0.00000E+00
    0.69190E-08         0.12812E-10         0.00000E+00
    0.69530E-08         0.11478E-10         0.00000E+00
    0.69943E-08         0.10102E-10         0.00000E+00
    0.70429E-08         0.87633E-11         0.00000E+00
    0.70986E-08         0.75065E-11         0.00000E+00
    0.71613E-08         0.63556E-11         0.00000E+00
    0.72311E-08         0.53190E-11         0.00000E+00
    0.73078E-08         0.43957E-11         0.00000E+00
    0.73912E-08         0.35788E-11         0.00000E+00
    0.74815E-08         0.28584E-11         0.00000E+00
    0.75784E-08         0.22230E-11         0.00000E+00
    0.76820E-08         0.16609E-11         0.00000E+00
    0.77922E-08         0.11608E-11         0.00000E+00
    0.79088E-08         0.71231E-12         0.00000E+00
    0.80319E-08         0.30595E-12         0.00000E+00
    0.81614E-08        -0.66562E-13         0.00000E+00
    0.82972E-08        -0.41243E-12         0.00000E+00
    0.84393E-08        -0.73785E-12         0.00000E+00
    0.85877E-08        -0.10481E-11         0.00000E+00
    0.87422E-08        -0.13476E-11         0.00000E+00
    0.89029E-08        -0.16402E-11         0.00000E+00
    0.90697E-08        -0.19290E-11         0.00000E+00
    0.92425E-08        -0.22166E-11         0.00000E+00
    0.94213E-08        -0.25052E-11         0.00000E+00
    0.96060E-08        -0.27967E-11         0.00000E+00
    0.97966E-08        -0.30924E-11         0.00000E+00
    0.99929E-08        -0.33938E-11         0.00000E+00
    0.10195E-07        -0.37017E-11         0.00000E+00
    0.10403E-07        -0.40171E-11         0.00000E+00
    0.10616E-07        -0.43405E-11         0.00000E+00
    0.10835E-07        -0.46725E-11         0.00000E+00
    0.11059E-07        -0.50135E-11         0.00000E+00
    0.11288E-07        -0.53636E-11         0.00000E+00
    0.11523E-07        -0.57231E-11         0.00000E+00
    0.11762E-07        -0.60919E-11         0.00000E+00
    0.12007E-07        -0.64700E-11         0.00000E+00
    0.12256E-07        -0.68571E-11         0.00000E+00
    0.12510E-07        -0.72529E-11         0.00000E+00
    0.12769E-07        -0.76572E-11         0.00000E+00
    0.13032E-07        -0.80692E-11         0.00000E+00
    0.13299E-07        -0.84884E-11         0.00000E+00
    0.13570E-07        -0.89141E-11         0.00000E+00
    0.13845E-07        -0.93453E-11         0.00000E+00
    0.14123E-07        -0.97812E-11         0.00000E+00
    0.14405E-07        -0.10221E-10         0.00000E+00
    0.14691E-07        -0.10662E-10         0.00000E+00
    0.14979E-07        -0.11105E-10         0.00000E+00
    0.15269E-07        -0.11546E-10         0.00000E+00
    0.15563E-07        -0.11986E-10         0.00000E+00
    0.15858E-07        -0.12421E-10         0.00000E+00
    0.16156E-07        -0.12850E-10         0.00000E+00
    0.16454E-07        -0.13271E-10         0.00000E+00
    0.16755E-07        -0.13681E-10         0.00000E+00
    0.17056E-07        -0.14079E-10         0.00000E+00
    0.17357E-07        -0.14460E-10         0.00000E+00
    0.17659E-07        -0.14823E-10         0.00000E+00
    0.17961E-07        -0.15164E-10         0.00000E+00
    0.18263E-07        -0.15479E-10         0.00000E+00
    0.18563E-07        -0.15767E-10         0.00000E+00
    0.18862E-07        -0.16021E-10         0.00000E+00
    0.19159E-07        -0.16240E-10         0.00000E+00
    0.19455E-07        -0.16417E-10         0.00000E+00
    0.19747E-07        -0.16548E-10         0.00000E+00
    0.20037E-07        -0.16629E-10         0.00000E+00
    0.20322E-07        -0.16653E-10         0.00000E+00
    0.20604E-07        -0.16614E-10         0.00000E+00
    0.20882E-07        -0.16505E-10         0.00000E+00
    0.21154E-07        -0.16319E-10         0.00000E+00
    0.21421E-07        -0.16047E-10         0.00000E+00
    0.21681E-07        -0.15680E-10         0.00000E+00
    0.21935E-07        -0.15206E-10         0.00000E+00
    0.22182E-07        -0.14614E-10         0.00000E+00
    0.22421E-07        -0.13890E-10         0.00000E+00
    0.22652E-07        -0.13019E-10         0.00000E+00
    0.22874E-07        -0.11984E-10         0.00000E+00
    0.23087E-07        -0.10766E-10         0.00000E+00
    0.23290E-07        -0.93448E-11         0.00000E+00
    0.23483E-07        -0.76989E-11         0.00000E+00
    0.23665E-07        -0.58071E-11         0.00000E+00
    0.23835E-07        -0.36492E-11         0.00000E+00
    0.23993E-07        -0.12090E-11         0.00000E+00
    0.24139E-07         0.15228E-11         0.00000E+00
    0.24272E-07         0.45426E-11         0.00000E+00
    0.24391E-07         0.78272E-11         0.00000E+00
    0.24497E-07         0.11323E-10         0.00000E+00
    0.24588E-07         0.14930E-10         0.00000E+00
    0.24664E-07         0.18484E-10         0.00000E+00
    0.24726E-07         0.21729E-10         0.00000E+00
    0.24772E-07         0.24280E-10         0.00000E+00
    0.24803E-07         0.25579E-10         0.00000E+00
    0.24818E-07         0.24856E-10         0.00000E+00
    0.24819E-07         0.21108E-10         0.00000E+00
    0.24805E-07         0.13183E-10         0.00000E+00
    0.24794E-07         0.00000E+00         0.00000E+00
    0.68793E-08         0.00000E+00         0.00000E+00
    0.68722E-08         0.72275E-11         0.00000E+00
    0.68614E-08         0.11695E-10         0.00000E+00
    0.68578E-08         0.14013E-10         0.00000E+00
    0.68617E-08         0.14805E-10         0.00000E+00
    0.68732E-08         0.14590E-10         0.00000E+00
    0.68922E-08         0.13757E-10         0.00000E+00
    0.69188E-08         0.12582E-10         0.00000E+00
    0.69527E-08         0.11251E-10         0.00000E+00
    0.69940E-08         0.98855E-11         0.00000E+00
    0.70426E-08         0.85607E-11         0.00000E+00
    0.70983E-08         0.73210E-11         0.00000E+00
    0.71611E-08         0.61882E-11         0.00000E+00
    0.72309E-08         0.51699E-11         0.00000E+00
    0.73076E-08         0.42645E-11         0.00000E+00
    0.73911E-08         0.34649E-11         0.00000E+00
    0.74814E-08         0.27606E-11         0.00000E+00
    0.75783E-08         0.21404E-11         0.00000E+00
    0.76819E-08         0.15923E-11         0.00000E+00
    0.77921E-08         0.11052E-11         0.00000E+00
    0.79087E-08         0.66860E-12         0.00000E+00
    0.80318E-08         0.27330E-12         0.00000E+00
    0.81613E-08        -0.88958E-13         0.00000E+00
    0.82971E-08        -0.42528E-12         0.00000E+00
    0.84393E-08        -0.74178E-12         0.00000E+00
    0.85876E-08        -0.10436E-11         0.00000E+00
    0.87422E-08        -0.13352E-11         0.00000E+00
    0.89029E-08        -0.16202E-11         0.00000E+00
    0.90697E-08        -0.19017E-11         0.00000E+00
    0.92425E-08        -0.21823E-11         0.00000E+00
    0.94213E-08        -0.24641E-11         0.00000E+00
    0.96060E-08        -0.27488E-11         0.00000E+00
    0.97965E-08        -0.30379E-11         0.00000E+00
    0.99929E-08        -0.33327E-11         0.00000E+00
    0.10195E-07        -0.36341E-11         0.00000E+00
    0.10403E-07        -0.39429E-11         0.00000E+00
    0.10616E-07        -0.42598E-11         0.00000E+00
    0.10835E-07        -0.45853E-11         0.00000E+00
    0.11059E-07        -0.49196E-11         0.00000E+00
    0.11288E-07        -0.52631E-11         0.00000E+00
    0.11523E-07        -0.56158E-11         0.00000E+00
    0.11762E-07        -0.59778E-11         0.00000E+00
    0.12007E-07        -0.63490E-11         0.00000E+00
    0.12256E-07        -0.67292E-11         0.00000E+00
    0.12510E-07        -0.71181E-11         0.00000E+00
    0.12769E-07        -0.75152E-11         0.00000E+00
    0.13032E-07        -0.79201E-11         0.00000E+00
    0.13299E-07        -0.83322E-11         0.00000E+00
    0.13570E-07        -0.87507E-11         0.00000E+00
    0.13845E-07        -0.91748E-11         0.00000E+00
    0.14123E-07        -0.96036E-11         0.00000E+00
    0.14405E-07        -0.10036E-10         0.00000E+00
    0.14690E-07        -0.10470E-10         0.00000E+00
    0.14979E-07        -0.10906E-10         0.00000E+00
    0.15269E-07        -0.11341E-10         0.00000E+00
    0.15563E-07        -0.11774E-10         0.00000E+00
    0.15858E-07        -0.12202E-10         0.00000E+00
    0.16155E-07        -0.12625E-10         0.00000E+00
    0.16454E-07        -0.13040E-10         0.00000E+00
    0.16755E-07        -0.13445E-10         0.00000E+00
    0.17056E-07        -0.13837E-10         0.00000E+00
    0.17357E-07        -0.14214E-10         0.00000E+00
    0.17659E-07        -0.14572E-10         0.00000E+00
    0.17961E-07        -0.14909E-10         0.00000E+00
    0.18263E-07        -0.15222E-10         0.00000E+00
    0.18563E-07        -0.15507E-10         0.00000E+00
    0.18862E-07        -0.15760E-10         0.00000E+00
    0.19159E-07        -0.15978E-10         0.00000E+00
    0.19455E-07        -0.16155E-10         0.00000E+00
    0.19747E-07        -0.16288E-10         0.00000E+00
    0.20037E-07        -0.16371E-10         0.00000E+00
    0.20322E-07        -0.16399E-10         0.00000E+00
    0.20604E-07        -0.16365E-10         0.00000E+00
    0.20882E-07        -0.16263E-10         0.00000E+00
    0.21154E-07        -0.16085E-10         0.00000E+00
    0.21421E-07        -0.15824E-10         0.00000E+00
    0.21681E-07        -0.15469E-10         0.00000E+00
    0.21935E-07        -0.15010E-10         0.00000E+00
    0.22182E-07        -0.14435E-10         0.00000E+00
    0.22421E-07        -0.13731E-10         0.00000E+00
    0.22652E-07        -0.12882E-10         0.00000E+00
    0.22875E-07        -0.11872E-10         0.00000E+00
    0.23088E-07        -0.10682E-10         0.00000E+00
    0.23291E-07        -0.92923E-11         0.00000E+00
    0.23483E-07        -0.76810E-11         0.00000E+00
    0.23665E-07        -0.58269E-11         0.00000E+00
    0.23835E-07        -0.37095E-11         0.00000E+00
    0.23994E-07        -0.13121E-11         0.00000E+00
    0.24139E-07         0.13754E-11         0.00000E+00
    0.24272E-07         0.43509E-11         0.00000E+00
    0.24392E-07         0.75929E-11         0.00000E+00
    0.24497E-07         0.11050E-10         0.00000E+00
    0.24588E-07         0.14628E-10         0.00000E+00
    0.24665E-07         0.18167E-10         0.00000E+00
    0.24726E-07         0.21418E-10         0.00000E+00
    0.24772E-07         0.24002E-10         0.00000E+00
    0.24803E-07         0.25369E-10         0.00000E+00
    0.24818E-07         0.24745E-10         0.00000E+00
    0.24817E-07         0.21106E-10         0.00000E+00
    0.24802E-07         0.13244E-10         0.00000E+00
    0.24791E-07         0.00000E+00         0.00000E+00
    0.68807E-08         0.00000E+00         0.00000E+00
    0.68733E-08         0.72221E-11         0.00000E+00
    0.68621E-08         0.11627E-10         0.00000E+00
    0.68581E-08         0.13869E-10         0.00000E+00
    0.68618E-08         0.14597E-10         0.00000E+00
    0.68731E-08         0.14340E-10         0.00000E+00
    0.68920E-08         0.13487E-10         0.00000E+00
    0.69185E-08         0.12308E-10         0.00000E+00
    0.69525E-08         0.10984E-10         0.00000E+00
    0.69938E-08         0.96336E-11         0.00000E+00
    0.70423E-08         0.83283E-11         0.00000E+00
    0.70981E-08         0.71101E-11         0.00000E+00
    0.71609E-08         0.59996E-11         0.00000E+00
    0.72307E-08         0.50034E-11         0.00000E+00
    0.73074E-08         0.41193E-11         0.00000E+00
    0.73909E-08         0.33396E-11         0.00000E+00
    0.74812E-08         0.26541E-11         0.00000E+00
    0.75782E-08         0.20511E-11         0.00000E+00
    0.76818E-08         0.15189E-11         0.00000E+00
    0.77920E-08         0.10464E-11         0.00000E+00
    0.79086E-08         0.62331E-12         0.00000E+00
    0.80317E-08         0.24039E-12         0.00000E+00
    0.81612E-08        -0.11043E-12         0.00000E+00
    0.82971E-08        -0.43612E-12         0.00000E+00
    0.84392E-08        -0.74268E-12         0.00000E+00
    0.85876E-08        -0.10352E-11         0.00000E+00
    0.87421E-08        -0.13179E-11         0.00000E+00
    0.89028E-08        -0.15944E-11         0.00000E+00
    0.90696E-08        -0.18677E-11         0.00000E+00
    0.92424E-08        -0.21403E-11         0.00000E+00
    0.94212E-08        -0.24143E-11         0.00000E+00
    0.96059E-08        -0.26914E-11         0.00000E+00
    0.97965E-08        -0.29730E-11         0.00000E+00
    0.99928E-08        -0.32602E-11         0.00000E+00
    0.10195E-07        -0.35541E-11         0.00000E+00
    0.10403E-07        -0.38554E-11         0.00000E+00
    0.10616E-07        -0.41647E-11         0.00000E+00
    0.10835E-07        -0.44825E-11         0.00000E+00
    0.11059E-07        -0.48091E-11         0.00000E+00
    0.11288E-07        -0.51447E-11         0.00000E+00
    0.11523E-07        -0.54895E-11         0.00000E+00
    0.11762E-07        -0.58435E-11         0.00000E+00
    0.12007E-07        -0.62065E-11         0.00000E+00
    0.12256E-07        -0.65785E-11         0.00000E+00
    0.12510E-07        -0.69590E-11         0.00000E+00
    0.12769E-07        -0.73477E-11         0.00000E+00
    0.13031E-07        -0.77442E-11         0.00000E+00
    0.13299E-07        -0.81477E-11         0.00000E+00
    0.13570E-07        -0.85576E-11         0.00000E+00
    0.13845E-07        -0.89731E-11         0.00000E+00
    0.14123E-07        -0.93932E-11         0.00000E+00
    0.14405E-07        -0.98168E-11         0.00000E+00
    0.14690E-07        -0.10243E-10         0.00000E+00
    0.14978E-07        -0.10670E-10         0.00000E+00
    0.15269E-07        -0.11096E-10         0.00000E+00
    0.15563E-07        -0.11521E-10         0.00000E+00
    0.15858E-07        -0.11942E-10         0.00000E+00
    0.16155E-07        -0.12357E-10         0.00000E+00
    0.16454E-07        -0.12765E-10         0.00000E+00
    0.16754E-07        -0.13162E-10         0.00000E+00
    0.17056E-07        -0.13548E-10         0.00000E+00
    0.17357E-07        -0.13918E-10         0.00000E+00
    0.17659E-07        -0.14271E-10         0.00000E+00
    0.17961E-07        -0.14603E-10         0.00000E+00
    0.18262E-07        -0.14912E-10         0.00000E+00
    0.18563E-07        -0.15193E-10         0.00000E+00
    0.18862E-07        -0.15444E-10         0.00000E+00
    0.19159E-07        -0.15660E-10         0.00000E+00
    0.19455E-07        -0.15837E-10         0.00000E+00
    0.19747E-07        -0.15971E-10         0.00000E+00
    0.20037E-07        -0.16056E-10         0.00000E+00
    0.20322E-07        -0.16087E-10         0.00000E+00
    0.20604E-07        -0.16058E-10         0.00000E+00
    0.20882E-07        -0.15963E-10         0.00000E+00
    0.21154E-07        -0.15795E-10         0.00000E+00
    0.21421E-07        -0.15544E-10         0.00000E+00
    0.21681E-07        -0.15203E-10         0.00000E+00
    0.21935E-07        -0.14760E-10         0.00000E+00
    0.22182E-07        -0.14204E-10         0.00000E+00
    0.22422E-07        -0.13522E-10         0.00000E+00
    0.22653E-07        -0.12698E-10         0.00000E+00
    0.22875E-07        -0.11717E-10         0.00000E+00
    0.23088E-07        -0.10560E-10         0.00000E+00
    0.23291E-07        -0.92060E-11         0.00000E+00
    0.23484E-07        -0.76351E-11         0.00000E+00
    0.23665E-07        -0.58253E-11         0.00000E+00
    0.23836E-07        -0.37561E-11         0.00000E+00
    0.23994E-07        -0.14101E-11         0.00000E+00
    0.24140E-07         0.12232E-11         0.00000E+00
    0.24273E-07         0.41433E-11         0.00000E+00
    0.24392E-07         0.73308E-11         0.00000E+00
    0.24498E-07         0.10738E-10         0.00000E+00
    0.24589E-07         0.14273E-10         0.00000E+00
    0.24666E-07         0.17785E-10         0.00000E+00
    0.24727E-07         0.21029E-10         0.00000E+00
    0.24773E-07         0.23640E-10         0.00000E+00
    0.24803E-07         0.25075E-10         0.00000E+00
    0.24817E-07         0.24560E-10         0.00000E+00
    0.24816E-07         0.21051E-10         0.00000E+00
    0.24800E-07         0.13280E-10         0.00000E+00
    0.24789E-07         0.00000E+00         0.00000E+00
    0.68822E-08         0.00000E+00         0.00000E+00
    0.68745E-08         0.72009E-11         0.00000E+00
    0.68627E-08         0.11527E-10         0.00000E+00
    0.68584E-08         0.13680E-10         0.00000E+00
    0.68618E-08         0.14337E-10         0.00000E+00
    0.68730E-08         0.14038E-10         0.00000E+00
    0.68918E-08         0.13168E-10         0.00000E+00
    0.69183E-08         0.11989E-10         0.00000E+00
    0.69522E-08         0.10678E-10         0.00000E+00
    0.69935E-08         0.93473E-11         0.00000E+00
    0.70421E-08         0.80663E-11         0.00000E+00
    0.70979E-08         0.68744E-11         0.00000E+00
    0.71607E-08         0.57904E-11         0.00000E+00
    0.72305E-08         0.48201E-11         0.00000E+00
    0.73072E-08         0.39605E-11         0.00000E+00
    0.73908E-08         0.32037E-11         0.00000E+00
    0.74811E-08         0.25394E-11         0.00000E+00
    0.75781E-08         0.19558E-11         0.00000E+00
    0.76817E-08         0.14414E-11         0.00000E+00
    0.77919E-08         0.98509E-12         0.00000E+00
    0.79085E-08         0.57682E-12         0.00000E+00
    0.80317E-08         0.20753E-12         0.00000E+00
    0.81612E-08        -0.13070E-12         0.00000E+00
    0.82970E-08        -0.44472E-12         0.00000E+00
    0.84391E-08        -0.74035E-12         0.00000E+00
    0.85875E-08        -0.10225E-11         0.00000E+00
    0.87421E-08        -0.12955E-11         0.00000E+00
    0.89028E-08        -0.15626E-11         0.00000E+00
    0.90696E-08        -0.18269E-11         0.00000E+00
    0.92424E-08        -0.20907E-11         0.00000E+00
    0.94212E-08        -0.23560E-11         0.00000E+00
    0.96059E-08        -0.26245E-11         0.00000E+00
    0.97964E-08        -0.28976E-11         0.00000E+00
    0.99927E-08        -0.31763E-11         0.00000E+00
    0.10195E-07        -0.34617E-11         0.00000E+00
    0.10402E-07        -0.37544E-11         0.00000E+00
    0.10616E-07        -0.40551E-11         0.00000E+00
    0.10834E-07        -0.43641E-11         0.00000E+00
    0.11059E-07        -0.46818E-11         0.00000E+00
    0.11288E-07        -0.50085E-11         0.00000E+00
    0.11522E-07        -0.53442E-11         0.00000E+00
    0.11762E-07        -0.56889E-11         0.00000E+00
    0.12007E-07        -0.60425E-11         0.00000E+00
    0.12256E-07        -0.64049E-11         0.00000E+00
    0.12510E-07        -0.67758E-11         0.00000E+00
    0.12768E-07        -0.71547E-11         0.00000E+00
    0.13031E-07        -0.75413E-11         0.00000E+00
    0.13298E-07        -0.79348E-11         0.00000E+00
    0.13570E-07        -0.83347E-11         0.00000E+00
    0.13845E-07        -0.87400E-11         0.00000E+00
    0.14123E-07        -0.91500E-11         0.00000E+00
    0.14405E-07        -0.95635E-11         0.00000E+00
    0.14690E-07        -0.99795E-11         0.00000E+00
    0.14978E-07        -0.10397E-10         0.00000E+00
    0.15269E-07        -0.10813E-10         0.00000E+00
    0.15562E-07        -0.11228E-10         0.00000E+00
    0.15858E-07        -0.11640E-10         0.00000E+00
    0.16155E-07        -0.12046E-10         0.00000E+00
    0.16454E-07        -0.12444E-10         0.00000E+00
    0.16754E-07        -0.12833E-10         0.00000E+00
    0.17056E-07        -0.13211E-10         0.00000E+00
    0.17357E-07        -0.13574E-10         0.00000E+00
    0.17659E-07        -0.13920E-10         0.00000E+00
    0.17961E-07        -0.14246E-10         0.00000E+00
    0.18262E-07        -0.14549E-10         0.00000E+00
    0.18563E-07        -0.14826E-10         0.00000E+00
    0.18862E-07        -0.15073E-10         0.00000E+00
    0.19159E-07        -0.15286E-10         0.00000E+00
    0.19454E-07        -0.15462E-10         0.00000E+00
    0.19747E-07        -0.15596E-10         0.00000E+00
    0.20037E-07        -0.15683E-10         0.00000E+00
    0.20322E-07        -0.15718E-10         0.00000E+00
    0.20604E-07        -0.15694E-10         0.00000E+00
    0.20882E-07        -0.15606E-10         0.00000E+00
    0.21154E-07        -0.15447E-10         0.00000E+00
    0.21421E-07        -0.15209E-10         0.00000E+00
    0.21681E-07        -0.14882E-10         0.00000E+00
    0.21935E-07        -0.14456E-10         0.00000E+00
    0.22182E-07        -0.13921E-10         0.00000E+00
    0.22422E-07        -0.13263E-10         0.00000E+00
    0.22653E-07        -0.12467E-10         0.00000E+00
    0.22875E-07        -0.11518E-10         0.00000E+00
    0.23088E-07        -0.10397E-10         0.00000E+00
    0.23291E-07        -0.90846E-11         0.00000E+00
    0.23484E-07        -0.75596E-11         0.00000E+00
    0.23666E-07        -0.58007E-11         0.00000E+00
    0.23836E-07        -0.37873E-11         0.00000E+00
    0.23995E-07        -0.15016E-11         0.00000E+00
    0.24141E-07         0.10677E-11         0.00000E+00
    0.24274E-07         0.39214E-11         0.00000E+00
    0.24393E-07         0.70423E-11         0.00000E+00
    0.24499E-07         0.10386E-10         0.00000E+00
    0.24590E-07         0.13865E-10         0.00000E+00
    0.24666E-07         0.17335E-10         0.00000E+00
    0.24728E-07         0.20563E-10         0.00000E+00
    0.24773E-07         0.23192E-10         0.00000E+00
    0.24803E-07         0.24692E-10         0.00000E+00
    0.24817E-07         0.24296E-10         0.00000E+00
    0.24815E-07         0.20937E-10         0.00000E+00
    0.24798E-07         0.13288E-10         0.00000E+00
    0.24786E-07         0.00000E+00         0.00000E+00
    0.68836E-08         0.00000E+00         0.00000E+00
    0.68756E-08         0.71625E-11         0.00000E+00
    0.68634E-08         0.11391E-10         0.00000E+00
    0.68587E-08         0.13443E-10         0.00000E+00
    0.68618E-08         0.14026E-10         0.00000E+00
    0.68728E-08         0.13684E-10         0.00000E+00
    0.68916E-08         0.12799E-10         0.00000E+00
    0.69180E-08         0.11625E-10         0.00000E+00
    0.69519E-08         0.10332E-10         0.00000E+00
    0.69933E-08         0.90271E-11         0.00000E+00
    0.70419E-08         0.77756E-11         0.00000E+00
    0.70976E-08         0.66147E-11         0.00000E+00
    0.71605E-08         0.55615E-11         0.00000E+00
    0.72303E-08         0.46207E-11         0.00000E+00
    0.73071E-08         0.37888E-11         0.00000E+00
    0.73907E-08         0.30578E-11         0.00000E+00
    0.74810E-08         0.24170E-11         0.00000E+00
    0.75780E-08         0.18549E-11         0.00000E+00
    0.76816E-08         0.13600E-11         0.00000E+00
    0.77918E-08         0.92155E-12         0.00000E+00
    0.79085E-08         0.52950E-12         0.00000E+00
    0.80316E-08         0.17506E-12         0.00000E+00
    0.81611E-08        -0.14950E-12         0.00000E+00
    0.82969E-08        -0.45082E-12         0.00000E+00
    0.84391E-08        -0.73458E-12         0.00000E+00
    0.85875E-08        -0.10056E-11         0.00000E+00
    0.87420E-08        -0.12678E-11         0.00000E+00
    0.89027E-08        -0.15247E-11         0.00000E+00
    0.90695E-08        -0.17791E-11         0.00000E+00
    0.92423E-08        -0.20332E-11         0.00000E+00
    0.94211E-08        -0.22889E-11         0.00000E+00
    0.96058E-08        -0.25480E-11         0.00000E+00
    0.97964E-08        -0.28117E-11         0.00000E+00
    0.99927E-08        -0.30810E-11         0.00000E+00
    0.10195E-07        -0.33569E-11         0.00000E+00
    0.10402E-07        -0.36400E-11         0.00000E+00
    0.10616E-07        -0.39310E-11         0.00000E+00
    0.10834E-07        -0.42302E-11         0.00000E+00
    0.11058E-07        -0.45380E-11         0.00000E+00
    0.11288E-07        -0.48545E-11         0.00000E+00
    0.11522E-07        -0.51798E-11         0.00000E+00
    0.11762E-07        -0.55140E-11         0.00000E+00
    0.12007E-07        -0.58570E-11         0.00000E+00
    0.12256E-07        -0.62086E-11         0.00000E+00
    0.12510E-07        -0.65685E-11         0.00000E+00
    0.12768E-07        -0.69362E-11         0.00000E+00
    0.13031E-07        -0.73115E-11         0.00000E+00
    0.13298E-07        -0.76936E-11         0.00000E+00
    0.13570E-07        -0.80820E-11         0.00000E+00
    0.13844E-07        -0.84757E-11         0.00000E+00
    0.14123E-07        -0.88741E-11         0.00000E+00
    0.14405E-07        -0.92760E-11         0.00000E+00
    0.14690E-07        -0.96803E-11         0.00000E+00
    0.14978E-07        -0.10086E-10         0.00000E+00
    0.15269E-07        -0.10491E-10         0.00000E+00
    0.15562E-07        -0.10895E-10         0.00000E+00
    0.15858E-07        -0.11295E-10         0.00000E+00
    0.16155E-07        -0.11690E-10         0.00000E+00
    0.16454E-07        -0.12079E-10         0.00000E+00
    0.16754E-07        -0.12458E-10         0.00000E+00
    0.17055E-07        -0.12826E-10         0.00000E+00
    0.17357E-07        -0.13180E-10         0.00000E+00
    0.17659E-07        -0.13518E-10         0.00000E+00
    0.17961E-07        -0.13836E-10         0.00000E+00
    0.18262E-07        -0.14133E-10         0.00000E+00
    0.18563E-07        -0.14404E-10         0.00000E+00
    0.18862E-07        -0.14647E-10         0.00000E+00
    0.19159E-07        -0.14857E-10         0.00000E+00
    0.19454E-07        -0.15031E-10         0.00000E+00
    0.19747E-07        -0.15164E-10         0.00000E+00
    0.20037E-07        -0.15252E-10         0.00000E+00
    0.20322E-07        -0.15290E-10         0.00000E+00
    0.20604E-07        -0.15271E-10         0.00000E+00
    0.20882E-07        -0.15191E-10         0.00000E+00
    0.21154E-07        -0.15041E-10         0.00000E+00
    0.21421E-07        -0.14815E-10         0.00000E+00
    0.21681E-07        -0.14504E-10         0.00000E+00
    0.21936E-07        -0.14097E-10         0.00000E+00
    0.22183E-07        -0.13584E-10         0.00000E+00
    0.22422E-07        -0.12952E-10         0.00000E+00
    0.22653E-07        -0.12188E-10         0.00000E+00
    0.22875E-07        -0.11274E-10         0.00000E+00
    0.23088E-07        -0.10193E-10         0.00000E+00
    0.23291E-07        -0.89265E-11         0.00000E+00
    0.23484E-07        -0.74531E-11         0.00000E+00
    0.23666E-07        -0.57516E-11         0.00000E+00
    0.23837E-07        -0.38015E-11         0.00000E+00
    0.23995E-07        -0.15849E-11         0.00000E+00
    0.24141E-07         0.91057E-12         0.00000E+00
    0.24274E-07         0.36867E-11         0.00000E+00
    0.24394E-07         0.67285E-11         0.00000E+00
    0.24499E-07         0.99948E-11         0.00000E+00
    0.24591E-07         0.13405E-10         0.00000E+00
    0.24667E-07         0.16820E-10         0.00000E+00
    0.24728E-07         0.20018E-10         0.00000E+00
    0.24774E-07         0.22655E-10         0.00000E+00
    0.24803E-07         0.24218E-10         0.00000E+00
    0.24817E-07         0.23946E-10         0.00000E+00
    0.24814E-07         0.20760E-10         0.00000E+00
    0.24796E-07         0.13265E-10         0.00000E+00
    0.24783E-07         0.00000E+00         0.00000E+00
    0.68850E-08         0.00000E+00         0.00000E+00
    0.68768E-08         0.71052E-11         0.00000E+00
    0.68640E-08         0.11218E-10         0.00000E+00
    0.68590E-08         0.13156E-10         0.00000E+00
    0.68619E-08         0.13659E-10         0.00000E+00
    0.68727E-08         0.13277E-10         0.00000E+00
    0.68914E-08         0.12380E-10         0.00000E+00
    0.69178E-08         0.11217E-10         0.00000E+00
    0.69517E-08         0.99474E-11         0.00000E+00
    0.69930E-08         0.86734E-11         0.00000E+00
    0.70416E-08         0.74568E-11         0.00000E+00
    0.70974E-08         0.63316E-11         0.00000E+00
    0.71603E-08         0.53134E-11         0.00000E+00
    0.72302E-08         0.44059E-11         0.00000E+00
    0.73069E-08         0.36050E-11         0.00000E+00
    0.73905E-08         0.29025E-11         0.00000E+00
    0.74809E-08         0.22876E-11         0.00000E+00
    0.75779E-08         0.17490E-11         0.00000E+00
    0.76815E-08         0.12755E-11         0.00000E+00
    0.77917E-08         0.85624E-12         0.00000E+00
    0.79084E-08         0.48172E-12         0.00000E+00
    0.80315E-08         0.14329E-12         0.00000E+00
    0.81610E-08        -0.16652E-12         0.00000E+00
    0.82969E-08        -0.45418E-12         0.00000E+00
    0.84390E-08        -0.72517E-12         0.00000E+00
    0.85874E-08        -0.98410E-12         0.00000E+00
    0.87420E-08        -0.12349E-11         0.00000E+00
    0.89027E-08        -0.14807E-11         0.00000E+00
    0.90695E-08        -0.17243E-11         0.00000E+00
    0.92423E-08        -0.19678E-11         0.00000E+00
    0.94211E-08        -0.22132E-11         0.00000E+00
    0.96057E-08        -0.24619E-11         0.00000E+00
    0.97963E-08        -0.27153E-11         0.00000E+00
    0.99926E-08        -0.29742E-11         0.00000E+00
    0.10195E-07        -0.32397E-11         0.00000E+00
    0.10402E-07        -0.35122E-11         0.00000E+00
    0.10616E-07        -0.37925E-11         0.00000E+00
    0.10834E-07        -0.40808E-11         0.00000E+00
    0.11058E-07        -0.43774E-11         0.00000E+00
    0.11288E-07        -0.46826E-11         0.00000E+00
    0.11522E-07        -0.49965E-11         0.00000E+00
    0.11762E-07        -0.53190E-11         0.00000E+00
    0.12006E-07        -0.56501E-11         0.00000E+00
    0.12256E-07        -0.59895E-11         0.00000E+00
    0.12510E-07        -0.63370E-11         0.00000E+00
    0.12768E-07        -0.66923E-11         0.00000E+00
    0.13031E-07        -0.70548E-11         0.00000E+00
    0.13298E-07        -0.74241E-11         0.00000E+00
    0.13569E-07        -0.77995E-11         0.00000E+00
    0.13844E-07        -0.81802E-11         0.00000E+00
    0.14123E-07        -0.85654E-11         0.00000E+00
    0.14405E-07        -0.89541E-11         0.00000E+00
    0.14690E-07        -0.93453E-11         0.00000E+00
    0.14978E-07        -0.97377E-11         0.00000E+00
    0.15269E-07        -0.10130E-10         0.00000E+00
    0.15562E-07        -0.10521E-10         0.00000E+00
    0.15858E-07        -0.10909E-10         0.00000E+00
    0.16155E-07        -0.11292E-10         0.00000E+00
    0.16454E-07        -0.11668E-10         0.00000E+00
    0.16754E-07        -0.12036E-10         0.00000E+00
    0.17055E-07        -0.12393E-10         0.00000E+00
    0.17357E-07        -0.12736E-10         0.00000E+00
    0.17659E-07        -0.13065E-10         0.00000E+00
    0.17961E-07        -0.13374E-10         0.00000E+00
    0.18262E-07        -0.13663E-10         0.00000E+00
    0.18563E-07        -0.13928E-10         0.00000E+00
    0.18862E-07        -0.14165E-10         0.00000E+00
    0.19159E-07        -0.14370E-10         0.00000E+00
    0.19454E-07        -0.14542E-10         0.00000E+00
    0.19747E-07        -0.14674E-10         0.00000E+00
    0.20037E-07        -0.14762E-10         0.00000E+00
    0.20322E-07        -0.14803E-10         0.00000E+00
    0.20604E-07        -0.14789E-10         0.00000E+00
    0.20882E-07        -0.14716E-10         0.00000E+00
    0.21154E-07        -0.14577E-10         0.00000E+00
    0.21421E-07        -0.14364E-10         0.00000E+00
    0.21682E-07        -0.14069E-10         0.00000E+00
    0.21936E-07        -0.13682E-10         0.00000E+00
    0.22183E-07        -0.13193E-10         0.00000E+00
    0.22422E-07        -0.12590E-10         0.00000E+00
    0.22653E-07        -0.11858E-10         0.00000E+00
    0.22875E-07        -0.10983E-10         0.00000E+00
    0.23089E-07        -0.99464E-11         0.00000E+00
    0.23292E-07        -0.87302E-11         0.00000E+00
    0.23485E-07        -0.73138E-11         0.00000E+00
    0.23667E-07        -0.56763E-11         0.00000E+00
    0.23837E-07        -0.37970E-11         0.00000E+00
    0.23996E-07        -0.16581E-11         0.00000E+00
    0.24142E-07         0.75348E-12         0.00000E+00
    0.24275E-07         0.34408E-11         0.00000E+00
    0.24394E-07         0.63910E-11         0.00000E+00
    0.24500E-07         0.95666E-11         0.00000E+00
    0.24591E-07         0.12892E-10         0.00000E+00
    0.24668E-07         0.16238E-10         0.00000E+00
    0.24729E-07         0.19392E-10         0.00000E+00
    0.24774E-07         0.22027E-10         0.00000E+00
    0.24803E-07         0.23647E-10         0.00000E+00
    0.24816E-07         0.23505E-10         0.00000E+00
    0.24813E-07         0.20513E-10         0.00000E+00
    0.24794E-07         0.13208E-10         0.00000E+00
    0.24781E-07         0.00000E+00         0.00000E+00
    0.68864E-08         0.00000E+00         0.00000E+00
    0.68779E-08         0.70267E-11         0.00000E+00
    0.68646E-08         0.11003E-10         0.00000E+00
    0.68592E-08         0.12815E-10         0.00000E+00
    0.68619E-08         0.13236E-10         0.00000E+00
    0.68726E-08         0.12814E-10         0.00000E+00
    0.68912E-08         0.11911E-10         0.00000E+00
    0.69175E-08         0.10764E-10         0.00000E+00
    0.69514E-08         0.95239E-11         0.00000E+00
    0.69928E-08         0.82869E-11         0.00000E+00
    0.70414E-08         0.71105E-11         0.00000E+00
    0.70972E-08         0.60259E-11         0.00000E+00
    0.71601E-08         0.50471E-11         0.00000E+00
    0.72300E-08         0.41766E-11         0.00000E+00
    0.73068E-08         0.34099E-11         0.00000E+00
    0.73904E-08         0.27385E-11         0.00000E+00
    0.74808E-08         0.21518E-11         0.00000E+00
    0.75778E-08         0.16387E-11         0.00000E+00
    0.76814E-08         0.11881E-11         0.00000E+00
    0.77916E-08         0.78961E-12         0.00000E+00
    0.79083E-08         0.43388E-12         0.00000E+00
    0.80315E-08         0.11259E-12         0.00000E+00
    0.81610E-08        -0.18149E-12         0.00000E+00
    0.82968E-08        -0.45456E-12         0.00000E+00
    0.84390E-08        -0.71190E-12         0.00000E+00
    0.85874E-08        -0.95793E-12         0.00000E+00
    0.87419E-08        -0.11964E-11         0.00000E+00
    0.89026E-08        -0.14303E-11         0.00000E+00
    0.90694E-08        -0.16623E-11         0.00000E+00
    0.92422E-08        -0.18945E-11         0.00000E+00
    0.94210E-08        -0.21287E-11         0.00000E+00
    0.96057E-08        -0.23662E-11         0.00000E+00
    0.97962E-08        -0.26083E-11         0.00000E+00
    0.99926E-08        -0.28560E-11         0.00000E+00
    0.10195E-07        -0.31100E-11         0.00000E+00
    0.10402E-07        -0.33710E-11         0.00000E+00
    0.10616E-07        -0.36395E-11         0.00000E+00
    0.10834E-07        -0.39158E-11         0.00000E+00
    0.11058E-07        -0.42003E-11         0.00000E+00
    0.11288E-07        -0.44931E-11         0.00000E+00
    0.11522E-07        -0.47942E-11         0.00000E+00
    0.11762E-07        -0.51038E-11         0.00000E+00
    0.12006E-07        -0.54216E-11         0.00000E+00
    0.12256E-07        -0.57476E-11         0.00000E+00
    0.12510E-07        -0.60815E-11         0.00000E+00
    0.12768E-07        -0.64228E-11         0.00000E+00
    0.13031E-07        -0.67712E-11         0.00000E+00
    0.13298E-07        -0.71262E-11         0.00000E+00
    0.13569E-07        -0.74872E-11         0.00000E+00
    0.13844E-07        -0.78533E-11         0.00000E+00
    0.14123E-07        -0.82238E-11         0.00000E+00
    0.14405E-07        -0.85979E-11         0.00000E+00
    0.14690E-07        -0.89743E-11         0.00000E+00
    0.14978E-07        -0.93521E-11         0.00000E+00
    0.15269E-07        -0.97299E-11         0.00000E+00
    0.15562E-07        -0.10106E-10         0.00000E+00
    0.15858E-07        -0.10480E-10         0.00000E+00
    0.16155E-07        -0.10849E-10         0.00000E+00
    0.16454E-07        -0.11212E-10         0.00000E+00
    0.16754E-07        -0.11567E-10         0.00000E+00
    0.17055E-07        -0.11911E-10         0.00000E+00
    0.17357E-07        -0.12243E-10         0.00000E+00
    0.17659E-07        -0.12560E-10         0.00000E+00
    0.17961E-07        -0.12860E-10         0.00000E+00
    0.18262E-07        -0.13140E-10         0.00000E+00
    0.18563E-07        -0.13396E-10         0.00000E+00
    0.18862E-07        -0.13626E-10         0.00000E+00
    0.19159E-07        -0.13827E-10         0.00000E+00
    0.19454E-07        -0.13994E-10         0.00000E+00
    0.19747E-07        -0.14125E-10         0.00000E+00
    0.20037E-07        -0.14213E-10         0.00000E+00
    0.20322E-07        -0.14256E-10         0.00000E+00
    0.20604E-07        -0.14247E-10         0.00000E+00
    0.20882E-07        -0.14182E-10         0.00000E+00
    0.21154E-07        -0.14053E-10         0.00000E+00
    0.21421E-07        -0.13853E-10         0.00000E+00
    0.21682E-07        -0.13575E-10         0.00000E+00
    0.21936E-07        -0.13210E-10         0.00000E+00
    0.22183E-07        -0.12746E-10         0.00000E+00
    0.22422E-07        -0.12173E-10         0.00000E+00
    0.22653E-07        -0.11477E-10         0.00000E+00
    0.22876E-07        -0.10644E-10         0.00000E+00
    0.23089E-07        -0.96555E-11         0.00000E+00
    0.23292E-07        -0.84942E-11         0.00000E+00
    0.23485E-07        -0.71402E-11         0.00000E+00
    0.23667E-07        -0.55729E-11         0.00000E+00
    0.23837E-07        -0.37720E-11         0.00000E+00
    0.23996E-07        -0.17193E-11         0.00000E+00
    0.24142E-07         0.59834E-12         0.00000E+00
    0.24275E-07         0.31854E-11         0.00000E+00
    0.24395E-07         0.60314E-11         0.00000E+00
    0.24501E-07         0.91023E-11         0.00000E+00
    0.24592E-07         0.12329E-10         0.00000E+00
    0.24668E-07         0.15589E-10         0.00000E+00
    0.24729E-07         0.18684E-10         0.00000E+00
    0.24775E-07         0.21304E-10         0.00000E+00
    0.24804E-07         0.22973E-10         0.00000E+00
    0.24816E-07         0.22966E-10         0.00000E+00
    0.24812E-07         0.20188E-10         0.00000E+00
    0.24792E-07         0.13111E-10         0.00000E+00
    0.24778E-07         0.00000E+00         0.00000E+00
    0.68878E-08         0.00000E+00         0.00000E+00
    0.68790E-08         0.69245E-11         0.00000E+00
    0.68652E-08         0.10742E-10         0.00000E+00
    0.68594E-08         0.12417E-10         0.00000E+00
    0.68619E-08         0.12753E-10         0.00000E+00
    0.68724E-08         0.12295E-10         0.00000E+00
    0.68910E-08         0.11391E-10         0.00000E+00
    0.69173E-08         0.10266E-10         0.00000E+00
    0.69512E-08         0.90622E-11         0.00000E+00
    0.69925E-08         0.78683E-11         0.00000E+00
    0.70412E-08         0.67376E-11         0.00000E+00
    0.70970E-08         0.56986E-11         0.00000E+00
    0.71599E-08         0.47633E-11         0.00000E+00
    0.72298E-08         0.39335E-11         0.00000E+00
    0.73066E-08         0.32041E-11         0.00000E+00
    0.73903E-08         0.25665E-11         0.00000E+00
    0.74806E-08         0.20103E-11         0.00000E+00
    0.75777E-08         0.15246E-11         0.00000E+00
    0.76814E-08         0.10985E-11         0.00000E+00
    0.77916E-08         0.72214E-12         0.00000E+00
    0.79083E-08         0.38639E-12         0.00000E+00
    0.80314E-08         0.83291E-13         0.00000E+00
    0.81609E-08        -0.19410E-12         0.00000E+00
    0.82968E-08        -0.45170E-12         0.00000E+00
    0.84389E-08        -0.69456E-12         0.00000E+00
    0.85873E-08        -0.92690E-12         0.00000E+00
    0.87419E-08        -0.11522E-11         0.00000E+00
    0.89026E-08        -0.13735E-11         0.00000E+00
    0.90694E-08        -0.15932E-11         0.00000E+00
    0.92422E-08        -0.18132E-11         0.00000E+00
    0.94210E-08        -0.20353E-11         0.00000E+00
    0.96057E-08        -0.22608E-11         0.00000E+00
    0.97962E-08        -0.24909E-11         0.00000E+00
    0.99925E-08        -0.27263E-11         0.00000E+00
    0.10195E-07        -0.29680E-11         0.00000E+00
    0.10402E-07        -0.32164E-11         0.00000E+00
    0.10615E-07        -0.34721E-11         0.00000E+00
    0.10834E-07        -0.37354E-11         0.00000E+00
    0.11058E-07        -0.40066E-11         0.00000E+00
    0.11288E-07        -0.42858E-11         0.00000E+00
    0.11522E-07        -0.45731E-11         0.00000E+00
    0.11762E-07        -0.48684E-11         0.00000E+00
    0.12006E-07        -0.51718E-11         0.00000E+00
    0.12256E-07        -0.54831E-11         0.00000E+00
    0.12510E-07        -0.58019E-11         0.00000E+00
    0.12768E-07        -0.61279E-11         0.00000E+00
    0.13031E-07        -0.64608E-11         0.00000E+00
    0.13298E-07        -0.68001E-11         0.00000E+00
    0.13569E-07        -0.71451E-11         0.00000E+00
    0.13844E-07        -0.74951E-11         0.00000E+00
    0.14123E-07        -0.78495E-11         0.00000E+00
    0.14405E-07        -0.82072E-11         0.00000E+00
    0.14690E-07        -0.85674E-11         0.00000E+00
    0.14978E-07        -0.89290E-11         0.00000E+00
    0.15269E-07        -0.92906E-11         0.00000E+00
    0.15562E-07        -0.96511E-11         0.00000E+00
    0.15858E-07        -0.10009E-10         0.00000E+00
    0.16155E-07        -0.10363E-10         0.00000E+00
    0.16454E-07        -0.10711E-10         0.00000E+00
    0.16754E-07        -0.11051E-10         0.00000E+00
    0.17055E-07        -0.11381E-10         0.00000E+00
    0.17357E-07        -0.11700E-10         0.00000E+00
    0.17659E-07        -0.12005E-10         0.00000E+00
    0.17961E-07        -0.12293E-10         0.00000E+00
    0.18262E-07        -0.12562E-10         0.00000E+00
    0.18563E-07        -0.12809E-10         0.00000E+00
    0.18862E-07        -0.13032E-10         0.00000E+00
    0.19159E-07        -0.13226E-10         0.00000E+00
    0.19454E-07        -0.13389E-10         0.00000E+00
    0.19747E-07        -0.13517E-10         0.00000E+00
    0.20037E-07        -0.13605E-10         0.00000E+00
    0.20322E-07        -0.13649E-10         0.00000E+00
    0.20604E-07        -0.13645E-10         0.00000E+00
    0.20882E-07        -0.13586E-10         0.00000E+00
    0.21154E-07        -0.13468E-10         0.00000E+00
    0.21421E-07        -0.13282E-10         0.00000E+00
    0.21682E-07        -0.13022E-10         0.00000E+00
    0.21936E-07        -0.12679E-10         0.00000E+00
    0.22183E-07        -0.12243E-10         0.00000E+00
    0.22422E-07        -0.11702E-10         0.00000E+00
    0.22653E-07        -0.11044E-10         0.00000E+00
    0.22876E-07        -0.10255E-10         0.00000E+00
    0.23089E-07        -0.93187E-11         0.00000E+00
    0.23292E-07        -0.82168E-11         0.00000E+00
    0.23485E-07        -0.69304E-11         0.00000E+00
    0.23667E-07        -0.54396E-11         0.00000E+00
    0.23838E-07        -0.37244E-11         0.00000E+00
    0.23996E-07        -0.17667E-11         0.00000E+00
    0.24143E-07         0.44716E-12         0.00000E+00
    0.24276E-07         0.29226E-11         0.00000E+00
    0.24396E-07         0.56514E-11         0.00000E+00
    0.24501E-07         0.86033E-11         0.00000E+00
    0.24593E-07         0.11715E-10         0.00000E+00
    0.24669E-07         0.14873E-10         0.00000E+00
    0.24730E-07         0.17894E-10         0.00000E+00
    0.24775E-07         0.20484E-10         0.00000E+00
    0.24804E-07         0.22193E-10         0.00000E+00
    0.24816E-07         0.22320E-10         0.00000E+00
    0.24811E-07         0.19778E-10         0.00000E+00
    0.24790E-07         0.12971E-10         0.00000E+00
    0.24775E-07         0.00000E+00         0.00000E+00
    0.68892E-08         0.00000E+00         0.00000E+00
    0.68800E-08         0.67955E-11         0.00000E+00
    0.68657E-08         0.10430E-10         0.00000E+00
    0.68596E-08         0.11958E-10         0.00000E+00
    0.68618E-08         0.12208E-10         0.00000E+00
    0.68723E-08         0.11718E-10         0.00000E+00
    0.68908E-08         0.10820E-10         0.00000E+00
    0.69171E-08         0.97242E-11         0.00000E+00
    0.69509E-08         0.85628E-11         0.00000E+00
    0.69923E-08         0.74183E-11         0.00000E+00
    0.70410E-08         0.63391E-11         0.00000E+00
    0.70968E-08         0.53505E-11         0.00000E+00
    0.71598E-08         0.44631E-11         0.00000E+00
    0.72297E-08         0.36775E-11         0.00000E+00
    0.73065E-08         0.29885E-11         0.00000E+00
    0.73902E-08         0.23873E-11         0.00000E+00
    0.74805E-08         0.18638E-11         0.00000E+00
    0.75776E-08         0.14072E-11         0.00000E+00
    0.76813E-08         0.10073E-11         0.00000E+00
    0.77915E-08         0.65429E-12         0.00000E+00
    0.79082E-08         0.33966E-12         0.00000E+00
    0.80313E-08         0.55755E-13         0.00000E+00
    0.81609E-08        -0.20404E-12         0.00000E+00
    0.82967E-08        -0.44535E-12         0.00000E+00
    0.84389E-08        -0.67294E-12         0.00000E+00
    0.85873E-08        -0.89082E-12         0.00000E+00
    0.87418E-08        -0.11023E-11         0.00000E+00
    0.89025E-08        -0.13102E-11         0.00000E+00
    0.90693E-08        -0.15168E-11         0.00000E+00
    0.92421E-08        -0.17239E-11         0.00000E+00
    0.94209E-08        -0.19331E-11         0.00000E+00
    0.96056E-08        -0.21457E-11         0.00000E+00
    0.97962E-08        -0.23628E-11         0.00000E+00
    0.99925E-08        -0.25852E-11         0.00000E+00
    0.10195E-07        -0.28136E-11         0.00000E+00
    0.10402E-07        -0.30485E-11         0.00000E+00
    0.10615E-07        -0.32904E-11         0.00000E+00
    0.10834E-07        -0.35396E-11         0.00000E+00
    0.11058E-07        -0.37963E-11         0.00000E+00
    0.11288E-07        -0.40608E-11         0.00000E+00
    0.11522E-07        -0.43330E-11         0.00000E+00
    0.11762E-07        -0.46130E-11         0.00000E+00
    0.12006E-07        -0.49007E-11         0.00000E+00
    0.12256E-07        -0.51958E-11         0.00000E+00
    0.12510E-07        -0.54983E-11         0.00000E+00
    0.12768E-07        -0.58076E-11         0.00000E+00
    0.13031E-07        -0.61236E-11         0.00000E+00
    0.13298E-07        -0.64457E-11         0.00000E+00
    0.13569E-07        -0.67732E-11         0.00000E+00
    0.13844E-07        -0.71057E-11         0.00000E+00
    0.14123E-07        -0.74423E-11         0.00000E+00
    0.14405E-07        -0.77822E-11         0.00000E+00
    0.14690E-07        -0.81246E-11         0.00000E+00
    0.14978E-07        -0.84682E-11         0.00000E+00
    0.15269E-07        -0.88122E-11         0.00000E+00
    0.15562E-07        -0.91551E-11         0.00000E+00
    0.15858E-07        -0.94956E-11         0.00000E+00
    0.16155E-07        -0.98323E-11         0.00000E+00
    0.16454E-07        -0.10163E-10         0.00000E+00
    0.16754E-07        -0.10488E-10         0.00000E+00
    0.17055E-07        -0.10803E-10         0.00000E+00
    0.17357E-07        -0.11107E-10         0.00000E+00
    0.17659E-07        -0.11397E-10         0.00000E+00
    0.17961E-07        -0.11673E-10         0.00000E+00
    0.18262E-07        -0.11930E-10         0.00000E+00
    0.18563E-07        -0.12167E-10         0.00000E+00
    0.18862E-07        -0.12380E-10         0.00000E+00
    0.19159E-07        -0.12567E-10         0.00000E+00
    0.19454E-07        -0.12725E-10         0.00000E+00
    0.19747E-07        -0.12849E-10         0.00000E+00
    0.20036E-07        -0.12936E-10         0.00000E+00
    0.20322E-07        -0.12981E-10         0.00000E+00
    0.20604E-07        -0.12981E-10         0.00000E+00
    0.20882E-07        -0.12930E-10         0.00000E+00
    0.21154E-07        -0.12822E-10         0.00000E+00
    0.21421E-07        -0.12651E-10         0.00000E+00
    0.21682E-07        -0.12409E-10         0.00000E+00
    0.21936E-07        -0.12089E-10         0.00000E+00
    0.22183E-07        -0.11681E-10         0.00000E+00
    0.22422E-07        -0.11175E-10         0.00000E+00
    0.22654E-07        -0.10558E-10         0.00000E+00
    0.22876E-07        -0.98159E-11         0.00000E+00
    0.23089E-07        -0.89345E-11         0.00000E+00
    0.23292E-07        -0.78962E-11         0.00000E+00
    0.23485E-07        -0.66826E-11         0.00000E+00
    0.23668E-07        -0.52744E-11         0.00000E+00
    0.23838E-07        -0.36522E-11         0.00000E+00
    0.23997E-07        -0.17980E-11         0.00000E+00
    0.24143E-07         0.30208E-12         0.00000E+00
    0.24276E-07         0.26545E-11         0.00000E+00
    0.24396E-07         0.52530E-11         0.00000E+00
    0.24502E-07         0.80712E-11         0.00000E+00
    0.24593E-07         0.11052E-10         0.00000E+00
    0.24669E-07         0.14092E-10         0.00000E+00
    0.24730E-07         0.17019E-10         0.00000E+00
    0.24775E-07         0.19564E-10         0.00000E+00
    0.24804E-07         0.21300E-10         0.00000E+00
    0.24816E-07         0.21561E-10         0.00000E+00
    0.24810E-07         0.19272E-10         0.00000E+00
    0.24788E-07         0.12779E-10         0.00000E+00
    0.24773E-07         0.00000E+00         0.00000E+00
    0.68906E-08         0.00000E+00         0.00000E+00
    0.68810E-08         0.66359E-11         0.00000E+00
    0.68662E-08         0.10063E-10         0.00000E+00
    0.68598E-08         0.11433E-10         0.00000E+00
    0.68618E-08         0.11599E-10         0.00000E+00
    0.68722E-08         0.11083E-10         0.00000E+00
    0.68906E-08         0.10197E-10         0.00000E+00
    0.69168E-08         0.91380E-11         0.00000E+00
    0.69507E-08         0.80265E-11         0.00000E+00
    0.69921E-08         0.69379E-11         0.00000E+00
    0.70408E-08         0.59158E-11         0.00000E+00
    0.70966E-08         0.49827E-11         0.00000E+00
    0.71596E-08         0.41474E-11         0.00000E+00
    0.72295E-08         0.34097E-11         0.00000E+00
    0.73064E-08         0.27640E-11         0.00000E+00
    0.73901E-08         0.22018E-11         0.00000E+00
    0.74805E-08         0.17129E-11         0.00000E+00
    0.75775E-08         0.12873E-11         0.00000E+00
    0.76812E-08         0.91487E-12         0.00000E+00
    0.77914E-08         0.58656E-12         0.00000E+00
    0.79081E-08         0.29413E-12         0.00000E+00
    0.80313E-08         0.30348E-13         0.00000E+00
    0.81608E-08        -0.21100E-12         0.00000E+00
    0.82967E-08        -0.43523E-12         0.00000E+00
    0.84388E-08        -0.64681E-12         0.00000E+00
    0.85872E-08        -0.84951E-12         0.00000E+00
    0.87418E-08        -0.10465E-11         0.00000E+00
    0.89025E-08        -0.12402E-11         0.00000E+00
    0.90693E-08        -0.14329E-11         0.00000E+00
    0.92421E-08        -0.16264E-11         0.00000E+00
    0.94209E-08        -0.18220E-11         0.00000E+00
    0.96056E-08        -0.20209E-11         0.00000E+00
    0.97961E-08        -0.22242E-11         0.00000E+00
    0.99924E-08        -0.24326E-11         0.00000E+00
    0.10194E-07        -0.26467E-11         0.00000E+00
    0.10402E-07        -0.28671E-11         0.00000E+00
    0.10615E-07        -0.30942E-11         0.00000E+00
    0.10834E-07        -0.33283E-11         0.00000E+00
    0.11058E-07        -0.35696E-11         0.00000E+00
    0.11288E-07        -0.38181E-11         0.00000E+00
    0.11522E-07        -0.40741E-11         0.00000E+00
    0.11762E-07        -0.43375E-11         0.00000E+00
    0.12006E-07        -0.46081E-11         0.00000E+00
    0.12256E-07        -0.48859E-11         0.00000E+00
    0.12510E-07        -0.51706E-11         0.00000E+00
    0.12768E-07        -0.54620E-11         0.00000E+00
    0.13031E-07        -0.57596E-11         0.00000E+00
    0.13298E-07        -0.60629E-11         0.00000E+00
    0.13569E-07        -0.63716E-11         0.00000E+00
    0.13844E-07        -0.66849E-11         0.00000E+00
    0.14123E-07        -0.70023E-11         0.00000E+00
    0.14405E-07        -0.73228E-11         0.00000E+00
    0.14690E-07        -0.76457E-11         0.00000E+00
    0.14978E-07        -0.79699E-11         0.00000E+00
    0.15269E-07        -0.82944E-11         0.00000E+00
    0.15562E-07        -0.86181E-11         0.00000E+00
    0.15857E-07        -0.89396E-11         0.00000E+00
    0.16155E-07        -0.92576E-11         0.00000E+00
    0.16454E-07        -0.95706E-11         0.00000E+00
    0.16754E-07        -0.98770E-11         0.00000E+00
    0.17055E-07        -0.10175E-10         0.00000E+00
    0.17357E-07        -0.10463E-10         0.00000E+00
    0.17659E-07        -0.10738E-10         0.00000E+00
    0.17961E-07        -0.10999E-10         0.00000E+00
    0.18262E-07        -0.11243E-10         0.00000E+00
    0.18563E-07        -0.11469E-10         0.00000E+00
    0.18862E-07        -0.11672E-10         0.00000E+00
    0.19159E-07        -0.11850E-10         0.00000E+00
    0.19454E-07        -0.12001E-10         0.00000E+00
    0.19747E-07        -0.12121E-10         0.00000E+00
    0.20036E-07        -0.12206E-10         0.00000E+00
    0.20322E-07        -0.12252E-10         0.00000E+00
    0.20604E-07        -0.12256E-10         0.00000E+00
    0.20882E-07        -0.12211E-10         0.00000E+00
    0.21154E-07        -0.12114E-10         0.00000E+00
    0.21421E-07        -0.11957E-10         0.00000E+00
    0.21682E-07        -0.11735E-10         0.00000E+00
    0.21936E-07        -0.11439E-10         0.00000E+00
    0.22183E-07        -0.11061E-10         0.00000E+00
    0.22422E-07        -0.10590E-10         0.00000E+00
    0.22654E-07        -0.10016E-10         0.00000E+00
    0.22876E-07        -0.93241E-11         0.00000E+00
    0.23089E-07        -0.85012E-11         0.00000E+00
    0.23293E-07        -0.75307E-11         0.00000E+00
    0.23486E-07        -0.63950E-11         0.00000E+00
    0.23668E-07        -0.50754E-11         0.00000E+00
    0.23839E-07        -0.35533E-11         0.00000E+00
    0.23997E-07        -0.18110E-11         0.00000E+00
    0.24144E-07         0.16537E-12         0.00000E+00
    0.24277E-07         0.23832E-11         0.00000E+00
    0.24397E-07         0.48383E-11         0.00000E+00
    0.24502E-07         0.75079E-11         0.00000E+00
    0.24594E-07         0.10341E-10         0.00000E+00
    0.24670E-07         0.13244E-10         0.00000E+00
    0.24731E-07         0.16060E-10         0.00000E+00
    0.24776E-07         0.18541E-10         0.00000E+00
    0.24804E-07         0.20290E-10         0.00000E+00
    0.24815E-07         0.20678E-10         0.00000E+00
    0.24809E-07         0.18659E-10         0.00000E+00
    0.24786E-07         0.12529E-10         0.00000E+00
    0.24770E-07         0.18626E-20         0.00000E+00
    0.68919E-08         0.00000E+00         0.00000E+00
    0.68820E-08         0.64410E-11         0.00000E+00
    0.68667E-08         0.96339E-11         0.00000E+00
    0.68599E-08         0.10838E-10         0.00000E+00
    0.68618E-08         0.10922E-10         0.00000E+00
    0.68720E-08         0.10387E-10         0.00000E+00
    0.68904E-08         0.95226E-11         0.00000E+00
    0.69166E-08         0.85080E-11         0.00000E+00
    0.69505E-08         0.74540E-11         0.00000E+00
    0.69919E-08         0.64279E-11         0.00000E+00
    0.70406E-08         0.54688E-11         0.00000E+00
    0.70965E-08         0.45962E-11         0.00000E+00
    0.71594E-08         0.38172E-11         0.00000E+00
    0.72294E-08         0.31310E-11         0.00000E+00
    0.73063E-08         0.25316E-11         0.00000E+00
    0.73900E-08         0.20106E-11         0.00000E+00
    0.74804E-08         0.15585E-11         0.00000E+00
    0.75774E-08         0.11654E-11         0.00000E+00
    0.76811E-08         0.82195E-12         0.00000E+00
    0.77914E-08         0.51946E-12         0.00000E+00
    0.79081E-08         0.25021E-12         0.00000E+00
    0.80312E-08         0.74421E-14         0.00000E+00
    0.81608E-08        -0.21467E-12         0.00000E+00
    0.82966E-08        -0.42108E-12         0.00000E+00
    0.84388E-08        -0.61596E-12         0.00000E+00
    0.85872E-08        -0.80280E-12         0.00000E+00
    0.87418E-08        -0.98450E-12         0.00000E+00
    0.89025E-08        -0.11634E-11         0.00000E+00
    0.90692E-08        -0.13416E-11         0.00000E+00
    0.92421E-08        -0.15206E-11         0.00000E+00
    0.94208E-08        -0.17018E-11         0.00000E+00
    0.96055E-08        -0.18863E-11         0.00000E+00
    0.97961E-08        -0.20749E-11         0.00000E+00
    0.99924E-08        -0.22685E-11         0.00000E+00
    0.10194E-07        -0.24675E-11         0.00000E+00
    0.10402E-07        -0.26725E-11         0.00000E+00
    0.10615E-07        -0.28837E-11         0.00000E+00
    0.10834E-07        -0.31016E-11         0.00000E+00
    0.11058E-07        -0.33263E-11         0.00000E+00
    0.11288E-07        -0.35579E-11         0.00000E+00
    0.11522E-07        -0.37964E-11         0.00000E+00
    0.11762E-07        -0.40419E-11         0.00000E+00
    0.12006E-07        -0.42943E-11         0.00000E+00
    0.12255E-07        -0.45534E-11         0.00000E+00
    0.12510E-07        -0.48191E-11         0.00000E+00
    0.12768E-07        -0.50909E-11         0.00000E+00
    0.13031E-07        -0.53687E-11         0.00000E+00
    0.13298E-07        -0.56520E-11         0.00000E+00
    0.13569E-07        -0.59402E-11         0.00000E+00
    0.13844E-07        -0.62329E-11         0.00000E+00
    0.14123E-07        -0.65294E-11         0.00000E+00
    0.14405E-07        -0.68289E-11         0.00000E+00
    0.14690E-07        -0.71307E-11         0.00000E+00
    0.14978E-07        -0.74338E-11         0.00000E+00
    0.15269E-07        -0.77374E-11         0.00000E+00
    0.15562E-07        -0.80402E-11         0.00000E+00
    0.15857E-07        -0.83411E-11         0.00000E+00
    0.16155E-07        -0.86388E-11         0.00000E+00
    0.16454E-07        -0.89319E-11         0.00000E+00
    0.16754E-07        -0.92189E-11         0.00000E+00
    0.17055E-07        -0.94983E-11         0.00000E+00
    0.17357E-07        -0.97681E-11         0.00000E+00
    0.17659E-07        -0.10027E-10         0.00000E+00
    0.17961E-07        -0.10272E-10         0.00000E+00
    0.18262E-07        -0.10502E-10         0.00000E+00
    0.18562E-07        -0.10714E-10         0.00000E+00
    0.18862E-07        -0.10905E-10         0.00000E+00
    0.19159E-07        -0.11074E-10         0.00000E+00
    0.19454E-07        -0.11218E-10         0.00000E+00
    0.19747E-07        -0.11332E-10         0.00000E+00
    0.20036E-07        -0.11414E-10         0.00000E+00
    0.20322E-07        -0.11461E-10         0.00000E+00
    0.20604E-07        -0.11467E-10         0.00000E+00
    0.20882E-07        -0.11430E-10         0.00000E+00
    0.21154E-07        -0.11343E-10         0.00000E+00
    0.21421E-07        -0.11201E-10         0.00000E+00
    0.21682E-07        -0.10999E-10         0.00000E+00
    0.21936E-07        -0.10728E-10         0.00000E+00
    0.22183E-07        -0.10380E-10         0.00000E+00
    0.22423E-07        -0.99468E-11         0.00000E+00
    0.22654E-07        -0.94169E-11         0.00000E+00
    0.22876E-07        -0.87782E-11         0.00000E+00
    0.23090E-07        -0.80172E-11         0.00000E+00
    0.23293E-07        -0.71185E-11         0.00000E+00
    0.23486E-07        -0.60655E-11         0.00000E+00
    0.23668E-07        -0.48404E-11         0.00000E+00
    0.23839E-07        -0.34254E-11         0.00000E+00
    0.23998E-07        -0.18034E-11         0.00000E+00
    0.24144E-07         0.39446E-13         0.00000E+00
    0.24277E-07         0.21113E-11         0.00000E+00
    0.24397E-07         0.44096E-11         0.00000E+00
    0.24503E-07         0.69154E-11         0.00000E+00
    0.24594E-07         0.95838E-11         0.00000E+00
    0.24671E-07         0.12331E-10         0.00000E+00
    0.24731E-07         0.15016E-10         0.00000E+00
    0.24776E-07         0.17412E-10         0.00000E+00
    0.24804E-07         0.19155E-10         0.00000E+00
    0.24815E-07         0.19661E-10         0.00000E+00
    0.24809E-07         0.17927E-10         0.00000E+00
    0.24784E-07         0.12210E-10         0.00000E+00
    0.24768E-07         0.14597E-20         0.00000E+00
    0.68931E-08         0.00000E+00         0.00000E+00
    0.68830E-08         0.62050E-11         0.00000E+00
    0.68671E-08         0.91355E-11         0.00000E+00
    0.68600E-08         0.10168E-10         0.00000E+00
    0.68617E-08         0.10176E-10         0.00000E+00
    0.68719E-08         0.96301E-11         0.00000E+00
    0.68902E-08         0.87959E-11         0.00000E+00
    0.69164E-08         0.78348E-11         0.00000E+00
    0.69503E-08         0.68461E-11         0.00000E+00
    0.69917E-08         0.58895E-11         0.00000E+00
    0.70404E-08         0.49993E-11         0.00000E+00
    0.70963E-08         0.41922E-11         0.00000E+00
    0.71593E-08         0.34738E-11         0.00000E+00
    0.72293E-08         0.28424E-11         0.00000E+00
    0.73062E-08         0.22921E-11         0.00000E+00
    0.73899E-08         0.18148E-11         0.00000E+00
    0.74803E-08         0.14013E-11         0.00000E+00
    0.75774E-08         0.10423E-11         0.00000E+00
    0.76811E-08         0.72909E-12         0.00000E+00
    0.77913E-08         0.45349E-12         0.00000E+00
    0.79080E-08         0.20836E-12         0.00000E+00
    0.80312E-08        -0.12585E-13         0.00000E+00
    0.81607E-08        -0.21473E-12         0.00000E+00
    0.82966E-08        -0.40264E-12         0.00000E+00
    0.84388E-08        -0.58016E-12         0.00000E+00
    0.85872E-08        -0.75050E-12         0.00000E+00
    0.87417E-08        -0.91630E-12         0.00000E+00
    0.89024E-08        -0.10798E-11         0.00000E+00
    0.90692E-08        -0.12427E-11         0.00000E+00
    0.92420E-08        -0.14066E-11         0.00000E+00
    0.94208E-08        -0.15727E-11         0.00000E+00
    0.96055E-08        -0.17419E-11         0.00000E+00
    0.97960E-08        -0.19151E-11         0.00000E+00
    0.99924E-08        -0.20929E-11         0.00000E+00
    0.10194E-07        -0.22759E-11         0.00000E+00
    0.10402E-07        -0.24644E-11         0.00000E+00
    0.10615E-07        -0.26589E-11         0.00000E+00
    0.10834E-07        -0.28596E-11         0.00000E+00
    0.11058E-07        -0.30666E-11         0.00000E+00
    0.11287E-07        -0.32800E-11         0.00000E+00
    0.11522E-07        -0.35000E-11         0.00000E+00
    0.11762E-07        -0.37264E-11         0.00000E+00
    0.12006E-07        -0.39593E-11         0.00000E+00
    0.12255E-07        -0.41984E-11         0.00000E+00
    0.12509E-07        -0.44436E-11         0.00000E+00
    0.12768E-07        -0.46946E-11         0.00000E+00
    0.13031E-07        -0.49511E-11         0.00000E+00
    0.13298E-07        -0.52128E-11         0.00000E+00
    0.13569E-07        -0.54791E-11         0.00000E+00
    0.13844E-07        -0.57496E-11         0.00000E+00
    0.14123E-07        -0.60236E-11         0.00000E+00
    0.14405E-07        -0.63006E-11         0.00000E+00
    0.14690E-07        -0.65797E-11         0.00000E+00
    0.14978E-07        -0.68601E-11         0.00000E+00
    0.15269E-07        -0.71409E-11         0.00000E+00
    0.15562E-07        -0.74212E-11         0.00000E+00
    0.15857E-07        -0.76998E-11         0.00000E+00
    0.16155E-07        -0.79755E-11         0.00000E+00
    0.16454E-07        -0.82471E-11         0.00000E+00
    0.16754E-07        -0.85132E-11         0.00000E+00
    0.17055E-07        -0.87723E-11         0.00000E+00
    0.17357E-07        -0.90227E-11         0.00000E+00
    0.17659E-07        -0.92628E-11         0.00000E+00
    0.17961E-07        -0.94908E-11         0.00000E+00
    0.18262E-07        -0.97046E-11         0.00000E+00
    0.18562E-07        -0.99021E-11         0.00000E+00
    0.18862E-07        -0.10081E-10         0.00000E+00
    0.19159E-07        -0.10239E-10         0.00000E+00
    0.19454E-07        -0.10374E-10         0.00000E+00
    0.19747E-07        -0.10482E-10         0.00000E+00
    0.20036E-07        -0.10561E-10         0.00000E+00
    0.20322E-07        -0.10606E-10         0.00000E+00
    0.20604E-07        -0.10616E-10         0.00000E+00
    0.20882E-07        -0.10585E-10         0.00000E+00
    0.21154E-07        -0.10508E-10         0.00000E+00
    0.21421E-07        -0.10382E-10         0.00000E+00
    0.21682E-07        -0.10199E-10         0.00000E+00
    0.21936E-07        -0.99536E-11         0.00000E+00
    0.22183E-07        -0.96380E-11         0.00000E+00
    0.22423E-07        -0.92435E-11         0.00000E+00
    0.22654E-07        -0.87602E-11         0.00000E+00
    0.22876E-07        -0.81768E-11         0.00000E+00
    0.23090E-07        -0.74808E-11         0.00000E+00
    0.23293E-07        -0.66577E-11         0.00000E+00
    0.23486E-07        -0.56920E-11         0.00000E+00
    0.23668E-07        -0.45672E-11         0.00000E+00
    0.23839E-07        -0.32662E-11         0.00000E+00
    0.23998E-07        -0.17727E-11         0.00000E+00
    0.24144E-07        -0.73125E-13         0.00000E+00
    0.24278E-07         0.18412E-11         0.00000E+00
    0.24398E-07         0.39694E-11         0.00000E+00
    0.24503E-07         0.62960E-11         0.00000E+00
    0.24595E-07         0.87821E-11         0.00000E+00
    0.24671E-07         0.11354E-10         0.00000E+00
    0.24732E-07         0.13886E-10         0.00000E+00
    0.24777E-07         0.16175E-10         0.00000E+00
    0.24805E-07         0.17892E-10         0.00000E+00
    0.24815E-07         0.18501E-10         0.00000E+00
    0.24808E-07         0.17060E-10         0.00000E+00
    0.24783E-07         0.11811E-10         0.00000E+00
    0.24765E-07        -0.18626E-20         0.00000E+00
    0.68943E-08         0.00000E+00         0.00000E+00
    0.68839E-08         0.59208E-11         0.00000E+00
    0.68674E-08         0.85597E-11         0.00000E+00
    0.68601E-08         0.94173E-11         0.00000E+00
    0.68617E-08         0.93575E-11         0.00000E+00
    0.68718E-08         0.88113E-11         0.00000E+00
    0.68900E-08         0.80174E-11         0.00000E+00
    0.69162E-08         0.71191E-11         0.00000E+00
    0.69501E-08         0.62038E-11         0.00000E+00
    0.69915E-08         0.53238E-11         0.00000E+00
    0.70402E-08         0.45085E-11         0.00000E+00
    0.70962E-08         0.37719E-11         0.00000E+00
    0.71592E-08         0.31181E-11         0.00000E+00
    0.72292E-08         0.25450E-11         0.00000E+00
    0.73061E-08         0.20466E-11         0.00000E+00
    0.73898E-08         0.16152E-11         0.00000E+00
    0.74802E-08         0.12421E-11         0.00000E+00
    0.75773E-08         0.91873E-12         0.00000E+00
    0.76810E-08         0.63690E-12         0.00000E+00
    0.77913E-08         0.38919E-12         0.00000E+00
    0.79080E-08         0.16903E-12         0.00000E+00
    0.80312E-08        -0.29348E-13         0.00000E+00
    0.81607E-08        -0.21085E-12         0.00000E+00
    0.82966E-08        -0.37963E-12         0.00000E+00
    0.84387E-08        -0.53918E-12         0.00000E+00
    0.85871E-08        -0.69242E-12         0.00000E+00
    0.87417E-08        -0.84173E-12         0.00000E+00
    0.89024E-08        -0.98911E-12         0.00000E+00
    0.90692E-08        -0.11362E-11         0.00000E+00
    0.92420E-08        -0.12843E-11         0.00000E+00
    0.94208E-08        -0.14345E-11         0.00000E+00
    0.96055E-08        -0.15877E-11         0.00000E+00
    0.97960E-08        -0.17446E-11         0.00000E+00
    0.99923E-08        -0.19058E-11         0.00000E+00
    0.10194E-07        -0.20719E-11         0.00000E+00
    0.10402E-07        -0.22431E-11         0.00000E+00
    0.10615E-07        -0.24198E-11         0.00000E+00
    0.10834E-07        -0.26022E-11         0.00000E+00
    0.11058E-07        -0.27905E-11         0.00000E+00
    0.11287E-07        -0.29846E-11         0.00000E+00
    0.11522E-07        -0.31848E-11         0.00000E+00
    0.11762E-07        -0.33909E-11         0.00000E+00
    0.12006E-07        -0.36030E-11         0.00000E+00
    0.12255E-07        -0.38208E-11         0.00000E+00
    0.12509E-07        -0.40442E-11         0.00000E+00
    0.12768E-07        -0.42729E-11         0.00000E+00
    0.13031E-07        -0.45068E-11         0.00000E+00
    0.13298E-07        -0.47453E-11         0.00000E+00
    0.13569E-07        -0.49882E-11         0.00000E+00
    0.13844E-07        -0.52349E-11         0.00000E+00
    0.14122E-07        -0.54850E-11         0.00000E+00
    0.14404E-07        -0.57377E-11         0.00000E+00
    0.14690E-07        -0.59925E-11         0.00000E+00
    0.14978E-07        -0.62485E-11         0.00000E+00
    0.15269E-07        -0.65050E-11         0.00000E+00
    0.15562E-07        -0.67611E-11         0.00000E+00
    0.15857E-07        -0.70157E-11         0.00000E+00
    0.16155E-07        -0.72678E-11         0.00000E+00
    0.16454E-07        -0.75162E-11         0.00000E+00
    0.16754E-07        -0.77596E-11         0.00000E+00
    0.17055E-07        -0.79968E-11         0.00000E+00
    0.17357E-07        -0.82262E-11         0.00000E+00
    0.17659E-07        -0.84463E-11         0.00000E+00
    0.17961E-07        -0.86554E-11         0.00000E+00
    0.18262E-07        -0.88518E-11         0.00000E+00
    0.18562E-07        -0.90335E-11         0.00000E+00
    0.18862E-07        -0.91985E-11         0.00000E+00
    0.19159E-07        -0.93445E-11         0.00000E+00
    0.19454E-07        -0.94692E-11         0.00000E+00
    0.19747E-07        -0.95701E-11         0.00000E+00
    0.20036E-07        -0.96443E-11         0.00000E+00
    0.20322E-07        -0.96888E-11         0.00000E+00
    0.20604E-07        -0.97003E-11         0.00000E+00
    0.20882E-07        -0.96751E-11         0.00000E+00
    0.21154E-07        -0.96090E-11         0.00000E+00
    0.21421E-07        -0.94974E-11         0.00000E+00
    0.21682E-07        -0.93350E-11         0.00000E+00
    0.21936E-07        -0.91159E-11         0.00000E+00
    0.22183E-07        -0.88331E-11         0.00000E+00
    0.22423E-07        -0.84788E-11         0.00000E+00
    0.22654E-07        -0.80439E-11         0.00000E+00
    0.22877E-07        -0.75182E-11         0.00000E+00
    0.23090E-07        -0.68900E-11         0.00000E+00
    0.23293E-07        -0.61463E-11         0.00000E+00
    0.23486E-07        -0.52726E-11         0.00000E+00
    0.23669E-07        -0.42535E-11         0.00000E+00
    0.23839E-07        -0.30732E-11         0.00000E+00
    0.23998E-07        -0.17164E-11         0.00000E+00
    0.24145E-07        -0.16964E-12         0.00000E+00
    0.24278E-07         0.15757E-11         0.00000E+00
    0.24398E-07         0.35204E-11         0.00000E+00
    0.24504E-07         0.56521E-11         0.00000E+00
    0.24595E-07         0.79380E-11         0.00000E+00
    0.24672E-07         0.10314E-10         0.00000E+00
    0.24732E-07         0.12671E-10         0.00000E+00
    0.24777E-07         0.14828E-10         0.00000E+00
    0.24805E-07         0.16494E-10         0.00000E+00
    0.24815E-07         0.17188E-10         0.00000E+00
    0.24807E-07         0.16041E-10         0.00000E+00
    0.24781E-07         0.11316E-10         0.00000E+00
    0.24763E-07        -0.14596E-20         0.00000E+00
    0.68955E-08         0.00000E+00         0.00000E+00
    0.68847E-08         0.55792E-11         0.00000E+00
    0.68678E-08         0.78972E-11         0.00000E+00
    0.68602E-08         0.85816E-11         0.00000E+00
    0.68616E-08         0.84644E-11         0.00000E+00
    0.68716E-08         0.79296E-11         0.00000E+00
    0.68899E-08         0.71871E-11         0.00000E+00
    0.69161E-08         0.63615E-11         0.00000E+00
    0.69499E-08         0.55283E-11         0.00000E+00
    0.69913E-08         0.47322E-11         0.00000E+00
    0.70401E-08         0.39978E-11         0.00000E+00
    0.70960E-08         0.33367E-11         0.00000E+00
    0.71591E-08         0.27516E-11         0.00000E+00
    0.72291E-08         0.22400E-11         0.00000E+00
    0.73060E-08         0.17962E-11         0.00000E+00
    0.73897E-08         0.14128E-11         0.00000E+00
    0.74801E-08         0.10818E-11         0.00000E+00
    0.75773E-08         0.79531E-12         0.00000E+00
    0.76810E-08         0.54600E-12         0.00000E+00
    0.77912E-08         0.32711E-12         0.00000E+00
    0.79080E-08         0.13267E-12         0.00000E+00
    0.80311E-08        -0.42458E-13         0.00000E+00
    0.81607E-08        -0.20270E-12         0.00000E+00
    0.82965E-08        -0.35178E-12         0.00000E+00
    0.84387E-08        -0.49281E-12         0.00000E+00
    0.85871E-08        -0.62838E-12         0.00000E+00
    0.87417E-08        -0.76063E-12         0.00000E+00
    0.89024E-08        -0.89131E-12         0.00000E+00
    0.90691E-08        -0.10219E-11         0.00000E+00
    0.92420E-08        -0.11535E-11         0.00000E+00
    0.94207E-08        -0.12871E-11         0.00000E+00
    0.96054E-08        -0.14236E-11         0.00000E+00
    0.97960E-08        -0.15635E-11         0.00000E+00
    0.99923E-08        -0.17073E-11         0.00000E+00
    0.10194E-07        -0.18556E-11         0.00000E+00
    0.10402E-07        -0.20085E-11         0.00000E+00
    0.10615E-07        -0.21665E-11         0.00000E+00
    0.10834E-07        -0.23296E-11         0.00000E+00
    0.11058E-07        -0.24980E-11         0.00000E+00
    0.11287E-07        -0.26718E-11         0.00000E+00
    0.11522E-07        -0.28510E-11         0.00000E+00
    0.11761E-07        -0.30356E-11         0.00000E+00
    0.12006E-07        -0.32255E-11         0.00000E+00
    0.12255E-07        -0.34207E-11         0.00000E+00
    0.12509E-07        -0.36209E-11         0.00000E+00
    0.12768E-07        -0.38260E-11         0.00000E+00
    0.13031E-07        -0.40357E-11         0.00000E+00
    0.13298E-07        -0.42497E-11         0.00000E+00
    0.13569E-07        -0.44676E-11         0.00000E+00
    0.13844E-07        -0.46890E-11         0.00000E+00
    0.14122E-07        -0.49134E-11         0.00000E+00
    0.14404E-07        -0.51404E-11         0.00000E+00
    0.14690E-07        -0.53691E-11         0.00000E+00
    0.14978E-07        -0.55991E-11         0.00000E+00
    0.15269E-07        -0.58296E-11         0.00000E+00
    0.15562E-07        -0.60597E-11         0.00000E+00
    0.15857E-07        -0.62886E-11         0.00000E+00
    0.16155E-07        -0.65154E-11         0.00000E+00
    0.16454E-07        -0.67389E-11         0.00000E+00
    0.16754E-07        -0.69580E-11         0.00000E+00
    0.17055E-07        -0.71716E-11         0.00000E+00
    0.17357E-07        -0.73783E-11         0.00000E+00
    0.17659E-07        -0.75768E-11         0.00000E+00
    0.17961E-07        -0.77656E-11         0.00000E+00
    0.18262E-07        -0.79430E-11         0.00000E+00
    0.18562E-07        -0.81074E-11         0.00000E+00
    0.18862E-07        -0.82569E-11         0.00000E+00
    0.19159E-07        -0.83896E-11         0.00000E+00
    0.19454E-07        -0.85033E-11         0.00000E+00
    0.19747E-07        -0.85958E-11         0.00000E+00
    0.20036E-07        -0.86646E-11         0.00000E+00
    0.20322E-07        -0.87070E-11         0.00000E+00
    0.20604E-07        -0.87200E-11         0.00000E+00
    0.20882E-07        -0.87003E-11         0.00000E+00
    0.21154E-07        -0.86442E-11         0.00000E+00
    0.21421E-07        -0.85476E-11         0.00000E+00
    0.21682E-07        -0.84058E-11         0.00000E+00
    0.21936E-07        -0.82134E-11         0.00000E+00
    0.22183E-07        -0.79642E-11         0.00000E+00
    0.22423E-07        -0.76513E-11         0.00000E+00
    0.22654E-07        -0.72666E-11         0.00000E+00
    0.22877E-07        -0.68007E-11         0.00000E+00
    0.23090E-07        -0.62432E-11         0.00000E+00
    0.23293E-07        -0.55823E-11         0.00000E+00
    0.23487E-07        -0.48049E-11         0.00000E+00
    0.23669E-07        -0.38969E-11         0.00000E+00
    0.23840E-07        -0.28439E-11         0.00000E+00
    0.23999E-07        -0.16315E-11         0.00000E+00
    0.24145E-07        -0.24724E-12         0.00000E+00
    0.24278E-07         0.13178E-11         0.00000E+00
    0.24398E-07         0.30655E-11         0.00000E+00
    0.24504E-07         0.49865E-11         0.00000E+00
    0.24596E-07         0.70536E-11         0.00000E+00
    0.24672E-07         0.92129E-11         0.00000E+00
    0.24733E-07         0.11370E-10         0.00000E+00
    0.24777E-07         0.13369E-10         0.00000E+00
    0.24805E-07         0.14957E-10         0.00000E+00
    0.24815E-07         0.15709E-10         0.00000E+00
    0.24807E-07         0.14851E-10         0.00000E+00
    0.24779E-07         0.10708E-10         0.00000E+00
    0.24761E-07         0.00000E+00         0.00000E+00
    0.68966E-08         0.00000E+00         0.00000E+00
    0.68854E-08         0.51686E-11         0.00000E+00
    0.68680E-08         0.71376E-11         0.00000E+00
    0.68602E-08         0.76556E-11         0.00000E+00
    0.68615E-08         0.74946E-11         0.00000E+00
    0.68715E-08         0.69846E-11         0.00000E+00
    0.68897E-08         0.63055E-11         0.00000E+00
    0.69159E-08         0.55631E-11         0.00000E+00
    0.69498E-08         0.48208E-11         0.00000E+00
    0.69912E-08         0.41159E-11         0.00000E+00
    0.70399E-08         0.34686E-11         0.00000E+00
    0.70959E-08         0.28879E-11         0.00000E+00
    0.71590E-08         0.23755E-11         0.00000E+00
    0.72290E-08         0.19287E-11         0.00000E+00
    0.73059E-08         0.15419E-11         0.00000E+00
    0.73896E-08         0.12084E-11         0.00000E+00
    0.74801E-08         0.92108E-12         0.00000E+00
    0.75772E-08         0.67282E-12         0.00000E+00
    0.76809E-08         0.45704E-12         0.00000E+00
    0.77912E-08         0.26778E-12         0.00000E+00
    0.79079E-08         0.99769E-13         0.00000E+00
    0.80311E-08        -0.51519E-13         0.00000E+00
    0.81606E-08        -0.18996E-12         0.00000E+00
    0.82965E-08        -0.31882E-12         0.00000E+00
    0.84387E-08        -0.44082E-12         0.00000E+00
    0.85871E-08        -0.55821E-12         0.00000E+00
    0.87416E-08        -0.67285E-12         0.00000E+00
    0.89023E-08        -0.78628E-12         0.00000E+00
    0.90691E-08        -0.89974E-12         0.00000E+00
    0.92419E-08        -0.10143E-11         0.00000E+00
    0.94207E-08        -0.11307E-11         0.00000E+00
    0.96054E-08        -0.12496E-11         0.00000E+00
    0.97959E-08        -0.13717E-11         0.00000E+00
    0.99923E-08        -0.14973E-11         0.00000E+00
    0.10194E-07        -0.16269E-11         0.00000E+00
    0.10402E-07        -0.17607E-11         0.00000E+00
    0.10615E-07        -0.18989E-11         0.00000E+00
    0.10834E-07        -0.20416E-11         0.00000E+00
    0.11058E-07        -0.21891E-11         0.00000E+00
    0.11287E-07        -0.23414E-11         0.00000E+00
    0.11522E-07        -0.24985E-11         0.00000E+00
    0.11761E-07        -0.26604E-11         0.00000E+00
    0.12006E-07        -0.28270E-11         0.00000E+00
    0.12255E-07        -0.29982E-11         0.00000E+00
    0.12509E-07        -0.31739E-11         0.00000E+00
    0.12768E-07        -0.33539E-11         0.00000E+00
    0.13031E-07        -0.35380E-11         0.00000E+00
    0.13298E-07        -0.37259E-11         0.00000E+00
    0.13569E-07        -0.39173E-11         0.00000E+00
    0.13844E-07        -0.41118E-11         0.00000E+00
    0.14122E-07        -0.43090E-11         0.00000E+00
    0.14404E-07        -0.45085E-11         0.00000E+00
    0.14690E-07        -0.47096E-11         0.00000E+00
    0.14978E-07        -0.49119E-11         0.00000E+00
    0.15268E-07        -0.51146E-11         0.00000E+00
    0.15562E-07        -0.53171E-11         0.00000E+00
    0.15857E-07        -0.55186E-11         0.00000E+00
    0.16155E-07        -0.57182E-11         0.00000E+00
    0.16454E-07        -0.59151E-11         0.00000E+00
    0.16754E-07        -0.61082E-11         0.00000E+00
    0.17055E-07        -0.62965E-11         0.00000E+00
    0.17357E-07        -0.64789E-11         0.00000E+00
    0.17659E-07        -0.66542E-11         0.00000E+00
    0.17960E-07        -0.68209E-11         0.00000E+00
    0.18262E-07        -0.69779E-11         0.00000E+00
    0.18562E-07        -0.71235E-11         0.00000E+00
    0.18862E-07        -0.72562E-11         0.00000E+00
    0.19159E-07        -0.73742E-11         0.00000E+00
    0.19454E-07        -0.74757E-11         0.00000E+00
    0.19747E-07        -0.75587E-11         0.00000E+00
    0.20036E-07        -0.76211E-11         0.00000E+00
    0.20322E-07        -0.76604E-11         0.00000E+00
    0.20604E-07        -0.76742E-11         0.00000E+00
    0.20882E-07        -0.76595E-11         0.00000E+00
    0.21154E-07        -0.76130E-11         0.00000E+00
    0.21421E-07        -0.75313E-11         0.00000E+00
    0.21682E-07        -0.74102E-11         0.00000E+00
    0.21936E-07        -0.72449E-11         0.00000E+00
    0.22183E-07        -0.70302E-11         0.00000E+00
    0.22423E-07        -0.67598E-11         0.00000E+00
    0.22654E-07        -0.64266E-11         0.00000E+00
    0.22877E-07        -0.60226E-11         0.00000E+00
    0.23090E-07        -0.55384E-11         0.00000E+00
    0.23294E-07        -0.49637E-11         0.00000E+00
    0.23487E-07        -0.42867E-11         0.00000E+00
    0.23669E-07        -0.34951E-11         0.00000E+00
    0.23840E-07        -0.25756E-11         0.00000E+00
    0.23999E-07        -0.15155E-11         0.00000E+00
    0.24145E-07        -0.30291E-12         0.00000E+00
    0.24279E-07         0.10706E-11         0.00000E+00
    0.24399E-07         0.26078E-11         0.00000E+00
    0.24505E-07         0.43021E-11         0.00000E+00
    0.24596E-07         0.61317E-11         0.00000E+00
    0.24673E-07         0.80521E-11         0.00000E+00
    0.24733E-07         0.99843E-11         0.00000E+00
    0.24778E-07         0.11797E-10         0.00000E+00
    0.24805E-07         0.13275E-10         0.00000E+00
    0.24815E-07         0.14054E-10         0.00000E+00
    0.24806E-07         0.13469E-10         0.00000E+00
    0.24778E-07         0.99613E-11         0.00000E+00
    0.24759E-07         0.00000E+00         0.00000E+00
    0.68976E-08         0.00000E+00         0.00000E+00
    0.68861E-08         0.46737E-11         0.00000E+00
    0.68683E-08         0.62697E-11         0.00000E+00
    0.68602E-08         0.66347E-11         0.00000E+00
    0.68615E-08         0.64461E-11         0.00000E+00
    0.68714E-08         0.59758E-11         0.00000E+00
    0.68896E-08         0.53733E-11         0.00000E+00
    0.69158E-08         0.47251E-11         0.00000E+00
    0.69497E-08         0.40828E-11         0.00000E+00
    0.69911E-08         0.34766E-11         0.00000E+00
    0.70398E-08         0.29224E-11         0.00000E+00
    0.70958E-08         0.24270E-11         0.00000E+00
    0.71589E-08         0.19912E-11         0.00000E+00
    0.72289E-08         0.16122E-11         0.00000E+00
    0.73058E-08         0.12848E-11         0.00000E+00
    0.73896E-08         0.10032E-11         0.00000E+00
    0.74800E-08         0.76098E-12         0.00000E+00
    0.75772E-08         0.55204E-12         0.00000E+00
    0.76809E-08         0.37068E-12         0.00000E+00
    0.77911E-08         0.21176E-12         0.00000E+00
    0.79079E-08         0.70787E-13         0.00000E+00
    0.80311E-08        -0.56131E-13         0.00000E+00
    0.81606E-08        -0.17229E-12         0.00000E+00
    0.82965E-08        -0.28047E-12         0.00000E+00
    0.84387E-08        -0.38297E-12         0.00000E+00
    0.85870E-08        -0.48171E-12         0.00000E+00
    0.87416E-08        -0.57826E-12         0.00000E+00
    0.89023E-08        -0.67390E-12         0.00000E+00
    0.90691E-08        -0.76969E-12         0.00000E+00
    0.92419E-08        -0.86648E-12         0.00000E+00
    0.94207E-08        -0.96498E-12         0.00000E+00
    0.96054E-08        -0.10658E-11         0.00000E+00
    0.97959E-08        -0.11693E-11         0.00000E+00
    0.99922E-08        -0.12759E-11         0.00000E+00
    0.10194E-07        -0.13859E-11         0.00000E+00
    0.10402E-07        -0.14996E-11         0.00000E+00
    0.10615E-07        -0.16171E-11         0.00000E+00
    0.10834E-07        -0.17385E-11         0.00000E+00
    0.11058E-07        -0.18640E-11         0.00000E+00
    0.11287E-07        -0.19937E-11         0.00000E+00
    0.11522E-07        -0.21274E-11         0.00000E+00
    0.11761E-07        -0.22653E-11         0.00000E+00
    0.12006E-07        -0.24073E-11         0.00000E+00
    0.12255E-07        -0.25532E-11         0.00000E+00
    0.12509E-07        -0.27031E-11         0.00000E+00
    0.12768E-07        -0.28566E-11         0.00000E+00
    0.13031E-07        -0.30136E-11         0.00000E+00
    0.13298E-07        -0.31740E-11         0.00000E+00
    0.13569E-07        -0.33373E-11         0.00000E+00
    0.13844E-07        -0.35033E-11         0.00000E+00
    0.14122E-07        -0.36717E-11         0.00000E+00
    0.14404E-07        -0.38420E-11         0.00000E+00
    0.14689E-07        -0.40139E-11         0.00000E+00
    0.14978E-07        -0.41867E-11         0.00000E+00
    0.15268E-07        -0.43600E-11         0.00000E+00
    0.15562E-07        -0.45331E-11         0.00000E+00
    0.15857E-07        -0.47054E-11         0.00000E+00
    0.16155E-07        -0.48762E-11         0.00000E+00
    0.16453E-07        -0.50447E-11         0.00000E+00
    0.16754E-07        -0.52100E-11         0.00000E+00
    0.17055E-07        -0.53714E-11         0.00000E+00
    0.17357E-07        -0.55277E-11         0.00000E+00
    0.17659E-07        -0.56780E-11         0.00000E+00
    0.17960E-07        -0.58212E-11         0.00000E+00
    0.18262E-07        -0.59561E-11         0.00000E+00
    0.18562E-07        -0.60814E-11         0.00000E+00
    0.18861E-07        -0.61957E-11         0.00000E+00
    0.19159E-07        -0.62977E-11         0.00000E+00
    0.19454E-07        -0.63857E-11         0.00000E+00
    0.19747E-07        -0.64581E-11         0.00000E+00
    0.20036E-07        -0.65130E-11         0.00000E+00
    0.20322E-07        -0.65484E-11         0.00000E+00
    0.20604E-07        -0.65622E-11         0.00000E+00
    0.20882E-07        -0.65518E-11         0.00000E+00
    0.21154E-07        -0.65146E-11         0.00000E+00
    0.21421E-07        -0.64475E-11         0.00000E+00
    0.21682E-07        -0.63471E-11         0.00000E+00
    0.21936E-07        -0.62092E-11         0.00000E+00
    0.22183E-07        -0.60295E-11         0.00000E+00
    0.22423E-07        -0.58026E-11         0.00000E+00
    0.22654E-07        -0.55225E-11         0.00000E+00
    0.22877E-07        -0.51822E-11         0.00000E+00
    0.23090E-07        -0.47738E-11         0.00000E+00
    0.23294E-07        -0.42883E-11         0.00000E+00
    0.23487E-07        -0.37158E-11         0.00000E+00
    0.23669E-07        -0.30453E-11         0.00000E+00
    0.23840E-07        -0.22656E-11         0.00000E+00
    0.23999E-07        -0.13651E-11         0.00000E+00
    0.24145E-07        -0.33349E-12         0.00000E+00
    0.24279E-07         0.83729E-12         0.00000E+00
    0.24399E-07         0.21506E-11         0.00000E+00
    0.24505E-07         0.36021E-11         0.00000E+00
    0.24597E-07         0.51751E-11         0.00000E+00
    0.24673E-07         0.68340E-11         0.00000E+00
    0.24734E-07         0.85149E-11         0.00000E+00
    0.24778E-07         0.10111E-10         0.00000E+00
    0.24805E-07         0.11445E-10         0.00000E+00
    0.24815E-07         0.12214E-10         0.00000E+00
    0.24806E-07         0.11871E-10         0.00000E+00
    0.24777E-07         0.90453E-11         0.00000E+00
    0.24757E-07         0.00000E+00         0.00000E+00
    0.68984E-08         0.00000E+00         0.00000E+00
    0.68867E-08         0.40744E-11         0.00000E+00
    0.68684E-08         0.52817E-11         0.00000E+00
    0.68603E-08         0.55147E-11         0.00000E+00
    0.68614E-08         0.53174E-11         0.00000E+00
    0.68713E-08         0.49033E-11         0.00000E+00
    0.68895E-08         0.43912E-11         0.00000E+00
    0.69156E-08         0.38486E-11         0.00000E+00
    0.69495E-08         0.33158E-11         0.00000E+00
    0.69910E-08         0.28159E-11         0.00000E+00
    0.70397E-08         0.23609E-11         0.00000E+00
    0.70957E-08         0.19556E-11         0.00000E+00
    0.71588E-08         0.16002E-11         0.00000E+00
    0.72288E-08         0.12919E-11         0.00000E+00
    0.73058E-08         0.10262E-11         0.00000E+00
    0.73895E-08         0.79814E-12         0.00000E+00
    0.74800E-08         0.60236E-12         0.00000E+00
    0.75771E-08         0.43375E-12         0.00000E+00
    0.76809E-08         0.28759E-12         0.00000E+00
    0.77911E-08         0.15964E-12         0.00000E+00
    0.79079E-08         0.46209E-13         0.00000E+00
    0.80310E-08        -0.55893E-13         0.00000E+00
    0.81606E-08        -0.14936E-12         0.00000E+00
    0.82965E-08        -0.23646E-12         0.00000E+00
    0.84386E-08        -0.31906E-12         0.00000E+00
    0.85870E-08        -0.39871E-12         0.00000E+00
    0.87416E-08        -0.47670E-12         0.00000E+00
    0.89023E-08        -0.55406E-12         0.00000E+00
    0.90691E-08        -0.63164E-12         0.00000E+00
    0.92419E-08        -0.71013E-12         0.00000E+00
    0.94207E-08        -0.79009E-12         0.00000E+00
    0.96054E-08        -0.87199E-12         0.00000E+00
    0.97959E-08        -0.95618E-12         0.00000E+00
    0.99922E-08        -0.10430E-11         0.00000E+00
    0.10194E-07        -0.11326E-11         0.00000E+00
    0.10402E-07        -0.12253E-11         0.00000E+00
    0.10615E-07        -0.13211E-11         0.00000E+00
    0.10834E-07        -0.14202E-11         0.00000E+00
    0.11058E-07        -0.15227E-11         0.00000E+00
    0.11287E-07        -0.16286E-11         0.00000E+00
    0.11522E-07        -0.17379E-11         0.00000E+00
    0.11761E-07        -0.18506E-11         0.00000E+00
    0.12006E-07        -0.19666E-11         0.00000E+00
    0.12255E-07        -0.20860E-11         0.00000E+00
    0.12509E-07        -0.22085E-11         0.00000E+00
    0.12768E-07        -0.23341E-11         0.00000E+00
    0.13031E-07        -0.24626E-11         0.00000E+00
    0.13298E-07        -0.25939E-11         0.00000E+00
    0.13569E-07        -0.27276E-11         0.00000E+00
    0.13844E-07        -0.28636E-11         0.00000E+00
    0.14122E-07        -0.30015E-11         0.00000E+00
    0.14404E-07        -0.31411E-11         0.00000E+00
    0.14689E-07        -0.32819E-11         0.00000E+00
    0.14978E-07        -0.34235E-11         0.00000E+00
    0.15268E-07        -0.35656E-11         0.00000E+00
    0.15562E-07        -0.37076E-11         0.00000E+00
    0.15857E-07        -0.38490E-11         0.00000E+00
    0.16155E-07        -0.39891E-11         0.00000E+00
    0.16453E-07        -0.41275E-11         0.00000E+00
    0.16754E-07        -0.42633E-11         0.00000E+00
    0.17055E-07        -0.43959E-11         0.00000E+00
    0.17357E-07        -0.45245E-11         0.00000E+00
    0.17659E-07        -0.46482E-11         0.00000E+00
    0.17960E-07        -0.47661E-11         0.00000E+00
    0.18262E-07        -0.48773E-11         0.00000E+00
    0.18562E-07        -0.49807E-11         0.00000E+00
    0.18861E-07        -0.50753E-11         0.00000E+00
    0.19159E-07        -0.51598E-11         0.00000E+00
    0.19454E-07        -0.52330E-11         0.00000E+00
    0.19747E-07        -0.52935E-11         0.00000E+00
    0.20036E-07        -0.53398E-11         0.00000E+00
    0.20322E-07        -0.53703E-11         0.00000E+00
    0.20604E-07        -0.53832E-11         0.00000E+00
    0.20882E-07        -0.53765E-11         0.00000E+00
    0.21154E-07        -0.53480E-11         0.00000E+00
    0.21421E-07        -0.52953E-11         0.00000E+00
    0.21682E-07        -0.52154E-11         0.00000E+00
    0.21936E-07        -0.51053E-11         0.00000E+00
    0.22183E-07        -0.49610E-11         0.00000E+00
    0.22423E-07        -0.47784E-11         0.00000E+00
    0.22654E-07        -0.45525E-11         0.00000E+00
    0.22877E-07        -0.42776E-11         0.00000E+00
    0.23090E-07        -0.39473E-11         0.00000E+00
    0.23294E-07        -0.35540E-11         0.00000E+00
    0.23487E-07        -0.30896E-11         0.00000E+00
    0.23669E-07        -0.25451E-11         0.00000E+00
    0.23840E-07        -0.19109E-11         0.00000E+00
    0.23999E-07        -0.11774E-11         0.00000E+00
    0.24146E-07        -0.33566E-12         0.00000E+00
    0.24279E-07         0.62148E-12         0.00000E+00
    0.24399E-07         0.16976E-11         0.00000E+00
    0.24505E-07         0.28902E-11         0.00000E+00
    0.24597E-07         0.41871E-11         0.00000E+00
    0.24673E-07         0.55612E-11         0.00000E+00
    0.24734E-07         0.69634E-11         0.00000E+00
    0.24778E-07         0.83098E-11         0.00000E+00
    0.24806E-07         0.94624E-11         0.00000E+00
    0.24815E-07         0.10180E-10         0.00000E+00
    0.24806E-07         0.10032E-10         0.00000E+00
    0.24776E-07         0.79182E-11         0.00000E+00
    0.24755E-07         0.00000E+00         0.00000E+00
    0.68992E-08         0.00000E+00         0.00000E+00
    0.68872E-08         0.33433E-11         0.00000E+00
    0.68686E-08         0.41624E-11         0.00000E+00
    0.68603E-08         0.42920E-11         0.00000E+00
    0.68613E-08         0.41068E-11         0.00000E+00
    0.68712E-08         0.37672E-11         0.00000E+00
    0.68894E-08         0.33603E-11         0.00000E+00
    0.69155E-08         0.29353E-11         0.00000E+00
    0.69494E-08         0.25216E-11         0.00000E+00
    0.69909E-08         0.21356E-11         0.00000E+00
    0.70397E-08         0.17858E-11         0.00000E+00
    0.70956E-08         0.14754E-11         0.00000E+00
    0.71587E-08         0.12040E-11         0.00000E+00
    0.72288E-08         0.96911E-12         0.00000E+00
    0.73057E-08         0.76725E-12         0.00000E+00
    0.73895E-08         0.59432E-12         0.00000E+00
    0.74800E-08         0.44614E-12         0.00000E+00
    0.75771E-08         0.31874E-12         0.00000E+00
    0.76808E-08         0.20844E-12         0.00000E+00
    0.77911E-08         0.11199E-12         0.00000E+00
    0.79078E-08         0.26519E-13         0.00000E+00
    0.80310E-08        -0.50397E-13         0.00000E+00
    0.81606E-08        -0.12083E-12         0.00000E+00
    0.82965E-08        -0.18650E-12         0.00000E+00
    0.84386E-08        -0.24884E-12         0.00000E+00
    0.85870E-08        -0.30904E-12         0.00000E+00
    0.87416E-08        -0.36804E-12         0.00000E+00
    0.89023E-08        -0.42665E-12         0.00000E+00
    0.90691E-08        -0.48551E-12         0.00000E+00
    0.92419E-08        -0.54513E-12         0.00000E+00
    0.94207E-08        -0.60595E-12         0.00000E+00
    0.96053E-08        -0.66829E-12         0.00000E+00
    0.97959E-08        -0.73245E-12         0.00000E+00
    0.99922E-08        -0.79864E-12         0.00000E+00
    0.10194E-07        -0.86704E-12         0.00000E+00
    0.10402E-07        -0.93780E-12         0.00000E+00
    0.10615E-07        -0.10110E-11         0.00000E+00
    0.10834E-07        -0.10868E-11         0.00000E+00
    0.11058E-07        -0.11652E-11         0.00000E+00
    0.11287E-07        -0.12462E-11         0.00000E+00
    0.11522E-07        -0.13298E-11         0.00000E+00
    0.11761E-07        -0.14161E-11         0.00000E+00
    0.12006E-07        -0.15050E-11         0.00000E+00
    0.12255E-07        -0.15964E-11         0.00000E+00
    0.12509E-07        -0.16903E-11         0.00000E+00
    0.12768E-07        -0.17866E-11         0.00000E+00
    0.13031E-07        -0.18851E-11         0.00000E+00
    0.13298E-07        -0.19857E-11         0.00000E+00
    0.13569E-07        -0.20883E-11         0.00000E+00
    0.13844E-07        -0.21926E-11         0.00000E+00
    0.14122E-07        -0.22984E-11         0.00000E+00
    0.14404E-07        -0.24055E-11         0.00000E+00
    0.14689E-07        -0.25136E-11         0.00000E+00
    0.14978E-07        -0.26224E-11         0.00000E+00
    0.15268E-07        -0.27315E-11         0.00000E+00
    0.15562E-07        -0.28406E-11         0.00000E+00
    0.15857E-07        -0.29492E-11         0.00000E+00
    0.16154E-07        -0.30570E-11         0.00000E+00
    0.16453E-07        -0.31634E-11         0.00000E+00
    0.16754E-07        -0.32679E-11         0.00000E+00
    0.17055E-07        -0.33700E-11         0.00000E+00
    0.17357E-07        -0.34690E-11         0.00000E+00
    0.17659E-07        -0.35643E-11         0.00000E+00
    0.17960E-07        -0.36553E-11         0.00000E+00
    0.18262E-07        -0.37411E-11         0.00000E+00
    0.18562E-07        -0.38211E-11         0.00000E+00
    0.18861E-07        -0.38943E-11         0.00000E+00
    0.19159E-07        -0.39599E-11         0.00000E+00
    0.19454E-07        -0.40169E-11         0.00000E+00
    0.19747E-07        -0.40642E-11         0.00000E+00
    0.20036E-07        -0.41008E-11         0.00000E+00
    0.20322E-07        -0.41253E-11         0.00000E+00
    0.20604E-07        -0.41364E-11         0.00000E+00
    0.20882E-07        -0.41327E-11         0.00000E+00
    0.21154E-07        -0.41124E-11         0.00000E+00
    0.21421E-07        -0.40736E-11         0.00000E+00
    0.21682E-07        -0.40142E-11         0.00000E+00
    0.21936E-07        -0.39317E-11         0.00000E+00
    0.22183E-07        -0.38233E-11         0.00000E+00
    0.22423E-07        -0.36857E-11         0.00000E+00
    0.22654E-07        -0.35151E-11         0.00000E+00
    0.22877E-07        -0.33072E-11         0.00000E+00
    0.23090E-07        -0.30569E-11         0.00000E+00
    0.23294E-07        -0.27586E-11         0.00000E+00
    0.23487E-07        -0.24058E-11         0.00000E+00
    0.23669E-07        -0.19917E-11         0.00000E+00
    0.23840E-07        -0.15086E-11         0.00000E+00
    0.23999E-07        -0.94910E-12         0.00000E+00
    0.24146E-07        -0.30593E-12         0.00000E+00
    0.24279E-07         0.42680E-12         0.00000E+00
    0.24399E-07         0.12525E-11         0.00000E+00
    0.24506E-07         0.21700E-11         0.00000E+00
    0.24597E-07         0.31712E-11         0.00000E+00
    0.24673E-07         0.42369E-11         0.00000E+00
    0.24734E-07         0.53316E-11         0.00000E+00
    0.24779E-07         0.63942E-11         0.00000E+00
    0.24806E-07         0.73240E-11         0.00000E+00
    0.24815E-07         0.79439E-11         0.00000E+00
    0.24805E-07         0.79297E-11         0.00000E+00
    0.24775E-07         0.65241E-11         0.00000E+00
    0.24754E-07        -0.18626E-20         0.00000E+00
    0.68998E-08         0.00000E+00         0.00000E+00
    0.68875E-08         0.24431E-11         0.00000E+00
    0.68686E-08         0.29035E-11         0.00000E+00
    0.68602E-08         0.29633E-11         0.00000E+00
    0.68613E-08         0.28136E-11         0.00000E+00
    0.68711E-08         0.25682E-11         0.00000E+00
    0.68893E-08         0.22819E-11         0.00000E+00
    0.69155E-08         0.19869E-11         0.00000E+00
    0.69494E-08         0.17020E-11         0.00000E+00
    0.69908E-08         0.14376E-11         0.00000E+00
    0.70396E-08         0.11991E-11         0.00000E+00
    0.70956E-08         0.98809E-12         0.00000E+00
    0.71587E-08         0.80414E-12         0.00000E+00
    0.72288E-08         0.64537E-12         0.00000E+00
    0.73057E-08         0.50923E-12         0.00000E+00
    0.73895E-08         0.39283E-12         0.00000E+00
    0.74799E-08         0.29329E-12         0.00000E+00
    0.75771E-08         0.20783E-12         0.00000E+00
    0.76808E-08         0.13394E-12         0.00000E+00
    0.77911E-08         0.69383E-13         0.00000E+00
    0.79078E-08         0.12211E-13         0.00000E+00
    0.80310E-08        -0.39236E-13         0.00000E+00
    0.81606E-08        -0.86360E-13         0.00000E+00
    0.82965E-08        -0.13033E-12         0.00000E+00
    0.84386E-08        -0.17211E-12         0.00000E+00
    0.85870E-08        -0.21250E-12         0.00000E+00
    0.87416E-08        -0.25215E-12         0.00000E+00
    0.89023E-08        -0.29158E-12         0.00000E+00
    0.90691E-08        -0.33123E-12         0.00000E+00
    0.92419E-08        -0.37144E-12         0.00000E+00
    0.94206E-08        -0.41251E-12         0.00000E+00
    0.96053E-08        -0.45465E-12         0.00000E+00
    0.97959E-08        -0.49806E-12         0.00000E+00
    0.99922E-08        -0.54287E-12         0.00000E+00
    0.10194E-07        -0.58922E-12         0.00000E+00
    0.10402E-07        -0.63720E-12         0.00000E+00
    0.10615E-07        -0.68687E-12         0.00000E+00
    0.10834E-07        -0.73830E-12         0.00000E+00
    0.11058E-07        -0.79151E-12         0.00000E+00
    0.11287E-07        -0.84653E-12         0.00000E+00
    0.11522E-07        -0.90337E-12         0.00000E+00
    0.11761E-07        -0.96201E-12         0.00000E+00
    0.12006E-07        -0.10224E-11         0.00000E+00
    0.12255E-07        -0.10846E-11         0.00000E+00
    0.12509E-07        -0.11485E-11         0.00000E+00
    0.12768E-07        -0.12140E-11         0.00000E+00
    0.13031E-07        -0.12810E-11         0.00000E+00
    0.13298E-07        -0.13495E-11         0.00000E+00
    0.13569E-07        -0.14193E-11         0.00000E+00
    0.13844E-07        -0.14903E-11         0.00000E+00
    0.14122E-07        -0.15624E-11         0.00000E+00
    0.14404E-07        -0.16354E-11         0.00000E+00
    0.14689E-07        -0.17090E-11         0.00000E+00
    0.14978E-07        -0.17832E-11         0.00000E+00
    0.15268E-07        -0.18576E-11         0.00000E+00
    0.15562E-07        -0.19320E-11         0.00000E+00
    0.15857E-07        -0.20061E-11         0.00000E+00
    0.16154E-07        -0.20796E-11         0.00000E+00
    0.16453E-07        -0.21522E-11         0.00000E+00
    0.16754E-07        -0.22236E-11         0.00000E+00
    0.17055E-07        -0.22933E-11         0.00000E+00
    0.17357E-07        -0.23610E-11         0.00000E+00
    0.17659E-07        -0.24262E-11         0.00000E+00
    0.17960E-07        -0.24885E-11         0.00000E+00
    0.18262E-07        -0.25473E-11         0.00000E+00
    0.18562E-07        -0.26022E-11         0.00000E+00
    0.18861E-07        -0.26525E-11         0.00000E+00
    0.19159E-07        -0.26977E-11         0.00000E+00
    0.19454E-07        -0.27370E-11         0.00000E+00
    0.19747E-07        -0.27698E-11         0.00000E+00
    0.20036E-07        -0.27954E-11         0.00000E+00
    0.20322E-07        -0.28128E-11         0.00000E+00
    0.20604E-07        -0.28212E-11         0.00000E+00
    0.20882E-07        -0.28196E-11         0.00000E+00
    0.21154E-07        -0.28067E-11         0.00000E+00
    0.21421E-07        -0.27814E-11         0.00000E+00
    0.21682E-07        -0.27422E-11         0.00000E+00
    0.21936E-07        -0.26874E-11         0.00000E+00
    0.22184E-07        -0.26150E-11         0.00000E+00
    0.22423E-07        -0.25229E-11         0.00000E+00
    0.22654E-07        -0.24086E-11         0.00000E+00
    0.22877E-07        -0.22689E-11         0.00000E+00
    0.23090E-07        -0.21006E-11         0.00000E+00
    0.23294E-07        -0.18997E-11         0.00000E+00
    0.23487E-07        -0.16618E-11         0.00000E+00
    0.23669E-07        -0.13822E-11         0.00000E+00
    0.23840E-07        -0.10557E-11         0.00000E+00
    0.23999E-07        -0.67683E-12         0.00000E+00
    0.24146E-07        -0.24067E-12         0.00000E+00
    0.24280E-07         0.25715E-12         0.00000E+00
    0.24400E-07         0.81932E-12         0.00000E+00
    0.24506E-07         0.14456E-11         0.00000E+00
    0.24597E-07         0.21313E-11         0.00000E+00
    0.24674E-07         0.28644E-11         0.00000E+00
    0.24734E-07         0.36221E-11         0.00000E+00
    0.24779E-07         0.43653E-11         0.00000E+00
    0.24806E-07         0.50277E-11         0.00000E+00
    0.24815E-07         0.54983E-11         0.00000E+00
    0.24805E-07         0.55462E-11         0.00000E+00
    0.24774E-07         0.47859E-11         0.00000E+00
    0.24753E-07         0.40334E-21         0.00000E+00
    0.69002E-08        -0.18626E-20         0.00000E+00
    0.68878E-08         0.13209E-11         0.00000E+00
    0.68687E-08         0.15034E-11         0.00000E+00
    0.68602E-08         0.15245E-11         0.00000E+00
    0.68613E-08         0.14376E-11         0.00000E+00
    0.68711E-08         0.13072E-11         0.00000E+00
    0.68893E-08         0.11577E-11         0.00000E+00
    0.69154E-08         0.10054E-11         0.00000E+00
    0.69493E-08         0.85915E-12         0.00000E+00
    0.69908E-08         0.72411E-12         0.00000E+00
    0.70396E-08         0.60266E-12         0.00000E+00
    0.70956E-08         0.49554E-12         0.00000E+00
    0.71587E-08         0.40237E-12         0.00000E+00
    0.72287E-08         0.32212E-12         0.00000E+00
    0.73057E-08         0.25344E-12         0.00000E+00
    0.73894E-08         0.19483E-12         0.00000E+00
    0.74799E-08         0.14477E-12         0.00000E+00
    0.75771E-08         0.10185E-12         0.00000E+00
    0.76808E-08         0.64787E-13         0.00000E+00
    0.77911E-08         0.32425E-13         0.00000E+00
    0.79078E-08         0.37780E-14         0.00000E+00
    0.80310E-08        -0.21999E-13         0.00000E+00
    0.81606E-08        -0.45617E-13         0.00000E+00
    0.82964E-08        -0.67667E-13         0.00000E+00
    0.84386E-08        -0.88638E-13         0.00000E+00
    0.85870E-08        -0.10893E-12         0.00000E+00
    0.87416E-08        -0.12887E-12         0.00000E+00
    0.89023E-08        -0.14873E-12         0.00000E+00
    0.90691E-08        -0.16872E-12         0.00000E+00
    0.92419E-08        -0.18901E-12         0.00000E+00
    0.94206E-08        -0.20975E-12         0.00000E+00
    0.96053E-08        -0.23106E-12         0.00000E+00
    0.97959E-08        -0.25302E-12         0.00000E+00
    0.99922E-08        -0.27571E-12         0.00000E+00
    0.10194E-07        -0.29919E-12         0.00000E+00
    0.10402E-07        -0.32350E-12         0.00000E+00
    0.10615E-07        -0.34869E-12         0.00000E+00
    0.10834E-07        -0.37477E-12         0.00000E+00
    0.11058E-07        -0.40177E-12         0.00000E+00
    0.11287E-07        -0.42970E-12         0.00000E+00
    0.11522E-07        -0.45855E-12         0.00000E+00
    0.11761E-07        -0.48833E-12         0.00000E+00
    0.12006E-07        -0.51902E-12         0.00000E+00
    0.12255E-07        -0.55061E-12         0.00000E+00
    0.12509E-07        -0.58306E-12         0.00000E+00
    0.12768E-07        -0.61635E-12         0.00000E+00
    0.13031E-07        -0.65043E-12         0.00000E+00
    0.13298E-07        -0.68525E-12         0.00000E+00
    0.13569E-07        -0.72076E-12         0.00000E+00
    0.13844E-07        -0.75688E-12         0.00000E+00
    0.14122E-07        -0.79355E-12         0.00000E+00
    0.14404E-07        -0.83067E-12         0.00000E+00
    0.14689E-07        -0.86815E-12         0.00000E+00
    0.14978E-07        -0.90588E-12         0.00000E+00
    0.15268E-07        -0.94375E-12         0.00000E+00
    0.15562E-07        -0.98163E-12         0.00000E+00
    0.15857E-07        -0.10194E-11         0.00000E+00
    0.16154E-07        -0.10568E-11         0.00000E+00
    0.16453E-07        -0.10939E-11         0.00000E+00
    0.16754E-07        -0.11302E-11         0.00000E+00
    0.17055E-07        -0.11658E-11         0.00000E+00
    0.17357E-07        -0.12003E-11         0.00000E+00
    0.17659E-07        -0.12336E-11         0.00000E+00
    0.17960E-07        -0.12654E-11         0.00000E+00
    0.18262E-07        -0.12955E-11         0.00000E+00
    0.18562E-07        -0.13236E-11         0.00000E+00
    0.18861E-07        -0.13493E-11         0.00000E+00
    0.19159E-07        -0.13725E-11         0.00000E+00
    0.19454E-07        -0.13928E-11         0.00000E+00
    0.19747E-07        -0.14097E-11         0.00000E+00
    0.20036E-07        -0.14230E-11         0.00000E+00
    0.20322E-07        -0.14322E-11         0.00000E+00
    0.20604E-07        -0.14368E-11         0.00000E+00
    0.20882E-07        -0.14363E-11         0.00000E+00
    0.21154E-07        -0.14302E-11         0.00000E+00
    0.21421E-07        -0.14178E-11         0.00000E+00
    0.21682E-07        -0.13983E-11         0.00000E+00
    0.21936E-07        -0.13710E-11         0.00000E+00
    0.22184E-07        -0.13348E-11         0.00000E+00
    0.22423E-07        -0.12887E-11         0.00000E+00
    0.22654E-07        -0.12313E-11         0.00000E+00
    0.22877E-07        -0.11611E-11         0.00000E+00
    0.23090E-07        -0.10763E-11         0.00000E+00
    0.23294E-07        -0.97509E-12         0.00000E+00
    0.23487E-07        -0.85511E-12         0.00000E+00
    0.23670E-07        -0.71392E-12         0.00000E+00
    0.23840E-07        -0.54883E-12         0.00000E+00
    0.23999E-07        -0.35711E-12         0.00000E+00
    0.24146E-07        -0.13606E-12         0.00000E+00
    0.24280E-07         0.11661E-12         0.00000E+00
    0.24400E-07         0.40244E-12         0.00000E+00
    0.24506E-07         0.72158E-12         0.00000E+00
    0.24597E-07         0.10719E-11         0.00000E+00
    0.24674E-07         0.14477E-11         0.00000E+00
    0.24734E-07         0.18381E-11         0.00000E+00
    0.24779E-07         0.22243E-11         0.00000E+00
    0.24806E-07         0.25729E-11         0.00000E+00
    0.24815E-07         0.28342E-11         0.00000E+00
    0.24805E-07         0.28776E-11         0.00000E+00
    0.24774E-07         0.25955E-11         0.00000E+00
    0.24752E-07        -0.40337E-21         0.00000E+00
    0.69003E-08        -0.37253E-20         0.00000E+00
    0.68878E-08         0.69656E-12         0.00000E+00
    0.68687E-08         0.76853E-12         0.00000E+00
    0.68602E-08         0.77679E-12         0.00000E+00
    0.68613E-08         0.72897E-12         0.00000E+00
    0.68711E-08         0.66123E-12         0.00000E+00
    0.68892E-08         0.58433E-12         0.00000E+00
    0.69154E-08         0.50657E-12         0.00000E+00
    0.69493E-08         0.43220E-12         0.00000E+00
    0.69908E-08         0.36373E-12         0.00000E+00
    0.70396E-08         0.30228E-12         0.00000E+00
    0.70956E-08         0.24819E-12         0.00000E+00
    0.71587E-08         0.20121E-12         0.00000E+00
    0.72287E-08         0.16081E-12         0.00000E+00
    0.73057E-08         0.12627E-12         0.00000E+00
    0.73894E-08         0.96834E-13         0.00000E+00
    0.74799E-08         0.71719E-13         0.00000E+00
    0.75771E-08         0.50205E-13         0.00000E+00
    0.76808E-08         0.31636E-13         0.00000E+00
    0.77911E-08         0.15432E-13         0.00000E+00
    0.79078E-08         0.10924E-14         0.00000E+00
    0.80310E-08        -0.11810E-13         0.00000E+00
    0.81606E-08        -0.23635E-13         0.00000E+00
    0.82964E-08        -0.34679E-13         0.00000E+00
    0.84386E-08        -0.45189E-13         0.00000E+00
    0.85870E-08        -0.55366E-13         0.00000E+00
    0.87416E-08        -0.65375E-13         0.00000E+00
    0.89023E-08        -0.75348E-13         0.00000E+00
    0.90691E-08        -0.85396E-13         0.00000E+00
    0.92419E-08        -0.95604E-13         0.00000E+00
    0.94206E-08        -0.10604E-12         0.00000E+00
    0.96053E-08        -0.11677E-12         0.00000E+00
    0.97959E-08        -0.12784E-12         0.00000E+00
    0.99922E-08        -0.13928E-12         0.00000E+00
    0.10194E-07        -0.15112E-12         0.00000E+00
    0.10402E-07        -0.16338E-12         0.00000E+00
    0.10615E-07        -0.17609E-12         0.00000E+00
    0.10834E-07        -0.18926E-12         0.00000E+00
    0.11058E-07        -0.20289E-12         0.00000E+00
    0.11287E-07        -0.21699E-12         0.00000E+00
    0.11522E-07        -0.23156E-12         0.00000E+00
    0.11761E-07        -0.24660E-12         0.00000E+00
    0.12006E-07        -0.26211E-12         0.00000E+00
    0.12255E-07        -0.27807E-12         0.00000E+00
    0.12509E-07        -0.29447E-12         0.00000E+00
    0.12768E-07        -0.31129E-12         0.00000E+00
    0.13031E-07        -0.32852E-12         0.00000E+00
    0.13298E-07        -0.34612E-12         0.00000E+00
    0.13569E-07        -0.36408E-12         0.00000E+00
    0.13844E-07        -0.38234E-12         0.00000E+00
    0.14122E-07        -0.40088E-12         0.00000E+00
    0.14404E-07        -0.41966E-12         0.00000E+00
    0.14689E-07        -0.43862E-12         0.00000E+00
    0.14978E-07        -0.45771E-12         0.00000E+00
    0.15268E-07        -0.47687E-12         0.00000E+00
    0.15562E-07        -0.49604E-12         0.00000E+00
    0.15857E-07        -0.51514E-12         0.00000E+00
    0.16154E-07        -0.53410E-12         0.00000E+00
    0.16453E-07        -0.55284E-12         0.00000E+00
    0.16754E-07        -0.57127E-12         0.00000E+00
    0.17055E-07        -0.58928E-12         0.00000E+00
    0.17357E-07        -0.60678E-12         0.00000E+00
    0.17659E-07        -0.62366E-12         0.00000E+00
    0.17960E-07        -0.63979E-12         0.00000E+00
    0.18262E-07        -0.65504E-12         0.00000E+00
    0.18562E-07        -0.66929E-12         0.00000E+00
    0.18861E-07        -0.68239E-12         0.00000E+00
    0.19159E-07        -0.69418E-12         0.00000E+00
    0.19454E-07        -0.70449E-12         0.00000E+00
    0.19747E-07        -0.71315E-12         0.00000E+00
    0.20036E-07        -0.71995E-12         0.00000E+00
    0.20322E-07        -0.72469E-12         0.00000E+00
    0.20604E-07        -0.72714E-12         0.00000E+00
    0.20882E-07        -0.72703E-12         0.00000E+00
    0.21154E-07        -0.72408E-12         0.00000E+00
    0.21421E-07        -0.71795E-12         0.00000E+00
    0.21682E-07        -0.70829E-12         0.00000E+00
    0.21936E-07        -0.69466E-12         0.00000E+00
    0.22184E-07        -0.67658E-12         0.00000E+00
    0.22423E-07        -0.65347E-12         0.00000E+00
    0.22654E-07        -0.62469E-12         0.00000E+00
    0.22877E-07        -0.58947E-12         0.00000E+00
    0.23090E-07        -0.54693E-12         0.00000E+00
    0.23294E-07        -0.49606E-12         0.00000E+00
    0.23487E-07        -0.43573E-12         0.00000E+00
    0.23670E-07        -0.36468E-12         0.00000E+00
    0.23840E-07        -0.28156E-12         0.00000E+00
    0.23999E-07        -0.18493E-12         0.00000E+00
    0.24146E-07        -0.73440E-13         0.00000E+00
    0.24280E-07         0.54137E-13         0.00000E+00
    0.24400E-07         0.19863E-12         0.00000E+00
    0.24506E-07         0.36018E-12         0.00000E+00
    0.24597E-07         0.53781E-12         0.00000E+00
    0.24674E-07         0.72886E-12         0.00000E+00
    0.24734E-07         0.92789E-12         0.00000E+00
    0.24779E-07         0.11260E-11         0.00000E+00
    0.24806E-07         0.13060E-11         0.00000E+00
    0.24815E-07         0.14461E-11         0.00000E+00
    0.24805E-07         0.14728E-11         0.00000E+00
    0.24773E-07         0.13715E-11         0.00000E+00
    0.24752E-07         0.80675E-21         0.00000E+00
CELL_DATA       5000
TENSORS stressef double 
    0.21432E+05         0.52713E+05         0.00000E+00
    0.52713E+05        -0.47497E+08         0.00000E+00
    0.00000E+00         0.00000E+00        -0.15855E-08
 
    0.13762E+05         0.13968E+06         0.00000E+00
    0.13968E+06        -0.47525E+08         0.00000E+00
    0.00000E+00         0.00000E+00        -0.14270E-08
 
    0.11336E+05         0.20200E+06         0.00000E+00
    0.20200E+06        -0.47567E+08         0.00000E+00
    0.00000E+00         0.00000E+00         0.95133E-09
 
    0.96999E+04         0.25413E+06         0.00000E+00
    0.25413E+06        -0.47617E+08         0.00000E+00
    0.00000E+00         0.00000E+00        -0.47589E-09
 
    0.86605E+04         0.29968E+06         0.00000E+00
    0.29968E+06        -0.47676E+08         0.00000E+00
    0.00000E+00         0.00000E+00         0.17444E-08
 
    0.79260E+04         0.34085E+06         0.00000E+00
    0.34085E+06        -0.47742E+08         0.00000E+00
    0.00000E+00         0.00000E+00        -0.22201E-08
 
    0.73829E+04         0.37889E+06         0.00000E+00
    0.37889E+06        -0.47813E+08         0.00000E+00
    0.00000E+00         0.00000E+00        -0.34884E-08
 
    0.69548E+04         0.41456E+06         0.00000E+00
    0.41456E+06        -0.47887E+08         0.00000E+00
    0.00000E+00         0.00000E+00        -0.23783E-08
 
    0.65975E+04         0.44832E+06         0.00000E+00
    0.44832E+06        -0.47965E+08         0.00000E+00
    0.00000E+00         0.00000E+00         0.14275E-08
 
    0.62845E+04         0.48045E+06         0.00000E+00
    0.48045E+06        -0.48045E+08         0.00000E+00
    0.00000E+00         0.00000E+00        -0.47612E-09
 
    0.60012E+04         0.51111E+06         0.00000E+00
    0.51111E+06        -0.48126E+08         0.00000E+00
    0.00000E+00         0.00000E+00        -0.17444E-08
 
    0.57401E+04         0.54043E+06         0.00000E+00
    0.54043E+06        -0.48208E+08         0.00000E+00
    0.00000E+00         0.00000E+00         0.47567E-09
 
    0.54981E+04         0.56851E+06         0.00000E+00
    0.56851E+06        -0.48290E+08         0.00000E+00
    0.00000E+00         0.00000E+00         0.63392E-09
 
    0.52741E+04         0.59543E+06         0.00000E+00
    0.59543E+06        -0.48372E+08         0.00000E+00
    0.00000E+00         0.00000E+00        -0.15852E-08
 
    0.50682E+04         0.62128E+06         0.00000E+00
    0.62128E+06        -0.48455E+08         0.00000E+00
    0.00000E+00         0.00000E+00         0.19027E-08
 
    0.48811E+04         0.64616E+06         0.00000E+00
    0.64616E+06        -0.48538E+08         0.00000E+00
    0.00000E+00         0.00000E+00        -0.31741E-09
 
    0.47131E+04         0.67014E+06         0.00000E+00
    0.67014E+06        -0.48621E+08         0.00000E+00
    0.00000E+00         0.00000E+00        -0.17440E-08
 
    0.45647E+04         0.69333E+06         0.00000E+00
    0.69333E+06        -0.48704E+08         0.00000E+00
    0.00000E+00         0.00000E+00         0.25370E-08
 
    0.44357E+04         0.71582E+06         0.00000E+00
    0.71582E+06        -0.48787E+08         0.00000E+00
    0.00000E+00         0.00000E+00         0.31696E-09
 
    0.43260E+04         0.73771E+06         0.00000E+00
    0.73771E+06        -0.48870E+08         0.00000E+00
    0.00000E+00         0.00000E+00        -0.95133E-09
 
    0.42348E+04         0.75909E+06         0.00000E+00
    0.75909E+06        -0.48954E+08         0.00000E+00
    0.00000E+00         0.00000E+00        -0.79308E-09
 
    0.41613E+04         0.78005E+06         0.00000E+00
    0.78005E+06        -0.49038E+08         0.00000E+00
    0.00000E+00         0.00000E+00        -0.95133E-09
 
    0.41045E+04         0.80068E+06         0.00000E+00
    0.80068E+06        -0.49122E+08         0.00000E+00
    0.00000E+00         0.00000E+00        -0.47612E-09
 
    0.40633E+04         0.82106E+06         0.00000E+00
    0.82106E+06        -0.49208E+08         0.00000E+00
    0.00000E+00         0.00000E+00         0.47567E-09
 
    0.40366E+04         0.84126E+06         0.00000E+00
    0.84126E+06        -0.49294E+08         0.00000E+00
    0.00000E+00         0.00000E+00         0.00000E+00
 
    0.40229E+04         0.86136E+06         0.00000E+00
    0.86136E+06        -0.49382E+08         0.00000E+00
    0.00000E+00         0.00000E+00         0.15857E-08
 
    0.40211E+04         0.88141E+06         0.00000E+00
    0.88141E+06        -0.49470E+08         0.00000E+00
    0.00000E+00         0.00000E+00        -0.17440E-08
 
    0.40300E+04         0.90147E+06         0.00000E+00
    0.90147E+06        -0.49560E+08         0.00000E+00
    0.00000E+00         0.00000E+00         0.63483E-09
 
    0.40483E+04         0.92160E+06         0.00000E+00
    0.92160E+06        -0.49651E+08         0.00000E+00
    0.00000E+00         0.00000E+00        -0.17440E-08
 
    0.40749E+04         0.94184E+06         0.00000E+00
    0.94184E+06        -0.49743E+08         0.00000E+00
    0.00000E+00         0.00000E+00         0.79262E-09
 
    0.41087E+04         0.96222E+06         0.00000E+00
    0.96222E+06        -0.49837E+08         0.00000E+00
    0.00000E+00         0.00000E+00         0.15825E-09
 
    0.41487E+04         0.98277E+06         0.00000E+00
    0.98277E+06        -0.49933E+08         0.00000E+00
    0.00000E+00         0.00000E+00         0.12683E-08
 
    0.41939E+04         0.10035E+07         0.00000E+00
    0.10035E+07        -0.50030E+08         0.00000E+00
    0.00000E+00         0.00000E+00        -0.22205E-08
 
    0.42433E+04         0.10245E+07         0.00000E+00
    0.10245E+07        -0.50129E+08         0.00000E+00
    0.00000E+00         0.00000E+00        -0.12683E-08
 
    0.42963E+04         0.10458E+07         0.00000E+00
    0.10458E+07        -0.50230E+08         0.00000E+00
    0.00000E+00         0.00000E+00         0.12687E-08
 
    0.43519E+04         0.10673E+07         0.00000E+00
    0.10673E+07        -0.50333E+08         0.00000E+00
    0.00000E+00         0.00000E+00         0.63437E-09
 
    0.44094E+04         0.10891E+07         0.00000E+00
    0.10891E+07        -0.50438E+08         0.00000E+00
    0.00000E+00         0.00000E+00         0.11100E-08
 
    0.44681E+04         0.11112E+07         0.00000E+00
    0.11112E+07        -0.50546E+08         0.00000E+00
    0.00000E+00         0.00000E+00         0.12683E-08
 
    0.45274E+04         0.11336E+07         0.00000E+00
    0.11336E+07        -0.50655E+08         0.00000E+00
    0.00000E+00         0.00000E+00        -0.31741E-09
 
    0.45866E+04         0.11562E+07         0.00000E+00
    0.11562E+07        -0.50767E+08         0.00000E+00
    0.00000E+00         0.00000E+00         0.31741E-09
 
    0.46452E+04         0.11792E+07         0.00000E+00
    0.11792E+07        -0.50881E+08         0.00000E+00
    0.00000E+00         0.00000E+00        -0.79262E-09
 
    0.47025E+04         0.12024E+07         0.00000E+00
    0.12024E+07        -0.50997E+08         0.00000E+00
    0.00000E+00         0.00000E+00         0.22201E-08
 
    0.47580E+04         0.12260E+07         0.00000E+00
    0.12260E+07        -0.51116E+08         0.00000E+00
    0.00000E+00         0.00000E+00         0.00000E+00
 
    0.48113E+04         0.12498E+07         0.00000E+00
    0.12498E+07        -0.51238E+08         0.00000E+00
    0.00000E+00         0.00000E+00         0.12683E-08
 
    0.48616E+04         0.12738E+07         0.00000E+00
    0.12738E+07        -0.51362E+08         0.00000E+00
    0.00000E+00         0.00000E+00         0.15871E-09
 
    0.49086E+04         0.12981E+07         0.00000E+00
    0.12981E+07        -0.51489E+08         0.00000E+00
    0.00000E+00         0.00000E+00        -0.14270E-08
 
    0.49516E+04         0.13226E+07         0.00000E+00
    0.13226E+07        -0.51618E+08         0.00000E+00
    0.00000E+00         0.00000E+00         0.63437E-09
 
    0.49902E+04         0.13473E+07         0.00000E+00
    0.13473E+07        -0.51751E+08         0.00000E+00
    0.00000E+00         0.00000E+00        -0.12687E-08
 
    0.50238E+04         0.13722E+07         0.00000E+00
    0.13722E+07        -0.51886E+08         0.00000E+00
    0.00000E+00         0.00000E+00        -0.20614E-08
 
    0.50518E+04         0.13973E+07         0.00000E+00
    0.13973E+07        -0.52024E+08         0.00000E+00
    0.00000E+00         0.00000E+00        -0.17444E-08
 
    0.50736E+04         0.14224E+07         0.00000E+00
    0.14224E+07        -0.52165E+08         0.00000E+00
    0.00000E+00         0.00000E+00         0.23788E-08
 
    0.50886E+04         0.14477E+07         0.00000E+00
    0.14477E+07        -0.52309E+08         0.00000E+00
    0.00000E+00         0.00000E+00        -0.79308E-09
 
    0.50962E+04         0.14730E+07         0.00000E+00
    0.14730E+07        -0.52456E+08         0.00000E+00
    0.00000E+00         0.00000E+00         0.15857E-08
 
    0.50956E+04         0.14983E+07         0.00000E+00
    0.14983E+07        -0.52606E+08         0.00000E+00
    0.00000E+00         0.00000E+00         0.15825E-09
 
    0.50861E+04         0.15236E+07         0.00000E+00
    0.15236E+07        -0.52760E+08         0.00000E+00
    0.00000E+00         0.00000E+00         0.12687E-08
 
    0.50670E+04         0.15488E+07         0.00000E+00
    0.15488E+07        -0.52916E+08         0.00000E+00
    0.00000E+00         0.00000E+00        -0.31714E-08
 
    0.50374E+04         0.15739E+07         0.00000E+00
    0.15739E+07        -0.53076E+08         0.00000E+00
    0.00000E+00         0.00000E+00        -0.31714E-08
 
    0.49964E+04         0.15989E+07         0.00000E+00
    0.15989E+07        -0.53239E+08         0.00000E+00
    0.00000E+00         0.00000E+00        -0.26948E-08
 
    0.49429E+04         0.16235E+07         0.00000E+00
    0.16235E+07        -0.53405E+08         0.00000E+00
    0.00000E+00         0.00000E+00         0.15916E-09
 
    0.48759E+04         0.16479E+07         0.00000E+00
    0.16479E+07        -0.53575E+08         0.00000E+00
    0.00000E+00         0.00000E+00         0.22201E-08
 
    0.47943E+04         0.16719E+07         0.00000E+00
    0.16719E+07        -0.53748E+08         0.00000E+00
    0.00000E+00         0.00000E+00        -0.31741E-09
 
    0.46966E+04         0.16955E+07         0.00000E+00
    0.16955E+07        -0.53925E+08         0.00000E+00
    0.00000E+00         0.00000E+00         0.00000E+00
 
    0.45816E+04         0.17185E+07         0.00000E+00
    0.17185E+07        -0.54105E+08         0.00000E+00
    0.00000E+00         0.00000E+00         0.00000E+00
 
    0.44477E+04         0.17409E+07         0.00000E+00
    0.17409E+07        -0.54289E+08         0.00000E+00
    0.00000E+00         0.00000E+00         0.00000E+00
 
    0.42931E+04         0.17626E+07         0.00000E+00
    0.17626E+07        -0.54476E+08         0.00000E+00
    0.00000E+00         0.00000E+00        -0.95224E-09
 
    0.41161E+04         0.17834E+07         0.00000E+00
    0.17834E+07        -0.54667E+08         0.00000E+00
    0.00000E+00         0.00000E+00        -0.12678E-08
 
    0.39145E+04         0.18033E+07         0.00000E+00
    0.18033E+07        -0.54862E+08         0.00000E+00
    0.00000E+00         0.00000E+00         0.25375E-08
 
    0.36863E+04         0.18221E+07         0.00000E+00
    0.18221E+07        -0.55060E+08         0.00000E+00
    0.00000E+00         0.00000E+00         0.63392E-09
 
    0.34288E+04         0.18397E+07         0.00000E+00
    0.18397E+07        -0.55263E+08         0.00000E+00
    0.00000E+00         0.00000E+00         0.47567E-09
 
    0.31396E+04         0.18559E+07         0.00000E+00
    0.18559E+07        -0.55469E+08         0.00000E+00
    0.00000E+00         0.00000E+00         0.11096E-08
 
    0.28159E+04         0.18706E+07         0.00000E+00
    0.18706E+07        -0.55679E+08         0.00000E+00
    0.00000E+00         0.00000E+00        -0.79308E-09
 
    0.24545E+04         0.18836E+07         0.00000E+00
    0.18836E+07        -0.55893E+08         0.00000E+00
    0.00000E+00         0.00000E+00        -0.95042E-09
 
    0.20523E+04         0.18946E+07         0.00000E+00
    0.18946E+07        -0.56111E+08         0.00000E+00
    0.00000E+00         0.00000E+00        -0.17444E-08
 
    0.16058E+04         0.19036E+07         0.00000E+00
    0.19036E+07        -0.56334E+08         0.00000E+00
    0.00000E+00         0.00000E+00         0.79308E-09
 
    0.11116E+04         0.19101E+07         0.00000E+00
    0.19101E+07        -0.56561E+08         0.00000E+00
    0.00000E+00         0.00000E+00         0.79308E-09
 
    0.56614E+03         0.19141E+07         0.00000E+00
    0.19141E+07        -0.56792E+08         0.00000E+00
    0.00000E+00         0.00000E+00         0.23774E-08
 
   -0.34286E+02         0.19152E+07         0.00000E+00
    0.19152E+07        -0.57028E+08         0.00000E+00
    0.00000E+00         0.00000E+00        -0.31741E-09
 
   -0.69314E+03         0.19132E+07         0.00000E+00
    0.19132E+07        -0.57268E+08         0.00000E+00
    0.00000E+00         0.00000E+00         0.22201E-08
 
   -0.14137E+04         0.19077E+07         0.00000E+00
    0.19077E+07        -0.57513E+08         0.00000E+00
    0.00000E+00         0.00000E+00        -0.47567E-09
 
   -0.21988E+04         0.18984E+07         0.00000E+00
    0.18984E+07        -0.57763E+08         0.00000E+00
    0.00000E+00         0.00000E+00        -0.63392E-09
 
   -0.30509E+04         0.18850E+07         0.00000E+00
    0.18850E+07        -0.58018E+08         0.00000E+00
    0.00000E+00         0.00000E+00        -0.79308E-09
 
   -0.39715E+04         0.18672E+07         0.00000E+00
    0.18672E+07        -0.58278E+08         0.00000E+00
    0.00000E+00         0.00000E+00        -0.28531E-08
 
   -0.49612E+04         0.18446E+07         0.00000E+00
    0.18446E+07        -0.58543E+08         0.00000E+00
    0.00000E+00         0.00000E+00         0.79308E-09
 
   -0.60196E+04         0.18169E+07         0.00000E+00
    0.18169E+07        -0.58813E+08         0.00000E+00
    0.00000E+00         0.00000E+00         0.30122E-08
 
   -0.71448E+04         0.17838E+07         0.00000E+00
    0.17838E+07        -0.59088E+08         0.00000E+00
    0.00000E+00         0.00000E+00        -0.15825E-09
 
   -0.83339E+04         0.17448E+07         0.00000E+00
    0.17448E+07        -0.59367E+08         0.00000E+00
    0.00000E+00         0.00000E+00         0.15825E-09
 
   -0.95829E+04         0.16999E+07         0.00000E+00
    0.16999E+07        -0.59650E+08         0.00000E+00
    0.00000E+00         0.00000E+00         0.23792E-08
 
   -0.10888E+05         0.16485E+07         0.00000E+00
    0.16485E+07        -0.59937E+08         0.00000E+00
    0.00000E+00         0.00000E+00        -0.47658E-09
 
   -0.12245E+05         0.15906E+07         0.00000E+00
    0.15906E+07        -0.60227E+08         0.00000E+00
    0.00000E+00         0.00000E+00        -0.12687E-08
 
   -0.13656E+05         0.15258E+07         0.00000E+00
    0.15258E+07        -0.60518E+08         0.00000E+00
    0.00000E+00         0.00000E+00        -0.15862E-08
 
   -0.15129E+05         0.14539E+07         0.00000E+00
    0.14539E+07        -0.60808E+08         0.00000E+00
    0.00000E+00         0.00000E+00         0.00000E+00
 
   -0.16689E+05         0.13746E+07         0.00000E+00
    0.13746E+07        -0.61095E+08         0.00000E+00
    0.00000E+00         0.00000E+00         0.50732E-08
 
   -0.18384E+05         0.12873E+07         0.00000E+00
    0.12873E+07        -0.61377E+08         0.00000E+00
    0.00000E+00         0.00000E+00        -0.15852E-08
 
   -0.20307E+05         0.11911E+07         0.00000E+00
    0.11911E+07        -0.61649E+08         0.00000E+00
    0.00000E+00         0.00000E+00         0.31741E-09
 
   -0.22613E+05         0.10846E+07         0.00000E+00
    0.10846E+07        -0.61907E+08         0.00000E+00
    0.00000E+00         0.00000E+00        -0.95224E-09
 
   -0.25575E+05         0.96522E+06         0.00000E+00
    0.96522E+06        -0.62147E+08         0.00000E+00
    0.00000E+00         0.00000E+00         0.00000E+00
 
   -0.29596E+05         0.82860E+06         0.00000E+00
    0.82860E+06        -0.62363E+08         0.00000E+00
    0.00000E+00         0.00000E+00         0.15857E-08
 
   -0.35730E+05         0.66697E+06         0.00000E+00
    0.66697E+06        -0.62549E+08         0.00000E+00
    0.00000E+00         0.00000E+00         0.19031E-08
 
   -0.44665E+05         0.46755E+06         0.00000E+00
    0.46755E+06        -0.62703E+08         0.00000E+00
    0.00000E+00         0.00000E+00         0.95247E-09
 
   -0.72559E+05         0.17823E+06         0.00000E+00
    0.17823E+06        -0.62804E+08         0.00000E+00
    0.00000E+00         0.00000E+00        -0.34884E-08
 
    0.62224E+05         0.46031E+05         0.00000E+00
    0.46031E+05        -0.47516E+08         0.00000E+00
    0.00000E+00         0.00000E+00        -0.19027E-08
 
    0.41685E+05         0.12679E+06         0.00000E+00
    0.12679E+06        -0.47539E+08         0.00000E+00
    0.00000E+00         0.00000E+00        -0.28542E-08
 
    0.34058E+05         0.18921E+06         0.00000E+00
    0.18921E+06        -0.47578E+08         0.00000E+00
    0.00000E+00         0.00000E+00         0.31696E-09
 
    0.29237E+05         0.24089E+06         0.00000E+00
    0.24089E+06        -0.47627E+08         0.00000E+00
    0.00000E+00         0.00000E+00        -0.41225E-08
 
    0.26082E+05         0.28628E+06         0.00000E+00
    0.28628E+06        -0.47685E+08         0.00000E+00
    0.00000E+00         0.00000E+00         0.25368E-08
 
    0.23862E+05         0.32731E+06         0.00000E+00
    0.32731E+06        -0.47750E+08         0.00000E+00
    0.00000E+00         0.00000E+00         0.12685E-08
 
    0.22209E+05         0.36525E+06         0.00000E+00
    0.36525E+06        -0.47820E+08         0.00000E+00
    0.00000E+00         0.00000E+00        -0.15857E-08
 
    0.20904E+05         0.40083E+06         0.00000E+00
    0.40083E+06        -0.47894E+08         0.00000E+00
    0.00000E+00         0.00000E+00        -0.31714E-08
 
    0.19813E+05         0.43449E+06         0.00000E+00
    0.43449E+06        -0.47972E+08         0.00000E+00
    0.00000E+00         0.00000E+00        -0.63437E-09
 
    0.18859E+05         0.46651E+06         0.00000E+00
    0.46651E+06        -0.48051E+08         0.00000E+00
    0.00000E+00         0.00000E+00        -0.31714E-08
 
    0.17996E+05         0.49706E+06         0.00000E+00
    0.49706E+06        -0.48132E+08         0.00000E+00
    0.00000E+00         0.00000E+00        -0.28540E-08
 
    0.17203E+05         0.52626E+06         0.00000E+00
    0.52626E+06        -0.48213E+08         0.00000E+00
    0.00000E+00         0.00000E+00        -0.28544E-08
 
    0.16470E+05         0.55420E+06         0.00000E+00
    0.55420E+06        -0.48295E+08         0.00000E+00
    0.00000E+00         0.00000E+00        -0.22196E-08
 
    0.15792E+05         0.58097E+06         0.00000E+00
    0.58097E+06        -0.48378E+08         0.00000E+00
    0.00000E+00         0.00000E+00        -0.31696E-09
 
    0.15171E+05         0.60666E+06         0.00000E+00
    0.60666E+06        -0.48460E+08         0.00000E+00
    0.00000E+00         0.00000E+00         0.41227E-08
 
    0.14607E+05         0.63135E+06         0.00000E+00
    0.63135E+06        -0.48543E+08         0.00000E+00
    0.00000E+00         0.00000E+00        -0.63437E-09
 
    0.14101E+05         0.65514E+06         0.00000E+00
    0.65514E+06        -0.48625E+08         0.00000E+00
    0.00000E+00         0.00000E+00         0.63437E-09
 
    0.13655E+05         0.67812E+06         0.00000E+00
    0.67812E+06        -0.48708E+08         0.00000E+00
    0.00000E+00         0.00000E+00         0.31714E-08
 
    0.13267E+05         0.70039E+06         0.00000E+00
    0.70039E+06        -0.48791E+08         0.00000E+00
    0.00000E+00         0.00000E+00        -0.15852E-08
 
    0.12937E+05         0.72204E+06         0.00000E+00
    0.72204E+06        -0.48874E+08         0.00000E+00
    0.00000E+00         0.00000E+00        -0.19027E-08
 
    0.12664E+05         0.74318E+06         0.00000E+00
    0.74318E+06        -0.48958E+08         0.00000E+00
    0.00000E+00         0.00000E+00        -0.15862E-08
 
    0.12443E+05         0.76388E+06         0.00000E+00
    0.76388E+06        -0.49042E+08         0.00000E+00
    0.00000E+00         0.00000E+00        -0.15857E-08
 
    0.12273E+05         0.78424E+06         0.00000E+00
    0.78424E+06        -0.49126E+08         0.00000E+00
    0.00000E+00         0.00000E+00         0.95133E-09
 
    0.12150E+05         0.80434E+06         0.00000E+00
    0.80434E+06        -0.49212E+08         0.00000E+00
    0.00000E+00         0.00000E+00         0.00000E+00
 
    0.12069E+05         0.82424E+06         0.00000E+00
    0.82424E+06        -0.49298E+08         0.00000E+00
    0.00000E+00         0.00000E+00        -0.31741E-09
 
    0.12028E+05         0.84403E+06         0.00000E+00
    0.84403E+06        -0.49386E+08         0.00000E+00
    0.00000E+00         0.00000E+00         0.31696E-09
 
    0.12023E+05         0.86376E+06         0.00000E+00
    0.86376E+06        -0.49474E+08         0.00000E+00
    0.00000E+00         0.00000E+00         0.00000E+00
 
    0.12049E+05         0.88350E+06         0.00000E+00
    0.88350E+06        -0.49564E+08         0.00000E+00
    0.00000E+00         0.00000E+00         0.63437E-09
 
    0.12104E+05         0.90328E+06         0.00000E+00
    0.90328E+06        -0.49655E+08         0.00000E+00
    0.00000E+00         0.00000E+00        -0.19027E-08
 
    0.12183E+05         0.92316E+06         0.00000E+00
    0.92316E+06        -0.49747E+08         0.00000E+00
    0.00000E+00         0.00000E+00        -0.28540E-08
 
    0.12284E+05         0.94317E+06         0.00000E+00
    0.94317E+06        -0.49841E+08         0.00000E+00
    0.00000E+00         0.00000E+00         0.44402E-08
 
    0.12404E+05         0.96335E+06         0.00000E+00
    0.96335E+06        -0.49937E+08         0.00000E+00
    0.00000E+00         0.00000E+00         0.12687E-08
 
    0.12539E+05         0.98373E+06         0.00000E+00
    0.98373E+06        -0.50034E+08         0.00000E+00
    0.00000E+00         0.00000E+00        -0.22196E-08
 
    0.12687E+05         0.10043E+07         0.00000E+00
    0.10043E+07        -0.50133E+08         0.00000E+00
    0.00000E+00         0.00000E+00         0.15857E-08
 
    0.12845E+05         0.10252E+07         0.00000E+00
    0.10252E+07        -0.50235E+08         0.00000E+00
    0.00000E+00         0.00000E+00         0.31741E-09
 
    0.13011E+05         0.10463E+07         0.00000E+00
    0.10463E+07        -0.50338E+08         0.00000E+00
    0.00000E+00         0.00000E+00         0.63437E-09
 
    0.13183E+05         0.10676E+07         0.00000E+00
    0.10676E+07        -0.50443E+08         0.00000E+00
    0.00000E+00         0.00000E+00        -0.45475E-12
 
    0.13359E+05         0.10893E+07         0.00000E+00
    0.10893E+07        -0.50550E+08         0.00000E+00
    0.00000E+00         0.00000E+00         0.22201E-08
 
    0.13536E+05         0.11112E+07         0.00000E+00
    0.11112E+07        -0.50660E+08         0.00000E+00
    0.00000E+00         0.00000E+00         0.31696E-09
 
    0.13713E+05         0.11334E+07         0.00000E+00
    0.11334E+07        -0.50771E+08         0.00000E+00
    0.00000E+00         0.00000E+00         0.31696E-09
 
    0.13888E+05         0.11559E+07         0.00000E+00
    0.11559E+07        -0.50886E+08         0.00000E+00
    0.00000E+00         0.00000E+00         0.31696E-09
 
    0.14059E+05         0.11787E+07         0.00000E+00
    0.11787E+07        -0.51002E+08         0.00000E+00
    0.00000E+00         0.00000E+00        -0.63392E-09
 
    0.14226E+05         0.12017E+07         0.00000E+00
    0.12017E+07        -0.51121E+08         0.00000E+00
    0.00000E+00         0.00000E+00        -0.34884E-08
 
    0.14385E+05         0.12250E+07         0.00000E+00
    0.12250E+07        -0.51243E+08         0.00000E+00
    0.00000E+00         0.00000E+00         0.15857E-08
 
    0.14535E+05         0.12485E+07         0.00000E+00
    0.12485E+07        -0.51367E+08         0.00000E+00
    0.00000E+00         0.00000E+00         0.63437E-09
 
    0.14676E+05         0.12723E+07         0.00000E+00
    0.12723E+07        -0.51494E+08         0.00000E+00
    0.00000E+00         0.00000E+00        -0.25375E-08
 
    0.14804E+05         0.12963E+07         0.00000E+00
    0.12963E+07        -0.51623E+08         0.00000E+00
    0.00000E+00         0.00000E+00         0.15852E-08
 
    0.14919E+05         0.13205E+07         0.00000E+00
    0.13205E+07        -0.51756E+08         0.00000E+00
    0.00000E+00         0.00000E+00        -0.95133E-09
 
    0.15020E+05         0.13448E+07         0.00000E+00
    0.13448E+07        -0.51891E+08         0.00000E+00
    0.00000E+00         0.00000E+00         0.31650E-09
 
    0.15103E+05         0.13693E+07         0.00000E+00
    0.13693E+07        -0.52029E+08         0.00000E+00
    0.00000E+00         0.00000E+00        -0.63392E-09
 
    0.15168E+05         0.13939E+07         0.00000E+00
    0.13939E+07        -0.52170E+08         0.00000E+00
    0.00000E+00         0.00000E+00        -0.44397E-08
 
    0.15213E+05         0.14186E+07         0.00000E+00
    0.14186E+07        -0.52314E+08         0.00000E+00
    0.00000E+00         0.00000E+00        -0.95133E-09
 
    0.15236E+05         0.14433E+07         0.00000E+00
    0.14433E+07        -0.52461E+08         0.00000E+00
    0.00000E+00         0.00000E+00         0.12687E-08
 
    0.15234E+05         0.14681E+07         0.00000E+00
    0.14681E+07        -0.52611E+08         0.00000E+00
    0.00000E+00         0.00000E+00         0.95133E-09
 
    0.15206E+05         0.14928E+07         0.00000E+00
    0.14928E+07        -0.52765E+08         0.00000E+00
    0.00000E+00         0.00000E+00        -0.31696E-09
 
    0.15148E+05         0.15174E+07         0.00000E+00
    0.15174E+07        -0.52921E+08         0.00000E+00
    0.00000E+00         0.00000E+00        -0.63392E-09
 
    0.15060E+05         0.15419E+07         0.00000E+00
    0.15419E+07        -0.53081E+08         0.00000E+00
    0.00000E+00         0.00000E+00        -0.31650E-09
 
    0.14937E+05         0.15663E+07         0.00000E+00
    0.15663E+07        -0.53244E+08         0.00000E+00
    0.00000E+00         0.00000E+00         0.95224E-09
 
    0.14777E+05         0.15903E+07         0.00000E+00
    0.15903E+07        -0.53410E+08         0.00000E+00
    0.00000E+00         0.00000E+00         0.95133E-09
 
    0.14577E+05         0.16141E+07         0.00000E+00
    0.16141E+07        -0.53580E+08         0.00000E+00
    0.00000E+00         0.00000E+00        -0.19018E-08
 
    0.14333E+05         0.16375E+07         0.00000E+00
    0.16375E+07        -0.53753E+08         0.00000E+00
    0.00000E+00         0.00000E+00        -0.19027E-08
 
    0.14041E+05         0.16605E+07         0.00000E+00
    0.16605E+07        -0.53930E+08         0.00000E+00
    0.00000E+00         0.00000E+00         0.22192E-08
 
    0.13697E+05         0.16829E+07         0.00000E+00
    0.16829E+07        -0.54110E+08         0.00000E+00
    0.00000E+00         0.00000E+00         0.00000E+00
 
    0.13296E+05         0.17047E+07         0.00000E+00
    0.17047E+07        -0.54293E+08         0.00000E+00
    0.00000E+00         0.00000E+00        -0.31650E-09
 
    0.12834E+05         0.17258E+07         0.00000E+00
    0.17258E+07        -0.54480E+08         0.00000E+00
    0.00000E+00         0.00000E+00        -0.31714E-08
 
    0.12305E+05         0.17460E+07         0.00000E+00
    0.17460E+07        -0.54671E+08         0.00000E+00
    0.00000E+00         0.00000E+00         0.28540E-08
 
    0.11702E+05         0.17653E+07         0.00000E+00
    0.17653E+07        -0.54866E+08         0.00000E+00
    0.00000E+00         0.00000E+00         0.63483E-09
 
    0.11019E+05         0.17836E+07         0.00000E+00
    0.17836E+07        -0.55064E+08         0.00000E+00
    0.00000E+00         0.00000E+00        -0.19036E-08
 
    0.10250E+05         0.18006E+07         0.00000E+00
    0.18006E+07        -0.55266E+08         0.00000E+00
    0.00000E+00         0.00000E+00         0.15862E-08
 
    0.93848E+04         0.18162E+07         0.00000E+00
    0.18162E+07        -0.55472E+08         0.00000E+00
    0.00000E+00         0.00000E+00        -0.95042E-09
 
    0.84167E+04         0.18304E+07         0.00000E+00
    0.18304E+07        -0.55682E+08         0.00000E+00
    0.00000E+00         0.00000E+00         0.63392E-09
 
    0.73360E+04         0.18428E+07         0.00000E+00
    0.18428E+07        -0.55895E+08         0.00000E+00
    0.00000E+00         0.00000E+00        -0.19027E-08
 
    0.61332E+04         0.18533E+07         0.00000E+00
    0.18533E+07        -0.56113E+08         0.00000E+00
    0.00000E+00         0.00000E+00         0.63392E-09
 
    0.47982E+04         0.18617E+07         0.00000E+00
    0.18617E+07        -0.56335E+08         0.00000E+00
    0.00000E+00         0.00000E+00         0.44392E-08
 
    0.33202E+04         0.18678E+07         0.00000E+00
    0.18678E+07        -0.56562E+08         0.00000E+00
    0.00000E+00         0.00000E+00        -0.63392E-09
 
    0.16886E+04         0.18712E+07         0.00000E+00
    0.18712E+07        -0.56792E+08         0.00000E+00
    0.00000E+00         0.00000E+00         0.31714E-08
 
   -0.10748E+03         0.18718E+07         0.00000E+00
    0.18718E+07        -0.57028E+08         0.00000E+00
    0.00000E+00         0.00000E+00        -0.31741E-09
 
   -0.20787E+04         0.18693E+07         0.00000E+00
    0.18693E+07        -0.57267E+08         0.00000E+00
    0.00000E+00         0.00000E+00         0.19027E-08
 
   -0.42349E+04         0.18634E+07         0.00000E+00
    0.18634E+07        -0.57512E+08         0.00000E+00
    0.00000E+00         0.00000E+00         0.25366E-08
 
   -0.65850E+04         0.18536E+07         0.00000E+00
    0.18536E+07        -0.57761E+08         0.00000E+00
    0.00000E+00         0.00000E+00         0.00000E+00
 
   -0.91362E+04         0.18398E+07         0.00000E+00
    0.18398E+07        -0.58015E+08         0.00000E+00
    0.00000E+00         0.00000E+00        -0.22201E-08
 
   -0.11894E+05         0.18216E+07         0.00000E+00
    0.18216E+07        -0.58274E+08         0.00000E+00
    0.00000E+00         0.00000E+00        -0.15843E-08
 
   -0.14860E+05         0.17987E+07         0.00000E+00
    0.17987E+07        -0.58538E+08         0.00000E+00
    0.00000E+00         0.00000E+00         0.19027E-08
 
   -0.18033E+05         0.17706E+07         0.00000E+00
    0.17706E+07        -0.58807E+08         0.00000E+00
    0.00000E+00         0.00000E+00         0.91959E-08
 
   -0.21410E+05         0.17371E+07         0.00000E+00
    0.17371E+07        -0.59080E+08         0.00000E+00
    0.00000E+00         0.00000E+00         0.00000E+00
 
   -0.24982E+05         0.16978E+07         0.00000E+00
    0.16978E+07        -0.59359E+08         0.00000E+00
    0.00000E+00         0.00000E+00         0.47576E-08
 
   -0.28737E+05         0.16526E+07         0.00000E+00
    0.16526E+07        -0.59641E+08         0.00000E+00
    0.00000E+00         0.00000E+00         0.12697E-08
 
   -0.32665E+05         0.16009E+07         0.00000E+00
    0.16009E+07        -0.59927E+08         0.00000E+00
    0.00000E+00         0.00000E+00         0.00000E+00
 
   -0.36758E+05         0.15428E+07         0.00000E+00
    0.15428E+07        -0.60215E+08         0.00000E+00
    0.00000E+00         0.00000E+00        -0.25375E-08
 
   -0.41020E+05         0.14777E+07         0.00000E+00
    0.14777E+07        -0.60504E+08         0.00000E+00
    0.00000E+00         0.00000E+00        -0.19027E-08
 
   -0.45479E+05         0.14057E+07         0.00000E+00
    0.14057E+07        -0.60793E+08         0.00000E+00
    0.00000E+00         0.00000E+00         0.12678E-08
 
   -0.50207E+05         0.13262E+07         0.00000E+00
    0.13262E+07        -0.61079E+08         0.00000E+00
    0.00000E+00         0.00000E+00         0.25366E-08
 
   -0.55354E+05         0.12388E+07         0.00000E+00
    0.12388E+07        -0.61358E+08         0.00000E+00
    0.00000E+00         0.00000E+00         0.63483E-09
 
   -0.61192E+05         0.11426E+07         0.00000E+00
    0.11426E+07        -0.61629E+08         0.00000E+00
    0.00000E+00         0.00000E+00         0.19018E-08
 
   -0.68190E+05         0.10361E+07         0.00000E+00
    0.10361E+07        -0.61885E+08         0.00000E+00
    0.00000E+00         0.00000E+00        -0.63392E-09
 
   -0.77128E+05         0.91699E+06         0.00000E+00
    0.91699E+06        -0.62122E+08         0.00000E+00
    0.00000E+00         0.00000E+00         0.25366E-08
 
   -0.89320E+05         0.78075E+06         0.00000E+00
    0.78075E+06        -0.62334E+08         0.00000E+00
    0.00000E+00         0.00000E+00         0.00000E+00
 
   -0.10739E+06         0.62064E+06         0.00000E+00
    0.62064E+06        -0.62515E+08         0.00000E+00
    0.00000E+00         0.00000E+00         0.19027E-08
 
   -0.13547E+06         0.42080E+06         0.00000E+00
    0.42080E+06        -0.62657E+08         0.00000E+00
    0.00000E+00         0.00000E+00         0.57084E-08
 
   -0.21017E+06         0.15398E+06         0.00000E+00
    0.15398E+06        -0.62740E+08         0.00000E+00
    0.00000E+00         0.00000E+00        -0.31714E-08
 
    0.99372E+05         0.40976E+05         0.00000E+00
    0.40976E+05        -0.47533E+08         0.00000E+00
    0.00000E+00         0.00000E+00        -0.12687E-08
 
    0.69984E+05         0.11580E+06         0.00000E+00
    0.11580E+06        -0.47553E+08         0.00000E+00
    0.00000E+00         0.00000E+00        -0.25368E-08
 
    0.56912E+05         0.17705E+06         0.00000E+00
    0.17705E+06        -0.47589E+08         0.00000E+00
    0.00000E+00         0.00000E+00         0.25373E-08
 
    0.48997E+05         0.22820E+06         0.00000E+00
    0.22820E+06        -0.47637E+08         0.00000E+00
    0.00000E+00         0.00000E+00         0.12685E-08
 
    0.43695E+05         0.27323E+06         0.00000E+00
    0.27323E+06        -0.47694E+08         0.00000E+00
    0.00000E+00         0.00000E+00         0.12685E-08
 
    0.39952E+05         0.31404E+06         0.00000E+00
    0.31404E+06        -0.47758E+08         0.00000E+00
    0.00000E+00         0.00000E+00        -0.63437E-09
 
    0.37148E+05         0.35182E+06         0.00000E+00
    0.35182E+06        -0.47827E+08         0.00000E+00
    0.00000E+00         0.00000E+00        -0.38058E-08
 
    0.34926E+05         0.38726E+06         0.00000E+00
    0.38726E+06        -0.47901E+08         0.00000E+00
    0.00000E+00         0.00000E+00         0.31719E-08
 
    0.33067E+05         0.42081E+06         0.00000E+00
    0.42081E+06        -0.47978E+08         0.00000E+00
    0.00000E+00         0.00000E+00         0.12683E-08
 
    0.31441E+05         0.45271E+06         0.00000E+00
    0.45271E+06        -0.48057E+08         0.00000E+00
    0.00000E+00         0.00000E+00        -0.25370E-08
 
    0.29975E+05         0.48313E+06         0.00000E+00
    0.48313E+06        -0.48138E+08         0.00000E+00
    0.00000E+00         0.00000E+00         0.12683E-08
 
    0.28631E+05         0.51220E+06         0.00000E+00
    0.51220E+06        -0.48219E+08         0.00000E+00
    0.00000E+00         0.00000E+00        -0.63437E-09
 
    0.27391E+05         0.53999E+06         0.00000E+00
    0.53999E+06        -0.48301E+08         0.00000E+00
    0.00000E+00         0.00000E+00         0.31710E-08
 
    0.26249E+05         0.56660E+06         0.00000E+00
    0.56660E+06        -0.48383E+08         0.00000E+00
    0.00000E+00         0.00000E+00         0.00000E+00
 
    0.25204E+05         0.59211E+06         0.00000E+00
    0.59211E+06        -0.48465E+08         0.00000E+00
    0.00000E+00         0.00000E+00        -0.63437E-09
 
    0.24258E+05         0.61662E+06         0.00000E+00
    0.61662E+06        -0.48548E+08         0.00000E+00
    0.00000E+00         0.00000E+00         0.12683E-08
 
    0.23411E+05         0.64020E+06         0.00000E+00
    0.64020E+06        -0.48630E+08         0.00000E+00
    0.00000E+00         0.00000E+00         0.38053E-08
 
    0.22664E+05         0.66297E+06         0.00000E+00
    0.66297E+06        -0.48713E+08         0.00000E+00
    0.00000E+00         0.00000E+00        -0.25375E-08
 
    0.22017E+05         0.68501E+06         0.00000E+00
    0.68501E+06        -0.48795E+08         0.00000E+00
    0.00000E+00         0.00000E+00         0.25370E-08
 
    0.21467E+05         0.70642E+06         0.00000E+00
    0.70642E+06        -0.48878E+08         0.00000E+00
    0.00000E+00         0.00000E+00         0.50741E-08
 
    0.21010E+05         0.72730E+06         0.00000E+00
    0.72730E+06        -0.48962E+08         0.00000E+00
    0.00000E+00         0.00000E+00        -0.63437E-09
 
    0.20643E+05         0.74774E+06         0.00000E+00
    0.74774E+06        -0.49046E+08         0.00000E+00
    0.00000E+00         0.00000E+00         0.12683E-08
 
    0.20359E+05         0.76782E+06         0.00000E+00
    0.76782E+06        -0.49131E+08         0.00000E+00
    0.00000E+00         0.00000E+00         0.25375E-08
 
    0.20154E+05         0.78763E+06         0.00000E+00
    0.78763E+06        -0.49216E+08         0.00000E+00
    0.00000E+00         0.00000E+00         0.38058E-08
 
    0.20020E+05         0.80723E+06         0.00000E+00
    0.80723E+06        -0.49302E+08         0.00000E+00
    0.00000E+00         0.00000E+00        -0.12683E-08
 
    0.19952E+05         0.82671E+06         0.00000E+00
    0.82671E+06        -0.49390E+08         0.00000E+00
    0.00000E+00         0.00000E+00        -0.25370E-08
 
    0.19943E+05         0.84612E+06         0.00000E+00
    0.84612E+06        -0.49478E+08         0.00000E+00
    0.00000E+00         0.00000E+00        -0.12683E-08
 
    0.19986E+05         0.86551E+06         0.00000E+00
    0.86551E+06        -0.49568E+08         0.00000E+00
    0.00000E+00         0.00000E+00         0.00000E+00
 
    0.20077E+05         0.88495E+06         0.00000E+00
    0.88495E+06        -0.49659E+08         0.00000E+00
    0.00000E+00         0.00000E+00         0.12687E-08
 
    0.20209E+05         0.90447E+06         0.00000E+00
    0.90447E+06        -0.49751E+08         0.00000E+00
    0.00000E+00         0.00000E+00         0.00000E+00
 
    0.20377E+05         0.92412E+06         0.00000E+00
    0.92412E+06        -0.49845E+08         0.00000E+00
    0.00000E+00         0.00000E+00         0.63392E-09
 
    0.20575E+05         0.94392E+06         0.00000E+00
    0.94392E+06        -0.49941E+08         0.00000E+00
    0.00000E+00         0.00000E+00         0.31714E-08
 
    0.20799E+05         0.96391E+06         0.00000E+00
    0.96391E+06        -0.50038E+08         0.00000E+00
    0.00000E+00         0.00000E+00        -0.63424E-08
 
    0.21044E+05         0.98411E+06         0.00000E+00
    0.98411E+06        -0.50138E+08         0.00000E+00
    0.00000E+00         0.00000E+00        -0.10783E-07
 
    0.21307E+05         0.10045E+07         0.00000E+00
    0.10045E+07        -0.50239E+08         0.00000E+00
    0.00000E+00         0.00000E+00         0.19027E-08
 
    0.21582E+05         0.10252E+07         0.00000E+00
    0.10252E+07        -0.50342E+08         0.00000E+00
    0.00000E+00         0.00000E+00         0.19027E-08
 
    0.21867E+05         0.10461E+07         0.00000E+00
    0.10461E+07        -0.50447E+08         0.00000E+00
    0.00000E+00         0.00000E+00        -0.31719E-08
 
    0.22159E+05         0.10673E+07         0.00000E+00
    0.10673E+07        -0.50554E+08         0.00000E+00
    0.00000E+00         0.00000E+00        -0.25370E-08
 
    0.22452E+05         0.10888E+07         0.00000E+00
    0.10888E+07        -0.50664E+08         0.00000E+00
    0.00000E+00         0.00000E+00        -0.63437E-09
 
    0.22746E+05         0.11105E+07         0.00000E+00
    0.11105E+07        -0.50776E+08         0.00000E+00
    0.00000E+00         0.00000E+00        -0.50741E-08
 
    0.23036E+05         0.11326E+07         0.00000E+00
    0.11326E+07        -0.50890E+08         0.00000E+00
    0.00000E+00         0.00000E+00        -0.19027E-08
 
    0.23321E+05         0.11548E+07         0.00000E+00
    0.11548E+07        -0.51007E+08         0.00000E+00
    0.00000E+00         0.00000E+00        -0.31714E-08
 
    0.23596E+05         0.11774E+07         0.00000E+00
    0.11774E+07        -0.51126E+08         0.00000E+00
    0.00000E+00         0.00000E+00         0.00000E+00
 
    0.23860E+05         0.12002E+07         0.00000E+00
    0.12002E+07        -0.51247E+08         0.00000E+00
    0.00000E+00         0.00000E+00         0.12683E-08
 
    0.24109E+05         0.12232E+07         0.00000E+00
    0.12232E+07        -0.51372E+08         0.00000E+00
    0.00000E+00         0.00000E+00        -0.12683E-08
 
    0.24342E+05         0.12465E+07         0.00000E+00
    0.12465E+07        -0.51498E+08         0.00000E+00
    0.00000E+00         0.00000E+00         0.38053E-08
 
    0.24555E+05         0.12699E+07         0.00000E+00
    0.12699E+07        -0.51628E+08         0.00000E+00
    0.00000E+00         0.00000E+00         0.31714E-08
 
    0.24746E+05         0.12936E+07         0.00000E+00
    0.12936E+07        -0.51760E+08         0.00000E+00
    0.00000E+00         0.00000E+00        -0.69767E-08
 
    0.24913E+05         0.13174E+07         0.00000E+00
    0.13174E+07        -0.51896E+08         0.00000E+00
    0.00000E+00         0.00000E+00         0.00000E+00
 
    0.25051E+05         0.13413E+07         0.00000E+00
    0.13413E+07        -0.52034E+08         0.00000E+00
    0.00000E+00         0.00000E+00        -0.45475E-12
 
    0.25159E+05         0.13654E+07         0.00000E+00
    0.13654E+07        -0.52175E+08         0.00000E+00
    0.00000E+00         0.00000E+00         0.12687E-08
 
    0.25233E+05         0.13895E+07         0.00000E+00
    0.13895E+07        -0.52319E+08         0.00000E+00
    0.00000E+00         0.00000E+00         0.12687E-08
 
    0.25271E+05         0.14136E+07         0.00000E+00
    0.14136E+07        -0.52466E+08         0.00000E+00
    0.00000E+00         0.00000E+00         0.31714E-08
 
    0.25267E+05         0.14378E+07         0.00000E+00
    0.14378E+07        -0.52616E+08         0.00000E+00
    0.00000E+00         0.00000E+00         0.00000E+00
 
    0.25220E+05         0.14620E+07         0.00000E+00
    0.14620E+07        -0.52770E+08         0.00000E+00
    0.00000E+00         0.00000E+00         0.19027E-08
 
    0.25125E+05         0.14860E+07         0.00000E+00
    0.14860E+07        -0.52926E+08         0.00000E+00
    0.00000E+00         0.00000E+00         0.63392E-09
 
    0.24978E+05         0.15099E+07         0.00000E+00
    0.15099E+07        -0.53086E+08         0.00000E+00
    0.00000E+00         0.00000E+00        -0.12687E-08
 
    0.24774E+05         0.15337E+07         0.00000E+00
    0.15337E+07        -0.53249E+08         0.00000E+00
    0.00000E+00         0.00000E+00         0.00000E+00
 
    0.24509E+05         0.15572E+07         0.00000E+00
    0.15572E+07        -0.53415E+08         0.00000E+00
    0.00000E+00         0.00000E+00        -0.63483E-09
 
    0.24177E+05         0.15804E+07         0.00000E+00
    0.15804E+07        -0.53585E+08         0.00000E+00
    0.00000E+00         0.00000E+00         0.31714E-08
 
    0.23771E+05         0.16032E+07         0.00000E+00
    0.16032E+07        -0.53758E+08         0.00000E+00
    0.00000E+00         0.00000E+00         0.00000E+00
 
    0.23287E+05         0.16256E+07         0.00000E+00
    0.16256E+07        -0.53934E+08         0.00000E+00
    0.00000E+00         0.00000E+00         0.31714E-08
 
    0.22716E+05         0.16474E+07         0.00000E+00
    0.16474E+07        -0.54114E+08         0.00000E+00
    0.00000E+00         0.00000E+00        -0.25366E-08
 
    0.22052E+05         0.16686E+07         0.00000E+00
    0.16686E+07        -0.54297E+08         0.00000E+00
    0.00000E+00         0.00000E+00         0.12678E-08
 
    0.21285E+05         0.16891E+07         0.00000E+00
    0.16891E+07        -0.54484E+08         0.00000E+00
    0.00000E+00         0.00000E+00         0.57089E-08
 
    0.20407E+05         0.17088E+07         0.00000E+00
    0.17088E+07        -0.54675E+08         0.00000E+00
    0.00000E+00         0.00000E+00        -0.63392E-09
 
    0.19407E+05         0.17275E+07         0.00000E+00
    0.17275E+07        -0.54869E+08         0.00000E+00
    0.00000E+00         0.00000E+00        -0.63392E-09
 
    0.18275E+05         0.17452E+07         0.00000E+00
    0.17452E+07        -0.55067E+08         0.00000E+00
    0.00000E+00         0.00000E+00         0.63428E-08
 
    0.16998E+05         0.17616E+07         0.00000E+00
    0.17616E+07        -0.55269E+08         0.00000E+00
    0.00000E+00         0.00000E+00         0.63483E-09
 
    0.15564E+05         0.17767E+07         0.00000E+00
    0.17767E+07        -0.55475E+08         0.00000E+00
    0.00000E+00         0.00000E+00         0.38062E-08
 
    0.13958E+05         0.17903E+07         0.00000E+00
    0.17903E+07        -0.55684E+08         0.00000E+00
    0.00000E+00         0.00000E+00         0.25366E-08
 
    0.12165E+05         0.18022E+07         0.00000E+00
    0.18022E+07        -0.55898E+08         0.00000E+00
    0.00000E+00         0.00000E+00         0.12678E-08
 
    0.10170E+05         0.18122E+07         0.00000E+00
    0.18122E+07        -0.56115E+08         0.00000E+00
    0.00000E+00         0.00000E+00         0.57089E-08
 
    0.79548E+04         0.18201E+07         0.00000E+00
    0.18201E+07        -0.56337E+08         0.00000E+00
    0.00000E+00         0.00000E+00         0.12687E-08
 
    0.55025E+04         0.18256E+07         0.00000E+00
    0.18256E+07        -0.56563E+08         0.00000E+00
    0.00000E+00         0.00000E+00        -0.44411E-08
 
    0.27948E+04         0.18286E+07         0.00000E+00
    0.18286E+07        -0.56793E+08         0.00000E+00
    0.00000E+00         0.00000E+00        -0.76116E-08
 
   -0.18643E+03         0.18287E+07         0.00000E+00
    0.18287E+07        -0.57027E+08         0.00000E+00
    0.00000E+00         0.00000E+00         0.69767E-08
 
   -0.34590E+04         0.18258E+07         0.00000E+00
    0.18258E+07        -0.57266E+08         0.00000E+00
    0.00000E+00         0.00000E+00         0.63483E-09
 
   -0.70399E+04         0.18194E+07         0.00000E+00
    0.18194E+07        -0.57510E+08         0.00000E+00
    0.00000E+00         0.00000E+00        -0.38053E-08
 
   -0.10944E+05         0.18092E+07         0.00000E+00
    0.18092E+07        -0.57758E+08         0.00000E+00
    0.00000E+00         0.00000E+00        -0.57080E-08
 
   -0.15185E+05         0.17950E+07         0.00000E+00
    0.17950E+07        -0.58012E+08         0.00000E+00
    0.00000E+00         0.00000E+00        -0.25366E-08
 
   -0.19770E+05         0.17764E+07         0.00000E+00
    0.17764E+07        -0.58270E+08         0.00000E+00
    0.00000E+00         0.00000E+00        -0.44402E-08
 
   -0.24706E+05         0.17531E+07         0.00000E+00
    0.17531E+07        -0.58533E+08         0.00000E+00
    0.00000E+00         0.00000E+00        -0.38053E-08
 
   -0.29992E+05         0.17247E+07         0.00000E+00
    0.17247E+07        -0.58801E+08         0.00000E+00
    0.00000E+00         0.00000E+00        -0.12678E-08
 
   -0.35622E+05         0.16909E+07         0.00000E+00
    0.16909E+07        -0.59073E+08         0.00000E+00
    0.00000E+00         0.00000E+00        -0.25375E-08
 
   -0.41585E+05         0.16513E+07         0.00000E+00
    0.16513E+07        -0.59350E+08         0.00000E+00
    0.00000E+00         0.00000E+00         0.50750E-08
 
   -0.47864E+05         0.16058E+07         0.00000E+00
    0.16058E+07        -0.59631E+08         0.00000E+00
    0.00000E+00         0.00000E+00         0.50732E-08
 
   -0.54443E+05         0.15539E+07         0.00000E+00
    0.15539E+07        -0.59916E+08         0.00000E+00
    0.00000E+00         0.00000E+00        -0.63392E-09
 
   -0.61314E+05         0.14955E+07         0.00000E+00
    0.14955E+07        -0.60202E+08         0.00000E+00
    0.00000E+00         0.00000E+00        -0.38062E-08
 
   -0.68484E+05         0.14303E+07         0.00000E+00
    0.14303E+07        -0.60490E+08         0.00000E+00
    0.00000E+00         0.00000E+00        -0.63483E-09
 
   -0.76005E+05         0.13580E+07         0.00000E+00
    0.13580E+07        -0.60778E+08         0.00000E+00
    0.00000E+00         0.00000E+00         0.19027E-08
 
   -0.83999E+05         0.12784E+07         0.00000E+00
    0.12784E+07        -0.61062E+08         0.00000E+00
    0.00000E+00         0.00000E+00        -0.25366E-08
 
   -0.92713E+05         0.11909E+07         0.00000E+00
    0.11909E+07        -0.61340E+08         0.00000E+00
    0.00000E+00         0.00000E+00         0.12697E-08
 
   -0.10260E+06         0.10948E+07         0.00000E+00
    0.10948E+07        -0.61608E+08         0.00000E+00
    0.00000E+00         0.00000E+00         0.25366E-08
 
   -0.11442E+06         0.98870E+06         0.00000E+00
    0.98870E+06        -0.61862E+08         0.00000E+00
    0.00000E+00         0.00000E+00         0.50741E-08
 
   -0.12945E+06         0.87010E+06         0.00000E+00
    0.87010E+06        -0.62097E+08         0.00000E+00
    0.00000E+00         0.00000E+00         0.19031E-08
 
   -0.14992E+06         0.73498E+06         0.00000E+00
    0.73498E+06        -0.62305E+08         0.00000E+00
    0.00000E+00         0.00000E+00        -0.50741E-08
 
   -0.17959E+06         0.57666E+06         0.00000E+00
    0.57666E+06        -0.62480E+08         0.00000E+00
    0.00000E+00         0.00000E+00        -0.19027E-08
 
   -0.22767E+06         0.38099E+06         0.00000E+00
    0.38099E+06        -0.62612E+08         0.00000E+00
    0.00000E+00         0.00000E+00        -0.12688E-08
 
   -0.33461E+06         0.13565E+06         0.00000E+00
    0.13565E+06        -0.62683E+08         0.00000E+00
    0.00000E+00         0.00000E+00         0.19024E-08
 
    0.13372E+06         0.36973E+05         0.00000E+00
    0.36973E+05        -0.47549E+08         0.00000E+00
    0.00000E+00         0.00000E+00         0.19027E-08
 
    0.98026E+05         0.10631E+06         0.00000E+00
    0.10631E+06        -0.47566E+08         0.00000E+00
    0.00000E+00         0.00000E+00        -0.12683E-08
 
    0.79888E+05         0.16563E+06         0.00000E+00
    0.16563E+06        -0.47600E+08         0.00000E+00
    0.00000E+00         0.00000E+00        -0.12685E-08
 
    0.68900E+05         0.21601E+06         0.00000E+00
    0.21601E+06        -0.47646E+08         0.00000E+00
    0.00000E+00         0.00000E+00         0.00000E+00
 
    0.61467E+05         0.26054E+06         0.00000E+00
    0.26054E+06        -0.47702E+08         0.00000E+00
    0.00000E+00         0.00000E+00         0.25368E-08
 
    0.56175E+05         0.30104E+06         0.00000E+00
    0.30104E+06        -0.47765E+08         0.00000E+00
    0.00000E+00         0.00000E+00         0.12685E-08
 
    0.52187E+05         0.33859E+06         0.00000E+00
    0.33859E+06        -0.47835E+08         0.00000E+00
    0.00000E+00         0.00000E+00        -0.31714E-08
 
    0.49013E+05         0.37386E+06         0.00000E+00
    0.37386E+06        -0.47908E+08         0.00000E+00
    0.00000E+00         0.00000E+00        -0.63428E-08
 
    0.46353E+05         0.40726E+06         0.00000E+00
    0.40726E+06        -0.47985E+08         0.00000E+00
    0.00000E+00         0.00000E+00         0.25370E-08
 
    0.44027E+05         0.43903E+06         0.00000E+00
    0.43903E+06        -0.48063E+08         0.00000E+00
    0.00000E+00         0.00000E+00        -0.12683E-08
 
    0.41934E+05         0.46932E+06         0.00000E+00
    0.46932E+06        -0.48144E+08         0.00000E+00
    0.00000E+00         0.00000E+00         0.38058E-08
 
    0.40020E+05         0.49824E+06         0.00000E+00
    0.49824E+06        -0.48225E+08         0.00000E+00
    0.00000E+00         0.00000E+00         0.19027E-08
 
    0.38259E+05         0.52588E+06         0.00000E+00
    0.52588E+06        -0.48306E+08         0.00000E+00
    0.00000E+00         0.00000E+00         0.19027E-08
 
    0.36642E+05         0.55232E+06         0.00000E+00
    0.55232E+06        -0.48388E+08         0.00000E+00
    0.00000E+00         0.00000E+00        -0.38053E-08
 
    0.35166E+05         0.57765E+06         0.00000E+00
    0.57765E+06        -0.48470E+08         0.00000E+00
    0.00000E+00         0.00000E+00         0.63437E-09
 
    0.33831E+05         0.60196E+06         0.00000E+00
    0.60196E+06        -0.48552E+08         0.00000E+00
    0.00000E+00         0.00000E+00        -0.25370E-08
 
    0.32640E+05         0.62533E+06         0.00000E+00
    0.62533E+06        -0.48635E+08         0.00000E+00
    0.00000E+00         0.00000E+00        -0.31714E-08
 
    0.31591E+05         0.64787E+06         0.00000E+00
    0.64787E+06        -0.48717E+08         0.00000E+00
    0.00000E+00         0.00000E+00         0.95138E-08
 
    0.30683E+05         0.66968E+06         0.00000E+00
    0.66968E+06        -0.48800E+08         0.00000E+00
    0.00000E+00         0.00000E+00        -0.25375E-08
 
    0.29912E+05         0.69084E+06         0.00000E+00
    0.69084E+06        -0.48883E+08         0.00000E+00
    0.00000E+00         0.00000E+00         0.95142E-08
 
    0.29272E+05         0.71146E+06         0.00000E+00
    0.71146E+06        -0.48966E+08         0.00000E+00
    0.00000E+00         0.00000E+00         0.00000E+00
 
    0.28758E+05         0.73162E+06         0.00000E+00
    0.73162E+06        -0.49050E+08         0.00000E+00
    0.00000E+00         0.00000E+00        -0.44397E-08
 
    0.28362E+05         0.75142E+06         0.00000E+00
    0.75142E+06        -0.49134E+08         0.00000E+00
    0.00000E+00         0.00000E+00         0.63437E-09
 
    0.28075E+05         0.77093E+06         0.00000E+00
    0.77093E+06        -0.49220E+08         0.00000E+00
    0.00000E+00         0.00000E+00        -0.63424E-08
 
    0.27888E+05         0.79023E+06         0.00000E+00
    0.79023E+06        -0.49306E+08         0.00000E+00
    0.00000E+00         0.00000E+00        -0.63437E-09
 
    0.27792E+05         0.80939E+06         0.00000E+00
    0.80939E+06        -0.49393E+08         0.00000E+00
    0.00000E+00         0.00000E+00         0.00000E+00
 
    0.27779E+05         0.82847E+06         0.00000E+00
    0.82847E+06        -0.49482E+08         0.00000E+00
    0.00000E+00         0.00000E+00        -0.31714E-08
 
    0.27840E+05         0.84752E+06         0.00000E+00
    0.84752E+06        -0.49572E+08         0.00000E+00
    0.00000E+00         0.00000E+00        -0.12687E-08
 
    0.27967E+05         0.86661E+06         0.00000E+00
    0.86661E+06        -0.49663E+08         0.00000E+00
    0.00000E+00         0.00000E+00         0.63437E-09
 
    0.28151E+05         0.88577E+06         0.00000E+00
    0.88577E+06        -0.49755E+08         0.00000E+00
    0.00000E+00         0.00000E+00         0.25370E-08
 
    0.28384E+05         0.90504E+06         0.00000E+00
    0.90504E+06        -0.49849E+08         0.00000E+00
    0.00000E+00         0.00000E+00         0.25375E-08
 
    0.28661E+05         0.92446E+06         0.00000E+00
    0.92446E+06        -0.49945E+08         0.00000E+00
    0.00000E+00         0.00000E+00         0.82455E-08
 
    0.28973E+05         0.94406E+06         0.00000E+00
    0.94406E+06        -0.50042E+08         0.00000E+00
    0.00000E+00         0.00000E+00         0.82455E-08
 
    0.29315E+05         0.96386E+06         0.00000E+00
    0.96386E+06        -0.50142E+08         0.00000E+00
    0.00000E+00         0.00000E+00         0.00000E+00
 
    0.29680E+05         0.98387E+06         0.00000E+00
    0.98387E+06        -0.50243E+08         0.00000E+00
    0.00000E+00         0.00000E+00         0.63437E-09
 
    0.30064E+05         0.10041E+07         0.00000E+00
    0.10041E+07        -0.50346E+08         0.00000E+00
    0.00000E+00         0.00000E+00        -0.38053E-08
 
    0.30462E+05         0.10246E+07         0.00000E+00
    0.10246E+07        -0.50451E+08         0.00000E+00
    0.00000E+00         0.00000E+00        -0.12678E-08
 
    0.30867E+05         0.10454E+07         0.00000E+00
    0.10454E+07        -0.50559E+08         0.00000E+00
    0.00000E+00         0.00000E+00         0.25370E-08
 
    0.31277E+05         0.10664E+07         0.00000E+00
    0.10664E+07        -0.50668E+08         0.00000E+00
    0.00000E+00         0.00000E+00         0.00000E+00
 
    0.31686E+05         0.10877E+07         0.00000E+00
    0.10877E+07        -0.50780E+08         0.00000E+00
    0.00000E+00         0.00000E+00        -0.63424E-08
 
    0.32090E+05         0.11092E+07         0.00000E+00
    0.11092E+07        -0.50894E+08         0.00000E+00
    0.00000E+00         0.00000E+00        -0.25375E-08
 
    0.32486E+05         0.11310E+07         0.00000E+00
    0.11310E+07        -0.51011E+08         0.00000E+00
    0.00000E+00         0.00000E+00        -0.19027E-08
 
    0.32869E+05         0.11531E+07         0.00000E+00
    0.11531E+07        -0.51130E+08         0.00000E+00
    0.00000E+00         0.00000E+00         0.63437E-09
 
    0.33237E+05         0.11753E+07         0.00000E+00
    0.11753E+07        -0.51252E+08         0.00000E+00
    0.00000E+00         0.00000E+00        -0.38058E-08
 
    0.33585E+05         0.11979E+07         0.00000E+00
    0.11979E+07        -0.51376E+08         0.00000E+00
    0.00000E+00         0.00000E+00         0.63437E-09
 
    0.33909E+05         0.12206E+07         0.00000E+00
    0.12206E+07        -0.51503E+08         0.00000E+00
    0.00000E+00         0.00000E+00         0.63428E-08
 
    0.34206E+05         0.12435E+07         0.00000E+00
    0.12435E+07        -0.51633E+08         0.00000E+00
    0.00000E+00         0.00000E+00        -0.12683E-08
 
    0.34472E+05         0.12666E+07         0.00000E+00
    0.12666E+07        -0.51765E+08         0.00000E+00
    0.00000E+00         0.00000E+00        -0.50741E-08
 
    0.34703E+05         0.12899E+07         0.00000E+00
    0.12899E+07        -0.51900E+08         0.00000E+00
    0.00000E+00         0.00000E+00        -0.44397E-08
 
    0.34896E+05         0.13133E+07         0.00000E+00
    0.13133E+07        -0.52039E+08         0.00000E+00
    0.00000E+00         0.00000E+00        -0.50741E-08
 
    0.35046E+05         0.13368E+07         0.00000E+00
    0.13368E+07        -0.52180E+08         0.00000E+00
    0.00000E+00         0.00000E+00        -0.19027E-08
 
    0.35150E+05         0.13604E+07         0.00000E+00
    0.13604E+07        -0.52324E+08         0.00000E+00
    0.00000E+00         0.00000E+00         0.63437E-09
 
    0.35201E+05         0.13840E+07         0.00000E+00
    0.13840E+07        -0.52471E+08         0.00000E+00
    0.00000E+00         0.00000E+00         0.00000E+00
 
    0.35197E+05         0.14076E+07         0.00000E+00
    0.14076E+07        -0.52621E+08         0.00000E+00
    0.00000E+00         0.00000E+00         0.63437E-09
 
    0.35131E+05         0.14311E+07         0.00000E+00
    0.14311E+07        -0.52774E+08         0.00000E+00
    0.00000E+00         0.00000E+00        -0.50741E-08
 
    0.34999E+05         0.14546E+07         0.00000E+00
    0.14546E+07        -0.52931E+08         0.00000E+00
    0.00000E+00         0.00000E+00         0.12687E-08
 
    0.34794E+05         0.14780E+07         0.00000E+00
    0.14780E+07        -0.53090E+08         0.00000E+00
    0.00000E+00         0.00000E+00        -0.57089E-08
 
    0.34510E+05         0.15011E+07         0.00000E+00
    0.15011E+07        -0.53253E+08         0.00000E+00
    0.00000E+00         0.00000E+00        -0.63392E-09
 
    0.34140E+05         0.15240E+07         0.00000E+00
    0.15240E+07        -0.53420E+08         0.00000E+00
    0.00000E+00         0.00000E+00         0.63392E-09
 
    0.33677E+05         0.15466E+07         0.00000E+00
    0.15466E+07        -0.53589E+08         0.00000E+00
    0.00000E+00         0.00000E+00        -0.31714E-08
 
    0.33112E+05         0.15689E+07         0.00000E+00
    0.15689E+07        -0.53762E+08         0.00000E+00
    0.00000E+00         0.00000E+00        -0.12687E-08
 
    0.32438E+05         0.15907E+07         0.00000E+00
    0.15907E+07        -0.53938E+08         0.00000E+00
    0.00000E+00         0.00000E+00         0.31714E-08
 
    0.31643E+05         0.16119E+07         0.00000E+00
    0.16119E+07        -0.54118E+08         0.00000E+00
    0.00000E+00         0.00000E+00         0.31705E-08
 
    0.30717E+05         0.16325E+07         0.00000E+00
    0.16325E+07        -0.54302E+08         0.00000E+00
    0.00000E+00         0.00000E+00         0.00000E+00
 
    0.29649E+05         0.16525E+07         0.00000E+00
    0.16525E+07        -0.54488E+08         0.00000E+00
    0.00000E+00         0.00000E+00         0.82455E-08
 
    0.28426E+05         0.16716E+07         0.00000E+00
    0.16716E+07        -0.54679E+08         0.00000E+00
    0.00000E+00         0.00000E+00         0.00000E+00
 
    0.27034E+05         0.16897E+07         0.00000E+00
    0.16897E+07        -0.54873E+08         0.00000E+00
    0.00000E+00         0.00000E+00         0.10782E-07
 
    0.25457E+05         0.17068E+07         0.00000E+00
    0.17068E+07        -0.55071E+08         0.00000E+00
    0.00000E+00         0.00000E+00        -0.31723E-08
 
    0.23678E+05         0.17227E+07         0.00000E+00
    0.17227E+07        -0.55272E+08         0.00000E+00
    0.00000E+00         0.00000E+00         0.44402E-08
 
    0.21681E+05         0.17373E+07         0.00000E+00
    0.17373E+07        -0.55478E+08         0.00000E+00
    0.00000E+00         0.00000E+00         0.44402E-08
 
    0.19444E+05         0.17503E+07         0.00000E+00
    0.17503E+07        -0.55687E+08         0.00000E+00
    0.00000E+00         0.00000E+00         0.38053E-08
 
    0.16947E+05         0.17617E+07         0.00000E+00
    0.17617E+07        -0.55900E+08         0.00000E+00
    0.00000E+00         0.00000E+00        -0.63301E-09
 
    0.14167E+05         0.17712E+07         0.00000E+00
    0.17712E+07        -0.56117E+08         0.00000E+00
    0.00000E+00         0.00000E+00         0.63419E-08
 
    0.11081E+05         0.17786E+07         0.00000E+00
    0.17786E+07        -0.56338E+08         0.00000E+00
    0.00000E+00         0.00000E+00         0.57080E-08
 
    0.76644E+04         0.17837E+07         0.00000E+00
    0.17837E+07        -0.56563E+08         0.00000E+00
    0.00000E+00         0.00000E+00         0.00000E+00
 
    0.38912E+04         0.17862E+07         0.00000E+00
    0.17862E+07        -0.56793E+08         0.00000E+00
    0.00000E+00         0.00000E+00         0.19027E-08
 
   -0.26415E+03         0.17859E+07         0.00000E+00
    0.17859E+07        -0.57027E+08         0.00000E+00
    0.00000E+00         0.00000E+00        -0.57080E-08
 
   -0.48268E+04         0.17825E+07         0.00000E+00
    0.17825E+07        -0.57265E+08         0.00000E+00
    0.00000E+00         0.00000E+00         0.44392E-08
 
   -0.98208E+04         0.17757E+07         0.00000E+00
    0.17757E+07        -0.57508E+08         0.00000E+00
    0.00000E+00         0.00000E+00         0.25366E-08
 
   -0.15268E+05         0.17651E+07         0.00000E+00
    0.17651E+07        -0.57756E+08         0.00000E+00
    0.00000E+00         0.00000E+00        -0.12678E-08
 
   -0.21187E+05         0.17506E+07         0.00000E+00
    0.17506E+07        -0.58008E+08         0.00000E+00
    0.00000E+00         0.00000E+00        -0.31714E-08
 
   -0.27593E+05         0.17316E+07         0.00000E+00
    0.17316E+07        -0.58266E+08         0.00000E+00
    0.00000E+00         0.00000E+00         0.76107E-08
 
   -0.34492E+05         0.17080E+07         0.00000E+00
    0.17080E+07        -0.58528E+08         0.00000E+00
    0.00000E+00         0.00000E+00         0.69776E-08
 
   -0.41888E+05         0.16792E+07         0.00000E+00
    0.16792E+07        -0.58794E+08         0.00000E+00
    0.00000E+00         0.00000E+00        -0.50741E-08
 
   -0.49773E+05         0.16451E+07         0.00000E+00
    0.16451E+07        -0.59066E+08         0.00000E+00
    0.00000E+00         0.00000E+00         0.00000E+00
 
   -0.58135E+05         0.16053E+07         0.00000E+00
    0.16053E+07        -0.59342E+08         0.00000E+00
    0.00000E+00         0.00000E+00         0.63419E-08
 
   -0.66955E+05         0.15595E+07         0.00000E+00
    0.15595E+07        -0.59621E+08         0.00000E+00
    0.00000E+00         0.00000E+00         0.00000E+00
 
   -0.76214E+05         0.15074E+07         0.00000E+00
    0.15074E+07        -0.59904E+08         0.00000E+00
    0.00000E+00         0.00000E+00         0.38053E-08
 
   -0.85903E+05         0.14488E+07         0.00000E+00
    0.14488E+07        -0.60190E+08         0.00000E+00
    0.00000E+00         0.00000E+00        -0.12678E-08
 
   -0.96039E+05         0.13834E+07         0.00000E+00
    0.13834E+07        -0.60477E+08         0.00000E+00
    0.00000E+00         0.00000E+00         0.12687E-08
 
   -0.10670E+06         0.13110E+07         0.00000E+00
    0.13110E+07        -0.60762E+08         0.00000E+00
    0.00000E+00         0.00000E+00        -0.12678E-08
 
   -0.11805E+06         0.12313E+07         0.00000E+00
    0.12313E+07        -0.61045E+08         0.00000E+00
    0.00000E+00         0.00000E+00         0.25375E-08
 
   -0.13043E+06         0.11439E+07         0.00000E+00
    0.11439E+07        -0.61322E+08         0.00000E+00
    0.00000E+00         0.00000E+00         0.25375E-08
 
   -0.14448E+06         0.10480E+07         0.00000E+00
    0.10480E+07        -0.61588E+08         0.00000E+00
    0.00000E+00         0.00000E+00        -0.25366E-08
 
   -0.16123E+06         0.94234E+06         0.00000E+00
    0.94234E+06        -0.61840E+08         0.00000E+00
    0.00000E+00         0.00000E+00         0.76116E-08
 
   -0.18245E+06         0.82462E+06         0.00000E+00
    0.82462E+06        -0.62071E+08         0.00000E+00
    0.00000E+00         0.00000E+00         0.25366E-08
 
   -0.21111E+06         0.69112E+06         0.00000E+00
    0.69112E+06        -0.62276E+08         0.00000E+00
    0.00000E+00         0.00000E+00         0.12683E-08
 
   -0.25230E+06         0.53544E+06         0.00000E+00
    0.53544E+06        -0.62446E+08         0.00000E+00
    0.00000E+00         0.00000E+00        -0.25370E-08
 
   -0.31900E+06         0.34666E+06         0.00000E+00
    0.34666E+06        -0.62569E+08         0.00000E+00
    0.00000E+00         0.00000E+00        -0.38055E-08
 
   -0.44892E+06         0.12115E+06         0.00000E+00
    0.12115E+06        -0.62632E+08         0.00000E+00
    0.00000E+00         0.00000E+00         0.76111E-08
 
    0.16584E+06         0.33679E+05         0.00000E+00
    0.33679E+05        -0.47563E+08         0.00000E+00
    0.00000E+00         0.00000E+00         0.50742E-08
 
    0.12551E+06         0.98011E+05         0.00000E+00
    0.98011E+05        -0.47579E+08         0.00000E+00
    0.00000E+00         0.00000E+00         0.88794E-08
 
    0.10289E+06         0.15497E+06         0.00000E+00
    0.15497E+06        -0.47610E+08         0.00000E+00
    0.00000E+00         0.00000E+00        -0.76111E-08
 
    0.88898E+05         0.20432E+06         0.00000E+00
    0.20432E+06        -0.47655E+08         0.00000E+00
    0.00000E+00         0.00000E+00         0.38056E-08
 
    0.79364E+05         0.24821E+06         0.00000E+00
    0.24821E+06        -0.47710E+08         0.00000E+00
    0.00000E+00         0.00000E+00         0.12685E-08
 
    0.72510E+05         0.28830E+06         0.00000E+00
    0.28830E+06        -0.47773E+08         0.00000E+00
    0.00000E+00         0.00000E+00         0.00000E+00
 
    0.67313E+05         0.32557E+06         0.00000E+00
    0.32557E+06        -0.47842E+08         0.00000E+00
    0.00000E+00         0.00000E+00        -0.45475E-12
 
    0.63156E+05         0.36064E+06         0.00000E+00
    0.36064E+06        -0.47915E+08         0.00000E+00
    0.00000E+00         0.00000E+00         0.38053E-08
 
    0.59665E+05         0.39387E+06         0.00000E+00
    0.39387E+06        -0.47991E+08         0.00000E+00
    0.00000E+00         0.00000E+00         0.38058E-08
 
    0.56612E+05         0.42549E+06         0.00000E+00
    0.42549E+06        -0.48070E+08         0.00000E+00
    0.00000E+00         0.00000E+00        -0.12683E-08
 
    0.53870E+05         0.45563E+06         0.00000E+00
    0.45563E+06        -0.48149E+08         0.00000E+00
    0.00000E+00         0.00000E+00         0.10148E-07
 
    0.51367E+05         0.48439E+06         0.00000E+00
    0.48439E+06        -0.48230E+08         0.00000E+00
    0.00000E+00         0.00000E+00        -0.63424E-08
 
    0.49072E+05         0.51187E+06         0.00000E+00
    0.51187E+06        -0.48312E+08         0.00000E+00
    0.00000E+00         0.00000E+00         0.63428E-08
 
    0.46968E+05         0.53813E+06         0.00000E+00
    0.53813E+06        -0.48393E+08         0.00000E+00
    0.00000E+00         0.00000E+00         0.12687E-08
 
    0.45053E+05         0.56327E+06         0.00000E+00
    0.56327E+06        -0.48475E+08         0.00000E+00
    0.00000E+00         0.00000E+00         0.00000E+00
 
    0.43326E+05         0.58737E+06         0.00000E+00
    0.58737E+06        -0.48557E+08         0.00000E+00
    0.00000E+00         0.00000E+00        -0.50745E-08
 
    0.41786E+05         0.61053E+06         0.00000E+00
    0.61053E+06        -0.48639E+08         0.00000E+00
    0.00000E+00         0.00000E+00        -0.88794E-08
 
    0.40432E+05         0.63283E+06         0.00000E+00
    0.63283E+06        -0.48721E+08         0.00000E+00
    0.00000E+00         0.00000E+00        -0.12683E-08
 
    0.39262E+05         0.65439E+06         0.00000E+00
    0.65439E+06        -0.48804E+08         0.00000E+00
    0.00000E+00         0.00000E+00         0.88794E-08
 
    0.38270E+05         0.67530E+06         0.00000E+00
    0.67530E+06        -0.48887E+08         0.00000E+00
    0.00000E+00         0.00000E+00        -0.12687E-08
 
    0.37448E+05         0.69565E+06         0.00000E+00
    0.69565E+06        -0.48970E+08         0.00000E+00
    0.00000E+00         0.00000E+00        -0.25366E-08
 
    0.36788E+05         0.71553E+06         0.00000E+00
    0.71553E+06        -0.49054E+08         0.00000E+00
    0.00000E+00         0.00000E+00        -0.76107E-08
 
    0.36279E+05         0.73504E+06         0.00000E+00
    0.73504E+06        -0.49138E+08         0.00000E+00
    0.00000E+00         0.00000E+00        -0.88794E-08
 
    0.35910E+05         0.75425E+06         0.00000E+00
    0.75425E+06        -0.49224E+08         0.00000E+00
    0.00000E+00         0.00000E+00         0.25366E-08
 
    0.35671E+05         0.77323E+06         0.00000E+00
    0.77323E+06        -0.49310E+08         0.00000E+00
    0.00000E+00         0.00000E+00         0.12687E-08
 
    0.35548E+05         0.79207E+06         0.00000E+00
    0.79207E+06        -0.49397E+08         0.00000E+00
    0.00000E+00         0.00000E+00         0.00000E+00
 
    0.35532E+05         0.81082E+06         0.00000E+00
    0.81082E+06        -0.49486E+08         0.00000E+00
    0.00000E+00         0.00000E+00         0.12683E-08
 
    0.35610E+05         0.82953E+06         0.00000E+00
    0.82953E+06        -0.49575E+08         0.00000E+00
    0.00000E+00         0.00000E+00        -0.50741E-08
 
    0.35772E+05         0.84826E+06         0.00000E+00
    0.84826E+06        -0.49666E+08         0.00000E+00
    0.00000E+00         0.00000E+00        -0.10148E-07
 
    0.36008E+05         0.86706E+06         0.00000E+00
    0.86706E+06        -0.49759E+08         0.00000E+00
    0.00000E+00         0.00000E+00         0.00000E+00
 
    0.36307E+05         0.88596E+06         0.00000E+00
    0.88596E+06        -0.49853E+08         0.00000E+00
    0.00000E+00         0.00000E+00         0.12687E-08
 
    0.36661E+05         0.90499E+06         0.00000E+00
    0.90499E+06        -0.49949E+08         0.00000E+00
    0.00000E+00         0.00000E+00        -0.12683E-08
 
    0.37060E+05         0.92420E+06         0.00000E+00
    0.92420E+06        -0.50046E+08         0.00000E+00
    0.00000E+00         0.00000E+00         0.25375E-08
 
    0.37498E+05         0.94359E+06         0.00000E+00
    0.94359E+06        -0.50146E+08         0.00000E+00
    0.00000E+00         0.00000E+00        -0.12687E-08
 
    0.37966E+05         0.96319E+06         0.00000E+00
    0.96319E+06        -0.50247E+08         0.00000E+00
    0.00000E+00         0.00000E+00         0.12687E-08
 
    0.38458E+05         0.98301E+06         0.00000E+00
    0.98301E+06        -0.50350E+08         0.00000E+00
    0.00000E+00         0.00000E+00        -0.50741E-08
 
    0.38966E+05         0.10031E+07         0.00000E+00
    0.10031E+07        -0.50455E+08         0.00000E+00
    0.00000E+00         0.00000E+00        -0.76111E-08
 
    0.39485E+05         0.10234E+07         0.00000E+00
    0.10234E+07        -0.50563E+08         0.00000E+00
    0.00000E+00         0.00000E+00        -0.11417E-07
 
    0.40009E+05         0.10439E+07         0.00000E+00
    0.10439E+07        -0.50672E+08         0.00000E+00
    0.00000E+00         0.00000E+00         0.25370E-08
 
    0.40532E+05         0.10648E+07         0.00000E+00
    0.10648E+07        -0.50784E+08         0.00000E+00
    0.00000E+00         0.00000E+00        -0.25366E-08
 
    0.41049E+05         0.10858E+07         0.00000E+00
    0.10858E+07        -0.50899E+08         0.00000E+00
    0.00000E+00         0.00000E+00        -0.38053E-08
 
    0.41556E+05         0.11071E+07         0.00000E+00
    0.11071E+07        -0.51015E+08         0.00000E+00
    0.00000E+00         0.00000E+00         0.16491E-07
 
    0.42047E+05         0.11287E+07         0.00000E+00
    0.11287E+07        -0.51135E+08         0.00000E+00
    0.00000E+00         0.00000E+00         0.00000E+00
 
    0.42517E+05         0.11505E+07         0.00000E+00
    0.11505E+07        -0.51256E+08         0.00000E+00
    0.00000E+00         0.00000E+00         0.38053E-08
 
    0.42961E+05         0.11725E+07         0.00000E+00
    0.11725E+07        -0.51381E+08         0.00000E+00
    0.00000E+00         0.00000E+00        -0.38053E-08
 
    0.43376E+05         0.11947E+07         0.00000E+00
    0.11947E+07        -0.51508E+08         0.00000E+00
    0.00000E+00         0.00000E+00         0.10149E-07
 
    0.43756E+05         0.12171E+07         0.00000E+00
    0.12171E+07        -0.51637E+08         0.00000E+00
    0.00000E+00         0.00000E+00         0.25370E-08
 
    0.44096E+05         0.12397E+07         0.00000E+00
    0.12397E+07        -0.51770E+08         0.00000E+00
    0.00000E+00         0.00000E+00        -0.38058E-08
 
    0.44392E+05         0.12624E+07         0.00000E+00
    0.12624E+07        -0.51905E+08         0.00000E+00
    0.00000E+00         0.00000E+00         0.50741E-08
 
    0.44639E+05         0.12853E+07         0.00000E+00
    0.12853E+07        -0.52043E+08         0.00000E+00
    0.00000E+00         0.00000E+00        -0.63428E-08
 
    0.44831E+05         0.13082E+07         0.00000E+00
    0.13082E+07        -0.52184E+08         0.00000E+00
    0.00000E+00         0.00000E+00         0.16491E-07
 
    0.44963E+05         0.13313E+07         0.00000E+00
    0.13313E+07        -0.52328E+08         0.00000E+00
    0.00000E+00         0.00000E+00         0.63424E-08
 
    0.45029E+05         0.13543E+07         0.00000E+00
    0.13543E+07        -0.52475E+08         0.00000E+00
    0.00000E+00         0.00000E+00         0.25375E-08
 
    0.45024E+05         0.13773E+07         0.00000E+00
    0.13773E+07        -0.52626E+08         0.00000E+00
    0.00000E+00         0.00000E+00        -0.63424E-08
 
    0.44940E+05         0.14003E+07         0.00000E+00
    0.14003E+07        -0.52779E+08         0.00000E+00
    0.00000E+00         0.00000E+00        -0.50741E-08
 
    0.44770E+05         0.14232E+07         0.00000E+00
    0.14232E+07        -0.52935E+08         0.00000E+00
    0.00000E+00         0.00000E+00         0.00000E+00
 
    0.44508E+05         0.14460E+07         0.00000E+00
    0.14460E+07        -0.53095E+08         0.00000E+00
    0.00000E+00         0.00000E+00         0.76097E-08
 
    0.44145E+05         0.14686E+07         0.00000E+00
    0.14686E+07        -0.53258E+08         0.00000E+00
    0.00000E+00         0.00000E+00         0.25366E-08
 
    0.43672E+05         0.14909E+07         0.00000E+00
    0.14909E+07        -0.53424E+08         0.00000E+00
    0.00000E+00         0.00000E+00        -0.25366E-08
 
    0.43080E+05         0.15130E+07         0.00000E+00
    0.15130E+07        -0.53594E+08         0.00000E+00
    0.00000E+00         0.00000E+00        -0.12687E-08
 
    0.42358E+05         0.15346E+07         0.00000E+00
    0.15346E+07        -0.53766E+08         0.00000E+00
    0.00000E+00         0.00000E+00         0.00000E+00
 
    0.41495E+05         0.15558E+07         0.00000E+00
    0.15558E+07        -0.53943E+08         0.00000E+00
    0.00000E+00         0.00000E+00         0.63428E-08
 
    0.40479E+05         0.15765E+07         0.00000E+00
    0.15765E+07        -0.54122E+08         0.00000E+00
    0.00000E+00         0.00000E+00         0.76116E-08
 
    0.39295E+05         0.15965E+07         0.00000E+00
    0.15965E+07        -0.54306E+08         0.00000E+00
    0.00000E+00         0.00000E+00        -0.50741E-08
 
    0.37929E+05         0.16159E+07         0.00000E+00
    0.16159E+07        -0.54492E+08         0.00000E+00
    0.00000E+00         0.00000E+00         0.12687E-08
 
    0.36365E+05         0.16344E+07         0.00000E+00
    0.16344E+07        -0.54683E+08         0.00000E+00
    0.00000E+00         0.00000E+00        -0.50750E-08
 
    0.34585E+05         0.16520E+07         0.00000E+00
    0.16520E+07        -0.54876E+08         0.00000E+00
    0.00000E+00         0.00000E+00         0.50741E-08
 
    0.32568E+05         0.16686E+07         0.00000E+00
    0.16686E+07        -0.55074E+08         0.00000E+00
    0.00000E+00         0.00000E+00        -0.88803E-08
 
    0.30294E+05         0.16840E+07         0.00000E+00
    0.16840E+07        -0.55275E+08         0.00000E+00
    0.00000E+00         0.00000E+00         0.10148E-07
 
    0.27739E+05         0.16980E+07         0.00000E+00
    0.16980E+07        -0.55480E+08         0.00000E+00
    0.00000E+00         0.00000E+00        -0.76107E-08
 
    0.24879E+05         0.17105E+07         0.00000E+00
    0.17105E+07        -0.55689E+08         0.00000E+00
    0.00000E+00         0.00000E+00        -0.25366E-08
 
    0.21685E+05         0.17214E+07         0.00000E+00
    0.17214E+07        -0.55902E+08         0.00000E+00
    0.00000E+00         0.00000E+00         0.63428E-08
 
    0.18130E+05         0.17304E+07         0.00000E+00
    0.17304E+07        -0.56119E+08         0.00000E+00
    0.00000E+00         0.00000E+00        -0.50741E-08
 
    0.14183E+05         0.17373E+07         0.00000E+00
    0.17373E+07        -0.56339E+08         0.00000E+00
    0.00000E+00         0.00000E+00         0.00000E+00
 
    0.98122E+04         0.17419E+07         0.00000E+00
    0.17419E+07        -0.56564E+08         0.00000E+00
    0.00000E+00         0.00000E+00        -0.12687E-08
 
    0.49843E+04         0.17440E+07         0.00000E+00
    0.17440E+07        -0.56793E+08         0.00000E+00
    0.00000E+00         0.00000E+00        -0.76107E-08
 
   -0.33369E+03         0.17433E+07         0.00000E+00
    0.17433E+07        -0.57027E+08         0.00000E+00
    0.00000E+00         0.00000E+00        -0.12687E-08
 
   -0.61746E+04         0.17394E+07         0.00000E+00
    0.17394E+07        -0.57264E+08         0.00000E+00
    0.00000E+00         0.00000E+00        -0.10148E-07
 
   -0.12570E+05         0.17322E+07         0.00000E+00
    0.17322E+07        -0.57507E+08         0.00000E+00
    0.00000E+00         0.00000E+00         0.12697E-08
 
   -0.19549E+05         0.17214E+07         0.00000E+00
    0.17214E+07        -0.57753E+08         0.00000E+00
    0.00000E+00         0.00000E+00        -0.11417E-07
 
   -0.27136E+05         0.17064E+07         0.00000E+00
    0.17064E+07        -0.58005E+08         0.00000E+00
    0.00000E+00         0.00000E+00        -0.76107E-08
 
   -0.35352E+05         0.16872E+07         0.00000E+00
    0.16872E+07        -0.58261E+08         0.00000E+00
    0.00000E+00         0.00000E+00         0.13953E-07
 
   -0.44209E+05         0.16632E+07         0.00000E+00
    0.16632E+07        -0.58522E+08         0.00000E+00
    0.00000E+00         0.00000E+00        -0.50732E-08
 
   -0.53711E+05         0.16342E+07         0.00000E+00
    0.16342E+07        -0.58788E+08         0.00000E+00
    0.00000E+00         0.00000E+00         0.38044E-08
 
   -0.63853E+05         0.15999E+07         0.00000E+00
    0.15999E+07        -0.59058E+08         0.00000E+00
    0.00000E+00         0.00000E+00        -0.13953E-07
 
   -0.74624E+05         0.15598E+07         0.00000E+00
    0.15598E+07        -0.59333E+08         0.00000E+00
    0.00000E+00         0.00000E+00         0.63428E-08
 
   -0.86002E+05         0.15137E+07         0.00000E+00
    0.15137E+07        -0.59612E+08         0.00000E+00
    0.00000E+00         0.00000E+00         0.00000E+00
 
   -0.97968E+05         0.14614E+07         0.00000E+00
    0.14614E+07        -0.59893E+08         0.00000E+00
    0.00000E+00         0.00000E+00         0.00000E+00
 
   -0.11052E+06         0.14026E+07         0.00000E+00
    0.14026E+07        -0.60178E+08         0.00000E+00
    0.00000E+00         0.00000E+00        -0.63419E-08
 
   -0.12367E+06         0.13371E+07         0.00000E+00
    0.13371E+07        -0.60463E+08         0.00000E+00
    0.00000E+00         0.00000E+00         0.63419E-08
 
   -0.13754E+06         0.12646E+07         0.00000E+00
    0.12646E+07        -0.60747E+08         0.00000E+00
    0.00000E+00         0.00000E+00         0.63428E-08
 
   -0.15233E+06         0.11849E+07         0.00000E+00
    0.11849E+07        -0.61029E+08         0.00000E+00
    0.00000E+00         0.00000E+00         0.63428E-08
 
   -0.16848E+06         0.10977E+07         0.00000E+00
    0.10977E+07        -0.61304E+08         0.00000E+00
    0.00000E+00         0.00000E+00        -0.63428E-08
 
   -0.18678E+06         0.10021E+07         0.00000E+00
    0.10021E+07        -0.61568E+08         0.00000E+00
    0.00000E+00         0.00000E+00        -0.38053E-08
 
   -0.20855E+06         0.89708E+06         0.00000E+00
    0.89708E+06        -0.61818E+08         0.00000E+00
    0.00000E+00         0.00000E+00        -0.12678E-08
 
   -0.23598E+06         0.78055E+06         0.00000E+00
    0.78055E+06        -0.62047E+08         0.00000E+00
    0.00000E+00         0.00000E+00        -0.13953E-07
 
   -0.27272E+06         0.64912E+06         0.00000E+00
    0.64912E+06        -0.62247E+08         0.00000E+00
    0.00000E+00         0.00000E+00        -0.16491E-07
 
   -0.32516E+06         0.49702E+06         0.00000E+00
    0.49702E+06        -0.62412E+08         0.00000E+00
    0.00000E+00         0.00000E+00        -0.16490E-07
 
   -0.40838E+06         0.31668E+06         0.00000E+00
    0.31668E+06        -0.62528E+08         0.00000E+00
    0.00000E+00         0.00000E+00         0.50736E-08
 
   -0.55521E+06         0.10924E+06         0.00000E+00
    0.10924E+06        -0.62586E+08         0.00000E+00
    0.00000E+00         0.00000E+00         0.13953E-07
 
    0.19614E+06         0.30885E+05         0.00000E+00
    0.30885E+05        -0.47576E+08         0.00000E+00
    0.00000E+00         0.00000E+00         0.76111E-08
 
    0.15232E+06         0.90653E+05         0.00000E+00
    0.90653E+05        -0.47591E+08         0.00000E+00
    0.00000E+00         0.00000E+00         0.63426E-08
 
    0.12581E+06         0.14503E+06         0.00000E+00
    0.14503E+06        -0.47621E+08         0.00000E+00
    0.00000E+00         0.00000E+00         0.76111E-08
 
    0.10895E+06         0.19310E+06         0.00000E+00
    0.19310E+06        -0.47665E+08         0.00000E+00
    0.00000E+00         0.00000E+00        -0.38056E-08
 
    0.97352E+05         0.23623E+06         0.00000E+00
    0.23623E+06        -0.47719E+08         0.00000E+00
    0.00000E+00         0.00000E+00         0.50741E-08
 
    0.88935E+05         0.27583E+06         0.00000E+00
    0.27583E+06        -0.47781E+08         0.00000E+00
    0.00000E+00         0.00000E+00         0.38056E-08
 
    0.82510E+05         0.31277E+06         0.00000E+00
    0.31277E+06        -0.47849E+08         0.00000E+00
    0.00000E+00         0.00000E+00         0.50741E-08
 
    0.77346E+05         0.34760E+06         0.00000E+00
    0.34760E+06        -0.47922E+08         0.00000E+00
    0.00000E+00         0.00000E+00         0.88789E-08
 
    0.72996E+05         0.38064E+06         0.00000E+00
    0.38064E+06        -0.47998E+08         0.00000E+00
    0.00000E+00         0.00000E+00        -0.25370E-08
 
    0.69192E+05         0.41208E+06         0.00000E+00
    0.41208E+06        -0.48076E+08         0.00000E+00
    0.00000E+00         0.00000E+00         0.25370E-08
 
    0.65778E+05         0.44206E+06         0.00000E+00
    0.44206E+06        -0.48155E+08         0.00000E+00
    0.00000E+00         0.00000E+00         0.00000E+00
 
    0.62670E+05         0.47066E+06         0.00000E+00
    0.47066E+06        -0.48236E+08         0.00000E+00
    0.00000E+00         0.00000E+00         0.00000E+00
 
    0.59825E+05         0.49796E+06         0.00000E+00
    0.49796E+06        -0.48317E+08         0.00000E+00
    0.00000E+00         0.00000E+00        -0.38053E-08
 
    0.57225E+05         0.52403E+06         0.00000E+00
    0.52403E+06        -0.48398E+08         0.00000E+00
    0.00000E+00         0.00000E+00         0.63424E-08
 
    0.54863E+05         0.54897E+06         0.00000E+00
    0.54897E+06        -0.48480E+08         0.00000E+00
    0.00000E+00         0.00000E+00         0.00000E+00
 
    0.52737E+05         0.57286E+06         0.00000E+00
    0.57286E+06        -0.48562E+08         0.00000E+00
    0.00000E+00         0.00000E+00        -0.25375E-08
 
    0.50846E+05         0.59578E+06         0.00000E+00
    0.59578E+06        -0.48644E+08         0.00000E+00
    0.00000E+00         0.00000E+00         0.00000E+00
 
    0.49186E+05         0.61785E+06         0.00000E+00
    0.61785E+06        -0.48726E+08         0.00000E+00
    0.00000E+00         0.00000E+00         0.88794E-08
 
    0.47753E+05         0.63916E+06         0.00000E+00
    0.63916E+06        -0.48808E+08         0.00000E+00
    0.00000E+00         0.00000E+00        -0.12685E-07
 
    0.46539E+05         0.65980E+06         0.00000E+00
    0.65980E+06        -0.48891E+08         0.00000E+00
    0.00000E+00         0.00000E+00         0.50741E-08
 
    0.45534E+05         0.67987E+06         0.00000E+00
    0.67987E+06        -0.48974E+08         0.00000E+00
    0.00000E+00         0.00000E+00         0.10148E-07
 
    0.44728E+05         0.69947E+06         0.00000E+00
    0.69947E+06        -0.49058E+08         0.00000E+00
    0.00000E+00         0.00000E+00         0.15223E-07
 
    0.44108E+05         0.71868E+06         0.00000E+00
    0.71868E+06        -0.49142E+08         0.00000E+00
    0.00000E+00         0.00000E+00        -0.15222E-07
 
    0.43659E+05         0.73758E+06         0.00000E+00
    0.73758E+06        -0.49227E+08         0.00000E+00
    0.00000E+00         0.00000E+00        -0.88794E-08
 
    0.43367E+05         0.75625E+06         0.00000E+00
    0.75625E+06        -0.49314E+08         0.00000E+00
    0.00000E+00         0.00000E+00         0.50741E-08
 
    0.43218E+05         0.77476E+06         0.00000E+00
    0.77476E+06        -0.49401E+08         0.00000E+00
    0.00000E+00         0.00000E+00         0.00000E+00
 
    0.43199E+05         0.79316E+06         0.00000E+00
    0.79316E+06        -0.49489E+08         0.00000E+00
    0.00000E+00         0.00000E+00         0.25370E-08
 
    0.43294E+05         0.81153E+06         0.00000E+00
    0.81153E+06        -0.49579E+08         0.00000E+00
    0.00000E+00         0.00000E+00         0.50741E-08
 
    0.43492E+05         0.82991E+06         0.00000E+00
    0.82991E+06        -0.49670E+08         0.00000E+00
    0.00000E+00         0.00000E+00        -0.12687E-08
 
    0.43779E+05         0.84834E+06         0.00000E+00
    0.84834E+06        -0.49763E+08         0.00000E+00
    0.00000E+00         0.00000E+00         0.12683E-08
 
    0.44144E+05         0.86686E+06         0.00000E+00
    0.86686E+06        -0.49857E+08         0.00000E+00
    0.00000E+00         0.00000E+00         0.38058E-08
 
    0.44574E+05         0.88551E+06         0.00000E+00
    0.88551E+06        -0.49952E+08         0.00000E+00
    0.00000E+00         0.00000E+00        -0.25370E-08
 
    0.45061E+05         0.90431E+06         0.00000E+00
    0.90431E+06        -0.50050E+08         0.00000E+00
    0.00000E+00         0.00000E+00         0.00000E+00
 
    0.45594E+05         0.92330E+06         0.00000E+00
    0.92330E+06        -0.50149E+08         0.00000E+00
    0.00000E+00         0.00000E+00         0.00000E+00
 
    0.46163E+05         0.94248E+06         0.00000E+00
    0.94248E+06        -0.50251E+08         0.00000E+00
    0.00000E+00         0.00000E+00         0.00000E+00
 
    0.46762E+05         0.96188E+06         0.00000E+00
    0.96188E+06        -0.50354E+08         0.00000E+00
    0.00000E+00         0.00000E+00         0.50741E-08
 
    0.47380E+05         0.98151E+06         0.00000E+00
    0.98151E+06        -0.50459E+08         0.00000E+00
    0.00000E+00         0.00000E+00         0.25370E-08
 
    0.48011E+05         0.10014E+07         0.00000E+00
    0.10014E+07        -0.50567E+08         0.00000E+00
    0.00000E+00         0.00000E+00         0.63424E-08
 
    0.48649E+05         0.10215E+07         0.00000E+00
    0.10215E+07        -0.50677E+08         0.00000E+00
    0.00000E+00         0.00000E+00         0.63424E-08
 
    0.49285E+05         0.10418E+07         0.00000E+00
    0.10418E+07        -0.50788E+08         0.00000E+00
    0.00000E+00         0.00000E+00        -0.12687E-08
 
    0.49915E+05         0.10624E+07         0.00000E+00
    0.10624E+07        -0.50903E+08         0.00000E+00
    0.00000E+00         0.00000E+00         0.00000E+00
 
    0.50531E+05         0.10833E+07         0.00000E+00
    0.10833E+07        -0.51020E+08         0.00000E+00
    0.00000E+00         0.00000E+00         0.12687E-08
 
    0.51127E+05         0.11043E+07         0.00000E+00
    0.11043E+07        -0.51139E+08         0.00000E+00
    0.00000E+00         0.00000E+00        -0.25370E-08
 
    0.51699E+05         0.11256E+07         0.00000E+00
    0.11256E+07        -0.51261E+08         0.00000E+00
    0.00000E+00         0.00000E+00         0.50736E-08
 
    0.52240E+05         0.11471E+07         0.00000E+00
    0.11471E+07        -0.51385E+08         0.00000E+00
    0.00000E+00         0.00000E+00         0.50745E-08
 
    0.52744E+05         0.11688E+07         0.00000E+00
    0.11688E+07        -0.51512E+08         0.00000E+00
    0.00000E+00         0.00000E+00         0.38058E-08
 
    0.53206E+05         0.11907E+07         0.00000E+00
    0.11907E+07        -0.51642E+08         0.00000E+00
    0.00000E+00         0.00000E+00        -0.38053E-08
 
    0.53620E+05         0.12128E+07         0.00000E+00
    0.12128E+07        -0.51774E+08         0.00000E+00
    0.00000E+00         0.00000E+00        -0.38053E-08
 
    0.53980E+05         0.12350E+07         0.00000E+00
    0.12350E+07        -0.51910E+08         0.00000E+00
    0.00000E+00         0.00000E+00         0.00000E+00
 
    0.54281E+05         0.12573E+07         0.00000E+00
    0.12573E+07        -0.52048E+08         0.00000E+00
    0.00000E+00         0.00000E+00        -0.50741E-08
 
    0.54514E+05         0.12797E+07         0.00000E+00
    0.12797E+07        -0.52189E+08         0.00000E+00
    0.00000E+00         0.00000E+00        -0.38058E-08
 
    0.54675E+05         0.13021E+07         0.00000E+00
    0.13021E+07        -0.52333E+08         0.00000E+00
    0.00000E+00         0.00000E+00        -0.10148E-07
 
    0.54755E+05         0.13246E+07         0.00000E+00
    0.13246E+07        -0.52480E+08         0.00000E+00
    0.00000E+00         0.00000E+00         0.00000E+00
 
    0.54749E+05         0.13471E+07         0.00000E+00
    0.13471E+07        -0.52630E+08         0.00000E+00
    0.00000E+00         0.00000E+00         0.25370E-08
 
    0.54647E+05         0.13695E+07         0.00000E+00
    0.13695E+07        -0.52783E+08         0.00000E+00
    0.00000E+00         0.00000E+00         0.16491E-07
 
    0.54441E+05         0.13919E+07         0.00000E+00
    0.13919E+07        -0.52940E+08         0.00000E+00
    0.00000E+00         0.00000E+00         0.25370E-08
 
    0.54122E+05         0.14141E+07         0.00000E+00
    0.14141E+07        -0.53099E+08         0.00000E+00
    0.00000E+00         0.00000E+00        -0.88794E-08
 
    0.53681E+05         0.14361E+07         0.00000E+00
    0.14361E+07        -0.53262E+08         0.00000E+00
    0.00000E+00         0.00000E+00        -0.38053E-08
 
    0.53106E+05         0.14578E+07         0.00000E+00
    0.14578E+07        -0.53428E+08         0.00000E+00
    0.00000E+00         0.00000E+00        -0.63428E-08
 
    0.52386E+05         0.14793E+07         0.00000E+00
    0.14793E+07        -0.53598E+08         0.00000E+00
    0.00000E+00         0.00000E+00        -0.12687E-08
 
    0.51509E+05         0.15004E+07         0.00000E+00
    0.15004E+07        -0.53771E+08         0.00000E+00
    0.00000E+00         0.00000E+00        -0.25375E-08
 
    0.50461E+05         0.15210E+07         0.00000E+00
    0.15210E+07        -0.53947E+08         0.00000E+00
    0.00000E+00         0.00000E+00        -0.90949E-12
 
    0.49225E+05         0.15411E+07         0.00000E+00
    0.15411E+07        -0.54126E+08         0.00000E+00
    0.00000E+00         0.00000E+00        -0.25366E-08
 
    0.47787E+05         0.15606E+07         0.00000E+00
    0.15606E+07        -0.54309E+08         0.00000E+00
    0.00000E+00         0.00000E+00         0.88794E-08
 
    0.46128E+05         0.15794E+07         0.00000E+00
    0.15794E+07        -0.54496E+08         0.00000E+00
    0.00000E+00         0.00000E+00         0.21564E-07
 
    0.44227E+05         0.15974E+07         0.00000E+00
    0.15974E+07        -0.54686E+08         0.00000E+00
    0.00000E+00         0.00000E+00        -0.25375E-08
 
    0.42063E+05         0.16144E+07         0.00000E+00
    0.16144E+07        -0.54880E+08         0.00000E+00
    0.00000E+00         0.00000E+00        -0.50741E-08
 
    0.39612E+05         0.16304E+07         0.00000E+00
    0.16304E+07        -0.55077E+08         0.00000E+00
    0.00000E+00         0.00000E+00         0.00000E+00
 
    0.36849E+05         0.16453E+07         0.00000E+00
    0.16453E+07        -0.55278E+08         0.00000E+00
    0.00000E+00         0.00000E+00         0.00000E+00
 
    0.33744E+05         0.16588E+07         0.00000E+00
    0.16588E+07        -0.55483E+08         0.00000E+00
    0.00000E+00         0.00000E+00         0.00000E+00
 
    0.30267E+05         0.16708E+07         0.00000E+00
    0.16708E+07        -0.55691E+08         0.00000E+00
    0.00000E+00         0.00000E+00        -0.25375E-08
 
    0.26386E+05         0.16812E+07         0.00000E+00
    0.16812E+07        -0.55904E+08         0.00000E+00
    0.00000E+00         0.00000E+00         0.25366E-08
 
    0.22065E+05         0.16897E+07         0.00000E+00
    0.16897E+07        -0.56120E+08         0.00000E+00
    0.00000E+00         0.00000E+00        -0.25366E-08
 
    0.17266E+05         0.16962E+07         0.00000E+00
    0.16962E+07        -0.56340E+08         0.00000E+00
    0.00000E+00         0.00000E+00         0.50741E-08
 
    0.11952E+05         0.17004E+07         0.00000E+00
    0.17004E+07        -0.56565E+08         0.00000E+00
    0.00000E+00         0.00000E+00        -0.50741E-08
 
    0.60806E+04         0.17020E+07         0.00000E+00
    0.17020E+07        -0.56793E+08         0.00000E+00
    0.00000E+00         0.00000E+00         0.38062E-08
 
   -0.38811E+03         0.17009E+07         0.00000E+00
    0.17009E+07        -0.57026E+08         0.00000E+00
    0.00000E+00         0.00000E+00        -0.50741E-08
 
   -0.74949E+04         0.16967E+07         0.00000E+00
    0.16967E+07        -0.57263E+08         0.00000E+00
    0.00000E+00         0.00000E+00        -0.38062E-08
 
   -0.15279E+05         0.16891E+07         0.00000E+00
    0.16891E+07        -0.57505E+08         0.00000E+00
    0.00000E+00         0.00000E+00         0.63428E-08
 
   -0.23778E+05         0.16779E+07         0.00000E+00
    0.16779E+07        -0.57751E+08         0.00000E+00
    0.00000E+00         0.00000E+00         0.10148E-07
 
   -0.33022E+05         0.16627E+07         0.00000E+00
    0.16627E+07        -0.58002E+08         0.00000E+00
    0.00000E+00         0.00000E+00        -0.17760E-07
 
   -0.43039E+05         0.16431E+07         0.00000E+00
    0.16431E+07        -0.58257E+08         0.00000E+00
    0.00000E+00         0.00000E+00         0.25375E-08
 
   -0.53846E+05         0.16189E+07         0.00000E+00
    0.16189E+07        -0.58517E+08         0.00000E+00
    0.00000E+00         0.00000E+00         0.17759E-07
 
   -0.65451E+05         0.15896E+07         0.00000E+00
    0.15896E+07        -0.58782E+08         0.00000E+00
    0.00000E+00         0.00000E+00        -0.76116E-08
 
   -0.77854E+05         0.15550E+07         0.00000E+00
    0.15550E+07        -0.59051E+08         0.00000E+00
    0.00000E+00         0.00000E+00         0.88794E-08
 
   -0.91041E+05         0.15148E+07         0.00000E+00
    0.15148E+07        -0.59324E+08         0.00000E+00
    0.00000E+00         0.00000E+00         0.11417E-07
 
   -0.10499E+06         0.14685E+07         0.00000E+00
    0.14685E+07        -0.59602E+08         0.00000E+00
    0.00000E+00         0.00000E+00         0.00000E+00
 
   -0.11970E+06         0.14160E+07         0.00000E+00
    0.14160E+07        -0.59882E+08         0.00000E+00
    0.00000E+00         0.00000E+00        -0.12687E-08
 
   -0.13514E+06         0.13571E+07         0.00000E+00
    0.13571E+07        -0.60165E+08         0.00000E+00
    0.00000E+00         0.00000E+00         0.10149E-07
 
   -0.15137E+06         0.12915E+07         0.00000E+00
    0.12915E+07        -0.60449E+08         0.00000E+00
    0.00000E+00         0.00000E+00         0.11416E-07
 
   -0.16851E+06         0.12189E+07         0.00000E+00
    0.12189E+07        -0.60732E+08         0.00000E+00
    0.00000E+00         0.00000E+00        -0.63419E-08
 
   -0.18682E+06         0.11393E+07         0.00000E+00
    0.11393E+07        -0.61012E+08         0.00000E+00
    0.00000E+00         0.00000E+00         0.25375E-08
 
   -0.20683E+06         0.10522E+07         0.00000E+00
    0.10522E+07        -0.61285E+08         0.00000E+00
    0.00000E+00         0.00000E+00         0.12686E-07
 
   -0.22947E+06         0.95710E+06         0.00000E+00
    0.95710E+06        -0.61548E+08         0.00000E+00
    0.00000E+00         0.00000E+00         0.63419E-08
 
   -0.25631E+06         0.85292E+06         0.00000E+00
    0.85292E+06        -0.61796E+08         0.00000E+00
    0.00000E+00         0.00000E+00        -0.25375E-08
 
   -0.28995E+06         0.73787E+06         0.00000E+00
    0.73787E+06        -0.62022E+08         0.00000E+00
    0.00000E+00         0.00000E+00         0.88799E-08
 
   -0.33461E+06         0.60894E+06         0.00000E+00
    0.60894E+06        -0.62220E+08         0.00000E+00
    0.00000E+00         0.00000E+00         0.38058E-08
 
   -0.39781E+06         0.46127E+06         0.00000E+00
    0.46127E+06        -0.62380E+08         0.00000E+00
    0.00000E+00         0.00000E+00         0.12683E-08
 
   -0.49535E+06         0.29015E+06         0.00000E+00
    0.29015E+06        -0.62490E+08         0.00000E+00
    0.00000E+00         0.00000E+00        -0.88799E-08
 
   -0.65495E+06         0.99152E+05         0.00000E+00
    0.99152E+05        -0.62545E+08         0.00000E+00
    0.00000E+00         0.00000E+00        -0.63428E-08
 
    0.22491E+06         0.28455E+05         0.00000E+00
    0.28455E+05        -0.47588E+08         0.00000E+00
    0.00000E+00         0.00000E+00         0.00000E+00
 
    0.17840E+06         0.84048E+05         0.00000E+00
    0.84048E+05        -0.47602E+08         0.00000E+00
    0.00000E+00         0.00000E+00        -0.88796E-08
 
    0.14856E+06         0.13574E+06         0.00000E+00
    0.13574E+06        -0.47631E+08         0.00000E+00
    0.00000E+00         0.00000E+00         0.12685E-08
 
    0.12900E+06         0.18235E+06         0.00000E+00
    0.18235E+06        -0.47674E+08         0.00000E+00
    0.00000E+00         0.00000E+00        -0.25370E-08
 
    0.11540E+06         0.22461E+06         0.00000E+00
    0.22461E+06        -0.47727E+08         0.00000E+00
    0.00000E+00         0.00000E+00         0.63426E-08
 
    0.10543E+06         0.26364E+06         0.00000E+00
    0.26364E+06        -0.47788E+08         0.00000E+00
    0.00000E+00         0.00000E+00        -0.25370E-08
 
    0.97765E+05         0.30019E+06         0.00000E+00
    0.30019E+06        -0.47856E+08         0.00000E+00
    0.00000E+00         0.00000E+00         0.25375E-08
 
    0.91571E+05         0.33474E+06         0.00000E+00
    0.33474E+06        -0.47928E+08         0.00000E+00
    0.00000E+00         0.00000E+00         0.63424E-08
 
    0.86339E+05         0.36757E+06         0.00000E+00
    0.36757E+06        -0.48004E+08         0.00000E+00
    0.00000E+00         0.00000E+00         0.50745E-08
 
    0.81760E+05         0.39882E+06         0.00000E+00
    0.39882E+06        -0.48082E+08         0.00000E+00
    0.00000E+00         0.00000E+00         0.12687E-08
 
    0.77654E+05         0.42862E+06         0.00000E+00
    0.42862E+06        -0.48161E+08         0.00000E+00
    0.00000E+00         0.00000E+00         0.45475E-12
 
    0.73923E+05         0.45704E+06         0.00000E+00
    0.45704E+06        -0.48241E+08         0.00000E+00
    0.00000E+00         0.00000E+00         0.25370E-08
 
    0.70515E+05         0.48415E+06         0.00000E+00
    0.48415E+06        -0.48322E+08         0.00000E+00
    0.00000E+00         0.00000E+00        -0.63428E-08
 
    0.67409E+05         0.51003E+06         0.00000E+00
    0.51003E+06        -0.48404E+08         0.00000E+00
    0.00000E+00         0.00000E+00        -0.16491E-07
 
    0.64593E+05         0.53476E+06         0.00000E+00
    0.53476E+06        -0.48485E+08         0.00000E+00
    0.00000E+00         0.00000E+00         0.13954E-07
 
    0.62063E+05         0.55842E+06         0.00000E+00
    0.55842E+06        -0.48567E+08         0.00000E+00
    0.00000E+00         0.00000E+00        -0.12683E-08
 
    0.59817E+05         0.58111E+06         0.00000E+00
    0.58111E+06        -0.48648E+08         0.00000E+00
    0.00000E+00         0.00000E+00        -0.88794E-08
 
    0.57849E+05         0.60293E+06         0.00000E+00
    0.60293E+06        -0.48730E+08         0.00000E+00
    0.00000E+00         0.00000E+00        -0.88799E-08
 
    0.56152E+05         0.62397E+06         0.00000E+00
    0.62397E+06        -0.48812E+08         0.00000E+00
    0.00000E+00         0.00000E+00         0.12687E-08
 
    0.54716E+05         0.64434E+06         0.00000E+00
    0.64434E+06        -0.48895E+08         0.00000E+00
    0.00000E+00         0.00000E+00         0.10149E-07
 
    0.53530E+05         0.66413E+06         0.00000E+00
    0.66413E+06        -0.48978E+08         0.00000E+00
    0.00000E+00         0.00000E+00        -0.50741E-08
 
    0.52579E+05         0.68343E+06         0.00000E+00
    0.68343E+06        -0.49062E+08         0.00000E+00
    0.00000E+00         0.00000E+00         0.00000E+00
 
    0.51847E+05         0.70234E+06         0.00000E+00
    0.70234E+06        -0.49146E+08         0.00000E+00
    0.00000E+00         0.00000E+00         0.25370E-08
 
    0.51318E+05         0.72092E+06         0.00000E+00
    0.72092E+06        -0.49231E+08         0.00000E+00
    0.00000E+00         0.00000E+00         0.25375E-08
 
    0.50975E+05         0.73927E+06         0.00000E+00
    0.73927E+06        -0.49317E+08         0.00000E+00
    0.00000E+00         0.00000E+00         0.12683E-08
 
    0.50801E+05         0.75744E+06         0.00000E+00
    0.75744E+06        -0.49405E+08         0.00000E+00
    0.00000E+00         0.00000E+00         0.12683E-08
 
    0.50779E+05         0.77551E+06         0.00000E+00
    0.77551E+06        -0.49493E+08         0.00000E+00
    0.00000E+00         0.00000E+00         0.21565E-07
 
    0.50892E+05         0.79353E+06         0.00000E+00
    0.79353E+06        -0.49583E+08         0.00000E+00
    0.00000E+00         0.00000E+00         0.25375E-08
 
    0.51126E+05         0.81154E+06         0.00000E+00
    0.81154E+06        -0.49674E+08         0.00000E+00
    0.00000E+00         0.00000E+00         0.12683E-08
 
    0.51464E+05         0.82960E+06         0.00000E+00
    0.82960E+06        -0.49766E+08         0.00000E+00
    0.00000E+00         0.00000E+00        -0.10148E-07
 
    0.51894E+05         0.84774E+06         0.00000E+00
    0.84774E+06        -0.49860E+08         0.00000E+00
    0.00000E+00         0.00000E+00         0.76111E-08
 
    0.52401E+05         0.86601E+06         0.00000E+00
    0.86601E+06        -0.49956E+08         0.00000E+00
    0.00000E+00         0.00000E+00         0.38058E-08
 
    0.52975E+05         0.88441E+06         0.00000E+00
    0.88441E+06        -0.50054E+08         0.00000E+00
    0.00000E+00         0.00000E+00        -0.76111E-08
 
    0.53602E+05         0.90299E+06         0.00000E+00
    0.90299E+06        -0.50153E+08         0.00000E+00
    0.00000E+00         0.00000E+00         0.38058E-08
 
    0.54272E+05         0.92176E+06         0.00000E+00
    0.92176E+06        -0.50254E+08         0.00000E+00
    0.00000E+00         0.00000E+00        -0.50736E-08
 
    0.54976E+05         0.94073E+06         0.00000E+00
    0.94073E+06        -0.50358E+08         0.00000E+00
    0.00000E+00         0.00000E+00        -0.25370E-08
 
    0.55704E+05         0.95992E+06         0.00000E+00
    0.95992E+06        -0.50463E+08         0.00000E+00
    0.00000E+00         0.00000E+00         0.38053E-08
 
    0.56447E+05         0.97934E+06         0.00000E+00
    0.97934E+06        -0.50571E+08         0.00000E+00
    0.00000E+00         0.00000E+00        -0.25370E-08
 
    0.57197E+05         0.99900E+06         0.00000E+00
    0.99900E+06        -0.50680E+08         0.00000E+00
    0.00000E+00         0.00000E+00         0.76116E-08
 
    0.57945E+05         0.10189E+07         0.00000E+00
    0.10189E+07        -0.50793E+08         0.00000E+00
    0.00000E+00         0.00000E+00        -0.38053E-08
 
    0.58686E+05         0.10390E+07         0.00000E+00
    0.10390E+07        -0.50907E+08         0.00000E+00
    0.00000E+00         0.00000E+00        -0.76111E-08
 
    0.59410E+05         0.10594E+07         0.00000E+00
    0.10594E+07        -0.51024E+08         0.00000E+00
    0.00000E+00         0.00000E+00        -0.76107E-08
 
    0.60112E+05         0.10799E+07         0.00000E+00
    0.10799E+07        -0.51143E+08         0.00000E+00
    0.00000E+00         0.00000E+00         0.25366E-08
 
    0.60785E+05         0.11007E+07         0.00000E+00
    0.11007E+07        -0.51265E+08         0.00000E+00
    0.00000E+00         0.00000E+00         0.50745E-08
 
    0.61421E+05         0.11217E+07         0.00000E+00
    0.11217E+07        -0.51389E+08         0.00000E+00
    0.00000E+00         0.00000E+00        -0.50741E-08
 
    0.62014E+05         0.11429E+07         0.00000E+00
    0.11429E+07        -0.51516E+08         0.00000E+00
    0.00000E+00         0.00000E+00         0.00000E+00
 
    0.62557E+05         0.11643E+07         0.00000E+00
    0.11643E+07        -0.51646E+08         0.00000E+00
    0.00000E+00         0.00000E+00         0.13953E-07
 
    0.63045E+05         0.11858E+07         0.00000E+00
    0.11858E+07        -0.51779E+08         0.00000E+00
    0.00000E+00         0.00000E+00        -0.88799E-08
 
    0.63468E+05         0.12075E+07         0.00000E+00
    0.12075E+07        -0.51914E+08         0.00000E+00
    0.00000E+00         0.00000E+00         0.12687E-08
 
    0.63821E+05         0.12292E+07         0.00000E+00
    0.12292E+07        -0.52052E+08         0.00000E+00
    0.00000E+00         0.00000E+00        -0.13953E-07
 
    0.64096E+05         0.12511E+07         0.00000E+00
    0.12511E+07        -0.52193E+08         0.00000E+00
    0.00000E+00         0.00000E+00         0.12683E-08
 
    0.64285E+05         0.12730E+07         0.00000E+00
    0.12730E+07        -0.52337E+08         0.00000E+00
    0.00000E+00         0.00000E+00         0.00000E+00
 
    0.64380E+05         0.12949E+07         0.00000E+00
    0.12949E+07        -0.52484E+08         0.00000E+00
    0.00000E+00         0.00000E+00        -0.25370E-08
 
    0.64373E+05         0.13169E+07         0.00000E+00
    0.13169E+07        -0.52635E+08         0.00000E+00
    0.00000E+00         0.00000E+00        -0.88794E-08
 
    0.64253E+05         0.13387E+07         0.00000E+00
    0.13387E+07        -0.52788E+08         0.00000E+00
    0.00000E+00         0.00000E+00         0.25366E-08
 
    0.64012E+05         0.13605E+07         0.00000E+00
    0.13605E+07        -0.52944E+08         0.00000E+00
    0.00000E+00         0.00000E+00         0.17759E-07
 
    0.63637E+05         0.13821E+07         0.00000E+00
    0.13821E+07        -0.53104E+08         0.00000E+00
    0.00000E+00         0.00000E+00         0.50732E-08
 
    0.63119E+05         0.14036E+07         0.00000E+00
    0.14036E+07        -0.53267E+08         0.00000E+00
    0.00000E+00         0.00000E+00         0.38053E-08
 
    0.62444E+05         0.14248E+07         0.00000E+00
    0.14248E+07        -0.53433E+08         0.00000E+00
    0.00000E+00         0.00000E+00        -0.38062E-08
 
    0.61599E+05         0.14456E+07         0.00000E+00
    0.14456E+07        -0.53602E+08         0.00000E+00
    0.00000E+00         0.00000E+00        -0.76107E-08
 
    0.60568E+05         0.14662E+07         0.00000E+00
    0.14662E+07        -0.53775E+08         0.00000E+00
    0.00000E+00         0.00000E+00         0.25366E-08
 
    0.59337E+05         0.14862E+07         0.00000E+00
    0.14862E+07        -0.53951E+08         0.00000E+00
    0.00000E+00         0.00000E+00        -0.88803E-08
 
    0.57886E+05         0.15058E+07         0.00000E+00
    0.15058E+07        -0.54130E+08         0.00000E+00
    0.00000E+00         0.00000E+00         0.38053E-08
 
    0.56196E+05         0.15247E+07         0.00000E+00
    0.15247E+07        -0.54313E+08         0.00000E+00
    0.00000E+00         0.00000E+00        -0.15222E-07
 
    0.54247E+05         0.15429E+07         0.00000E+00
    0.15429E+07        -0.54500E+08         0.00000E+00
    0.00000E+00         0.00000E+00        -0.50741E-08
 
    0.52014E+05         0.15604E+07         0.00000E+00
    0.15604E+07        -0.54690E+08         0.00000E+00
    0.00000E+00         0.00000E+00        -0.19028E-07
 
    0.49472E+05         0.15769E+07         0.00000E+00
    0.15769E+07        -0.54883E+08         0.00000E+00
    0.00000E+00         0.00000E+00        -0.50732E-08
 
    0.46593E+05         0.15924E+07         0.00000E+00
    0.15924E+07        -0.55080E+08         0.00000E+00
    0.00000E+00         0.00000E+00        -0.76107E-08
 
    0.43346E+05         0.16067E+07         0.00000E+00
    0.16067E+07        -0.55281E+08         0.00000E+00
    0.00000E+00         0.00000E+00         0.50750E-08
 
    0.39699E+05         0.16197E+07         0.00000E+00
    0.16197E+07        -0.55485E+08         0.00000E+00
    0.00000E+00         0.00000E+00        -0.12687E-08
 
    0.35614E+05         0.16313E+07         0.00000E+00
    0.16313E+07        -0.55694E+08         0.00000E+00
    0.00000E+00         0.00000E+00        -0.12685E-07
 
    0.31053E+05         0.16412E+07         0.00000E+00
    0.16412E+07        -0.55906E+08         0.00000E+00
    0.00000E+00         0.00000E+00         0.00000E+00
 
    0.25975E+05         0.16492E+07         0.00000E+00
    0.16492E+07        -0.56122E+08         0.00000E+00
    0.00000E+00         0.00000E+00        -0.12678E-08
 
    0.20336E+05         0.16552E+07         0.00000E+00
    0.16552E+07        -0.56341E+08         0.00000E+00
    0.00000E+00         0.00000E+00        -0.38062E-08
 
    0.14089E+05         0.16590E+07         0.00000E+00
    0.16590E+07        -0.56565E+08         0.00000E+00
    0.00000E+00         0.00000E+00        -0.50732E-08
 
    0.71864E+04         0.16602E+07         0.00000E+00
    0.16602E+07        -0.56793E+08         0.00000E+00
    0.00000E+00         0.00000E+00        -0.12687E-08
 
   -0.42049E+03         0.16587E+07         0.00000E+00
    0.16587E+07        -0.57025E+08         0.00000E+00
    0.00000E+00         0.00000E+00        -0.17759E-07
 
   -0.87805E+04         0.16542E+07         0.00000E+00
    0.16542E+07        -0.57262E+08         0.00000E+00
    0.00000E+00         0.00000E+00        -0.15222E-07
 
   -0.17941E+05         0.16463E+07         0.00000E+00
    0.16463E+07        -0.57503E+08         0.00000E+00
    0.00000E+00         0.00000E+00        -0.38053E-08
 
   -0.27947E+05         0.16348E+07         0.00000E+00
    0.16348E+07        -0.57748E+08         0.00000E+00
    0.00000E+00         0.00000E+00         0.63419E-08
 
   -0.38837E+05         0.16193E+07         0.00000E+00
    0.16193E+07        -0.57998E+08         0.00000E+00
    0.00000E+00         0.00000E+00         0.10148E-07
 
   -0.50645E+05         0.15994E+07         0.00000E+00
    0.15994E+07        -0.58253E+08         0.00000E+00
    0.00000E+00         0.00000E+00         0.76107E-08
 
   -0.63395E+05         0.15750E+07         0.00000E+00
    0.15750E+07        -0.58512E+08         0.00000E+00
    0.00000E+00         0.00000E+00        -0.88794E-08
 
   -0.77100E+05         0.15455E+07         0.00000E+00
    0.15455E+07        -0.58775E+08         0.00000E+00
    0.00000E+00         0.00000E+00         0.38062E-08
 
   -0.91763E+05         0.15107E+07         0.00000E+00
    0.15107E+07        -0.59043E+08         0.00000E+00
    0.00000E+00         0.00000E+00         0.25375E-08
 
   -0.10738E+06         0.14702E+07         0.00000E+00
    0.14702E+07        -0.59316E+08         0.00000E+00
    0.00000E+00         0.00000E+00        -0.50750E-08
 
   -0.12392E+06         0.14238E+07         0.00000E+00
    0.14238E+07        -0.59592E+08         0.00000E+00
    0.00000E+00         0.00000E+00        -0.12687E-08
 
   -0.14139E+06         0.13712E+07         0.00000E+00
    0.13712E+07        -0.59871E+08         0.00000E+00
    0.00000E+00         0.00000E+00         0.12687E-08
 
   -0.15977E+06         0.13122E+07         0.00000E+00
    0.13122E+07        -0.60153E+08         0.00000E+00
    0.00000E+00         0.00000E+00         0.12687E-08
 
   -0.17913E+06         0.12464E+07         0.00000E+00
    0.12464E+07        -0.60435E+08         0.00000E+00
    0.00000E+00         0.00000E+00         0.63437E-08
 
   -0.19960E+06         0.11739E+07         0.00000E+00
    0.11739E+07        -0.60717E+08         0.00000E+00
    0.00000E+00         0.00000E+00        -0.38062E-08
 
   -0.22151E+06         0.10944E+07         0.00000E+00
    0.10944E+07        -0.60995E+08         0.00000E+00
    0.00000E+00         0.00000E+00        -0.12687E-08
 
   -0.24545E+06         0.10076E+07         0.00000E+00
    0.10076E+07        -0.61267E+08         0.00000E+00
    0.00000E+00         0.00000E+00        -0.11416E-07
 
   -0.27250E+06         0.91303E+06         0.00000E+00
    0.91303E+06        -0.61529E+08         0.00000E+00
    0.00000E+00         0.00000E+00        -0.76107E-08
 
   -0.30444E+06         0.80987E+06         0.00000E+00
    0.80987E+06        -0.61774E+08         0.00000E+00
    0.00000E+00         0.00000E+00        -0.10149E-07
 
   -0.34423E+06         0.69657E+06         0.00000E+00
    0.69657E+06        -0.61998E+08         0.00000E+00
    0.00000E+00         0.00000E+00        -0.12683E-08
 
   -0.39662E+06         0.57054E+06         0.00000E+00
    0.57054E+06        -0.62193E+08         0.00000E+00
    0.00000E+00         0.00000E+00         0.12692E-08
 
   -0.46992E+06         0.42797E+06         0.00000E+00
    0.42797E+06        -0.62349E+08         0.00000E+00
    0.00000E+00         0.00000E+00         0.00000E+00
 
   -0.57977E+06         0.26639E+06         0.00000E+00
    0.26639E+06        -0.62455E+08         0.00000E+00
    0.00000E+00         0.00000E+00        -0.31264E-12
 
   -0.74924E+06         0.90399E+05         0.00000E+00
    0.90399E+05        -0.62507E+08         0.00000E+00
    0.00000E+00         0.00000E+00         0.25368E-08
 
    0.25240E+06         0.26299E+05         0.00000E+00
    0.26299E+05        -0.47598E+08         0.00000E+00
    0.00000E+00         0.00000E+00        -0.25369E-08
 
    0.20377E+06         0.78053E+05         0.00000E+00
    0.78053E+05        -0.47612E+08         0.00000E+00
    0.00000E+00         0.00000E+00        -0.10148E-07
 
    0.17108E+06         0.12705E+06         0.00000E+00
    0.12705E+06        -0.47641E+08         0.00000E+00
    0.00000E+00         0.00000E+00        -0.76109E-08
 
    0.14903E+06         0.17205E+06         0.00000E+00
    0.17205E+06        -0.47682E+08         0.00000E+00
    0.00000E+00         0.00000E+00         0.25370E-08
 
    0.13348E+06         0.21333E+06         0.00000E+00
    0.21333E+06        -0.47735E+08         0.00000E+00
    0.00000E+00         0.00000E+00         0.63426E-08
 
    0.12198E+06         0.25172E+06         0.00000E+00
    0.25172E+06        -0.47796E+08         0.00000E+00
    0.00000E+00         0.00000E+00        -0.10148E-07
 
    0.11307E+06         0.28784E+06         0.00000E+00
    0.28784E+06        -0.47863E+08         0.00000E+00
    0.00000E+00         0.00000E+00        -0.63428E-08
 
    0.10582E+06         0.32208E+06         0.00000E+00
    0.32208E+06        -0.47935E+08         0.00000E+00
    0.00000E+00         0.00000E+00         0.15222E-07
 
    0.99687E+05         0.35466E+06         0.00000E+00
    0.35466E+06        -0.48010E+08         0.00000E+00
    0.00000E+00         0.00000E+00        -0.11417E-07
 
    0.94311E+05         0.38571E+06         0.00000E+00
    0.38571E+06        -0.48088E+08         0.00000E+00
    0.00000E+00         0.00000E+00         0.38053E-08
 
    0.89493E+05         0.41532E+06         0.00000E+00
    0.41532E+06        -0.48167E+08         0.00000E+00
    0.00000E+00         0.00000E+00         0.12683E-08
 
    0.85122E+05         0.44355E+06         0.00000E+00
    0.44355E+06        -0.48247E+08         0.00000E+00
    0.00000E+00         0.00000E+00         0.21565E-07
 
    0.81139E+05         0.47046E+06         0.00000E+00
    0.47046E+06        -0.48328E+08         0.00000E+00
    0.00000E+00         0.00000E+00         0.50736E-08
 
    0.77516E+05         0.49613E+06         0.00000E+00
    0.49613E+06        -0.48409E+08         0.00000E+00
    0.00000E+00         0.00000E+00        -0.76116E-08
 
    0.74239E+05         0.52063E+06         0.00000E+00
    0.52063E+06        -0.48490E+08         0.00000E+00
    0.00000E+00         0.00000E+00        -0.25370E-08
 
    0.71300E+05         0.54406E+06         0.00000E+00
    0.54406E+06        -0.48571E+08         0.00000E+00
    0.00000E+00         0.00000E+00        -0.13953E-07
 
    0.68696E+05         0.56650E+06         0.00000E+00
    0.56650E+06        -0.48653E+08         0.00000E+00
    0.00000E+00         0.00000E+00         0.76111E-08
 
    0.66418E+05         0.58806E+06         0.00000E+00
    0.58806E+06        -0.48734E+08         0.00000E+00
    0.00000E+00         0.00000E+00        -0.22833E-07
 
    0.64457E+05         0.60883E+06         0.00000E+00
    0.60883E+06        -0.48816E+08         0.00000E+00
    0.00000E+00         0.00000E+00        -0.88794E-08
 
    0.62800E+05         0.62892E+06         0.00000E+00
    0.62892E+06        -0.48899E+08         0.00000E+00
    0.00000E+00         0.00000E+00         0.38053E-08
 
    0.61432E+05         0.64842E+06         0.00000E+00
    0.64842E+06        -0.48982E+08         0.00000E+00
    0.00000E+00         0.00000E+00         0.50741E-08
 
    0.60337E+05         0.66742E+06         0.00000E+00
    0.66742E+06        -0.49065E+08         0.00000E+00
    0.00000E+00         0.00000E+00         0.25370E-08
 
    0.59495E+05         0.68601E+06         0.00000E+00
    0.68601E+06        -0.49150E+08         0.00000E+00
    0.00000E+00         0.00000E+00        -0.63424E-08
 
    0.58888E+05         0.70428E+06         0.00000E+00
    0.70428E+06        -0.49235E+08         0.00000E+00
    0.00000E+00         0.00000E+00         0.12685E-07
 
    0.58494E+05         0.72230E+06         0.00000E+00
    0.72230E+06        -0.49321E+08         0.00000E+00
    0.00000E+00         0.00000E+00        -0.88794E-08
 
    0.58295E+05         0.74013E+06         0.00000E+00
    0.74013E+06        -0.49408E+08         0.00000E+00
    0.00000E+00         0.00000E+00         0.25370E-08
 
    0.58271E+05         0.75785E+06         0.00000E+00
    0.75785E+06        -0.49497E+08         0.00000E+00
    0.00000E+00         0.00000E+00         0.12687E-08
 
    0.58403E+05         0.77552E+06         0.00000E+00
    0.77552E+06        -0.49586E+08         0.00000E+00
    0.00000E+00         0.00000E+00         0.10148E-07
 
    0.58672E+05         0.79317E+06         0.00000E+00
    0.79317E+06        -0.49677E+08         0.00000E+00
    0.00000E+00         0.00000E+00        -0.38053E-08
 
    0.59062E+05         0.81085E+06         0.00000E+00
    0.81085E+06        -0.49770E+08         0.00000E+00
    0.00000E+00         0.00000E+00        -0.25370E-08
 
    0.59557E+05         0.82862E+06         0.00000E+00
    0.82862E+06        -0.49864E+08         0.00000E+00
    0.00000E+00         0.00000E+00        -0.12683E-08
 
    0.60141E+05         0.84649E+06         0.00000E+00
    0.84649E+06        -0.49960E+08         0.00000E+00
    0.00000E+00         0.00000E+00         0.12683E-08
 
    0.60800E+05         0.86449E+06         0.00000E+00
    0.86449E+06        -0.50057E+08         0.00000E+00
    0.00000E+00         0.00000E+00         0.10148E-07
 
    0.61521E+05         0.88266E+06         0.00000E+00
    0.88266E+06        -0.50157E+08         0.00000E+00
    0.00000E+00         0.00000E+00         0.00000E+00
 
    0.62292E+05         0.90101E+06         0.00000E+00
    0.90101E+06        -0.50258E+08         0.00000E+00
    0.00000E+00         0.00000E+00         0.13954E-07
 
    0.63101E+05         0.91956E+06         0.00000E+00
    0.91956E+06        -0.50362E+08         0.00000E+00
    0.00000E+00         0.00000E+00        -0.12685E-07
 
    0.63937E+05         0.93832E+06         0.00000E+00
    0.93832E+06        -0.50467E+08         0.00000E+00
    0.00000E+00         0.00000E+00         0.00000E+00
 
    0.64791E+05         0.95729E+06         0.00000E+00
    0.95729E+06        -0.50575E+08         0.00000E+00
    0.00000E+00         0.00000E+00         0.25375E-08
 
    0.65652E+05         0.97649E+06         0.00000E+00
    0.97649E+06        -0.50684E+08         0.00000E+00
    0.00000E+00         0.00000E+00         0.12687E-08
 
    0.66512E+05         0.99591E+06         0.00000E+00
    0.99591E+06        -0.50796E+08         0.00000E+00
    0.00000E+00         0.00000E+00         0.12685E-07
 
    0.67363E+05         0.10156E+07         0.00000E+00
    0.10156E+07        -0.50911E+08         0.00000E+00
    0.00000E+00         0.00000E+00         0.00000E+00
 
    0.68195E+05         0.10354E+07         0.00000E+00
    0.10354E+07        -0.51028E+08         0.00000E+00
    0.00000E+00         0.00000E+00        -0.76111E-08
 
    0.69001E+05         0.10555E+07         0.00000E+00
    0.10555E+07        -0.51147E+08         0.00000E+00
    0.00000E+00         0.00000E+00        -0.25370E-08
 
    0.69774E+05         0.10758E+07         0.00000E+00
    0.10758E+07        -0.51269E+08         0.00000E+00
    0.00000E+00         0.00000E+00        -0.13953E-07
 
    0.70504E+05         0.10963E+07         0.00000E+00
    0.10963E+07        -0.51393E+08         0.00000E+00
    0.00000E+00         0.00000E+00        -0.50741E-08
 
    0.71186E+05         0.11170E+07         0.00000E+00
    0.11170E+07        -0.51520E+08         0.00000E+00
    0.00000E+00         0.00000E+00         0.63428E-08
 
    0.71810E+05         0.11378E+07         0.00000E+00
    0.11378E+07        -0.51650E+08         0.00000E+00
    0.00000E+00         0.00000E+00         0.88794E-08
 
    0.72369E+05         0.11588E+07         0.00000E+00
    0.11588E+07        -0.51783E+08         0.00000E+00
    0.00000E+00         0.00000E+00         0.17759E-07
 
    0.72856E+05         0.11800E+07         0.00000E+00
    0.11800E+07        -0.51918E+08         0.00000E+00
    0.00000E+00         0.00000E+00        -0.25366E-08
 
    0.73262E+05         0.12012E+07         0.00000E+00
    0.12012E+07        -0.52056E+08         0.00000E+00
    0.00000E+00         0.00000E+00        -0.88799E-08
 
    0.73578E+05         0.12225E+07         0.00000E+00
    0.12225E+07        -0.52198E+08         0.00000E+00
    0.00000E+00         0.00000E+00         0.63428E-08
 
    0.73796E+05         0.12439E+07         0.00000E+00
    0.12439E+07        -0.52342E+08         0.00000E+00
    0.00000E+00         0.00000E+00         0.50741E-08
 
    0.73905E+05         0.12653E+07         0.00000E+00
    0.12653E+07        -0.52489E+08         0.00000E+00
    0.00000E+00         0.00000E+00        -0.38053E-08
 
    0.73897E+05         0.12866E+07         0.00000E+00
    0.12866E+07        -0.52639E+08         0.00000E+00
    0.00000E+00         0.00000E+00         0.25366E-08
 
    0.73760E+05         0.13079E+07         0.00000E+00
    0.13079E+07        -0.52792E+08         0.00000E+00
    0.00000E+00         0.00000E+00        -0.38058E-08
 
    0.73484E+05         0.13291E+07         0.00000E+00
    0.13291E+07        -0.52949E+08         0.00000E+00
    0.00000E+00         0.00000E+00        -0.25370E-08
 
    0.73055E+05         0.13502E+07         0.00000E+00
    0.13502E+07        -0.53108E+08         0.00000E+00
    0.00000E+00         0.00000E+00         0.50741E-08
 
    0.72461E+05         0.13711E+07         0.00000E+00
    0.13711E+07        -0.53271E+08         0.00000E+00
    0.00000E+00         0.00000E+00         0.25375E-08
 
    0.71688E+05         0.13917E+07         0.00000E+00
    0.13917E+07        -0.53437E+08         0.00000E+00
    0.00000E+00         0.00000E+00        -0.88803E-08
 
    0.70719E+05         0.14120E+07         0.00000E+00
    0.14120E+07        -0.53606E+08         0.00000E+00
    0.00000E+00         0.00000E+00        -0.50741E-08
 
    0.69537E+05         0.14320E+07         0.00000E+00
    0.14320E+07        -0.53779E+08         0.00000E+00
    0.00000E+00         0.00000E+00         0.12678E-08
 
    0.68125E+05         0.14515E+07         0.00000E+00
    0.14515E+07        -0.53955E+08         0.00000E+00
    0.00000E+00         0.00000E+00        -0.25375E-08
 
    0.66461E+05         0.14705E+07         0.00000E+00
    0.14705E+07        -0.54134E+08         0.00000E+00
    0.00000E+00         0.00000E+00         0.20296E-07
 
    0.64524E+05         0.14889E+07         0.00000E+00
    0.14889E+07        -0.54317E+08         0.00000E+00
    0.00000E+00         0.00000E+00         0.88794E-08
 
    0.62289E+05         0.15066E+07         0.00000E+00
    0.15066E+07        -0.54503E+08         0.00000E+00
    0.00000E+00         0.00000E+00         0.25375E-08
 
    0.59729E+05         0.15235E+07         0.00000E+00
    0.15235E+07        -0.54693E+08         0.00000E+00
    0.00000E+00         0.00000E+00        -0.25375E-08
 
    0.56814E+05         0.15395E+07         0.00000E+00
    0.15395E+07        -0.54886E+08         0.00000E+00
    0.00000E+00         0.00000E+00         0.13954E-07
 
    0.53513E+05         0.15544E+07         0.00000E+00
    0.15544E+07        -0.55083E+08         0.00000E+00
    0.00000E+00         0.00000E+00         0.12685E-07
 
    0.49790E+05         0.15683E+07         0.00000E+00
    0.15683E+07        -0.55284E+08         0.00000E+00
    0.00000E+00         0.00000E+00        -0.25366E-08
 
    0.45607E+05         0.15808E+07         0.00000E+00
    0.15808E+07        -0.55488E+08         0.00000E+00
    0.00000E+00         0.00000E+00        -0.50741E-08
 
    0.40922E+05         0.15918E+07         0.00000E+00
    0.15918E+07        -0.55696E+08         0.00000E+00
    0.00000E+00         0.00000E+00        -0.21565E-07
 
    0.35692E+05         0.16013E+07         0.00000E+00
    0.16013E+07        -0.55907E+08         0.00000E+00
    0.00000E+00         0.00000E+00         0.38053E-08
 
    0.29867E+05         0.16089E+07         0.00000E+00
    0.16089E+07        -0.56123E+08         0.00000E+00
    0.00000E+00         0.00000E+00        -0.25366E-08
 
    0.23398E+05         0.16145E+07         0.00000E+00
    0.16145E+07        -0.56342E+08         0.00000E+00
    0.00000E+00         0.00000E+00         0.13953E-07
 
    0.16230E+05         0.16178E+07         0.00000E+00
    0.16178E+07        -0.56566E+08         0.00000E+00
    0.00000E+00         0.00000E+00         0.12687E-08
 
    0.83083E+04         0.16187E+07         0.00000E+00
    0.16187E+07        -0.56793E+08         0.00000E+00
    0.00000E+00         0.00000E+00         0.10148E-07
 
   -0.42396E+03         0.16168E+07         0.00000E+00
    0.16168E+07        -0.57025E+08         0.00000E+00
    0.00000E+00         0.00000E+00        -0.22834E-07
 
   -0.10024E+05         0.16120E+07         0.00000E+00
    0.16120E+07        -0.57261E+08         0.00000E+00
    0.00000E+00         0.00000E+00         0.10147E-07
 
   -0.20547E+05         0.16038E+07         0.00000E+00
    0.16038E+07        -0.57501E+08         0.00000E+00
    0.00000E+00         0.00000E+00         0.38062E-08
 
   -0.32047E+05         0.15919E+07         0.00000E+00
    0.15919E+07        -0.57745E+08         0.00000E+00
    0.00000E+00         0.00000E+00         0.00000E+00
 
   -0.44571E+05         0.15762E+07         0.00000E+00
    0.15762E+07        -0.57994E+08         0.00000E+00
    0.00000E+00         0.00000E+00        -0.15221E-07
 
   -0.58160E+05         0.15561E+07         0.00000E+00
    0.15561E+07        -0.58248E+08         0.00000E+00
    0.00000E+00         0.00000E+00         0.63428E-08
 
   -0.72845E+05         0.15314E+07         0.00000E+00
    0.15314E+07        -0.58506E+08         0.00000E+00
    0.00000E+00         0.00000E+00         0.88803E-08
 
   -0.88647E+05         0.15018E+07         0.00000E+00
    0.15018E+07        -0.58769E+08         0.00000E+00
    0.00000E+00         0.00000E+00         0.25366E-08
 
   -0.10557E+06         0.14668E+07         0.00000E+00
    0.14668E+07        -0.59036E+08         0.00000E+00
    0.00000E+00         0.00000E+00        -0.11417E-07
 
   -0.12362E+06         0.14262E+07         0.00000E+00
    0.14262E+07        -0.59307E+08         0.00000E+00
    0.00000E+00         0.00000E+00         0.50741E-08
 
   -0.14277E+06         0.13797E+07         0.00000E+00
    0.13797E+07        -0.59582E+08         0.00000E+00
    0.00000E+00         0.00000E+00        -0.21565E-07
 
   -0.16302E+06         0.13270E+07         0.00000E+00
    0.13270E+07        -0.59860E+08         0.00000E+00
    0.00000E+00         0.00000E+00        -0.21566E-07
 
   -0.18439E+06         0.12678E+07         0.00000E+00
    0.12678E+07        -0.60140E+08         0.00000E+00
    0.00000E+00         0.00000E+00        -0.30445E-07
 
   -0.20692E+06         0.12021E+07         0.00000E+00
    0.12021E+07        -0.60421E+08         0.00000E+00
    0.00000E+00         0.00000E+00         0.22834E-07
 
   -0.23079E+06         0.11296E+07         0.00000E+00
    0.11296E+07        -0.60702E+08         0.00000E+00
    0.00000E+00         0.00000E+00        -0.25375E-08
 
   -0.25636E+06         0.10502E+07         0.00000E+00
    0.10502E+07        -0.60979E+08         0.00000E+00
    0.00000E+00         0.00000E+00        -0.22833E-07
 
   -0.28430E+06         0.96378E+06         0.00000E+00
    0.96378E+06        -0.61249E+08         0.00000E+00
    0.00000E+00         0.00000E+00        -0.50750E-08
 
   -0.31581E+06         0.86991E+06         0.00000E+00
    0.86991E+06        -0.61509E+08         0.00000E+00
    0.00000E+00         0.00000E+00         0.10148E-07
 
   -0.35288E+06         0.76793E+06         0.00000E+00
    0.76793E+06        -0.61753E+08         0.00000E+00
    0.00000E+00         0.00000E+00        -0.76116E-08
 
   -0.39874E+06         0.65661E+06         0.00000E+00
    0.65661E+06        -0.61975E+08         0.00000E+00
    0.00000E+00         0.00000E+00        -0.25370E-08
 
   -0.45860E+06         0.53386E+06         0.00000E+00
    0.53386E+06        -0.62166E+08         0.00000E+00
    0.00000E+00         0.00000E+00         0.10149E-07
 
   -0.54128E+06         0.39688E+06         0.00000E+00
    0.39688E+06        -0.62319E+08         0.00000E+00
    0.00000E+00         0.00000E+00         0.12686E-07
 
   -0.66168E+06         0.24488E+06         0.00000E+00
    0.24488E+06        -0.62422E+08         0.00000E+00
    0.00000E+00         0.00000E+00        -0.85265E-13
 
   -0.83893E+06         0.82650E+05         0.00000E+00
    0.82650E+05        -0.62473E+08         0.00000E+00
    0.00000E+00         0.00000E+00         0.22737E-12
 
    0.27878E+06         0.24353E+05         0.00000E+00
    0.24353E+05        -0.47609E+08         0.00000E+00
    0.00000E+00         0.00000E+00         0.25369E-08
 
    0.22844E+06         0.72555E+05         0.00000E+00
    0.72555E+05        -0.47622E+08         0.00000E+00
    0.00000E+00         0.00000E+00        -0.88796E-08
 
    0.19332E+06         0.11889E+06         0.00000E+00
    0.11889E+06        -0.47650E+08         0.00000E+00
    0.00000E+00         0.00000E+00        -0.13954E-07
 
    0.16898E+06         0.16218E+06         0.00000E+00
    0.16218E+06        -0.47691E+08         0.00000E+00
    0.00000E+00         0.00000E+00         0.88796E-08
 
    0.15157E+06         0.20239E+06         0.00000E+00
    0.20239E+06        -0.47743E+08         0.00000E+00
    0.00000E+00         0.00000E+00        -0.50741E-08
 
    0.13856E+06         0.24008E+06         0.00000E+00
    0.24008E+06        -0.47803E+08         0.00000E+00
    0.00000E+00         0.00000E+00         0.63426E-08
 
    0.12840E+06         0.27572E+06         0.00000E+00
    0.27572E+06        -0.47870E+08         0.00000E+00
    0.00000E+00         0.00000E+00         0.00000E+00
 
    0.12009E+06         0.30961E+06         0.00000E+00
    0.30961E+06        -0.47942E+08         0.00000E+00
    0.00000E+00         0.00000E+00         0.63428E-08
 
    0.11303E+06         0.34193E+06         0.00000E+00
    0.34193E+06        -0.48017E+08         0.00000E+00
    0.00000E+00         0.00000E+00         0.00000E+00
 
    0.10684E+06         0.37275E+06         0.00000E+00
    0.37275E+06        -0.48094E+08         0.00000E+00
    0.00000E+00         0.00000E+00         0.12683E-08
 
    0.10129E+06         0.40215E+06         0.00000E+00
    0.40215E+06        -0.48173E+08         0.00000E+00
    0.00000E+00         0.00000E+00         0.25370E-08
 
    0.96264E+05         0.43017E+06         0.00000E+00
    0.43017E+06        -0.48253E+08         0.00000E+00
    0.00000E+00         0.00000E+00        -0.10148E-07
 
    0.91693E+05         0.45688E+06         0.00000E+00
    0.45688E+06        -0.48333E+08         0.00000E+00
    0.00000E+00         0.00000E+00        -0.50745E-08
 
    0.87543E+05         0.48232E+06         0.00000E+00
    0.48232E+06        -0.48414E+08         0.00000E+00
    0.00000E+00         0.00000E+00        -0.38053E-08
 
    0.83797E+05         0.50659E+06         0.00000E+00
    0.50659E+06        -0.48495E+08         0.00000E+00
    0.00000E+00         0.00000E+00        -0.50741E-08
 
    0.80446E+05         0.52977E+06         0.00000E+00
    0.52977E+06        -0.48576E+08         0.00000E+00
    0.00000E+00         0.00000E+00         0.00000E+00
 
    0.77480E+05         0.55196E+06         0.00000E+00
    0.55196E+06        -0.48657E+08         0.00000E+00
    0.00000E+00         0.00000E+00         0.10148E-07
 
    0.74891E+05         0.57325E+06         0.00000E+00
    0.57325E+06        -0.48739E+08         0.00000E+00
    0.00000E+00         0.00000E+00         0.88794E-08
 
    0.72665E+05         0.59374E+06         0.00000E+00
    0.59374E+06        -0.48821E+08         0.00000E+00
    0.00000E+00         0.00000E+00         0.16491E-07
 
    0.70787E+05         0.61354E+06         0.00000E+00
    0.61354E+06        -0.48903E+08         0.00000E+00
    0.00000E+00         0.00000E+00        -0.76111E-08
 
    0.69239E+05         0.63274E+06         0.00000E+00
    0.63274E+06        -0.48986E+08         0.00000E+00
    0.00000E+00         0.00000E+00         0.76111E-08
 
    0.68001E+05         0.65143E+06         0.00000E+00
    0.65143E+06        -0.49069E+08         0.00000E+00
    0.00000E+00         0.00000E+00        -0.16491E-07
 
    0.67050E+05         0.66971E+06         0.00000E+00
    0.66971E+06        -0.49153E+08         0.00000E+00
    0.00000E+00         0.00000E+00         0.10148E-07
 
    0.66365E+05         0.68765E+06         0.00000E+00
    0.68765E+06        -0.49238E+08         0.00000E+00
    0.00000E+00         0.00000E+00        -0.17759E-07
 
    0.65923E+05         0.70533E+06         0.00000E+00
    0.70533E+06        -0.49324E+08         0.00000E+00
    0.00000E+00         0.00000E+00        -0.25370E-08
 
    0.65700E+05         0.72283E+06         0.00000E+00
    0.72283E+06        -0.49412E+08         0.00000E+00
    0.00000E+00         0.00000E+00         0.00000E+00
 
    0.65674E+05         0.74020E+06         0.00000E+00
    0.74020E+06        -0.49500E+08         0.00000E+00
    0.00000E+00         0.00000E+00         0.50741E-08
 
    0.65825E+05         0.75750E+06         0.00000E+00
    0.75750E+06        -0.49590E+08         0.00000E+00
    0.00000E+00         0.00000E+00        -0.12687E-08
 
    0.66131E+05         0.77478E+06         0.00000E+00
    0.77478E+06        -0.49681E+08         0.00000E+00
    0.00000E+00         0.00000E+00        -0.38058E-08
 
    0.66573E+05         0.79210E+06         0.00000E+00
    0.79210E+06        -0.49773E+08         0.00000E+00
    0.00000E+00         0.00000E+00         0.13954E-07
 
    0.67132E+05         0.80947E+06         0.00000E+00
    0.80947E+06        -0.49868E+08         0.00000E+00
    0.00000E+00         0.00000E+00         0.63428E-08
 
    0.67793E+05         0.82695E+06         0.00000E+00
    0.82695E+06        -0.49963E+08         0.00000E+00
    0.00000E+00         0.00000E+00         0.63424E-08
 
    0.68538E+05         0.84456E+06         0.00000E+00
    0.84456E+06        -0.50061E+08         0.00000E+00
    0.00000E+00         0.00000E+00        -0.20296E-07
 
    0.69352E+05         0.86231E+06         0.00000E+00
    0.86231E+06        -0.50160E+08         0.00000E+00
    0.00000E+00         0.00000E+00         0.12685E-07
 
    0.70223E+05         0.88025E+06         0.00000E+00
    0.88025E+06        -0.50262E+08         0.00000E+00
    0.00000E+00         0.00000E+00        -0.17759E-07
 
    0.71136E+05         0.89836E+06         0.00000E+00
    0.89836E+06        -0.50365E+08         0.00000E+00
    0.00000E+00         0.00000E+00        -0.12685E-07
 
    0.72080E+05         0.91668E+06         0.00000E+00
    0.91668E+06        -0.50471E+08         0.00000E+00
    0.00000E+00         0.00000E+00        -0.15222E-07
 
    0.73044E+05         0.93521E+06         0.00000E+00
    0.93521E+06        -0.50578E+08         0.00000E+00
    0.00000E+00         0.00000E+00         0.50741E-08
 
    0.74016E+05         0.95396E+06         0.00000E+00
    0.95396E+06        -0.50688E+08         0.00000E+00
    0.00000E+00         0.00000E+00         0.88794E-08
 
    0.74987E+05         0.97292E+06         0.00000E+00
    0.97292E+06        -0.50800E+08         0.00000E+00
    0.00000E+00         0.00000E+00         0.10148E-07
 
    0.75946E+05         0.99210E+06         0.00000E+00
    0.99210E+06        -0.50915E+08         0.00000E+00
    0.00000E+00         0.00000E+00         0.50741E-08
 
    0.76885E+05         0.10115E+07         0.00000E+00
    0.10115E+07        -0.51032E+08         0.00000E+00
    0.00000E+00         0.00000E+00         0.25370E-08
 
    0.77795E+05         0.10311E+07         0.00000E+00
    0.10311E+07        -0.51151E+08         0.00000E+00
    0.00000E+00         0.00000E+00         0.10148E-07
 
    0.78666E+05         0.10509E+07         0.00000E+00
    0.10509E+07        -0.51273E+08         0.00000E+00
    0.00000E+00         0.00000E+00         0.50741E-08
 
    0.79491E+05         0.10709E+07         0.00000E+00
    0.10709E+07        -0.51397E+08         0.00000E+00
    0.00000E+00         0.00000E+00         0.16491E-07
 
    0.80260E+05         0.10911E+07         0.00000E+00
    0.10911E+07        -0.51525E+08         0.00000E+00
    0.00000E+00         0.00000E+00        -0.76111E-08
 
    0.80964E+05         0.11114E+07         0.00000E+00
    0.11114E+07        -0.51654E+08         0.00000E+00
    0.00000E+00         0.00000E+00        -0.12687E-08
 
    0.81596E+05         0.11319E+07         0.00000E+00
    0.11319E+07        -0.51787E+08         0.00000E+00
    0.00000E+00         0.00000E+00         0.13953E-07
 
    0.82145E+05         0.11525E+07         0.00000E+00
    0.11525E+07        -0.51922E+08         0.00000E+00
    0.00000E+00         0.00000E+00        -0.10148E-07
 
    0.82603E+05         0.11732E+07         0.00000E+00
    0.11732E+07        -0.52061E+08         0.00000E+00
    0.00000E+00         0.00000E+00        -0.24102E-07
 
    0.82960E+05         0.11939E+07         0.00000E+00
    0.11939E+07        -0.52202E+08         0.00000E+00
    0.00000E+00         0.00000E+00         0.12687E-08
 
    0.83206E+05         0.12147E+07         0.00000E+00
    0.12147E+07        -0.52346E+08         0.00000E+00
    0.00000E+00         0.00000E+00        -0.12685E-07
 
    0.83331E+05         0.12356E+07         0.00000E+00
    0.12356E+07        -0.52493E+08         0.00000E+00
    0.00000E+00         0.00000E+00        -0.12687E-08
 
    0.83323E+05         0.12564E+07         0.00000E+00
    0.12564E+07        -0.52643E+08         0.00000E+00
    0.00000E+00         0.00000E+00         0.17759E-07
 
    0.83169E+05         0.12771E+07         0.00000E+00
    0.12771E+07        -0.52796E+08         0.00000E+00
    0.00000E+00         0.00000E+00        -0.12687E-08
 
    0.82859E+05         0.12978E+07         0.00000E+00
    0.12978E+07        -0.52953E+08         0.00000E+00
    0.00000E+00         0.00000E+00        -0.10148E-07
 
    0.82377E+05         0.13183E+07         0.00000E+00
    0.13183E+07        -0.53112E+08         0.00000E+00
    0.00000E+00         0.00000E+00         0.13953E-07
 
    0.81709E+05         0.13386E+07         0.00000E+00
    0.13386E+07        -0.53275E+08         0.00000E+00
    0.00000E+00         0.00000E+00         0.88803E-08
 
    0.80838E+05         0.13587E+07         0.00000E+00
    0.13587E+07        -0.53441E+08         0.00000E+00
    0.00000E+00         0.00000E+00        -0.50741E-08
 
    0.79747E+05         0.13784E+07         0.00000E+00
    0.13784E+07        -0.53610E+08         0.00000E+00
    0.00000E+00         0.00000E+00        -0.30444E-07
 
    0.78418E+05         0.13978E+07         0.00000E+00
    0.13978E+07        -0.53783E+08         0.00000E+00
    0.00000E+00         0.00000E+00         0.10148E-07
 
    0.76828E+05         0.14168E+07         0.00000E+00
    0.14168E+07        -0.53958E+08         0.00000E+00
    0.00000E+00         0.00000E+00        -0.76107E-08
 
    0.74955E+05         0.14352E+07         0.00000E+00
    0.14352E+07        -0.54138E+08         0.00000E+00
    0.00000E+00         0.00000E+00         0.12685E-07
 
    0.72774E+05         0.14531E+07         0.00000E+00
    0.14531E+07        -0.54320E+08         0.00000E+00
    0.00000E+00         0.00000E+00        -0.76116E-08
 
    0.70257E+05         0.14703E+07         0.00000E+00
    0.14703E+07        -0.54507E+08         0.00000E+00
    0.00000E+00         0.00000E+00        -0.76107E-08
 
    0.67374E+05         0.14866E+07         0.00000E+00
    0.14866E+07        -0.54696E+08         0.00000E+00
    0.00000E+00         0.00000E+00        -0.22833E-07
 
    0.64092E+05         0.15021E+07         0.00000E+00
    0.15021E+07        -0.54889E+08         0.00000E+00
    0.00000E+00         0.00000E+00        -0.17760E-07
 
    0.60375E+05         0.15166E+07         0.00000E+00
    0.15166E+07        -0.55086E+08         0.00000E+00
    0.00000E+00         0.00000E+00        -0.25366E-08
 
    0.56183E+05         0.15299E+07         0.00000E+00
    0.15299E+07        -0.55286E+08         0.00000E+00
    0.00000E+00         0.00000E+00         0.32981E-07
 
    0.51472E+05         0.15419E+07         0.00000E+00
    0.15419E+07        -0.55490E+08         0.00000E+00
    0.00000E+00         0.00000E+00        -0.25366E-08
 
    0.46197E+05         0.15525E+07         0.00000E+00
    0.15525E+07        -0.55698E+08         0.00000E+00
    0.00000E+00         0.00000E+00        -0.10148E-07
 
    0.40306E+05         0.15615E+07         0.00000E+00
    0.15615E+07        -0.55909E+08         0.00000E+00
    0.00000E+00         0.00000E+00        -0.25366E-08
 
    0.33745E+05         0.15687E+07         0.00000E+00
    0.15687E+07        -0.56124E+08         0.00000E+00
    0.00000E+00         0.00000E+00         0.50741E-08
 
    0.26457E+05         0.15739E+07         0.00000E+00
    0.15739E+07        -0.56343E+08         0.00000E+00
    0.00000E+00         0.00000E+00        -0.10148E-07
 
    0.18380E+05         0.15769E+07         0.00000E+00
    0.15769E+07        -0.56566E+08         0.00000E+00
    0.00000E+00         0.00000E+00        -0.15222E-07
 
    0.94526E+04         0.15774E+07         0.00000E+00
    0.15774E+07        -0.56793E+08         0.00000E+00
    0.00000E+00         0.00000E+00        -0.22833E-07
 
   -0.39164E+03         0.15752E+07         0.00000E+00
    0.15752E+07        -0.57024E+08         0.00000E+00
    0.00000E+00         0.00000E+00         0.25370E-07
 
   -0.11218E+05         0.15700E+07         0.00000E+00
    0.15700E+07        -0.57259E+08         0.00000E+00
    0.00000E+00         0.00000E+00        -0.76116E-08
 
   -0.23090E+05         0.15615E+07         0.00000E+00
    0.15615E+07        -0.57499E+08         0.00000E+00
    0.00000E+00         0.00000E+00        -0.50741E-08
 
   -0.36071E+05         0.15494E+07         0.00000E+00
    0.15494E+07        -0.57743E+08         0.00000E+00
    0.00000E+00         0.00000E+00         0.00000E+00
 
   -0.50216E+05         0.15334E+07         0.00000E+00
    0.15334E+07        -0.57991E+08         0.00000E+00
    0.00000E+00         0.00000E+00        -0.15222E-07
 
   -0.65575E+05         0.15132E+07         0.00000E+00
    0.15132E+07        -0.58244E+08         0.00000E+00
    0.00000E+00         0.00000E+00         0.12685E-07
 
   -0.82187E+05         0.14883E+07         0.00000E+00
    0.14883E+07        -0.58501E+08         0.00000E+00
    0.00000E+00         0.00000E+00        -0.10147E-07
 
   -0.10008E+06         0.14585E+07         0.00000E+00
    0.14585E+07        -0.58762E+08         0.00000E+00
    0.00000E+00         0.00000E+00        -0.22834E-07
 
   -0.11927E+06         0.14234E+07         0.00000E+00
    0.14234E+07        -0.59028E+08         0.00000E+00
    0.00000E+00         0.00000E+00         0.10147E-07
 
   -0.13976E+06         0.13827E+07         0.00000E+00
    0.13827E+07        -0.59298E+08         0.00000E+00
    0.00000E+00         0.00000E+00        -0.76116E-08
 
   -0.16153E+06         0.13361E+07         0.00000E+00
    0.13361E+07        -0.59572E+08         0.00000E+00
    0.00000E+00         0.00000E+00         0.25375E-08
 
   -0.18460E+06         0.12833E+07         0.00000E+00
    0.12833E+07        -0.59849E+08         0.00000E+00
    0.00000E+00         0.00000E+00         0.50741E-08
 
   -0.20897E+06         0.12241E+07         0.00000E+00
    0.12241E+07        -0.60128E+08         0.00000E+00
    0.00000E+00         0.00000E+00        -0.22833E-07
 
   -0.23473E+06         0.11584E+07         0.00000E+00
    0.11584E+07        -0.60408E+08         0.00000E+00
    0.00000E+00         0.00000E+00        -0.12686E-07
 
   -0.26206E+06         0.10860E+07         0.00000E+00
    0.10860E+07        -0.60687E+08         0.00000E+00
    0.00000E+00         0.00000E+00        -0.10147E-07
 
   -0.29136E+06         0.10068E+07         0.00000E+00
    0.10068E+07        -0.60962E+08         0.00000E+00
    0.00000E+00         0.00000E+00         0.50741E-08
 
   -0.32336E+06         0.92083E+06         0.00000E+00
    0.92083E+06        -0.61231E+08         0.00000E+00
    0.00000E+00         0.00000E+00         0.25375E-08
 
   -0.35938E+06         0.82774E+06         0.00000E+00
    0.82774E+06        -0.61490E+08         0.00000E+00
    0.00000E+00         0.00000E+00        -0.76107E-08
 
   -0.40156E+06         0.72710E+06         0.00000E+00
    0.72710E+06        -0.61732E+08         0.00000E+00
    0.00000E+00         0.00000E+00        -0.50741E-08
 
   -0.45339E+06         0.61797E+06         0.00000E+00
    0.61797E+06        -0.61952E+08         0.00000E+00
    0.00000E+00         0.00000E+00        -0.25370E-07
 
   -0.52043E+06         0.49880E+06         0.00000E+00
    0.49880E+06        -0.62141E+08         0.00000E+00
    0.00000E+00         0.00000E+00        -0.10148E-07
 
   -0.61173E+06         0.36776E+06         0.00000E+00
    0.36776E+06        -0.62291E+08         0.00000E+00
    0.00000E+00         0.00000E+00        -0.50748E-08
 
   -0.74116E+06         0.22521E+06         0.00000E+00
    0.22521E+06        -0.62392E+08         0.00000E+00
    0.00000E+00         0.00000E+00         0.76112E-08
 
   -0.92466E+06         0.75678E+05         0.00000E+00
    0.75678E+05        -0.62441E+08         0.00000E+00
    0.00000E+00         0.00000E+00        -0.25368E-08
 
    0.30418E+06         0.22574E+05         0.00000E+00
    0.22574E+05        -0.47618E+08         0.00000E+00
    0.00000E+00         0.00000E+00        -0.50741E-08
 
    0.25246E+06         0.67466E+05         0.00000E+00
    0.67466E+05        -0.47631E+08         0.00000E+00
    0.00000E+00         0.00000E+00         0.76111E-08
 
    0.21525E+06         0.11119E+06         0.00000E+00
    0.11119E+06        -0.47659E+08         0.00000E+00
    0.00000E+00         0.00000E+00         0.50743E-08
 
    0.18883E+06         0.15271E+06         0.00000E+00
    0.15271E+06        -0.47699E+08         0.00000E+00
    0.00000E+00         0.00000E+00        -0.17759E-07
 
    0.16964E+06         0.19178E+06         0.00000E+00
    0.19178E+06        -0.47751E+08         0.00000E+00
    0.00000E+00         0.00000E+00         0.25370E-08
 
    0.15516E+06         0.22871E+06         0.00000E+00
    0.22871E+06        -0.47811E+08         0.00000E+00
    0.00000E+00         0.00000E+00        -0.50741E-08
 
    0.14375E+06         0.26383E+06         0.00000E+00
    0.26383E+06        -0.47877E+08         0.00000E+00
    0.00000E+00         0.00000E+00         0.10148E-07
 
    0.13437E+06         0.29735E+06         0.00000E+00
    0.29735E+06        -0.47948E+08         0.00000E+00
    0.00000E+00         0.00000E+00         0.00000E+00
 
    0.12637E+06         0.32937E+06         0.00000E+00
    0.32937E+06        -0.48023E+08         0.00000E+00
    0.00000E+00         0.00000E+00         0.10148E-07
 
    0.11934E+06         0.35995E+06         0.00000E+00
    0.35995E+06        -0.48100E+08         0.00000E+00
    0.00000E+00         0.00000E+00         0.10148E-07
 
    0.11304E+06         0.38912E+06         0.00000E+00
    0.38912E+06        -0.48179E+08         0.00000E+00
    0.00000E+00         0.00000E+00         0.00000E+00
 
    0.10734E+06         0.41693E+06         0.00000E+00
    0.41693E+06        -0.48258E+08         0.00000E+00
    0.00000E+00         0.00000E+00        -0.10148E-07
 
    0.10217E+06         0.44340E+06         0.00000E+00
    0.44340E+06        -0.48338E+08         0.00000E+00
    0.00000E+00         0.00000E+00        -0.25370E-08
 
    0.97485E+05         0.46862E+06         0.00000E+00
    0.46862E+06        -0.48419E+08         0.00000E+00
    0.00000E+00         0.00000E+00         0.00000E+00
 
    0.93265E+05         0.49264E+06         0.00000E+00
    0.49264E+06        -0.48499E+08         0.00000E+00
    0.00000E+00         0.00000E+00         0.25370E-08
 
    0.89496E+05         0.51557E+06         0.00000E+00
    0.51557E+06        -0.48580E+08         0.00000E+00
    0.00000E+00         0.00000E+00        -0.17759E-07
 
    0.86167E+05         0.53749E+06         0.00000E+00
    0.53749E+06        -0.48661E+08         0.00000E+00
    0.00000E+00         0.00000E+00         0.76111E-08
 
    0.83265E+05         0.55850E+06         0.00000E+00
    0.55850E+06        -0.48743E+08         0.00000E+00
    0.00000E+00         0.00000E+00        -0.50741E-08
 
    0.80774E+05         0.57870E+06         0.00000E+00
    0.57870E+06        -0.48825E+08         0.00000E+00
    0.00000E+00         0.00000E+00         0.12685E-07
 
    0.78676E+05         0.59820E+06         0.00000E+00
    0.59820E+06        -0.48907E+08         0.00000E+00
    0.00000E+00         0.00000E+00         0.76111E-08
 
    0.76948E+05         0.61709E+06         0.00000E+00
    0.61709E+06        -0.48989E+08         0.00000E+00
    0.00000E+00         0.00000E+00        -0.25370E-08
 
    0.75568E+05         0.63547E+06         0.00000E+00
    0.63547E+06        -0.49073E+08         0.00000E+00
    0.00000E+00         0.00000E+00         0.50741E-08
 
    0.74510E+05         0.65342E+06         0.00000E+00
    0.65342E+06        -0.49157E+08         0.00000E+00
    0.00000E+00         0.00000E+00        -0.15222E-07
 
    0.73749E+05         0.67103E+06         0.00000E+00
    0.67103E+06        -0.49242E+08         0.00000E+00
    0.00000E+00         0.00000E+00         0.25370E-08
 
    0.73258E+05         0.68837E+06         0.00000E+00
    0.68837E+06        -0.49328E+08         0.00000E+00
    0.00000E+00         0.00000E+00         0.12685E-07
 
    0.73013E+05         0.70552E+06         0.00000E+00
    0.70552E+06        -0.49415E+08         0.00000E+00
    0.00000E+00         0.00000E+00         0.76111E-08
 
    0.72987E+05         0.72254E+06         0.00000E+00
    0.72254E+06        -0.49503E+08         0.00000E+00
    0.00000E+00         0.00000E+00         0.00000E+00
 
    0.73157E+05         0.73948E+06         0.00000E+00
    0.73948E+06        -0.49593E+08         0.00000E+00
    0.00000E+00         0.00000E+00        -0.50741E-08
 
    0.73500E+05         0.75639E+06         0.00000E+00
    0.75639E+06        -0.49684E+08         0.00000E+00
    0.00000E+00         0.00000E+00        -0.25370E-08
 
    0.73994E+05         0.77333E+06         0.00000E+00
    0.77333E+06        -0.49777E+08         0.00000E+00
    0.00000E+00         0.00000E+00         0.10148E-07
 
    0.74619E+05         0.79032E+06         0.00000E+00
    0.79032E+06        -0.49871E+08         0.00000E+00
    0.00000E+00         0.00000E+00        -0.50741E-08
 
    0.75356E+05         0.80740E+06         0.00000E+00
    0.80740E+06        -0.49967E+08         0.00000E+00
    0.00000E+00         0.00000E+00         0.25370E-08
 
    0.76186E+05         0.82460E+06         0.00000E+00
    0.82460E+06        -0.50064E+08         0.00000E+00
    0.00000E+00         0.00000E+00        -0.25370E-08
 
    0.77094E+05         0.84195E+06         0.00000E+00
    0.84195E+06        -0.50164E+08         0.00000E+00
    0.00000E+00         0.00000E+00        -0.76111E-08
 
    0.78064E+05         0.85946E+06         0.00000E+00
    0.85946E+06        -0.50265E+08         0.00000E+00
    0.00000E+00         0.00000E+00        -0.76111E-08
 
    0.79081E+05         0.87715E+06         0.00000E+00
    0.87715E+06        -0.50369E+08         0.00000E+00
    0.00000E+00         0.00000E+00         0.20296E-07
 
    0.80133E+05         0.89503E+06         0.00000E+00
    0.89503E+06        -0.50474E+08         0.00000E+00
    0.00000E+00         0.00000E+00         0.76111E-08
 
    0.81205E+05         0.91312E+06         0.00000E+00
    0.91312E+06        -0.50582E+08         0.00000E+00
    0.00000E+00         0.00000E+00         0.50741E-08
 
    0.82287E+05         0.93140E+06         0.00000E+00
    0.93140E+06        -0.50692E+08         0.00000E+00
    0.00000E+00         0.00000E+00        -0.25370E-08
 
    0.83368E+05         0.94990E+06         0.00000E+00
    0.94990E+06        -0.50804E+08         0.00000E+00
    0.00000E+00         0.00000E+00         0.20296E-07
 
    0.84436E+05         0.96861E+06         0.00000E+00
    0.96861E+06        -0.50919E+08         0.00000E+00
    0.00000E+00         0.00000E+00         0.15222E-07
 
    0.85481E+05         0.98753E+06         0.00000E+00
    0.98753E+06        -0.51036E+08         0.00000E+00
    0.00000E+00         0.00000E+00         0.17759E-07
 
    0.86494E+05         0.10066E+07         0.00000E+00
    0.10066E+07        -0.51155E+08         0.00000E+00
    0.00000E+00         0.00000E+00         0.00000E+00
 
    0.87463E+05         0.10260E+07         0.00000E+00
    0.10260E+07        -0.51277E+08         0.00000E+00
    0.00000E+00         0.00000E+00        -0.25370E-08
 
    0.88381E+05         0.10454E+07         0.00000E+00
    0.10454E+07        -0.51401E+08         0.00000E+00
    0.00000E+00         0.00000E+00         0.76111E-08
 
    0.89237E+05         0.10651E+07         0.00000E+00
    0.10651E+07        -0.51529E+08         0.00000E+00
    0.00000E+00         0.00000E+00        -0.50741E-08
 
    0.90021E+05         0.10849E+07         0.00000E+00
    0.10849E+07        -0.51658E+08         0.00000E+00
    0.00000E+00         0.00000E+00         0.22833E-07
 
    0.90724E+05         0.11049E+07         0.00000E+00
    0.11049E+07        -0.51791E+08         0.00000E+00
    0.00000E+00         0.00000E+00         0.25370E-08
 
    0.91335E+05         0.11249E+07         0.00000E+00
    0.11249E+07        -0.51926E+08         0.00000E+00
    0.00000E+00         0.00000E+00         0.10148E-07
 
    0.91846E+05         0.11451E+07         0.00000E+00
    0.11451E+07        -0.52065E+08         0.00000E+00
    0.00000E+00         0.00000E+00        -0.50741E-08
 
    0.92244E+05         0.11653E+07         0.00000E+00
    0.11653E+07        -0.52206E+08         0.00000E+00
    0.00000E+00         0.00000E+00        -0.25370E-08
 
    0.92519E+05         0.11856E+07         0.00000E+00
    0.11856E+07        -0.52350E+08         0.00000E+00
    0.00000E+00         0.00000E+00        -0.15222E-07
 
    0.92658E+05         0.12059E+07         0.00000E+00
    0.12059E+07        -0.52497E+08         0.00000E+00
    0.00000E+00         0.00000E+00         0.00000E+00
 
    0.92650E+05         0.12262E+07         0.00000E+00
    0.12262E+07        -0.52647E+08         0.00000E+00
    0.00000E+00         0.00000E+00         0.76111E-08
 
    0.92481E+05         0.12464E+07         0.00000E+00
    0.12464E+07        -0.52800E+08         0.00000E+00
    0.00000E+00         0.00000E+00         0.00000E+00
 
    0.92138E+05         0.12664E+07         0.00000E+00
    0.12664E+07        -0.52957E+08         0.00000E+00
    0.00000E+00         0.00000E+00         0.12685E-07
 
    0.91604E+05         0.12864E+07         0.00000E+00
    0.12864E+07        -0.53116E+08         0.00000E+00
    0.00000E+00         0.00000E+00         0.76111E-08
 
    0.90863E+05         0.13062E+07         0.00000E+00
    0.13062E+07        -0.53279E+08         0.00000E+00
    0.00000E+00         0.00000E+00        -0.17759E-07
 
    0.89897E+05         0.13257E+07         0.00000E+00
    0.13257E+07        -0.53445E+08         0.00000E+00
    0.00000E+00         0.00000E+00         0.10148E-07
 
    0.88687E+05         0.13449E+07         0.00000E+00
    0.13449E+07        -0.53614E+08         0.00000E+00
    0.00000E+00         0.00000E+00         0.50750E-08
 
    0.87211E+05         0.13637E+07         0.00000E+00
    0.13637E+07        -0.53786E+08         0.00000E+00
    0.00000E+00         0.00000E+00        -0.76116E-08
 
    0.85447E+05         0.13821E+07         0.00000E+00
    0.13821E+07        -0.53962E+08         0.00000E+00
    0.00000E+00         0.00000E+00         0.00000E+00
 
    0.83368E+05         0.14000E+07         0.00000E+00
    0.14000E+07        -0.54141E+08         0.00000E+00
    0.00000E+00         0.00000E+00         0.10147E-07
 
    0.80947E+05         0.14174E+07         0.00000E+00
    0.14174E+07        -0.54324E+08         0.00000E+00
    0.00000E+00         0.00000E+00         0.00000E+00
 
    0.78153E+05         0.14340E+07         0.00000E+00
    0.14340E+07        -0.54510E+08         0.00000E+00
    0.00000E+00         0.00000E+00         0.12686E-07
 
    0.74953E+05         0.14498E+07         0.00000E+00
    0.14498E+07        -0.54699E+08         0.00000E+00
    0.00000E+00         0.00000E+00        -0.76107E-08
 
    0.71310E+05         0.14648E+07         0.00000E+00
    0.14648E+07        -0.54892E+08         0.00000E+00
    0.00000E+00         0.00000E+00         0.00000E+00
 
    0.67184E+05         0.14788E+07         0.00000E+00
    0.14788E+07        -0.55089E+08         0.00000E+00
    0.00000E+00         0.00000E+00        -0.10148E-07
 
    0.62529E+05         0.14916E+07         0.00000E+00
    0.14916E+07        -0.55289E+08         0.00000E+00
    0.00000E+00         0.00000E+00        -0.50732E-08
 
    0.57299E+05         0.15032E+07         0.00000E+00
    0.15032E+07        -0.55492E+08         0.00000E+00
    0.00000E+00         0.00000E+00         0.10148E-07
 
    0.51442E+05         0.15133E+07         0.00000E+00
    0.15133E+07        -0.55700E+08         0.00000E+00
    0.00000E+00         0.00000E+00        -0.20296E-07
 
    0.44900E+05         0.15219E+07         0.00000E+00
    0.15219E+07        -0.55911E+08         0.00000E+00
    0.00000E+00         0.00000E+00        -0.25375E-08
 
    0.37614E+05         0.15287E+07         0.00000E+00
    0.15287E+07        -0.56125E+08         0.00000E+00
    0.00000E+00         0.00000E+00        -0.15222E-07
 
    0.29519E+05         0.15335E+07         0.00000E+00
    0.15335E+07        -0.56344E+08         0.00000E+00
    0.00000E+00         0.00000E+00        -0.50741E-08
 
    0.20546E+05         0.15361E+07         0.00000E+00
    0.15361E+07        -0.56566E+08         0.00000E+00
    0.00000E+00         0.00000E+00         0.76116E-08
 
    0.10625E+05         0.15363E+07         0.00000E+00
    0.15363E+07        -0.56793E+08         0.00000E+00
    0.00000E+00         0.00000E+00         0.25366E-08
 
   -0.31669E+03         0.15337E+07         0.00000E+00
    0.15337E+07        -0.57023E+08         0.00000E+00
    0.00000E+00         0.00000E+00         0.10148E-07
 
   -0.12355E+05         0.15283E+07         0.00000E+00
    0.15283E+07        -0.57258E+08         0.00000E+00
    0.00000E+00         0.00000E+00        -0.76107E-08
 
   -0.25561E+05         0.15195E+07         0.00000E+00
    0.15195E+07        -0.57497E+08         0.00000E+00
    0.00000E+00         0.00000E+00         0.50732E-08
 
   -0.40009E+05         0.15072E+07         0.00000E+00
    0.15072E+07        -0.57740E+08         0.00000E+00
    0.00000E+00         0.00000E+00         0.25366E-08
 
   -0.55762E+05         0.14910E+07         0.00000E+00
    0.14910E+07        -0.57987E+08         0.00000E+00
    0.00000E+00         0.00000E+00        -0.25375E-08
 
   -0.72879E+05         0.14706E+07         0.00000E+00
    0.14706E+07        -0.58239E+08         0.00000E+00
    0.00000E+00         0.00000E+00         0.50741E-08
 
   -0.91410E+05         0.14456E+07         0.00000E+00
    0.14456E+07        -0.58495E+08         0.00000E+00
    0.00000E+00         0.00000E+00         0.15222E-07
 
   -0.11139E+06         0.14157E+07         0.00000E+00
    0.14157E+07        -0.58756E+08         0.00000E+00
    0.00000E+00         0.00000E+00         0.12685E-07
 
   -0.13284E+06         0.13805E+07         0.00000E+00
    0.13805E+07        -0.59021E+08         0.00000E+00
    0.00000E+00         0.00000E+00        -0.12685E-07
 
   -0.15578E+06         0.13397E+07         0.00000E+00
    0.13397E+07        -0.59290E+08         0.00000E+00
    0.00000E+00         0.00000E+00         0.10149E-07
 
   -0.18019E+06         0.12930E+07         0.00000E+00
    0.12930E+07        -0.59562E+08         0.00000E+00
    0.00000E+00         0.00000E+00        -0.50741E-08
 
   -0.20610E+06         0.12402E+07         0.00000E+00
    0.12402E+07        -0.59838E+08         0.00000E+00
    0.00000E+00         0.00000E+00        -0.50750E-08
 
   -0.23352E+06         0.11810E+07         0.00000E+00
    0.11810E+07        -0.60115E+08         0.00000E+00
    0.00000E+00         0.00000E+00        -0.76107E-08
 
   -0.26255E+06         0.11154E+07         0.00000E+00
    0.11154E+07        -0.60394E+08         0.00000E+00
    0.00000E+00         0.00000E+00        -0.10148E-07
 
   -0.29339E+06         0.10431E+07         0.00000E+00
    0.10431E+07        -0.60671E+08         0.00000E+00
    0.00000E+00         0.00000E+00         0.20296E-07
 
   -0.32647E+06         0.96425E+06         0.00000E+00
    0.96425E+06        -0.60946E+08         0.00000E+00
    0.00000E+00         0.00000E+00        -0.10148E-07
 
   -0.36260E+06         0.87874E+06         0.00000E+00
    0.87874E+06        -0.61213E+08         0.00000E+00
    0.00000E+00         0.00000E+00        -0.10148E-07
 
   -0.40315E+06         0.78653E+06         0.00000E+00
    0.78653E+06        -0.61470E+08         0.00000E+00
    0.00000E+00         0.00000E+00         0.10148E-07
 
   -0.45043E+06         0.68735E+06         0.00000E+00
    0.68735E+06        -0.61711E+08         0.00000E+00
    0.00000E+00         0.00000E+00         0.12685E-07
 
   -0.50811E+06         0.58062E+06         0.00000E+00
    0.58062E+06        -0.61929E+08         0.00000E+00
    0.00000E+00         0.00000E+00         0.00000E+00
 
   -0.58201E+06         0.46528E+06         0.00000E+00
    0.46528E+06        -0.62117E+08         0.00000E+00
    0.00000E+00         0.00000E+00         0.20297E-07
 
   -0.68117E+06         0.34038E+06         0.00000E+00
    0.34038E+06        -0.62264E+08         0.00000E+00
    0.00000E+00         0.00000E+00        -0.25366E-08
 
   -0.81837E+06         0.20706E+06         0.00000E+00
    0.20706E+06        -0.62363E+08         0.00000E+00
    0.00000E+00         0.00000E+00        -0.25369E-08
 
   -0.10070E+07         0.69320E+05         0.00000E+00
    0.69320E+05        -0.62412E+08         0.00000E+00
    0.00000E+00         0.00000E+00        -0.43130E-07
 
    0.32873E+06         0.20928E+05         0.00000E+00
    0.20928E+05        -0.47627E+08         0.00000E+00
    0.00000E+00         0.00000E+00        -0.11369E-12
 
    0.27587E+06         0.62719E+05         0.00000E+00
    0.62719E+05        -0.47640E+08         0.00000E+00
    0.00000E+00         0.00000E+00        -0.25368E-08
 
    0.23687E+06         0.10390E+06         0.00000E+00
    0.10390E+06        -0.47667E+08         0.00000E+00
    0.00000E+00         0.00000E+00         0.00000E+00
 
    0.20856E+06         0.14362E+06         0.00000E+00
    0.14362E+06        -0.47707E+08         0.00000E+00
    0.00000E+00         0.00000E+00        -0.25370E-08
 
    0.18769E+06         0.18148E+06         0.00000E+00
    0.18148E+06        -0.47758E+08         0.00000E+00
    0.00000E+00         0.00000E+00         0.50741E-08
 
    0.17176E+06         0.21760E+06         0.00000E+00
    0.21760E+06        -0.47818E+08         0.00000E+00
    0.00000E+00         0.00000E+00        -0.17759E-07
 
    0.15911E+06         0.25216E+06         0.00000E+00
    0.25216E+06        -0.47884E+08         0.00000E+00
    0.00000E+00         0.00000E+00        -0.10148E-07
 
    0.14865E+06         0.28528E+06         0.00000E+00
    0.28528E+06        -0.47955E+08         0.00000E+00
    0.00000E+00         0.00000E+00        -0.76111E-08
 
    0.13968E+06         0.31699E+06         0.00000E+00
    0.31699E+06        -0.48029E+08         0.00000E+00
    0.00000E+00         0.00000E+00        -0.17759E-07
 
    0.13180E+06         0.34731E+06         0.00000E+00
    0.34731E+06        -0.48106E+08         0.00000E+00
    0.00000E+00         0.00000E+00        -0.25370E-08
 
    0.12474E+06         0.37624E+06         0.00000E+00
    0.37624E+06        -0.48184E+08         0.00000E+00
    0.00000E+00         0.00000E+00        -0.10148E-07
 
    0.11836E+06         0.40381E+06         0.00000E+00
    0.40381E+06        -0.48263E+08         0.00000E+00
    0.00000E+00         0.00000E+00        -0.25370E-08
 
    0.11257E+06         0.43005E+06         0.00000E+00
    0.43005E+06        -0.48343E+08         0.00000E+00
    0.00000E+00         0.00000E+00        -0.50741E-08
 
    0.10734E+06         0.45501E+06         0.00000E+00
    0.45501E+06        -0.48423E+08         0.00000E+00
    0.00000E+00         0.00000E+00         0.25370E-08
 
    0.10264E+06         0.47878E+06         0.00000E+00
    0.47878E+06        -0.48504E+08         0.00000E+00
    0.00000E+00         0.00000E+00        -0.25370E-08
 
    0.98447E+05         0.50144E+06         0.00000E+00
    0.50144E+06        -0.48585E+08         0.00000E+00
    0.00000E+00         0.00000E+00        -0.50741E-08
 
    0.94752E+05         0.52308E+06         0.00000E+00
    0.52308E+06        -0.48666E+08         0.00000E+00
    0.00000E+00         0.00000E+00        -0.22833E-07
 
    0.91537E+05         0.54380E+06         0.00000E+00
    0.54380E+06        -0.48747E+08         0.00000E+00
    0.00000E+00         0.00000E+00         0.50741E-08
 
    0.88781E+05         0.56371E+06         0.00000E+00
    0.56371E+06        -0.48828E+08         0.00000E+00
    0.00000E+00         0.00000E+00        -0.76111E-08
 
    0.86463E+05         0.58290E+06         0.00000E+00
    0.58290E+06        -0.48910E+08         0.00000E+00
    0.00000E+00         0.00000E+00         0.25370E-08
 
    0.84557E+05         0.60148E+06         0.00000E+00
    0.60148E+06        -0.48993E+08         0.00000E+00
    0.00000E+00         0.00000E+00         0.25370E-08
 
    0.83037E+05         0.61953E+06         0.00000E+00
    0.61953E+06        -0.49076E+08         0.00000E+00
    0.00000E+00         0.00000E+00         0.76111E-08
 
    0.81873E+05         0.63715E+06         0.00000E+00
    0.63715E+06        -0.49160E+08         0.00000E+00
    0.00000E+00         0.00000E+00        -0.50741E-08
 
    0.81037E+05         0.65442E+06         0.00000E+00
    0.65442E+06        -0.49245E+08         0.00000E+00
    0.00000E+00         0.00000E+00         0.00000E+00
 
    0.80500E+05         0.67142E+06         0.00000E+00
    0.67142E+06        -0.49331E+08         0.00000E+00
    0.00000E+00         0.00000E+00        -0.50741E-08
 
    0.80233E+05         0.68822E+06         0.00000E+00
    0.68822E+06        -0.49418E+08         0.00000E+00
    0.00000E+00         0.00000E+00         0.50741E-08
 
    0.80208E+05         0.70488E+06         0.00000E+00
    0.70488E+06        -0.49507E+08         0.00000E+00
    0.00000E+00         0.00000E+00        -0.50741E-08
 
    0.80399E+05         0.72145E+06         0.00000E+00
    0.72145E+06        -0.49596E+08         0.00000E+00
    0.00000E+00         0.00000E+00        -0.25370E-08
 
    0.80779E+05         0.73799E+06         0.00000E+00
    0.73799E+06        -0.49688E+08         0.00000E+00
    0.00000E+00         0.00000E+00         0.00000E+00
 
    0.81326E+05         0.75454E+06         0.00000E+00
    0.75454E+06        -0.49780E+08         0.00000E+00
    0.00000E+00         0.00000E+00        -0.50741E-08
 
    0.82017E+05         0.77115E+06         0.00000E+00
    0.77115E+06        -0.49874E+08         0.00000E+00
    0.00000E+00         0.00000E+00        -0.10148E-07
 
    0.82830E+05         0.78783E+06         0.00000E+00
    0.78783E+06        -0.49970E+08         0.00000E+00
    0.00000E+00         0.00000E+00        -0.50741E-08
 
    0.83746E+05         0.80463E+06         0.00000E+00
    0.80463E+06        -0.50068E+08         0.00000E+00
    0.00000E+00         0.00000E+00         0.76111E-08
 
    0.84747E+05         0.82156E+06         0.00000E+00
    0.82156E+06        -0.50167E+08         0.00000E+00
    0.00000E+00         0.00000E+00         0.25370E-08
 
    0.85815E+05         0.83865E+06         0.00000E+00
    0.83865E+06        -0.50269E+08         0.00000E+00
    0.00000E+00         0.00000E+00        -0.50741E-08
 
    0.86936E+05         0.85591E+06         0.00000E+00
    0.85591E+06        -0.50372E+08         0.00000E+00
    0.00000E+00         0.00000E+00        -0.32981E-07
 
    0.88094E+05         0.87336E+06         0.00000E+00
    0.87336E+06        -0.50478E+08         0.00000E+00
    0.00000E+00         0.00000E+00        -0.76111E-08
 
    0.89275E+05         0.89099E+06         0.00000E+00
    0.89099E+06        -0.50586E+08         0.00000E+00
    0.00000E+00         0.00000E+00         0.00000E+00
 
    0.90467E+05         0.90883E+06         0.00000E+00
    0.90883E+06        -0.50696E+08         0.00000E+00
    0.00000E+00         0.00000E+00         0.00000E+00
 
    0.91657E+05         0.92687E+06         0.00000E+00
    0.92687E+06        -0.50808E+08         0.00000E+00
    0.00000E+00         0.00000E+00        -0.12685E-07
 
    0.92832E+05         0.94510E+06         0.00000E+00
    0.94510E+06        -0.50922E+08         0.00000E+00
    0.00000E+00         0.00000E+00        -0.76111E-08
 
    0.93983E+05         0.96354E+06         0.00000E+00
    0.96354E+06        -0.51039E+08         0.00000E+00
    0.00000E+00         0.00000E+00         0.50741E-08
 
    0.95097E+05         0.98217E+06         0.00000E+00
    0.98217E+06        -0.51159E+08         0.00000E+00
    0.00000E+00         0.00000E+00         0.12685E-07
 
    0.96165E+05         0.10010E+07         0.00000E+00
    0.10010E+07        -0.51281E+08         0.00000E+00
    0.00000E+00         0.00000E+00         0.76111E-08
 
    0.97175E+05         0.10200E+07         0.00000E+00
    0.10200E+07        -0.51405E+08         0.00000E+00
    0.00000E+00         0.00000E+00        -0.50736E-08
 
    0.98117E+05         0.10391E+07         0.00000E+00
    0.10391E+07        -0.51532E+08         0.00000E+00
    0.00000E+00         0.00000E+00        -0.25370E-08
 
    0.98980E+05         0.10584E+07         0.00000E+00
    0.10584E+07        -0.51662E+08         0.00000E+00
    0.00000E+00         0.00000E+00         0.25370E-08
 
    0.99754E+05         0.10779E+07         0.00000E+00
    0.10779E+07        -0.51795E+08         0.00000E+00
    0.00000E+00         0.00000E+00        -0.25370E-08
 
    0.10043E+06         0.10974E+07         0.00000E+00
    0.10974E+07        -0.51930E+08         0.00000E+00
    0.00000E+00         0.00000E+00         0.00000E+00
 
    0.10099E+06         0.11170E+07         0.00000E+00
    0.11170E+07        -0.52069E+08         0.00000E+00
    0.00000E+00         0.00000E+00         0.12685E-07
 
    0.10143E+06         0.11367E+07         0.00000E+00
    0.11367E+07        -0.52210E+08         0.00000E+00
    0.00000E+00         0.00000E+00         0.12685E-07
 
    0.10173E+06         0.11565E+07         0.00000E+00
    0.11565E+07        -0.52354E+08         0.00000E+00
    0.00000E+00         0.00000E+00        -0.12685E-07
 
    0.10189E+06         0.11762E+07         0.00000E+00
    0.11762E+07        -0.52501E+08         0.00000E+00
    0.00000E+00         0.00000E+00        -0.76111E-08
 
    0.10188E+06         0.11959E+07         0.00000E+00
    0.11959E+07        -0.52651E+08         0.00000E+00
    0.00000E+00         0.00000E+00        -0.15222E-07
 
    0.10170E+06         0.12156E+07         0.00000E+00
    0.12156E+07        -0.52804E+08         0.00000E+00
    0.00000E+00         0.00000E+00         0.00000E+00
 
    0.10132E+06         0.12351E+07         0.00000E+00
    0.12351E+07        -0.52961E+08         0.00000E+00
    0.00000E+00         0.00000E+00        -0.76111E-08
 
    0.10074E+06         0.12545E+07         0.00000E+00
    0.12545E+07        -0.53120E+08         0.00000E+00
    0.00000E+00         0.00000E+00        -0.50741E-08
 
    0.99924E+05         0.12737E+07         0.00000E+00
    0.12737E+07        -0.53283E+08         0.00000E+00
    0.00000E+00         0.00000E+00        -0.90949E-12
 
    0.98865E+05         0.12927E+07         0.00000E+00
    0.12927E+07        -0.53449E+08         0.00000E+00
    0.00000E+00         0.00000E+00         0.10148E-07
 
    0.97538E+05         0.13114E+07         0.00000E+00
    0.13114E+07        -0.53618E+08         0.00000E+00
    0.00000E+00         0.00000E+00         0.00000E+00
 
    0.95919E+05         0.13297E+07         0.00000E+00
    0.13297E+07        -0.53790E+08         0.00000E+00
    0.00000E+00         0.00000E+00         0.76116E-08
 
    0.93984E+05         0.13475E+07         0.00000E+00
    0.13475E+07        -0.53966E+08         0.00000E+00
    0.00000E+00         0.00000E+00        -0.76107E-08
 
    0.91703E+05         0.13649E+07         0.00000E+00
    0.13649E+07        -0.54145E+08         0.00000E+00
    0.00000E+00         0.00000E+00         0.00000E+00
 
    0.89046E+05         0.13817E+07         0.00000E+00
    0.13817E+07        -0.54327E+08         0.00000E+00
    0.00000E+00         0.00000E+00        -0.25375E-08
 
    0.85980E+05         0.13978E+07         0.00000E+00
    0.13978E+07        -0.54513E+08         0.00000E+00
    0.00000E+00         0.00000E+00         0.00000E+00
 
    0.82469E+05         0.14131E+07         0.00000E+00
    0.14131E+07        -0.54702E+08         0.00000E+00
    0.00000E+00         0.00000E+00        -0.76107E-08
 
    0.78470E+05         0.14276E+07         0.00000E+00
    0.14276E+07        -0.54895E+08         0.00000E+00
    0.00000E+00         0.00000E+00        -0.90949E-12
 
    0.73941E+05         0.14411E+07         0.00000E+00
    0.14411E+07        -0.55091E+08         0.00000E+00
    0.00000E+00         0.00000E+00         0.12686E-07
 
    0.68832E+05         0.14535E+07         0.00000E+00
    0.14535E+07        -0.55291E+08         0.00000E+00
    0.00000E+00         0.00000E+00        -0.25375E-08
 
    0.63091E+05         0.14646E+07         0.00000E+00
    0.14646E+07        -0.55494E+08         0.00000E+00
    0.00000E+00         0.00000E+00         0.90949E-12
 
    0.56661E+05         0.14743E+07         0.00000E+00
    0.14743E+07        -0.55701E+08         0.00000E+00
    0.00000E+00         0.00000E+00        -0.50741E-08
 
    0.49479E+05         0.14824E+07         0.00000E+00
    0.14824E+07        -0.55912E+08         0.00000E+00
    0.00000E+00         0.00000E+00        -0.30444E-07
 
    0.41479E+05         0.14888E+07         0.00000E+00
    0.14888E+07        -0.56126E+08         0.00000E+00
    0.00000E+00         0.00000E+00        -0.25375E-08
 
    0.32588E+05         0.14932E+07         0.00000E+00
    0.14932E+07        -0.56345E+08         0.00000E+00
    0.00000E+00         0.00000E+00         0.12686E-07
 
    0.22733E+05         0.14955E+07         0.00000E+00
    0.14955E+07        -0.56567E+08         0.00000E+00
    0.00000E+00         0.00000E+00         0.25375E-08
 
    0.11833E+05         0.14953E+07         0.00000E+00
    0.14953E+07        -0.56793E+08         0.00000E+00
    0.00000E+00         0.00000E+00        -0.10148E-07
 
   -0.19230E+03         0.14925E+07         0.00000E+00
    0.14925E+07        -0.57023E+08         0.00000E+00
    0.00000E+00         0.00000E+00         0.15222E-07
 
   -0.13427E+05         0.14868E+07         0.00000E+00
    0.14868E+07        -0.57256E+08         0.00000E+00
    0.00000E+00         0.00000E+00         0.00000E+00
 
   -0.27953E+05         0.14778E+07         0.00000E+00
    0.14778E+07        -0.57495E+08         0.00000E+00
    0.00000E+00         0.00000E+00         0.00000E+00
 
   -0.43852E+05         0.14653E+07         0.00000E+00
    0.14653E+07        -0.57737E+08         0.00000E+00
    0.00000E+00         0.00000E+00         0.50741E-08
 
   -0.61200E+05         0.14490E+07         0.00000E+00
    0.14490E+07        -0.57984E+08         0.00000E+00
    0.00000E+00         0.00000E+00        -0.35519E-07
 
   -0.80064E+05         0.14284E+07         0.00000E+00
    0.14284E+07        -0.58234E+08         0.00000E+00
    0.00000E+00         0.00000E+00         0.17760E-07
 
   -0.10050E+06         0.14033E+07         0.00000E+00
    0.14033E+07        -0.58490E+08         0.00000E+00
    0.00000E+00         0.00000E+00         0.00000E+00
 
   -0.12256E+06         0.13733E+07         0.00000E+00
    0.13733E+07        -0.58749E+08         0.00000E+00
    0.00000E+00         0.00000E+00         0.10148E-07
 
   -0.14628E+06         0.13380E+07         0.00000E+00
    0.13380E+07        -0.59013E+08         0.00000E+00
    0.00000E+00         0.00000E+00         0.00000E+00
 
   -0.17167E+06         0.12972E+07         0.00000E+00
    0.12972E+07        -0.59281E+08         0.00000E+00
    0.00000E+00         0.00000E+00        -0.50732E-08
 
   -0.19874E+06         0.12505E+07         0.00000E+00
    0.12505E+07        -0.59552E+08         0.00000E+00
    0.00000E+00         0.00000E+00        -0.32981E-07
 
   -0.22750E+06         0.11977E+07         0.00000E+00
    0.11977E+07        -0.59826E+08         0.00000E+00
    0.00000E+00         0.00000E+00        -0.17759E-07
 
   -0.25801E+06         0.11386E+07         0.00000E+00
    0.11386E+07        -0.60103E+08         0.00000E+00
    0.00000E+00         0.00000E+00        -0.10148E-07
 
   -0.29035E+06         0.10730E+07         0.00000E+00
    0.10730E+07        -0.60380E+08         0.00000E+00
    0.00000E+00         0.00000E+00         0.00000E+00
 
   -0.32475E+06         0.10010E+07         0.00000E+00
    0.10010E+07        -0.60656E+08         0.00000E+00
    0.00000E+00         0.00000E+00         0.12686E-07
 
   -0.36168E+06         0.92244E+06         0.00000E+00
    0.92244E+06        -0.60929E+08         0.00000E+00
    0.00000E+00         0.00000E+00         0.76116E-08
 
   -0.40197E+06         0.83751E+06         0.00000E+00
    0.83751E+06        -0.61196E+08         0.00000E+00
    0.00000E+00         0.00000E+00         0.20297E-07
 
   -0.44709E+06         0.74627E+06         0.00000E+00
    0.74627E+06        -0.61451E+08         0.00000E+00
    0.00000E+00         0.00000E+00         0.25375E-08
 
   -0.49943E+06         0.64868E+06         0.00000E+00
    0.64868E+06        -0.61691E+08         0.00000E+00
    0.00000E+00         0.00000E+00        -0.32981E-07
 
   -0.56283E+06         0.54450E+06         0.00000E+00
    0.54450E+06        -0.61907E+08         0.00000E+00
    0.00000E+00         0.00000E+00         0.00000E+00
 
   -0.64324E+06         0.43319E+06         0.00000E+00
    0.43319E+06        -0.62093E+08         0.00000E+00
    0.00000E+00         0.00000E+00        -0.76111E-08
 
   -0.74956E+06         0.31456E+06         0.00000E+00
    0.31456E+06        -0.62239E+08         0.00000E+00
    0.00000E+00         0.00000E+00         0.22737E-12
 
   -0.89347E+06         0.19018E+06         0.00000E+00
    0.19018E+06        -0.62337E+08         0.00000E+00
    0.00000E+00         0.00000E+00        -0.25371E-08
 
   -0.10863E+07         0.63457E+05         0.00000E+00
    0.63457E+05        -0.62386E+08         0.00000E+00
    0.00000E+00         0.00000E+00         0.25370E-08
 
    0.35252E+06         0.19391E+05         0.00000E+00
    0.19391E+05        -0.47635E+08         0.00000E+00
    0.00000E+00         0.00000E+00        -0.10148E-07
 
    0.29872E+06         0.58257E+05         0.00000E+00
    0.58257E+05        -0.47648E+08         0.00000E+00
    0.00000E+00         0.00000E+00        -0.76110E-08
 
    0.25816E+06         0.96982E+05         0.00000E+00
    0.96982E+05        -0.47675E+08         0.00000E+00
    0.00000E+00         0.00000E+00         0.50741E-08
 
    0.22814E+06         0.13488E+06         0.00000E+00
    0.13488E+06        -0.47715E+08         0.00000E+00
    0.00000E+00         0.00000E+00        -0.12685E-07
 
    0.20567E+06         0.17149E+06         0.00000E+00
    0.17149E+06        -0.47765E+08         0.00000E+00
    0.00000E+00         0.00000E+00         0.25370E-08
 
    0.18834E+06         0.20676E+06         0.00000E+00
    0.20676E+06        -0.47825E+08         0.00000E+00
    0.00000E+00         0.00000E+00         0.12685E-07
 
    0.17446E+06         0.24073E+06         0.00000E+00
    0.24073E+06        -0.47891E+08         0.00000E+00
    0.00000E+00         0.00000E+00        -0.25370E-07
 
    0.16291E+06         0.27342E+06         0.00000E+00
    0.27342E+06        -0.47961E+08         0.00000E+00
    0.00000E+00         0.00000E+00         0.00000E+00
 
    0.15298E+06         0.30480E+06         0.00000E+00
    0.30480E+06        -0.48036E+08         0.00000E+00
    0.00000E+00         0.00000E+00        -0.50741E-08
 
    0.14422E+06         0.33483E+06         0.00000E+00
    0.33483E+06        -0.48112E+08         0.00000E+00
    0.00000E+00         0.00000E+00         0.00000E+00
 
    0.13638E+06         0.36350E+06         0.00000E+00
    0.36350E+06        -0.48190E+08         0.00000E+00
    0.00000E+00         0.00000E+00        -0.76111E-08
 
    0.12929E+06         0.39082E+06         0.00000E+00
    0.39082E+06        -0.48269E+08         0.00000E+00
    0.00000E+00         0.00000E+00         0.00000E+00
 
    0.12288E+06         0.41681E+06         0.00000E+00
    0.41681E+06        -0.48348E+08         0.00000E+00
    0.00000E+00         0.00000E+00         0.12685E-07
 
    0.11710E+06         0.44152E+06         0.00000E+00
    0.44152E+06        -0.48428E+08         0.00000E+00
    0.00000E+00         0.00000E+00        -0.76111E-08
 
    0.11191E+06         0.46502E+06         0.00000E+00
    0.46502E+06        -0.48509E+08         0.00000E+00
    0.00000E+00         0.00000E+00         0.15222E-07
 
    0.10730E+06         0.48739E+06         0.00000E+00
    0.48739E+06        -0.48589E+08         0.00000E+00
    0.00000E+00         0.00000E+00         0.50741E-08
 
    0.10323E+06         0.50874E+06         0.00000E+00
    0.50874E+06        -0.48670E+08         0.00000E+00
    0.00000E+00         0.00000E+00         0.76111E-08
 
    0.99703E+05         0.52917E+06         0.00000E+00
    0.52917E+06        -0.48751E+08         0.00000E+00
    0.00000E+00         0.00000E+00        -0.25370E-08
 
    0.96683E+05         0.54877E+06         0.00000E+00
    0.54877E+06        -0.48832E+08         0.00000E+00
    0.00000E+00         0.00000E+00         0.00000E+00
 
    0.94146E+05         0.56764E+06         0.00000E+00
    0.56764E+06        -0.48914E+08         0.00000E+00
    0.00000E+00         0.00000E+00         0.25370E-08
 
    0.92064E+05         0.58589E+06         0.00000E+00
    0.58589E+06        -0.48997E+08         0.00000E+00
    0.00000E+00         0.00000E+00        -0.17759E-07
 
    0.90405E+05         0.60362E+06         0.00000E+00
    0.60362E+06        -0.49080E+08         0.00000E+00
    0.00000E+00         0.00000E+00        -0.38056E-07
 
    0.89137E+05         0.62090E+06         0.00000E+00
    0.62090E+06        -0.49164E+08         0.00000E+00
    0.00000E+00         0.00000E+00        -0.17759E-07
 
    0.88228E+05         0.63783E+06         0.00000E+00
    0.63783E+06        -0.49249E+08         0.00000E+00
    0.00000E+00         0.00000E+00         0.00000E+00
 
    0.87646E+05         0.65448E+06         0.00000E+00
    0.65448E+06        -0.49335E+08         0.00000E+00
    0.00000E+00         0.00000E+00         0.00000E+00
 
    0.87359E+05         0.67092E+06         0.00000E+00
    0.67092E+06        -0.49422E+08         0.00000E+00
    0.00000E+00         0.00000E+00         0.00000E+00
 
    0.87337E+05         0.68721E+06         0.00000E+00
    0.68721E+06        -0.49510E+08         0.00000E+00
    0.00000E+00         0.00000E+00        -0.10148E-07
 
    0.87549E+05         0.70342E+06         0.00000E+00
    0.70342E+06        -0.49600E+08         0.00000E+00
    0.00000E+00         0.00000E+00        -0.76111E-08
 
    0.87968E+05         0.71958E+06         0.00000E+00
    0.71958E+06        -0.49691E+08         0.00000E+00
    0.00000E+00         0.00000E+00         0.25370E-08
 
    0.88568E+05         0.73575E+06         0.00000E+00
    0.73575E+06        -0.49783E+08         0.00000E+00
    0.00000E+00         0.00000E+00         0.50741E-08
 
    0.89325E+05         0.75196E+06         0.00000E+00
    0.75196E+06        -0.49878E+08         0.00000E+00
    0.00000E+00         0.00000E+00         0.50741E-08
 
    0.90214E+05         0.76825E+06         0.00000E+00
    0.76825E+06        -0.49974E+08         0.00000E+00
    0.00000E+00         0.00000E+00         0.17759E-07
 
    0.91216E+05         0.78464E+06         0.00000E+00
    0.78464E+06        -0.50071E+08         0.00000E+00
    0.00000E+00         0.00000E+00        -0.50741E-08
 
    0.92310E+05         0.80116E+06         0.00000E+00
    0.80116E+06        -0.50171E+08         0.00000E+00
    0.00000E+00         0.00000E+00        -0.27907E-07
 
    0.93477E+05         0.81783E+06         0.00000E+00
    0.81783E+06        -0.50272E+08         0.00000E+00
    0.00000E+00         0.00000E+00        -0.15222E-07
 
    0.94701E+05         0.83466E+06         0.00000E+00
    0.83466E+06        -0.50376E+08         0.00000E+00
    0.00000E+00         0.00000E+00        -0.50741E-08
 
    0.95965E+05         0.85166E+06         0.00000E+00
    0.85166E+06        -0.50481E+08         0.00000E+00
    0.00000E+00         0.00000E+00        -0.10148E-07
 
    0.97254E+05         0.86885E+06         0.00000E+00
    0.86885E+06        -0.50589E+08         0.00000E+00
    0.00000E+00         0.00000E+00        -0.76111E-08
 
    0.98555E+05         0.88623E+06         0.00000E+00
    0.88623E+06        -0.50699E+08         0.00000E+00
    0.00000E+00         0.00000E+00        -0.50741E-08
 
    0.99853E+05         0.90381E+06         0.00000E+00
    0.90381E+06        -0.50811E+08         0.00000E+00
    0.00000E+00         0.00000E+00        -0.12685E-07
 
    0.10114E+06         0.92158E+06         0.00000E+00
    0.92158E+06        -0.50926E+08         0.00000E+00
    0.00000E+00         0.00000E+00         0.10148E-07
 
    0.10239E+06         0.93953E+06         0.00000E+00
    0.93953E+06        -0.51043E+08         0.00000E+00
    0.00000E+00         0.00000E+00        -0.10148E-07
 
    0.10361E+06         0.95768E+06         0.00000E+00
    0.95768E+06        -0.51162E+08         0.00000E+00
    0.00000E+00         0.00000E+00        -0.76111E-08
 
    0.10477E+06         0.97600E+06         0.00000E+00
    0.97600E+06        -0.51284E+08         0.00000E+00
    0.00000E+00         0.00000E+00         0.50741E-08
 
    0.10587E+06         0.99449E+06         0.00000E+00
    0.99449E+06        -0.51409E+08         0.00000E+00
    0.00000E+00         0.00000E+00        -0.27907E-07
 
    0.10690E+06         0.10131E+07         0.00000E+00
    0.10131E+07        -0.51536E+08         0.00000E+00
    0.00000E+00         0.00000E+00         0.10148E-07
 
    0.10784E+06         0.10319E+07         0.00000E+00
    0.10319E+07        -0.51666E+08         0.00000E+00
    0.00000E+00         0.00000E+00        -0.15222E-07
 
    0.10869E+06         0.10508E+07         0.00000E+00
    0.10508E+07        -0.51799E+08         0.00000E+00
    0.00000E+00         0.00000E+00        -0.10148E-07
 
    0.10942E+06         0.10699E+07         0.00000E+00
    0.10699E+07        -0.51934E+08         0.00000E+00
    0.00000E+00         0.00000E+00        -0.25370E-08
 
    0.11004E+06         0.10890E+07         0.00000E+00
    0.10890E+07        -0.52073E+08         0.00000E+00
    0.00000E+00         0.00000E+00         0.50741E-08
 
    0.11052E+06         0.11081E+07         0.00000E+00
    0.11081E+07        -0.52214E+08         0.00000E+00
    0.00000E+00         0.00000E+00         0.25370E-08
 
    0.11085E+06         0.11273E+07         0.00000E+00
    0.11273E+07        -0.52358E+08         0.00000E+00
    0.00000E+00         0.00000E+00        -0.76111E-08
 
    0.11102E+06         0.11465E+07         0.00000E+00
    0.11465E+07        -0.52505E+08         0.00000E+00
    0.00000E+00         0.00000E+00         0.00000E+00
 
    0.11102E+06         0.11657E+07         0.00000E+00
    0.11657E+07        -0.52655E+08         0.00000E+00
    0.00000E+00         0.00000E+00        -0.22833E-07
 
    0.11082E+06         0.11848E+07         0.00000E+00
    0.11848E+07        -0.52808E+08         0.00000E+00
    0.00000E+00         0.00000E+00        -0.50736E-08
 
    0.11041E+06         0.12038E+07         0.00000E+00
    0.12038E+07        -0.52965E+08         0.00000E+00
    0.00000E+00         0.00000E+00        -0.30444E-07
 
    0.10978E+06         0.12226E+07         0.00000E+00
    0.12226E+07        -0.53124E+08         0.00000E+00
    0.00000E+00         0.00000E+00        -0.50741E-08
 
    0.10890E+06         0.12413E+07         0.00000E+00
    0.12413E+07        -0.53286E+08         0.00000E+00
    0.00000E+00         0.00000E+00         0.12686E-07
 
    0.10775E+06         0.12597E+07         0.00000E+00
    0.12597E+07        -0.53452E+08         0.00000E+00
    0.00000E+00         0.00000E+00         0.50741E-08
 
    0.10630E+06         0.12779E+07         0.00000E+00
    0.12779E+07        -0.53621E+08         0.00000E+00
    0.00000E+00         0.00000E+00         0.50741E-08
 
    0.10454E+06         0.12956E+07         0.00000E+00
    0.12956E+07        -0.53794E+08         0.00000E+00
    0.00000E+00         0.00000E+00         0.25375E-08
 
    0.10244E+06         0.13129E+07         0.00000E+00
    0.13129E+07        -0.53969E+08         0.00000E+00
    0.00000E+00         0.00000E+00         0.12686E-07
 
    0.99961E+05         0.13298E+07         0.00000E+00
    0.13298E+07        -0.54148E+08         0.00000E+00
    0.00000E+00         0.00000E+00        -0.12686E-07
 
    0.97073E+05         0.13460E+07         0.00000E+00
    0.13460E+07        -0.54330E+08         0.00000E+00
    0.00000E+00         0.00000E+00         0.10148E-07
 
    0.93740E+05         0.13616E+07         0.00000E+00
    0.13616E+07        -0.54516E+08         0.00000E+00
    0.00000E+00         0.00000E+00         0.50732E-08
 
    0.89922E+05         0.13765E+07         0.00000E+00
    0.13765E+07        -0.54705E+08         0.00000E+00
    0.00000E+00         0.00000E+00        -0.25375E-08
 
    0.85575E+05         0.13905E+07         0.00000E+00
    0.13905E+07        -0.54898E+08         0.00000E+00
    0.00000E+00         0.00000E+00        -0.76107E-08
 
    0.80650E+05         0.14035E+07         0.00000E+00
    0.14035E+07        -0.55094E+08         0.00000E+00
    0.00000E+00         0.00000E+00        -0.22834E-07
 
    0.75095E+05         0.14154E+07         0.00000E+00
    0.14154E+07        -0.55293E+08         0.00000E+00
    0.00000E+00         0.00000E+00        -0.10148E-07
 
    0.68852E+05         0.14261E+07         0.00000E+00
    0.14261E+07        -0.55496E+08         0.00000E+00
    0.00000E+00         0.00000E+00         0.22834E-07
 
    0.61859E+05         0.14353E+07         0.00000E+00
    0.14353E+07        -0.55703E+08         0.00000E+00
    0.00000E+00         0.00000E+00        -0.20296E-07
 
    0.54047E+05         0.14431E+07         0.00000E+00
    0.14431E+07        -0.55913E+08         0.00000E+00
    0.00000E+00         0.00000E+00         0.27908E-07
 
    0.45344E+05         0.14491E+07         0.00000E+00
    0.14491E+07        -0.56127E+08         0.00000E+00
    0.00000E+00         0.00000E+00         0.15222E-07
 
    0.35671E+05         0.14531E+07         0.00000E+00
    0.14531E+07        -0.56345E+08         0.00000E+00
    0.00000E+00         0.00000E+00        -0.25375E-08
 
    0.24947E+05         0.14551E+07         0.00000E+00
    0.14551E+07        -0.56567E+08         0.00000E+00
    0.00000E+00         0.00000E+00        -0.17760E-07
 
    0.13082E+05         0.14546E+07         0.00000E+00
    0.14546E+07        -0.56792E+08         0.00000E+00
    0.00000E+00         0.00000E+00         0.22833E-07
 
   -0.11681E+02         0.14516E+07         0.00000E+00
    0.14516E+07        -0.57022E+08         0.00000E+00
    0.00000E+00         0.00000E+00        -0.25366E-08
 
   -0.14428E+05         0.14456E+07         0.00000E+00
    0.14456E+07        -0.57255E+08         0.00000E+00
    0.00000E+00         0.00000E+00        -0.90949E-12
 
   -0.30258E+05         0.14364E+07         0.00000E+00
    0.14364E+07        -0.57492E+08         0.00000E+00
    0.00000E+00         0.00000E+00        -0.50732E-08
 
   -0.47593E+05         0.14237E+07         0.00000E+00
    0.14237E+07        -0.57734E+08         0.00000E+00
    0.00000E+00         0.00000E+00         0.50741E-08
 
   -0.66521E+05         0.14072E+07         0.00000E+00
    0.14072E+07        -0.57980E+08         0.00000E+00
    0.00000E+00         0.00000E+00        -0.25371E-07
 
   -0.87119E+05         0.13866E+07         0.00000E+00
    0.13866E+07        -0.58230E+08         0.00000E+00
    0.00000E+00         0.00000E+00        -0.76107E-08
 
   -0.10946E+06         0.13614E+07         0.00000E+00
    0.13614E+07        -0.58484E+08         0.00000E+00
    0.00000E+00         0.00000E+00         0.12686E-07
 
   -0.13359E+06         0.13313E+07         0.00000E+00
    0.13313E+07        -0.58743E+08         0.00000E+00
    0.00000E+00         0.00000E+00        -0.32981E-07
 
   -0.15957E+06         0.12960E+07         0.00000E+00
    0.12960E+07        -0.59006E+08         0.00000E+00
    0.00000E+00         0.00000E+00        -0.76116E-08
 
   -0.18741E+06         0.12552E+07         0.00000E+00
    0.12552E+07        -0.59272E+08         0.00000E+00
    0.00000E+00         0.00000E+00         0.25371E-07
 
   -0.21715E+06         0.12086E+07         0.00000E+00
    0.12086E+07        -0.59542E+08         0.00000E+00
    0.00000E+00         0.00000E+00         0.15222E-07
 
   -0.24880E+06         0.11558E+07         0.00000E+00
    0.11558E+07        -0.59815E+08         0.00000E+00
    0.00000E+00         0.00000E+00        -0.50741E-08
 
   -0.28242E+06         0.10968E+07         0.00000E+00
    0.10968E+07        -0.60090E+08         0.00000E+00
    0.00000E+00         0.00000E+00        -0.35518E-07
 
   -0.31811E+06         0.10314E+07         0.00000E+00
    0.10314E+07        -0.60366E+08         0.00000E+00
    0.00000E+00         0.00000E+00        -0.15222E-07
 
   -0.35613E+06         0.95957E+06         0.00000E+00
    0.95957E+06        -0.60641E+08         0.00000E+00
    0.00000E+00         0.00000E+00         0.12685E-07
 
   -0.39696E+06         0.88143E+06         0.00000E+00
    0.88143E+06        -0.60913E+08         0.00000E+00
    0.00000E+00         0.00000E+00         0.15221E-07
 
   -0.44146E+06         0.79715E+06         0.00000E+00
    0.79715E+06        -0.61178E+08         0.00000E+00
    0.00000E+00         0.00000E+00        -0.48203E-07
 
   -0.49116E+06         0.70697E+06         0.00000E+00
    0.70697E+06        -0.61433E+08         0.00000E+00
    0.00000E+00         0.00000E+00         0.00000E+00
 
   -0.54852E+06         0.61108E+06         0.00000E+00
    0.61108E+06        -0.61671E+08         0.00000E+00
    0.00000E+00         0.00000E+00         0.50741E-08
 
   -0.61750E+06         0.50958E+06         0.00000E+00
    0.50958E+06        -0.61886E+08         0.00000E+00
    0.00000E+00         0.00000E+00        -0.17759E-07
 
   -0.70407E+06         0.40245E+06         0.00000E+00
    0.40245E+06        -0.62071E+08         0.00000E+00
    0.00000E+00         0.00000E+00         0.00000E+00
 
   -0.81690E+06         0.29010E+06         0.00000E+00
    0.29010E+06        -0.62215E+08         0.00000E+00
    0.00000E+00         0.00000E+00         0.22737E-12
 
   -0.96663E+06         0.17437E+06         0.00000E+00
    0.17437E+06        -0.62313E+08         0.00000E+00
    0.00000E+00         0.00000E+00        -0.25369E-08
 
   -0.11629E+07         0.58000E+05         0.00000E+00
    0.58000E+05        -0.62361E+08         0.00000E+00
    0.00000E+00         0.00000E+00        -0.25370E-07
 
    0.37564E+06         0.17943E+05         0.00000E+00
    0.17943E+05        -0.47642E+08         0.00000E+00
    0.00000E+00         0.00000E+00         0.17759E-07
 
    0.32104E+06         0.54037E+05         0.00000E+00
    0.54037E+05        -0.47656E+08         0.00000E+00
    0.00000E+00         0.00000E+00        -0.76111E-08
 
    0.27913E+06         0.90380E+05         0.00000E+00
    0.90380E+05        -0.47682E+08         0.00000E+00
    0.00000E+00         0.00000E+00         0.15222E-07
 
    0.24756E+06         0.12646E+06         0.00000E+00
    0.12646E+06        -0.47722E+08         0.00000E+00
    0.00000E+00         0.00000E+00         0.00000E+00
 
    0.22360E+06         0.16180E+06         0.00000E+00
    0.16180E+06        -0.47772E+08         0.00000E+00
    0.00000E+00         0.00000E+00         0.00000E+00
 
    0.20490E+06         0.19618E+06         0.00000E+00
    0.19618E+06        -0.47832E+08         0.00000E+00
    0.00000E+00         0.00000E+00         0.76111E-08
 
    0.18980E+06         0.22953E+06         0.00000E+00
    0.22953E+06        -0.47897E+08         0.00000E+00
    0.00000E+00         0.00000E+00         0.76111E-08
 
    0.17715E+06         0.26176E+06         0.00000E+00
    0.26176E+06        -0.47968E+08         0.00000E+00
    0.00000E+00         0.00000E+00        -0.76111E-08
 
    0.16623E+06         0.29278E+06         0.00000E+00
    0.29278E+06        -0.48042E+08         0.00000E+00
    0.00000E+00         0.00000E+00         0.25370E-08
 
    0.15659E+06         0.32252E+06         0.00000E+00
    0.32252E+06        -0.48118E+08         0.00000E+00
    0.00000E+00         0.00000E+00        -0.15222E-07
 
    0.14795E+06         0.35092E+06         0.00000E+00
    0.35092E+06        -0.48195E+08         0.00000E+00
    0.00000E+00         0.00000E+00        -0.76111E-08
 
    0.14015E+06         0.37797E+06         0.00000E+00
    0.37797E+06        -0.48274E+08         0.00000E+00
    0.00000E+00         0.00000E+00         0.22833E-07
 
    0.13311E+06         0.40369E+06         0.00000E+00
    0.40369E+06        -0.48353E+08         0.00000E+00
    0.00000E+00         0.00000E+00        -0.25370E-08
 
    0.12676E+06         0.42812E+06         0.00000E+00
    0.42812E+06        -0.48433E+08         0.00000E+00
    0.00000E+00         0.00000E+00        -0.15222E-07
 
    0.12108E+06         0.45134E+06         0.00000E+00
    0.45134E+06        -0.48513E+08         0.00000E+00
    0.00000E+00         0.00000E+00         0.50741E-08
 
    0.11604E+06         0.47343E+06         0.00000E+00
    0.47343E+06        -0.48593E+08         0.00000E+00
    0.00000E+00         0.00000E+00         0.17759E-07
 
    0.11161E+06         0.49448E+06         0.00000E+00
    0.49448E+06        -0.48674E+08         0.00000E+00
    0.00000E+00         0.00000E+00        -0.20296E-07
 
    0.10776E+06         0.51459E+06         0.00000E+00
    0.51459E+06        -0.48755E+08         0.00000E+00
    0.00000E+00         0.00000E+00        -0.20296E-07
 
    0.10448E+06         0.53387E+06         0.00000E+00
    0.53387E+06        -0.48836E+08         0.00000E+00
    0.00000E+00         0.00000E+00        -0.76111E-08
 
    0.10172E+06         0.55242E+06         0.00000E+00
    0.55242E+06        -0.48918E+08         0.00000E+00
    0.00000E+00         0.00000E+00        -0.15222E-07
 
    0.99466E+05         0.57034E+06         0.00000E+00
    0.57034E+06        -0.49000E+08         0.00000E+00
    0.00000E+00         0.00000E+00        -0.76111E-08
 
    0.97670E+05         0.58773E+06         0.00000E+00
    0.58773E+06        -0.49083E+08         0.00000E+00
    0.00000E+00         0.00000E+00        -0.32981E-07
 
    0.96300E+05         0.60467E+06         0.00000E+00
    0.60467E+06        -0.49167E+08         0.00000E+00
    0.00000E+00         0.00000E+00         0.20296E-07
 
    0.95321E+05         0.62125E+06         0.00000E+00
    0.62125E+06        -0.49252E+08         0.00000E+00
    0.00000E+00         0.00000E+00        -0.50741E-08
 
    0.94696E+05         0.63754E+06         0.00000E+00
    0.63754E+06        -0.49338E+08         0.00000E+00
    0.00000E+00         0.00000E+00        -0.10148E-07
 
    0.94391E+05         0.65362E+06         0.00000E+00
    0.65362E+06        -0.49425E+08         0.00000E+00
    0.00000E+00         0.00000E+00         0.00000E+00
 
    0.94371E+05         0.66955E+06         0.00000E+00
    0.66955E+06        -0.49513E+08         0.00000E+00
    0.00000E+00         0.00000E+00        -0.76111E-08
 
    0.94606E+05         0.68538E+06         0.00000E+00
    0.68538E+06        -0.49603E+08         0.00000E+00
    0.00000E+00         0.00000E+00        -0.50741E-08
 
    0.95065E+05         0.70116E+06         0.00000E+00
    0.70116E+06        -0.49694E+08         0.00000E+00
    0.00000E+00         0.00000E+00         0.27907E-07
 
    0.95719E+05         0.71694E+06         0.00000E+00
    0.71694E+06        -0.49787E+08         0.00000E+00
    0.00000E+00         0.00000E+00         0.15222E-07
 
    0.96542E+05         0.73276E+06         0.00000E+00
    0.73276E+06        -0.49881E+08         0.00000E+00
    0.00000E+00         0.00000E+00         0.22833E-07
 
    0.97509E+05         0.74865E+06         0.00000E+00
    0.74865E+06        -0.49977E+08         0.00000E+00
    0.00000E+00         0.00000E+00        -0.76111E-08
 
    0.98596E+05         0.76463E+06         0.00000E+00
    0.76463E+06        -0.50074E+08         0.00000E+00
    0.00000E+00         0.00000E+00        -0.25370E-07
 
    0.99783E+05         0.78073E+06         0.00000E+00
    0.78073E+06        -0.50174E+08         0.00000E+00
    0.00000E+00         0.00000E+00         0.50741E-08
 
    0.10105E+06         0.79698E+06         0.00000E+00
    0.79698E+06        -0.50276E+08         0.00000E+00
    0.00000E+00         0.00000E+00        -0.17759E-07
 
    0.10237E+06         0.81338E+06         0.00000E+00
    0.81338E+06        -0.50379E+08         0.00000E+00
    0.00000E+00         0.00000E+00        -0.50741E-08
 
    0.10374E+06         0.82994E+06         0.00000E+00
    0.82994E+06        -0.50485E+08         0.00000E+00
    0.00000E+00         0.00000E+00         0.50741E-08
 
    0.10514E+06         0.84669E+06         0.00000E+00
    0.84669E+06        -0.50593E+08         0.00000E+00
    0.00000E+00         0.00000E+00        -0.25370E-08
 
    0.10655E+06         0.86362E+06         0.00000E+00
    0.86362E+06        -0.50703E+08         0.00000E+00
    0.00000E+00         0.00000E+00         0.17759E-07
 
    0.10796E+06         0.88073E+06         0.00000E+00
    0.88073E+06        -0.50815E+08         0.00000E+00
    0.00000E+00         0.00000E+00         0.00000E+00
 
    0.10935E+06         0.89803E+06         0.00000E+00
    0.89803E+06        -0.50929E+08         0.00000E+00
    0.00000E+00         0.00000E+00        -0.27907E-07
 
    0.11070E+06         0.91551E+06         0.00000E+00
    0.91551E+06        -0.51046E+08         0.00000E+00
    0.00000E+00         0.00000E+00        -0.12685E-07
 
    0.11202E+06         0.93317E+06         0.00000E+00
    0.93317E+06        -0.51166E+08         0.00000E+00
    0.00000E+00         0.00000E+00         0.25370E-07
 
    0.11328E+06         0.95100E+06         0.00000E+00
    0.95100E+06        -0.51288E+08         0.00000E+00
    0.00000E+00         0.00000E+00        -0.76111E-08
 
    0.11448E+06         0.96899E+06         0.00000E+00
    0.96899E+06        -0.51413E+08         0.00000E+00
    0.00000E+00         0.00000E+00         0.12685E-07
 
    0.11559E+06         0.98713E+06         0.00000E+00
    0.98713E+06        -0.51540E+08         0.00000E+00
    0.00000E+00         0.00000E+00         0.12685E-07
 
    0.11661E+06         0.10054E+07         0.00000E+00
    0.10054E+07        -0.51670E+08         0.00000E+00
    0.00000E+00         0.00000E+00        -0.10148E-07
 
    0.11752E+06         0.10238E+07         0.00000E+00
    0.10238E+07        -0.51803E+08         0.00000E+00
    0.00000E+00         0.00000E+00        -0.10148E-07
 
    0.11832E+06         0.10423E+07         0.00000E+00
    0.10423E+07        -0.51938E+08         0.00000E+00
    0.00000E+00         0.00000E+00         0.00000E+00
 
    0.11899E+06         0.10609E+07         0.00000E+00
    0.10609E+07        -0.52076E+08         0.00000E+00
    0.00000E+00         0.00000E+00         0.25370E-08
 
    0.11951E+06         0.10795E+07         0.00000E+00
    0.10795E+07        -0.52218E+08         0.00000E+00
    0.00000E+00         0.00000E+00         0.25370E-08
 
    0.11987E+06         0.10982E+07         0.00000E+00
    0.10982E+07        -0.52362E+08         0.00000E+00
    0.00000E+00         0.00000E+00         0.50741E-08
 
    0.12006E+06         0.11168E+07         0.00000E+00
    0.11168E+07        -0.52509E+08         0.00000E+00
    0.00000E+00         0.00000E+00        -0.35518E-07
 
    0.12006E+06         0.11355E+07         0.00000E+00
    0.11355E+07        -0.52659E+08         0.00000E+00
    0.00000E+00         0.00000E+00         0.25370E-08
 
    0.11985E+06         0.11540E+07         0.00000E+00
    0.11540E+07        -0.52812E+08         0.00000E+00
    0.00000E+00         0.00000E+00         0.00000E+00
 
    0.11941E+06         0.11725E+07         0.00000E+00
    0.11725E+07        -0.52968E+08         0.00000E+00
    0.00000E+00         0.00000E+00         0.25370E-07
 
    0.11873E+06         0.11908E+07         0.00000E+00
    0.11908E+07        -0.53128E+08         0.00000E+00
    0.00000E+00         0.00000E+00         0.15222E-07
 
    0.11778E+06         0.12089E+07         0.00000E+00
    0.12089E+07        -0.53290E+08         0.00000E+00
    0.00000E+00         0.00000E+00         0.35518E-07
 
    0.11654E+06         0.12268E+07         0.00000E+00
    0.12268E+07        -0.53456E+08         0.00000E+00
    0.00000E+00         0.00000E+00         0.00000E+00
 
    0.11498E+06         0.12444E+07         0.00000E+00
    0.12444E+07        -0.53625E+08         0.00000E+00
    0.00000E+00         0.00000E+00        -0.17759E-07
 
    0.11309E+06         0.12616E+07         0.00000E+00
    0.12616E+07        -0.53797E+08         0.00000E+00
    0.00000E+00         0.00000E+00        -0.10148E-07
 
    0.11082E+06         0.12784E+07         0.00000E+00
    0.12784E+07        -0.53973E+08         0.00000E+00
    0.00000E+00         0.00000E+00         0.00000E+00
 
    0.10815E+06         0.12947E+07         0.00000E+00
    0.12947E+07        -0.54151E+08         0.00000E+00
    0.00000E+00         0.00000E+00         0.00000E+00
 
    0.10503E+06         0.13105E+07         0.00000E+00
    0.13105E+07        -0.54333E+08         0.00000E+00
    0.00000E+00         0.00000E+00        -0.50741E-08
 
    0.10144E+06         0.13256E+07         0.00000E+00
    0.13256E+07        -0.54519E+08         0.00000E+00
    0.00000E+00         0.00000E+00        -0.20296E-07
 
    0.97317E+05         0.13399E+07         0.00000E+00
    0.13399E+07        -0.54708E+08         0.00000E+00
    0.00000E+00         0.00000E+00         0.20295E-07
 
    0.92627E+05         0.13534E+07         0.00000E+00
    0.13534E+07        -0.54900E+08         0.00000E+00
    0.00000E+00         0.00000E+00        -0.25375E-08
 
    0.87314E+05         0.13660E+07         0.00000E+00
    0.13660E+07        -0.55096E+08         0.00000E+00
    0.00000E+00         0.00000E+00         0.76116E-08
 
    0.81321E+05         0.13774E+07         0.00000E+00
    0.13774E+07        -0.55295E+08         0.00000E+00
    0.00000E+00         0.00000E+00        -0.35518E-07
 
    0.74585E+05         0.13876E+07         0.00000E+00
    0.13876E+07        -0.55498E+08         0.00000E+00
    0.00000E+00         0.00000E+00         0.25370E-07
 
    0.67039E+05         0.13965E+07         0.00000E+00
    0.13965E+07        -0.55705E+08         0.00000E+00
    0.00000E+00         0.00000E+00        -0.10148E-07
 
    0.58608E+05         0.14039E+07         0.00000E+00
    0.14039E+07        -0.55915E+08         0.00000E+00
    0.00000E+00         0.00000E+00         0.50732E-08
 
    0.49215E+05         0.14095E+07         0.00000E+00
    0.14095E+07        -0.56128E+08         0.00000E+00
    0.00000E+00         0.00000E+00        -0.25375E-08
 
    0.38773E+05         0.14132E+07         0.00000E+00
    0.14132E+07        -0.56346E+08         0.00000E+00
    0.00000E+00         0.00000E+00         0.20295E-07
 
    0.27193E+05         0.14148E+07         0.00000E+00
    0.14148E+07        -0.56567E+08         0.00000E+00
    0.00000E+00         0.00000E+00         0.43129E-07
 
    0.14379E+05         0.14141E+07         0.00000E+00
    0.14141E+07        -0.56792E+08         0.00000E+00
    0.00000E+00         0.00000E+00        -0.17759E-07
 
    0.23192E+03         0.14108E+07         0.00000E+00
    0.14108E+07        -0.57021E+08         0.00000E+00
    0.00000E+00         0.00000E+00        -0.25375E-08
 
   -0.15349E+05         0.14046E+07         0.00000E+00
    0.14046E+07        -0.57253E+08         0.00000E+00
    0.00000E+00         0.00000E+00        -0.10148E-07
 
   -0.32467E+05         0.13953E+07         0.00000E+00
    0.13953E+07        -0.57490E+08         0.00000E+00
    0.00000E+00         0.00000E+00         0.25375E-08
 
   -0.51223E+05         0.13824E+07         0.00000E+00
    0.13824E+07        -0.57731E+08         0.00000E+00
    0.00000E+00         0.00000E+00         0.50741E-08
 
   -0.71714E+05         0.13658E+07         0.00000E+00
    0.13658E+07        -0.57976E+08         0.00000E+00
    0.00000E+00         0.00000E+00         0.00000E+00
 
   -0.94032E+05         0.13451E+07         0.00000E+00
    0.13451E+07        -0.58225E+08         0.00000E+00
    0.00000E+00         0.00000E+00        -0.30444E-07
 
   -0.11826E+06         0.13198E+07         0.00000E+00
    0.13198E+07        -0.58479E+08         0.00000E+00
    0.00000E+00         0.00000E+00         0.20296E-07
 
   -0.14446E+06         0.12898E+07         0.00000E+00
    0.12898E+07        -0.58736E+08         0.00000E+00
    0.00000E+00         0.00000E+00         0.76107E-08
 
   -0.17269E+06         0.12545E+07         0.00000E+00
    0.12545E+07        -0.58998E+08         0.00000E+00
    0.00000E+00         0.00000E+00        -0.76116E-08
 
   -0.20300E+06         0.12137E+07         0.00000E+00
    0.12137E+07        -0.59263E+08         0.00000E+00
    0.00000E+00         0.00000E+00         0.15222E-07
 
   -0.23541E+06         0.11672E+07         0.00000E+00
    0.11672E+07        -0.59532E+08         0.00000E+00
    0.00000E+00         0.00000E+00        -0.32981E-07
 
   -0.26997E+06         0.11145E+07         0.00000E+00
    0.11145E+07        -0.59804E+08         0.00000E+00
    0.00000E+00         0.00000E+00        -0.22833E-07
 
   -0.30673E+06         0.10556E+07         0.00000E+00
    0.10556E+07        -0.60078E+08         0.00000E+00
    0.00000E+00         0.00000E+00        -0.12685E-07
 
   -0.34582E+06         0.99043E+06         0.00000E+00
    0.99043E+06        -0.60353E+08         0.00000E+00
    0.00000E+00         0.00000E+00         0.00000E+00
 
   -0.38750E+06         0.91892E+06         0.00000E+00
    0.91892E+06        -0.60626E+08         0.00000E+00
    0.00000E+00         0.00000E+00        -0.25375E-08
 
   -0.43227E+06         0.84124E+06         0.00000E+00
    0.84124E+06        -0.60897E+08         0.00000E+00
    0.00000E+00         0.00000E+00        -0.12685E-07
 
   -0.48103E+06         0.75768E+06         0.00000E+00
    0.75768E+06        -0.61161E+08         0.00000E+00
    0.00000E+00         0.00000E+00        -0.35518E-07
 
   -0.53532E+06         0.66862E+06         0.00000E+00
    0.66862E+06        -0.61414E+08         0.00000E+00
    0.00000E+00         0.00000E+00        -0.17760E-07
 
   -0.59766E+06         0.57452E+06         0.00000E+00
    0.57452E+06        -0.61651E+08         0.00000E+00
    0.00000E+00         0.00000E+00        -0.12686E-07
 
   -0.67205E+06         0.47581E+06         0.00000E+00
    0.47581E+06        -0.61866E+08         0.00000E+00
    0.00000E+00         0.00000E+00        -0.10148E-07
 
   -0.76446E+06         0.37295E+06         0.00000E+00
    0.37295E+06        -0.62049E+08         0.00000E+00
    0.00000E+00         0.00000E+00        -0.17759E-07
 
   -0.88320E+06         0.26685E+06         0.00000E+00
    0.26685E+06        -0.62193E+08         0.00000E+00
    0.00000E+00         0.00000E+00        -0.25366E-08
 
   -0.10380E+07         0.15946E+06         0.00000E+00
    0.15946E+06        -0.62291E+08         0.00000E+00
    0.00000E+00         0.00000E+00         0.25371E-07
 
   -0.12373E+07         0.52879E+05         0.00000E+00
    0.52879E+05        -0.62339E+08         0.00000E+00
    0.00000E+00         0.00000E+00         0.10148E-07
 
    0.39816E+06         0.16570E+05         0.00000E+00
    0.16570E+05        -0.47649E+08         0.00000E+00
    0.00000E+00         0.00000E+00         0.25371E-08
 
    0.34288E+06         0.50023E+05         0.00000E+00
    0.50023E+05        -0.47663E+08         0.00000E+00
    0.00000E+00         0.00000E+00        -0.22833E-07
 
    0.29980E+06         0.84061E+05         0.00000E+00
    0.84061E+05        -0.47689E+08         0.00000E+00
    0.00000E+00         0.00000E+00         0.00000E+00
 
    0.26682E+06         0.11834E+06         0.00000E+00
    0.11834E+06        -0.47729E+08         0.00000E+00
    0.00000E+00         0.00000E+00         0.76111E-08
 
    0.24144E+06         0.15238E+06         0.00000E+00
    0.15238E+06        -0.47779E+08         0.00000E+00
    0.00000E+00         0.00000E+00         0.10148E-07
 
    0.22143E+06         0.18586E+06         0.00000E+00
    0.18586E+06        -0.47838E+08         0.00000E+00
    0.00000E+00         0.00000E+00        -0.12685E-07
 
    0.20511E+06         0.21857E+06         0.00000E+00
    0.21857E+06        -0.47904E+08         0.00000E+00
    0.00000E+00         0.00000E+00         0.45666E-07
 
    0.19136E+06         0.25032E+06         0.00000E+00
    0.25032E+06        -0.47974E+08         0.00000E+00
    0.00000E+00         0.00000E+00         0.30444E-07
 
    0.17944E+06         0.28096E+06         0.00000E+00
    0.28096E+06        -0.48048E+08         0.00000E+00
    0.00000E+00         0.00000E+00        -0.15222E-07
 
    0.16890E+06         0.31038E+06         0.00000E+00
    0.31038E+06        -0.48124E+08         0.00000E+00
    0.00000E+00         0.00000E+00        -0.17759E-07
 
    0.15945E+06         0.33848E+06         0.00000E+00
    0.33848E+06        -0.48201E+08         0.00000E+00
    0.00000E+00         0.00000E+00         0.17759E-07
 
    0.15093E+06         0.36525E+06         0.00000E+00
    0.36525E+06        -0.48279E+08         0.00000E+00
    0.00000E+00         0.00000E+00        -0.76111E-08
 
    0.14324E+06         0.39069E+06         0.00000E+00
    0.39069E+06        -0.48358E+08         0.00000E+00
    0.00000E+00         0.00000E+00         0.50741E-08
 
    0.13633E+06         0.41483E+06         0.00000E+00
    0.41483E+06        -0.48438E+08         0.00000E+00
    0.00000E+00         0.00000E+00         0.17759E-07
 
    0.13015E+06         0.43776E+06         0.00000E+00
    0.43776E+06        -0.48518E+08         0.00000E+00
    0.00000E+00         0.00000E+00         0.32981E-07
 
    0.12467E+06         0.45954E+06         0.00000E+00
    0.45954E+06        -0.48598E+08         0.00000E+00
    0.00000E+00         0.00000E+00         0.12685E-07
 
    0.11987E+06         0.48027E+06         0.00000E+00
    0.48027E+06        -0.48678E+08         0.00000E+00
    0.00000E+00         0.00000E+00        -0.25370E-08
 
    0.11571E+06         0.50007E+06         0.00000E+00
    0.50007E+06        -0.48759E+08         0.00000E+00
    0.00000E+00         0.00000E+00        -0.17759E-07
 
    0.11216E+06         0.51902E+06         0.00000E+00
    0.51902E+06        -0.48840E+08         0.00000E+00
    0.00000E+00         0.00000E+00         0.76111E-08
 
    0.10919E+06         0.53724E+06         0.00000E+00
    0.53724E+06        -0.48922E+08         0.00000E+00
    0.00000E+00         0.00000E+00         0.00000E+00
 
    0.10676E+06         0.55482E+06         0.00000E+00
    0.55482E+06        -0.49004E+08         0.00000E+00
    0.00000E+00         0.00000E+00         0.76111E-08
 
    0.10483E+06         0.57186E+06         0.00000E+00
    0.57186E+06        -0.49087E+08         0.00000E+00
    0.00000E+00         0.00000E+00         0.15222E-07
 
    0.10336E+06         0.58845E+06         0.00000E+00
    0.58845E+06        -0.49171E+08         0.00000E+00
    0.00000E+00         0.00000E+00         0.00000E+00
 
    0.10231E+06         0.60468E+06         0.00000E+00
    0.60468E+06        -0.49255E+08         0.00000E+00
    0.00000E+00         0.00000E+00         0.10148E-07
 
    0.10165E+06         0.62061E+06         0.00000E+00
    0.62061E+06        -0.49341E+08         0.00000E+00
    0.00000E+00         0.00000E+00        -0.22833E-07
 
    0.10133E+06         0.63632E+06         0.00000E+00
    0.63632E+06        -0.49428E+08         0.00000E+00
    0.00000E+00         0.00000E+00        -0.25370E-08
 
    0.10131E+06         0.65188E+06         0.00000E+00
    0.65188E+06        -0.49516E+08         0.00000E+00
    0.00000E+00         0.00000E+00        -0.25370E-08
 
    0.10157E+06         0.66733E+06         0.00000E+00
    0.66733E+06        -0.49606E+08         0.00000E+00
    0.00000E+00         0.00000E+00        -0.50741E-08
 
    0.10207E+06         0.68273E+06         0.00000E+00
    0.68273E+06        -0.49697E+08         0.00000E+00
    0.00000E+00         0.00000E+00         0.76111E-08
 
    0.10278E+06         0.69813E+06         0.00000E+00
    0.69813E+06        -0.49790E+08         0.00000E+00
    0.00000E+00         0.00000E+00         0.00000E+00
 
    0.10367E+06         0.71355E+06         0.00000E+00
    0.71355E+06        -0.49884E+08         0.00000E+00
    0.00000E+00         0.00000E+00         0.76111E-08
 
    0.10471E+06         0.72903E+06         0.00000E+00
    0.72903E+06        -0.49980E+08         0.00000E+00
    0.00000E+00         0.00000E+00         0.17759E-07
 
    0.10589E+06         0.74460E+06         0.00000E+00
    0.74460E+06        -0.50078E+08         0.00000E+00
    0.00000E+00         0.00000E+00         0.38055E-07
 
    0.10717E+06         0.76029E+06         0.00000E+00
    0.76029E+06        -0.50177E+08         0.00000E+00
    0.00000E+00         0.00000E+00         0.10148E-07
 
    0.10853E+06         0.77611E+06         0.00000E+00
    0.77611E+06        -0.50279E+08         0.00000E+00
    0.00000E+00         0.00000E+00        -0.35518E-07
 
    0.10996E+06         0.79208E+06         0.00000E+00
    0.79208E+06        -0.50382E+08         0.00000E+00
    0.00000E+00         0.00000E+00        -0.15222E-07
 
    0.11143E+06         0.80821E+06         0.00000E+00
    0.80821E+06        -0.50488E+08         0.00000E+00
    0.00000E+00         0.00000E+00         0.27907E-07
 
    0.11294E+06         0.82450E+06         0.00000E+00
    0.82450E+06        -0.50596E+08         0.00000E+00
    0.00000E+00         0.00000E+00         0.27907E-07
 
    0.11445E+06         0.84098E+06         0.00000E+00
    0.84098E+06        -0.50706E+08         0.00000E+00
    0.00000E+00         0.00000E+00        -0.10148E-07
 
    0.11597E+06         0.85763E+06         0.00000E+00
    0.85763E+06        -0.50818E+08         0.00000E+00
    0.00000E+00         0.00000E+00        -0.25370E-08
 
    0.11746E+06         0.87445E+06         0.00000E+00
    0.87445E+06        -0.50933E+08         0.00000E+00
    0.00000E+00         0.00000E+00         0.20296E-07
 
    0.11892E+06         0.89146E+06         0.00000E+00
    0.89146E+06        -0.51050E+08         0.00000E+00
    0.00000E+00         0.00000E+00         0.17759E-07
 
    0.12034E+06         0.90863E+06         0.00000E+00
    0.90863E+06        -0.51170E+08         0.00000E+00
    0.00000E+00         0.00000E+00        -0.20296E-07
 
    0.12170E+06         0.92597E+06         0.00000E+00
    0.92597E+06        -0.51292E+08         0.00000E+00
    0.00000E+00         0.00000E+00         0.12685E-07
 
    0.12298E+06         0.94347E+06         0.00000E+00
    0.94347E+06        -0.51416E+08         0.00000E+00
    0.00000E+00         0.00000E+00        -0.32981E-07
 
    0.12418E+06         0.96111E+06         0.00000E+00
    0.96111E+06        -0.51543E+08         0.00000E+00
    0.00000E+00         0.00000E+00         0.10148E-07
 
    0.12528E+06         0.97887E+06         0.00000E+00
    0.97887E+06        -0.51673E+08         0.00000E+00
    0.00000E+00         0.00000E+00        -0.25370E-08
 
    0.12627E+06         0.99676E+06         0.00000E+00
    0.99676E+06        -0.51806E+08         0.00000E+00
    0.00000E+00         0.00000E+00         0.12685E-07
 
    0.12713E+06         0.10147E+07         0.00000E+00
    0.10147E+07        -0.51942E+08         0.00000E+00
    0.00000E+00         0.00000E+00        -0.17759E-07
 
    0.12784E+06         0.10328E+07         0.00000E+00
    0.10328E+07        -0.52080E+08         0.00000E+00
    0.00000E+00         0.00000E+00         0.25370E-08
 
    0.12841E+06         0.10509E+07         0.00000E+00
    0.10509E+07        -0.52221E+08         0.00000E+00
    0.00000E+00         0.00000E+00         0.15222E-07
 
    0.12880E+06         0.10690E+07         0.00000E+00
    0.10690E+07        -0.52365E+08         0.00000E+00
    0.00000E+00         0.00000E+00         0.15222E-07
 
    0.12900E+06         0.10871E+07         0.00000E+00
    0.10871E+07        -0.52512E+08         0.00000E+00
    0.00000E+00         0.00000E+00        -0.10148E-07
 
    0.12900E+06         0.11052E+07         0.00000E+00
    0.11052E+07        -0.52662E+08         0.00000E+00
    0.00000E+00         0.00000E+00         0.50741E-08
 
    0.12878E+06         0.11233E+07         0.00000E+00
    0.11233E+07        -0.52816E+08         0.00000E+00
    0.00000E+00         0.00000E+00         0.25370E-08
 
    0.12831E+06         0.11412E+07         0.00000E+00
    0.11412E+07        -0.52972E+08         0.00000E+00
    0.00000E+00         0.00000E+00        -0.76111E-08
 
    0.12759E+06         0.11589E+07         0.00000E+00
    0.11589E+07        -0.53131E+08         0.00000E+00
    0.00000E+00         0.00000E+00         0.17759E-07
 
    0.12657E+06         0.11765E+07         0.00000E+00
    0.11765E+07        -0.53294E+08         0.00000E+00
    0.00000E+00         0.00000E+00         0.10147E-07
 
    0.12524E+06         0.11939E+07         0.00000E+00
    0.11939E+07        -0.53459E+08         0.00000E+00
    0.00000E+00         0.00000E+00        -0.25366E-08
 
    0.12358E+06         0.12109E+07         0.00000E+00
    0.12109E+07        -0.53628E+08         0.00000E+00
    0.00000E+00         0.00000E+00         0.00000E+00
 
    0.12155E+06         0.12276E+07         0.00000E+00
    0.12276E+07        -0.53800E+08         0.00000E+00
    0.00000E+00         0.00000E+00        -0.15222E-07
 
    0.11912E+06         0.12439E+07         0.00000E+00
    0.12439E+07        -0.53976E+08         0.00000E+00
    0.00000E+00         0.00000E+00        -0.22834E-07
 
    0.11626E+06         0.12597E+07         0.00000E+00
    0.12597E+07        -0.54154E+08         0.00000E+00
    0.00000E+00         0.00000E+00        -0.30444E-07
 
    0.11292E+06         0.12749E+07         0.00000E+00
    0.12749E+07        -0.54337E+08         0.00000E+00
    0.00000E+00         0.00000E+00         0.32981E-07
 
    0.10907E+06         0.12895E+07         0.00000E+00
    0.12895E+07        -0.54522E+08         0.00000E+00
    0.00000E+00         0.00000E+00         0.90949E-12
 
    0.10466E+06         0.13034E+07         0.00000E+00
    0.13034E+07        -0.54711E+08         0.00000E+00
    0.00000E+00         0.00000E+00        -0.25375E-08
 
    0.99630E+05         0.13164E+07         0.00000E+00
    0.13164E+07        -0.54903E+08         0.00000E+00
    0.00000E+00         0.00000E+00         0.45667E-07
 
    0.93937E+05         0.13285E+07         0.00000E+00
    0.13285E+07        -0.55099E+08         0.00000E+00
    0.00000E+00         0.00000E+00         0.76116E-08
 
    0.87513E+05         0.13395E+07         0.00000E+00
    0.13395E+07        -0.55298E+08         0.00000E+00
    0.00000E+00         0.00000E+00        -0.17759E-07
 
    0.80294E+05         0.13493E+07         0.00000E+00
    0.13493E+07        -0.55500E+08         0.00000E+00
    0.00000E+00         0.00000E+00         0.12685E-07
 
    0.72205E+05         0.13578E+07         0.00000E+00
    0.13578E+07        -0.55706E+08         0.00000E+00
    0.00000E+00         0.00000E+00        -0.17759E-07
 
    0.63167E+05         0.13648E+07         0.00000E+00
    0.13648E+07        -0.55916E+08         0.00000E+00
    0.00000E+00         0.00000E+00        -0.76107E-08
 
    0.53095E+05         0.13701E+07         0.00000E+00
    0.13701E+07        -0.56129E+08         0.00000E+00
    0.00000E+00         0.00000E+00        -0.35518E-07
 
    0.41898E+05         0.13735E+07         0.00000E+00
    0.13735E+07        -0.56346E+08         0.00000E+00
    0.00000E+00         0.00000E+00         0.27907E-07
 
    0.29477E+05         0.13748E+07         0.00000E+00
    0.13748E+07        -0.56567E+08         0.00000E+00
    0.00000E+00         0.00000E+00         0.32982E-07
 
    0.15728E+05         0.13738E+07         0.00000E+00
    0.13738E+07        -0.56791E+08         0.00000E+00
    0.00000E+00         0.00000E+00         0.25371E-07
 
    0.54522E+03         0.13703E+07         0.00000E+00
    0.13703E+07        -0.57020E+08         0.00000E+00
    0.00000E+00         0.00000E+00         0.12686E-07
 
   -0.16184E+05         0.13639E+07         0.00000E+00
    0.13639E+07        -0.57252E+08         0.00000E+00
    0.00000E+00         0.00000E+00         0.12686E-07
 
   -0.34572E+05         0.13544E+07         0.00000E+00
    0.13544E+07        -0.57488E+08         0.00000E+00
    0.00000E+00         0.00000E+00         0.00000E+00
 
   -0.54732E+05         0.13414E+07         0.00000E+00
    0.13414E+07        -0.57728E+08         0.00000E+00
    0.00000E+00         0.00000E+00        -0.50741E-08
 
   -0.76772E+05         0.13247E+07         0.00000E+00
    0.13247E+07        -0.57972E+08         0.00000E+00
    0.00000E+00         0.00000E+00         0.25366E-08
 
   -0.10080E+06         0.13039E+07         0.00000E+00
    0.13039E+07        -0.58221E+08         0.00000E+00
    0.00000E+00         0.00000E+00        -0.10148E-07
 
   -0.12690E+06         0.12787E+07         0.00000E+00
    0.12787E+07        -0.58473E+08         0.00000E+00
    0.00000E+00         0.00000E+00        -0.15222E-07
 
   -0.15516E+06         0.12486E+07         0.00000E+00
    0.12486E+07        -0.58730E+08         0.00000E+00
    0.00000E+00         0.00000E+00        -0.50741E-08
 
   -0.18564E+06         0.12134E+07         0.00000E+00
    0.12134E+07        -0.58990E+08         0.00000E+00
    0.00000E+00         0.00000E+00        -0.20296E-07
 
   -0.21842E+06         0.11728E+07         0.00000E+00
    0.11728E+07        -0.59255E+08         0.00000E+00
    0.00000E+00         0.00000E+00         0.50741E-08
 
   -0.25352E+06         0.11263E+07         0.00000E+00
    0.11263E+07        -0.59522E+08         0.00000E+00
    0.00000E+00         0.00000E+00         0.76107E-08
 
   -0.29100E+06         0.10738E+07         0.00000E+00
    0.10738E+07        -0.59793E+08         0.00000E+00
    0.00000E+00         0.00000E+00        -0.15222E-07
 
   -0.33093E+06         0.10151E+07         0.00000E+00
    0.10151E+07        -0.60066E+08         0.00000E+00
    0.00000E+00         0.00000E+00        -0.12686E-07
 
   -0.37345E+06         0.95019E+06         0.00000E+00
    0.95019E+06        -0.60339E+08         0.00000E+00
    0.00000E+00         0.00000E+00         0.50732E-08
 
   -0.41884E+06         0.87903E+06         0.00000E+00
    0.87903E+06        -0.60611E+08         0.00000E+00
    0.00000E+00         0.00000E+00         0.48203E-07
 
   -0.46760E+06         0.80187E+06         0.00000E+00
    0.80187E+06        -0.60881E+08         0.00000E+00
    0.00000E+00         0.00000E+00         0.15221E-07
 
   -0.52065E+06         0.71908E+06         0.00000E+00
    0.71908E+06        -0.61144E+08         0.00000E+00
    0.00000E+00         0.00000E+00        -0.50732E-08
 
   -0.57954E+06         0.63123E+06         0.00000E+00
    0.63123E+06        -0.61396E+08         0.00000E+00
    0.00000E+00         0.00000E+00        -0.25370E-07
 
   -0.64681E+06         0.53899E+06         0.00000E+00
    0.53899E+06        -0.61632E+08         0.00000E+00
    0.00000E+00         0.00000E+00        -0.76116E-08
 
   -0.72646E+06         0.44315E+06         0.00000E+00
    0.44315E+06        -0.61846E+08         0.00000E+00
    0.00000E+00         0.00000E+00         0.15223E-07
 
   -0.82438E+06         0.34460E+06         0.00000E+00
    0.34460E+06        -0.62029E+08         0.00000E+00
    0.00000E+00         0.00000E+00        -0.50736E-08
 
   -0.94850E+06         0.24469E+06         0.00000E+00
    0.24469E+06        -0.62172E+08         0.00000E+00
    0.00000E+00         0.00000E+00         0.22737E-12
 
   -0.11077E+07         0.14534E+06         0.00000E+00
    0.14534E+06        -0.62270E+08         0.00000E+00
    0.00000E+00         0.00000E+00         0.20296E-07
 
   -0.13095E+07         0.48041E+05         0.00000E+00
    0.48041E+05        -0.62319E+08         0.00000E+00
    0.00000E+00         0.00000E+00        -0.15222E-07
 
    0.42013E+06         0.15260E+05         0.00000E+00
    0.15260E+05        -0.47656E+08         0.00000E+00
    0.00000E+00         0.00000E+00        -0.25370E-08
 
    0.36427E+06         0.46187E+05         0.00000E+00
    0.46187E+05        -0.47669E+08         0.00000E+00
    0.00000E+00         0.00000E+00         0.30444E-07
 
    0.32016E+06         0.77994E+05         0.00000E+00
    0.77994E+05        -0.47696E+08         0.00000E+00
    0.00000E+00         0.00000E+00        -0.20296E-07
 
    0.28590E+06         0.11050E+06         0.00000E+00
    0.11050E+06        -0.47736E+08         0.00000E+00
    0.00000E+00         0.00000E+00         0.50741E-08
 
    0.25920E+06         0.14324E+06         0.00000E+00
    0.14324E+06        -0.47786E+08         0.00000E+00
    0.00000E+00         0.00000E+00        -0.10148E-07
 
    0.23790E+06         0.17579E+06         0.00000E+00
    0.17579E+06        -0.47845E+08         0.00000E+00
    0.00000E+00         0.00000E+00        -0.25370E-08
 
    0.22039E+06         0.20783E+06         0.00000E+00
    0.20783E+06        -0.47910E+08         0.00000E+00
    0.00000E+00         0.00000E+00         0.25370E-08
 
    0.20553E+06         0.23909E+06         0.00000E+00
    0.23909E+06        -0.47980E+08         0.00000E+00
    0.00000E+00         0.00000E+00         0.25370E-07
 
    0.19261E+06         0.26933E+06         0.00000E+00
    0.26933E+06        -0.48054E+08         0.00000E+00
    0.00000E+00         0.00000E+00         0.15222E-07
 
    0.18114E+06         0.29841E+06         0.00000E+00
    0.29841E+06        -0.48129E+08         0.00000E+00
    0.00000E+00         0.00000E+00         0.17759E-07
 
    0.17087E+06         0.32620E+06         0.00000E+00
    0.32620E+06        -0.48206E+08         0.00000E+00
    0.00000E+00         0.00000E+00        -0.76111E-08
 
    0.16161E+06         0.35267E+06         0.00000E+00
    0.35267E+06        -0.48285E+08         0.00000E+00
    0.00000E+00         0.00000E+00         0.00000E+00
 
    0.15327E+06         0.37781E+06         0.00000E+00
    0.37781E+06        -0.48363E+08         0.00000E+00
    0.00000E+00         0.00000E+00        -0.12685E-07
 
    0.14578E+06         0.40165E+06         0.00000E+00
    0.40165E+06        -0.48443E+08         0.00000E+00
    0.00000E+00         0.00000E+00         0.15222E-07
 
    0.13910E+06         0.42426E+06         0.00000E+00
    0.42426E+06        -0.48522E+08         0.00000E+00
    0.00000E+00         0.00000E+00         0.10148E-07
 
    0.13319E+06         0.44573E+06         0.00000E+00
    0.44573E+06        -0.48602E+08         0.00000E+00
    0.00000E+00         0.00000E+00         0.30444E-07
 
    0.12801E+06         0.46614E+06         0.00000E+00
    0.46614E+06        -0.48682E+08         0.00000E+00
    0.00000E+00         0.00000E+00        -0.27907E-07
 
    0.12354E+06         0.48560E+06         0.00000E+00
    0.48560E+06        -0.48763E+08         0.00000E+00
    0.00000E+00         0.00000E+00         0.00000E+00
 
    0.11973E+06         0.50422E+06         0.00000E+00
    0.50422E+06        -0.48844E+08         0.00000E+00
    0.00000E+00         0.00000E+00         0.25370E-08
 
    0.11655E+06         0.52210E+06         0.00000E+00
    0.52210E+06        -0.48925E+08         0.00000E+00
    0.00000E+00         0.00000E+00         0.20296E-07
 
    0.11395E+06         0.53933E+06         0.00000E+00
    0.53933E+06        -0.49007E+08         0.00000E+00
    0.00000E+00         0.00000E+00         0.20296E-07
 
    0.11188E+06         0.55602E+06         0.00000E+00
    0.55602E+06        -0.49090E+08         0.00000E+00
    0.00000E+00         0.00000E+00         0.22833E-07
 
    0.11032E+06         0.57225E+06         0.00000E+00
    0.57225E+06        -0.49174E+08         0.00000E+00
    0.00000E+00         0.00000E+00         0.17759E-07
 
    0.10920E+06         0.58812E+06         0.00000E+00
    0.58812E+06        -0.49259E+08         0.00000E+00
    0.00000E+00         0.00000E+00         0.50741E-07
 
    0.10850E+06         0.60369E+06         0.00000E+00
    0.60369E+06        -0.49344E+08         0.00000E+00
    0.00000E+00         0.00000E+00        -0.25370E-08
 
    0.10816E+06         0.61903E+06         0.00000E+00
    0.61903E+06        -0.49431E+08         0.00000E+00
    0.00000E+00         0.00000E+00        -0.25370E-08
 
    0.10816E+06         0.63421E+06         0.00000E+00
    0.63421E+06        -0.49519E+08         0.00000E+00
    0.00000E+00         0.00000E+00        -0.10148E-07
 
    0.10844E+06         0.64928E+06         0.00000E+00
    0.64928E+06        -0.49609E+08         0.00000E+00
    0.00000E+00         0.00000E+00        -0.12685E-07
 
    0.10898E+06         0.66430E+06         0.00000E+00
    0.66430E+06        -0.49700E+08         0.00000E+00
    0.00000E+00         0.00000E+00        -0.15222E-07
 
    0.10975E+06         0.67930E+06         0.00000E+00
    0.67930E+06        -0.49793E+08         0.00000E+00
    0.00000E+00         0.00000E+00        -0.50741E-08
 
    0.11070E+06         0.69432E+06         0.00000E+00
    0.69432E+06        -0.49887E+08         0.00000E+00
    0.00000E+00         0.00000E+00        -0.15222E-07
 
    0.11183E+06         0.70940E+06         0.00000E+00
    0.70940E+06        -0.49983E+08         0.00000E+00
    0.00000E+00         0.00000E+00        -0.20296E-07
 
    0.11309E+06         0.72456E+06         0.00000E+00
    0.72456E+06        -0.50081E+08         0.00000E+00
    0.00000E+00         0.00000E+00        -0.76111E-08
 
    0.11446E+06         0.73983E+06         0.00000E+00
    0.73983E+06        -0.50180E+08         0.00000E+00
    0.00000E+00         0.00000E+00        -0.50741E-08
 
    0.11592E+06         0.75522E+06         0.00000E+00
    0.75522E+06        -0.50282E+08         0.00000E+00
    0.00000E+00         0.00000E+00         0.50741E-08
 
    0.11745E+06         0.77076E+06         0.00000E+00
    0.77076E+06        -0.50386E+08         0.00000E+00
    0.00000E+00         0.00000E+00         0.43130E-07
 
    0.11903E+06         0.78645E+06         0.00000E+00
    0.78645E+06        -0.50491E+08         0.00000E+00
    0.00000E+00         0.00000E+00        -0.17759E-07
 
    0.12064E+06         0.80230E+06         0.00000E+00
    0.80230E+06        -0.50599E+08         0.00000E+00
    0.00000E+00         0.00000E+00         0.76111E-08
 
    0.12227E+06         0.81831E+06         0.00000E+00
    0.81831E+06        -0.50709E+08         0.00000E+00
    0.00000E+00         0.00000E+00        -0.50741E-08
 
    0.12389E+06         0.83450E+06         0.00000E+00
    0.83450E+06        -0.50821E+08         0.00000E+00
    0.00000E+00         0.00000E+00        -0.17759E-07
 
    0.12549E+06         0.85086E+06         0.00000E+00
    0.85086E+06        -0.50936E+08         0.00000E+00
    0.00000E+00         0.00000E+00         0.25370E-08
 
    0.12705E+06         0.86739E+06         0.00000E+00
    0.86739E+06        -0.51053E+08         0.00000E+00
    0.00000E+00         0.00000E+00        -0.17759E-07
 
    0.12857E+06         0.88408E+06         0.00000E+00
    0.88408E+06        -0.51173E+08         0.00000E+00
    0.00000E+00         0.00000E+00         0.10148E-07
 
    0.13002E+06         0.90093E+06         0.00000E+00
    0.90093E+06        -0.51295E+08         0.00000E+00
    0.00000E+00         0.00000E+00         0.76111E-08
 
    0.13140E+06         0.91793E+06         0.00000E+00
    0.91793E+06        -0.51420E+08         0.00000E+00
    0.00000E+00         0.00000E+00         0.35518E-07
 
    0.13268E+06         0.93507E+06         0.00000E+00
    0.93507E+06        -0.51547E+08         0.00000E+00
    0.00000E+00         0.00000E+00        -0.20296E-07
 
    0.13386E+06         0.95233E+06         0.00000E+00
    0.95233E+06        -0.51677E+08         0.00000E+00
    0.00000E+00         0.00000E+00         0.12685E-07
 
    0.13491E+06         0.96969E+06         0.00000E+00
    0.96969E+06        -0.51810E+08         0.00000E+00
    0.00000E+00         0.00000E+00        -0.17759E-07
 
    0.13583E+06         0.98715E+06         0.00000E+00
    0.98715E+06        -0.51945E+08         0.00000E+00
    0.00000E+00         0.00000E+00         0.50741E-08
 
    0.13660E+06         0.10047E+07         0.00000E+00
    0.10047E+07        -0.52084E+08         0.00000E+00
    0.00000E+00         0.00000E+00        -0.20296E-07
 
    0.13721E+06         0.10223E+07         0.00000E+00
    0.10223E+07        -0.52225E+08         0.00000E+00
    0.00000E+00         0.00000E+00         0.22833E-07
 
    0.13763E+06         0.10399E+07         0.00000E+00
    0.10399E+07        -0.52369E+08         0.00000E+00
    0.00000E+00         0.00000E+00         0.35518E-07
 
    0.13785E+06         0.10574E+07         0.00000E+00
    0.10574E+07        -0.52516E+08         0.00000E+00
    0.00000E+00         0.00000E+00        -0.22833E-07
 
    0.13785E+06         0.10750E+07         0.00000E+00
    0.10750E+07        -0.52666E+08         0.00000E+00
    0.00000E+00         0.00000E+00         0.15222E-07
 
    0.13762E+06         0.10925E+07         0.00000E+00
    0.10925E+07        -0.52819E+08         0.00000E+00
    0.00000E+00         0.00000E+00        -0.76111E-08
 
    0.13713E+06         0.11099E+07         0.00000E+00
    0.11099E+07        -0.52975E+08         0.00000E+00
    0.00000E+00         0.00000E+00         0.25370E-07
 
    0.13636E+06         0.11271E+07         0.00000E+00
    0.11271E+07        -0.53135E+08         0.00000E+00
    0.00000E+00         0.00000E+00        -0.12685E-07
 
    0.13528E+06         0.11442E+07         0.00000E+00
    0.11442E+07        -0.53297E+08         0.00000E+00
    0.00000E+00         0.00000E+00         0.25366E-08
 
    0.13387E+06         0.11610E+07         0.00000E+00
    0.11610E+07        -0.53463E+08         0.00000E+00
    0.00000E+00         0.00000E+00         0.76107E-08
 
    0.13210E+06         0.11775E+07         0.00000E+00
    0.11775E+07        -0.53632E+08         0.00000E+00
    0.00000E+00         0.00000E+00        -0.10148E-07
 
    0.12994E+06         0.11937E+07         0.00000E+00
    0.11937E+07        -0.53804E+08         0.00000E+00
    0.00000E+00         0.00000E+00        -0.50741E-08
 
    0.12735E+06         0.12094E+07         0.00000E+00
    0.12094E+07        -0.53979E+08         0.00000E+00
    0.00000E+00         0.00000E+00         0.30444E-07
 
    0.12430E+06         0.12247E+07         0.00000E+00
    0.12247E+07        -0.54158E+08         0.00000E+00
    0.00000E+00         0.00000E+00         0.22834E-07
 
    0.12074E+06         0.12395E+07         0.00000E+00
    0.12395E+07        -0.54339E+08         0.00000E+00
    0.00000E+00         0.00000E+00        -0.32982E-07
 
    0.11664E+06         0.12536E+07         0.00000E+00
    0.12536E+07        -0.54525E+08         0.00000E+00
    0.00000E+00         0.00000E+00         0.50741E-08
 
    0.11194E+06         0.12669E+07         0.00000E+00
    0.12669E+07        -0.54713E+08         0.00000E+00
    0.00000E+00         0.00000E+00         0.10148E-07
 
    0.10659E+06         0.12795E+07         0.00000E+00
    0.12795E+07        -0.54905E+08         0.00000E+00
    0.00000E+00         0.00000E+00         0.30444E-07
 
    0.10052E+06         0.12911E+07         0.00000E+00
    0.12911E+07        -0.55101E+08         0.00000E+00
    0.00000E+00         0.00000E+00        -0.15222E-07
 
    0.93675E+05         0.13017E+07         0.00000E+00
    0.13017E+07        -0.55300E+08         0.00000E+00
    0.00000E+00         0.00000E+00        -0.30445E-07
 
    0.85982E+05         0.13111E+07         0.00000E+00
    0.13111E+07        -0.55502E+08         0.00000E+00
    0.00000E+00         0.00000E+00         0.15222E-07
 
    0.77361E+05         0.13192E+07         0.00000E+00
    0.13192E+07        -0.55708E+08         0.00000E+00
    0.00000E+00         0.00000E+00        -0.76107E-08
 
    0.67728E+05         0.13258E+07         0.00000E+00
    0.13258E+07        -0.55917E+08         0.00000E+00
    0.00000E+00         0.00000E+00         0.30444E-07
 
    0.56991E+05         0.13308E+07         0.00000E+00
    0.13308E+07        -0.56130E+08         0.00000E+00
    0.00000E+00         0.00000E+00        -0.25370E-07
 
    0.45051E+05         0.13339E+07         0.00000E+00
    0.13339E+07        -0.56347E+08         0.00000E+00
    0.00000E+00         0.00000E+00         0.30444E-07
 
    0.31804E+05         0.13349E+07         0.00000E+00
    0.13349E+07        -0.56567E+08         0.00000E+00
    0.00000E+00         0.00000E+00        -0.15222E-07
 
    0.17138E+05         0.13337E+07         0.00000E+00
    0.13337E+07        -0.56791E+08         0.00000E+00
    0.00000E+00         0.00000E+00        -0.40593E-07
 
    0.93491E+03         0.13299E+07         0.00000E+00
    0.13299E+07        -0.57019E+08         0.00000E+00
    0.00000E+00         0.00000E+00        -0.35518E-07
 
   -0.16925E+05         0.13234E+07         0.00000E+00
    0.13234E+07        -0.57250E+08         0.00000E+00
    0.00000E+00         0.00000E+00        -0.10148E-07
 
   -0.36566E+05         0.13138E+07         0.00000E+00
    0.13138E+07        -0.57486E+08         0.00000E+00
    0.00000E+00         0.00000E+00         0.15222E-07
 
   -0.58111E+05         0.13007E+07         0.00000E+00
    0.13007E+07        -0.57725E+08         0.00000E+00
    0.00000E+00         0.00000E+00        -0.25370E-07
 
   -0.81683E+05         0.12840E+07         0.00000E+00
    0.12840E+07        -0.57969E+08         0.00000E+00
    0.00000E+00         0.00000E+00         0.10148E-07
 
   -0.10740E+06         0.12632E+07         0.00000E+00
    0.12632E+07        -0.58216E+08         0.00000E+00
    0.00000E+00         0.00000E+00         0.15222E-07
 
   -0.13536E+06         0.12380E+07         0.00000E+00
    0.12380E+07        -0.58468E+08         0.00000E+00
    0.00000E+00         0.00000E+00         0.15222E-07
 
   -0.16567E+06         0.12080E+07         0.00000E+00
    0.12080E+07        -0.58723E+08         0.00000E+00
    0.00000E+00         0.00000E+00        -0.25366E-08
 
   -0.19841E+06         0.11729E+07         0.00000E+00
    0.11729E+07        -0.58983E+08         0.00000E+00
    0.00000E+00         0.00000E+00        -0.76116E-08
 
   -0.23364E+06         0.11323E+07         0.00000E+00
    0.11323E+07        -0.59246E+08         0.00000E+00
    0.00000E+00         0.00000E+00        -0.15222E-07
 
   -0.27144E+06         0.10860E+07         0.00000E+00
    0.10860E+07        -0.59512E+08         0.00000E+00
    0.00000E+00         0.00000E+00        -0.15222E-07
 
   -0.31186E+06         0.10337E+07         0.00000E+00
    0.10337E+07        -0.59782E+08         0.00000E+00
    0.00000E+00         0.00000E+00        -0.43130E-07
 
   -0.35499E+06         0.97531E+06         0.00000E+00
    0.97531E+06        -0.60053E+08         0.00000E+00
    0.00000E+00         0.00000E+00         0.00000E+00
 
   -0.40099E+06         0.91067E+06         0.00000E+00
    0.91067E+06        -0.60325E+08         0.00000E+00
    0.00000E+00         0.00000E+00         0.12685E-07
 
   -0.45012E+06         0.83992E+06         0.00000E+00
    0.83992E+06        -0.60597E+08         0.00000E+00
    0.00000E+00         0.00000E+00        -0.17759E-07
 
   -0.50292E+06         0.76333E+06         0.00000E+00
    0.76333E+06        -0.60865E+08         0.00000E+00
    0.00000E+00         0.00000E+00         0.10147E-07
 
   -0.56029E+06         0.68138E+06         0.00000E+00
    0.68138E+06        -0.61127E+08         0.00000E+00
    0.00000E+00         0.00000E+00         0.30444E-07
 
   -0.62378E+06         0.59479E+06         0.00000E+00
    0.59479E+06        -0.61378E+08         0.00000E+00
    0.00000E+00         0.00000E+00         0.25366E-08
 
   -0.69594E+06         0.50447E+06         0.00000E+00
    0.50447E+06        -0.61614E+08         0.00000E+00
    0.00000E+00         0.00000E+00         0.38056E-07
 
   -0.78070E+06         0.41154E+06         0.00000E+00
    0.41154E+06        -0.61827E+08         0.00000E+00
    0.00000E+00         0.00000E+00         0.12685E-07
 
   -0.88382E+06         0.31733E+06         0.00000E+00
    0.31733E+06        -0.62009E+08         0.00000E+00
    0.00000E+00         0.00000E+00        -0.20297E-07
 
   -0.10128E+07         0.22348E+06         0.00000E+00
    0.22348E+06        -0.62153E+08         0.00000E+00
    0.00000E+00         0.00000E+00         0.00000E+00
 
   -0.11760E+07         0.13189E+06         0.00000E+00
    0.13189E+06        -0.62251E+08         0.00000E+00
    0.00000E+00         0.00000E+00         0.11369E-12
 
   -0.13800E+07         0.43441E+05         0.00000E+00
    0.43441E+05        -0.62300E+08         0.00000E+00
    0.00000E+00         0.00000E+00         0.76111E-08
 
    0.44162E+06         0.14004E+05         0.00000E+00
    0.14004E+05        -0.47661E+08         0.00000E+00
    0.00000E+00         0.00000E+00         0.50741E-08
 
    0.38525E+06         0.42503E+05         0.00000E+00
    0.42503E+05        -0.47675E+08         0.00000E+00
    0.00000E+00         0.00000E+00         0.76111E-08
 
    0.34023E+06         0.72151E+05         0.00000E+00
    0.72151E+05        -0.47702E+08         0.00000E+00
    0.00000E+00         0.00000E+00        -0.50741E-08
 
    0.30482E+06         0.10291E+06         0.00000E+00
    0.10291E+06        -0.47742E+08         0.00000E+00
    0.00000E+00         0.00000E+00         0.10148E-07
 
    0.27686E+06         0.13435E+06         0.00000E+00
    0.13435E+06        -0.47792E+08         0.00000E+00
    0.00000E+00         0.00000E+00        -0.50741E-08
 
    0.25432E+06         0.16596E+06         0.00000E+00
    0.16596E+06        -0.47851E+08         0.00000E+00
    0.00000E+00         0.00000E+00         0.17759E-07
 
    0.23562E+06         0.19732E+06         0.00000E+00
    0.19732E+06        -0.47917E+08         0.00000E+00
    0.00000E+00         0.00000E+00        -0.20296E-07
 
    0.21966E+06         0.22806E+06         0.00000E+00
    0.22806E+06        -0.47986E+08         0.00000E+00
    0.00000E+00         0.00000E+00        -0.10148E-07
 
    0.20571E+06         0.25790E+06         0.00000E+00
    0.25790E+06        -0.48060E+08         0.00000E+00
    0.00000E+00         0.00000E+00        -0.25370E-08
 
    0.19332E+06         0.28662E+06         0.00000E+00
    0.28662E+06        -0.48135E+08         0.00000E+00
    0.00000E+00         0.00000E+00         0.15222E-07
 
    0.18220E+06         0.31408E+06         0.00000E+00
    0.31408E+06        -0.48212E+08         0.00000E+00
    0.00000E+00         0.00000E+00         0.10148E-07
 
    0.17220E+06         0.34023E+06         0.00000E+00
    0.34023E+06        -0.48290E+08         0.00000E+00
    0.00000E+00         0.00000E+00         0.25370E-07
 
    0.16319E+06         0.36505E+06         0.00000E+00
    0.36505E+06        -0.48368E+08         0.00000E+00
    0.00000E+00         0.00000E+00         0.15222E-07
 
    0.15512E+06         0.38858E+06         0.00000E+00
    0.38858E+06        -0.48447E+08         0.00000E+00
    0.00000E+00         0.00000E+00         0.10148E-07
 
    0.14793E+06         0.41087E+06         0.00000E+00
    0.41087E+06        -0.48526E+08         0.00000E+00
    0.00000E+00         0.00000E+00        -0.15222E-07
 
    0.14158E+06         0.43200E+06         0.00000E+00
    0.43200E+06        -0.48606E+08         0.00000E+00
    0.00000E+00         0.00000E+00         0.22833E-07
 
    0.13604E+06         0.45208E+06         0.00000E+00
    0.45208E+06        -0.48686E+08         0.00000E+00
    0.00000E+00         0.00000E+00        -0.10148E-07
 
    0.13125E+06         0.47120E+06         0.00000E+00
    0.47120E+06        -0.48766E+08         0.00000E+00
    0.00000E+00         0.00000E+00        -0.27907E-07
 
    0.12718E+06         0.48947E+06         0.00000E+00
    0.48947E+06        -0.48847E+08         0.00000E+00
    0.00000E+00         0.00000E+00         0.25370E-07
 
    0.12379E+06         0.50699E+06         0.00000E+00
    0.50699E+06        -0.48929E+08         0.00000E+00
    0.00000E+00         0.00000E+00         0.12685E-07
 
    0.12102E+06         0.52387E+06         0.00000E+00
    0.52387E+06        -0.49011E+08         0.00000E+00
    0.00000E+00         0.00000E+00        -0.30444E-07
 
    0.11883E+06         0.54020E+06         0.00000E+00
    0.54020E+06        -0.49093E+08         0.00000E+00
    0.00000E+00         0.00000E+00        -0.12685E-07
 
    0.11717E+06         0.55607E+06         0.00000E+00
    0.55607E+06        -0.49177E+08         0.00000E+00
    0.00000E+00         0.00000E+00        -0.50741E-08
 
    0.11599E+06         0.57157E+06         0.00000E+00
    0.57157E+06        -0.49262E+08         0.00000E+00
    0.00000E+00         0.00000E+00         0.15222E-07
 
    0.11525E+06         0.58676E+06         0.00000E+00
    0.58676E+06        -0.49347E+08         0.00000E+00
    0.00000E+00         0.00000E+00         0.10148E-07
 
    0.11490E+06         0.60173E+06         0.00000E+00
    0.60173E+06        -0.49434E+08         0.00000E+00
    0.00000E+00         0.00000E+00         0.76111E-08
 
    0.11490E+06         0.61653E+06         0.00000E+00
    0.61653E+06        -0.49522E+08         0.00000E+00
    0.00000E+00         0.00000E+00        -0.10148E-07
 
    0.11521E+06         0.63122E+06         0.00000E+00
    0.63122E+06        -0.49612E+08         0.00000E+00
    0.00000E+00         0.00000E+00        -0.76111E-08
 
    0.11580E+06         0.64585E+06         0.00000E+00
    0.64585E+06        -0.49703E+08         0.00000E+00
    0.00000E+00         0.00000E+00         0.10148E-07
 
    0.11662E+06         0.66045E+06         0.00000E+00
    0.66045E+06        -0.49796E+08         0.00000E+00
    0.00000E+00         0.00000E+00        -0.10148E-07
 
    0.11765E+06         0.67508E+06         0.00000E+00
    0.67508E+06        -0.49890E+08         0.00000E+00
    0.00000E+00         0.00000E+00         0.12685E-07
 
    0.11885E+06         0.68975E+06         0.00000E+00
    0.68975E+06        -0.49986E+08         0.00000E+00
    0.00000E+00         0.00000E+00        -0.76111E-08
 
    0.12019E+06         0.70450E+06         0.00000E+00
    0.70450E+06        -0.50084E+08         0.00000E+00
    0.00000E+00         0.00000E+00        -0.22833E-07
 
    0.12166E+06         0.71935E+06         0.00000E+00
    0.71935E+06        -0.50183E+08         0.00000E+00
    0.00000E+00         0.00000E+00         0.25370E-08
 
    0.12322E+06         0.73432E+06         0.00000E+00
    0.73432E+06        -0.50285E+08         0.00000E+00
    0.00000E+00         0.00000E+00        -0.60889E-07
 
    0.12485E+06         0.74942E+06         0.00000E+00
    0.74942E+06        -0.50389E+08         0.00000E+00
    0.00000E+00         0.00000E+00        -0.17759E-07
 
    0.12654E+06         0.76467E+06         0.00000E+00
    0.76467E+06        -0.50494E+08         0.00000E+00
    0.00000E+00         0.00000E+00         0.25370E-08
 
    0.12826E+06         0.78007E+06         0.00000E+00
    0.78007E+06        -0.50602E+08         0.00000E+00
    0.00000E+00         0.00000E+00        -0.20296E-07
 
    0.12999E+06         0.79563E+06         0.00000E+00
    0.79563E+06        -0.50712E+08         0.00000E+00
    0.00000E+00         0.00000E+00        -0.22833E-07
 
    0.13171E+06         0.81136E+06         0.00000E+00
    0.81136E+06        -0.50825E+08         0.00000E+00
    0.00000E+00         0.00000E+00         0.17759E-07
 
    0.13342E+06         0.82725E+06         0.00000E+00
    0.82725E+06        -0.50939E+08         0.00000E+00
    0.00000E+00         0.00000E+00        -0.25370E-07
 
    0.13509E+06         0.84330E+06         0.00000E+00
    0.84330E+06        -0.51057E+08         0.00000E+00
    0.00000E+00         0.00000E+00        -0.25370E-08
 
    0.13670E+06         0.85951E+06         0.00000E+00
    0.85951E+06        -0.51176E+08         0.00000E+00
    0.00000E+00         0.00000E+00         0.25370E-08
 
    0.13825E+06         0.87587E+06         0.00000E+00
    0.87587E+06        -0.51298E+08         0.00000E+00
    0.00000E+00         0.00000E+00        -0.50741E-08
 
    0.13971E+06         0.89238E+06         0.00000E+00
    0.89238E+06        -0.51423E+08         0.00000E+00
    0.00000E+00         0.00000E+00         0.20296E-07
 
    0.14108E+06         0.90901E+06         0.00000E+00
    0.90901E+06        -0.51550E+08         0.00000E+00
    0.00000E+00         0.00000E+00        -0.10148E-07
 
    0.14234E+06         0.92576E+06         0.00000E+00
    0.92576E+06        -0.51680E+08         0.00000E+00
    0.00000E+00         0.00000E+00        -0.38055E-07
 
    0.14346E+06         0.94262E+06         0.00000E+00
    0.94262E+06        -0.51813E+08         0.00000E+00
    0.00000E+00         0.00000E+00         0.00000E+00
 
    0.14444E+06         0.95956E+06         0.00000E+00
    0.95956E+06        -0.51949E+08         0.00000E+00
    0.00000E+00         0.00000E+00         0.25370E-08
 
    0.14527E+06         0.97657E+06         0.00000E+00
    0.97657E+06        -0.52087E+08         0.00000E+00
    0.00000E+00         0.00000E+00        -0.10148E-07
 
    0.14591E+06         0.99362E+06         0.00000E+00
    0.99362E+06        -0.52228E+08         0.00000E+00
    0.00000E+00         0.00000E+00         0.30444E-07
 
    0.14637E+06         0.10107E+07         0.00000E+00
    0.10107E+07        -0.52372E+08         0.00000E+00
    0.00000E+00         0.00000E+00        -0.10148E-07
 
    0.14661E+06         0.10278E+07         0.00000E+00
    0.10278E+07        -0.52519E+08         0.00000E+00
    0.00000E+00         0.00000E+00        -0.25370E-08
 
    0.14662E+06         0.10448E+07         0.00000E+00
    0.10448E+07        -0.52669E+08         0.00000E+00
    0.00000E+00         0.00000E+00         0.27907E-07
 
    0.14637E+06         0.10617E+07         0.00000E+00
    0.10617E+07        -0.52823E+08         0.00000E+00
    0.00000E+00         0.00000E+00         0.00000E+00
 
    0.14585E+06         0.10786E+07         0.00000E+00
    0.10786E+07        -0.52979E+08         0.00000E+00
    0.00000E+00         0.00000E+00         0.17759E-07
 
    0.14504E+06         0.10953E+07         0.00000E+00
    0.10953E+07        -0.53138E+08         0.00000E+00
    0.00000E+00         0.00000E+00        -0.25370E-08
 
    0.14390E+06         0.11118E+07         0.00000E+00
    0.11118E+07        -0.53300E+08         0.00000E+00
    0.00000E+00         0.00000E+00        -0.22833E-07
 
    0.14241E+06         0.11281E+07         0.00000E+00
    0.11281E+07        -0.53466E+08         0.00000E+00
    0.00000E+00         0.00000E+00        -0.15222E-07
 
    0.14053E+06         0.11441E+07         0.00000E+00
    0.11441E+07        -0.53635E+08         0.00000E+00
    0.00000E+00         0.00000E+00         0.12685E-07
 
    0.13824E+06         0.11597E+07         0.00000E+00
    0.11597E+07        -0.53807E+08         0.00000E+00
    0.00000E+00         0.00000E+00         0.10148E-07
 
    0.13550E+06         0.11750E+07         0.00000E+00
    0.11750E+07        -0.53982E+08         0.00000E+00
    0.00000E+00         0.00000E+00         0.00000E+00
 
    0.13227E+06         0.11898E+07         0.00000E+00
    0.11898E+07        -0.54160E+08         0.00000E+00
    0.00000E+00         0.00000E+00         0.25375E-08
 
    0.12850E+06         0.12040E+07         0.00000E+00
    0.12040E+07        -0.54342E+08         0.00000E+00
    0.00000E+00         0.00000E+00         0.20296E-07
 
    0.12416E+06         0.12176E+07         0.00000E+00
    0.12176E+07        -0.54527E+08         0.00000E+00
    0.00000E+00         0.00000E+00        -0.17760E-07
 
    0.11917E+06         0.12305E+07         0.00000E+00
    0.12305E+07        -0.54716E+08         0.00000E+00
    0.00000E+00         0.00000E+00         0.17759E-07
 
    0.11350E+06         0.12427E+07         0.00000E+00
    0.12427E+07        -0.54908E+08         0.00000E+00
    0.00000E+00         0.00000E+00        -0.25375E-08
 
    0.10707E+06         0.12539E+07         0.00000E+00
    0.12539E+07        -0.55103E+08         0.00000E+00
    0.00000E+00         0.00000E+00         0.40593E-07
 
    0.99810E+05         0.12640E+07         0.00000E+00
    0.12640E+07        -0.55302E+08         0.00000E+00
    0.00000E+00         0.00000E+00         0.25370E-07
 
    0.91653E+05         0.12730E+07         0.00000E+00
    0.12730E+07        -0.55504E+08         0.00000E+00
    0.00000E+00         0.00000E+00        -0.27907E-07
 
    0.82511E+05         0.12807E+07         0.00000E+00
    0.12807E+07        -0.55709E+08         0.00000E+00
    0.00000E+00         0.00000E+00         0.15221E-07
 
    0.72294E+05         0.12870E+07         0.00000E+00
    0.12870E+07        -0.55918E+08         0.00000E+00
    0.00000E+00         0.00000E+00         0.45666E-07
 
    0.60905E+05         0.12916E+07         0.00000E+00
    0.12916E+07        -0.56131E+08         0.00000E+00
    0.00000E+00         0.00000E+00        -0.43130E-07
 
    0.48238E+05         0.12944E+07         0.00000E+00
    0.12944E+07        -0.56347E+08         0.00000E+00
    0.00000E+00         0.00000E+00        -0.25366E-08
 
    0.34181E+05         0.12952E+07         0.00000E+00
    0.12952E+07        -0.56567E+08         0.00000E+00
    0.00000E+00         0.00000E+00         0.22833E-07
 
    0.18613E+05         0.12938E+07         0.00000E+00
    0.12938E+07        -0.56790E+08         0.00000E+00
    0.00000E+00         0.00000E+00         0.20295E-07
 
    0.14076E+04         0.12898E+07         0.00000E+00
    0.12898E+07        -0.57018E+08         0.00000E+00
    0.00000E+00         0.00000E+00        -0.27908E-07
 
   -0.17565E+05         0.12831E+07         0.00000E+00
    0.12831E+07        -0.57249E+08         0.00000E+00
    0.00000E+00         0.00000E+00         0.00000E+00
 
   -0.38440E+05         0.12734E+07         0.00000E+00
    0.12734E+07        -0.57483E+08         0.00000E+00
    0.00000E+00         0.00000E+00        -0.32981E-07
 
   -0.61353E+05         0.12603E+07         0.00000E+00
    0.12603E+07        -0.57722E+08         0.00000E+00
    0.00000E+00         0.00000E+00         0.00000E+00
 
   -0.86437E+05         0.12435E+07         0.00000E+00
    0.12435E+07        -0.57965E+08         0.00000E+00
    0.00000E+00         0.00000E+00         0.35518E-07
 
   -0.11382E+06         0.12228E+07         0.00000E+00
    0.12228E+07        -0.58212E+08         0.00000E+00
    0.00000E+00         0.00000E+00         0.20296E-07
 
   -0.14363E+06         0.11976E+07         0.00000E+00
    0.11976E+07        -0.58462E+08         0.00000E+00
    0.00000E+00         0.00000E+00        -0.10149E-07
 
   -0.17598E+06         0.11677E+07         0.00000E+00
    0.11677E+07        -0.58717E+08         0.00000E+00
    0.00000E+00         0.00000E+00         0.90949E-12
 
   -0.21096E+06         0.11328E+07         0.00000E+00
    0.11328E+07        -0.58975E+08         0.00000E+00
    0.00000E+00         0.00000E+00         0.60889E-07
 
   -0.24866E+06         0.10924E+07         0.00000E+00
    0.10924E+07        -0.59237E+08         0.00000E+00
    0.00000E+00         0.00000E+00        -0.38055E-07
 
   -0.28916E+06         0.10463E+07         0.00000E+00
    0.10463E+07        -0.59503E+08         0.00000E+00
    0.00000E+00         0.00000E+00        -0.38056E-07
 
   -0.33254E+06         0.99427E+06         0.00000E+00
    0.99427E+06        -0.59771E+08         0.00000E+00
    0.00000E+00         0.00000E+00        -0.76107E-08
 
   -0.37890E+06         0.93614E+06         0.00000E+00
    0.93614E+06        -0.60041E+08         0.00000E+00
    0.00000E+00         0.00000E+00        -0.30444E-07
 
   -0.42840E+06         0.87187E+06         0.00000E+00
    0.87187E+06        -0.60312E+08         0.00000E+00
    0.00000E+00         0.00000E+00         0.10148E-07
 
   -0.48132E+06         0.80159E+06         0.00000E+00
    0.80159E+06        -0.60582E+08         0.00000E+00
    0.00000E+00         0.00000E+00        -0.30444E-07
 
   -0.53820E+06         0.72563E+06         0.00000E+00
    0.72563E+06        -0.60849E+08         0.00000E+00
    0.00000E+00         0.00000E+00         0.10148E-07
 
   -0.59992E+06         0.64458E+06         0.00000E+00
    0.64458E+06        -0.61110E+08         0.00000E+00
    0.00000E+00         0.00000E+00         0.20296E-07
 
   -0.66803E+06         0.55929E+06         0.00000E+00
    0.55929E+06        -0.61361E+08         0.00000E+00
    0.00000E+00         0.00000E+00         0.20296E-07
 
   -0.74502E+06         0.47094E+06         0.00000E+00
    0.47094E+06        -0.61596E+08         0.00000E+00
    0.00000E+00         0.00000E+00         0.60889E-07
 
   -0.83474E+06         0.38096E+06         0.00000E+00
    0.38096E+06        -0.61809E+08         0.00000E+00
    0.00000E+00         0.00000E+00        -0.25370E-07
 
   -0.94278E+06         0.29105E+06         0.00000E+00
    0.29105E+06        -0.61991E+08         0.00000E+00
    0.00000E+00         0.00000E+00        -0.20296E-07
 
   -0.10763E+07         0.20314E+06         0.00000E+00
    0.20314E+06        -0.62135E+08         0.00000E+00
    0.00000E+00         0.00000E+00         0.10148E-07
 
   -0.12429E+07         0.11903E+06         0.00000E+00
    0.11903E+06        -0.62234E+08         0.00000E+00
    0.00000E+00         0.00000E+00        -0.50741E-07
 
   -0.14488E+07         0.39047E+05         0.00000E+00
    0.39047E+05        -0.62284E+08         0.00000E+00
    0.00000E+00         0.00000E+00        -0.45667E-07
 
    0.46267E+06         0.12794E+05         0.00000E+00
    0.12794E+05        -0.47667E+08         0.00000E+00
    0.00000E+00         0.00000E+00         0.50742E-08
 
    0.40587E+06         0.38951E+05         0.00000E+00
    0.38951E+05        -0.47681E+08         0.00000E+00
    0.00000E+00         0.00000E+00        -0.25370E-08
 
    0.36004E+06         0.66508E+05         0.00000E+00
    0.66508E+05        -0.47708E+08         0.00000E+00
    0.00000E+00         0.00000E+00        -0.10148E-07
 
    0.32357E+06         0.95564E+05         0.00000E+00
    0.95564E+05        -0.47748E+08         0.00000E+00
    0.00000E+00         0.00000E+00         0.00000E+00
 
    0.29442E+06         0.12571E+06         0.00000E+00
    0.12571E+06        -0.47799E+08         0.00000E+00
    0.00000E+00         0.00000E+00         0.25370E-07
 
    0.27067E+06         0.15638E+06         0.00000E+00
    0.15638E+06        -0.47858E+08         0.00000E+00
    0.00000E+00         0.00000E+00         0.00000E+00
 
    0.25079E+06         0.18705E+06         0.00000E+00
    0.18705E+06        -0.47923E+08         0.00000E+00
    0.00000E+00         0.00000E+00         0.25370E-07
 
    0.23372E+06         0.21726E+06         0.00000E+00
    0.21726E+06        -0.47993E+08         0.00000E+00
    0.00000E+00         0.00000E+00        -0.27907E-07
 
    0.21874E+06         0.24666E+06         0.00000E+00
    0.24666E+06        -0.48065E+08         0.00000E+00
    0.00000E+00         0.00000E+00        -0.22833E-07
 
    0.20541E+06         0.27500E+06         0.00000E+00
    0.27500E+06        -0.48141E+08         0.00000E+00
    0.00000E+00         0.00000E+00         0.10148E-07
 
    0.19344E+06         0.30212E+06         0.00000E+00
    0.30212E+06        -0.48217E+08         0.00000E+00
    0.00000E+00         0.00000E+00        -0.25370E-08
 
    0.18268E+06         0.32794E+06         0.00000E+00
    0.32794E+06        -0.48295E+08         0.00000E+00
    0.00000E+00         0.00000E+00        -0.25370E-07
 
    0.17300E+06         0.35243E+06         0.00000E+00
    0.35243E+06        -0.48373E+08         0.00000E+00
    0.00000E+00         0.00000E+00         0.00000E+00
 
    0.16434E+06         0.37562E+06         0.00000E+00
    0.37562E+06        -0.48452E+08         0.00000E+00
    0.00000E+00         0.00000E+00         0.00000E+00
 
    0.15664E+06         0.39757E+06         0.00000E+00
    0.39757E+06        -0.48531E+08         0.00000E+00
    0.00000E+00         0.00000E+00        -0.17759E-07
 
    0.14986E+06         0.41836E+06         0.00000E+00
    0.41836E+06        -0.48610E+08         0.00000E+00
    0.00000E+00         0.00000E+00         0.30444E-07
 
    0.14394E+06         0.43808E+06         0.00000E+00
    0.43808E+06        -0.48690E+08         0.00000E+00
    0.00000E+00         0.00000E+00        -0.12685E-07
 
    0.13884E+06         0.45685E+06         0.00000E+00
    0.45685E+06        -0.48770E+08         0.00000E+00
    0.00000E+00         0.00000E+00         0.50741E-08
 
    0.13452E+06         0.47476E+06         0.00000E+00
    0.47476E+06        -0.48851E+08         0.00000E+00
    0.00000E+00         0.00000E+00        -0.25370E-08
 
    0.13091E+06         0.49192E+06         0.00000E+00
    0.49192E+06        -0.48932E+08         0.00000E+00
    0.00000E+00         0.00000E+00        -0.20296E-07
 
    0.12798E+06         0.50844E+06         0.00000E+00
    0.50844E+06        -0.49014E+08         0.00000E+00
    0.00000E+00         0.00000E+00        -0.76111E-08
 
    0.12566E+06         0.52440E+06         0.00000E+00
    0.52440E+06        -0.49097E+08         0.00000E+00
    0.00000E+00         0.00000E+00         0.17759E-07
 
    0.12391E+06         0.53990E+06         0.00000E+00
    0.53990E+06        -0.49180E+08         0.00000E+00
    0.00000E+00         0.00000E+00         0.10148E-07
 
    0.12267E+06         0.55503E+06         0.00000E+00
    0.55503E+06        -0.49265E+08         0.00000E+00
    0.00000E+00         0.00000E+00        -0.12685E-07
 
    0.12190E+06         0.56985E+06         0.00000E+00
    0.56985E+06        -0.49350E+08         0.00000E+00
    0.00000E+00         0.00000E+00         0.50736E-08
 
    0.12154E+06         0.58444E+06         0.00000E+00
    0.58444E+06        -0.49437E+08         0.00000E+00
    0.00000E+00         0.00000E+00         0.50741E-08
 
    0.12155E+06         0.59885E+06         0.00000E+00
    0.59885E+06        -0.49525E+08         0.00000E+00
    0.00000E+00         0.00000E+00        -0.22833E-07
 
    0.12189E+06         0.61316E+06         0.00000E+00
    0.61316E+06        -0.49615E+08         0.00000E+00
    0.00000E+00         0.00000E+00        -0.17759E-07
 
    0.12252E+06         0.62739E+06         0.00000E+00
    0.62739E+06        -0.49706E+08         0.00000E+00
    0.00000E+00         0.00000E+00         0.76111E-08
 
    0.12340E+06         0.64160E+06         0.00000E+00
    0.64160E+06        -0.49799E+08         0.00000E+00
    0.00000E+00         0.00000E+00        -0.10148E-07
 
    0.12450E+06         0.65582E+06         0.00000E+00
    0.65582E+06        -0.49893E+08         0.00000E+00
    0.00000E+00         0.00000E+00         0.12685E-07
 
    0.12578E+06         0.67008E+06         0.00000E+00
    0.67008E+06        -0.49989E+08         0.00000E+00
    0.00000E+00         0.00000E+00         0.12685E-07
 
    0.12721E+06         0.68442E+06         0.00000E+00
    0.68442E+06        -0.50087E+08         0.00000E+00
    0.00000E+00         0.00000E+00         0.25370E-08
 
    0.12877E+06         0.69885E+06         0.00000E+00
    0.69885E+06        -0.50186E+08         0.00000E+00
    0.00000E+00         0.00000E+00        -0.38055E-07
 
    0.13043E+06         0.71339E+06         0.00000E+00
    0.71339E+06        -0.50288E+08         0.00000E+00
    0.00000E+00         0.00000E+00         0.17759E-07
 
    0.13216E+06         0.72806E+06         0.00000E+00
    0.72806E+06        -0.50392E+08         0.00000E+00
    0.00000E+00         0.00000E+00        -0.22833E-07
 
    0.13395E+06         0.74287E+06         0.00000E+00
    0.74287E+06        -0.50497E+08         0.00000E+00
    0.00000E+00         0.00000E+00         0.17759E-07
 
    0.13578E+06         0.75782E+06         0.00000E+00
    0.75782E+06        -0.50605E+08         0.00000E+00
    0.00000E+00         0.00000E+00        -0.12685E-07
 
    0.13761E+06         0.77293E+06         0.00000E+00
    0.77293E+06        -0.50715E+08         0.00000E+00
    0.00000E+00         0.00000E+00         0.17759E-07
 
    0.13945E+06         0.78819E+06         0.00000E+00
    0.78819E+06        -0.50828E+08         0.00000E+00
    0.00000E+00         0.00000E+00         0.25370E-08
 
    0.14126E+06         0.80362E+06         0.00000E+00
    0.80362E+06        -0.50943E+08         0.00000E+00
    0.00000E+00         0.00000E+00         0.50741E-08
 
    0.14303E+06         0.81919E+06         0.00000E+00
    0.81919E+06        -0.51060E+08         0.00000E+00
    0.00000E+00         0.00000E+00         0.17759E-07
 
    0.14474E+06         0.83492E+06         0.00000E+00
    0.83492E+06        -0.51179E+08         0.00000E+00
    0.00000E+00         0.00000E+00         0.12685E-07
 
    0.14638E+06         0.85080E+06         0.00000E+00
    0.85080E+06        -0.51302E+08         0.00000E+00
    0.00000E+00         0.00000E+00         0.20296E-07
 
    0.14794E+06         0.86681E+06         0.00000E+00
    0.86681E+06        -0.51426E+08         0.00000E+00
    0.00000E+00         0.00000E+00         0.50741E-08
 
    0.14939E+06         0.88294E+06         0.00000E+00
    0.88294E+06        -0.51554E+08         0.00000E+00
    0.00000E+00         0.00000E+00        -0.10148E-07
 
    0.15072E+06         0.89919E+06         0.00000E+00
    0.89919E+06        -0.51684E+08         0.00000E+00
    0.00000E+00         0.00000E+00         0.20296E-07
 
    0.15192E+06         0.91553E+06         0.00000E+00
    0.91553E+06        -0.51816E+08         0.00000E+00
    0.00000E+00         0.00000E+00         0.15222E-07
 
    0.15296E+06         0.93196E+06         0.00000E+00
    0.93196E+06        -0.51952E+08         0.00000E+00
    0.00000E+00         0.00000E+00        -0.22833E-07
 
    0.15384E+06         0.94845E+06         0.00000E+00
    0.94845E+06        -0.52090E+08         0.00000E+00
    0.00000E+00         0.00000E+00         0.25370E-08
 
    0.15453E+06         0.96497E+06         0.00000E+00
    0.96497E+06        -0.52232E+08         0.00000E+00
    0.00000E+00         0.00000E+00        -0.25370E-08
 
    0.15501E+06         0.98152E+06         0.00000E+00
    0.98152E+06        -0.52376E+08         0.00000E+00
    0.00000E+00         0.00000E+00         0.17759E-07
 
    0.15527E+06         0.99805E+06         0.00000E+00
    0.99805E+06        -0.52523E+08         0.00000E+00
    0.00000E+00         0.00000E+00         0.00000E+00
 
    0.15528E+06         0.10145E+07         0.00000E+00
    0.10145E+07        -0.52673E+08         0.00000E+00
    0.00000E+00         0.00000E+00        -0.30444E-07
 
    0.15503E+06         0.10310E+07         0.00000E+00
    0.10310E+07        -0.52826E+08         0.00000E+00
    0.00000E+00         0.00000E+00         0.00000E+00
 
    0.15449E+06         0.10473E+07         0.00000E+00
    0.10473E+07        -0.52982E+08         0.00000E+00
    0.00000E+00         0.00000E+00        -0.10148E-07
 
    0.15363E+06         0.10635E+07         0.00000E+00
    0.10635E+07        -0.53141E+08         0.00000E+00
    0.00000E+00         0.00000E+00        -0.10148E-07
 
    0.15243E+06         0.10795E+07         0.00000E+00
    0.10795E+07        -0.53304E+08         0.00000E+00
    0.00000E+00         0.00000E+00        -0.25366E-08
 
    0.15086E+06         0.10952E+07         0.00000E+00
    0.10952E+07        -0.53469E+08         0.00000E+00
    0.00000E+00         0.00000E+00         0.10148E-07
 
    0.14889E+06         0.11107E+07         0.00000E+00
    0.11107E+07        -0.53638E+08         0.00000E+00
    0.00000E+00         0.00000E+00        -0.17760E-07
 
    0.14648E+06         0.11258E+07         0.00000E+00
    0.11258E+07        -0.53810E+08         0.00000E+00
    0.00000E+00         0.00000E+00         0.38056E-07
 
    0.14359E+06         0.11406E+07         0.00000E+00
    0.11406E+07        -0.53985E+08         0.00000E+00
    0.00000E+00         0.00000E+00         0.00000E+00
 
    0.14018E+06         0.11549E+07         0.00000E+00
    0.11549E+07        -0.54163E+08         0.00000E+00
    0.00000E+00         0.00000E+00         0.25366E-08
 
    0.13620E+06         0.11686E+07         0.00000E+00
    0.11686E+07        -0.54345E+08         0.00000E+00
    0.00000E+00         0.00000E+00         0.12686E-07
 
    0.13162E+06         0.11818E+07         0.00000E+00
    0.11818E+07        -0.54530E+08         0.00000E+00
    0.00000E+00         0.00000E+00         0.50741E-08
 
    0.12636E+06         0.11942E+07         0.00000E+00
    0.11942E+07        -0.54718E+08         0.00000E+00
    0.00000E+00         0.00000E+00        -0.15222E-07
 
    0.12037E+06         0.12059E+07         0.00000E+00
    0.12059E+07        -0.54910E+08         0.00000E+00
    0.00000E+00         0.00000E+00        -0.12686E-07
 
    0.11358E+06         0.12166E+07         0.00000E+00
    0.12166E+07        -0.55105E+08         0.00000E+00
    0.00000E+00         0.00000E+00        -0.10148E-07
 
    0.10592E+06         0.12264E+07         0.00000E+00
    0.12264E+07        -0.55303E+08         0.00000E+00
    0.00000E+00         0.00000E+00         0.76116E-08
 
    0.97309E+05         0.12350E+07         0.00000E+00
    0.12350E+07        -0.55505E+08         0.00000E+00
    0.00000E+00         0.00000E+00        -0.15222E-07
 
    0.87658E+05         0.12424E+07         0.00000E+00
    0.12424E+07        -0.55711E+08         0.00000E+00
    0.00000E+00         0.00000E+00        -0.22834E-07
 
    0.76871E+05         0.12483E+07         0.00000E+00
    0.12483E+07        -0.55919E+08         0.00000E+00
    0.00000E+00         0.00000E+00         0.12685E-07
 
    0.64843E+05         0.12526E+07         0.00000E+00
    0.12526E+07        -0.56132E+08         0.00000E+00
    0.00000E+00         0.00000E+00        -0.20296E-07
 
    0.51464E+05         0.12551E+07         0.00000E+00
    0.12551E+07        -0.56347E+08         0.00000E+00
    0.00000E+00         0.00000E+00         0.17759E-07
 
    0.36612E+05         0.12557E+07         0.00000E+00
    0.12557E+07        -0.56567E+08         0.00000E+00
    0.00000E+00         0.00000E+00         0.48203E-07
 
    0.20159E+05         0.12540E+07         0.00000E+00
    0.12540E+07        -0.56790E+08         0.00000E+00
    0.00000E+00         0.00000E+00         0.00000E+00
 
    0.19700E+04         0.12499E+07         0.00000E+00
    0.12499E+07        -0.57017E+08         0.00000E+00
    0.00000E+00         0.00000E+00         0.20296E-07
 
   -0.18096E+05         0.12431E+07         0.00000E+00
    0.12431E+07        -0.57247E+08         0.00000E+00
    0.00000E+00         0.00000E+00         0.25370E-07
 
   -0.40186E+05         0.12333E+07         0.00000E+00
    0.12333E+07        -0.57481E+08         0.00000E+00
    0.00000E+00         0.00000E+00         0.50741E-08
 
   -0.64447E+05         0.12202E+07         0.00000E+00
    0.12202E+07        -0.57719E+08         0.00000E+00
    0.00000E+00         0.00000E+00         0.50741E-07
 
   -0.91026E+05         0.12034E+07         0.00000E+00
    0.12034E+07        -0.57961E+08         0.00000E+00
    0.00000E+00         0.00000E+00         0.45667E-07
 
   -0.12007E+06         0.11827E+07         0.00000E+00
    0.11827E+07        -0.58207E+08         0.00000E+00
    0.00000E+00         0.00000E+00         0.60889E-07
 
   -0.15171E+06         0.11576E+07         0.00000E+00
    0.11576E+07        -0.58457E+08         0.00000E+00
    0.00000E+00         0.00000E+00         0.50741E-08
 
   -0.18608E+06         0.11279E+07         0.00000E+00
    0.11279E+07        -0.58710E+08         0.00000E+00
    0.00000E+00         0.00000E+00        -0.10148E-07
 
   -0.22330E+06         0.10931E+07         0.00000E+00
    0.10931E+07        -0.58968E+08         0.00000E+00
    0.00000E+00         0.00000E+00         0.15222E-07
 
   -0.26346E+06         0.10530E+07         0.00000E+00
    0.10530E+07        -0.59229E+08         0.00000E+00
    0.00000E+00         0.00000E+00         0.35518E-07
 
   -0.30667E+06         0.10071E+07         0.00000E+00
    0.10071E+07        -0.59493E+08         0.00000E+00
    0.00000E+00         0.00000E+00         0.10148E-07
 
   -0.35302E+06         0.95542E+06         0.00000E+00
    0.95542E+06        -0.59760E+08         0.00000E+00
    0.00000E+00         0.00000E+00         0.35518E-07
 
   -0.40262E+06         0.89765E+06         0.00000E+00
    0.89765E+06        -0.60029E+08         0.00000E+00
    0.00000E+00         0.00000E+00         0.00000E+00
 
   -0.45566E+06         0.83380E+06         0.00000E+00
    0.83380E+06        -0.60298E+08         0.00000E+00
    0.00000E+00         0.00000E+00         0.30444E-07
 
   -0.51241E+06         0.76405E+06         0.00000E+00
    0.76405E+06        -0.60567E+08         0.00000E+00
    0.00000E+00         0.00000E+00         0.30444E-07
 
   -0.57340E+06         0.68878E+06         0.00000E+00
    0.68878E+06        -0.60833E+08         0.00000E+00
    0.00000E+00         0.00000E+00         0.10148E-07
 
   -0.63952E+06         0.60867E+06         0.00000E+00
    0.60867E+06        -0.61093E+08         0.00000E+00
    0.00000E+00         0.00000E+00         0.10148E-07
 
   -0.71225E+06         0.52474E+06         0.00000E+00
    0.52474E+06        -0.61343E+08         0.00000E+00
    0.00000E+00         0.00000E+00        -0.15222E-07
 
   -0.79402E+06         0.43839E+06         0.00000E+00
    0.43839E+06        -0.61578E+08         0.00000E+00
    0.00000E+00         0.00000E+00         0.15222E-07
 
   -0.88858E+06         0.35136E+06         0.00000E+00
    0.35136E+06        -0.61791E+08         0.00000E+00
    0.00000E+00         0.00000E+00         0.00000E+00
 
   -0.10013E+07         0.26569E+06         0.00000E+00
    0.26569E+06        -0.61974E+08         0.00000E+00
    0.00000E+00         0.00000E+00         0.15222E-07
 
   -0.11389E+07         0.18358E+06         0.00000E+00
    0.18358E+06        -0.62119E+08         0.00000E+00
    0.00000E+00         0.00000E+00         0.10148E-07
 
   -0.13086E+07         0.10667E+06         0.00000E+00
    0.10667E+06        -0.62218E+08         0.00000E+00
    0.00000E+00         0.00000E+00         0.30444E-07
 
   -0.15161E+07         0.34829E+05         0.00000E+00
    0.34829E+05        -0.62269E+08         0.00000E+00
    0.00000E+00         0.00000E+00         0.50740E-08
 
    0.48333E+06         0.11622E+05         0.00000E+00
    0.11622E+05        -0.47672E+08         0.00000E+00
    0.00000E+00         0.00000E+00         0.00000E+00
 
    0.42615E+06         0.35516E+05         0.00000E+00
    0.35516E+05        -0.47686E+08         0.00000E+00
    0.00000E+00         0.00000E+00         0.35518E-07
 
    0.37960E+06         0.61046E+05         0.00000E+00
    0.61046E+05        -0.47714E+08         0.00000E+00
    0.00000E+00         0.00000E+00         0.22833E-07
 
    0.34215E+06         0.88436E+05         0.00000E+00
    0.88436E+05        -0.47754E+08         0.00000E+00
    0.00000E+00         0.00000E+00         0.76111E-08
 
    0.31187E+06         0.11730E+06         0.00000E+00
    0.11730E+06        -0.47805E+08         0.00000E+00
    0.00000E+00         0.00000E+00         0.15222E-07
 
    0.28695E+06         0.14703E+06         0.00000E+00
    0.14703E+06        -0.47864E+08         0.00000E+00
    0.00000E+00         0.00000E+00        -0.17759E-07
 
    0.26591E+06         0.17700E+06         0.00000E+00
    0.17700E+06        -0.47929E+08         0.00000E+00
    0.00000E+00         0.00000E+00         0.35518E-07
 
    0.24772E+06         0.20667E+06         0.00000E+00
    0.20667E+06        -0.47998E+08         0.00000E+00
    0.00000E+00         0.00000E+00        -0.76107E-08
 
    0.23170E+06         0.23562E+06         0.00000E+00
    0.23562E+06        -0.48071E+08         0.00000E+00
    0.00000E+00         0.00000E+00        -0.10148E-07
 
    0.21741E+06         0.26357E+06         0.00000E+00
    0.26357E+06        -0.48146E+08         0.00000E+00
    0.00000E+00         0.00000E+00         0.15222E-07
 
    0.20458E+06         0.29032E+06         0.00000E+00
    0.29032E+06        -0.48222E+08         0.00000E+00
    0.00000E+00         0.00000E+00        -0.25370E-08
 
    0.19305E+06         0.31578E+06         0.00000E+00
    0.31578E+06        -0.48300E+08         0.00000E+00
    0.00000E+00         0.00000E+00        -0.30444E-07
 
    0.18269E+06         0.33992E+06         0.00000E+00
    0.33992E+06        -0.48378E+08         0.00000E+00
    0.00000E+00         0.00000E+00         0.45667E-07
 
    0.17344E+06         0.36276E+06         0.00000E+00
    0.36276E+06        -0.48456E+08         0.00000E+00
    0.00000E+00         0.00000E+00         0.27907E-07
 
    0.16523E+06         0.38436E+06         0.00000E+00
    0.38436E+06        -0.48535E+08         0.00000E+00
    0.00000E+00         0.00000E+00         0.27907E-07
 
    0.15801E+06         0.40479E+06         0.00000E+00
    0.40479E+06        -0.48614E+08         0.00000E+00
    0.00000E+00         0.00000E+00        -0.30444E-07
 
    0.15172E+06         0.42416E+06         0.00000E+00
    0.42416E+06        -0.48694E+08         0.00000E+00
    0.00000E+00         0.00000E+00         0.25370E-07
 
    0.14631E+06         0.44256E+06         0.00000E+00
    0.44256E+06        -0.48774E+08         0.00000E+00
    0.00000E+00         0.00000E+00        -0.30444E-07
 
    0.14173E+06         0.46010E+06         0.00000E+00
    0.46010E+06        -0.48854E+08         0.00000E+00
    0.00000E+00         0.00000E+00        -0.76111E-08
 
    0.13792E+06         0.47689E+06         0.00000E+00
    0.47689E+06        -0.48935E+08         0.00000E+00
    0.00000E+00         0.00000E+00        -0.76111E-08
 
    0.13482E+06         0.49304E+06         0.00000E+00
    0.49304E+06        -0.49017E+08         0.00000E+00
    0.00000E+00         0.00000E+00        -0.25370E-07
 
    0.13238E+06         0.50862E+06         0.00000E+00
    0.50862E+06        -0.49100E+08         0.00000E+00
    0.00000E+00         0.00000E+00         0.50741E-08
 
    0.13054E+06         0.52375E+06         0.00000E+00
    0.52375E+06        -0.49183E+08         0.00000E+00
    0.00000E+00         0.00000E+00         0.38056E-07
 
    0.12925E+06         0.53849E+06         0.00000E+00
    0.53849E+06        -0.49268E+08         0.00000E+00
    0.00000E+00         0.00000E+00        -0.12685E-07
 
    0.12844E+06         0.55294E+06         0.00000E+00
    0.55294E+06        -0.49353E+08         0.00000E+00
    0.00000E+00         0.00000E+00         0.25370E-08
 
    0.12807E+06         0.56714E+06         0.00000E+00
    0.56714E+06        -0.49440E+08         0.00000E+00
    0.00000E+00         0.00000E+00         0.25370E-08
 
    0.12810E+06         0.58117E+06         0.00000E+00
    0.58117E+06        -0.49528E+08         0.00000E+00
    0.00000E+00         0.00000E+00         0.25370E-08
 
    0.12847E+06         0.59508E+06         0.00000E+00
    0.59508E+06        -0.49618E+08         0.00000E+00
    0.00000E+00         0.00000E+00         0.32981E-07
 
    0.12915E+06         0.60892E+06         0.00000E+00
    0.60892E+06        -0.49709E+08         0.00000E+00
    0.00000E+00         0.00000E+00         0.22833E-07
 
    0.13009E+06         0.62273E+06         0.00000E+00
    0.62273E+06        -0.49801E+08         0.00000E+00
    0.00000E+00         0.00000E+00         0.10148E-07
 
    0.13125E+06         0.63655E+06         0.00000E+00
    0.63655E+06        -0.49896E+08         0.00000E+00
    0.00000E+00         0.00000E+00         0.27907E-07
 
    0.13261E+06         0.65040E+06         0.00000E+00
    0.65040E+06        -0.49992E+08         0.00000E+00
    0.00000E+00         0.00000E+00        -0.27907E-07
 
    0.13413E+06         0.66432E+06         0.00000E+00
    0.66432E+06        -0.50089E+08         0.00000E+00
    0.00000E+00         0.00000E+00        -0.10148E-07
 
    0.13579E+06         0.67833E+06         0.00000E+00
    0.67833E+06        -0.50189E+08         0.00000E+00
    0.00000E+00         0.00000E+00        -0.43129E-07
 
    0.13755E+06         0.69244E+06         0.00000E+00
    0.69244E+06        -0.50291E+08         0.00000E+00
    0.00000E+00         0.00000E+00         0.25370E-07
 
    0.13938E+06         0.70668E+06         0.00000E+00
    0.70668E+06        -0.50394E+08         0.00000E+00
    0.00000E+00         0.00000E+00         0.10148E-07
 
    0.14128E+06         0.72104E+06         0.00000E+00
    0.72104E+06        -0.50500E+08         0.00000E+00
    0.00000E+00         0.00000E+00         0.76111E-08
 
    0.14321E+06         0.73555E+06         0.00000E+00
    0.73555E+06        -0.50608E+08         0.00000E+00
    0.00000E+00         0.00000E+00        -0.50741E-08
 
    0.14515E+06         0.75020E+06         0.00000E+00
    0.75020E+06        -0.50718E+08         0.00000E+00
    0.00000E+00         0.00000E+00         0.17759E-07
 
    0.14709E+06         0.76501E+06         0.00000E+00
    0.76501E+06        -0.50831E+08         0.00000E+00
    0.00000E+00         0.00000E+00         0.00000E+00
 
    0.14900E+06         0.77996E+06         0.00000E+00
    0.77996E+06        -0.50946E+08         0.00000E+00
    0.00000E+00         0.00000E+00        -0.22833E-07
 
    0.15088E+06         0.79507E+06         0.00000E+00
    0.79507E+06        -0.51063E+08         0.00000E+00
    0.00000E+00         0.00000E+00         0.76111E-08
 
    0.15269E+06         0.81031E+06         0.00000E+00
    0.81031E+06        -0.51182E+08         0.00000E+00
    0.00000E+00         0.00000E+00         0.00000E+00
 
    0.15443E+06         0.82570E+06         0.00000E+00
    0.82570E+06        -0.51305E+08         0.00000E+00
    0.00000E+00         0.00000E+00         0.17759E-07
 
    0.15607E+06         0.84122E+06         0.00000E+00
    0.84122E+06        -0.51429E+08         0.00000E+00
    0.00000E+00         0.00000E+00        -0.32981E-07
 
    0.15761E+06         0.85685E+06         0.00000E+00
    0.85685E+06        -0.51557E+08         0.00000E+00
    0.00000E+00         0.00000E+00         0.25370E-08
 
    0.15902E+06         0.87260E+06         0.00000E+00
    0.87260E+06        -0.51687E+08         0.00000E+00
    0.00000E+00         0.00000E+00         0.20296E-07
 
    0.16028E+06         0.88843E+06         0.00000E+00
    0.88843E+06        -0.51820E+08         0.00000E+00
    0.00000E+00         0.00000E+00        -0.25370E-08
 
    0.16139E+06         0.90435E+06         0.00000E+00
    0.90435E+06        -0.51955E+08         0.00000E+00
    0.00000E+00         0.00000E+00         0.22833E-07
 
    0.16232E+06         0.92032E+06         0.00000E+00
    0.92032E+06        -0.52094E+08         0.00000E+00
    0.00000E+00         0.00000E+00         0.20296E-07
 
    0.16305E+06         0.93632E+06         0.00000E+00
    0.93632E+06        -0.52235E+08         0.00000E+00
    0.00000E+00         0.00000E+00        -0.15222E-07
 
    0.16356E+06         0.95234E+06         0.00000E+00
    0.95234E+06        -0.52379E+08         0.00000E+00
    0.00000E+00         0.00000E+00        -0.25370E-07
 
    0.16384E+06         0.96835E+06         0.00000E+00
    0.96835E+06        -0.52526E+08         0.00000E+00
    0.00000E+00         0.00000E+00        -0.25370E-08
 
    0.16386E+06         0.98432E+06         0.00000E+00
    0.98432E+06        -0.52676E+08         0.00000E+00
    0.00000E+00         0.00000E+00        -0.76111E-08
 
    0.16360E+06         0.10002E+07         0.00000E+00
    0.10002E+07        -0.52829E+08         0.00000E+00
    0.00000E+00         0.00000E+00        -0.58352E-07
 
    0.16304E+06         0.10160E+07         0.00000E+00
    0.10160E+07        -0.52985E+08         0.00000E+00
    0.00000E+00         0.00000E+00         0.22833E-07
 
    0.16214E+06         0.10317E+07         0.00000E+00
    0.10317E+07        -0.53144E+08         0.00000E+00
    0.00000E+00         0.00000E+00        -0.20296E-07
 
    0.16089E+06         0.10471E+07         0.00000E+00
    0.10471E+07        -0.53307E+08         0.00000E+00
    0.00000E+00         0.00000E+00        -0.30444E-07
 
    0.15924E+06         0.10624E+07         0.00000E+00
    0.10624E+07        -0.53472E+08         0.00000E+00
    0.00000E+00         0.00000E+00        -0.12685E-07
 
    0.15717E+06         0.10773E+07         0.00000E+00
    0.10773E+07        -0.53641E+08         0.00000E+00
    0.00000E+00         0.00000E+00        -0.25370E-07
 
    0.15463E+06         0.10920E+07         0.00000E+00
    0.10920E+07        -0.53813E+08         0.00000E+00
    0.00000E+00         0.00000E+00         0.00000E+00
 
    0.15160E+06         0.11062E+07         0.00000E+00
    0.11062E+07        -0.53988E+08         0.00000E+00
    0.00000E+00         0.00000E+00         0.00000E+00
 
    0.14802E+06         0.11200E+07         0.00000E+00
    0.11200E+07        -0.54166E+08         0.00000E+00
    0.00000E+00         0.00000E+00         0.00000E+00
 
    0.14384E+06         0.11333E+07         0.00000E+00
    0.11333E+07        -0.54348E+08         0.00000E+00
    0.00000E+00         0.00000E+00        -0.20296E-07
 
    0.13902E+06         0.11459E+07         0.00000E+00
    0.11459E+07        -0.54532E+08         0.00000E+00
    0.00000E+00         0.00000E+00         0.10148E-07
 
    0.13349E+06         0.11579E+07         0.00000E+00
    0.11579E+07        -0.54721E+08         0.00000E+00
    0.00000E+00         0.00000E+00         0.45667E-07
 
    0.12720E+06         0.11692E+07         0.00000E+00
    0.11692E+07        -0.54912E+08         0.00000E+00
    0.00000E+00         0.00000E+00        -0.10148E-07
 
    0.12006E+06         0.11795E+07         0.00000E+00
    0.11795E+07        -0.55107E+08         0.00000E+00
    0.00000E+00         0.00000E+00         0.10148E-07
 
    0.11201E+06         0.11889E+07         0.00000E+00
    0.11889E+07        -0.55305E+08         0.00000E+00
    0.00000E+00         0.00000E+00         0.00000E+00
 
    0.10296E+06         0.11971E+07         0.00000E+00
    0.11971E+07        -0.55507E+08         0.00000E+00
    0.00000E+00         0.00000E+00         0.30444E-07
 
    0.92806E+05         0.12041E+07         0.00000E+00
    0.12041E+07        -0.55712E+08         0.00000E+00
    0.00000E+00         0.00000E+00        -0.40593E-07
 
    0.81461E+05         0.12097E+07         0.00000E+00
    0.12097E+07        -0.55920E+08         0.00000E+00
    0.00000E+00         0.00000E+00        -0.10148E-07
 
    0.68809E+05         0.12137E+07         0.00000E+00
    0.12137E+07        -0.56132E+08         0.00000E+00
    0.00000E+00         0.00000E+00         0.20296E-07
 
    0.54732E+05         0.12160E+07         0.00000E+00
    0.12160E+07        -0.56348E+08         0.00000E+00
    0.00000E+00         0.00000E+00         0.00000E+00
 
    0.39103E+05         0.12163E+07         0.00000E+00
    0.12163E+07        -0.56567E+08         0.00000E+00
    0.00000E+00         0.00000E+00        -0.35518E-07
 
    0.21783E+05         0.12145E+07         0.00000E+00
    0.12145E+07        -0.56789E+08         0.00000E+00
    0.00000E+00         0.00000E+00         0.35518E-07
 
    0.26285E+04         0.12102E+07         0.00000E+00
    0.12102E+07        -0.57015E+08         0.00000E+00
    0.00000E+00         0.00000E+00        -0.15222E-07
 
   -0.18512E+05         0.12033E+07         0.00000E+00
    0.12033E+07        -0.57245E+08         0.00000E+00
    0.00000E+00         0.00000E+00        -0.30444E-07
 
   -0.41796E+05         0.11935E+07         0.00000E+00
    0.11935E+07        -0.57479E+08         0.00000E+00
    0.00000E+00         0.00000E+00        -0.10148E-07
 
   -0.67384E+05         0.11803E+07         0.00000E+00
    0.11803E+07        -0.57716E+08         0.00000E+00
    0.00000E+00         0.00000E+00        -0.15222E-07
 
   -0.95438E+05         0.11636E+07         0.00000E+00
    0.11636E+07        -0.57957E+08         0.00000E+00
    0.00000E+00         0.00000E+00        -0.25370E-07
 
   -0.12612E+06         0.11430E+07         0.00000E+00
    0.11430E+07        -0.58202E+08         0.00000E+00
    0.00000E+00         0.00000E+00        -0.30444E-07
 
   -0.15958E+06         0.11180E+07         0.00000E+00
    0.11180E+07        -0.58451E+08         0.00000E+00
    0.00000E+00         0.00000E+00         0.10148E-07
 
   -0.19596E+06         0.10885E+07         0.00000E+00
    0.10885E+07        -0.58704E+08         0.00000E+00
    0.00000E+00         0.00000E+00         0.15222E-07
 
   -0.23540E+06         0.10539E+07         0.00000E+00
    0.10539E+07        -0.58960E+08         0.00000E+00
    0.00000E+00         0.00000E+00         0.50741E-08
 
   -0.27802E+06         0.10141E+07         0.00000E+00
    0.10141E+07        -0.59220E+08         0.00000E+00
    0.00000E+00         0.00000E+00         0.50741E-08
 
   -0.32394E+06         0.96856E+06         0.00000E+00
    0.96856E+06        -0.59483E+08         0.00000E+00
    0.00000E+00         0.00000E+00        -0.10148E-07
 
   -0.37327E+06         0.91719E+06         0.00000E+00
    0.91719E+06        -0.59749E+08         0.00000E+00
    0.00000E+00         0.00000E+00        -0.50741E-08
 
   -0.42615E+06         0.85983E+06         0.00000E+00
    0.85983E+06        -0.60017E+08         0.00000E+00
    0.00000E+00         0.00000E+00         0.10148E-07
 
   -0.48275E+06         0.79647E+06         0.00000E+00
    0.79647E+06        -0.60285E+08         0.00000E+00
    0.00000E+00         0.00000E+00        -0.30444E-07
 
   -0.54337E+06         0.72731E+06         0.00000E+00
    0.72731E+06        -0.60553E+08         0.00000E+00
    0.00000E+00         0.00000E+00         0.10148E-07
 
   -0.60852E+06         0.65278E+06         0.00000E+00
    0.65278E+06        -0.60818E+08         0.00000E+00
    0.00000E+00         0.00000E+00         0.50741E-08
 
   -0.67905E+06         0.57367E+06         0.00000E+00
    0.57367E+06        -0.61077E+08         0.00000E+00
    0.00000E+00         0.00000E+00         0.50741E-08
 
   -0.75642E+06         0.49113E+06         0.00000E+00
    0.49113E+06        -0.61327E+08         0.00000E+00
    0.00000E+00         0.00000E+00        -0.15222E-07
 
   -0.84294E+06         0.40679E+06         0.00000E+00
    0.40679E+06        -0.61561E+08         0.00000E+00
    0.00000E+00         0.00000E+00        -0.50741E-08
 
   -0.94221E+06         0.32269E+06         0.00000E+00
    0.32269E+06        -0.61774E+08         0.00000E+00
    0.00000E+00         0.00000E+00         0.00000E+00
 
   -0.10594E+07         0.24121E+06         0.00000E+00
    0.24121E+06        -0.61958E+08         0.00000E+00
    0.00000E+00         0.00000E+00         0.50741E-08
 
   -0.12008E+07         0.16472E+06         0.00000E+00
    0.16472E+06        -0.62103E+08         0.00000E+00
    0.00000E+00         0.00000E+00        -0.40593E-07
 
   -0.13733E+07         0.94773E+05         0.00000E+00
    0.94773E+05        -0.62204E+08         0.00000E+00
    0.00000E+00         0.00000E+00         0.15222E-07
 
   -0.15822E+07         0.30765E+05         0.00000E+00
    0.30765E+05        -0.62256E+08         0.00000E+00
    0.00000E+00         0.00000E+00        -0.15222E-07
 
    0.50364E+06         0.10485E+05         0.00000E+00
    0.10485E+05        -0.47676E+08         0.00000E+00
    0.00000E+00         0.00000E+00         0.00000E+00
 
    0.44612E+06         0.32182E+05         0.00000E+00
    0.32182E+05        -0.47691E+08         0.00000E+00
    0.00000E+00         0.00000E+00         0.25370E-08
 
    0.39893E+06         0.55746E+05         0.00000E+00
    0.55746E+05        -0.47719E+08         0.00000E+00
    0.00000E+00         0.00000E+00         0.27907E-07
 
    0.36057E+06         0.81513E+05         0.00000E+00
    0.81513E+05        -0.47759E+08         0.00000E+00
    0.00000E+00         0.00000E+00        -0.12685E-07
 
    0.32923E+06         0.10913E+06         0.00000E+00
    0.10913E+06        -0.47811E+08         0.00000E+00
    0.00000E+00         0.00000E+00        -0.50741E-08
 
    0.30315E+06         0.13792E+06         0.00000E+00
    0.13792E+06        -0.47870E+08         0.00000E+00
    0.00000E+00         0.00000E+00         0.76111E-08
 
    0.28095E+06         0.16718E+06         0.00000E+00
    0.16718E+06        -0.47935E+08         0.00000E+00
    0.00000E+00         0.00000E+00         0.20296E-07
 
    0.26164E+06         0.19629E+06         0.00000E+00
    0.19629E+06        -0.48004E+08         0.00000E+00
    0.00000E+00         0.00000E+00        -0.50741E-08
 
    0.24457E+06         0.22478E+06         0.00000E+00
    0.22478E+06        -0.48077E+08         0.00000E+00
    0.00000E+00         0.00000E+00         0.10148E-07
 
    0.22931E+06         0.25232E+06         0.00000E+00
    0.25232E+06        -0.48152E+08         0.00000E+00
    0.00000E+00         0.00000E+00         0.45667E-07
 
    0.21561E+06         0.27869E+06         0.00000E+00
    0.27869E+06        -0.48228E+08         0.00000E+00
    0.00000E+00         0.00000E+00        -0.50741E-08
 
    0.20330E+06         0.30378E+06         0.00000E+00
    0.30378E+06        -0.48305E+08         0.00000E+00
    0.00000E+00         0.00000E+00        -0.25370E-08
 
    0.19226E+06         0.32755E+06         0.00000E+00
    0.32755E+06        -0.48382E+08         0.00000E+00
    0.00000E+00         0.00000E+00        -0.12685E-07
 
    0.18241E+06         0.35002E+06         0.00000E+00
    0.35002E+06        -0.48461E+08         0.00000E+00
    0.00000E+00         0.00000E+00         0.00000E+00
 
    0.17369E+06         0.37125E+06         0.00000E+00
    0.37125E+06        -0.48539E+08         0.00000E+00
    0.00000E+00         0.00000E+00        -0.12685E-07
 
    0.16602E+06         0.39131E+06         0.00000E+00
    0.39131E+06        -0.48618E+08         0.00000E+00
    0.00000E+00         0.00000E+00         0.15222E-07
 
    0.15936E+06         0.41030E+06         0.00000E+00
    0.41030E+06        -0.48697E+08         0.00000E+00
    0.00000E+00         0.00000E+00        -0.76111E-08
 
    0.15365E+06         0.42832E+06         0.00000E+00
    0.42832E+06        -0.48777E+08         0.00000E+00
    0.00000E+00         0.00000E+00        -0.27907E-07
 
    0.14881E+06         0.44549E+06         0.00000E+00
    0.44549E+06        -0.48858E+08         0.00000E+00
    0.00000E+00         0.00000E+00        -0.10148E-07
 
    0.14480E+06         0.46190E+06         0.00000E+00
    0.46190E+06        -0.48939E+08         0.00000E+00
    0.00000E+00         0.00000E+00         0.10148E-07
 
    0.14155E+06         0.47766E+06         0.00000E+00
    0.47766E+06        -0.49020E+08         0.00000E+00
    0.00000E+00         0.00000E+00         0.76111E-08
 
    0.13899E+06         0.49287E+06         0.00000E+00
    0.49287E+06        -0.49103E+08         0.00000E+00
    0.00000E+00         0.00000E+00        -0.25370E-07
 
    0.13706E+06         0.50761E+06         0.00000E+00
    0.50761E+06        -0.49186E+08         0.00000E+00
    0.00000E+00         0.00000E+00         0.60889E-07
 
    0.13571E+06         0.52197E+06         0.00000E+00
    0.52197E+06        -0.49271E+08         0.00000E+00
    0.00000E+00         0.00000E+00        -0.20296E-07
 
    0.13488E+06         0.53603E+06         0.00000E+00
    0.53603E+06        -0.49356E+08         0.00000E+00
    0.00000E+00         0.00000E+00        -0.32981E-07
 
    0.13451E+06         0.54984E+06         0.00000E+00
    0.54984E+06        -0.49443E+08         0.00000E+00
    0.00000E+00         0.00000E+00         0.25370E-08
 
    0.13455E+06         0.56348E+06         0.00000E+00
    0.56348E+06        -0.49531E+08         0.00000E+00
    0.00000E+00         0.00000E+00         0.76111E-08
 
    0.13496E+06         0.57700E+06         0.00000E+00
    0.57700E+06        -0.49620E+08         0.00000E+00
    0.00000E+00         0.00000E+00        -0.76111E-08
 
    0.13568E+06         0.59044E+06         0.00000E+00
    0.59044E+06        -0.49711E+08         0.00000E+00
    0.00000E+00         0.00000E+00         0.15222E-07
 
    0.13668E+06         0.60385E+06         0.00000E+00
    0.60385E+06        -0.49804E+08         0.00000E+00
    0.00000E+00         0.00000E+00         0.43130E-07
 
    0.13792E+06         0.61726E+06         0.00000E+00
    0.61726E+06        -0.49898E+08         0.00000E+00
    0.00000E+00         0.00000E+00        -0.38056E-07
 
    0.13936E+06         0.63070E+06         0.00000E+00
    0.63070E+06        -0.49994E+08         0.00000E+00
    0.00000E+00         0.00000E+00        -0.20296E-07
 
    0.14097E+06         0.64421E+06         0.00000E+00
    0.64421E+06        -0.50092E+08         0.00000E+00
    0.00000E+00         0.00000E+00         0.00000E+00
 
    0.14271E+06         0.65779E+06         0.00000E+00
    0.65779E+06        -0.50192E+08         0.00000E+00
    0.00000E+00         0.00000E+00         0.12685E-07
 
    0.14457E+06         0.67147E+06         0.00000E+00
    0.67147E+06        -0.50294E+08         0.00000E+00
    0.00000E+00         0.00000E+00        -0.10148E-07
 
    0.14651E+06         0.68527E+06         0.00000E+00
    0.68527E+06        -0.50397E+08         0.00000E+00
    0.00000E+00         0.00000E+00         0.00000E+00
 
    0.14851E+06         0.69920E+06         0.00000E+00
    0.69920E+06        -0.50503E+08         0.00000E+00
    0.00000E+00         0.00000E+00        -0.25370E-07
 
    0.15055E+06         0.71326E+06         0.00000E+00
    0.71326E+06        -0.50611E+08         0.00000E+00
    0.00000E+00         0.00000E+00         0.00000E+00
 
    0.15260E+06         0.72746E+06         0.00000E+00
    0.72746E+06        -0.50721E+08         0.00000E+00
    0.00000E+00         0.00000E+00         0.00000E+00
 
    0.15464E+06         0.74180E+06         0.00000E+00
    0.74180E+06        -0.50834E+08         0.00000E+00
    0.00000E+00         0.00000E+00        -0.40593E-07
 
    0.15666E+06         0.75629E+06         0.00000E+00
    0.75629E+06        -0.50949E+08         0.00000E+00
    0.00000E+00         0.00000E+00         0.50741E-08
 
    0.15863E+06         0.77092E+06         0.00000E+00
    0.77092E+06        -0.51066E+08         0.00000E+00
    0.00000E+00         0.00000E+00        -0.10148E-07
 
    0.16054E+06         0.78569E+06         0.00000E+00
    0.78569E+06        -0.51185E+08         0.00000E+00
    0.00000E+00         0.00000E+00        -0.15222E-07
 
    0.16238E+06         0.80059E+06         0.00000E+00
    0.80059E+06        -0.51308E+08         0.00000E+00
    0.00000E+00         0.00000E+00        -0.20296E-07
 
    0.16411E+06         0.81561E+06         0.00000E+00
    0.81561E+06        -0.51432E+08         0.00000E+00
    0.00000E+00         0.00000E+00        -0.50741E-07
 
    0.16573E+06         0.83075E+06         0.00000E+00
    0.83075E+06        -0.51560E+08         0.00000E+00
    0.00000E+00         0.00000E+00        -0.35518E-07
 
    0.16721E+06         0.84599E+06         0.00000E+00
    0.84599E+06        -0.51690E+08         0.00000E+00
    0.00000E+00         0.00000E+00        -0.20296E-07
 
    0.16855E+06         0.86132E+06         0.00000E+00
    0.86132E+06        -0.51823E+08         0.00000E+00
    0.00000E+00         0.00000E+00         0.00000E+00
 
    0.16972E+06         0.87672E+06         0.00000E+00
    0.87672E+06        -0.51958E+08         0.00000E+00
    0.00000E+00         0.00000E+00        -0.40593E-07
 
    0.17070E+06         0.89218E+06         0.00000E+00
    0.89218E+06        -0.52097E+08         0.00000E+00
    0.00000E+00         0.00000E+00        -0.10148E-07
 
    0.17148E+06         0.90767E+06         0.00000E+00
    0.90767E+06        -0.52238E+08         0.00000E+00
    0.00000E+00         0.00000E+00         0.50741E-08
 
    0.17202E+06         0.92317E+06         0.00000E+00
    0.92317E+06        -0.52382E+08         0.00000E+00
    0.00000E+00         0.00000E+00         0.10148E-07
 
    0.17232E+06         0.93865E+06         0.00000E+00
    0.93865E+06        -0.52529E+08         0.00000E+00
    0.00000E+00         0.00000E+00         0.00000E+00
 
    0.17235E+06         0.95410E+06         0.00000E+00
    0.95410E+06        -0.52679E+08         0.00000E+00
    0.00000E+00         0.00000E+00         0.20296E-07
 
    0.17209E+06         0.96947E+06         0.00000E+00
    0.96947E+06        -0.52832E+08         0.00000E+00
    0.00000E+00         0.00000E+00         0.60889E-07
 
    0.17150E+06         0.98474E+06         0.00000E+00
    0.98474E+06        -0.52988E+08         0.00000E+00
    0.00000E+00         0.00000E+00         0.40593E-07
 
    0.17057E+06         0.99986E+06         0.00000E+00
    0.99986E+06        -0.53147E+08         0.00000E+00
    0.00000E+00         0.00000E+00        -0.50741E-07
 
    0.16926E+06         0.10148E+07         0.00000E+00
    0.10148E+07        -0.53310E+08         0.00000E+00
    0.00000E+00         0.00000E+00         0.00000E+00
 
    0.16754E+06         0.10295E+07         0.00000E+00
    0.10295E+07        -0.53475E+08         0.00000E+00
    0.00000E+00         0.00000E+00        -0.20296E-07
 
    0.16537E+06         0.10440E+07         0.00000E+00
    0.10440E+07        -0.53644E+08         0.00000E+00
    0.00000E+00         0.00000E+00        -0.10148E-07
 
    0.16272E+06         0.10581E+07         0.00000E+00
    0.10581E+07        -0.53815E+08         0.00000E+00
    0.00000E+00         0.00000E+00         0.15222E-07
 
    0.15954E+06         0.10719E+07         0.00000E+00
    0.10719E+07        -0.53990E+08         0.00000E+00
    0.00000E+00         0.00000E+00         0.50741E-08
 
    0.15579E+06         0.10852E+07         0.00000E+00
    0.10852E+07        -0.54169E+08         0.00000E+00
    0.00000E+00         0.00000E+00        -0.50741E-08
 
    0.15142E+06         0.10980E+07         0.00000E+00
    0.10980E+07        -0.54350E+08         0.00000E+00
    0.00000E+00         0.00000E+00         0.00000E+00
 
    0.14637E+06         0.11102E+07         0.00000E+00
    0.11102E+07        -0.54535E+08         0.00000E+00
    0.00000E+00         0.00000E+00         0.00000E+00
 
    0.14059E+06         0.11217E+07         0.00000E+00
    0.11217E+07        -0.54723E+08         0.00000E+00
    0.00000E+00         0.00000E+00        -0.50741E-08
 
    0.13399E+06         0.11325E+07         0.00000E+00
    0.11325E+07        -0.54914E+08         0.00000E+00
    0.00000E+00         0.00000E+00        -0.25370E-07
 
    0.12652E+06         0.11424E+07         0.00000E+00
    0.11424E+07        -0.55109E+08         0.00000E+00
    0.00000E+00         0.00000E+00         0.00000E+00
 
    0.11808E+06         0.11514E+07         0.00000E+00
    0.11514E+07        -0.55307E+08         0.00000E+00
    0.00000E+00         0.00000E+00         0.50741E-08
 
    0.10859E+06         0.11593E+07         0.00000E+00
    0.11593E+07        -0.55508E+08         0.00000E+00
    0.00000E+00         0.00000E+00         0.10148E-07
 
    0.97959E+05         0.11659E+07         0.00000E+00
    0.11659E+07        -0.55713E+08         0.00000E+00
    0.00000E+00         0.00000E+00         0.00000E+00
 
    0.86069E+05         0.11712E+07         0.00000E+00
    0.11712E+07        -0.55921E+08         0.00000E+00
    0.00000E+00         0.00000E+00        -0.30444E-07
 
    0.72807E+05         0.11750E+07         0.00000E+00
    0.11750E+07        -0.56133E+08         0.00000E+00
    0.00000E+00         0.00000E+00         0.10148E-07
 
    0.58049E+05         0.11770E+07         0.00000E+00
    0.11770E+07        -0.56348E+08         0.00000E+00
    0.00000E+00         0.00000E+00        -0.10148E-07
 
    0.41658E+05         0.11771E+07         0.00000E+00
    0.11771E+07        -0.56566E+08         0.00000E+00
    0.00000E+00         0.00000E+00        -0.50741E-08
 
    0.23490E+05         0.11751E+07         0.00000E+00
    0.11751E+07        -0.56789E+08         0.00000E+00
    0.00000E+00         0.00000E+00        -0.25370E-07
 
    0.33897E+04         0.11708E+07         0.00000E+00
    0.11708E+07        -0.57014E+08         0.00000E+00
    0.00000E+00         0.00000E+00         0.25370E-07
 
   -0.18805E+05         0.11638E+07         0.00000E+00
    0.11638E+07        -0.57244E+08         0.00000E+00
    0.00000E+00         0.00000E+00         0.00000E+00
 
   -0.43262E+05         0.11539E+07         0.00000E+00
    0.11539E+07        -0.57477E+08         0.00000E+00
    0.00000E+00         0.00000E+00         0.50741E-08
 
   -0.70157E+05         0.11407E+07         0.00000E+00
    0.11407E+07        -0.57713E+08         0.00000E+00
    0.00000E+00         0.00000E+00        -0.35518E-07
 
   -0.99664E+05         0.11241E+07         0.00000E+00
    0.11241E+07        -0.57954E+08         0.00000E+00
    0.00000E+00         0.00000E+00         0.25370E-07
 
   -0.13196E+06         0.11036E+07         0.00000E+00
    0.11036E+07        -0.58198E+08         0.00000E+00
    0.00000E+00         0.00000E+00         0.30444E-07
 
   -0.16721E+06         0.10788E+07         0.00000E+00
    0.10788E+07        -0.58446E+08         0.00000E+00
    0.00000E+00         0.00000E+00        -0.25370E-07
 
   -0.20559E+06         0.10495E+07         0.00000E+00
    0.10495E+07        -0.58697E+08         0.00000E+00
    0.00000E+00         0.00000E+00        -0.25370E-07
 
   -0.24725E+06         0.10152E+07         0.00000E+00
    0.10152E+07        -0.58953E+08         0.00000E+00
    0.00000E+00         0.00000E+00         0.10148E-07
 
   -0.29233E+06         0.97567E+06         0.00000E+00
    0.97567E+06        -0.59212E+08         0.00000E+00
    0.00000E+00         0.00000E+00         0.00000E+00
 
   -0.34096E+06         0.93054E+06         0.00000E+00
    0.93054E+06        -0.59474E+08         0.00000E+00
    0.00000E+00         0.00000E+00         0.15222E-07
 
   -0.39328E+06         0.87959E+06         0.00000E+00
    0.87959E+06        -0.59738E+08         0.00000E+00
    0.00000E+00         0.00000E+00         0.20296E-07
 
   -0.44944E+06         0.82271E+06         0.00000E+00
    0.82271E+06        -0.60005E+08         0.00000E+00
    0.00000E+00         0.00000E+00        -0.50741E-08
 
   -0.50963E+06         0.75989E+06         0.00000E+00
    0.75989E+06        -0.60272E+08         0.00000E+00
    0.00000E+00         0.00000E+00        -0.25370E-07
 
   -0.57416E+06         0.69137E+06         0.00000E+00
    0.69137E+06        -0.60539E+08         0.00000E+00
    0.00000E+00         0.00000E+00        -0.50741E-07
 
   -0.64351E+06         0.61764E+06         0.00000E+00
    0.61764E+06        -0.60803E+08         0.00000E+00
    0.00000E+00         0.00000E+00        -0.45667E-07
 
   -0.71850E+06         0.53957E+06         0.00000E+00
    0.53957E+06        -0.61061E+08         0.00000E+00
    0.00000E+00         0.00000E+00        -0.25370E-07
 
   -0.80051E+06         0.45847E+06         0.00000E+00
    0.45847E+06        -0.61310E+08         0.00000E+00
    0.00000E+00         0.00000E+00        -0.10148E-07
 
   -0.89174E+06         0.37615E+06         0.00000E+00
    0.37615E+06        -0.61544E+08         0.00000E+00
    0.00000E+00         0.00000E+00         0.30444E-07
 
   -0.99562E+06         0.29494E+06         0.00000E+00
    0.29494E+06        -0.61758E+08         0.00000E+00
    0.00000E+00         0.00000E+00        -0.50741E-08
 
   -0.11170E+07         0.21753E+06         0.00000E+00
    0.21753E+06        -0.61942E+08         0.00000E+00
    0.00000E+00         0.00000E+00         0.50741E-08
 
   -0.12620E+07         0.14649E+06         0.00000E+00
    0.14649E+06        -0.62089E+08         0.00000E+00
    0.00000E+00         0.00000E+00         0.50738E-08
 
   -0.14370E+07         0.83269E+05         0.00000E+00
    0.83269E+05        -0.62192E+08         0.00000E+00
    0.00000E+00         0.00000E+00        -0.15222E-07
 
   -0.16471E+07         0.26834E+05         0.00000E+00
    0.26834E+05        -0.62244E+08         0.00000E+00
    0.00000E+00         0.00000E+00        -0.11369E-12
 
    0.52363E+06         0.93779E+04         0.00000E+00
    0.93779E+04        -0.47680E+08         0.00000E+00
    0.00000E+00         0.00000E+00         0.00000E+00
 
    0.46581E+06         0.28939E+05         0.00000E+00
    0.28939E+05        -0.47695E+08         0.00000E+00
    0.00000E+00         0.00000E+00         0.15222E-07
 
    0.41804E+06         0.50594E+05         0.00000E+00
    0.50594E+05        -0.47724E+08         0.00000E+00
    0.00000E+00         0.00000E+00         0.20296E-07
 
    0.37885E+06         0.74785E+05         0.00000E+00
    0.74785E+05        -0.47765E+08         0.00000E+00
    0.00000E+00         0.00000E+00         0.15222E-07
 
    0.34648E+06         0.10118E+06         0.00000E+00
    0.10118E+06        -0.47816E+08         0.00000E+00
    0.00000E+00         0.00000E+00        -0.10148E-07
 
    0.31928E+06         0.12904E+06         0.00000E+00
    0.12904E+06        -0.47875E+08         0.00000E+00
    0.00000E+00         0.00000E+00         0.10148E-07
 
    0.29592E+06         0.15760E+06         0.00000E+00
    0.15760E+06        -0.47941E+08         0.00000E+00
    0.00000E+00         0.00000E+00         0.10148E-07
 
    0.27549E+06         0.18614E+06         0.00000E+00
    0.18614E+06        -0.48010E+08         0.00000E+00
    0.00000E+00         0.00000E+00        -0.10148E-07
 
    0.25735E+06         0.21415E+06         0.00000E+00
    0.21415E+06        -0.48082E+08         0.00000E+00
    0.00000E+00         0.00000E+00        -0.45667E-07
 
    0.24111E+06         0.24126E+06         0.00000E+00
    0.24126E+06        -0.48157E+08         0.00000E+00
    0.00000E+00         0.00000E+00         0.15222E-07
 
    0.22653E+06         0.26722E+06         0.00000E+00
    0.26722E+06        -0.48233E+08         0.00000E+00
    0.00000E+00         0.00000E+00         0.00000E+00
 
    0.21343E+06         0.29192E+06         0.00000E+00
    0.29192E+06        -0.48310E+08         0.00000E+00
    0.00000E+00         0.00000E+00        -0.50741E-08
 
    0.20169E+06         0.31531E+06         0.00000E+00
    0.31531E+06        -0.48387E+08         0.00000E+00
    0.00000E+00         0.00000E+00         0.00000E+00
 
    0.19124E+06         0.33739E+06         0.00000E+00
    0.33739E+06        -0.48465E+08         0.00000E+00
    0.00000E+00         0.00000E+00        -0.15222E-07
 
    0.18200E+06         0.35823E+06         0.00000E+00
    0.35823E+06        -0.48543E+08         0.00000E+00
    0.00000E+00         0.00000E+00         0.30444E-07
 
    0.17390E+06         0.37791E+06         0.00000E+00
    0.37791E+06        -0.48622E+08         0.00000E+00
    0.00000E+00         0.00000E+00        -0.40593E-07
 
    0.16687E+06         0.39651E+06         0.00000E+00
    0.39651E+06        -0.48701E+08         0.00000E+00
    0.00000E+00         0.00000E+00         0.00000E+00
 
    0.16085E+06         0.41414E+06         0.00000E+00
    0.41414E+06        -0.48781E+08         0.00000E+00
    0.00000E+00         0.00000E+00         0.10148E-07
 
    0.15577E+06         0.43092E+06         0.00000E+00
    0.43092E+06        -0.48861E+08         0.00000E+00
    0.00000E+00         0.00000E+00         0.35518E-07
 
    0.15156E+06         0.44694E+06         0.00000E+00
    0.44694E+06        -0.48942E+08         0.00000E+00
    0.00000E+00         0.00000E+00         0.20296E-07
 
    0.14815E+06         0.46231E+06         0.00000E+00
    0.46231E+06        -0.49023E+08         0.00000E+00
    0.00000E+00         0.00000E+00         0.15222E-07
 
    0.14548E+06         0.47713E+06         0.00000E+00
    0.47713E+06        -0.49106E+08         0.00000E+00
    0.00000E+00         0.00000E+00         0.10148E-07
 
    0.14347E+06         0.49149E+06         0.00000E+00
    0.49149E+06        -0.49189E+08         0.00000E+00
    0.00000E+00         0.00000E+00        -0.30444E-07
 
    0.14207E+06         0.50546E+06         0.00000E+00
    0.50546E+06        -0.49273E+08         0.00000E+00
    0.00000E+00         0.00000E+00         0.00000E+00
 
    0.14121E+06         0.51912E+06         0.00000E+00
    0.51912E+06        -0.49359E+08         0.00000E+00
    0.00000E+00         0.00000E+00         0.35518E-07
 
    0.14084E+06         0.53255E+06         0.00000E+00
    0.53255E+06        -0.49446E+08         0.00000E+00
    0.00000E+00         0.00000E+00         0.00000E+00
 
    0.14090E+06         0.54579E+06         0.00000E+00
    0.54579E+06        -0.49534E+08         0.00000E+00
    0.00000E+00         0.00000E+00         0.00000E+00
 
    0.14134E+06         0.55891E+06         0.00000E+00
    0.55891E+06        -0.49623E+08         0.00000E+00
    0.00000E+00         0.00000E+00         0.00000E+00
 
    0.14211E+06         0.57195E+06         0.00000E+00
    0.57195E+06        -0.49714E+08         0.00000E+00
    0.00000E+00         0.00000E+00        -0.50741E-08
 
    0.14318E+06         0.58496E+06         0.00000E+00
    0.58496E+06        -0.49807E+08         0.00000E+00
    0.00000E+00         0.00000E+00        -0.65963E-07
 
    0.14449E+06         0.59796E+06         0.00000E+00
    0.59796E+06        -0.49901E+08         0.00000E+00
    0.00000E+00         0.00000E+00         0.15222E-07
 
    0.14601E+06         0.61099E+06         0.00000E+00
    0.61099E+06        -0.49997E+08         0.00000E+00
    0.00000E+00         0.00000E+00         0.15222E-07
 
    0.14771E+06         0.62407E+06         0.00000E+00
    0.62407E+06        -0.50095E+08         0.00000E+00
    0.00000E+00         0.00000E+00         0.50741E-08
 
    0.14955E+06         0.63723E+06         0.00000E+00
    0.63723E+06        -0.50195E+08         0.00000E+00
    0.00000E+00         0.00000E+00         0.55815E-07
 
    0.15151E+06         0.65049E+06         0.00000E+00
    0.65049E+06        -0.50296E+08         0.00000E+00
    0.00000E+00         0.00000E+00        -0.10148E-07
 
    0.15355E+06         0.66385E+06         0.00000E+00
    0.66385E+06        -0.50400E+08         0.00000E+00
    0.00000E+00         0.00000E+00         0.10148E-07
 
    0.15565E+06         0.67733E+06         0.00000E+00
    0.67733E+06        -0.50506E+08         0.00000E+00
    0.00000E+00         0.00000E+00        -0.15222E-07
 
    0.15779E+06         0.69095E+06         0.00000E+00
    0.69095E+06        -0.50614E+08         0.00000E+00
    0.00000E+00         0.00000E+00         0.00000E+00
 
    0.15995E+06         0.70469E+06         0.00000E+00
    0.70469E+06        -0.50724E+08         0.00000E+00
    0.00000E+00         0.00000E+00        -0.10148E-07
 
    0.16210E+06         0.71857E+06         0.00000E+00
    0.71857E+06        -0.50837E+08         0.00000E+00
    0.00000E+00         0.00000E+00        -0.40593E-07
 
    0.16422E+06         0.73259E+06         0.00000E+00
    0.73259E+06        -0.50951E+08         0.00000E+00
    0.00000E+00         0.00000E+00         0.00000E+00
 
    0.16630E+06         0.74675E+06         0.00000E+00
    0.74675E+06        -0.51069E+08         0.00000E+00
    0.00000E+00         0.00000E+00         0.10148E-07
 
    0.16831E+06         0.76104E+06         0.00000E+00
    0.76104E+06        -0.51188E+08         0.00000E+00
    0.00000E+00         0.00000E+00        -0.10148E-07
 
    0.17023E+06         0.77545E+06         0.00000E+00
    0.77545E+06        -0.51311E+08         0.00000E+00
    0.00000E+00         0.00000E+00         0.50741E-08
 
    0.17205E+06         0.78999E+06         0.00000E+00
    0.78999E+06        -0.51435E+08         0.00000E+00
    0.00000E+00         0.00000E+00         0.30444E-07
 
    0.17376E+06         0.80463E+06         0.00000E+00
    0.80463E+06        -0.51563E+08         0.00000E+00
    0.00000E+00         0.00000E+00        -0.40593E-07
 
    0.17532E+06         0.81937E+06         0.00000E+00
    0.81937E+06        -0.51693E+08         0.00000E+00
    0.00000E+00         0.00000E+00        -0.10148E-07
 
    0.17673E+06         0.83419E+06         0.00000E+00
    0.83419E+06        -0.51826E+08         0.00000E+00
    0.00000E+00         0.00000E+00         0.00000E+00
 
    0.17796E+06         0.84908E+06         0.00000E+00
    0.84908E+06        -0.51961E+08         0.00000E+00
    0.00000E+00         0.00000E+00        -0.25370E-07
 
    0.17899E+06         0.86403E+06         0.00000E+00
    0.86403E+06        -0.52100E+08         0.00000E+00
    0.00000E+00         0.00000E+00        -0.15222E-07
 
    0.17981E+06         0.87900E+06         0.00000E+00
    0.87900E+06        -0.52241E+08         0.00000E+00
    0.00000E+00         0.00000E+00         0.50741E-07
 
    0.18039E+06         0.89398E+06         0.00000E+00
    0.89398E+06        -0.52385E+08         0.00000E+00
    0.00000E+00         0.00000E+00         0.50741E-08
 
    0.18071E+06         0.90895E+06         0.00000E+00
    0.90895E+06        -0.52532E+08         0.00000E+00
    0.00000E+00         0.00000E+00        -0.25370E-07
 
    0.18075E+06         0.92387E+06         0.00000E+00
    0.92387E+06        -0.52682E+08         0.00000E+00
    0.00000E+00         0.00000E+00        -0.10148E-07
 
    0.18048E+06         0.93872E+06         0.00000E+00
    0.93872E+06        -0.52835E+08         0.00000E+00
    0.00000E+00         0.00000E+00         0.50741E-08
 
    0.17988E+06         0.95347E+06         0.00000E+00
    0.95347E+06        -0.52991E+08         0.00000E+00
    0.00000E+00         0.00000E+00        -0.20296E-07
 
    0.17891E+06         0.96808E+06         0.00000E+00
    0.96808E+06        -0.53150E+08         0.00000E+00
    0.00000E+00         0.00000E+00         0.20296E-07
 
    0.17755E+06         0.98251E+06         0.00000E+00
    0.98251E+06        -0.53313E+08         0.00000E+00
    0.00000E+00         0.00000E+00        -0.50741E-08
 
    0.17576E+06         0.99672E+06         0.00000E+00
    0.99672E+06        -0.53478E+08         0.00000E+00
    0.00000E+00         0.00000E+00        -0.20296E-07
 
    0.17350E+06         0.10107E+07         0.00000E+00
    0.10107E+07        -0.53646E+08         0.00000E+00
    0.00000E+00         0.00000E+00        -0.20296E-07
 
    0.17073E+06         0.10243E+07         0.00000E+00
    0.10243E+07        -0.53818E+08         0.00000E+00
    0.00000E+00         0.00000E+00        -0.45667E-07
 
    0.16742E+06         0.10375E+07         0.00000E+00
    0.10375E+07        -0.53993E+08         0.00000E+00
    0.00000E+00         0.00000E+00         0.20296E-07
 
    0.16351E+06         0.10504E+07         0.00000E+00
    0.10504E+07        -0.54171E+08         0.00000E+00
    0.00000E+00         0.00000E+00         0.00000E+00
 
    0.15895E+06         0.10627E+07         0.00000E+00
    0.10627E+07        -0.54353E+08         0.00000E+00
    0.00000E+00         0.00000E+00        -0.15222E-07
 
    0.15368E+06         0.10745E+07         0.00000E+00
    0.10745E+07        -0.54537E+08         0.00000E+00
    0.00000E+00         0.00000E+00        -0.60889E-07
 
    0.14764E+06         0.10856E+07         0.00000E+00
    0.10856E+07        -0.54725E+08         0.00000E+00
    0.00000E+00         0.00000E+00        -0.20296E-07
 
    0.14075E+06         0.10959E+07         0.00000E+00
    0.10959E+07        -0.54916E+08         0.00000E+00
    0.00000E+00         0.00000E+00        -0.30444E-07
 
    0.13295E+06         0.11054E+07         0.00000E+00
    0.11054E+07        -0.55111E+08         0.00000E+00
    0.00000E+00         0.00000E+00         0.50741E-08
 
    0.12414E+06         0.11140E+07         0.00000E+00
    0.11140E+07        -0.55308E+08         0.00000E+00
    0.00000E+00         0.00000E+00        -0.10148E-07
 
    0.11423E+06         0.11215E+07         0.00000E+00
    0.11215E+07        -0.55510E+08         0.00000E+00
    0.00000E+00         0.00000E+00         0.00000E+00
 
    0.10312E+06         0.11279E+07         0.00000E+00
    0.11279E+07        -0.55714E+08         0.00000E+00
    0.00000E+00         0.00000E+00         0.15222E-07
 
    0.90698E+05         0.11329E+07         0.00000E+00
    0.11329E+07        -0.55922E+08         0.00000E+00
    0.00000E+00         0.00000E+00         0.60889E-07
 
    0.76842E+05         0.11363E+07         0.00000E+00
    0.11363E+07        -0.56133E+08         0.00000E+00
    0.00000E+00         0.00000E+00         0.40593E-07
 
    0.61418E+05         0.11381E+07         0.00000E+00
    0.11381E+07        -0.56348E+08         0.00000E+00
    0.00000E+00         0.00000E+00        -0.15222E-07
 
    0.44284E+05         0.11381E+07         0.00000E+00
    0.11381E+07        -0.56566E+08         0.00000E+00
    0.00000E+00         0.00000E+00         0.10148E-07
 
    0.25286E+05         0.11359E+07         0.00000E+00
    0.11359E+07        -0.56788E+08         0.00000E+00
    0.00000E+00         0.00000E+00         0.30444E-07
 
    0.42599E+04         0.11315E+07         0.00000E+00
    0.11315E+07        -0.57013E+08         0.00000E+00
    0.00000E+00         0.00000E+00         0.25370E-07
 
   -0.18967E+05         0.11244E+07         0.00000E+00
    0.11244E+07        -0.57242E+08         0.00000E+00
    0.00000E+00         0.00000E+00        -0.50741E-07
 
   -0.44576E+05         0.11145E+07         0.00000E+00
    0.11145E+07        -0.57474E+08         0.00000E+00
    0.00000E+00         0.00000E+00         0.00000E+00
 
   -0.72755E+05         0.11014E+07         0.00000E+00
    0.11014E+07        -0.57710E+08         0.00000E+00
    0.00000E+00         0.00000E+00        -0.10148E-07
 
   -0.10369E+06         0.10849E+07         0.00000E+00
    0.10849E+07        -0.57950E+08         0.00000E+00
    0.00000E+00         0.00000E+00        -0.15222E-07
 
   -0.13758E+06         0.10645E+07         0.00000E+00
    0.10645E+07        -0.58193E+08         0.00000E+00
    0.00000E+00         0.00000E+00         0.50741E-08
 
   -0.17462E+06         0.10400E+07         0.00000E+00
    0.10400E+07        -0.58440E+08         0.00000E+00
    0.00000E+00         0.00000E+00        -0.10148E-07
 
   -0.21497E+06         0.10109E+07         0.00000E+00
    0.10109E+07        -0.58691E+08         0.00000E+00
    0.00000E+00         0.00000E+00         0.50741E-08
 
   -0.25883E+06         0.97699E+06         0.00000E+00
    0.97699E+06        -0.58945E+08         0.00000E+00
    0.00000E+00         0.00000E+00         0.55815E-07
 
   -0.30636E+06         0.93780E+06         0.00000E+00
    0.93780E+06        -0.59203E+08         0.00000E+00
    0.00000E+00         0.00000E+00         0.10148E-07
 
   -0.35770E+06         0.89309E+06         0.00000E+00
    0.89309E+06        -0.59464E+08         0.00000E+00
    0.00000E+00         0.00000E+00        -0.15222E-07
 
   -0.41302E+06         0.84262E+06         0.00000E+00
    0.84262E+06        -0.59727E+08         0.00000E+00
    0.00000E+00         0.00000E+00        -0.50741E-08
 
   -0.47248E+06         0.78627E+06         0.00000E+00
    0.78627E+06        -0.59993E+08         0.00000E+00
    0.00000E+00         0.00000E+00        -0.50741E-07
 
   -0.53630E+06         0.72406E+06         0.00000E+00
    0.72406E+06        -0.60259E+08         0.00000E+00
    0.00000E+00         0.00000E+00         0.40593E-07
 
   -0.60476E+06         0.65625E+06         0.00000E+00
    0.65625E+06        -0.60525E+08         0.00000E+00
    0.00000E+00         0.00000E+00        -0.60889E-07
 
   -0.67834E+06         0.58338E+06         0.00000E+00
    0.58338E+06        -0.60788E+08         0.00000E+00
    0.00000E+00         0.00000E+00         0.50741E-07
 
   -0.75782E+06         0.50640E+06         0.00000E+00
    0.50640E+06        -0.61045E+08         0.00000E+00
    0.00000E+00         0.00000E+00        -0.15222E-07
 
   -0.84449E+06         0.42674E+06         0.00000E+00
    0.42674E+06        -0.61294E+08         0.00000E+00
    0.00000E+00         0.00000E+00         0.00000E+00
 
   -0.94043E+06         0.34643E+06         0.00000E+00
    0.34643E+06        -0.61528E+08         0.00000E+00
    0.00000E+00         0.00000E+00        -0.10148E-07
 
   -0.10488E+07         0.26807E+06         0.00000E+00
    0.26807E+06        -0.61742E+08         0.00000E+00
    0.00000E+00         0.00000E+00        -0.50741E-08
 
   -0.11743E+07         0.19463E+06         0.00000E+00
    0.19463E+06        -0.61928E+08         0.00000E+00
    0.00000E+00         0.00000E+00         0.15222E-07
 
   -0.13226E+07         0.12886E+06         0.00000E+00
    0.12886E+06        -0.62077E+08         0.00000E+00
    0.00000E+00         0.00000E+00         0.15222E-07
 
   -0.14998E+07         0.72122E+05         0.00000E+00
    0.72122E+05        -0.62181E+08         0.00000E+00
    0.00000E+00         0.00000E+00        -0.10148E-07
 
   -0.17111E+07         0.23020E+05         0.00000E+00
    0.23020E+05        -0.62234E+08         0.00000E+00
    0.00000E+00         0.00000E+00        -0.25370E-07
 
    0.54335E+06         0.82961E+04         0.00000E+00
    0.82961E+04        -0.47684E+08         0.00000E+00
    0.00000E+00         0.00000E+00         0.10148E-07
 
    0.48526E+06         0.25775E+05         0.00000E+00
    0.25775E+05        -0.47699E+08         0.00000E+00
    0.00000E+00         0.00000E+00         0.10148E-07
 
    0.43696E+06         0.45578E+05         0.00000E+00
    0.45578E+05        -0.47728E+08         0.00000E+00
    0.00000E+00         0.00000E+00        -0.30444E-07
 
    0.39699E+06         0.68240E+05         0.00000E+00
    0.68240E+05        -0.47770E+08         0.00000E+00
    0.00000E+00         0.00000E+00        -0.50741E-07
 
    0.36363E+06         0.93439E+05         0.00000E+00
    0.93439E+05        -0.47821E+08         0.00000E+00
    0.00000E+00         0.00000E+00        -0.20296E-07
 
    0.33531E+06         0.12040E+06         0.00000E+00
    0.12040E+06        -0.47881E+08         0.00000E+00
    0.00000E+00         0.00000E+00         0.20296E-07
 
    0.31081E+06         0.14824E+06         0.00000E+00
    0.14824E+06        -0.47946E+08         0.00000E+00
    0.00000E+00         0.00000E+00         0.20296E-07
 
    0.28923E+06         0.17621E+06         0.00000E+00
    0.17621E+06        -0.48016E+08         0.00000E+00
    0.00000E+00         0.00000E+00         0.00000E+00
 
    0.27002E+06         0.20373E+06         0.00000E+00
    0.20373E+06        -0.48088E+08         0.00000E+00
    0.00000E+00         0.00000E+00        -0.30444E-07
 
    0.25279E+06         0.23038E+06         0.00000E+00
    0.23038E+06        -0.48162E+08         0.00000E+00
    0.00000E+00         0.00000E+00         0.00000E+00
 
    0.23731E+06         0.25592E+06         0.00000E+00
    0.25592E+06        -0.48238E+08         0.00000E+00
    0.00000E+00         0.00000E+00         0.00000E+00
 
    0.22342E+06         0.28021E+06         0.00000E+00
    0.28021E+06        -0.48314E+08         0.00000E+00
    0.00000E+00         0.00000E+00         0.10148E-07
 
    0.21099E+06         0.30319E+06         0.00000E+00
    0.30319E+06        -0.48392E+08         0.00000E+00
    0.00000E+00         0.00000E+00        -0.10148E-07
 
    0.19994E+06         0.32487E+06         0.00000E+00
    0.32487E+06        -0.48469E+08         0.00000E+00
    0.00000E+00         0.00000E+00        -0.10148E-07
 
    0.19018E+06         0.34531E+06         0.00000E+00
    0.34531E+06        -0.48547E+08         0.00000E+00
    0.00000E+00         0.00000E+00         0.50741E-07
 
    0.18164E+06         0.36458E+06         0.00000E+00
    0.36458E+06        -0.48626E+08         0.00000E+00
    0.00000E+00         0.00000E+00         0.30444E-07
 
    0.17424E+06         0.38278E+06         0.00000E+00
    0.38278E+06        -0.48705E+08         0.00000E+00
    0.00000E+00         0.00000E+00        -0.50741E-08
 
    0.16792E+06         0.40002E+06         0.00000E+00
    0.40002E+06        -0.48784E+08         0.00000E+00
    0.00000E+00         0.00000E+00         0.50741E-08
 
    0.16259E+06         0.41640E+06         0.00000E+00
    0.41640E+06        -0.48864E+08         0.00000E+00
    0.00000E+00         0.00000E+00         0.35518E-07
 
    0.15819E+06         0.43202E+06         0.00000E+00
    0.43202E+06        -0.48945E+08         0.00000E+00
    0.00000E+00         0.00000E+00        -0.10148E-07
 
    0.15463E+06         0.44699E+06         0.00000E+00
    0.44699E+06        -0.49026E+08         0.00000E+00
    0.00000E+00         0.00000E+00         0.50740E-07
 
    0.15184E+06         0.46142E+06         0.00000E+00
    0.46142E+06        -0.49108E+08         0.00000E+00
    0.00000E+00         0.00000E+00         0.10148E-07
 
    0.14976E+06         0.47537E+06         0.00000E+00
    0.47537E+06        -0.49192E+08         0.00000E+00
    0.00000E+00         0.00000E+00        -0.35518E-07
 
    0.14831E+06         0.48895E+06         0.00000E+00
    0.48895E+06        -0.49276E+08         0.00000E+00
    0.00000E+00         0.00000E+00         0.50741E-07
 
    0.14743E+06         0.50222E+06         0.00000E+00
    0.50222E+06        -0.49361E+08         0.00000E+00
    0.00000E+00         0.00000E+00         0.40593E-07
 
    0.14706E+06         0.51525E+06         0.00000E+00
    0.51525E+06        -0.49448E+08         0.00000E+00
    0.00000E+00         0.00000E+00         0.15222E-07
 
    0.14715E+06         0.52809E+06         0.00000E+00
    0.52809E+06        -0.49536E+08         0.00000E+00
    0.00000E+00         0.00000E+00         0.00000E+00
 
    0.14762E+06         0.54081E+06         0.00000E+00
    0.54081E+06        -0.49626E+08         0.00000E+00
    0.00000E+00         0.00000E+00        -0.50741E-08
 
    0.14845E+06         0.55345E+06         0.00000E+00
    0.55345E+06        -0.49717E+08         0.00000E+00
    0.00000E+00         0.00000E+00        -0.25370E-07
 
    0.14958E+06         0.56605E+06         0.00000E+00
    0.56605E+06        -0.49809E+08         0.00000E+00
    0.00000E+00         0.00000E+00        -0.10148E-07
 
    0.15096E+06         0.57864E+06         0.00000E+00
    0.57864E+06        -0.49904E+08         0.00000E+00
    0.00000E+00         0.00000E+00         0.30444E-07
 
    0.15257E+06         0.59125E+06         0.00000E+00
    0.59125E+06        -0.50000E+08         0.00000E+00
    0.00000E+00         0.00000E+00         0.30444E-07
 
    0.15435E+06         0.60392E+06         0.00000E+00
    0.60392E+06        -0.50097E+08         0.00000E+00
    0.00000E+00         0.00000E+00         0.50741E-08
 
    0.15629E+06         0.61666E+06         0.00000E+00
    0.61666E+06        -0.50197E+08         0.00000E+00
    0.00000E+00         0.00000E+00        -0.25370E-07
 
    0.15835E+06         0.62948E+06         0.00000E+00
    0.62948E+06        -0.50299E+08         0.00000E+00
    0.00000E+00         0.00000E+00        -0.91333E-07
 
    0.16049E+06         0.64241E+06         0.00000E+00
    0.64241E+06        -0.50403E+08         0.00000E+00
    0.00000E+00         0.00000E+00        -0.15222E-07
 
    0.16270E+06         0.65545E+06         0.00000E+00
    0.65545E+06        -0.50508E+08         0.00000E+00
    0.00000E+00         0.00000E+00         0.40593E-07
 
    0.16495E+06         0.66861E+06         0.00000E+00
    0.66861E+06        -0.50617E+08         0.00000E+00
    0.00000E+00         0.00000E+00         0.00000E+00
 
    0.16721E+06         0.68190E+06         0.00000E+00
    0.68190E+06        -0.50727E+08         0.00000E+00
    0.00000E+00         0.00000E+00         0.25370E-07
 
    0.16947E+06         0.69533E+06         0.00000E+00
    0.69533E+06        -0.50839E+08         0.00000E+00
    0.00000E+00         0.00000E+00        -0.45667E-07
 
    0.17169E+06         0.70888E+06         0.00000E+00
    0.70888E+06        -0.50954E+08         0.00000E+00
    0.00000E+00         0.00000E+00         0.55815E-07
 
    0.17387E+06         0.72256E+06         0.00000E+00
    0.72256E+06        -0.51071E+08         0.00000E+00
    0.00000E+00         0.00000E+00         0.50741E-08
 
    0.17598E+06         0.73637E+06         0.00000E+00
    0.73637E+06        -0.51191E+08         0.00000E+00
    0.00000E+00         0.00000E+00         0.50741E-07
 
    0.17799E+06         0.75030E+06         0.00000E+00
    0.75030E+06        -0.51313E+08         0.00000E+00
    0.00000E+00         0.00000E+00         0.20296E-07
 
    0.17991E+06         0.76435E+06         0.00000E+00
    0.76435E+06        -0.51438E+08         0.00000E+00
    0.00000E+00         0.00000E+00        -0.20296E-07
 
    0.18169E+06         0.77849E+06         0.00000E+00
    0.77849E+06        -0.51566E+08         0.00000E+00
    0.00000E+00         0.00000E+00         0.30444E-07
 
    0.18334E+06         0.79273E+06         0.00000E+00
    0.79273E+06        -0.51696E+08         0.00000E+00
    0.00000E+00         0.00000E+00        -0.40593E-07
 
    0.18481E+06         0.80705E+06         0.00000E+00
    0.80705E+06        -0.51829E+08         0.00000E+00
    0.00000E+00         0.00000E+00         0.35518E-07
 
    0.18611E+06         0.82144E+06         0.00000E+00
    0.82144E+06        -0.51964E+08         0.00000E+00
    0.00000E+00         0.00000E+00         0.00000E+00
 
    0.18719E+06         0.83587E+06         0.00000E+00
    0.83587E+06        -0.52103E+08         0.00000E+00
    0.00000E+00         0.00000E+00         0.25370E-07
 
    0.18806E+06         0.85033E+06         0.00000E+00
    0.85033E+06        -0.52244E+08         0.00000E+00
    0.00000E+00         0.00000E+00        -0.50741E-08
 
    0.18867E+06         0.86479E+06         0.00000E+00
    0.86479E+06        -0.52388E+08         0.00000E+00
    0.00000E+00         0.00000E+00         0.65963E-07
 
    0.18902E+06         0.87924E+06         0.00000E+00
    0.87924E+06        -0.52535E+08         0.00000E+00
    0.00000E+00         0.00000E+00         0.15222E-07
 
    0.18907E+06         0.89364E+06         0.00000E+00
    0.89364E+06        -0.52685E+08         0.00000E+00
    0.00000E+00         0.00000E+00        -0.10148E-07
 
    0.18879E+06         0.90797E+06         0.00000E+00
    0.90797E+06        -0.52838E+08         0.00000E+00
    0.00000E+00         0.00000E+00         0.00000E+00
 
    0.18817E+06         0.92220E+06         0.00000E+00
    0.92220E+06        -0.52994E+08         0.00000E+00
    0.00000E+00         0.00000E+00        -0.10656E-06
 
    0.18717E+06         0.93630E+06         0.00000E+00
    0.93630E+06        -0.53153E+08         0.00000E+00
    0.00000E+00         0.00000E+00         0.35518E-07
 
    0.18576E+06         0.95022E+06         0.00000E+00
    0.95022E+06        -0.53315E+08         0.00000E+00
    0.00000E+00         0.00000E+00        -0.10148E-07
 
    0.18390E+06         0.96392E+06         0.00000E+00
    0.96392E+06        -0.53481E+08         0.00000E+00
    0.00000E+00         0.00000E+00         0.20296E-07
 
    0.18155E+06         0.97736E+06         0.00000E+00
    0.97736E+06        -0.53649E+08         0.00000E+00
    0.00000E+00         0.00000E+00        -0.15222E-07
 
    0.17868E+06         0.99049E+06         0.00000E+00
    0.99049E+06        -0.53821E+08         0.00000E+00
    0.00000E+00         0.00000E+00         0.60889E-07
 
    0.17523E+06         0.10033E+07         0.00000E+00
    0.10033E+07        -0.53996E+08         0.00000E+00
    0.00000E+00         0.00000E+00         0.20296E-07
 
    0.17117E+06         0.10156E+07         0.00000E+00
    0.10156E+07        -0.54174E+08         0.00000E+00
    0.00000E+00         0.00000E+00         0.10148E-07
 
    0.16642E+06         0.10275E+07         0.00000E+00
    0.10275E+07        -0.54355E+08         0.00000E+00
    0.00000E+00         0.00000E+00        -0.45667E-07
 
    0.16094E+06         0.10388E+07         0.00000E+00
    0.10388E+07        -0.54539E+08         0.00000E+00
    0.00000E+00         0.00000E+00        -0.10148E-07
 
    0.15465E+06         0.10494E+07         0.00000E+00
    0.10494E+07        -0.54727E+08         0.00000E+00
    0.00000E+00         0.00000E+00         0.10148E-07
 
    0.14748E+06         0.10594E+07         0.00000E+00
    0.10594E+07        -0.54918E+08         0.00000E+00
    0.00000E+00         0.00000E+00         0.25370E-07
 
    0.13935E+06         0.10685E+07         0.00000E+00
    0.10685E+07        -0.55112E+08         0.00000E+00
    0.00000E+00         0.00000E+00         0.50741E-08
 
    0.13018E+06         0.10767E+07         0.00000E+00
    0.10767E+07        -0.55310E+08         0.00000E+00
    0.00000E+00         0.00000E+00        -0.40593E-07
 
    0.11986E+06         0.10839E+07         0.00000E+00
    0.10839E+07        -0.55511E+08         0.00000E+00
    0.00000E+00         0.00000E+00         0.20296E-07
 
    0.10829E+06         0.10899E+07         0.00000E+00
    0.10899E+07        -0.55715E+08         0.00000E+00
    0.00000E+00         0.00000E+00         0.20296E-07
 
    0.95353E+05         0.10946E+07         0.00000E+00
    0.10946E+07        -0.55923E+08         0.00000E+00
    0.00000E+00         0.00000E+00         0.10148E-07
 
    0.80917E+05         0.10978E+07         0.00000E+00
    0.10978E+07        -0.56134E+08         0.00000E+00
    0.00000E+00         0.00000E+00         0.40593E-07
 
    0.64845E+05         0.10994E+07         0.00000E+00
    0.10994E+07        -0.56348E+08         0.00000E+00
    0.00000E+00         0.00000E+00         0.50741E-08
 
    0.46985E+05         0.10992E+07         0.00000E+00
    0.10992E+07        -0.56566E+08         0.00000E+00
    0.00000E+00         0.00000E+00        -0.10148E-07
 
    0.27177E+05         0.10969E+07         0.00000E+00
    0.10969E+07        -0.56787E+08         0.00000E+00
    0.00000E+00         0.00000E+00        -0.35518E-07
 
    0.52457E+04         0.10924E+07         0.00000E+00
    0.10924E+07        -0.57012E+08         0.00000E+00
    0.00000E+00         0.00000E+00         0.50741E-08
 
   -0.18992E+05         0.10853E+07         0.00000E+00
    0.10853E+07        -0.57240E+08         0.00000E+00
    0.00000E+00         0.00000E+00        -0.50741E-08
 
   -0.45730E+05         0.10754E+07         0.00000E+00
    0.10754E+07        -0.57472E+08         0.00000E+00
    0.00000E+00         0.00000E+00        -0.10148E-07
 
   -0.75169E+05         0.10624E+07         0.00000E+00
    0.10624E+07        -0.57707E+08         0.00000E+00
    0.00000E+00         0.00000E+00        -0.50741E-08
 
   -0.10752E+06         0.10460E+07         0.00000E+00
    0.10460E+07        -0.57946E+08         0.00000E+00
    0.00000E+00         0.00000E+00         0.35518E-07
 
   -0.14298E+06         0.10258E+07         0.00000E+00
    0.10258E+07        -0.58189E+08         0.00000E+00
    0.00000E+00         0.00000E+00         0.00000E+00
 
   -0.18177E+06         0.10016E+07         0.00000E+00
    0.10016E+07        -0.58435E+08         0.00000E+00
    0.00000E+00         0.00000E+00        -0.20296E-07
 
   -0.22408E+06         0.97279E+06         0.00000E+00
    0.97279E+06        -0.58685E+08         0.00000E+00
    0.00000E+00         0.00000E+00         0.25370E-07
 
   -0.27013E+06         0.93920E+06         0.00000E+00
    0.93920E+06        -0.58938E+08         0.00000E+00
    0.00000E+00         0.00000E+00         0.00000E+00
 
   -0.32009E+06         0.90044E+06         0.00000E+00
    0.90044E+06        -0.59195E+08         0.00000E+00
    0.00000E+00         0.00000E+00         0.50741E-08
 
   -0.37414E+06         0.85621E+06         0.00000E+00
    0.85621E+06        -0.59455E+08         0.00000E+00
    0.00000E+00         0.00000E+00        -0.35518E-07
 
   -0.43247E+06         0.80628E+06         0.00000E+00
    0.80628E+06        -0.59717E+08         0.00000E+00
    0.00000E+00         0.00000E+00         0.35518E-07
 
   -0.49525E+06         0.75052E+06         0.00000E+00
    0.75052E+06        -0.59981E+08         0.00000E+00
    0.00000E+00         0.00000E+00         0.20296E-07
 
   -0.56270E+06         0.68899E+06         0.00000E+00
    0.68899E+06        -0.60246E+08         0.00000E+00
    0.00000E+00         0.00000E+00         0.25370E-07
 
   -0.63513E+06         0.62195E+06         0.00000E+00
    0.62195E+06        -0.60511E+08         0.00000E+00
    0.00000E+00         0.00000E+00        -0.25370E-07
 
   -0.71299E+06         0.54999E+06         0.00000E+00
    0.54999E+06        -0.60773E+08         0.00000E+00
    0.00000E+00         0.00000E+00        -0.30444E-07
 
   -0.79700E+06         0.47414E+06         0.00000E+00
    0.47414E+06        -0.61030E+08         0.00000E+00
    0.00000E+00         0.00000E+00        -0.60889E-07
 
   -0.88836E+06         0.39596E+06         0.00000E+00
    0.39596E+06        -0.61278E+08         0.00000E+00
    0.00000E+00         0.00000E+00        -0.65963E-07
 
   -0.98899E+06         0.31765E+06         0.00000E+00
    0.31765E+06        -0.61512E+08         0.00000E+00
    0.00000E+00         0.00000E+00         0.00000E+00
 
   -0.11019E+07         0.24206E+06         0.00000E+00
    0.24206E+06        -0.61727E+08         0.00000E+00
    0.00000E+00         0.00000E+00        -0.30444E-07
 
   -0.12312E+07         0.17245E+06         0.00000E+00
    0.17245E+06        -0.61914E+08         0.00000E+00
    0.00000E+00         0.00000E+00         0.35518E-07
 
   -0.13827E+07         0.11176E+06         0.00000E+00
    0.11176E+06        -0.62065E+08         0.00000E+00
    0.00000E+00         0.00000E+00         0.15222E-07
 
   -0.15620E+07         0.61293E+05         0.00000E+00
    0.61293E+05        -0.62171E+08         0.00000E+00
    0.00000E+00         0.00000E+00        -0.50742E-08
 
   -0.17743E+07         0.19309E+05         0.00000E+00
    0.19309E+05        -0.62226E+08         0.00000E+00
    0.00000E+00         0.00000E+00        -0.45667E-07
 
    0.56282E+06         0.72367E+04         0.00000E+00
    0.72367E+04        -0.47687E+08         0.00000E+00
    0.00000E+00         0.00000E+00         0.00000E+00
 
    0.50450E+06         0.22682E+05         0.00000E+00
    0.22682E+05        -0.47702E+08         0.00000E+00
    0.00000E+00         0.00000E+00         0.15222E-07
 
    0.45572E+06         0.40687E+05         0.00000E+00
    0.40687E+05        -0.47732E+08         0.00000E+00
    0.00000E+00         0.00000E+00         0.20296E-07
 
    0.41500E+06         0.61870E+05         0.00000E+00
    0.61870E+05        -0.47774E+08         0.00000E+00
    0.00000E+00         0.00000E+00        -0.50741E-08
 
    0.38068E+06         0.85912E+05         0.00000E+00
    0.85912E+05        -0.47827E+08         0.00000E+00
    0.00000E+00         0.00000E+00         0.15222E-07
 
    0.35126E+06         0.11198E+06         0.00000E+00
    0.11198E+06        -0.47886E+08         0.00000E+00
    0.00000E+00         0.00000E+00         0.50741E-08
 
    0.32560E+06         0.13912E+06         0.00000E+00
    0.13912E+06        -0.47952E+08         0.00000E+00
    0.00000E+00         0.00000E+00        -0.25370E-07
 
    0.30288E+06         0.16650E+06         0.00000E+00
    0.16650E+06        -0.48021E+08         0.00000E+00
    0.00000E+00         0.00000E+00        -0.35518E-07
 
    0.28258E+06         0.19351E+06         0.00000E+00
    0.19351E+06        -0.48093E+08         0.00000E+00
    0.00000E+00         0.00000E+00        -0.30444E-07
 
    0.26435E+06         0.21970E+06         0.00000E+00
    0.21970E+06        -0.48167E+08         0.00000E+00
    0.00000E+00         0.00000E+00         0.50741E-08
 
    0.24797E+06         0.24479E+06         0.00000E+00
    0.24479E+06        -0.48243E+08         0.00000E+00
    0.00000E+00         0.00000E+00         0.50741E-08
 
    0.23327E+06         0.26865E+06         0.00000E+00
    0.26865E+06        -0.48319E+08         0.00000E+00
    0.00000E+00         0.00000E+00         0.00000E+00
 
    0.22014E+06         0.29121E+06         0.00000E+00
    0.29121E+06        -0.48396E+08         0.00000E+00
    0.00000E+00         0.00000E+00         0.50741E-08
 
    0.20848E+06         0.31247E+06         0.00000E+00
    0.31247E+06        -0.48473E+08         0.00000E+00
    0.00000E+00         0.00000E+00         0.15222E-07
 
    0.19820E+06         0.33249E+06         0.00000E+00
    0.33249E+06        -0.48551E+08         0.00000E+00
    0.00000E+00         0.00000E+00        -0.25370E-07
 
    0.18923E+06         0.35134E+06         0.00000E+00
    0.35134E+06        -0.48629E+08         0.00000E+00
    0.00000E+00         0.00000E+00         0.15222E-07
 
    0.18147E+06         0.36913E+06         0.00000E+00
    0.36913E+06        -0.48708E+08         0.00000E+00
    0.00000E+00         0.00000E+00        -0.20296E-07
 
    0.17485E+06         0.38595E+06         0.00000E+00
    0.38595E+06        -0.48787E+08         0.00000E+00
    0.00000E+00         0.00000E+00         0.40593E-07
 
    0.16928E+06         0.40191E+06         0.00000E+00
    0.40191E+06        -0.48867E+08         0.00000E+00
    0.00000E+00         0.00000E+00         0.15222E-07
 
    0.16469E+06         0.41713E+06         0.00000E+00
    0.41713E+06        -0.48948E+08         0.00000E+00
    0.00000E+00         0.00000E+00         0.15222E-07
 
    0.16098E+06         0.43170E+06         0.00000E+00
    0.43170E+06        -0.49029E+08         0.00000E+00
    0.00000E+00         0.00000E+00        -0.20296E-07
 
    0.15809E+06         0.44572E+06         0.00000E+00
    0.44572E+06        -0.49111E+08         0.00000E+00
    0.00000E+00         0.00000E+00         0.00000E+00
 
    0.15594E+06         0.45927E+06         0.00000E+00
    0.45927E+06        -0.49194E+08         0.00000E+00
    0.00000E+00         0.00000E+00        -0.25370E-07
 
    0.15444E+06         0.47245E+06         0.00000E+00
    0.47245E+06        -0.49279E+08         0.00000E+00
    0.00000E+00         0.00000E+00         0.50741E-08
 
    0.15355E+06         0.48532E+06         0.00000E+00
    0.48532E+06        -0.49364E+08         0.00000E+00
    0.00000E+00         0.00000E+00         0.10148E-07
 
    0.15318E+06         0.49794E+06         0.00000E+00
    0.49794E+06        -0.49451E+08         0.00000E+00
    0.00000E+00         0.00000E+00        -0.10148E-07
 
    0.15329E+06         0.51039E+06         0.00000E+00
    0.51039E+06        -0.49539E+08         0.00000E+00
    0.00000E+00         0.00000E+00        -0.50741E-08
 
    0.15381E+06         0.52270E+06         0.00000E+00
    0.52270E+06        -0.49628E+08         0.00000E+00
    0.00000E+00         0.00000E+00        -0.15222E-07
 
    0.15469E+06         0.53494E+06         0.00000E+00
    0.53494E+06        -0.49719E+08         0.00000E+00
    0.00000E+00         0.00000E+00        -0.50741E-08
 
    0.15588E+06         0.54713E+06         0.00000E+00
    0.54713E+06        -0.49812E+08         0.00000E+00
    0.00000E+00         0.00000E+00         0.00000E+00
 
    0.15734E+06         0.55930E+06         0.00000E+00
    0.55930E+06        -0.49906E+08         0.00000E+00
    0.00000E+00         0.00000E+00         0.35518E-07
 
    0.15903E+06         0.57150E+06         0.00000E+00
    0.57150E+06        -0.50002E+08         0.00000E+00
    0.00000E+00         0.00000E+00        -0.45667E-07
 
    0.16091E+06         0.58375E+06         0.00000E+00
    0.58375E+06        -0.50100E+08         0.00000E+00
    0.00000E+00         0.00000E+00         0.30444E-07
 
    0.16294E+06         0.59606E+06         0.00000E+00
    0.59606E+06        -0.50200E+08         0.00000E+00
    0.00000E+00         0.00000E+00         0.00000E+00
 
    0.16510E+06         0.60845E+06         0.00000E+00
    0.60845E+06        -0.50301E+08         0.00000E+00
    0.00000E+00         0.00000E+00         0.65963E-07
 
    0.16735E+06         0.62094E+06         0.00000E+00
    0.62094E+06        -0.50405E+08         0.00000E+00
    0.00000E+00         0.00000E+00         0.00000E+00
 
    0.16966E+06         0.63354E+06         0.00000E+00
    0.63354E+06        -0.50511E+08         0.00000E+00
    0.00000E+00         0.00000E+00        -0.25370E-07
 
    0.17201E+06         0.64626E+06         0.00000E+00
    0.64626E+06        -0.50619E+08         0.00000E+00
    0.00000E+00         0.00000E+00         0.00000E+00
 
    0.17438E+06         0.65910E+06         0.00000E+00
    0.65910E+06        -0.50729E+08         0.00000E+00
    0.00000E+00         0.00000E+00         0.10148E-07
 
    0.17674E+06         0.67206E+06         0.00000E+00
    0.67206E+06        -0.50842E+08         0.00000E+00
    0.00000E+00         0.00000E+00        -0.10148E-07
 
    0.17907E+06         0.68514E+06         0.00000E+00
    0.68514E+06        -0.50957E+08         0.00000E+00
    0.00000E+00         0.00000E+00         0.15222E-07
 
    0.18135E+06         0.69836E+06         0.00000E+00
    0.69836E+06        -0.51074E+08         0.00000E+00
    0.00000E+00         0.00000E+00         0.25370E-07
 
    0.18355E+06         0.71169E+06         0.00000E+00
    0.71169E+06        -0.51194E+08         0.00000E+00
    0.00000E+00         0.00000E+00         0.00000E+00
 
    0.18567E+06         0.72513E+06         0.00000E+00
    0.72513E+06        -0.51316E+08         0.00000E+00
    0.00000E+00         0.00000E+00         0.50741E-08
 
    0.18767E+06         0.73869E+06         0.00000E+00
    0.73869E+06        -0.51441E+08         0.00000E+00
    0.00000E+00         0.00000E+00         0.30444E-07
 
    0.18954E+06         0.75234E+06         0.00000E+00
    0.75234E+06        -0.51568E+08         0.00000E+00
    0.00000E+00         0.00000E+00        -0.50741E-08
 
    0.19126E+06         0.76608E+06         0.00000E+00
    0.76608E+06        -0.51699E+08         0.00000E+00
    0.00000E+00         0.00000E+00        -0.15222E-07
 
    0.19280E+06         0.77990E+06         0.00000E+00
    0.77990E+06        -0.51831E+08         0.00000E+00
    0.00000E+00         0.00000E+00         0.00000E+00
 
    0.19416E+06         0.79378E+06         0.00000E+00
    0.79378E+06        -0.51967E+08         0.00000E+00
    0.00000E+00         0.00000E+00         0.00000E+00
 
    0.19530E+06         0.80770E+06         0.00000E+00
    0.80770E+06        -0.52105E+08         0.00000E+00
    0.00000E+00         0.00000E+00         0.00000E+00
 
    0.19621E+06         0.82164E+06         0.00000E+00
    0.82164E+06        -0.52247E+08         0.00000E+00
    0.00000E+00         0.00000E+00        -0.10148E-07
 
    0.19686E+06         0.83559E+06         0.00000E+00
    0.83559E+06        -0.52391E+08         0.00000E+00
    0.00000E+00         0.00000E+00        -0.20296E-07
 
    0.19723E+06         0.84953E+06         0.00000E+00
    0.84953E+06        -0.52538E+08         0.00000E+00
    0.00000E+00         0.00000E+00        -0.10148E-07
 
    0.19729E+06         0.86341E+06         0.00000E+00
    0.86341E+06        -0.52688E+08         0.00000E+00
    0.00000E+00         0.00000E+00        -0.30444E-07
 
    0.19702E+06         0.87723E+06         0.00000E+00
    0.87723E+06        -0.52841E+08         0.00000E+00
    0.00000E+00         0.00000E+00         0.10148E-07
 
    0.19638E+06         0.89095E+06         0.00000E+00
    0.89095E+06        -0.52997E+08         0.00000E+00
    0.00000E+00         0.00000E+00        -0.40593E-07
 
    0.19535E+06         0.90453E+06         0.00000E+00
    0.90453E+06        -0.53156E+08         0.00000E+00
    0.00000E+00         0.00000E+00         0.00000E+00
 
    0.19389E+06         0.91794E+06         0.00000E+00
    0.91794E+06        -0.53318E+08         0.00000E+00
    0.00000E+00         0.00000E+00        -0.20296E-07
 
    0.19197E+06         0.93114E+06         0.00000E+00
    0.93114E+06        -0.53483E+08         0.00000E+00
    0.00000E+00         0.00000E+00        -0.30444E-07
 
    0.18954E+06         0.94408E+06         0.00000E+00
    0.94408E+06        -0.53652E+08         0.00000E+00
    0.00000E+00         0.00000E+00         0.00000E+00
 
    0.18656E+06         0.95672E+06         0.00000E+00
    0.95672E+06        -0.53823E+08         0.00000E+00
    0.00000E+00         0.00000E+00         0.15222E-07
 
    0.18298E+06         0.96901E+06         0.00000E+00
    0.96901E+06        -0.53998E+08         0.00000E+00
    0.00000E+00         0.00000E+00        -0.40593E-07
 
    0.17876E+06         0.98089E+06         0.00000E+00
    0.98089E+06        -0.54176E+08         0.00000E+00
    0.00000E+00         0.00000E+00         0.50741E-08
 
    0.17384E+06         0.99229E+06         0.00000E+00
    0.99229E+06        -0.54357E+08         0.00000E+00
    0.00000E+00         0.00000E+00         0.15222E-07
 
    0.16815E+06         0.10032E+07         0.00000E+00
    0.10032E+07        -0.54541E+08         0.00000E+00
    0.00000E+00         0.00000E+00        -0.65962E-07
 
    0.16162E+06         0.10134E+07         0.00000E+00
    0.10134E+07        -0.54729E+08         0.00000E+00
    0.00000E+00         0.00000E+00        -0.30444E-07
 
    0.15418E+06         0.10229E+07         0.00000E+00
    0.10229E+07        -0.54920E+08         0.00000E+00
    0.00000E+00         0.00000E+00         0.10148E-07
 
    0.14574E+06         0.10317E+07         0.00000E+00
    0.10317E+07        -0.55114E+08         0.00000E+00
    0.00000E+00         0.00000E+00         0.15222E-07
 
    0.13621E+06         0.10395E+07         0.00000E+00
    0.10395E+07        -0.55312E+08         0.00000E+00
    0.00000E+00         0.00000E+00         0.15222E-07
 
    0.12550E+06         0.10463E+07         0.00000E+00
    0.10463E+07        -0.55512E+08         0.00000E+00
    0.00000E+00         0.00000E+00         0.10148E-07
 
    0.11348E+06         0.10520E+07         0.00000E+00
    0.10520E+07        -0.55716E+08         0.00000E+00
    0.00000E+00         0.00000E+00         0.10148E-07
 
    0.10004E+06         0.10565E+07         0.00000E+00
    0.10565E+07        -0.55924E+08         0.00000E+00
    0.00000E+00         0.00000E+00        -0.25370E-07
 
    0.85036E+05         0.10595E+07         0.00000E+00
    0.10595E+07        -0.56134E+08         0.00000E+00
    0.00000E+00         0.00000E+00         0.20296E-07
 
    0.68332E+05         0.10608E+07         0.00000E+00
    0.10608E+07        -0.56348E+08         0.00000E+00
    0.00000E+00         0.00000E+00         0.50741E-08
 
    0.49767E+05         0.10605E+07         0.00000E+00
    0.10605E+07        -0.56566E+08         0.00000E+00
    0.00000E+00         0.00000E+00         0.10148E-07
 
    0.29168E+05         0.10581E+07         0.00000E+00
    0.10581E+07        -0.56786E+08         0.00000E+00
    0.00000E+00         0.00000E+00         0.10148E-07
 
    0.63532E+04         0.10534E+07         0.00000E+00
    0.10534E+07        -0.57011E+08         0.00000E+00
    0.00000E+00         0.00000E+00         0.10148E-07
 
   -0.18873E+05         0.10464E+07         0.00000E+00
    0.10464E+07        -0.57238E+08         0.00000E+00
    0.00000E+00         0.00000E+00        -0.15222E-07
 
   -0.46716E+05         0.10365E+07         0.00000E+00
    0.10365E+07        -0.57470E+08         0.00000E+00
    0.00000E+00         0.00000E+00        -0.10148E-07
 
   -0.77391E+05         0.10236E+07         0.00000E+00
    0.10236E+07        -0.57704E+08         0.00000E+00
    0.00000E+00         0.00000E+00        -0.10148E-07
 
   -0.11112E+06         0.10074E+07         0.00000E+00
    0.10074E+07        -0.57943E+08         0.00000E+00
    0.00000E+00         0.00000E+00         0.30444E-07
 
   -0.14813E+06         0.98746E+06         0.00000E+00
    0.98746E+06        -0.58184E+08         0.00000E+00
    0.00000E+00         0.00000E+00         0.50741E-08
 
   -0.18865E+06         0.96346E+06         0.00000E+00
    0.96346E+06        -0.58430E+08         0.00000E+00
    0.00000E+00         0.00000E+00         0.50741E-07
 
   -0.23291E+06         0.93506E+06         0.00000E+00
    0.93506E+06        -0.58679E+08         0.00000E+00
    0.00000E+00         0.00000E+00         0.00000E+00
 
   -0.28112E+06         0.90188E+06         0.00000E+00
    0.90188E+06        -0.58931E+08         0.00000E+00
    0.00000E+00         0.00000E+00         0.00000E+00
 
   -0.33351E+06         0.86359E+06         0.00000E+00
    0.86359E+06        -0.59187E+08         0.00000E+00
    0.00000E+00         0.00000E+00        -0.35518E-07
 
   -0.39026E+06         0.81990E+06         0.00000E+00
    0.81990E+06        -0.59445E+08         0.00000E+00
    0.00000E+00         0.00000E+00        -0.25370E-07
 
   -0.45159E+06         0.77056E+06         0.00000E+00
    0.77056E+06        -0.59706E+08         0.00000E+00
    0.00000E+00         0.00000E+00        -0.65963E-07
 
   -0.51770E+06         0.71547E+06         0.00000E+00
    0.71547E+06        -0.59969E+08         0.00000E+00
    0.00000E+00         0.00000E+00         0.20296E-07
 
   -0.58882E+06         0.65468E+06         0.00000E+00
    0.65468E+06        -0.60233E+08         0.00000E+00
    0.00000E+00         0.00000E+00        -0.30444E-07
 
   -0.66525E+06         0.58848E+06         0.00000E+00
    0.58848E+06        -0.60497E+08         0.00000E+00
    0.00000E+00         0.00000E+00         0.20296E-07
 
   -0.74742E+06         0.51749E+06         0.00000E+00
    0.51749E+06        -0.60758E+08         0.00000E+00
    0.00000E+00         0.00000E+00         0.50741E-08
 
   -0.83601E+06         0.44282E+06         0.00000E+00
    0.44282E+06        -0.61014E+08         0.00000E+00
    0.00000E+00         0.00000E+00        -0.10148E-07
 
   -0.93209E+06         0.36612E+06         0.00000E+00
    0.36612E+06        -0.61262E+08         0.00000E+00
    0.00000E+00         0.00000E+00        -0.15222E-07
 
   -0.10374E+07         0.28978E+06         0.00000E+00
    0.28978E+06        -0.61497E+08         0.00000E+00
    0.00000E+00         0.00000E+00        -0.25370E-07
 
   -0.11547E+07         0.21689E+06         0.00000E+00
    0.21689E+06        -0.61713E+08         0.00000E+00
    0.00000E+00         0.00000E+00        -0.20296E-07
 
   -0.12879E+07         0.15097E+06         0.00000E+00
    0.15097E+06        -0.61902E+08         0.00000E+00
    0.00000E+00         0.00000E+00         0.00000E+00
 
   -0.14423E+07         0.95158E+05         0.00000E+00
    0.95158E+05        -0.62054E+08         0.00000E+00
    0.00000E+00         0.00000E+00         0.60889E-07
 
   -0.16235E+07         0.50753E+05         0.00000E+00
    0.50753E+05        -0.62163E+08         0.00000E+00
    0.00000E+00         0.00000E+00         0.10148E-07
 
   -0.18367E+07         0.15690E+05         0.00000E+00
    0.15690E+05        -0.62219E+08         0.00000E+00
    0.00000E+00         0.00000E+00         0.50738E-08
 
    0.58209E+06         0.61969E+04         0.00000E+00
    0.61969E+04        -0.47690E+08         0.00000E+00
    0.00000E+00         0.00000E+00        -0.11369E-12
 
    0.52356E+06         0.19654E+05         0.00000E+00
    0.19654E+05        -0.47705E+08         0.00000E+00
    0.00000E+00         0.00000E+00        -0.15222E-07
 
    0.47432E+06         0.35913E+05         0.00000E+00
    0.35913E+05        -0.47736E+08         0.00000E+00
    0.00000E+00         0.00000E+00        -0.20296E-07
 
    0.43289E+06         0.55669E+05         0.00000E+00
    0.55669E+05        -0.47779E+08         0.00000E+00
    0.00000E+00         0.00000E+00        -0.50741E-07
 
    0.39763E+06         0.78593E+05         0.00000E+00
    0.78593E+05        -0.47832E+08         0.00000E+00
    0.00000E+00         0.00000E+00         0.10148E-07
 
    0.36712E+06         0.10379E+06         0.00000E+00
    0.10379E+06        -0.47892E+08         0.00000E+00
    0.00000E+00         0.00000E+00         0.50741E-08
 
    0.34029E+06         0.13022E+06         0.00000E+00
    0.13022E+06        -0.47957E+08         0.00000E+00
    0.00000E+00         0.00000E+00        -0.30444E-07
 
    0.31642E+06         0.15702E+06         0.00000E+00
    0.15702E+06        -0.48027E+08         0.00000E+00
    0.00000E+00         0.00000E+00         0.30444E-07
 
    0.29502E+06         0.18350E+06         0.00000E+00
    0.18350E+06        -0.48099E+08         0.00000E+00
    0.00000E+00         0.00000E+00         0.55815E-07
 
    0.27577E+06         0.20921E+06         0.00000E+00
    0.20921E+06        -0.48173E+08         0.00000E+00
    0.00000E+00         0.00000E+00        -0.30444E-07
 
    0.25848E+06         0.23384E+06         0.00000E+00
    0.23384E+06        -0.48248E+08         0.00000E+00
    0.00000E+00         0.00000E+00        -0.50741E-08
 
    0.24297E+06         0.25724E+06         0.00000E+00
    0.25724E+06        -0.48324E+08         0.00000E+00
    0.00000E+00         0.00000E+00        -0.50741E-08
 
    0.22913E+06         0.27935E+06         0.00000E+00
    0.27935E+06        -0.48400E+08         0.00000E+00
    0.00000E+00         0.00000E+00         0.15222E-07
 
    0.21687E+06         0.30018E+06         0.00000E+00
    0.30018E+06        -0.48477E+08         0.00000E+00
    0.00000E+00         0.00000E+00         0.40593E-07
 
    0.20608E+06         0.31976E+06         0.00000E+00
    0.31976E+06        -0.48555E+08         0.00000E+00
    0.00000E+00         0.00000E+00         0.50741E-08
 
    0.19667E+06         0.33818E+06         0.00000E+00
    0.33818E+06        -0.48633E+08         0.00000E+00
    0.00000E+00         0.00000E+00         0.50741E-07
 
    0.18855E+06         0.35553E+06         0.00000E+00
    0.35553E+06        -0.48712E+08         0.00000E+00
    0.00000E+00         0.00000E+00         0.50741E-08
 
    0.18164E+06         0.37193E+06         0.00000E+00
    0.37193E+06        -0.48791E+08         0.00000E+00
    0.00000E+00         0.00000E+00         0.00000E+00
 
    0.17583E+06         0.38748E+06         0.00000E+00
    0.38748E+06        -0.48870E+08         0.00000E+00
    0.00000E+00         0.00000E+00         0.25370E-07
 
    0.17105E+06         0.40228E+06         0.00000E+00
    0.40228E+06        -0.48951E+08         0.00000E+00
    0.00000E+00         0.00000E+00         0.40593E-07
 
    0.16721E+06         0.41643E+06         0.00000E+00
    0.41643E+06        -0.49032E+08         0.00000E+00
    0.00000E+00         0.00000E+00        -0.15222E-07
 
    0.16421E+06         0.43004E+06         0.00000E+00
    0.43004E+06        -0.49114E+08         0.00000E+00
    0.00000E+00         0.00000E+00        -0.25370E-07
 
    0.16199E+06         0.44318E+06         0.00000E+00
    0.44318E+06        -0.49197E+08         0.00000E+00
    0.00000E+00         0.00000E+00         0.25370E-07
 
    0.16046E+06         0.45595E+06         0.00000E+00
    0.45595E+06        -0.49281E+08         0.00000E+00
    0.00000E+00         0.00000E+00        -0.50741E-08
 
    0.15955E+06         0.46841E+06         0.00000E+00
    0.46841E+06        -0.49367E+08         0.00000E+00
    0.00000E+00         0.00000E+00        -0.20296E-07
 
    0.15920E+06         0.48064E+06         0.00000E+00
    0.48064E+06        -0.49453E+08         0.00000E+00
    0.00000E+00         0.00000E+00         0.50741E-08
 
    0.15933E+06         0.49268E+06         0.00000E+00
    0.49268E+06        -0.49541E+08         0.00000E+00
    0.00000E+00         0.00000E+00         0.10148E-07
 
    0.15989E+06         0.50459E+06         0.00000E+00
    0.50459E+06        -0.49631E+08         0.00000E+00
    0.00000E+00         0.00000E+00        -0.45667E-07
 
    0.16083E+06         0.51641E+06         0.00000E+00
    0.51641E+06        -0.49722E+08         0.00000E+00
    0.00000E+00         0.00000E+00        -0.30444E-07
 
    0.16209E+06         0.52819E+06         0.00000E+00
    0.52819E+06        -0.49814E+08         0.00000E+00
    0.00000E+00         0.00000E+00         0.10148E-07
 
    0.16363E+06         0.53995E+06         0.00000E+00
    0.53995E+06        -0.49908E+08         0.00000E+00
    0.00000E+00         0.00000E+00        -0.25370E-07
 
    0.16540E+06         0.55174E+06         0.00000E+00
    0.55174E+06        -0.50004E+08         0.00000E+00
    0.00000E+00         0.00000E+00         0.25370E-07
 
    0.16737E+06         0.56356E+06         0.00000E+00
    0.56356E+06        -0.50102E+08         0.00000E+00
    0.00000E+00         0.00000E+00         0.40593E-07
 
    0.16950E+06         0.57544E+06         0.00000E+00
    0.57544E+06        -0.50202E+08         0.00000E+00
    0.00000E+00         0.00000E+00        -0.20296E-07
 
    0.17176E+06         0.58740E+06         0.00000E+00
    0.58740E+06        -0.50304E+08         0.00000E+00
    0.00000E+00         0.00000E+00        -0.55815E-07
 
    0.17411E+06         0.59946E+06         0.00000E+00
    0.59946E+06        -0.50408E+08         0.00000E+00
    0.00000E+00         0.00000E+00         0.10148E-07
 
    0.17653E+06         0.61162E+06         0.00000E+00
    0.61162E+06        -0.50514E+08         0.00000E+00
    0.00000E+00         0.00000E+00         0.10148E-07
 
    0.17899E+06         0.62388E+06         0.00000E+00
    0.62388E+06        -0.50622E+08         0.00000E+00
    0.00000E+00         0.00000E+00         0.00000E+00
 
    0.18146E+06         0.63627E+06         0.00000E+00
    0.63627E+06        -0.50732E+08         0.00000E+00
    0.00000E+00         0.00000E+00        -0.71037E-07
 
    0.18393E+06         0.64877E+06         0.00000E+00
    0.64877E+06        -0.50844E+08         0.00000E+00
    0.00000E+00         0.00000E+00        -0.10148E-07
 
    0.18636E+06         0.66139E+06         0.00000E+00
    0.66139E+06        -0.50959E+08         0.00000E+00
    0.00000E+00         0.00000E+00        -0.25370E-07
 
    0.18874E+06         0.67413E+06         0.00000E+00
    0.67413E+06        -0.51077E+08         0.00000E+00
    0.00000E+00         0.00000E+00        -0.40593E-07
 
    0.19104E+06         0.68698E+06         0.00000E+00
    0.68698E+06        -0.51197E+08         0.00000E+00
    0.00000E+00         0.00000E+00         0.25370E-07
 
    0.19325E+06         0.69995E+06         0.00000E+00
    0.69995E+06        -0.51319E+08         0.00000E+00
    0.00000E+00         0.00000E+00         0.25370E-07
 
    0.19534E+06         0.71301E+06         0.00000E+00
    0.71301E+06        -0.51444E+08         0.00000E+00
    0.00000E+00         0.00000E+00         0.15222E-07
 
    0.19729E+06         0.72617E+06         0.00000E+00
    0.72617E+06        -0.51571E+08         0.00000E+00
    0.00000E+00         0.00000E+00         0.15222E-07
 
    0.19909E+06         0.73942E+06         0.00000E+00
    0.73942E+06        -0.51701E+08         0.00000E+00
    0.00000E+00         0.00000E+00        -0.20296E-07
 
    0.20071E+06         0.75273E+06         0.00000E+00
    0.75273E+06        -0.51834E+08         0.00000E+00
    0.00000E+00         0.00000E+00         0.10148E-07
 
    0.20213E+06         0.76611E+06         0.00000E+00
    0.76611E+06        -0.51970E+08         0.00000E+00
    0.00000E+00         0.00000E+00         0.00000E+00
 
    0.20332E+06         0.77952E+06         0.00000E+00
    0.77952E+06        -0.52108E+08         0.00000E+00
    0.00000E+00         0.00000E+00         0.25370E-07
 
    0.20428E+06         0.79295E+06         0.00000E+00
    0.79295E+06        -0.52249E+08         0.00000E+00
    0.00000E+00         0.00000E+00         0.10148E-07
 
    0.20496E+06         0.80639E+06         0.00000E+00
    0.80639E+06        -0.52393E+08         0.00000E+00
    0.00000E+00         0.00000E+00        -0.50741E-08
 
    0.20536E+06         0.81981E+06         0.00000E+00
    0.81981E+06        -0.52541E+08         0.00000E+00
    0.00000E+00         0.00000E+00         0.50741E-08
 
    0.20543E+06         0.83319E+06         0.00000E+00
    0.83319E+06        -0.52691E+08         0.00000E+00
    0.00000E+00         0.00000E+00         0.65963E-07
 
    0.20516E+06         0.84649E+06         0.00000E+00
    0.84649E+06        -0.52843E+08         0.00000E+00
    0.00000E+00         0.00000E+00         0.10148E-07
 
    0.20451E+06         0.85969E+06         0.00000E+00
    0.85969E+06        -0.52999E+08         0.00000E+00
    0.00000E+00         0.00000E+00         0.10148E-07
 
    0.20345E+06         0.87276E+06         0.00000E+00
    0.87276E+06        -0.53159E+08         0.00000E+00
    0.00000E+00         0.00000E+00         0.10148E-07
 
    0.20195E+06         0.88567E+06         0.00000E+00
    0.88567E+06        -0.53321E+08         0.00000E+00
    0.00000E+00         0.00000E+00         0.00000E+00
 
    0.19996E+06         0.89837E+06         0.00000E+00
    0.89837E+06        -0.53486E+08         0.00000E+00
    0.00000E+00         0.00000E+00         0.20296E-07
 
    0.19745E+06         0.91082E+06         0.00000E+00
    0.91082E+06        -0.53654E+08         0.00000E+00
    0.00000E+00         0.00000E+00        -0.10148E-07
 
    0.19437E+06         0.92297E+06         0.00000E+00
    0.92297E+06        -0.53826E+08         0.00000E+00
    0.00000E+00         0.00000E+00        -0.45667E-07
 
    0.19067E+06         0.93478E+06         0.00000E+00
    0.93478E+06        -0.54000E+08         0.00000E+00
    0.00000E+00         0.00000E+00         0.15222E-07
 
    0.18630E+06         0.94619E+06         0.00000E+00
    0.94619E+06        -0.54178E+08         0.00000E+00
    0.00000E+00         0.00000E+00         0.00000E+00
 
    0.18121E+06         0.95714E+06         0.00000E+00
    0.95714E+06        -0.54359E+08         0.00000E+00
    0.00000E+00         0.00000E+00         0.10148E-07
 
    0.17531E+06         0.96757E+06         0.00000E+00
    0.96757E+06        -0.54544E+08         0.00000E+00
    0.00000E+00         0.00000E+00         0.15222E-07
 
    0.16855E+06         0.97738E+06         0.00000E+00
    0.97738E+06        -0.54731E+08         0.00000E+00
    0.00000E+00         0.00000E+00         0.35518E-07
 
    0.16085E+06         0.98652E+06         0.00000E+00
    0.98652E+06        -0.54922E+08         0.00000E+00
    0.00000E+00         0.00000E+00        -0.15222E-07
 
    0.15211E+06         0.99488E+06         0.00000E+00
    0.99488E+06        -0.55116E+08         0.00000E+00
    0.00000E+00         0.00000E+00         0.20296E-07
 
    0.14224E+06         0.10024E+07         0.00000E+00
    0.10024E+07        -0.55313E+08         0.00000E+00
    0.00000E+00         0.00000E+00        -0.25370E-07
 
    0.13114E+06         0.10089E+07         0.00000E+00
    0.10089E+07        -0.55513E+08         0.00000E+00
    0.00000E+00         0.00000E+00         0.00000E+00
 
    0.11868E+06         0.10143E+07         0.00000E+00
    0.10143E+07        -0.55717E+08         0.00000E+00
    0.00000E+00         0.00000E+00        -0.10148E-07
 
    0.10475E+06         0.10184E+07         0.00000E+00
    0.10184E+07        -0.55924E+08         0.00000E+00
    0.00000E+00         0.00000E+00         0.35518E-07
 
    0.89204E+05         0.10212E+07         0.00000E+00
    0.10212E+07        -0.56135E+08         0.00000E+00
    0.00000E+00         0.00000E+00         0.25370E-07
 
    0.71887E+05         0.10224E+07         0.00000E+00
    0.10224E+07        -0.56348E+08         0.00000E+00
    0.00000E+00         0.00000E+00        -0.35518E-07
 
    0.52633E+05         0.10219E+07         0.00000E+00
    0.10219E+07        -0.56565E+08         0.00000E+00
    0.00000E+00         0.00000E+00         0.00000E+00
 
    0.31265E+05         0.10194E+07         0.00000E+00
    0.10194E+07        -0.56786E+08         0.00000E+00
    0.00000E+00         0.00000E+00         0.25370E-07
 
    0.75887E+04         0.10147E+07         0.00000E+00
    0.10147E+07        -0.57010E+08         0.00000E+00
    0.00000E+00         0.00000E+00        -0.50741E-08
 
   -0.18602E+05         0.10076E+07         0.00000E+00
    0.10076E+07        -0.57237E+08         0.00000E+00
    0.00000E+00         0.00000E+00        -0.15222E-07
 
   -0.47525E+05         0.99788E+06         0.00000E+00
    0.99788E+06        -0.57467E+08         0.00000E+00
    0.00000E+00         0.00000E+00         0.00000E+00
 
   -0.79411E+05         0.98513E+06         0.00000E+00
    0.98513E+06        -0.57701E+08         0.00000E+00
    0.00000E+00         0.00000E+00         0.50741E-08
 
   -0.11450E+06         0.96908E+06         0.00000E+00
    0.96908E+06        -0.57939E+08         0.00000E+00
    0.00000E+00         0.00000E+00         0.30444E-07
 
   -0.15303E+06         0.94940E+06         0.00000E+00
    0.94940E+06        -0.58180E+08         0.00000E+00
    0.00000E+00         0.00000E+00         0.20296E-07
 
   -0.19526E+06         0.92574E+06         0.00000E+00
    0.92574E+06        -0.58425E+08         0.00000E+00
    0.00000E+00         0.00000E+00        -0.60889E-07
 
   -0.24144E+06         0.89773E+06         0.00000E+00
    0.89773E+06        -0.58673E+08         0.00000E+00
    0.00000E+00         0.00000E+00        -0.15222E-07
 
   -0.29180E+06         0.86501E+06         0.00000E+00
    0.86501E+06        -0.58924E+08         0.00000E+00
    0.00000E+00         0.00000E+00        -0.10148E-07
 
   -0.34659E+06         0.82726E+06         0.00000E+00
    0.82726E+06        -0.59178E+08         0.00000E+00
    0.00000E+00         0.00000E+00         0.60889E-07
 
   -0.40604E+06         0.78416E+06         0.00000E+00
    0.78416E+06        -0.59436E+08         0.00000E+00
    0.00000E+00         0.00000E+00         0.50741E-08
 
   -0.47038E+06         0.73548E+06         0.00000E+00
    0.73548E+06        -0.59696E+08         0.00000E+00
    0.00000E+00         0.00000E+00         0.15222E-07
 
   -0.53982E+06         0.68112E+06         0.00000E+00
    0.68112E+06        -0.59958E+08         0.00000E+00
    0.00000E+00         0.00000E+00         0.15222E-07
 
   -0.61463E+06         0.62114E+06         0.00000E+00
    0.62114E+06        -0.60221E+08         0.00000E+00
    0.00000E+00         0.00000E+00         0.15222E-07
 
   -0.69509E+06         0.55584E+06         0.00000E+00
    0.55584E+06        -0.60483E+08         0.00000E+00
    0.00000E+00         0.00000E+00         0.45667E-07
 
   -0.78161E+06         0.48589E+06         0.00000E+00
    0.48589E+06        -0.60744E+08         0.00000E+00
    0.00000E+00         0.00000E+00         0.40593E-07
 
   -0.87481E+06         0.41243E+06         0.00000E+00
    0.41243E+06        -0.60999E+08         0.00000E+00
    0.00000E+00         0.00000E+00         0.25370E-07
 
   -0.97565E+06         0.33724E+06         0.00000E+00
    0.33724E+06        -0.61247E+08         0.00000E+00
    0.00000E+00         0.00000E+00         0.55815E-07
 
   -0.10857E+07         0.26284E+06         0.00000E+00
    0.26284E+06        -0.61482E+08         0.00000E+00
    0.00000E+00         0.00000E+00        -0.50741E-07
 
   -0.12074E+07         0.19255E+06         0.00000E+00
    0.19255E+06        -0.61699E+08         0.00000E+00
    0.00000E+00         0.00000E+00         0.45667E-07
 
   -0.13444E+07         0.13016E+06         0.00000E+00
    0.13016E+06        -0.61890E+08         0.00000E+00
    0.00000E+00         0.00000E+00        -0.55815E-07
 
   -0.15016E+07         0.79031E+05         0.00000E+00
    0.79031E+05        -0.62045E+08         0.00000E+00
    0.00000E+00         0.00000E+00        -0.40592E-07
 
   -0.16846E+07         0.40473E+05         0.00000E+00
    0.40473E+05        -0.62155E+08         0.00000E+00
    0.00000E+00         0.00000E+00        -0.20296E-07
 
   -0.18986E+07         0.12152E+05         0.00000E+00
    0.12152E+05        -0.62213E+08         0.00000E+00
    0.00000E+00         0.00000E+00        -0.15222E-07
 
    0.60118E+06         0.51742E+04         0.00000E+00
    0.51742E+04        -0.47692E+08         0.00000E+00
    0.00000E+00         0.00000E+00        -0.15222E-07
 
    0.54245E+06         0.16684E+05         0.00000E+00
    0.16684E+05        -0.47708E+08         0.00000E+00
    0.00000E+00         0.00000E+00        -0.10148E-07
 
    0.49280E+06         0.31249E+05         0.00000E+00
    0.31249E+05        -0.47739E+08         0.00000E+00
    0.00000E+00         0.00000E+00         0.71037E-07
 
    0.45068E+06         0.49631E+05         0.00000E+00
    0.49631E+05        -0.47783E+08         0.00000E+00
    0.00000E+00         0.00000E+00        -0.20296E-07
 
    0.41449E+06         0.71479E+05         0.00000E+00
    0.71479E+05        -0.47836E+08         0.00000E+00
    0.00000E+00         0.00000E+00         0.25370E-07
 
    0.38288E+06         0.95824E+05         0.00000E+00
    0.95824E+05        -0.47897E+08         0.00000E+00
    0.00000E+00         0.00000E+00         0.10148E-07
 
    0.35488E+06         0.12157E+06         0.00000E+00
    0.12157E+06        -0.47963E+08         0.00000E+00
    0.00000E+00         0.00000E+00        -0.25370E-07
 
    0.32984E+06         0.14777E+06         0.00000E+00
    0.14777E+06        -0.48032E+08         0.00000E+00
    0.00000E+00         0.00000E+00         0.50741E-08
 
    0.30732E+06         0.17371E+06         0.00000E+00
    0.17371E+06        -0.48104E+08         0.00000E+00
    0.00000E+00         0.00000E+00         0.76111E-07
 
    0.28705E+06         0.19891E+06         0.00000E+00
    0.19891E+06        -0.48178E+08         0.00000E+00
    0.00000E+00         0.00000E+00         0.15222E-07
 
    0.26883E+06         0.22306E+06         0.00000E+00
    0.22306E+06        -0.48252E+08         0.00000E+00
    0.00000E+00         0.00000E+00         0.60889E-07
 
    0.25251E+06         0.24599E+06         0.00000E+00
    0.24599E+06        -0.48328E+08         0.00000E+00
    0.00000E+00         0.00000E+00        -0.45667E-07
 
    0.23797E+06         0.26763E+06         0.00000E+00
    0.26763E+06        -0.48405E+08         0.00000E+00
    0.00000E+00         0.00000E+00        -0.50741E-08
 
    0.22510E+06         0.28799E+06         0.00000E+00
    0.28799E+06        -0.48481E+08         0.00000E+00
    0.00000E+00         0.00000E+00        -0.50741E-08
 
    0.21379E+06         0.30712E+06         0.00000E+00
    0.30712E+06        -0.48559E+08         0.00000E+00
    0.00000E+00         0.00000E+00        -0.35518E-07
 
    0.20395E+06         0.32509E+06         0.00000E+00
    0.32509E+06        -0.48637E+08         0.00000E+00
    0.00000E+00         0.00000E+00         0.00000E+00
 
    0.19548E+06         0.34201E+06         0.00000E+00
    0.34201E+06        -0.48715E+08         0.00000E+00
    0.00000E+00         0.00000E+00        -0.35518E-07
 
    0.18828E+06         0.35797E+06         0.00000E+00
    0.35797E+06        -0.48794E+08         0.00000E+00
    0.00000E+00         0.00000E+00         0.00000E+00
 
    0.18224E+06         0.37308E+06         0.00000E+00
    0.37308E+06        -0.48873E+08         0.00000E+00
    0.00000E+00         0.00000E+00         0.35518E-07
 
    0.17728E+06         0.38745E+06         0.00000E+00
    0.38745E+06        -0.48954E+08         0.00000E+00
    0.00000E+00         0.00000E+00         0.35518E-07
 
    0.17330E+06         0.40118E+06         0.00000E+00
    0.40118E+06        -0.49035E+08         0.00000E+00
    0.00000E+00         0.00000E+00        -0.25370E-07
 
    0.17021E+06         0.41437E+06         0.00000E+00
    0.41437E+06        -0.49117E+08         0.00000E+00
    0.00000E+00         0.00000E+00         0.25370E-07
 
    0.16793E+06         0.42710E+06         0.00000E+00
    0.42710E+06        -0.49200E+08         0.00000E+00
    0.00000E+00         0.00000E+00         0.86259E-07
 
    0.16636E+06         0.43946E+06         0.00000E+00
    0.43946E+06        -0.49284E+08         0.00000E+00
    0.00000E+00         0.00000E+00        -0.50741E-08
 
    0.16545E+06         0.45151E+06         0.00000E+00
    0.45151E+06        -0.49369E+08         0.00000E+00
    0.00000E+00         0.00000E+00         0.25370E-07
 
    0.16510E+06         0.46333E+06         0.00000E+00
    0.46333E+06        -0.49456E+08         0.00000E+00
    0.00000E+00         0.00000E+00        -0.30444E-07
 
    0.16526E+06         0.47496E+06         0.00000E+00
    0.47496E+06        -0.49544E+08         0.00000E+00
    0.00000E+00         0.00000E+00        -0.50741E-08
 
    0.16587E+06         0.48646E+06         0.00000E+00
    0.48646E+06        -0.49633E+08         0.00000E+00
    0.00000E+00         0.00000E+00         0.25370E-07
 
    0.16687E+06         0.49787E+06         0.00000E+00
    0.49787E+06        -0.49724E+08         0.00000E+00
    0.00000E+00         0.00000E+00         0.50741E-08
 
    0.16820E+06         0.50924E+06         0.00000E+00
    0.50924E+06        -0.49816E+08         0.00000E+00
    0.00000E+00         0.00000E+00         0.00000E+00
 
    0.16981E+06         0.52059E+06         0.00000E+00
    0.52059E+06        -0.49911E+08         0.00000E+00
    0.00000E+00         0.00000E+00        -0.40593E-07
 
    0.17167E+06         0.53195E+06         0.00000E+00
    0.53195E+06        -0.50007E+08         0.00000E+00
    0.00000E+00         0.00000E+00        -0.50741E-08
 
    0.17374E+06         0.54335E+06         0.00000E+00
    0.54335E+06        -0.50105E+08         0.00000E+00
    0.00000E+00         0.00000E+00        -0.35518E-07
 
    0.17597E+06         0.55481E+06         0.00000E+00
    0.55481E+06        -0.50204E+08         0.00000E+00
    0.00000E+00         0.00000E+00         0.40593E-07
 
    0.17832E+06         0.56634E+06         0.00000E+00
    0.56634E+06        -0.50306E+08         0.00000E+00
    0.00000E+00         0.00000E+00         0.20296E-07
 
    0.18078E+06         0.57795E+06         0.00000E+00
    0.57795E+06        -0.50410E+08         0.00000E+00
    0.00000E+00         0.00000E+00         0.00000E+00
 
    0.18330E+06         0.58967E+06         0.00000E+00
    0.58967E+06        -0.50516E+08         0.00000E+00
    0.00000E+00         0.00000E+00        -0.15222E-07
 
    0.18587E+06         0.60149E+06         0.00000E+00
    0.60149E+06        -0.50624E+08         0.00000E+00
    0.00000E+00         0.00000E+00        -0.60888E-07
 
    0.18845E+06         0.61341E+06         0.00000E+00
    0.61341E+06        -0.50734E+08         0.00000E+00
    0.00000E+00         0.00000E+00        -0.60889E-07
 
    0.19102E+06         0.62546E+06         0.00000E+00
    0.62546E+06        -0.50847E+08         0.00000E+00
    0.00000E+00         0.00000E+00         0.25370E-07
 
    0.19355E+06         0.63761E+06         0.00000E+00
    0.63761E+06        -0.50962E+08         0.00000E+00
    0.00000E+00         0.00000E+00        -0.20296E-07
 
    0.19603E+06         0.64988E+06         0.00000E+00
    0.64988E+06        -0.51079E+08         0.00000E+00
    0.00000E+00         0.00000E+00        -0.20296E-07
 
    0.19843E+06         0.66226E+06         0.00000E+00
    0.66226E+06        -0.51199E+08         0.00000E+00
    0.00000E+00         0.00000E+00         0.10148E-07
 
    0.20073E+06         0.67474E+06         0.00000E+00
    0.67474E+06        -0.51321E+08         0.00000E+00
    0.00000E+00         0.00000E+00        -0.20296E-07
 
    0.20291E+06         0.68732E+06         0.00000E+00
    0.68732E+06        -0.51446E+08         0.00000E+00
    0.00000E+00         0.00000E+00         0.10148E-07
 
    0.20495E+06         0.69999E+06         0.00000E+00
    0.69999E+06        -0.51574E+08         0.00000E+00
    0.00000E+00         0.00000E+00         0.50741E-07
 
    0.20683E+06         0.71274E+06         0.00000E+00
    0.71274E+06        -0.51704E+08         0.00000E+00
    0.00000E+00         0.00000E+00         0.10148E-07
 
    0.20852E+06         0.72556E+06         0.00000E+00
    0.72556E+06        -0.51837E+08         0.00000E+00
    0.00000E+00         0.00000E+00         0.30444E-07
 
    0.21000E+06         0.73842E+06         0.00000E+00
    0.73842E+06        -0.51972E+08         0.00000E+00
    0.00000E+00         0.00000E+00        -0.30444E-07
 
    0.21125E+06         0.75133E+06         0.00000E+00
    0.75133E+06        -0.52111E+08         0.00000E+00
    0.00000E+00         0.00000E+00        -0.50741E-08
 
    0.21225E+06         0.76426E+06         0.00000E+00
    0.76426E+06        -0.52252E+08         0.00000E+00
    0.00000E+00         0.00000E+00        -0.20296E-07
 
    0.21298E+06         0.77718E+06         0.00000E+00
    0.77718E+06        -0.52396E+08         0.00000E+00
    0.00000E+00         0.00000E+00        -0.20296E-07
 
    0.21340E+06         0.79009E+06         0.00000E+00
    0.79009E+06        -0.52543E+08         0.00000E+00
    0.00000E+00         0.00000E+00         0.50741E-08
 
    0.21349E+06         0.80296E+06         0.00000E+00
    0.80296E+06        -0.52693E+08         0.00000E+00
    0.00000E+00         0.00000E+00        -0.50741E-08
 
    0.21322E+06         0.81575E+06         0.00000E+00
    0.81575E+06        -0.52846E+08         0.00000E+00
    0.00000E+00         0.00000E+00         0.50741E-08
 
    0.21255E+06         0.82844E+06         0.00000E+00
    0.82844E+06        -0.53002E+08         0.00000E+00
    0.00000E+00         0.00000E+00         0.30444E-07
 
    0.21147E+06         0.84101E+06         0.00000E+00
    0.84101E+06        -0.53161E+08         0.00000E+00
    0.00000E+00         0.00000E+00        -0.35518E-07
 
    0.20992E+06         0.85341E+06         0.00000E+00
    0.85341E+06        -0.53323E+08         0.00000E+00
    0.00000E+00         0.00000E+00        -0.50741E-07
 
    0.20788E+06         0.86561E+06         0.00000E+00
    0.86561E+06        -0.53488E+08         0.00000E+00
    0.00000E+00         0.00000E+00         0.10148E-07
 
    0.20529E+06         0.87757E+06         0.00000E+00
    0.87757E+06        -0.53657E+08         0.00000E+00
    0.00000E+00         0.00000E+00         0.00000E+00
 
    0.20211E+06         0.88925E+06         0.00000E+00
    0.88925E+06        -0.53828E+08         0.00000E+00
    0.00000E+00         0.00000E+00        -0.15222E-07
 
    0.19830E+06         0.90058E+06         0.00000E+00
    0.90058E+06        -0.54003E+08         0.00000E+00
    0.00000E+00         0.00000E+00        -0.30444E-07
 
    0.19379E+06         0.91153E+06         0.00000E+00
    0.91153E+06        -0.54180E+08         0.00000E+00
    0.00000E+00         0.00000E+00         0.50741E-08
 
    0.18853E+06         0.92203E+06         0.00000E+00
    0.92203E+06        -0.54361E+08         0.00000E+00
    0.00000E+00         0.00000E+00        -0.15222E-07
 
    0.18244E+06         0.93202E+06         0.00000E+00
    0.93202E+06        -0.54545E+08         0.00000E+00
    0.00000E+00         0.00000E+00        -0.30444E-07
 
    0.17545E+06         0.94143E+06         0.00000E+00
    0.94143E+06        -0.54733E+08         0.00000E+00
    0.00000E+00         0.00000E+00        -0.50741E-07
 
    0.16749E+06         0.95017E+06         0.00000E+00
    0.95017E+06        -0.54923E+08         0.00000E+00
    0.00000E+00         0.00000E+00        -0.50741E-08
 
    0.15846E+06         0.95815E+06         0.00000E+00
    0.95815E+06        -0.55117E+08         0.00000E+00
    0.00000E+00         0.00000E+00        -0.35518E-07
 
    0.14826E+06         0.96529E+06         0.00000E+00
    0.96529E+06        -0.55314E+08         0.00000E+00
    0.00000E+00         0.00000E+00         0.00000E+00
 
    0.13678E+06         0.97148E+06         0.00000E+00
    0.97148E+06        -0.55515E+08         0.00000E+00
    0.00000E+00         0.00000E+00        -0.50741E-08
 
    0.12391E+06         0.97659E+06         0.00000E+00
    0.97659E+06        -0.55718E+08         0.00000E+00
    0.00000E+00         0.00000E+00        -0.50741E-07
 
    0.10950E+06         0.98049E+06         0.00000E+00
    0.98049E+06        -0.55925E+08         0.00000E+00
    0.00000E+00         0.00000E+00         0.15222E-07
 
    0.93425E+05         0.98304E+06         0.00000E+00
    0.98304E+06        -0.56135E+08         0.00000E+00
    0.00000E+00         0.00000E+00        -0.25370E-07
 
    0.75511E+05         0.98407E+06         0.00000E+00
    0.98407E+06        -0.56348E+08         0.00000E+00
    0.00000E+00         0.00000E+00        -0.40593E-07
 
    0.55590E+05         0.98341E+06         0.00000E+00
    0.98341E+06        -0.56565E+08         0.00000E+00
    0.00000E+00         0.00000E+00        -0.10148E-07
 
    0.33473E+05         0.98085E+06         0.00000E+00
    0.98085E+06        -0.56785E+08         0.00000E+00
    0.00000E+00         0.00000E+00        -0.25370E-07
 
    0.89582E+04         0.97617E+06         0.00000E+00
    0.97617E+06        -0.57008E+08         0.00000E+00
    0.00000E+00         0.00000E+00        -0.10148E-07
 
   -0.18172E+05         0.96913E+06         0.00000E+00
    0.96913E+06        -0.57235E+08         0.00000E+00
    0.00000E+00         0.00000E+00        -0.20296E-07
 
   -0.48150E+05         0.95946E+06         0.00000E+00
    0.95946E+06        -0.57465E+08         0.00000E+00
    0.00000E+00         0.00000E+00         0.10148E-07
 
   -0.81220E+05         0.94687E+06         0.00000E+00
    0.94687E+06        -0.57699E+08         0.00000E+00
    0.00000E+00         0.00000E+00        -0.50741E-08
 
   -0.11764E+06         0.93105E+06         0.00000E+00
    0.93105E+06        -0.57935E+08         0.00000E+00
    0.00000E+00         0.00000E+00        -0.65963E-07
 
   -0.15767E+06         0.91167E+06         0.00000E+00
    0.91167E+06        -0.58176E+08         0.00000E+00
    0.00000E+00         0.00000E+00        -0.15222E-07
 
   -0.20158E+06         0.88837E+06         0.00000E+00
    0.88837E+06        -0.58419E+08         0.00000E+00
    0.00000E+00         0.00000E+00        -0.40593E-07
 
   -0.24965E+06         0.86080E+06         0.00000E+00
    0.86080E+06        -0.58667E+08         0.00000E+00
    0.00000E+00         0.00000E+00        -0.20296E-07
 
   -0.30214E+06         0.82860E+06         0.00000E+00
    0.82860E+06        -0.58917E+08         0.00000E+00
    0.00000E+00         0.00000E+00        -0.25370E-07
 
   -0.35932E+06         0.79143E+06         0.00000E+00
    0.79143E+06        -0.59170E+08         0.00000E+00
    0.00000E+00         0.00000E+00         0.20296E-07
 
   -0.42145E+06         0.74898E+06         0.00000E+00
    0.74898E+06        -0.59427E+08         0.00000E+00
    0.00000E+00         0.00000E+00         0.25370E-07
 
   -0.48879E+06         0.70104E+06         0.00000E+00
    0.70104E+06        -0.59686E+08         0.00000E+00
    0.00000E+00         0.00000E+00        -0.10148E-07
 
   -0.56158E+06         0.64748E+06         0.00000E+00
    0.64748E+06        -0.59946E+08         0.00000E+00
    0.00000E+00         0.00000E+00         0.25370E-07
 
   -0.64009E+06         0.58837E+06         0.00000E+00
    0.58837E+06        -0.60208E+08         0.00000E+00
    0.00000E+00         0.00000E+00         0.20296E-07
 
   -0.72461E+06         0.52405E+06         0.00000E+00
    0.52405E+06        -0.60470E+08         0.00000E+00
    0.00000E+00         0.00000E+00        -0.10148E-07
 
   -0.81552E+06         0.45519E+06         0.00000E+00
    0.45519E+06        -0.60729E+08         0.00000E+00
    0.00000E+00         0.00000E+00         0.25370E-07
 
   -0.91338E+06         0.38299E+06         0.00000E+00
    0.38299E+06        -0.60985E+08         0.00000E+00
    0.00000E+00         0.00000E+00         0.50741E-08
 
   -0.10190E+07         0.30931E+06         0.00000E+00
    0.30931E+06        -0.61232E+08         0.00000E+00
    0.00000E+00         0.00000E+00        -0.45667E-07
 
   -0.11338E+07         0.23682E+06         0.00000E+00
    0.23682E+06        -0.61468E+08         0.00000E+00
    0.00000E+00         0.00000E+00         0.30444E-07
 
   -0.12599E+07         0.16904E+06         0.00000E+00
    0.16904E+06        -0.61686E+08         0.00000E+00
    0.00000E+00         0.00000E+00        -0.50741E-08
 
   -0.14006E+07         0.11001E+06         0.00000E+00
    0.11001E+06        -0.61879E+08         0.00000E+00
    0.00000E+00         0.00000E+00        -0.71037E-07
 
   -0.15606E+07         0.63349E+05         0.00000E+00
    0.63349E+05        -0.62037E+08         0.00000E+00
    0.00000E+00         0.00000E+00         0.35518E-07
 
   -0.17453E+07         0.30434E+05         0.00000E+00
    0.30434E+05        -0.62150E+08         0.00000E+00
    0.00000E+00         0.00000E+00        -0.25370E-07
 
   -0.19600E+07         0.86859E+04         0.00000E+00
    0.86859E+04        -0.62209E+08         0.00000E+00
    0.00000E+00         0.00000E+00         0.15222E-07
 
    0.62013E+06         0.41667E+04         0.00000E+00
    0.41667E+04        -0.47694E+08         0.00000E+00
    0.00000E+00         0.00000E+00         0.30444E-07
 
    0.56123E+06         0.13766E+05         0.00000E+00
    0.13766E+05        -0.47711E+08         0.00000E+00
    0.00000E+00         0.00000E+00         0.30444E-07
 
    0.51117E+06         0.26691E+05         0.00000E+00
    0.26691E+05        -0.47743E+08         0.00000E+00
    0.00000E+00         0.00000E+00        -0.10148E-07
 
    0.46838E+06         0.43755E+05         0.00000E+00
    0.43755E+05        -0.47787E+08         0.00000E+00
    0.00000E+00         0.00000E+00        -0.50741E-08
 
    0.43126E+06         0.64571E+05         0.00000E+00
    0.64571E+05        -0.47841E+08         0.00000E+00
    0.00000E+00         0.00000E+00        -0.40593E-07
 
    0.39855E+06         0.88094E+05         0.00000E+00
    0.88094E+05        -0.47902E+08         0.00000E+00
    0.00000E+00         0.00000E+00        -0.25370E-07
 
    0.36936E+06         0.11315E+06         0.00000E+00
    0.11315E+06        -0.47968E+08         0.00000E+00
    0.00000E+00         0.00000E+00         0.35518E-07
 
    0.34313E+06         0.13875E+06         0.00000E+00
    0.13875E+06        -0.48037E+08         0.00000E+00
    0.00000E+00         0.00000E+00         0.00000E+00
 
    0.31949E+06         0.16414E+06         0.00000E+00
    0.16414E+06        -0.48109E+08         0.00000E+00
    0.00000E+00         0.00000E+00         0.00000E+00
 
    0.29818E+06         0.18881E+06         0.00000E+00
    0.18881E+06        -0.48182E+08         0.00000E+00
    0.00000E+00         0.00000E+00         0.50741E-08
 
    0.27902E+06         0.21245E+06         0.00000E+00
    0.21245E+06        -0.48257E+08         0.00000E+00
    0.00000E+00         0.00000E+00        -0.15222E-07
 
    0.26188E+06         0.23488E+06         0.00000E+00
    0.23488E+06        -0.48333E+08         0.00000E+00
    0.00000E+00         0.00000E+00        -0.45667E-07
 
    0.24663E+06         0.25604E+06         0.00000E+00
    0.25604E+06        -0.48409E+08         0.00000E+00
    0.00000E+00         0.00000E+00         0.10148E-07
 
    0.23315E+06         0.27593E+06         0.00000E+00
    0.27593E+06        -0.48485E+08         0.00000E+00
    0.00000E+00         0.00000E+00        -0.25370E-07
 
    0.22134E+06         0.29458E+06         0.00000E+00
    0.29458E+06        -0.48562E+08         0.00000E+00
    0.00000E+00         0.00000E+00        -0.35518E-07
 
    0.21107E+06         0.31209E+06         0.00000E+00
    0.31209E+06        -0.48640E+08         0.00000E+00
    0.00000E+00         0.00000E+00         0.10148E-07
 
    0.20225E+06         0.32855E+06         0.00000E+00
    0.32855E+06        -0.48718E+08         0.00000E+00
    0.00000E+00         0.00000E+00         0.15222E-07
 
    0.19476E+06         0.34405E+06         0.00000E+00
    0.34405E+06        -0.48797E+08         0.00000E+00
    0.00000E+00         0.00000E+00         0.15222E-07
 
    0.18851E+06         0.35872E+06         0.00000E+00
    0.35872E+06        -0.48876E+08         0.00000E+00
    0.00000E+00         0.00000E+00         0.50741E-08
 
    0.18337E+06         0.37266E+06         0.00000E+00
    0.37266E+06        -0.48956E+08         0.00000E+00
    0.00000E+00         0.00000E+00        -0.50741E-08
 
    0.17926E+06         0.38596E+06         0.00000E+00
    0.38596E+06        -0.49037E+08         0.00000E+00
    0.00000E+00         0.00000E+00         0.50741E-08
 
    0.17608E+06         0.39872E+06         0.00000E+00
    0.39872E+06        -0.49119E+08         0.00000E+00
    0.00000E+00         0.00000E+00         0.50741E-08
 
    0.17374E+06         0.41103E+06         0.00000E+00
    0.41103E+06        -0.49202E+08         0.00000E+00
    0.00000E+00         0.00000E+00         0.10148E-07
 
    0.17215E+06         0.42297E+06         0.00000E+00
    0.42297E+06        -0.49286E+08         0.00000E+00
    0.00000E+00         0.00000E+00         0.00000E+00
 
    0.17123E+06         0.43461E+06         0.00000E+00
    0.43461E+06        -0.49371E+08         0.00000E+00
    0.00000E+00         0.00000E+00        -0.10148E-07
 
    0.17090E+06         0.44601E+06         0.00000E+00
    0.44601E+06        -0.49458E+08         0.00000E+00
    0.00000E+00         0.00000E+00         0.00000E+00
 
    0.17109E+06         0.45723E+06         0.00000E+00
    0.45723E+06        -0.49546E+08         0.00000E+00
    0.00000E+00         0.00000E+00        -0.30444E-07
 
    0.17175E+06         0.46832E+06         0.00000E+00
    0.46832E+06        -0.49635E+08         0.00000E+00
    0.00000E+00         0.00000E+00         0.35518E-07
 
    0.17280E+06         0.47932E+06         0.00000E+00
    0.47932E+06        -0.49726E+08         0.00000E+00
    0.00000E+00         0.00000E+00         0.10148E-07
 
    0.17421E+06         0.49027E+06         0.00000E+00
    0.49027E+06        -0.49819E+08         0.00000E+00
    0.00000E+00         0.00000E+00         0.00000E+00
 
    0.17591E+06         0.50120E+06         0.00000E+00
    0.50120E+06        -0.49913E+08         0.00000E+00
    0.00000E+00         0.00000E+00        -0.15222E-07
 
    0.17785E+06         0.51215E+06         0.00000E+00
    0.51215E+06        -0.50009E+08         0.00000E+00
    0.00000E+00         0.00000E+00        -0.10148E-07
 
    0.18001E+06         0.52312E+06         0.00000E+00
    0.52312E+06        -0.50107E+08         0.00000E+00
    0.00000E+00         0.00000E+00         0.15222E-07
 
    0.18234E+06         0.53415E+06         0.00000E+00
    0.53415E+06        -0.50207E+08         0.00000E+00
    0.00000E+00         0.00000E+00         0.00000E+00
 
    0.18480E+06         0.54525E+06         0.00000E+00
    0.54525E+06        -0.50308E+08         0.00000E+00
    0.00000E+00         0.00000E+00        -0.40593E-07
 
    0.18736E+06         0.55643E+06         0.00000E+00
    0.55643E+06        -0.50412E+08         0.00000E+00
    0.00000E+00         0.00000E+00         0.30444E-07
 
    0.18999E+06         0.56770E+06         0.00000E+00
    0.56770E+06        -0.50518E+08         0.00000E+00
    0.00000E+00         0.00000E+00        -0.30444E-07
 
    0.19266E+06         0.57907E+06         0.00000E+00
    0.57907E+06        -0.50626E+08         0.00000E+00
    0.00000E+00         0.00000E+00        -0.50741E-08
 
    0.19535E+06         0.59054E+06         0.00000E+00
    0.59054E+06        -0.50737E+08         0.00000E+00
    0.00000E+00         0.00000E+00        -0.71037E-07
 
    0.19802E+06         0.60213E+06         0.00000E+00
    0.60213E+06        -0.50849E+08         0.00000E+00
    0.00000E+00         0.00000E+00         0.10148E-07
 
    0.20066E+06         0.61382E+06         0.00000E+00
    0.61382E+06        -0.50964E+08         0.00000E+00
    0.00000E+00         0.00000E+00        -0.30444E-07
 
    0.20324E+06         0.62561E+06         0.00000E+00
    0.62561E+06        -0.51082E+08         0.00000E+00
    0.00000E+00         0.00000E+00        -0.15222E-07
 
    0.20574E+06         0.63752E+06         0.00000E+00
    0.63752E+06        -0.51201E+08         0.00000E+00
    0.00000E+00         0.00000E+00        -0.65963E-07
 
    0.20813E+06         0.64952E+06         0.00000E+00
    0.64952E+06        -0.51324E+08         0.00000E+00
    0.00000E+00         0.00000E+00         0.50741E-08
 
    0.21040E+06         0.66161E+06         0.00000E+00
    0.66161E+06        -0.51449E+08         0.00000E+00
    0.00000E+00         0.00000E+00         0.71037E-07
 
    0.21252E+06         0.67379E+06         0.00000E+00
    0.67379E+06        -0.51576E+08         0.00000E+00
    0.00000E+00         0.00000E+00         0.10148E-07
 
    0.21448E+06         0.68605E+06         0.00000E+00
    0.68605E+06        -0.51706E+08         0.00000E+00
    0.00000E+00         0.00000E+00         0.30444E-07
 
    0.21624E+06         0.69836E+06         0.00000E+00
    0.69836E+06        -0.51839E+08         0.00000E+00
    0.00000E+00         0.00000E+00        -0.25370E-07
 
    0.21778E+06         0.71073E+06         0.00000E+00
    0.71073E+06        -0.51975E+08         0.00000E+00
    0.00000E+00         0.00000E+00         0.10148E-07
 
    0.21909E+06         0.72313E+06         0.00000E+00
    0.72313E+06        -0.52113E+08         0.00000E+00
    0.00000E+00         0.00000E+00         0.50741E-08
 
    0.22014E+06         0.73555E+06         0.00000E+00
    0.73555E+06        -0.52255E+08         0.00000E+00
    0.00000E+00         0.00000E+00         0.15222E-07
 
    0.22090E+06         0.74797E+06         0.00000E+00
    0.74797E+06        -0.52399E+08         0.00000E+00
    0.00000E+00         0.00000E+00         0.15222E-07
 
    0.22135E+06         0.76037E+06         0.00000E+00
    0.76037E+06        -0.52546E+08         0.00000E+00
    0.00000E+00         0.00000E+00        -0.10148E-07
 
    0.22146E+06         0.77272E+06         0.00000E+00
    0.77272E+06        -0.52696E+08         0.00000E+00
    0.00000E+00         0.00000E+00        -0.20296E-07
 
    0.22119E+06         0.78501E+06         0.00000E+00
    0.78501E+06        -0.52849E+08         0.00000E+00
    0.00000E+00         0.00000E+00         0.00000E+00
 
    0.22052E+06         0.79720E+06         0.00000E+00
    0.79720E+06        -0.53004E+08         0.00000E+00
    0.00000E+00         0.00000E+00        -0.30444E-07
 
    0.21941E+06         0.80926E+06         0.00000E+00
    0.80926E+06        -0.53163E+08         0.00000E+00
    0.00000E+00         0.00000E+00         0.25370E-07
 
    0.21783E+06         0.82116E+06         0.00000E+00
    0.82116E+06        -0.53326E+08         0.00000E+00
    0.00000E+00         0.00000E+00        -0.25370E-07
 
    0.21572E+06         0.83287E+06         0.00000E+00
    0.83287E+06        -0.53491E+08         0.00000E+00
    0.00000E+00         0.00000E+00        -0.50741E-08
 
    0.21306E+06         0.84434E+06         0.00000E+00
    0.84434E+06        -0.53659E+08         0.00000E+00
    0.00000E+00         0.00000E+00         0.60889E-07
 
    0.20980E+06         0.85554E+06         0.00000E+00
    0.85554E+06        -0.53830E+08         0.00000E+00
    0.00000E+00         0.00000E+00         0.00000E+00
 
    0.20587E+06         0.86641E+06         0.00000E+00
    0.86641E+06        -0.54005E+08         0.00000E+00
    0.00000E+00         0.00000E+00         0.00000E+00
 
    0.20122E+06         0.87690E+06         0.00000E+00
    0.87690E+06        -0.54182E+08         0.00000E+00
    0.00000E+00         0.00000E+00         0.10148E-07
 
    0.19580E+06         0.88696E+06         0.00000E+00
    0.88696E+06        -0.54363E+08         0.00000E+00
    0.00000E+00         0.00000E+00         0.50741E-08
 
    0.18952E+06         0.89652E+06         0.00000E+00
    0.89652E+06        -0.54547E+08         0.00000E+00
    0.00000E+00         0.00000E+00        -0.30444E-07
 
    0.18232E+06         0.90551E+06         0.00000E+00
    0.90551E+06        -0.54735E+08         0.00000E+00
    0.00000E+00         0.00000E+00        -0.50741E-08
 
    0.17411E+06         0.91387E+06         0.00000E+00
    0.91387E+06        -0.54925E+08         0.00000E+00
    0.00000E+00         0.00000E+00        -0.30444E-07
 
    0.16480E+06         0.92149E+06         0.00000E+00
    0.92149E+06        -0.55119E+08         0.00000E+00
    0.00000E+00         0.00000E+00        -0.25370E-07
 
    0.15428E+06         0.92829E+06         0.00000E+00
    0.92829E+06        -0.55316E+08         0.00000E+00
    0.00000E+00         0.00000E+00        -0.50741E-08
 
    0.14244E+06         0.93416E+06         0.00000E+00
    0.93416E+06        -0.55516E+08         0.00000E+00
    0.00000E+00         0.00000E+00         0.35518E-07
 
    0.12916E+06         0.93899E+06         0.00000E+00
    0.93899E+06        -0.55719E+08         0.00000E+00
    0.00000E+00         0.00000E+00        -0.60889E-07
 
    0.11430E+06         0.94266E+06         0.00000E+00
    0.94266E+06        -0.55926E+08         0.00000E+00
    0.00000E+00         0.00000E+00         0.81185E-07
 
    0.97701E+05         0.94500E+06         0.00000E+00
    0.94500E+06        -0.56135E+08         0.00000E+00
    0.00000E+00         0.00000E+00         0.50741E-08
 
    0.79210E+05         0.94588E+06         0.00000E+00
    0.94588E+06        -0.56348E+08         0.00000E+00
    0.00000E+00         0.00000E+00        -0.10148E-07
 
    0.58641E+05         0.94510E+06         0.00000E+00
    0.94510E+06        -0.56565E+08         0.00000E+00
    0.00000E+00         0.00000E+00        -0.15222E-07
 
    0.35798E+05         0.94248E+06         0.00000E+00
    0.94248E+06        -0.56784E+08         0.00000E+00
    0.00000E+00         0.00000E+00         0.50741E-08
 
    0.10468E+05         0.93780E+06         0.00000E+00
    0.93780E+06        -0.57007E+08         0.00000E+00
    0.00000E+00         0.00000E+00         0.50741E-08
 
   -0.17578E+05         0.93081E+06         0.00000E+00
    0.93081E+06        -0.57233E+08         0.00000E+00
    0.00000E+00         0.00000E+00         0.20296E-07
 
   -0.48584E+05         0.92126E+06         0.00000E+00
    0.92126E+06        -0.57463E+08         0.00000E+00
    0.00000E+00         0.00000E+00         0.50741E-08
 
   -0.82810E+05         0.90886E+06         0.00000E+00
    0.90886E+06        -0.57696E+08         0.00000E+00
    0.00000E+00         0.00000E+00         0.00000E+00
 
   -0.12053E+06         0.89330E+06         0.00000E+00
    0.89330E+06        -0.57932E+08         0.00000E+00
    0.00000E+00         0.00000E+00        -0.50741E-08
 
   -0.16202E+06         0.87425E+06         0.00000E+00
    0.87425E+06        -0.58171E+08         0.00000E+00
    0.00000E+00         0.00000E+00        -0.40593E-07
 
   -0.20759E+06         0.85136E+06         0.00000E+00
    0.85136E+06        -0.58414E+08         0.00000E+00
    0.00000E+00         0.00000E+00        -0.30444E-07
 
   -0.25752E+06         0.82427E+06         0.00000E+00
    0.82427E+06        -0.58661E+08         0.00000E+00
    0.00000E+00         0.00000E+00        -0.10148E-07
 
   -0.31212E+06         0.79263E+06         0.00000E+00
    0.79263E+06        -0.58910E+08         0.00000E+00
    0.00000E+00         0.00000E+00         0.00000E+00
 
   -0.37167E+06         0.75610E+06         0.00000E+00
    0.75610E+06        -0.59163E+08         0.00000E+00
    0.00000E+00         0.00000E+00        -0.65963E-07
 
   -0.43648E+06         0.71437E+06         0.00000E+00
    0.71437E+06        -0.59418E+08         0.00000E+00
    0.00000E+00         0.00000E+00         0.00000E+00
 
   -0.50681E+06         0.66722E+06         0.00000E+00
    0.66722E+06        -0.59676E+08         0.00000E+00
    0.00000E+00         0.00000E+00         0.00000E+00
 
   -0.58294E+06         0.61453E+06         0.00000E+00
    0.61453E+06        -0.59935E+08         0.00000E+00
    0.00000E+00         0.00000E+00         0.00000E+00
 
   -0.66517E+06         0.55638E+06         0.00000E+00
    0.55638E+06        -0.60196E+08         0.00000E+00
    0.00000E+00         0.00000E+00         0.25370E-07
 
   -0.75377E+06         0.49310E+06         0.00000E+00
    0.49310E+06        -0.60456E+08         0.00000E+00
    0.00000E+00         0.00000E+00         0.86259E-07
 
   -0.84912E+06         0.42540E+06         0.00000E+00
    0.42540E+06        -0.60715E+08         0.00000E+00
    0.00000E+00         0.00000E+00        -0.15222E-07
 
   -0.95170E+06         0.35451E+06         0.00000E+00
    0.35451E+06        -0.60970E+08         0.00000E+00
    0.00000E+00         0.00000E+00        -0.30444E-07
 
   -0.10622E+07         0.28236E+06         0.00000E+00
    0.28236E+06        -0.61218E+08         0.00000E+00
    0.00000E+00         0.00000E+00         0.10148E-07
 
   -0.11818E+07         0.21174E+06         0.00000E+00
    0.21174E+06        -0.61454E+08         0.00000E+00
    0.00000E+00         0.00000E+00        -0.20296E-07
 
   -0.13123E+07         0.14635E+06         0.00000E+00
    0.14635E+06        -0.61674E+08         0.00000E+00
    0.00000E+00         0.00000E+00         0.50741E-07
 
   -0.14567E+07         0.90513E+05         0.00000E+00
    0.90513E+05        -0.61868E+08         0.00000E+00
    0.00000E+00         0.00000E+00        -0.20296E-07
 
   -0.16194E+07         0.48096E+05         0.00000E+00
    0.48096E+05        -0.62029E+08         0.00000E+00
    0.00000E+00         0.00000E+00         0.30444E-07
 
   -0.18057E+07         0.20616E+05         0.00000E+00
    0.20616E+05        -0.62145E+08         0.00000E+00
    0.00000E+00         0.00000E+00         0.50740E-08
 
   -0.20211E+07         0.52847E+04         0.00000E+00
    0.52847E+04        -0.62206E+08         0.00000E+00
    0.00000E+00         0.00000E+00         0.25370E-07
 
    0.63897E+06         0.31724E+04         0.00000E+00
    0.31724E+04        -0.47695E+08         0.00000E+00
    0.00000E+00         0.00000E+00        -0.15222E-07
 
    0.57991E+06         0.10898E+05         0.00000E+00
    0.10898E+05        -0.47713E+08         0.00000E+00
    0.00000E+00         0.00000E+00         0.15222E-07
 
    0.52947E+06         0.22234E+05         0.00000E+00
    0.22234E+05        -0.47745E+08         0.00000E+00
    0.00000E+00         0.00000E+00        -0.50741E-08
 
    0.48601E+06         0.38039E+05         0.00000E+00
    0.38039E+05        -0.47791E+08         0.00000E+00
    0.00000E+00         0.00000E+00        -0.10148E-06
 
    0.44795E+06         0.57872E+05         0.00000E+00
    0.57872E+05        -0.47845E+08         0.00000E+00
    0.00000E+00         0.00000E+00         0.10148E-07
 
    0.41412E+06         0.80600E+05         0.00000E+00
    0.80600E+05        -0.47907E+08         0.00000E+00
    0.00000E+00         0.00000E+00         0.30444E-07
 
    0.38372E+06         0.10498E+06         0.00000E+00
    0.10498E+06        -0.47973E+08         0.00000E+00
    0.00000E+00         0.00000E+00        -0.30444E-07
 
    0.35629E+06         0.12997E+06         0.00000E+00
    0.12997E+06        -0.48042E+08         0.00000E+00
    0.00000E+00         0.00000E+00        -0.45666E-07
 
    0.33150E+06         0.15479E+06         0.00000E+00
    0.15479E+06        -0.48114E+08         0.00000E+00
    0.00000E+00         0.00000E+00        -0.35518E-07
 
    0.30914E+06         0.17891E+06         0.00000E+00
    0.17891E+06        -0.48187E+08         0.00000E+00
    0.00000E+00         0.00000E+00        -0.60889E-07
 
    0.28905E+06         0.20202E+06         0.00000E+00
    0.20202E+06        -0.48262E+08         0.00000E+00
    0.00000E+00         0.00000E+00        -0.10148E-07
 
    0.27108E+06         0.22393E+06         0.00000E+00
    0.22393E+06        -0.48337E+08         0.00000E+00
    0.00000E+00         0.00000E+00         0.25370E-07
 
    0.25512E+06         0.24458E+06         0.00000E+00
    0.24458E+06        -0.48413E+08         0.00000E+00
    0.00000E+00         0.00000E+00         0.10148E-07
 
    0.24104E+06         0.26397E+06         0.00000E+00
    0.26397E+06        -0.48489E+08         0.00000E+00
    0.00000E+00         0.00000E+00         0.30444E-07
 
    0.22871E+06         0.28213E+06         0.00000E+00
    0.28213E+06        -0.48566E+08         0.00000E+00
    0.00000E+00         0.00000E+00         0.10148E-07
 
    0.21803E+06         0.29916E+06         0.00000E+00
    0.29916E+06        -0.48643E+08         0.00000E+00
    0.00000E+00         0.00000E+00        -0.15222E-07
 
    0.20886E+06         0.31515E+06         0.00000E+00
    0.31515E+06        -0.48721E+08         0.00000E+00
    0.00000E+00         0.00000E+00        -0.35518E-07
 
    0.20110E+06         0.33019E+06         0.00000E+00
    0.33019E+06        -0.48800E+08         0.00000E+00
    0.00000E+00         0.00000E+00        -0.15222E-07
 
    0.19462E+06         0.34441E+06         0.00000E+00
    0.34441E+06        -0.48879E+08         0.00000E+00
    0.00000E+00         0.00000E+00         0.00000E+00
 
    0.18932E+06         0.35789E+06         0.00000E+00
    0.35789E+06        -0.48959E+08         0.00000E+00
    0.00000E+00         0.00000E+00        -0.50741E-07
 
    0.18509E+06         0.37076E+06         0.00000E+00
    0.37076E+06        -0.49040E+08         0.00000E+00
    0.00000E+00         0.00000E+00         0.55815E-07
 
    0.18183E+06         0.38309E+06         0.00000E+00
    0.38309E+06        -0.49122E+08         0.00000E+00
    0.00000E+00         0.00000E+00         0.40593E-07
 
    0.17943E+06         0.39497E+06         0.00000E+00
    0.39497E+06        -0.49204E+08         0.00000E+00
    0.00000E+00         0.00000E+00        -0.25370E-07
 
    0.17781E+06         0.40649E+06         0.00000E+00
    0.40649E+06        -0.49288E+08         0.00000E+00
    0.00000E+00         0.00000E+00        -0.35518E-07
 
    0.17689E+06         0.41771E+06         0.00000E+00
    0.41771E+06        -0.49374E+08         0.00000E+00
    0.00000E+00         0.00000E+00         0.10148E-07
 
    0.17658E+06         0.42869E+06         0.00000E+00
    0.42869E+06        -0.49460E+08         0.00000E+00
    0.00000E+00         0.00000E+00         0.10148E-07
 
    0.17682E+06         0.43950E+06         0.00000E+00
    0.43950E+06        -0.49548E+08         0.00000E+00
    0.00000E+00         0.00000E+00         0.45667E-07
 
    0.17752E+06         0.45017E+06         0.00000E+00
    0.45017E+06        -0.49637E+08         0.00000E+00
    0.00000E+00         0.00000E+00         0.25370E-07
 
    0.17864E+06         0.46076E+06         0.00000E+00
    0.46076E+06        -0.49728E+08         0.00000E+00
    0.00000E+00         0.00000E+00         0.50741E-08
 
    0.18012E+06         0.47129E+06         0.00000E+00
    0.47129E+06        -0.49821E+08         0.00000E+00
    0.00000E+00         0.00000E+00         0.50741E-08
 
    0.18190E+06         0.48180E+06         0.00000E+00
    0.48180E+06        -0.49915E+08         0.00000E+00
    0.00000E+00         0.00000E+00        -0.20296E-07
 
    0.18394E+06         0.49232E+06         0.00000E+00
    0.49232E+06        -0.50011E+08         0.00000E+00
    0.00000E+00         0.00000E+00        -0.20296E-07
 
    0.18619E+06         0.50287E+06         0.00000E+00
    0.50287E+06        -0.50109E+08         0.00000E+00
    0.00000E+00         0.00000E+00         0.50741E-08
 
    0.18862E+06         0.51347E+06         0.00000E+00
    0.51347E+06        -0.50209E+08         0.00000E+00
    0.00000E+00         0.00000E+00        -0.35518E-07
 
    0.19118E+06         0.52414E+06         0.00000E+00
    0.52414E+06        -0.50311E+08         0.00000E+00
    0.00000E+00         0.00000E+00         0.25370E-07
 
    0.19384E+06         0.53488E+06         0.00000E+00
    0.53488E+06        -0.50414E+08         0.00000E+00
    0.00000E+00         0.00000E+00         0.40593E-07
 
    0.19658E+06         0.54571E+06         0.00000E+00
    0.54571E+06        -0.50520E+08         0.00000E+00
    0.00000E+00         0.00000E+00         0.45666E-07
 
    0.19936E+06         0.55663E+06         0.00000E+00
    0.55663E+06        -0.50629E+08         0.00000E+00
    0.00000E+00         0.00000E+00        -0.50741E-08
 
    0.20215E+06         0.56765E+06         0.00000E+00
    0.56765E+06        -0.50739E+08         0.00000E+00
    0.00000E+00         0.00000E+00        -0.71037E-07
 
    0.20493E+06         0.57877E+06         0.00000E+00
    0.57877E+06        -0.50852E+08         0.00000E+00
    0.00000E+00         0.00000E+00         0.00000E+00
 
    0.20767E+06         0.59000E+06         0.00000E+00
    0.59000E+06        -0.50967E+08         0.00000E+00
    0.00000E+00         0.00000E+00        -0.30444E-07
 
    0.21035E+06         0.60133E+06         0.00000E+00
    0.60133E+06        -0.51084E+08         0.00000E+00
    0.00000E+00         0.00000E+00        -0.60889E-07
 
    0.21295E+06         0.61276E+06         0.00000E+00
    0.61276E+06        -0.51204E+08         0.00000E+00
    0.00000E+00         0.00000E+00         0.00000E+00
 
    0.21544E+06         0.62428E+06         0.00000E+00
    0.62428E+06        -0.51326E+08         0.00000E+00
    0.00000E+00         0.00000E+00         0.65962E-07
 
    0.21780E+06         0.63589E+06         0.00000E+00
    0.63589E+06        -0.51451E+08         0.00000E+00
    0.00000E+00         0.00000E+00        -0.10148E-07
 
    0.22000E+06         0.64758E+06         0.00000E+00
    0.64758E+06        -0.51579E+08         0.00000E+00
    0.00000E+00         0.00000E+00        -0.25370E-07
 
    0.22203E+06         0.65934E+06         0.00000E+00
    0.65934E+06        -0.51709E+08         0.00000E+00
    0.00000E+00         0.00000E+00         0.00000E+00
 
    0.22387E+06         0.67116E+06         0.00000E+00
    0.67116E+06        -0.51842E+08         0.00000E+00
    0.00000E+00         0.00000E+00         0.50741E-08
 
    0.22548E+06         0.68302E+06         0.00000E+00
    0.68302E+06        -0.51977E+08         0.00000E+00
    0.00000E+00         0.00000E+00        -0.50741E-08
 
    0.22685E+06         0.69492E+06         0.00000E+00
    0.69492E+06        -0.52116E+08         0.00000E+00
    0.00000E+00         0.00000E+00         0.25370E-07
 
    0.22794E+06         0.70684E+06         0.00000E+00
    0.70684E+06        -0.52257E+08         0.00000E+00
    0.00000E+00         0.00000E+00         0.35518E-07
 
    0.22874E+06         0.71875E+06         0.00000E+00
    0.71875E+06        -0.52401E+08         0.00000E+00
    0.00000E+00         0.00000E+00        -0.50741E-08
 
    0.22922E+06         0.73064E+06         0.00000E+00
    0.73064E+06        -0.52548E+08         0.00000E+00
    0.00000E+00         0.00000E+00        -0.10148E-07
 
    0.22934E+06         0.74249E+06         0.00000E+00
    0.74249E+06        -0.52698E+08         0.00000E+00
    0.00000E+00         0.00000E+00        -0.25370E-07
 
    0.22908E+06         0.75427E+06         0.00000E+00
    0.75427E+06        -0.52851E+08         0.00000E+00
    0.00000E+00         0.00000E+00         0.10148E-07
 
    0.22840E+06         0.76595E+06         0.00000E+00
    0.76595E+06        -0.53007E+08         0.00000E+00
    0.00000E+00         0.00000E+00        -0.15222E-07
 
    0.22727E+06         0.77752E+06         0.00000E+00
    0.77752E+06        -0.53166E+08         0.00000E+00
    0.00000E+00         0.00000E+00        -0.35518E-07
 
    0.22565E+06         0.78892E+06         0.00000E+00
    0.78892E+06        -0.53328E+08         0.00000E+00
    0.00000E+00         0.00000E+00         0.00000E+00
 
    0.22350E+06         0.80014E+06         0.00000E+00
    0.80014E+06        -0.53493E+08         0.00000E+00
    0.00000E+00         0.00000E+00         0.10148E-07
 
    0.22077E+06         0.81113E+06         0.00000E+00
    0.81113E+06        -0.53661E+08         0.00000E+00
    0.00000E+00         0.00000E+00         0.20295E-07
 
    0.21742E+06         0.82185E+06         0.00000E+00
    0.82185E+06        -0.53832E+08         0.00000E+00
    0.00000E+00         0.00000E+00        -0.50741E-08
 
    0.21338E+06         0.83226E+06         0.00000E+00
    0.83226E+06        -0.54007E+08         0.00000E+00
    0.00000E+00         0.00000E+00        -0.45667E-07
 
    0.20860E+06         0.84230E+06         0.00000E+00
    0.84230E+06        -0.54184E+08         0.00000E+00
    0.00000E+00         0.00000E+00         0.55815E-07
 
    0.20302E+06         0.85192E+06         0.00000E+00
    0.85192E+06        -0.54365E+08         0.00000E+00
    0.00000E+00         0.00000E+00        -0.65963E-07
 
    0.19657E+06         0.86106E+06         0.00000E+00
    0.86106E+06        -0.54549E+08         0.00000E+00
    0.00000E+00         0.00000E+00         0.50741E-08
 
    0.18916E+06         0.86965E+06         0.00000E+00
    0.86965E+06        -0.54736E+08         0.00000E+00
    0.00000E+00         0.00000E+00        -0.30444E-07
 
    0.18071E+06         0.87762E+06         0.00000E+00
    0.87762E+06        -0.54927E+08         0.00000E+00
    0.00000E+00         0.00000E+00        -0.30444E-07
 
    0.17112E+06         0.88488E+06         0.00000E+00
    0.88488E+06        -0.55120E+08         0.00000E+00
    0.00000E+00         0.00000E+00        -0.15222E-07
 
    0.16030E+06         0.89135E+06         0.00000E+00
    0.89135E+06        -0.55317E+08         0.00000E+00
    0.00000E+00         0.00000E+00         0.65963E-07
 
    0.14811E+06         0.89692E+06         0.00000E+00
    0.89692E+06        -0.55517E+08         0.00000E+00
    0.00000E+00         0.00000E+00         0.10148E-07
 
    0.13443E+06         0.90149E+06         0.00000E+00
    0.90149E+06        -0.55720E+08         0.00000E+00
    0.00000E+00         0.00000E+00        -0.50741E-08
 
    0.11913E+06         0.90491E+06         0.00000E+00
    0.90491E+06        -0.55926E+08         0.00000E+00
    0.00000E+00         0.00000E+00         0.00000E+00
 
    0.10204E+06         0.90707E+06         0.00000E+00
    0.90707E+06        -0.56136E+08         0.00000E+00
    0.00000E+00         0.00000E+00        -0.30444E-07
 
    0.82987E+05         0.90780E+06         0.00000E+00
    0.90780E+06        -0.56348E+08         0.00000E+00
    0.00000E+00         0.00000E+00        -0.30444E-07
 
    0.61791E+05         0.90693E+06         0.00000E+00
    0.90693E+06        -0.56564E+08         0.00000E+00
    0.00000E+00         0.00000E+00         0.60889E-07
 
    0.38244E+05         0.90426E+06         0.00000E+00
    0.90426E+06        -0.56784E+08         0.00000E+00
    0.00000E+00         0.00000E+00        -0.50741E-08
 
    0.12124E+05         0.89959E+06         0.00000E+00
    0.89959E+06        -0.57006E+08         0.00000E+00
    0.00000E+00         0.00000E+00        -0.91332E-07
 
   -0.16811E+05         0.89268E+06         0.00000E+00
    0.89268E+06        -0.57232E+08         0.00000E+00
    0.00000E+00         0.00000E+00        -0.86259E-07
 
   -0.48817E+05         0.88328E+06         0.00000E+00
    0.88328E+06        -0.57461E+08         0.00000E+00
    0.00000E+00         0.00000E+00        -0.10148E-07
 
   -0.84170E+05         0.87109E+06         0.00000E+00
    0.87109E+06        -0.57693E+08         0.00000E+00
    0.00000E+00         0.00000E+00        -0.10148E-07
 
   -0.12316E+06         0.85582E+06         0.00000E+00
    0.85582E+06        -0.57928E+08         0.00000E+00
    0.00000E+00         0.00000E+00         0.71037E-07
 
   -0.16609E+06         0.83714E+06         0.00000E+00
    0.83714E+06        -0.58167E+08         0.00000E+00
    0.00000E+00         0.00000E+00         0.81185E-07
 
   -0.21328E+06         0.81469E+06         0.00000E+00
    0.81469E+06        -0.58409E+08         0.00000E+00
    0.00000E+00         0.00000E+00        -0.15222E-07
 
   -0.26505E+06         0.78814E+06         0.00000E+00
    0.78814E+06        -0.58655E+08         0.00000E+00
    0.00000E+00         0.00000E+00         0.00000E+00
 
   -0.32172E+06         0.75711E+06         0.00000E+00
    0.75711E+06        -0.58903E+08         0.00000E+00
    0.00000E+00         0.00000E+00         0.50741E-08
 
   -0.38363E+06         0.72128E+06         0.00000E+00
    0.72128E+06        -0.59155E+08         0.00000E+00
    0.00000E+00         0.00000E+00         0.10148E-07
 
   -0.45108E+06         0.68033E+06         0.00000E+00
    0.68033E+06        -0.59409E+08         0.00000E+00
    0.00000E+00         0.00000E+00         0.76111E-07
 
   -0.52440E+06         0.63404E+06         0.00000E+00
    0.63404E+06        -0.59666E+08         0.00000E+00
    0.00000E+00         0.00000E+00         0.25370E-07
 
   -0.60388E+06         0.58230E+06         0.00000E+00
    0.58230E+06        -0.59924E+08         0.00000E+00
    0.00000E+00         0.00000E+00         0.20296E-07
 
   -0.68983E+06         0.52517E+06         0.00000E+00
    0.52517E+06        -0.60184E+08         0.00000E+00
    0.00000E+00         0.00000E+00        -0.10148E-07
 
   -0.78255E+06         0.46301E+06         0.00000E+00
    0.46301E+06        -0.60443E+08         0.00000E+00
    0.00000E+00         0.00000E+00        -0.35518E-07
 
   -0.88237E+06         0.39653E+06         0.00000E+00
    0.39653E+06        -0.60701E+08         0.00000E+00
    0.00000E+00         0.00000E+00         0.10148E-07
 
   -0.98971E+06         0.32700E+06         0.00000E+00
    0.32700E+06        -0.60956E+08         0.00000E+00
    0.00000E+00         0.00000E+00        -0.15222E-07
 
   -0.11052E+07         0.25639E+06         0.00000E+00
    0.25639E+06        -0.61204E+08         0.00000E+00
    0.00000E+00         0.00000E+00         0.50741E-08
 
   -0.12296E+07         0.18759E+06         0.00000E+00
    0.18759E+06        -0.61441E+08         0.00000E+00
    0.00000E+00         0.00000E+00        -0.45667E-07
 
   -0.13647E+07         0.12449E+06         0.00000E+00
    0.12449E+06        -0.61662E+08         0.00000E+00
    0.00000E+00         0.00000E+00         0.20296E-07
 
   -0.15128E+07         0.71655E+05         0.00000E+00
    0.71655E+05        -0.61859E+08         0.00000E+00
    0.00000E+00         0.00000E+00        -0.15222E-07
 
   -0.16781E+07         0.33258E+05         0.00000E+00
    0.33258E+05        -0.62023E+08         0.00000E+00
    0.00000E+00         0.00000E+00        -0.10148E-07
 
   -0.18660E+07         0.11006E+05         0.00000E+00
    0.11006E+05        -0.62141E+08         0.00000E+00
    0.00000E+00         0.00000E+00         0.50741E-08
 
   -0.20820E+07         0.19416E+04         0.00000E+00
    0.19416E+04        -0.62204E+08         0.00000E+00
    0.00000E+00         0.00000E+00         0.81185E-07
 
    0.65774E+06         0.21898E+04         0.00000E+00
    0.21898E+04        -0.47696E+08         0.00000E+00
    0.00000E+00         0.00000E+00         0.55815E-07
 
    0.59852E+06         0.80763E+04         0.00000E+00
    0.80763E+04        -0.47714E+08         0.00000E+00
    0.00000E+00         0.00000E+00        -0.40593E-07
 
    0.54770E+06         0.17878E+05         0.00000E+00
    0.17878E+05        -0.47748E+08         0.00000E+00
    0.00000E+00         0.00000E+00        -0.40592E-07
 
    0.50357E+06         0.32485E+05         0.00000E+00
    0.32485E+05        -0.47794E+08         0.00000E+00
    0.00000E+00         0.00000E+00         0.25370E-07
 
    0.46456E+06         0.51383E+05         0.00000E+00
    0.51383E+05        -0.47850E+08         0.00000E+00
    0.00000E+00         0.00000E+00         0.40593E-07
 
    0.42958E+06         0.73345E+05         0.00000E+00
    0.73345E+05        -0.47912E+08         0.00000E+00
    0.00000E+00         0.00000E+00         0.10148E-07
 
    0.39795E+06         0.97056E+05         0.00000E+00
    0.97056E+05        -0.47978E+08         0.00000E+00
    0.00000E+00         0.00000E+00         0.35518E-07
 
    0.36929E+06         0.12142E+06         0.00000E+00
    0.12142E+06        -0.48047E+08         0.00000E+00
    0.00000E+00         0.00000E+00         0.50740E-07
 
    0.34334E+06         0.14565E+06         0.00000E+00
    0.14565E+06        -0.48119E+08         0.00000E+00
    0.00000E+00         0.00000E+00         0.35518E-07
 
    0.31992E+06         0.16921E+06         0.00000E+00
    0.16921E+06        -0.48192E+08         0.00000E+00
    0.00000E+00         0.00000E+00        -0.10148E-07
 
    0.29888E+06         0.19177E+06         0.00000E+00
    0.19177E+06        -0.48266E+08         0.00000E+00
    0.00000E+00         0.00000E+00         0.50741E-08
 
    0.28010E+06         0.21314E+06         0.00000E+00
    0.21314E+06        -0.48341E+08         0.00000E+00
    0.00000E+00         0.00000E+00        -0.40593E-07
 
    0.26342E+06         0.23326E+06         0.00000E+00
    0.23326E+06        -0.48417E+08         0.00000E+00
    0.00000E+00         0.00000E+00         0.30444E-07
 
    0.24874E+06         0.25212E+06         0.00000E+00
    0.25212E+06        -0.48493E+08         0.00000E+00
    0.00000E+00         0.00000E+00         0.35518E-07
 
    0.23591E+06         0.26978E+06         0.00000E+00
    0.26978E+06        -0.48570E+08         0.00000E+00
    0.00000E+00         0.00000E+00         0.55815E-07
 
    0.22481E+06         0.28631E+06         0.00000E+00
    0.28631E+06        -0.48647E+08         0.00000E+00
    0.00000E+00         0.00000E+00         0.00000E+00
 
    0.21530E+06         0.30181E+06         0.00000E+00
    0.30181E+06        -0.48724E+08         0.00000E+00
    0.00000E+00         0.00000E+00         0.10148E-07
 
    0.20727E+06         0.31638E+06         0.00000E+00
    0.31638E+06        -0.48803E+08         0.00000E+00
    0.00000E+00         0.00000E+00        -0.55815E-07
 
    0.20058E+06         0.33013E+06         0.00000E+00
    0.33013E+06        -0.48882E+08         0.00000E+00
    0.00000E+00         0.00000E+00        -0.76111E-07
 
    0.19513E+06         0.34316E+06         0.00000E+00
    0.34316E+06        -0.48962E+08         0.00000E+00
    0.00000E+00         0.00000E+00         0.35518E-07
 
    0.19078E+06         0.35557E+06         0.00000E+00
    0.35557E+06        -0.49042E+08         0.00000E+00
    0.00000E+00         0.00000E+00        -0.40593E-07
 
    0.18744E+06         0.36747E+06         0.00000E+00
    0.36747E+06        -0.49124E+08         0.00000E+00
    0.00000E+00         0.00000E+00         0.10148E-07
 
    0.18500E+06         0.37892E+06         0.00000E+00
    0.37892E+06        -0.49207E+08         0.00000E+00
    0.00000E+00         0.00000E+00        -0.10148E-07
 
    0.18336E+06         0.39001E+06         0.00000E+00
    0.39001E+06        -0.49291E+08         0.00000E+00
    0.00000E+00         0.00000E+00         0.25370E-07
 
    0.18244E+06         0.40080E+06         0.00000E+00
    0.40080E+06        -0.49376E+08         0.00000E+00
    0.00000E+00         0.00000E+00         0.50741E-08
 
    0.18216E+06         0.41137E+06         0.00000E+00
    0.41137E+06        -0.49462E+08         0.00000E+00
    0.00000E+00         0.00000E+00         0.50741E-07
 
    0.18243E+06         0.42175E+06         0.00000E+00
    0.42175E+06        -0.49550E+08         0.00000E+00
    0.00000E+00         0.00000E+00         0.00000E+00
 
    0.18319E+06         0.43201E+06         0.00000E+00
    0.43201E+06        -0.49639E+08         0.00000E+00
    0.00000E+00         0.00000E+00         0.00000E+00
 
    0.18438E+06         0.44218E+06         0.00000E+00
    0.44218E+06        -0.49730E+08         0.00000E+00
    0.00000E+00         0.00000E+00         0.35518E-07
 
    0.18593E+06         0.45229E+06         0.00000E+00
    0.45229E+06        -0.49823E+08         0.00000E+00
    0.00000E+00         0.00000E+00         0.25370E-07
 
    0.18780E+06         0.46239E+06         0.00000E+00
    0.46239E+06        -0.49917E+08         0.00000E+00
    0.00000E+00         0.00000E+00        -0.25370E-07
 
    0.18993E+06         0.47248E+06         0.00000E+00
    0.47248E+06        -0.50013E+08         0.00000E+00
    0.00000E+00         0.00000E+00        -0.20296E-07
 
    0.19228E+06         0.48261E+06         0.00000E+00
    0.48261E+06        -0.50111E+08         0.00000E+00
    0.00000E+00         0.00000E+00         0.20296E-07
 
    0.19480E+06         0.49278E+06         0.00000E+00
    0.49278E+06        -0.50211E+08         0.00000E+00
    0.00000E+00         0.00000E+00         0.50741E-07
 
    0.19747E+06         0.50301E+06         0.00000E+00
    0.50301E+06        -0.50313E+08         0.00000E+00
    0.00000E+00         0.00000E+00        -0.10148E-07
 
    0.20024E+06         0.51331E+06         0.00000E+00
    0.51331E+06        -0.50417E+08         0.00000E+00
    0.00000E+00         0.00000E+00        -0.40593E-07
 
    0.20308E+06         0.52369E+06         0.00000E+00
    0.52369E+06        -0.50523E+08         0.00000E+00
    0.00000E+00         0.00000E+00         0.40593E-07
 
    0.20597E+06         0.53417E+06         0.00000E+00
    0.53417E+06        -0.50631E+08         0.00000E+00
    0.00000E+00         0.00000E+00        -0.60889E-07
 
    0.20887E+06         0.54474E+06         0.00000E+00
    0.54474E+06        -0.50741E+08         0.00000E+00
    0.00000E+00         0.00000E+00        -0.60888E-07
 
    0.21175E+06         0.55540E+06         0.00000E+00
    0.55540E+06        -0.50854E+08         0.00000E+00
    0.00000E+00         0.00000E+00         0.30444E-07
 
    0.21460E+06         0.56616E+06         0.00000E+00
    0.56616E+06        -0.50969E+08         0.00000E+00
    0.00000E+00         0.00000E+00         0.20296E-07
 
    0.21738E+06         0.57702E+06         0.00000E+00
    0.57702E+06        -0.51086E+08         0.00000E+00
    0.00000E+00         0.00000E+00        -0.40593E-07
 
    0.22007E+06         0.58798E+06         0.00000E+00
    0.58798E+06        -0.51206E+08         0.00000E+00
    0.00000E+00         0.00000E+00         0.50741E-08
 
    0.22265E+06         0.59902E+06         0.00000E+00
    0.59902E+06        -0.51328E+08         0.00000E+00
    0.00000E+00         0.00000E+00         0.15222E-07
 
    0.22510E+06         0.61014E+06         0.00000E+00
    0.61014E+06        -0.51453E+08         0.00000E+00
    0.00000E+00         0.00000E+00        -0.25370E-07
 
    0.22739E+06         0.62134E+06         0.00000E+00
    0.62134E+06        -0.51581E+08         0.00000E+00
    0.00000E+00         0.00000E+00         0.00000E+00
 
    0.22950E+06         0.63261E+06         0.00000E+00
    0.63261E+06        -0.51711E+08         0.00000E+00
    0.00000E+00         0.00000E+00         0.40593E-07
 
    0.23141E+06         0.64394E+06         0.00000E+00
    0.64394E+06        -0.51844E+08         0.00000E+00
    0.00000E+00         0.00000E+00        -0.10148E-07
 
    0.23309E+06         0.65530E+06         0.00000E+00
    0.65530E+06        -0.51980E+08         0.00000E+00
    0.00000E+00         0.00000E+00         0.00000E+00
 
    0.23451E+06         0.66670E+06         0.00000E+00
    0.66670E+06        -0.52118E+08         0.00000E+00
    0.00000E+00         0.00000E+00         0.50741E-08
 
    0.23565E+06         0.67811E+06         0.00000E+00
    0.67811E+06        -0.52259E+08         0.00000E+00
    0.00000E+00         0.00000E+00        -0.15222E-07
 
    0.23649E+06         0.68952E+06         0.00000E+00
    0.68952E+06        -0.52403E+08         0.00000E+00
    0.00000E+00         0.00000E+00         0.00000E+00
 
    0.23700E+06         0.70091E+06         0.00000E+00
    0.70091E+06        -0.52550E+08         0.00000E+00
    0.00000E+00         0.00000E+00         0.00000E+00
 
    0.23714E+06         0.71225E+06         0.00000E+00
    0.71225E+06        -0.52700E+08         0.00000E+00
    0.00000E+00         0.00000E+00         0.30444E-07
 
    0.23689E+06         0.72353E+06         0.00000E+00
    0.72353E+06        -0.52853E+08         0.00000E+00
    0.00000E+00         0.00000E+00         0.50741E-08
 
    0.23621E+06         0.73471E+06         0.00000E+00
    0.73471E+06        -0.53009E+08         0.00000E+00
    0.00000E+00         0.00000E+00         0.35518E-07
 
    0.23506E+06         0.74578E+06         0.00000E+00
    0.74578E+06        -0.53168E+08         0.00000E+00
    0.00000E+00         0.00000E+00         0.10148E-07
 
    0.23341E+06         0.75669E+06         0.00000E+00
    0.75669E+06        -0.53330E+08         0.00000E+00
    0.00000E+00         0.00000E+00        -0.50741E-07
 
    0.23121E+06         0.76743E+06         0.00000E+00
    0.76743E+06        -0.53495E+08         0.00000E+00
    0.00000E+00         0.00000E+00        -0.50741E-07
 
    0.22841E+06         0.77794E+06         0.00000E+00
    0.77794E+06        -0.53663E+08         0.00000E+00
    0.00000E+00         0.00000E+00        -0.10148E-07
 
    0.22497E+06         0.78819E+06         0.00000E+00
    0.78819E+06        -0.53834E+08         0.00000E+00
    0.00000E+00         0.00000E+00        -0.76111E-07
 
    0.22083E+06         0.79813E+06         0.00000E+00
    0.79813E+06        -0.54009E+08         0.00000E+00
    0.00000E+00         0.00000E+00        -0.10148E-07
 
    0.21593E+06         0.80773E+06         0.00000E+00
    0.80773E+06        -0.54186E+08         0.00000E+00
    0.00000E+00         0.00000E+00         0.25370E-07
 
    0.21021E+06         0.81691E+06         0.00000E+00
    0.81691E+06        -0.54367E+08         0.00000E+00
    0.00000E+00         0.00000E+00         0.25370E-07
 
    0.20358E+06         0.82563E+06         0.00000E+00
    0.82563E+06        -0.54551E+08         0.00000E+00
    0.00000E+00         0.00000E+00         0.50741E-08
 
    0.19597E+06         0.83383E+06         0.00000E+00
    0.83383E+06        -0.54738E+08         0.00000E+00
    0.00000E+00         0.00000E+00         0.30444E-07
 
    0.18729E+06         0.84142E+06         0.00000E+00
    0.84142E+06        -0.54928E+08         0.00000E+00
    0.00000E+00         0.00000E+00         0.20296E-07
 
    0.17744E+06         0.84833E+06         0.00000E+00
    0.84833E+06        -0.55121E+08         0.00000E+00
    0.00000E+00         0.00000E+00         0.55815E-07
 
    0.16632E+06         0.85448E+06         0.00000E+00
    0.85448E+06        -0.55318E+08         0.00000E+00
    0.00000E+00         0.00000E+00        -0.55815E-07
 
    0.15379E+06         0.85976E+06         0.00000E+00
    0.85976E+06        -0.55518E+08         0.00000E+00
    0.00000E+00         0.00000E+00         0.45667E-07
 
    0.13974E+06         0.86406E+06         0.00000E+00
    0.86406E+06        -0.55720E+08         0.00000E+00
    0.00000E+00         0.00000E+00        -0.10148E-07
 
    0.12401E+06         0.86727E+06         0.00000E+00
    0.86727E+06        -0.55927E+08         0.00000E+00
    0.00000E+00         0.00000E+00        -0.15222E-07
 
    0.10644E+06         0.86924E+06         0.00000E+00
    0.86924E+06        -0.56136E+08         0.00000E+00
    0.00000E+00         0.00000E+00         0.35518E-07
 
    0.86847E+05         0.86984E+06         0.00000E+00
    0.86984E+06        -0.56348E+08         0.00000E+00
    0.00000E+00         0.00000E+00         0.15222E-07
 
    0.65046E+05         0.86888E+06         0.00000E+00
    0.86888E+06        -0.56564E+08         0.00000E+00
    0.00000E+00         0.00000E+00         0.45667E-07
 
    0.40818E+05         0.86619E+06         0.00000E+00
    0.86619E+06        -0.56783E+08         0.00000E+00
    0.00000E+00         0.00000E+00         0.50741E-08
 
    0.13932E+05         0.86155E+06         0.00000E+00
    0.86155E+06        -0.57005E+08         0.00000E+00
    0.00000E+00         0.00000E+00         0.55815E-07
 
   -0.15865E+05         0.85474E+06         0.00000E+00
    0.85474E+06        -0.57230E+08         0.00000E+00
    0.00000E+00         0.00000E+00        -0.40593E-07
 
   -0.48843E+05         0.84550E+06         0.00000E+00
    0.84550E+06        -0.57458E+08         0.00000E+00
    0.00000E+00         0.00000E+00         0.00000E+00
 
   -0.85293E+05         0.83356E+06         0.00000E+00
    0.83356E+06        -0.57690E+08         0.00000E+00
    0.00000E+00         0.00000E+00        -0.15222E-07
 
   -0.12552E+06         0.81861E+06         0.00000E+00
    0.81861E+06        -0.57925E+08         0.00000E+00
    0.00000E+00         0.00000E+00        -0.50741E-07
 
   -0.16986E+06         0.80032E+06         0.00000E+00
    0.80032E+06        -0.58163E+08         0.00000E+00
    0.00000E+00         0.00000E+00         0.20296E-07
 
   -0.21864E+06         0.77837E+06         0.00000E+00
    0.77837E+06        -0.58405E+08         0.00000E+00
    0.00000E+00         0.00000E+00        -0.45667E-07
 
   -0.27221E+06         0.75239E+06         0.00000E+00
    0.75239E+06        -0.58649E+08         0.00000E+00
    0.00000E+00         0.00000E+00        -0.15222E-07
 
   -0.33094E+06         0.72203E+06         0.00000E+00
    0.72203E+06        -0.58897E+08         0.00000E+00
    0.00000E+00         0.00000E+00        -0.30444E-07
 
   -0.39516E+06         0.68695E+06         0.00000E+00
    0.68695E+06        -0.59147E+08         0.00000E+00
    0.00000E+00         0.00000E+00         0.00000E+00
 
   -0.46525E+06         0.64684E+06         0.00000E+00
    0.64684E+06        -0.59400E+08         0.00000E+00
    0.00000E+00         0.00000E+00        -0.50741E-08
 
   -0.54154E+06         0.60149E+06         0.00000E+00
    0.60149E+06        -0.59656E+08         0.00000E+00
    0.00000E+00         0.00000E+00        -0.25370E-07
 
   -0.62437E+06         0.55077E+06         0.00000E+00
    0.55077E+06        -0.59913E+08         0.00000E+00
    0.00000E+00         0.00000E+00        -0.50741E-07
 
   -0.71405E+06         0.49475E+06         0.00000E+00
    0.49475E+06        -0.60172E+08         0.00000E+00
    0.00000E+00         0.00000E+00        -0.30444E-07
 
   -0.81090E+06         0.43379E+06         0.00000E+00
    0.43379E+06        -0.60431E+08         0.00000E+00
    0.00000E+00         0.00000E+00         0.20296E-07
 
   -0.91524E+06         0.36860E+06         0.00000E+00
    0.36860E+06        -0.60688E+08         0.00000E+00
    0.00000E+00         0.00000E+00         0.20296E-07
 
   -0.10274E+07         0.30047E+06         0.00000E+00
    0.30047E+06        -0.60942E+08         0.00000E+00
    0.00000E+00         0.00000E+00        -0.25370E-07
 
   -0.11479E+07         0.23142E+06         0.00000E+00
    0.23142E+06        -0.61190E+08         0.00000E+00
    0.00000E+00         0.00000E+00        -0.20296E-07
 
   -0.12773E+07         0.16441E+06         0.00000E+00
    0.16441E+06        -0.61428E+08         0.00000E+00
    0.00000E+00         0.00000E+00        -0.20296E-07
 
   -0.14169E+07         0.10348E+06         0.00000E+00
    0.10348E+06        -0.61650E+08         0.00000E+00
    0.00000E+00         0.00000E+00         0.25370E-07
 
   -0.15689E+07         0.53446E+05         0.00000E+00
    0.53446E+05        -0.61850E+08         0.00000E+00
    0.00000E+00         0.00000E+00        -0.25370E-07
 
   -0.17369E+07         0.18832E+05         0.00000E+00
    0.18832E+05        -0.62017E+08         0.00000E+00
    0.00000E+00         0.00000E+00        -0.65962E-07
 
   -0.19262E+07         0.15926E+04         0.00000E+00
    0.15926E+04        -0.62139E+08         0.00000E+00
    0.00000E+00         0.00000E+00         0.15222E-07
 
   -0.21429E+07        -0.13489E+04         0.00000E+00
   -0.13489E+04        -0.62204E+08         0.00000E+00
    0.00000E+00         0.00000E+00         0.76111E-07
 
    0.67647E+06         0.12177E+04         0.00000E+00
    0.12177E+04        -0.47697E+08         0.00000E+00
    0.00000E+00         0.00000E+00        -0.10148E-07
 
    0.61710E+06         0.52983E+04         0.00000E+00
    0.52983E+04        -0.47716E+08         0.00000E+00
    0.00000E+00         0.00000E+00        -0.20296E-07
 
    0.56591E+06         0.13622E+05         0.00000E+00
    0.13622E+05        -0.47750E+08         0.00000E+00
    0.00000E+00         0.00000E+00        -0.50741E-08
 
    0.52109E+06         0.27096E+05         0.00000E+00
    0.27096E+05        -0.47798E+08         0.00000E+00
    0.00000E+00         0.00000E+00         0.10148E-07
 
    0.48110E+06         0.45112E+05         0.00000E+00
    0.45112E+05        -0.47854E+08         0.00000E+00
    0.00000E+00         0.00000E+00         0.45667E-07
 
    0.44494E+06         0.66336E+05         0.00000E+00
    0.66336E+05        -0.47916E+08         0.00000E+00
    0.00000E+00         0.00000E+00         0.10148E-07
 
    0.41205E+06         0.89382E+05         0.00000E+00
    0.89382E+05        -0.47983E+08         0.00000E+00
    0.00000E+00         0.00000E+00         0.20296E-07
 
    0.38214E+06         0.11312E+06         0.00000E+00
    0.11312E+06        -0.48052E+08         0.00000E+00
    0.00000E+00         0.00000E+00        -0.10148E-07
 
    0.35501E+06         0.13675E+06         0.00000E+00
    0.13675E+06        -0.48124E+08         0.00000E+00
    0.00000E+00         0.00000E+00        -0.25370E-07
 
    0.33052E+06         0.15971E+06         0.00000E+00
    0.15971E+06        -0.48197E+08         0.00000E+00
    0.00000E+00         0.00000E+00         0.60889E-07
 
    0.30853E+06         0.18169E+06         0.00000E+00
    0.18169E+06        -0.48271E+08         0.00000E+00
    0.00000E+00         0.00000E+00        -0.50741E-08
 
    0.28891E+06         0.20250E+06         0.00000E+00
    0.20250E+06        -0.48345E+08         0.00000E+00
    0.00000E+00         0.00000E+00         0.35518E-07
 
    0.27153E+06         0.22206E+06         0.00000E+00
    0.22206E+06        -0.48421E+08         0.00000E+00
    0.00000E+00         0.00000E+00        -0.35518E-07
 
    0.25625E+06         0.24039E+06         0.00000E+00
    0.24039E+06        -0.48496E+08         0.00000E+00
    0.00000E+00         0.00000E+00        -0.10148E-07
 
    0.24292E+06         0.25752E+06         0.00000E+00
    0.25752E+06        -0.48573E+08         0.00000E+00
    0.00000E+00         0.00000E+00         0.00000E+00
 
    0.23141E+06         0.27353E+06         0.00000E+00
    0.27353E+06        -0.48650E+08         0.00000E+00
    0.00000E+00         0.00000E+00        -0.15222E-07
 
    0.22158E+06         0.28853E+06         0.00000E+00
    0.28853E+06        -0.48727E+08         0.00000E+00
    0.00000E+00         0.00000E+00         0.00000E+00
 
    0.21328E+06         0.30261E+06         0.00000E+00
    0.30261E+06        -0.48806E+08         0.00000E+00
    0.00000E+00         0.00000E+00        -0.20296E-07
 
    0.20639E+06         0.31588E+06         0.00000E+00
    0.31588E+06        -0.48884E+08         0.00000E+00
    0.00000E+00         0.00000E+00         0.10148E-07
 
    0.20078E+06         0.32845E+06         0.00000E+00
    0.32845E+06        -0.48964E+08         0.00000E+00
    0.00000E+00         0.00000E+00         0.40593E-07
 
    0.19633E+06         0.34041E+06         0.00000E+00
    0.34041E+06        -0.49045E+08         0.00000E+00
    0.00000E+00         0.00000E+00         0.10148E-07
 
    0.19291E+06         0.35186E+06         0.00000E+00
    0.35186E+06        -0.49126E+08         0.00000E+00
    0.00000E+00         0.00000E+00        -0.10148E-07
 
    0.19043E+06         0.36287E+06         0.00000E+00
    0.36287E+06        -0.49209E+08         0.00000E+00
    0.00000E+00         0.00000E+00         0.25370E-07
 
    0.18878E+06         0.37353E+06         0.00000E+00
    0.37353E+06        -0.49293E+08         0.00000E+00
    0.00000E+00         0.00000E+00        -0.40592E-07
 
    0.18788E+06         0.38389E+06         0.00000E+00
    0.38389E+06        -0.49378E+08         0.00000E+00
    0.00000E+00         0.00000E+00         0.30444E-07
 
    0.18762E+06         0.39404E+06         0.00000E+00
    0.39404E+06        -0.49464E+08         0.00000E+00
    0.00000E+00         0.00000E+00        -0.50741E-07
 
    0.18794E+06         0.40400E+06         0.00000E+00
    0.40400E+06        -0.49552E+08         0.00000E+00
    0.00000E+00         0.00000E+00         0.00000E+00
 
    0.18876E+06         0.41384E+06         0.00000E+00
    0.41384E+06        -0.49641E+08         0.00000E+00
    0.00000E+00         0.00000E+00        -0.50741E-08
 
    0.19002E+06         0.42359E+06         0.00000E+00
    0.42359E+06        -0.49732E+08         0.00000E+00
    0.00000E+00         0.00000E+00        -0.25370E-07
 
    0.19165E+06         0.43328E+06         0.00000E+00
    0.43328E+06        -0.49825E+08         0.00000E+00
    0.00000E+00         0.00000E+00         0.25370E-07
 
    0.19360E+06         0.44295E+06         0.00000E+00
    0.44295E+06        -0.49919E+08         0.00000E+00
    0.00000E+00         0.00000E+00        -0.35518E-07
 
    0.19582E+06         0.45263E+06         0.00000E+00
    0.45263E+06        -0.50015E+08         0.00000E+00
    0.00000E+00         0.00000E+00         0.10148E-07
 
    0.19827E+06         0.46232E+06         0.00000E+00
    0.46232E+06        -0.50113E+08         0.00000E+00
    0.00000E+00         0.00000E+00        -0.71037E-07
 
    0.20090E+06         0.47206E+06         0.00000E+00
    0.47206E+06        -0.50213E+08         0.00000E+00
    0.00000E+00         0.00000E+00         0.50741E-08
 
    0.20367E+06         0.48186E+06         0.00000E+00
    0.48186E+06        -0.50315E+08         0.00000E+00
    0.00000E+00         0.00000E+00         0.35518E-07
 
    0.20654E+06         0.49172E+06         0.00000E+00
    0.49172E+06        -0.50419E+08         0.00000E+00
    0.00000E+00         0.00000E+00        -0.20296E-07
 
    0.20949E+06         0.50166E+06         0.00000E+00
    0.50166E+06        -0.50525E+08         0.00000E+00
    0.00000E+00         0.00000E+00         0.50741E-08
 
    0.21249E+06         0.51169E+06         0.00000E+00
    0.51169E+06        -0.50633E+08         0.00000E+00
    0.00000E+00         0.00000E+00        -0.10148E-07
 
    0.21549E+06         0.52180E+06         0.00000E+00
    0.52180E+06        -0.50743E+08         0.00000E+00
    0.00000E+00         0.00000E+00        -0.55815E-07
 
    0.21848E+06         0.53201E+06         0.00000E+00
    0.53201E+06        -0.50856E+08         0.00000E+00
    0.00000E+00         0.00000E+00        -0.45667E-07
 
    0.22143E+06         0.54231E+06         0.00000E+00
    0.54231E+06        -0.50971E+08         0.00000E+00
    0.00000E+00         0.00000E+00        -0.25370E-07
 
    0.22431E+06         0.55270E+06         0.00000E+00
    0.55270E+06        -0.51088E+08         0.00000E+00
    0.00000E+00         0.00000E+00         0.50741E-08
 
    0.22710E+06         0.56318E+06         0.00000E+00
    0.56318E+06        -0.51208E+08         0.00000E+00
    0.00000E+00         0.00000E+00         0.00000E+00
 
    0.22978E+06         0.57374E+06         0.00000E+00
    0.57374E+06        -0.51331E+08         0.00000E+00
    0.00000E+00         0.00000E+00         0.00000E+00
 
    0.23232E+06         0.58438E+06         0.00000E+00
    0.58438E+06        -0.51456E+08         0.00000E+00
    0.00000E+00         0.00000E+00        -0.25370E-07
 
    0.23469E+06         0.59510E+06         0.00000E+00
    0.59510E+06        -0.51583E+08         0.00000E+00
    0.00000E+00         0.00000E+00        -0.35518E-07
 
    0.23688E+06         0.60587E+06         0.00000E+00
    0.60587E+06        -0.51713E+08         0.00000E+00
    0.00000E+00         0.00000E+00        -0.10148E-07
 
    0.23886E+06         0.61670E+06         0.00000E+00
    0.61670E+06        -0.51846E+08         0.00000E+00
    0.00000E+00         0.00000E+00         0.35518E-07
 
    0.24060E+06         0.62757E+06         0.00000E+00
    0.62757E+06        -0.51982E+08         0.00000E+00
    0.00000E+00         0.00000E+00         0.00000E+00
 
    0.24209E+06         0.63847E+06         0.00000E+00
    0.63847E+06        -0.52120E+08         0.00000E+00
    0.00000E+00         0.00000E+00         0.50741E-08
 
    0.24328E+06         0.64938E+06         0.00000E+00
    0.64938E+06        -0.52261E+08         0.00000E+00
    0.00000E+00         0.00000E+00         0.50741E-08
 
    0.24416E+06         0.66029E+06         0.00000E+00
    0.66029E+06        -0.52406E+08         0.00000E+00
    0.00000E+00         0.00000E+00        -0.35518E-07
 
    0.24470E+06         0.67117E+06         0.00000E+00
    0.67117E+06        -0.52553E+08         0.00000E+00
    0.00000E+00         0.00000E+00         0.00000E+00
 
    0.24486E+06         0.68201E+06         0.00000E+00
    0.68201E+06        -0.52702E+08         0.00000E+00
    0.00000E+00         0.00000E+00         0.40593E-07
 
    0.24462E+06         0.69279E+06         0.00000E+00
    0.69279E+06        -0.52855E+08         0.00000E+00
    0.00000E+00         0.00000E+00         0.10148E-07
 
    0.24394E+06         0.70348E+06         0.00000E+00
    0.70348E+06        -0.53011E+08         0.00000E+00
    0.00000E+00         0.00000E+00         0.45667E-07
 
    0.24277E+06         0.71405E+06         0.00000E+00
    0.71405E+06        -0.53170E+08         0.00000E+00
    0.00000E+00         0.00000E+00        -0.35518E-07
 
    0.24109E+06         0.72447E+06         0.00000E+00
    0.72447E+06        -0.53332E+08         0.00000E+00
    0.00000E+00         0.00000E+00        -0.50741E-08
 
    0.23884E+06         0.73472E+06         0.00000E+00
    0.73472E+06        -0.53497E+08         0.00000E+00
    0.00000E+00         0.00000E+00        -0.15222E-07
 
    0.23599E+06         0.74475E+06         0.00000E+00
    0.74475E+06        -0.53665E+08         0.00000E+00
    0.00000E+00         0.00000E+00         0.25370E-07
 
    0.23247E+06         0.75454E+06         0.00000E+00
    0.75454E+06        -0.53836E+08         0.00000E+00
    0.00000E+00         0.00000E+00        -0.40593E-07
 
    0.22823E+06         0.76403E+06         0.00000E+00
    0.76403E+06        -0.54011E+08         0.00000E+00
    0.00000E+00         0.00000E+00         0.40593E-07
 
    0.22321E+06         0.77318E+06         0.00000E+00
    0.77318E+06        -0.54188E+08         0.00000E+00
    0.00000E+00         0.00000E+00        -0.50741E-07
 
    0.21734E+06         0.78194E+06         0.00000E+00
    0.78194E+06        -0.54369E+08         0.00000E+00
    0.00000E+00         0.00000E+00        -0.25370E-07
 
    0.21055E+06         0.79025E+06         0.00000E+00
    0.79025E+06        -0.54552E+08         0.00000E+00
    0.00000E+00         0.00000E+00         0.00000E+00
 
    0.20275E+06         0.79805E+06         0.00000E+00
    0.79805E+06        -0.54739E+08         0.00000E+00
    0.00000E+00         0.00000E+00         0.30444E-07
 
    0.19385E+06         0.80527E+06         0.00000E+00
    0.80527E+06        -0.54929E+08         0.00000E+00
    0.00000E+00         0.00000E+00         0.20296E-07
 
    0.18375E+06         0.81184E+06         0.00000E+00
    0.81184E+06        -0.55123E+08         0.00000E+00
    0.00000E+00         0.00000E+00         0.50741E-08
 
    0.17234E+06         0.81767E+06         0.00000E+00
    0.81767E+06        -0.55319E+08         0.00000E+00
    0.00000E+00         0.00000E+00         0.00000E+00
 
    0.15950E+06         0.82266E+06         0.00000E+00
    0.82266E+06        -0.55518E+08         0.00000E+00
    0.00000E+00         0.00000E+00        -0.10148E-07
 
    0.14508E+06         0.82671E+06         0.00000E+00
    0.82671E+06        -0.55721E+08         0.00000E+00
    0.00000E+00         0.00000E+00         0.00000E+00
 
    0.12894E+06         0.82971E+06         0.00000E+00
    0.82971E+06        -0.55927E+08         0.00000E+00
    0.00000E+00         0.00000E+00         0.15222E-07
 
    0.11090E+06         0.83151E+06         0.00000E+00
    0.83151E+06        -0.56136E+08         0.00000E+00
    0.00000E+00         0.00000E+00        -0.50741E-08
 
    0.90794E+05         0.83199E+06         0.00000E+00
    0.83199E+06        -0.56348E+08         0.00000E+00
    0.00000E+00         0.00000E+00        -0.55815E-07
 
    0.68408E+05         0.83096E+06         0.00000E+00
    0.83096E+06        -0.56564E+08         0.00000E+00
    0.00000E+00         0.00000E+00        -0.10147E-07
 
    0.43523E+05         0.82826E+06         0.00000E+00
    0.82826E+06        -0.56782E+08         0.00000E+00
    0.00000E+00         0.00000E+00         0.00000E+00
 
    0.15897E+05         0.82367E+06         0.00000E+00
    0.82367E+06        -0.57004E+08         0.00000E+00
    0.00000E+00         0.00000E+00        -0.40593E-07
 
   -0.14734E+05         0.81698E+06         0.00000E+00
    0.81698E+06        -0.57228E+08         0.00000E+00
    0.00000E+00         0.00000E+00         0.15222E-07
 
   -0.48654E+05         0.80793E+06         0.00000E+00
    0.80793E+06        -0.57456E+08         0.00000E+00
    0.00000E+00         0.00000E+00        -0.50741E-08
 
   -0.86170E+05         0.79625E+06         0.00000E+00
    0.79625E+06        -0.57688E+08         0.00000E+00
    0.00000E+00         0.00000E+00         0.50741E-08
 
   -0.12761E+06         0.78165E+06         0.00000E+00
    0.78165E+06        -0.57922E+08         0.00000E+00
    0.00000E+00         0.00000E+00         0.15222E-07
 
   -0.17331E+06         0.76381E+06         0.00000E+00
    0.76381E+06        -0.58159E+08         0.00000E+00
    0.00000E+00         0.00000E+00        -0.40592E-07
 
   -0.22365E+06         0.74238E+06         0.00000E+00
    0.74238E+06        -0.58400E+08         0.00000E+00
    0.00000E+00         0.00000E+00         0.15222E-07
 
   -0.27900E+06         0.71702E+06         0.00000E+00
    0.71702E+06        -0.58644E+08         0.00000E+00
    0.00000E+00         0.00000E+00        -0.20296E-07
 
   -0.33973E+06         0.68738E+06         0.00000E+00
    0.68738E+06        -0.58890E+08         0.00000E+00
    0.00000E+00         0.00000E+00         0.55815E-07
 
   -0.40626E+06         0.65311E+06         0.00000E+00
    0.65311E+06        -0.59140E+08         0.00000E+00
    0.00000E+00         0.00000E+00         0.10148E-07
 
   -0.47895E+06         0.61392E+06         0.00000E+00
    0.61392E+06        -0.59392E+08         0.00000E+00
    0.00000E+00         0.00000E+00         0.35518E-07
 
   -0.55820E+06         0.56956E+06         0.00000E+00
    0.56956E+06        -0.59647E+08         0.00000E+00
    0.00000E+00         0.00000E+00        -0.35518E-07
 
   -0.64436E+06         0.51994E+06         0.00000E+00
    0.51994E+06        -0.59903E+08         0.00000E+00
    0.00000E+00         0.00000E+00        -0.60889E-07
 
   -0.73778E+06         0.46512E+06         0.00000E+00
    0.46512E+06        -0.60160E+08         0.00000E+00
    0.00000E+00         0.00000E+00        -0.35518E-07
 
   -0.83879E+06         0.40543E+06         0.00000E+00
    0.40543E+06        -0.60418E+08         0.00000E+00
    0.00000E+00         0.00000E+00         0.60889E-07
 
   -0.94768E+06         0.34161E+06         0.00000E+00
    0.34161E+06        -0.60675E+08         0.00000E+00
    0.00000E+00         0.00000E+00         0.15222E-07
 
   -0.10647E+07         0.27494E+06         0.00000E+00
    0.27494E+06        -0.60928E+08         0.00000E+00
    0.00000E+00         0.00000E+00         0.76111E-07
 
   -0.11903E+07         0.20746E+06         0.00000E+00
    0.20746E+06        -0.61176E+08         0.00000E+00
    0.00000E+00         0.00000E+00        -0.60889E-07
 
   -0.13248E+07         0.14220E+06         0.00000E+00
    0.14220E+06        -0.61415E+08         0.00000E+00
    0.00000E+00         0.00000E+00        -0.15222E-07
 
   -0.14691E+07         0.83323E+05         0.00000E+00
    0.83323E+05        -0.61639E+08         0.00000E+00
    0.00000E+00         0.00000E+00         0.00000E+00
 
   -0.16250E+07         0.35898E+05         0.00000E+00
    0.35898E+05        -0.61842E+08         0.00000E+00
    0.00000E+00         0.00000E+00         0.25370E-07
 
   -0.17957E+07         0.48160E+04         0.00000E+00
    0.48160E+04        -0.62012E+08         0.00000E+00
    0.00000E+00         0.00000E+00        -0.81185E-07
 
   -0.19866E+07        -0.76320E+04         0.00000E+00
   -0.76320E+04        -0.62138E+08         0.00000E+00
    0.00000E+00         0.00000E+00        -0.86259E-07
 
   -0.22038E+07        -0.45914E+04         0.00000E+00
   -0.45914E+04        -0.62205E+08         0.00000E+00
    0.00000E+00         0.00000E+00        -0.50741E-08
 
    0.69520E+06         0.25488E+03         0.00000E+00
    0.25488E+03        -0.47697E+08         0.00000E+00
    0.00000E+00         0.00000E+00         0.10148E-07
 
    0.63569E+06         0.25632E+04         0.00000E+00
    0.25632E+04        -0.47717E+08         0.00000E+00
    0.00000E+00         0.00000E+00         0.71037E-07
 
    0.58411E+06         0.94687E+04         0.00000E+00
    0.94687E+04        -0.47752E+08         0.00000E+00
    0.00000E+00         0.00000E+00        -0.10148E-07
 
    0.53858E+06         0.21878E+05         0.00000E+00
    0.21878E+05        -0.47801E+08         0.00000E+00
    0.00000E+00         0.00000E+00         0.15222E-07
 
    0.49757E+06         0.39064E+05         0.00000E+00
    0.39064E+05        -0.47858E+08         0.00000E+00
    0.00000E+00         0.00000E+00         0.20296E-07
 
    0.46019E+06         0.59578E+05         0.00000E+00
    0.59578E+05        -0.47921E+08         0.00000E+00
    0.00000E+00         0.00000E+00        -0.55815E-07
 
    0.42601E+06         0.81966E+05         0.00000E+00
    0.81966E+05        -0.47987E+08         0.00000E+00
    0.00000E+00         0.00000E+00         0.35518E-07
 
    0.39482E+06         0.10507E+06         0.00000E+00
    0.10507E+06        -0.48057E+08         0.00000E+00
    0.00000E+00         0.00000E+00        -0.10148E-07
 
    0.36649E+06         0.12807E+06         0.00000E+00
    0.12807E+06        -0.48128E+08         0.00000E+00
    0.00000E+00         0.00000E+00         0.50741E-08
 
    0.34092E+06         0.15042E+06         0.00000E+00
    0.15042E+06        -0.48201E+08         0.00000E+00
    0.00000E+00         0.00000E+00        -0.50741E-08
 
    0.31797E+06         0.17179E+06         0.00000E+00
    0.17179E+06        -0.48275E+08         0.00000E+00
    0.00000E+00         0.00000E+00        -0.10148E-07
 
    0.29752E+06         0.19201E+06         0.00000E+00
    0.19201E+06        -0.48349E+08         0.00000E+00
    0.00000E+00         0.00000E+00         0.00000E+00
 
    0.27944E+06         0.21100E+06         0.00000E+00
    0.21100E+06        -0.48424E+08         0.00000E+00
    0.00000E+00         0.00000E+00         0.45667E-07
 
    0.26356E+06         0.22876E+06         0.00000E+00
    0.22876E+06        -0.48500E+08         0.00000E+00
    0.00000E+00         0.00000E+00         0.00000E+00
 
    0.24974E+06         0.24534E+06         0.00000E+00
    0.24534E+06        -0.48576E+08         0.00000E+00
    0.00000E+00         0.00000E+00         0.15222E-07
 
    0.23783E+06         0.26083E+06         0.00000E+00
    0.26083E+06        -0.48653E+08         0.00000E+00
    0.00000E+00         0.00000E+00        -0.20296E-07
 
    0.22768E+06         0.27531E+06         0.00000E+00
    0.27531E+06        -0.48730E+08         0.00000E+00
    0.00000E+00         0.00000E+00        -0.25370E-07
 
    0.21913E+06         0.28889E+06         0.00000E+00
    0.28889E+06        -0.48808E+08         0.00000E+00
    0.00000E+00         0.00000E+00         0.10148E-07
 
    0.21204E+06         0.30167E+06         0.00000E+00
    0.30167E+06        -0.48887E+08         0.00000E+00
    0.00000E+00         0.00000E+00         0.00000E+00
 
    0.20629E+06         0.31377E+06         0.00000E+00
    0.31377E+06        -0.48967E+08         0.00000E+00
    0.00000E+00         0.00000E+00         0.45667E-07
 
    0.20173E+06         0.32526E+06         0.00000E+00
    0.32526E+06        -0.49047E+08         0.00000E+00
    0.00000E+00         0.00000E+00         0.50741E-08
 
    0.19826E+06         0.33626E+06         0.00000E+00
    0.33626E+06        -0.49129E+08         0.00000E+00
    0.00000E+00         0.00000E+00         0.50741E-08
 
    0.19574E+06         0.34682E+06         0.00000E+00
    0.34682E+06        -0.49211E+08         0.00000E+00
    0.00000E+00         0.00000E+00        -0.50741E-08
 
    0.19409E+06         0.35704E+06         0.00000E+00
    0.35704E+06        -0.49295E+08         0.00000E+00
    0.00000E+00         0.00000E+00        -0.10148E-07
 
    0.19319E+06         0.36698E+06         0.00000E+00
    0.36698E+06        -0.49380E+08         0.00000E+00
    0.00000E+00         0.00000E+00         0.10148E-07
 
    0.19297E+06         0.37669E+06         0.00000E+00
    0.37669E+06        -0.49466E+08         0.00000E+00
    0.00000E+00         0.00000E+00         0.10148E-07
 
    0.19334E+06         0.38624E+06         0.00000E+00
    0.38624E+06        -0.49554E+08         0.00000E+00
    0.00000E+00         0.00000E+00         0.15222E-07
 
    0.19422E+06         0.39565E+06         0.00000E+00
    0.39565E+06        -0.49643E+08         0.00000E+00
    0.00000E+00         0.00000E+00         0.10148E-07
 
    0.19555E+06         0.40498E+06         0.00000E+00
    0.40498E+06        -0.49734E+08         0.00000E+00
    0.00000E+00         0.00000E+00         0.40593E-07
 
    0.19726E+06         0.41425E+06         0.00000E+00
    0.41425E+06        -0.49827E+08         0.00000E+00
    0.00000E+00         0.00000E+00         0.20296E-07
 
    0.19930E+06         0.42350E+06         0.00000E+00
    0.42350E+06        -0.49921E+08         0.00000E+00
    0.00000E+00         0.00000E+00        -0.10148E-07
 
    0.20162E+06         0.43275E+06         0.00000E+00
    0.43275E+06        -0.50017E+08         0.00000E+00
    0.00000E+00         0.00000E+00         0.50741E-07
 
    0.20416E+06         0.44202E+06         0.00000E+00
    0.44202E+06        -0.50115E+08         0.00000E+00
    0.00000E+00         0.00000E+00         0.50741E-07
 
    0.20689E+06         0.45132E+06         0.00000E+00
    0.45132E+06        -0.50215E+08         0.00000E+00
    0.00000E+00         0.00000E+00         0.00000E+00
 
    0.20977E+06         0.46068E+06         0.00000E+00
    0.46068E+06        -0.50317E+08         0.00000E+00
    0.00000E+00         0.00000E+00         0.20296E-07
 
    0.21275E+06         0.47011E+06         0.00000E+00
    0.47011E+06        -0.50421E+08         0.00000E+00
    0.00000E+00         0.00000E+00        -0.40593E-07
 
    0.21581E+06         0.47961E+06         0.00000E+00
    0.47961E+06        -0.50527E+08         0.00000E+00
    0.00000E+00         0.00000E+00        -0.35518E-07
 
    0.21891E+06         0.48918E+06         0.00000E+00
    0.48918E+06        -0.50635E+08         0.00000E+00
    0.00000E+00         0.00000E+00        -0.15222E-07
 
    0.22202E+06         0.49885E+06         0.00000E+00
    0.49885E+06        -0.50745E+08         0.00000E+00
    0.00000E+00         0.00000E+00         0.60889E-07
 
    0.22512E+06         0.50859E+06         0.00000E+00
    0.50859E+06        -0.50858E+08         0.00000E+00
    0.00000E+00         0.00000E+00        -0.76111E-07
 
    0.22817E+06         0.51843E+06         0.00000E+00
    0.51843E+06        -0.50973E+08         0.00000E+00
    0.00000E+00         0.00000E+00        -0.10148E-07
 
    0.23116E+06         0.52835E+06         0.00000E+00
    0.52835E+06        -0.51090E+08         0.00000E+00
    0.00000E+00         0.00000E+00         0.35518E-07
 
    0.23405E+06         0.53836E+06         0.00000E+00
    0.53836E+06        -0.51210E+08         0.00000E+00
    0.00000E+00         0.00000E+00        -0.10148E-07
 
    0.23682E+06         0.54844E+06         0.00000E+00
    0.54844E+06        -0.51333E+08         0.00000E+00
    0.00000E+00         0.00000E+00        -0.10148E-07
 
    0.23944E+06         0.55860E+06         0.00000E+00
    0.55860E+06        -0.51458E+08         0.00000E+00
    0.00000E+00         0.00000E+00        -0.30444E-07
 
    0.24190E+06         0.56883E+06         0.00000E+00
    0.56883E+06        -0.51585E+08         0.00000E+00
    0.00000E+00         0.00000E+00        -0.50741E-07
 
    0.24417E+06         0.57912E+06         0.00000E+00
    0.57912E+06        -0.51715E+08         0.00000E+00
    0.00000E+00         0.00000E+00         0.35518E-07
 
    0.24622E+06         0.58946E+06         0.00000E+00
    0.58946E+06        -0.51848E+08         0.00000E+00
    0.00000E+00         0.00000E+00        -0.45667E-07
 
    0.24803E+06         0.59983E+06         0.00000E+00
    0.59983E+06        -0.51984E+08         0.00000E+00
    0.00000E+00         0.00000E+00        -0.10148E-07
 
    0.24957E+06         0.61023E+06         0.00000E+00
    0.61023E+06        -0.52122E+08         0.00000E+00
    0.00000E+00         0.00000E+00        -0.65963E-07
 
    0.25082E+06         0.62064E+06         0.00000E+00
    0.62064E+06        -0.52264E+08         0.00000E+00
    0.00000E+00         0.00000E+00        -0.20296E-07
 
    0.25174E+06         0.63105E+06         0.00000E+00
    0.63105E+06        -0.52408E+08         0.00000E+00
    0.00000E+00         0.00000E+00         0.40593E-07
 
    0.25232E+06         0.64143E+06         0.00000E+00
    0.64143E+06        -0.52555E+08         0.00000E+00
    0.00000E+00         0.00000E+00         0.00000E+00
 
    0.25250E+06         0.65177E+06         0.00000E+00
    0.65177E+06        -0.52705E+08         0.00000E+00
    0.00000E+00         0.00000E+00         0.55815E-07
 
    0.25227E+06         0.66205E+06         0.00000E+00
    0.66205E+06        -0.52857E+08         0.00000E+00
    0.00000E+00         0.00000E+00         0.00000E+00
 
    0.25159E+06         0.67224E+06         0.00000E+00
    0.67224E+06        -0.53013E+08         0.00000E+00
    0.00000E+00         0.00000E+00         0.25370E-07
 
    0.25041E+06         0.68232E+06         0.00000E+00
    0.68232E+06        -0.53172E+08         0.00000E+00
    0.00000E+00         0.00000E+00        -0.15222E-07
 
    0.24870E+06         0.69226E+06         0.00000E+00
    0.69226E+06        -0.53334E+08         0.00000E+00
    0.00000E+00         0.00000E+00         0.35518E-07
 
    0.24641E+06         0.70202E+06         0.00000E+00
    0.70202E+06        -0.53499E+08         0.00000E+00
    0.00000E+00         0.00000E+00         0.25370E-07
 
    0.24350E+06         0.71159E+06         0.00000E+00
    0.71159E+06        -0.53667E+08         0.00000E+00
    0.00000E+00         0.00000E+00         0.45667E-07
 
    0.23991E+06         0.72091E+06         0.00000E+00
    0.72091E+06        -0.53838E+08         0.00000E+00
    0.00000E+00         0.00000E+00         0.40593E-07
 
    0.23558E+06         0.72994E+06         0.00000E+00
    0.72994E+06        -0.54012E+08         0.00000E+00
    0.00000E+00         0.00000E+00         0.00000E+00
 
    0.23044E+06         0.73866E+06         0.00000E+00
    0.73866E+06        -0.54190E+08         0.00000E+00
    0.00000E+00         0.00000E+00         0.00000E+00
 
    0.22444E+06         0.74699E+06         0.00000E+00
    0.74699E+06        -0.54370E+08         0.00000E+00
    0.00000E+00         0.00000E+00         0.00000E+00
 
    0.21749E+06         0.75489E+06         0.00000E+00
    0.75489E+06        -0.54554E+08         0.00000E+00
    0.00000E+00         0.00000E+00        -0.25370E-07
 
    0.20951E+06         0.76231E+06         0.00000E+00
    0.76231E+06        -0.54741E+08         0.00000E+00
    0.00000E+00         0.00000E+00         0.10148E-07
 
    0.20040E+06         0.76917E+06         0.00000E+00
    0.76917E+06        -0.54931E+08         0.00000E+00
    0.00000E+00         0.00000E+00         0.50741E-08
 
    0.19006E+06         0.77540E+06         0.00000E+00
    0.77540E+06        -0.55124E+08         0.00000E+00
    0.00000E+00         0.00000E+00        -0.25370E-07
 
    0.17838E+06         0.78091E+06         0.00000E+00
    0.78091E+06        -0.55320E+08         0.00000E+00
    0.00000E+00         0.00000E+00         0.10148E-07
 
    0.16522E+06         0.78563E+06         0.00000E+00
    0.78563E+06        -0.55519E+08         0.00000E+00
    0.00000E+00         0.00000E+00        -0.50741E-08
 
    0.15045E+06         0.78944E+06         0.00000E+00
    0.78944E+06        -0.55722E+08         0.00000E+00
    0.00000E+00         0.00000E+00         0.00000E+00
 
    0.13392E+06         0.79223E+06         0.00000E+00
    0.79223E+06        -0.55927E+08         0.00000E+00
    0.00000E+00         0.00000E+00         0.25370E-07
 
    0.11544E+06         0.79388E+06         0.00000E+00
    0.79388E+06        -0.56136E+08         0.00000E+00
    0.00000E+00         0.00000E+00         0.15222E-07
 
    0.94831E+05         0.79425E+06         0.00000E+00
    0.79425E+06        -0.56348E+08         0.00000E+00
    0.00000E+00         0.00000E+00        -0.10148E-07
 
    0.71883E+05         0.79317E+06         0.00000E+00
    0.79317E+06        -0.56563E+08         0.00000E+00
    0.00000E+00         0.00000E+00        -0.96407E-07
 
    0.46365E+05         0.79047E+06         0.00000E+00
    0.79047E+06        -0.56781E+08         0.00000E+00
    0.00000E+00         0.00000E+00         0.35518E-07
 
    0.18026E+05         0.78595E+06         0.00000E+00
    0.78595E+06        -0.57002E+08         0.00000E+00
    0.00000E+00         0.00000E+00        -0.45667E-07
 
   -0.13411E+05         0.77939E+06         0.00000E+00
    0.77939E+06        -0.57227E+08         0.00000E+00
    0.00000E+00         0.00000E+00         0.15222E-07
 
   -0.48242E+05         0.77056E+06         0.00000E+00
    0.77056E+06        -0.57454E+08         0.00000E+00
    0.00000E+00         0.00000E+00         0.10148E-07
 
   -0.86790E+05         0.75917E+06         0.00000E+00
    0.75917E+06        -0.57685E+08         0.00000E+00
    0.00000E+00         0.00000E+00        -0.10148E-07
 
   -0.12940E+06         0.74495E+06         0.00000E+00
    0.74495E+06        -0.57919E+08         0.00000E+00
    0.00000E+00         0.00000E+00        -0.10148E-07
 
   -0.17644E+06         0.72758E+06         0.00000E+00
    0.72758E+06        -0.58155E+08         0.00000E+00
    0.00000E+00         0.00000E+00        -0.50741E-08
 
   -0.22830E+06         0.70672E+06         0.00000E+00
    0.70672E+06        -0.58395E+08         0.00000E+00
    0.00000E+00         0.00000E+00        -0.25370E-07
 
   -0.28538E+06         0.68202E+06         0.00000E+00
    0.68202E+06        -0.58638E+08         0.00000E+00
    0.00000E+00         0.00000E+00        -0.15222E-07
 
   -0.34810E+06         0.65315E+06         0.00000E+00
    0.65315E+06        -0.58884E+08         0.00000E+00
    0.00000E+00         0.00000E+00        -0.30444E-07
 
   -0.41689E+06         0.61976E+06         0.00000E+00
    0.61976E+06        -0.59132E+08         0.00000E+00
    0.00000E+00         0.00000E+00         0.35518E-07
 
   -0.49216E+06         0.58154E+06         0.00000E+00
    0.58154E+06        -0.59384E+08         0.00000E+00
    0.00000E+00         0.00000E+00        -0.10148E-07
 
   -0.57434E+06         0.53827E+06         0.00000E+00
    0.53827E+06        -0.59637E+08         0.00000E+00
    0.00000E+00         0.00000E+00         0.50741E-07
 
   -0.66383E+06         0.48982E+06         0.00000E+00
    0.48982E+06        -0.59893E+08         0.00000E+00
    0.00000E+00         0.00000E+00        -0.65963E-07
 
   -0.76100E+06         0.43627E+06         0.00000E+00
    0.43627E+06        -0.60149E+08         0.00000E+00
    0.00000E+00         0.00000E+00         0.10148E-07
 
   -0.86618E+06         0.37794E+06         0.00000E+00
    0.37794E+06        -0.60406E+08         0.00000E+00
    0.00000E+00         0.00000E+00        -0.40593E-07
 
   -0.97966E+06         0.31556E+06         0.00000E+00
    0.31556E+06        -0.60662E+08         0.00000E+00
    0.00000E+00         0.00000E+00         0.15222E-07
 
   -0.11017E+07         0.25042E+06         0.00000E+00
    0.25042E+06        -0.60915E+08         0.00000E+00
    0.00000E+00         0.00000E+00        -0.50741E-08
 
   -0.12324E+07         0.18454E+06         0.00000E+00
    0.18454E+06        -0.61163E+08         0.00000E+00
    0.00000E+00         0.00000E+00        -0.50741E-08
 
   -0.13721E+07         0.12100E+06         0.00000E+00
    0.12100E+06        -0.61402E+08         0.00000E+00
    0.00000E+00         0.00000E+00        -0.25370E-07
 
   -0.15213E+07         0.64060E+05         0.00000E+00
    0.64060E+05        -0.61629E+08         0.00000E+00
    0.00000E+00         0.00000E+00         0.25370E-07
 
   -0.16812E+07         0.19032E+05         0.00000E+00
    0.19032E+05        -0.61834E+08         0.00000E+00
    0.00000E+00         0.00000E+00         0.00000E+00
 
   -0.18547E+07        -0.87811E+04         0.00000E+00
   -0.87811E+04        -0.62008E+08         0.00000E+00
    0.00000E+00         0.00000E+00        -0.10148E-07
 
   -0.20472E+07        -0.16672E+05         0.00000E+00
   -0.16672E+05        -0.62138E+08         0.00000E+00
    0.00000E+00         0.00000E+00        -0.50740E-08
 
   -0.22649E+07        -0.77897E+04         0.00000E+00
   -0.77897E+04        -0.62207E+08         0.00000E+00
    0.00000E+00         0.00000E+00         0.20296E-07
 
    0.71396E+06        -0.69945E+03         0.00000E+00
   -0.69945E+03        -0.47697E+08         0.00000E+00
    0.00000E+00         0.00000E+00         0.00000E+00
 
    0.65431E+06        -0.12917E+03         0.00000E+00
   -0.12917E+03        -0.47717E+08         0.00000E+00
    0.00000E+00         0.00000E+00         0.20296E-07
 
    0.60233E+06         0.54221E+04         0.00000E+00
    0.54221E+04        -0.47754E+08         0.00000E+00
    0.00000E+00         0.00000E+00         0.10656E-06
 
    0.55605E+06         0.16839E+05         0.00000E+00
    0.16839E+05        -0.47804E+08         0.00000E+00
    0.00000E+00         0.00000E+00         0.45667E-07
 
    0.51397E+06         0.33251E+05         0.00000E+00
    0.33251E+05        -0.47862E+08         0.00000E+00
    0.00000E+00         0.00000E+00         0.10148E-07
 
    0.47532E+06         0.53082E+05         0.00000E+00
    0.53082E+05        -0.47925E+08         0.00000E+00
    0.00000E+00         0.00000E+00        -0.35518E-07
 
    0.43980E+06         0.74814E+05         0.00000E+00
    0.74814E+05        -0.47992E+08         0.00000E+00
    0.00000E+00         0.00000E+00         0.30444E-07
 
    0.40731E+06         0.97270E+05         0.00000E+00
    0.97270E+05        -0.48061E+08         0.00000E+00
    0.00000E+00         0.00000E+00         0.15222E-07
 
    0.37777E+06         0.11962E+06         0.00000E+00
    0.11962E+06        -0.48133E+08         0.00000E+00
    0.00000E+00         0.00000E+00         0.13193E-06
 
    0.35110E+06         0.14133E+06         0.00000E+00
    0.14133E+06        -0.48205E+08         0.00000E+00
    0.00000E+00         0.00000E+00        -0.10148E-07
 
    0.32720E+06         0.16208E+06         0.00000E+00
    0.16208E+06        -0.48279E+08         0.00000E+00
    0.00000E+00         0.00000E+00         0.50740E-07
 
    0.30592E+06         0.18168E+06         0.00000E+00
    0.18168E+06        -0.48353E+08         0.00000E+00
    0.00000E+00         0.00000E+00         0.35518E-07
 
    0.28713E+06         0.20006E+06         0.00000E+00
    0.20006E+06        -0.48428E+08         0.00000E+00
    0.00000E+00         0.00000E+00        -0.35518E-07
 
    0.27067E+06         0.21724E+06         0.00000E+00
    0.21724E+06        -0.48503E+08         0.00000E+00
    0.00000E+00         0.00000E+00        -0.50741E-08
 
    0.25637E+06         0.23326E+06         0.00000E+00
    0.23326E+06        -0.48579E+08         0.00000E+00
    0.00000E+00         0.00000E+00         0.20296E-07
 
    0.24406E+06         0.24819E+06         0.00000E+00
    0.24819E+06        -0.48656E+08         0.00000E+00
    0.00000E+00         0.00000E+00        -0.15222E-07
 
    0.23359E+06         0.26214E+06         0.00000E+00
    0.26214E+06        -0.48733E+08         0.00000E+00
    0.00000E+00         0.00000E+00         0.45667E-07
 
    0.22480E+06         0.27521E+06         0.00000E+00
    0.27521E+06        -0.48811E+08         0.00000E+00
    0.00000E+00         0.00000E+00        -0.30444E-07
 
    0.21753E+06         0.28750E+06         0.00000E+00
    0.28750E+06        -0.48889E+08         0.00000E+00
    0.00000E+00         0.00000E+00         0.50741E-07
 
    0.21164E+06         0.29911E+06         0.00000E+00
    0.29911E+06        -0.48969E+08         0.00000E+00
    0.00000E+00         0.00000E+00         0.50740E-07
 
    0.20700E+06         0.31013E+06         0.00000E+00
    0.31013E+06        -0.49049E+08         0.00000E+00
    0.00000E+00         0.00000E+00         0.25370E-07
 
    0.20346E+06         0.32067E+06         0.00000E+00
    0.32067E+06        -0.49131E+08         0.00000E+00
    0.00000E+00         0.00000E+00        -0.50741E-08
 
    0.20092E+06         0.33078E+06         0.00000E+00
    0.33078E+06        -0.49213E+08         0.00000E+00
    0.00000E+00         0.00000E+00         0.40592E-07
 
    0.19926E+06         0.34056E+06         0.00000E+00
    0.34056E+06        -0.49297E+08         0.00000E+00
    0.00000E+00         0.00000E+00         0.91333E-07
 
    0.19839E+06         0.35006E+06         0.00000E+00
    0.35006E+06        -0.49382E+08         0.00000E+00
    0.00000E+00         0.00000E+00        -0.50741E-08
 
    0.19821E+06         0.35935E+06         0.00000E+00
    0.35935E+06        -0.49468E+08         0.00000E+00
    0.00000E+00         0.00000E+00        -0.10148E-07
 
    0.19863E+06         0.36846E+06         0.00000E+00
    0.36846E+06        -0.49556E+08         0.00000E+00
    0.00000E+00         0.00000E+00        -0.10148E-07
 
    0.19957E+06         0.37745E+06         0.00000E+00
    0.37745E+06        -0.49645E+08         0.00000E+00
    0.00000E+00         0.00000E+00         0.35518E-07
 
    0.20098E+06         0.38635E+06         0.00000E+00
    0.38635E+06        -0.49736E+08         0.00000E+00
    0.00000E+00         0.00000E+00        -0.10148E-07
 
    0.20278E+06         0.39520E+06         0.00000E+00
    0.39520E+06        -0.49829E+08         0.00000E+00
    0.00000E+00         0.00000E+00        -0.50741E-07
 
    0.20491E+06         0.40403E+06         0.00000E+00
    0.40403E+06        -0.49923E+08         0.00000E+00
    0.00000E+00         0.00000E+00         0.35518E-07
 
    0.20732E+06         0.41285E+06         0.00000E+00
    0.41285E+06        -0.50019E+08         0.00000E+00
    0.00000E+00         0.00000E+00         0.10656E-06
 
    0.20997E+06         0.42169E+06         0.00000E+00
    0.42169E+06        -0.50117E+08         0.00000E+00
    0.00000E+00         0.00000E+00        -0.86259E-07
 
    0.21280E+06         0.43057E+06         0.00000E+00
    0.43057E+06        -0.50217E+08         0.00000E+00
    0.00000E+00         0.00000E+00        -0.50741E-08
 
    0.21578E+06         0.43949E+06         0.00000E+00
    0.43949E+06        -0.50318E+08         0.00000E+00
    0.00000E+00         0.00000E+00         0.25370E-07
 
    0.21887E+06         0.44848E+06         0.00000E+00
    0.44848E+06        -0.50422E+08         0.00000E+00
    0.00000E+00         0.00000E+00        -0.50741E-08
 
    0.22204E+06         0.45753E+06         0.00000E+00
    0.45753E+06        -0.50528E+08         0.00000E+00
    0.00000E+00         0.00000E+00        -0.20296E-07
 
    0.22525E+06         0.46666E+06         0.00000E+00
    0.46666E+06        -0.50637E+08         0.00000E+00
    0.00000E+00         0.00000E+00        -0.10148E-07
 
    0.22847E+06         0.47587E+06         0.00000E+00
    0.47587E+06        -0.50747E+08         0.00000E+00
    0.00000E+00         0.00000E+00         0.45666E-07
 
    0.23167E+06         0.48516E+06         0.00000E+00
    0.48516E+06        -0.50860E+08         0.00000E+00
    0.00000E+00         0.00000E+00         0.50741E-08
 
    0.23482E+06         0.49453E+06         0.00000E+00
    0.49453E+06        -0.50975E+08         0.00000E+00
    0.00000E+00         0.00000E+00         0.76111E-07
 
    0.23791E+06         0.50399E+06         0.00000E+00
    0.50399E+06        -0.51092E+08         0.00000E+00
    0.00000E+00         0.00000E+00        -0.20296E-07
 
    0.24090E+06         0.51352E+06         0.00000E+00
    0.51352E+06        -0.51212E+08         0.00000E+00
    0.00000E+00         0.00000E+00        -0.15222E-07
 
    0.24376E+06         0.52313E+06         0.00000E+00
    0.52313E+06        -0.51335E+08         0.00000E+00
    0.00000E+00         0.00000E+00         0.45667E-07
 
    0.24648E+06         0.53281E+06         0.00000E+00
    0.53281E+06        -0.51460E+08         0.00000E+00
    0.00000E+00         0.00000E+00        -0.50741E-08
 
    0.24903E+06         0.54255E+06         0.00000E+00
    0.54255E+06        -0.51587E+08         0.00000E+00
    0.00000E+00         0.00000E+00        -0.71037E-07
 
    0.25137E+06         0.55235E+06         0.00000E+00
    0.55235E+06        -0.51717E+08         0.00000E+00
    0.00000E+00         0.00000E+00        -0.25370E-07
 
    0.25350E+06         0.56219E+06         0.00000E+00
    0.56219E+06        -0.51850E+08         0.00000E+00
    0.00000E+00         0.00000E+00         0.15222E-07
 
    0.25538E+06         0.57207E+06         0.00000E+00
    0.57207E+06        -0.51986E+08         0.00000E+00
    0.00000E+00         0.00000E+00         0.25370E-07
 
    0.25698E+06         0.58198E+06         0.00000E+00
    0.58198E+06        -0.52124E+08         0.00000E+00
    0.00000E+00         0.00000E+00         0.50741E-08
 
    0.25828E+06         0.59189E+06         0.00000E+00
    0.59189E+06        -0.52266E+08         0.00000E+00
    0.00000E+00         0.00000E+00        -0.10148E-07
 
    0.25924E+06         0.60180E+06         0.00000E+00
    0.60180E+06        -0.52410E+08         0.00000E+00
    0.00000E+00         0.00000E+00         0.50741E-08
 
    0.25985E+06         0.61168E+06         0.00000E+00
    0.61168E+06        -0.52557E+08         0.00000E+00
    0.00000E+00         0.00000E+00         0.10148E-07
 
    0.26006E+06         0.62153E+06         0.00000E+00
    0.62153E+06        -0.52707E+08         0.00000E+00
    0.00000E+00         0.00000E+00         0.30444E-07
 
    0.25984E+06         0.63131E+06         0.00000E+00
    0.63131E+06        -0.52859E+08         0.00000E+00
    0.00000E+00         0.00000E+00         0.00000E+00
 
    0.25916E+06         0.64101E+06         0.00000E+00
    0.64101E+06        -0.53015E+08         0.00000E+00
    0.00000E+00         0.00000E+00         0.45667E-07
 
    0.25797E+06         0.65059E+06         0.00000E+00
    0.65059E+06        -0.53174E+08         0.00000E+00
    0.00000E+00         0.00000E+00         0.50741E-07
 
    0.25624E+06         0.66005E+06         0.00000E+00
    0.66005E+06        -0.53336E+08         0.00000E+00
    0.00000E+00         0.00000E+00         0.30444E-07
 
    0.25392E+06         0.66934E+06         0.00000E+00
    0.66934E+06        -0.53501E+08         0.00000E+00
    0.00000E+00         0.00000E+00         0.81185E-07
 
    0.25095E+06         0.67843E+06         0.00000E+00
    0.67843E+06        -0.53669E+08         0.00000E+00
    0.00000E+00         0.00000E+00         0.30444E-07
 
    0.24729E+06         0.68729E+06         0.00000E+00
    0.68729E+06        -0.53840E+08         0.00000E+00
    0.00000E+00         0.00000E+00        -0.25370E-07
 
    0.24287E+06         0.69588E+06         0.00000E+00
    0.69588E+06        -0.54014E+08         0.00000E+00
    0.00000E+00         0.00000E+00        -0.10148E-07
 
    0.23763E+06         0.70416E+06         0.00000E+00
    0.70416E+06        -0.54191E+08         0.00000E+00
    0.00000E+00         0.00000E+00         0.15222E-07
 
    0.23150E+06         0.71207E+06         0.00000E+00
    0.71207E+06        -0.54372E+08         0.00000E+00
    0.00000E+00         0.00000E+00         0.50741E-07
 
    0.22440E+06         0.71957E+06         0.00000E+00
    0.71957E+06        -0.54555E+08         0.00000E+00
    0.00000E+00         0.00000E+00        -0.30444E-07
 
    0.21624E+06         0.72661E+06         0.00000E+00
    0.72661E+06        -0.54742E+08         0.00000E+00
    0.00000E+00         0.00000E+00         0.20296E-07
 
    0.20693E+06         0.73311E+06         0.00000E+00
    0.73311E+06        -0.54932E+08         0.00000E+00
    0.00000E+00         0.00000E+00         0.10148E-07
 
    0.19637E+06         0.73900E+06         0.00000E+00
    0.73900E+06        -0.55125E+08         0.00000E+00
    0.00000E+00         0.00000E+00        -0.50741E-07
 
    0.18442E+06         0.74422E+06         0.00000E+00
    0.74422E+06        -0.55321E+08         0.00000E+00
    0.00000E+00         0.00000E+00         0.30444E-07
 
    0.17097E+06         0.74866E+06         0.00000E+00
    0.74866E+06        -0.55520E+08         0.00000E+00
    0.00000E+00         0.00000E+00         0.20296E-07
 
    0.15587E+06         0.75224E+06         0.00000E+00
    0.75224E+06        -0.55722E+08         0.00000E+00
    0.00000E+00         0.00000E+00         0.20296E-07
 
    0.13895E+06         0.75484E+06         0.00000E+00
    0.75484E+06        -0.55928E+08         0.00000E+00
    0.00000E+00         0.00000E+00         0.00000E+00
 
    0.12005E+06         0.75634E+06         0.00000E+00
    0.75634E+06        -0.56136E+08         0.00000E+00
    0.00000E+00         0.00000E+00         0.50741E-08
 
    0.98962E+05         0.75661E+06         0.00000E+00
    0.75661E+06        -0.56348E+08         0.00000E+00
    0.00000E+00         0.00000E+00        -0.50741E-08
 
    0.75475E+05         0.75549E+06         0.00000E+00
    0.75549E+06        -0.56563E+08         0.00000E+00
    0.00000E+00         0.00000E+00         0.30444E-07
 
    0.49349E+05         0.75280E+06         0.00000E+00
    0.75280E+06        -0.56781E+08         0.00000E+00
    0.00000E+00         0.00000E+00         0.00000E+00
 
    0.20323E+05         0.74837E+06         0.00000E+00
    0.74837E+06        -0.57001E+08         0.00000E+00
    0.00000E+00         0.00000E+00        -0.25370E-07
 
   -0.11889E+05         0.74197E+06         0.00000E+00
    0.74197E+06        -0.57225E+08         0.00000E+00
    0.00000E+00         0.00000E+00        -0.30444E-07
 
   -0.47600E+05         0.73337E+06         0.00000E+00
    0.73337E+06        -0.57452E+08         0.00000E+00
    0.00000E+00         0.00000E+00        -0.50741E-08
 
   -0.87147E+05         0.72231E+06         0.00000E+00
    0.72231E+06        -0.57682E+08         0.00000E+00
    0.00000E+00         0.00000E+00        -0.20296E-07
 
   -0.13089E+06         0.70850E+06         0.00000E+00
    0.70850E+06        -0.57915E+08         0.00000E+00
    0.00000E+00         0.00000E+00         0.91333E-07
 
   -0.17923E+06         0.69163E+06         0.00000E+00
    0.69163E+06        -0.58152E+08         0.00000E+00
    0.00000E+00         0.00000E+00         0.20296E-07
 
   -0.23257E+06         0.67138E+06         0.00000E+00
    0.67138E+06        -0.58391E+08         0.00000E+00
    0.00000E+00         0.00000E+00        -0.30444E-07
 
   -0.29135E+06         0.64740E+06         0.00000E+00
    0.64740E+06        -0.58633E+08         0.00000E+00
    0.00000E+00         0.00000E+00        -0.30444E-07
 
   -0.35601E+06         0.61934E+06         0.00000E+00
    0.61934E+06        -0.58878E+08         0.00000E+00
    0.00000E+00         0.00000E+00        -0.13700E-06
 
   -0.42703E+06         0.58688E+06         0.00000E+00
    0.58688E+06        -0.59125E+08         0.00000E+00
    0.00000E+00         0.00000E+00         0.50741E-08
 
   -0.50485E+06         0.54971E+06         0.00000E+00
    0.54971E+06        -0.59376E+08         0.00000E+00
    0.00000E+00         0.00000E+00         0.35518E-07
 
   -0.58994E+06         0.50759E+06         0.00000E+00
    0.50759E+06        -0.59628E+08         0.00000E+00
    0.00000E+00         0.00000E+00        -0.10148E-07
 
   -0.68274E+06         0.46041E+06         0.00000E+00
    0.46041E+06        -0.59883E+08         0.00000E+00
    0.00000E+00         0.00000E+00        -0.25370E-07
 
   -0.78365E+06         0.40822E+06         0.00000E+00
    0.40822E+06        -0.60138E+08         0.00000E+00
    0.00000E+00         0.00000E+00        -0.10148E-07
 
   -0.89302E+06         0.35134E+06         0.00000E+00
    0.35134E+06        -0.60394E+08         0.00000E+00
    0.00000E+00         0.00000E+00        -0.35518E-07
 
   -0.10111E+07         0.29049E+06         0.00000E+00
    0.29049E+06        -0.60649E+08         0.00000E+00
    0.00000E+00         0.00000E+00        -0.30444E-07
 
   -0.11382E+07         0.22692E+06         0.00000E+00
    0.22692E+06        -0.60902E+08         0.00000E+00
    0.00000E+00         0.00000E+00        -0.15222E-07
 
   -0.12742E+07         0.16269E+06         0.00000E+00
    0.16269E+06        -0.61150E+08         0.00000E+00
    0.00000E+00         0.00000E+00         0.81185E-07
 
   -0.14192E+07         0.10084E+06         0.00000E+00
    0.10084E+06        -0.61390E+08         0.00000E+00
    0.00000E+00         0.00000E+00        -0.15222E-07
 
   -0.15734E+07         0.45720E+05         0.00000E+00
    0.45720E+05        -0.61618E+08         0.00000E+00
    0.00000E+00         0.00000E+00        -0.71037E-07
 
   -0.17376E+07         0.28763E+04         0.00000E+00
    0.28763E+04        -0.61827E+08         0.00000E+00
    0.00000E+00         0.00000E+00         0.20296E-07
 
   -0.19141E+07        -0.21945E+05         0.00000E+00
   -0.21945E+05        -0.62005E+08         0.00000E+00
    0.00000E+00         0.00000E+00        -0.55815E-07
 
   -0.21081E+07        -0.25526E+05         0.00000E+00
   -0.25526E+05        -0.62139E+08         0.00000E+00
    0.00000E+00         0.00000E+00        -0.25370E-07
 
   -0.23265E+07        -0.10947E+05         0.00000E+00
   -0.10947E+05        -0.62211E+08         0.00000E+00
    0.00000E+00         0.00000E+00        -0.35519E-07
 
    0.73280E+06        -0.16459E+04         0.00000E+00
   -0.16459E+04        -0.47697E+08         0.00000E+00
    0.00000E+00         0.00000E+00        -0.11369E-12
 
    0.67300E+06        -0.27779E+04         0.00000E+00
   -0.27779E+04        -0.47718E+08         0.00000E+00
    0.00000E+00         0.00000E+00        -0.40593E-07
 
    0.62061E+06         0.14884E+04         0.00000E+00
    0.14884E+04        -0.47756E+08         0.00000E+00
    0.00000E+00         0.00000E+00         0.10148E-07
 
    0.57353E+06         0.11990E+05         0.00000E+00
    0.11990E+05        -0.47807E+08         0.00000E+00
    0.00000E+00         0.00000E+00         0.10148E-07
 
    0.53031E+06         0.27682E+05         0.00000E+00
    0.27682E+05        -0.47865E+08         0.00000E+00
    0.00000E+00         0.00000E+00         0.20296E-07
 
    0.49034E+06         0.46856E+05         0.00000E+00
    0.46856E+05        -0.47929E+08         0.00000E+00
    0.00000E+00         0.00000E+00        -0.15222E-07
 
    0.45344E+06         0.67934E+05         0.00000E+00
    0.67934E+05        -0.47996E+08         0.00000E+00
    0.00000E+00         0.00000E+00        -0.35518E-07
 
    0.41961E+06         0.89725E+05         0.00000E+00
    0.89725E+05        -0.48066E+08         0.00000E+00
    0.00000E+00         0.00000E+00        -0.10148E-07
 
    0.38884E+06         0.11141E+06         0.00000E+00
    0.11141E+06        -0.48137E+08         0.00000E+00
    0.00000E+00         0.00000E+00        -0.10148E-07
 
    0.36107E+06         0.13245E+06         0.00000E+00
    0.13245E+06        -0.48210E+08         0.00000E+00
    0.00000E+00         0.00000E+00        -0.40593E-07
 
    0.33620E+06         0.15254E+06         0.00000E+00
    0.15254E+06        -0.48283E+08         0.00000E+00
    0.00000E+00         0.00000E+00        -0.10148E-07
 
    0.31409E+06         0.17150E+06         0.00000E+00
    0.17150E+06        -0.48357E+08         0.00000E+00
    0.00000E+00         0.00000E+00         0.00000E+00
 
    0.29461E+06         0.18926E+06         0.00000E+00
    0.18926E+06        -0.48431E+08         0.00000E+00
    0.00000E+00         0.00000E+00        -0.50741E-08
 
    0.27756E+06         0.20583E+06         0.00000E+00
    0.20583E+06        -0.48507E+08         0.00000E+00
    0.00000E+00         0.00000E+00         0.20296E-07
 
    0.26279E+06         0.22126E+06         0.00000E+00
    0.22126E+06        -0.48582E+08         0.00000E+00
    0.00000E+00         0.00000E+00         0.10148E-07
 
    0.25010E+06         0.23563E+06         0.00000E+00
    0.23563E+06        -0.48659E+08         0.00000E+00
    0.00000E+00         0.00000E+00         0.50741E-08
 
    0.23933E+06         0.24903E+06         0.00000E+00
    0.24903E+06        -0.48736E+08         0.00000E+00
    0.00000E+00         0.00000E+00         0.10148E-07
 
    0.23030E+06         0.26157E+06         0.00000E+00
    0.26157E+06        -0.48813E+08         0.00000E+00
    0.00000E+00         0.00000E+00        -0.25370E-07
 
    0.22286E+06         0.27335E+06         0.00000E+00
    0.27335E+06        -0.48892E+08         0.00000E+00
    0.00000E+00         0.00000E+00        -0.15222E-07
 
    0.21684E+06         0.28447E+06         0.00000E+00
    0.28447E+06        -0.48971E+08         0.00000E+00
    0.00000E+00         0.00000E+00         0.10148E-07
 
    0.21211E+06         0.29502E+06         0.00000E+00
    0.29502E+06        -0.49051E+08         0.00000E+00
    0.00000E+00         0.00000E+00        -0.30444E-07
 
    0.20853E+06         0.30508E+06         0.00000E+00
    0.30508E+06        -0.49133E+08         0.00000E+00
    0.00000E+00         0.00000E+00         0.40593E-07
 
    0.20597E+06         0.31474E+06         0.00000E+00
    0.31474E+06        -0.49215E+08         0.00000E+00
    0.00000E+00         0.00000E+00        -0.30444E-07
 
    0.20432E+06         0.32408E+06         0.00000E+00
    0.32408E+06        -0.49299E+08         0.00000E+00
    0.00000E+00         0.00000E+00        -0.20296E-07
 
    0.20347E+06         0.33314E+06         0.00000E+00
    0.33314E+06        -0.49384E+08         0.00000E+00
    0.00000E+00         0.00000E+00        -0.20296E-07
 
    0.20333E+06         0.34199E+06         0.00000E+00
    0.34199E+06        -0.49470E+08         0.00000E+00
    0.00000E+00         0.00000E+00         0.00000E+00
 
    0.20380E+06         0.35067E+06         0.00000E+00
    0.35067E+06        -0.49558E+08         0.00000E+00
    0.00000E+00         0.00000E+00         0.20296E-07
 
    0.20482E+06         0.35923E+06         0.00000E+00
    0.35923E+06        -0.49647E+08         0.00000E+00
    0.00000E+00         0.00000E+00         0.15222E-07
 
    0.20630E+06         0.36771E+06         0.00000E+00
    0.36771E+06        -0.49738E+08         0.00000E+00
    0.00000E+00         0.00000E+00        -0.20296E-07
 
    0.20819E+06         0.37614E+06         0.00000E+00
    0.37614E+06        -0.49830E+08         0.00000E+00
    0.00000E+00         0.00000E+00        -0.20296E-07
 
    0.21041E+06         0.38454E+06         0.00000E+00
    0.38454E+06        -0.49924E+08         0.00000E+00
    0.00000E+00         0.00000E+00         0.35518E-07
 
    0.21293E+06         0.39293E+06         0.00000E+00
    0.39293E+06        -0.50021E+08         0.00000E+00
    0.00000E+00         0.00000E+00        -0.40593E-07
 
    0.21567E+06         0.40134E+06         0.00000E+00
    0.40134E+06        -0.50118E+08         0.00000E+00
    0.00000E+00         0.00000E+00         0.30444E-07
 
    0.21861E+06         0.40979E+06         0.00000E+00
    0.40979E+06        -0.50218E+08         0.00000E+00
    0.00000E+00         0.00000E+00        -0.30444E-07
 
    0.22170E+06         0.41828E+06         0.00000E+00
    0.41828E+06        -0.50320E+08         0.00000E+00
    0.00000E+00         0.00000E+00         0.50741E-08
 
    0.22490E+06         0.42682E+06         0.00000E+00
    0.42682E+06        -0.50424E+08         0.00000E+00
    0.00000E+00         0.00000E+00        -0.40593E-07
 
    0.22817E+06         0.43543E+06         0.00000E+00
    0.43543E+06        -0.50530E+08         0.00000E+00
    0.00000E+00         0.00000E+00         0.50741E-07
 
    0.23149E+06         0.44411E+06         0.00000E+00
    0.44411E+06        -0.50638E+08         0.00000E+00
    0.00000E+00         0.00000E+00         0.50741E-08
 
    0.23482E+06         0.45287E+06         0.00000E+00
    0.45287E+06        -0.50749E+08         0.00000E+00
    0.00000E+00         0.00000E+00        -0.65962E-07
 
    0.23813E+06         0.46170E+06         0.00000E+00
    0.46170E+06        -0.50862E+08         0.00000E+00
    0.00000E+00         0.00000E+00         0.20296E-07
 
    0.24139E+06         0.47061E+06         0.00000E+00
    0.47061E+06        -0.50977E+08         0.00000E+00
    0.00000E+00         0.00000E+00         0.40593E-07
 
    0.24457E+06         0.47960E+06         0.00000E+00
    0.47960E+06        -0.51094E+08         0.00000E+00
    0.00000E+00         0.00000E+00        -0.10148E-07
 
    0.24766E+06         0.48866E+06         0.00000E+00
    0.48866E+06        -0.51214E+08         0.00000E+00
    0.00000E+00         0.00000E+00         0.20296E-07
 
    0.25062E+06         0.49780E+06         0.00000E+00
    0.49780E+06        -0.51336E+08         0.00000E+00
    0.00000E+00         0.00000E+00         0.60889E-07
 
    0.25343E+06         0.50700E+06         0.00000E+00
    0.50700E+06        -0.51461E+08         0.00000E+00
    0.00000E+00         0.00000E+00        -0.40593E-07
 
    0.25606E+06         0.51625E+06         0.00000E+00
    0.51625E+06        -0.51589E+08         0.00000E+00
    0.00000E+00         0.00000E+00        -0.30444E-07
 
    0.25849E+06         0.52557E+06         0.00000E+00
    0.52557E+06        -0.51719E+08         0.00000E+00
    0.00000E+00         0.00000E+00        -0.25370E-07
 
    0.26069E+06         0.53492E+06         0.00000E+00
    0.53492E+06        -0.51852E+08         0.00000E+00
    0.00000E+00         0.00000E+00        -0.50741E-08
 
    0.26263E+06         0.54431E+06         0.00000E+00
    0.54431E+06        -0.51988E+08         0.00000E+00
    0.00000E+00         0.00000E+00         0.35518E-07
 
    0.26429E+06         0.55371E+06         0.00000E+00
    0.55371E+06        -0.52126E+08         0.00000E+00
    0.00000E+00         0.00000E+00         0.20296E-07
 
    0.26565E+06         0.56313E+06         0.00000E+00
    0.56313E+06        -0.52267E+08         0.00000E+00
    0.00000E+00         0.00000E+00         0.00000E+00
 
    0.26666E+06         0.57254E+06         0.00000E+00
    0.57254E+06        -0.52412E+08         0.00000E+00
    0.00000E+00         0.00000E+00         0.25370E-07
 
    0.26730E+06         0.58193E+06         0.00000E+00
    0.58193E+06        -0.52559E+08         0.00000E+00
    0.00000E+00         0.00000E+00        -0.40592E-07
 
    0.26754E+06         0.59128E+06         0.00000E+00
    0.59128E+06        -0.52708E+08         0.00000E+00
    0.00000E+00         0.00000E+00         0.15222E-07
 
    0.26733E+06         0.60056E+06         0.00000E+00
    0.60056E+06        -0.52861E+08         0.00000E+00
    0.00000E+00         0.00000E+00        -0.50741E-08
 
    0.26666E+06         0.60977E+06         0.00000E+00
    0.60977E+06        -0.53017E+08         0.00000E+00
    0.00000E+00         0.00000E+00        -0.50741E-07
 
    0.26546E+06         0.61887E+06         0.00000E+00
    0.61887E+06        -0.53176E+08         0.00000E+00
    0.00000E+00         0.00000E+00        -0.50740E-07
 
    0.26371E+06         0.62785E+06         0.00000E+00
    0.62785E+06        -0.53338E+08         0.00000E+00
    0.00000E+00         0.00000E+00         0.10148E-07
 
    0.26135E+06         0.63666E+06         0.00000E+00
    0.63666E+06        -0.53503E+08         0.00000E+00
    0.00000E+00         0.00000E+00         0.00000E+00
 
    0.25834E+06         0.64529E+06         0.00000E+00
    0.64529E+06        -0.53671E+08         0.00000E+00
    0.00000E+00         0.00000E+00         0.35518E-07
 
    0.25461E+06         0.65369E+06         0.00000E+00
    0.65369E+06        -0.53842E+08         0.00000E+00
    0.00000E+00         0.00000E+00         0.50741E-08
 
    0.25011E+06         0.66184E+06         0.00000E+00
    0.66184E+06        -0.54016E+08         0.00000E+00
    0.00000E+00         0.00000E+00        -0.15222E-07
 
    0.24477E+06         0.66968E+06         0.00000E+00
    0.66968E+06        -0.54193E+08         0.00000E+00
    0.00000E+00         0.00000E+00         0.00000E+00
 
    0.23852E+06         0.67718E+06         0.00000E+00
    0.67718E+06        -0.54373E+08         0.00000E+00
    0.00000E+00         0.00000E+00         0.50741E-08
 
    0.23128E+06         0.68429E+06         0.00000E+00
    0.68429E+06        -0.54557E+08         0.00000E+00
    0.00000E+00         0.00000E+00         0.50741E-08
 
    0.22296E+06         0.69094E+06         0.00000E+00
    0.69094E+06        -0.54743E+08         0.00000E+00
    0.00000E+00         0.00000E+00        -0.55815E-07
 
    0.21346E+06         0.69709E+06         0.00000E+00
    0.69709E+06        -0.54933E+08         0.00000E+00
    0.00000E+00         0.00000E+00        -0.55815E-07
 
    0.20267E+06         0.70266E+06         0.00000E+00
    0.70266E+06        -0.55126E+08         0.00000E+00
    0.00000E+00         0.00000E+00         0.50741E-08
 
    0.19047E+06         0.70758E+06         0.00000E+00
    0.70758E+06        -0.55322E+08         0.00000E+00
    0.00000E+00         0.00000E+00        -0.30444E-07
 
    0.17674E+06         0.71176E+06         0.00000E+00
    0.71176E+06        -0.55521E+08         0.00000E+00
    0.00000E+00         0.00000E+00         0.30444E-07
 
    0.16132E+06         0.71511E+06         0.00000E+00
    0.71511E+06        -0.55723E+08         0.00000E+00
    0.00000E+00         0.00000E+00         0.20296E-07
 
    0.14404E+06         0.71753E+06         0.00000E+00
    0.71753E+06        -0.55928E+08         0.00000E+00
    0.00000E+00         0.00000E+00        -0.25370E-07
 
    0.12473E+06         0.71889E+06         0.00000E+00
    0.71889E+06        -0.56137E+08         0.00000E+00
    0.00000E+00         0.00000E+00        -0.30444E-07
 
    0.10319E+06         0.71907E+06         0.00000E+00
    0.71907E+06        -0.56348E+08         0.00000E+00
    0.00000E+00         0.00000E+00        -0.60889E-07
 
    0.79187E+05         0.71792E+06         0.00000E+00
    0.71792E+06        -0.56562E+08         0.00000E+00
    0.00000E+00         0.00000E+00        -0.20296E-07
 
    0.52479E+05         0.71527E+06         0.00000E+00
    0.71527E+06        -0.56780E+08         0.00000E+00
    0.00000E+00         0.00000E+00        -0.91333E-07
 
    0.22794E+05         0.71094E+06         0.00000E+00
    0.71094E+06        -0.57000E+08         0.00000E+00
    0.00000E+00         0.00000E+00         0.50741E-08
 
   -0.10163E+05         0.70471E+06         0.00000E+00
    0.70471E+06        -0.57224E+08         0.00000E+00
    0.00000E+00         0.00000E+00        -0.10148E-07
 
   -0.46720E+05         0.69637E+06         0.00000E+00
    0.69637E+06        -0.57450E+08         0.00000E+00
    0.00000E+00         0.00000E+00         0.00000E+00
 
   -0.87231E+05         0.68565E+06         0.00000E+00
    0.68565E+06        -0.57680E+08         0.00000E+00
    0.00000E+00         0.00000E+00        -0.10148E-07
 
   -0.13208E+06         0.67228E+06         0.00000E+00
    0.67228E+06        -0.57912E+08         0.00000E+00
    0.00000E+00         0.00000E+00         0.00000E+00
 
   -0.18167E+06         0.65595E+06         0.00000E+00
    0.65595E+06        -0.58148E+08         0.00000E+00
    0.00000E+00         0.00000E+00        -0.60889E-07
 
   -0.23645E+06         0.63635E+06         0.00000E+00
    0.63635E+06        -0.58386E+08         0.00000E+00
    0.00000E+00         0.00000E+00        -0.50741E-07
 
   -0.29689E+06         0.61312E+06         0.00000E+00
    0.61312E+06        -0.58628E+08         0.00000E+00
    0.00000E+00         0.00000E+00        -0.40593E-07
 
   -0.36346E+06         0.58595E+06         0.00000E+00
    0.58595E+06        -0.58872E+08         0.00000E+00
    0.00000E+00         0.00000E+00        -0.81185E-07
 
   -0.43666E+06         0.55448E+06         0.00000E+00
    0.55448E+06        -0.59119E+08         0.00000E+00
    0.00000E+00         0.00000E+00         0.50741E-08
 
   -0.51699E+06         0.51842E+06         0.00000E+00
    0.51842E+06        -0.59368E+08         0.00000E+00
    0.00000E+00         0.00000E+00        -0.60889E-07
 
   -0.60497E+06         0.47754E+06         0.00000E+00
    0.47754E+06        -0.59619E+08         0.00000E+00
    0.00000E+00         0.00000E+00         0.65963E-07
 
   -0.70106E+06         0.43170E+06         0.00000E+00
    0.43170E+06        -0.59873E+08         0.00000E+00
    0.00000E+00         0.00000E+00         0.00000E+00
 
   -0.80570E+06         0.38096E+06         0.00000E+00
    0.38096E+06        -0.60127E+08         0.00000E+00
    0.00000E+00         0.00000E+00        -0.91333E-07
 
   -0.91928E+06         0.32562E+06         0.00000E+00
    0.32562E+06        -0.60382E+08         0.00000E+00
    0.00000E+00         0.00000E+00        -0.55815E-07
 
   -0.10421E+07         0.26638E+06         0.00000E+00
    0.26638E+06        -0.60637E+08         0.00000E+00
    0.00000E+00         0.00000E+00        -0.10148E-07
 
   -0.11742E+07         0.20448E+06         0.00000E+00
    0.20448E+06        -0.60889E+08         0.00000E+00
    0.00000E+00         0.00000E+00         0.60888E-07
 
   -0.13156E+07         0.14192E+06         0.00000E+00
    0.14192E+06        -0.61138E+08         0.00000E+00
    0.00000E+00         0.00000E+00         0.65963E-07
 
   -0.14662E+07         0.81747E+05         0.00000E+00
    0.81747E+05        -0.61379E+08         0.00000E+00
    0.00000E+00         0.00000E+00        -0.20296E-07
 
   -0.16256E+07         0.28346E+05         0.00000E+00
    0.28346E+05        -0.61609E+08         0.00000E+00
    0.00000E+00         0.00000E+00        -0.30444E-07
 
   -0.17942E+07        -0.12529E+05         0.00000E+00
   -0.12529E+05        -0.61820E+08         0.00000E+00
    0.00000E+00         0.00000E+00        -0.10148E-07
 
   -0.19739E+07        -0.34652E+05         0.00000E+00
   -0.34652E+05        -0.62003E+08         0.00000E+00
    0.00000E+00         0.00000E+00         0.00000E+00
 
   -0.21696E+07        -0.34193E+05         0.00000E+00
   -0.34193E+05        -0.62141E+08         0.00000E+00
    0.00000E+00         0.00000E+00        -0.15222E-06
 
   -0.23885E+07        -0.14065E+05         0.00000E+00
   -0.14065E+05        -0.62216E+08         0.00000E+00
    0.00000E+00         0.00000E+00         0.10148E-07
 
    0.75177E+06        -0.25850E+04         0.00000E+00
   -0.25850E+04        -0.47696E+08         0.00000E+00
    0.00000E+00         0.00000E+00         0.10148E-07
 
    0.69181E+06        -0.53807E+04         0.00000E+00
   -0.53807E+04        -0.47718E+08         0.00000E+00
    0.00000E+00         0.00000E+00        -0.50741E-08
 
    0.63896E+06        -0.23236E+04         0.00000E+00
   -0.23236E+04        -0.47757E+08         0.00000E+00
    0.00000E+00         0.00000E+00         0.10148E-07
 
    0.59101E+06         0.73438E+04         0.00000E+00
    0.73438E+04        -0.47809E+08         0.00000E+00
    0.00000E+00         0.00000E+00        -0.35518E-07
 
    0.54659E+06         0.22372E+05         0.00000E+00
    0.22372E+05        -0.47869E+08         0.00000E+00
    0.00000E+00         0.00000E+00         0.15222E-07
 
    0.50522E+06         0.40911E+05         0.00000E+00
    0.40911E+05        -0.47933E+08         0.00000E+00
    0.00000E+00         0.00000E+00         0.25370E-07
 
    0.46690E+06         0.61332E+05         0.00000E+00
    0.61332E+05        -0.48001E+08         0.00000E+00
    0.00000E+00         0.00000E+00         0.76111E-07
 
    0.43170E+06         0.82443E+05         0.00000E+00
    0.82443E+05        -0.48070E+08         0.00000E+00
    0.00000E+00         0.00000E+00         0.65963E-07
 
    0.39968E+06         0.10343E+06         0.00000E+00
    0.10343E+06        -0.48141E+08         0.00000E+00
    0.00000E+00         0.00000E+00         0.00000E+00
 
    0.37079E+06         0.12378E+06         0.00000E+00
    0.12378E+06        -0.48214E+08         0.00000E+00
    0.00000E+00         0.00000E+00         0.00000E+00
 
    0.34496E+06         0.14318E+06         0.00000E+00
    0.14318E+06        -0.48287E+08         0.00000E+00
    0.00000E+00         0.00000E+00        -0.50741E-08
 
    0.32203E+06         0.16147E+06         0.00000E+00
    0.16147E+06        -0.48360E+08         0.00000E+00
    0.00000E+00         0.00000E+00        -0.55815E-07
 
    0.30185E+06         0.17858E+06         0.00000E+00
    0.17858E+06        -0.48435E+08         0.00000E+00
    0.00000E+00         0.00000E+00        -0.20296E-07
 
    0.28424E+06         0.19452E+06         0.00000E+00
    0.19452E+06        -0.48510E+08         0.00000E+00
    0.00000E+00         0.00000E+00         0.50741E-07
 
    0.26899E+06         0.20934E+06         0.00000E+00
    0.20934E+06        -0.48585E+08         0.00000E+00
    0.00000E+00         0.00000E+00         0.15222E-07
 
    0.25594E+06         0.22313E+06         0.00000E+00
    0.22313E+06        -0.48661E+08         0.00000E+00
    0.00000E+00         0.00000E+00         0.96407E-07
 
    0.24487E+06         0.23598E+06         0.00000E+00
    0.23598E+06        -0.48738E+08         0.00000E+00
    0.00000E+00         0.00000E+00         0.25370E-07
 
    0.23562E+06         0.24798E+06         0.00000E+00
    0.24798E+06        -0.48816E+08         0.00000E+00
    0.00000E+00         0.00000E+00        -0.10148E-07
 
    0.22802E+06         0.25924E+06         0.00000E+00
    0.25924E+06        -0.48894E+08         0.00000E+00
    0.00000E+00         0.00000E+00        -0.15222E-07
 
    0.22188E+06         0.26985E+06         0.00000E+00
    0.26985E+06        -0.48973E+08         0.00000E+00
    0.00000E+00         0.00000E+00        -0.10148E-07
 
    0.21708E+06         0.27991E+06         0.00000E+00
    0.27991E+06        -0.49053E+08         0.00000E+00
    0.00000E+00         0.00000E+00        -0.55815E-07
 
    0.21345E+06         0.28950E+06         0.00000E+00
    0.28950E+06        -0.49135E+08         0.00000E+00
    0.00000E+00         0.00000E+00         0.00000E+00
 
    0.21088E+06         0.29871E+06         0.00000E+00
    0.29871E+06        -0.49217E+08         0.00000E+00
    0.00000E+00         0.00000E+00         0.25370E-07
 
    0.20924E+06         0.30759E+06         0.00000E+00
    0.30759E+06        -0.49300E+08         0.00000E+00
    0.00000E+00         0.00000E+00         0.15222E-07
 
    0.20843E+06         0.31621E+06         0.00000E+00
    0.31621E+06        -0.49385E+08         0.00000E+00
    0.00000E+00         0.00000E+00        -0.35518E-07
 
    0.20833E+06         0.32462E+06         0.00000E+00
    0.32462E+06        -0.49472E+08         0.00000E+00
    0.00000E+00         0.00000E+00        -0.10148E-07
 
    0.20887E+06         0.33287E+06         0.00000E+00
    0.33287E+06        -0.49559E+08         0.00000E+00
    0.00000E+00         0.00000E+00         0.45667E-07
 
    0.20996E+06         0.34100E+06         0.00000E+00
    0.34100E+06        -0.49649E+08         0.00000E+00
    0.00000E+00         0.00000E+00         0.45667E-07
 
    0.21153E+06         0.34906E+06         0.00000E+00
    0.34906E+06        -0.49739E+08         0.00000E+00
    0.00000E+00         0.00000E+00        -0.15222E-07
 
    0.21350E+06         0.35705E+06         0.00000E+00
    0.35705E+06        -0.49832E+08         0.00000E+00
    0.00000E+00         0.00000E+00        -0.15222E-07
 
    0.21582E+06         0.36503E+06         0.00000E+00
    0.36503E+06        -0.49926E+08         0.00000E+00
    0.00000E+00         0.00000E+00        -0.55815E-07
 
    0.21843E+06         0.37299E+06         0.00000E+00
    0.37299E+06        -0.50022E+08         0.00000E+00
    0.00000E+00         0.00000E+00         0.10148E-06
 
    0.22129E+06         0.38098E+06         0.00000E+00
    0.38098E+06        -0.50120E+08         0.00000E+00
    0.00000E+00         0.00000E+00        -0.71037E-07
 
    0.22433E+06         0.38899E+06         0.00000E+00
    0.38899E+06        -0.50220E+08         0.00000E+00
    0.00000E+00         0.00000E+00        -0.20296E-07
 
    0.22753E+06         0.39704E+06         0.00000E+00
    0.39704E+06        -0.50322E+08         0.00000E+00
    0.00000E+00         0.00000E+00        -0.45667E-07
 
    0.23084E+06         0.40515E+06         0.00000E+00
    0.40515E+06        -0.50426E+08         0.00000E+00
    0.00000E+00         0.00000E+00         0.25370E-07
 
    0.23422E+06         0.41331E+06         0.00000E+00
    0.41331E+06        -0.50532E+08         0.00000E+00
    0.00000E+00         0.00000E+00        -0.10148E-07
 
    0.23765E+06         0.42155E+06         0.00000E+00
    0.42155E+06        -0.50640E+08         0.00000E+00
    0.00000E+00         0.00000E+00        -0.10148E-07
 
    0.24108E+06         0.42985E+06         0.00000E+00
    0.42985E+06        -0.50750E+08         0.00000E+00
    0.00000E+00         0.00000E+00        -0.50741E-08
 
    0.24449E+06         0.43823E+06         0.00000E+00
    0.43823E+06        -0.50863E+08         0.00000E+00
    0.00000E+00         0.00000E+00        -0.65963E-07
 
    0.24786E+06         0.44667E+06         0.00000E+00
    0.44667E+06        -0.50978E+08         0.00000E+00
    0.00000E+00         0.00000E+00         0.10148E-07
 
    0.25115E+06         0.45520E+06         0.00000E+00
    0.45520E+06        -0.51096E+08         0.00000E+00
    0.00000E+00         0.00000E+00         0.55815E-07
 
    0.25433E+06         0.46379E+06         0.00000E+00
    0.46379E+06        -0.51216E+08         0.00000E+00
    0.00000E+00         0.00000E+00         0.40593E-07
 
    0.25739E+06         0.47244E+06         0.00000E+00
    0.47244E+06        -0.51338E+08         0.00000E+00
    0.00000E+00         0.00000E+00         0.30444E-07
 
    0.26029E+06         0.48116E+06         0.00000E+00
    0.48116E+06        -0.51463E+08         0.00000E+00
    0.00000E+00         0.00000E+00         0.20296E-07
 
    0.26300E+06         0.48994E+06         0.00000E+00
    0.48994E+06        -0.51591E+08         0.00000E+00
    0.00000E+00         0.00000E+00        -0.45667E-07
 
    0.26551E+06         0.49877E+06         0.00000E+00
    0.49877E+06        -0.51721E+08         0.00000E+00
    0.00000E+00         0.00000E+00        -0.10148E-07
 
    0.26779E+06         0.50763E+06         0.00000E+00
    0.50763E+06        -0.51854E+08         0.00000E+00
    0.00000E+00         0.00000E+00        -0.15222E-07
 
    0.26980E+06         0.51653E+06         0.00000E+00
    0.51653E+06        -0.51990E+08         0.00000E+00
    0.00000E+00         0.00000E+00         0.60889E-07
 
    0.27152E+06         0.52544E+06         0.00000E+00
    0.52544E+06        -0.52128E+08         0.00000E+00
    0.00000E+00         0.00000E+00         0.50741E-07
 
    0.27293E+06         0.53436E+06         0.00000E+00
    0.53436E+06        -0.52269E+08         0.00000E+00
    0.00000E+00         0.00000E+00        -0.15222E-07
 
    0.27399E+06         0.54328E+06         0.00000E+00
    0.54328E+06        -0.52413E+08         0.00000E+00
    0.00000E+00         0.00000E+00        -0.25370E-07
 
    0.27467E+06         0.55217E+06         0.00000E+00
    0.55217E+06        -0.52560E+08         0.00000E+00
    0.00000E+00         0.00000E+00         0.30444E-07
 
    0.27493E+06         0.56102E+06         0.00000E+00
    0.56102E+06        -0.52710E+08         0.00000E+00
    0.00000E+00         0.00000E+00         0.35518E-07
 
    0.27475E+06         0.56982E+06         0.00000E+00
    0.56982E+06        -0.52863E+08         0.00000E+00
    0.00000E+00         0.00000E+00         0.00000E+00
 
    0.27408E+06         0.57854E+06         0.00000E+00
    0.57854E+06        -0.53019E+08         0.00000E+00
    0.00000E+00         0.00000E+00        -0.12178E-06
 
    0.27288E+06         0.58716E+06         0.00000E+00
    0.58716E+06        -0.53178E+08         0.00000E+00
    0.00000E+00         0.00000E+00        -0.50741E-08
 
    0.27111E+06         0.59565E+06         0.00000E+00
    0.59565E+06        -0.53339E+08         0.00000E+00
    0.00000E+00         0.00000E+00         0.65963E-07
 
    0.26872E+06         0.60399E+06         0.00000E+00
    0.60399E+06        -0.53504E+08         0.00000E+00
    0.00000E+00         0.00000E+00        -0.30444E-07
 
    0.26566E+06         0.61216E+06         0.00000E+00
    0.61216E+06        -0.53672E+08         0.00000E+00
    0.00000E+00         0.00000E+00         0.00000E+00
 
    0.26187E+06         0.62011E+06         0.00000E+00
    0.62011E+06        -0.53843E+08         0.00000E+00
    0.00000E+00         0.00000E+00        -0.50741E-08
 
    0.25730E+06         0.62781E+06         0.00000E+00
    0.62781E+06        -0.54017E+08         0.00000E+00
    0.00000E+00         0.00000E+00        -0.50741E-08
 
    0.25187E+06         0.63523E+06         0.00000E+00
    0.63523E+06        -0.54194E+08         0.00000E+00
    0.00000E+00         0.00000E+00        -0.50741E-08
 
    0.24550E+06         0.64232E+06         0.00000E+00
    0.64232E+06        -0.54375E+08         0.00000E+00
    0.00000E+00         0.00000E+00        -0.71037E-07
 
    0.23813E+06         0.64903E+06         0.00000E+00
    0.64903E+06        -0.54558E+08         0.00000E+00
    0.00000E+00         0.00000E+00        -0.50741E-07
 
    0.22965E+06         0.65531E+06         0.00000E+00
    0.65531E+06        -0.54745E+08         0.00000E+00
    0.00000E+00         0.00000E+00         0.10148E-07
 
    0.21997E+06         0.66111E+06         0.00000E+00
    0.66111E+06        -0.54934E+08         0.00000E+00
    0.00000E+00         0.00000E+00         0.60889E-07
 
    0.20897E+06         0.66636E+06         0.00000E+00
    0.66636E+06        -0.55127E+08         0.00000E+00
    0.00000E+00         0.00000E+00         0.50741E-08
 
    0.19654E+06         0.67099E+06         0.00000E+00
    0.67099E+06        -0.55323E+08         0.00000E+00
    0.00000E+00         0.00000E+00         0.40593E-07
 
    0.18254E+06         0.67491E+06         0.00000E+00
    0.67491E+06        -0.55522E+08         0.00000E+00
    0.00000E+00         0.00000E+00         0.60889E-07
 
    0.16681E+06         0.67804E+06         0.00000E+00
    0.67804E+06        -0.55724E+08         0.00000E+00
    0.00000E+00         0.00000E+00         0.65962E-07
 
    0.14919E+06         0.68029E+06         0.00000E+00
    0.68029E+06        -0.55929E+08         0.00000E+00
    0.00000E+00         0.00000E+00        -0.50741E-08
 
    0.12950E+06         0.68152E+06         0.00000E+00
    0.68152E+06        -0.56137E+08         0.00000E+00
    0.00000E+00         0.00000E+00        -0.60889E-07
 
    0.10752E+06         0.68163E+06         0.00000E+00
    0.68163E+06        -0.56348E+08         0.00000E+00
    0.00000E+00         0.00000E+00        -0.91333E-07
 
    0.83023E+05         0.68046E+06         0.00000E+00
    0.68046E+06        -0.56562E+08         0.00000E+00
    0.00000E+00         0.00000E+00         0.30444E-07
 
    0.55759E+05         0.67785E+06         0.00000E+00
    0.67785E+06        -0.56779E+08         0.00000E+00
    0.00000E+00         0.00000E+00        -0.50741E-07
 
    0.25445E+05         0.67364E+06         0.00000E+00
    0.67364E+06        -0.56999E+08         0.00000E+00
    0.00000E+00         0.00000E+00        -0.35518E-07
 
   -0.82271E+04         0.66761E+06         0.00000E+00
    0.66761E+06        -0.57222E+08         0.00000E+00
    0.00000E+00         0.00000E+00        -0.35518E-07
 
   -0.45596E+05         0.65954E+06         0.00000E+00
    0.65954E+06        -0.57448E+08         0.00000E+00
    0.00000E+00         0.00000E+00        -0.10148E-07
 
   -0.87033E+05         0.64920E+06         0.00000E+00
    0.64920E+06        -0.57678E+08         0.00000E+00
    0.00000E+00         0.00000E+00        -0.10148E-07
 
   -0.13294E+06         0.63629E+06         0.00000E+00
    0.63629E+06        -0.57909E+08         0.00000E+00
    0.00000E+00         0.00000E+00        -0.71037E-07
 
   -0.18375E+06         0.62054E+06         0.00000E+00
    0.62054E+06        -0.58144E+08         0.00000E+00
    0.00000E+00         0.00000E+00         0.20296E-07
 
   -0.23993E+06         0.60162E+06         0.00000E+00
    0.60162E+06        -0.58382E+08         0.00000E+00
    0.00000E+00         0.00000E+00        -0.50741E-07
 
   -0.30198E+06         0.57920E+06         0.00000E+00
    0.57920E+06        -0.58623E+08         0.00000E+00
    0.00000E+00         0.00000E+00         0.45666E-07
 
   -0.37040E+06         0.55295E+06         0.00000E+00
    0.55295E+06        -0.58866E+08         0.00000E+00
    0.00000E+00         0.00000E+00        -0.35518E-07
 
   -0.44575E+06         0.52254E+06         0.00000E+00
    0.52254E+06        -0.59112E+08         0.00000E+00
    0.00000E+00         0.00000E+00        -0.10148E-07
 
   -0.52856E+06         0.48767E+06         0.00000E+00
    0.48767E+06        -0.59360E+08         0.00000E+00
    0.00000E+00         0.00000E+00         0.50741E-08
 
   -0.61939E+06         0.44809E+06         0.00000E+00
    0.44809E+06        -0.59611E+08         0.00000E+00
    0.00000E+00         0.00000E+00        -0.81185E-07
 
   -0.71874E+06         0.40369E+06         0.00000E+00
    0.40369E+06        -0.59863E+08         0.00000E+00
    0.00000E+00         0.00000E+00        -0.50741E-08
 
   -0.82711E+06         0.35449E+06         0.00000E+00
    0.35449E+06        -0.60117E+08         0.00000E+00
    0.00000E+00         0.00000E+00         0.50741E-07
 
   -0.94490E+06         0.30079E+06         0.00000E+00
    0.30079E+06        -0.60371E+08         0.00000E+00
    0.00000E+00         0.00000E+00        -0.30444E-07
 
   -0.10724E+07         0.24326E+06         0.00000E+00
    0.24326E+06        -0.60625E+08         0.00000E+00
    0.00000E+00         0.00000E+00         0.10148E-07
 
   -0.12097E+07         0.18310E+06         0.00000E+00
    0.18310E+06        -0.60877E+08         0.00000E+00
    0.00000E+00         0.00000E+00        -0.91333E-07
 
   -0.13566E+07         0.12226E+06         0.00000E+00
    0.12226E+06        -0.61125E+08         0.00000E+00
    0.00000E+00         0.00000E+00         0.40592E-07
 
   -0.15129E+07         0.63766E+05         0.00000E+00
    0.63766E+05        -0.61367E+08         0.00000E+00
    0.00000E+00         0.00000E+00        -0.10148E-07
 
   -0.16777E+07         0.11988E+05         0.00000E+00
    0.11988E+05        -0.61599E+08         0.00000E+00
    0.00000E+00         0.00000E+00        -0.20296E-07
 
   -0.18511E+07        -0.27134E+05         0.00000E+00
   -0.27134E+05        -0.61814E+08         0.00000E+00
    0.00000E+00         0.00000E+00        -0.20296E-07
 
   -0.20342E+07        -0.46870E+05         0.00000E+00
   -0.46870E+05        -0.62001E+08         0.00000E+00
    0.00000E+00         0.00000E+00         0.00000E+00
 
   -0.22317E+07        -0.42662E+05         0.00000E+00
   -0.42662E+05        -0.62143E+08         0.00000E+00
    0.00000E+00         0.00000E+00        -0.22737E-12
 
   -0.24512E+07        -0.17146E+05         0.00000E+00
   -0.17146E+05        -0.62222E+08         0.00000E+00
    0.00000E+00         0.00000E+00         0.11369E-12
 
    0.77090E+06        -0.35168E+04         0.00000E+00
   -0.35168E+04        -0.47695E+08         0.00000E+00
    0.00000E+00         0.00000E+00         0.00000E+00
 
    0.71078E+06        -0.79339E+04         0.00000E+00
   -0.79339E+04        -0.47718E+08         0.00000E+00
    0.00000E+00         0.00000E+00        -0.20296E-07
 
    0.65742E+06        -0.60018E+04         0.00000E+00
   -0.60018E+04        -0.47759E+08         0.00000E+00
    0.00000E+00         0.00000E+00        -0.45667E-07
 
    0.60853E+06         0.29180E+04         0.00000E+00
    0.29180E+04        -0.47812E+08         0.00000E+00
    0.00000E+00         0.00000E+00        -0.50741E-08
 
    0.56281E+06         0.17338E+05         0.00000E+00
    0.17338E+05        -0.47872E+08         0.00000E+00
    0.00000E+00         0.00000E+00        -0.10148E-07
 
    0.51997E+06         0.35260E+05         0.00000E+00
    0.35260E+05        -0.47937E+08         0.00000E+00
    0.00000E+00         0.00000E+00         0.10148E-07
 
    0.48016E+06         0.55018E+05         0.00000E+00
    0.55018E+05        -0.48005E+08         0.00000E+00
    0.00000E+00         0.00000E+00        -0.71037E-07
 
    0.44357E+06         0.75426E+05         0.00000E+00
    0.75426E+05        -0.48074E+08         0.00000E+00
    0.00000E+00         0.00000E+00        -0.55815E-07
 
    0.41027E+06         0.95695E+05         0.00000E+00
    0.95695E+05        -0.48145E+08         0.00000E+00
    0.00000E+00         0.00000E+00        -0.10148E-07
 
    0.38027E+06         0.11532E+06         0.00000E+00
    0.11532E+06        -0.48218E+08         0.00000E+00
    0.00000E+00         0.00000E+00        -0.10148E-07
 
    0.35347E+06         0.13400E+06         0.00000E+00
    0.13400E+06        -0.48290E+08         0.00000E+00
    0.00000E+00         0.00000E+00        -0.55815E-07
 
    0.32972E+06         0.15159E+06         0.00000E+00
    0.15159E+06        -0.48364E+08         0.00000E+00
    0.00000E+00         0.00000E+00        -0.20296E-07
 
    0.30886E+06         0.16802E+06         0.00000E+00
    0.16802E+06        -0.48438E+08         0.00000E+00
    0.00000E+00         0.00000E+00        -0.10148E-07
 
    0.29068E+06         0.18331E+06         0.00000E+00
    0.18331E+06        -0.48513E+08         0.00000E+00
    0.00000E+00         0.00000E+00         0.35518E-07
 
    0.27499E+06         0.19751E+06         0.00000E+00
    0.19751E+06        -0.48588E+08         0.00000E+00
    0.00000E+00         0.00000E+00         0.35518E-07
 
    0.26157E+06         0.21070E+06         0.00000E+00
    0.21070E+06        -0.48664E+08         0.00000E+00
    0.00000E+00         0.00000E+00        -0.15222E-07
 
    0.25023E+06         0.22297E+06         0.00000E+00
    0.22297E+06        -0.48741E+08         0.00000E+00
    0.00000E+00         0.00000E+00         0.30444E-07
 
    0.24077E+06         0.23442E+06         0.00000E+00
    0.23442E+06        -0.48818E+08         0.00000E+00
    0.00000E+00         0.00000E+00         0.40593E-07
 
    0.23300E+06         0.24515E+06         0.00000E+00
    0.24515E+06        -0.48896E+08         0.00000E+00
    0.00000E+00         0.00000E+00         0.35518E-07
 
    0.22677E+06         0.25525E+06         0.00000E+00
    0.25525E+06        -0.48975E+08         0.00000E+00
    0.00000E+00         0.00000E+00         0.35518E-07
 
    0.22189E+06         0.26482E+06         0.00000E+00
    0.26482E+06        -0.49055E+08         0.00000E+00
    0.00000E+00         0.00000E+00        -0.40593E-07
 
    0.21824E+06         0.27393E+06         0.00000E+00
    0.27393E+06        -0.49136E+08         0.00000E+00
    0.00000E+00         0.00000E+00         0.00000E+00
 
    0.21566E+06         0.28267E+06         0.00000E+00
    0.28267E+06        -0.49219E+08         0.00000E+00
    0.00000E+00         0.00000E+00         0.50741E-08
 
    0.21404E+06         0.29109E+06         0.00000E+00
    0.29109E+06        -0.49302E+08         0.00000E+00
    0.00000E+00         0.00000E+00         0.20296E-07
 
    0.21326E+06         0.29927E+06         0.00000E+00
    0.29927E+06        -0.49387E+08         0.00000E+00
    0.00000E+00         0.00000E+00         0.00000E+00
 
    0.21322E+06         0.30724E+06         0.00000E+00
    0.30724E+06        -0.49473E+08         0.00000E+00
    0.00000E+00         0.00000E+00        -0.35518E-07
 
    0.21383E+06         0.31506E+06         0.00000E+00
    0.31506E+06        -0.49561E+08         0.00000E+00
    0.00000E+00         0.00000E+00        -0.50741E-08
 
    0.21500E+06         0.32276E+06         0.00000E+00
    0.32276E+06        -0.49650E+08         0.00000E+00
    0.00000E+00         0.00000E+00        -0.50741E-08
 
    0.21665E+06         0.33038E+06         0.00000E+00
    0.33038E+06        -0.49741E+08         0.00000E+00
    0.00000E+00         0.00000E+00         0.10148E-07
 
    0.21871E+06         0.33795E+06         0.00000E+00
    0.33795E+06        -0.49833E+08         0.00000E+00
    0.00000E+00         0.00000E+00        -0.60889E-07
 
    0.22113E+06         0.34550E+06         0.00000E+00
    0.34550E+06        -0.49928E+08         0.00000E+00
    0.00000E+00         0.00000E+00         0.50741E-08
 
    0.22385E+06         0.35304E+06         0.00000E+00
    0.35304E+06        -0.50024E+08         0.00000E+00
    0.00000E+00         0.00000E+00         0.25370E-07
 
    0.22680E+06         0.36059E+06         0.00000E+00
    0.36059E+06        -0.50122E+08         0.00000E+00
    0.00000E+00         0.00000E+00         0.86259E-07
 
    0.22996E+06         0.36817E+06         0.00000E+00
    0.36817E+06        -0.50222E+08         0.00000E+00
    0.00000E+00         0.00000E+00        -0.10148E-07
 
    0.23326E+06         0.37578E+06         0.00000E+00
    0.37578E+06        -0.50323E+08         0.00000E+00
    0.00000E+00         0.00000E+00         0.81185E-07
 
    0.23668E+06         0.38345E+06         0.00000E+00
    0.38345E+06        -0.50427E+08         0.00000E+00
    0.00000E+00         0.00000E+00        -0.76111E-07
 
    0.24017E+06         0.39117E+06         0.00000E+00
    0.39117E+06        -0.50533E+08         0.00000E+00
    0.00000E+00         0.00000E+00        -0.45667E-07
 
    0.24371E+06         0.39896E+06         0.00000E+00
    0.39896E+06        -0.50642E+08         0.00000E+00
    0.00000E+00         0.00000E+00         0.00000E+00
 
    0.24725E+06         0.40681E+06         0.00000E+00
    0.40681E+06        -0.50752E+08         0.00000E+00
    0.00000E+00         0.00000E+00         0.00000E+00
 
    0.25077E+06         0.41473E+06         0.00000E+00
    0.41473E+06        -0.50865E+08         0.00000E+00
    0.00000E+00         0.00000E+00         0.10148E-07
 
    0.25424E+06         0.42272E+06         0.00000E+00
    0.42272E+06        -0.50980E+08         0.00000E+00
    0.00000E+00         0.00000E+00        -0.55815E-07
 
    0.25763E+06         0.43077E+06         0.00000E+00
    0.43077E+06        -0.51097E+08         0.00000E+00
    0.00000E+00         0.00000E+00         0.50741E-08
 
    0.26092E+06         0.43889E+06         0.00000E+00
    0.43889E+06        -0.51217E+08         0.00000E+00
    0.00000E+00         0.00000E+00         0.25370E-07
 
    0.26407E+06         0.44708E+06         0.00000E+00
    0.44708E+06        -0.51340E+08         0.00000E+00
    0.00000E+00         0.00000E+00         0.40593E-07
 
    0.26706E+06         0.45532E+06         0.00000E+00
    0.45532E+06        -0.51465E+08         0.00000E+00
    0.00000E+00         0.00000E+00         0.50741E-08
 
    0.26986E+06         0.46361E+06         0.00000E+00
    0.46361E+06        -0.51593E+08         0.00000E+00
    0.00000E+00         0.00000E+00        -0.15222E-07
 
    0.27245E+06         0.47195E+06         0.00000E+00
    0.47195E+06        -0.51723E+08         0.00000E+00
    0.00000E+00         0.00000E+00         0.10148E-07
 
    0.27480E+06         0.48033E+06         0.00000E+00
    0.48033E+06        -0.51856E+08         0.00000E+00
    0.00000E+00         0.00000E+00         0.20296E-07
 
    0.27688E+06         0.48873E+06         0.00000E+00
    0.48873E+06        -0.51991E+08         0.00000E+00
    0.00000E+00         0.00000E+00         0.35518E-07
 
    0.27867E+06         0.49715E+06         0.00000E+00
    0.49715E+06        -0.52130E+08         0.00000E+00
    0.00000E+00         0.00000E+00        -0.50741E-08
 
    0.28013E+06         0.50558E+06         0.00000E+00
    0.50558E+06        -0.52271E+08         0.00000E+00
    0.00000E+00         0.00000E+00         0.00000E+00
 
    0.28124E+06         0.51400E+06         0.00000E+00
    0.51400E+06        -0.52415E+08         0.00000E+00
    0.00000E+00         0.00000E+00         0.40593E-07
 
    0.28196E+06         0.52240E+06         0.00000E+00
    0.52240E+06        -0.52562E+08         0.00000E+00
    0.00000E+00         0.00000E+00         0.35518E-07
 
    0.28225E+06         0.53076E+06         0.00000E+00
    0.53076E+06        -0.52712E+08         0.00000E+00
    0.00000E+00         0.00000E+00        -0.25370E-07
 
    0.28209E+06         0.53907E+06         0.00000E+00
    0.53907E+06        -0.52865E+08         0.00000E+00
    0.00000E+00         0.00000E+00         0.00000E+00
 
    0.28143E+06         0.54730E+06         0.00000E+00
    0.54730E+06        -0.53021E+08         0.00000E+00
    0.00000E+00         0.00000E+00        -0.65963E-07
 
    0.28023E+06         0.55544E+06         0.00000E+00
    0.55544E+06        -0.53179E+08         0.00000E+00
    0.00000E+00         0.00000E+00        -0.50741E-08
 
    0.27844E+06         0.56346E+06         0.00000E+00
    0.56346E+06        -0.53341E+08         0.00000E+00
    0.00000E+00         0.00000E+00         0.50741E-07
 
    0.27603E+06         0.57133E+06         0.00000E+00
    0.57133E+06        -0.53506E+08         0.00000E+00
    0.00000E+00         0.00000E+00         0.60888E-07
 
    0.27293E+06         0.57903E+06         0.00000E+00
    0.57903E+06        -0.53674E+08         0.00000E+00
    0.00000E+00         0.00000E+00        -0.13193E-06
 
    0.26909E+06         0.58653E+06         0.00000E+00
    0.58653E+06        -0.53845E+08         0.00000E+00
    0.00000E+00         0.00000E+00        -0.10148E-06
 
    0.26444E+06         0.59380E+06         0.00000E+00
    0.59380E+06        -0.54019E+08         0.00000E+00
    0.00000E+00         0.00000E+00        -0.10148E-07
 
    0.25892E+06         0.60079E+06         0.00000E+00
    0.60079E+06        -0.54196E+08         0.00000E+00
    0.00000E+00         0.00000E+00         0.50741E-08
 
    0.25245E+06         0.60748E+06         0.00000E+00
    0.60748E+06        -0.54376E+08         0.00000E+00
    0.00000E+00         0.00000E+00         0.40593E-07
 
    0.24495E+06         0.61380E+06         0.00000E+00
    0.61380E+06        -0.54559E+08         0.00000E+00
    0.00000E+00         0.00000E+00        -0.15222E-07
 
    0.23632E+06         0.61972E+06         0.00000E+00
    0.61972E+06        -0.54746E+08         0.00000E+00
    0.00000E+00         0.00000E+00         0.20296E-07
 
    0.22647E+06         0.62517E+06         0.00000E+00
    0.62517E+06        -0.54935E+08         0.00000E+00
    0.00000E+00         0.00000E+00         0.71037E-07
 
    0.21528E+06         0.63011E+06         0.00000E+00
    0.63011E+06        -0.55128E+08         0.00000E+00
    0.00000E+00         0.00000E+00         0.65963E-07
 
    0.20262E+06         0.63445E+06         0.00000E+00
    0.63445E+06        -0.55324E+08         0.00000E+00
    0.00000E+00         0.00000E+00         0.50741E-08
 
    0.18837E+06         0.63812E+06         0.00000E+00
    0.63812E+06        -0.55522E+08         0.00000E+00
    0.00000E+00         0.00000E+00        -0.35518E-07
 
    0.17235E+06         0.64104E+06         0.00000E+00
    0.64104E+06        -0.55724E+08         0.00000E+00
    0.00000E+00         0.00000E+00         0.50741E-08
 
    0.15441E+06         0.64312E+06         0.00000E+00
    0.64312E+06        -0.55929E+08         0.00000E+00
    0.00000E+00         0.00000E+00         0.35518E-07
 
    0.13435E+06         0.64423E+06         0.00000E+00
    0.64423E+06        -0.56137E+08         0.00000E+00
    0.00000E+00         0.00000E+00        -0.55815E-07
 
    0.11195E+06         0.64427E+06         0.00000E+00
    0.64427E+06        -0.56348E+08         0.00000E+00
    0.00000E+00         0.00000E+00         0.15222E-07
 
    0.86988E+05         0.64310E+06         0.00000E+00
    0.64310E+06        -0.56562E+08         0.00000E+00
    0.00000E+00         0.00000E+00         0.96407E-07
 
    0.59194E+05         0.64055E+06         0.00000E+00
    0.64055E+06        -0.56778E+08         0.00000E+00
    0.00000E+00         0.00000E+00        -0.91333E-07
 
    0.28280E+05         0.63647E+06         0.00000E+00
    0.63647E+06        -0.56998E+08         0.00000E+00
    0.00000E+00         0.00000E+00        -0.15222E-07
 
   -0.60743E+04         0.63065E+06         0.00000E+00
    0.63065E+06        -0.57221E+08         0.00000E+00
    0.00000E+00         0.00000E+00        -0.50741E-07
 
   -0.44221E+05         0.62289E+06         0.00000E+00
    0.62289E+06        -0.57447E+08         0.00000E+00
    0.00000E+00         0.00000E+00         0.00000E+00
 
   -0.86547E+05         0.61293E+06         0.00000E+00
    0.61293E+06        -0.57675E+08         0.00000E+00
    0.00000E+00         0.00000E+00         0.15222E-07
 
   -0.13347E+06         0.60053E+06         0.00000E+00
    0.60053E+06        -0.57907E+08         0.00000E+00
    0.00000E+00         0.00000E+00         0.10148E-07
 
   -0.18546E+06         0.58538E+06         0.00000E+00
    0.58538E+06        -0.58141E+08         0.00000E+00
    0.00000E+00         0.00000E+00        -0.50741E-07
 
   -0.24299E+06         0.56719E+06         0.00000E+00
    0.56719E+06        -0.58378E+08         0.00000E+00
    0.00000E+00         0.00000E+00         0.00000E+00
 
   -0.30660E+06         0.54562E+06         0.00000E+00
    0.54562E+06        -0.58618E+08         0.00000E+00
    0.00000E+00         0.00000E+00        -0.50741E-07
 
   -0.37684E+06         0.52035E+06         0.00000E+00
    0.52035E+06        -0.58860E+08         0.00000E+00
    0.00000E+00         0.00000E+00         0.10148E-07
 
   -0.45428E+06         0.49106E+06         0.00000E+00
    0.49106E+06        -0.59106E+08         0.00000E+00
    0.00000E+00         0.00000E+00         0.50741E-07
 
   -0.53953E+06         0.45744E+06         0.00000E+00
    0.45744E+06        -0.59353E+08         0.00000E+00
    0.00000E+00         0.00000E+00         0.40593E-07
 
   -0.63316E+06         0.41925E+06         0.00000E+00
    0.41925E+06        -0.59603E+08         0.00000E+00
    0.00000E+00         0.00000E+00        -0.40593E-07
 
   -0.73576E+06         0.37637E+06         0.00000E+00
    0.37637E+06        -0.59854E+08         0.00000E+00
    0.00000E+00         0.00000E+00         0.71037E-07
 
   -0.84784E+06         0.32881E+06         0.00000E+00
    0.32881E+06        -0.60107E+08         0.00000E+00
    0.00000E+00         0.00000E+00        -0.40593E-07
 
   -0.96984E+06         0.27686E+06         0.00000E+00
    0.27686E+06        -0.60360E+08         0.00000E+00
    0.00000E+00         0.00000E+00        -0.30444E-07
 
   -0.11021E+07         0.22113E+06         0.00000E+00
    0.22113E+06        -0.60613E+08         0.00000E+00
    0.00000E+00         0.00000E+00         0.40593E-07
 
   -0.12446E+07         0.16280E+06         0.00000E+00
    0.16280E+06        -0.60865E+08         0.00000E+00
    0.00000E+00         0.00000E+00         0.50741E-07
 
   -0.13972E+07         0.10376E+06         0.00000E+00
    0.10376E+06        -0.61113E+08         0.00000E+00
    0.00000E+00         0.00000E+00         0.00000E+00
 
   -0.15593E+07         0.46940E+05         0.00000E+00
    0.46940E+05        -0.61356E+08         0.00000E+00
    0.00000E+00         0.00000E+00         0.20296E-07
 
   -0.17299E+07        -0.32961E+04         0.00000E+00
   -0.32961E+04        -0.61590E+08         0.00000E+00
    0.00000E+00         0.00000E+00         0.20296E-07
 
   -0.19083E+07        -0.40878E+05         0.00000E+00
   -0.40878E+05        -0.61808E+08         0.00000E+00
    0.00000E+00         0.00000E+00        -0.60889E-07
 
   -0.20951E+07        -0.58556E+05         0.00000E+00
   -0.58556E+05        -0.62000E+08         0.00000E+00
    0.00000E+00         0.00000E+00        -0.40592E-07
 
   -0.22946E+07        -0.50921E+05         0.00000E+00
   -0.50921E+05        -0.62147E+08         0.00000E+00
    0.00000E+00         0.00000E+00        -0.50740E-07
 
   -0.25148E+07        -0.20189E+05         0.00000E+00
   -0.20189E+05        -0.62229E+08         0.00000E+00
    0.00000E+00         0.00000E+00        -0.50741E-07
 
    0.79025E+06        -0.44411E+04         0.00000E+00
   -0.44411E+04        -0.47694E+08         0.00000E+00
    0.00000E+00         0.00000E+00        -0.10148E-07
 
    0.72995E+06        -0.10432E+05         0.00000E+00
   -0.10432E+05        -0.47717E+08         0.00000E+00
    0.00000E+00         0.00000E+00        -0.15222E-07
 
    0.67603E+06        -0.95310E+04         0.00000E+00
   -0.95310E+04        -0.47760E+08         0.00000E+00
    0.00000E+00         0.00000E+00         0.25370E-07
 
    0.62608E+06        -0.12673E+04         0.00000E+00
   -0.12673E+04        -0.47814E+08         0.00000E+00
    0.00000E+00         0.00000E+00        -0.55815E-07
 
    0.57895E+06         0.12596E+05         0.00000E+00
    0.12596E+05        -0.47875E+08         0.00000E+00
    0.00000E+00         0.00000E+00        -0.50741E-08
 
    0.53457E+06         0.29915E+05         0.00000E+00
    0.29915E+05        -0.47941E+08         0.00000E+00
    0.00000E+00         0.00000E+00        -0.10148E-07
 
    0.49323E+06         0.48999E+05         0.00000E+00
    0.48999E+05        -0.48009E+08         0.00000E+00
    0.00000E+00         0.00000E+00        -0.20296E-07
 
    0.45520E+06         0.68682E+05         0.00000E+00
    0.68682E+05        -0.48078E+08         0.00000E+00
    0.00000E+00         0.00000E+00         0.50741E-08
 
    0.42061E+06         0.88198E+05         0.00000E+00
    0.88198E+05        -0.48149E+08         0.00000E+00
    0.00000E+00         0.00000E+00         0.15222E-07
 
    0.38948E+06         0.10707E+06         0.00000E+00
    0.10707E+06        -0.48221E+08         0.00000E+00
    0.00000E+00         0.00000E+00        -0.15222E-07
 
    0.36171E+06         0.12500E+06         0.00000E+00
    0.12500E+06        -0.48294E+08         0.00000E+00
    0.00000E+00         0.00000E+00        -0.25370E-07
 
    0.33715E+06         0.14186E+06         0.00000E+00
    0.14186E+06        -0.48367E+08         0.00000E+00
    0.00000E+00         0.00000E+00         0.10148E-07
 
    0.31562E+06         0.15759E+06         0.00000E+00
    0.15759E+06        -0.48441E+08         0.00000E+00
    0.00000E+00         0.00000E+00         0.30444E-07
 
    0.29689E+06         0.17221E+06         0.00000E+00
    0.17221E+06        -0.48516E+08         0.00000E+00
    0.00000E+00         0.00000E+00        -0.10148E-07
 
    0.28075E+06         0.18576E+06         0.00000E+00
    0.18576E+06        -0.48591E+08         0.00000E+00
    0.00000E+00         0.00000E+00        -0.40593E-07
 
    0.26699E+06         0.19833E+06         0.00000E+00
    0.19833E+06        -0.48667E+08         0.00000E+00
    0.00000E+00         0.00000E+00        -0.25370E-07
 
    0.25538E+06         0.21001E+06         0.00000E+00
    0.21001E+06        -0.48743E+08         0.00000E+00
    0.00000E+00         0.00000E+00         0.45667E-07
 
    0.24572E+06         0.22089E+06         0.00000E+00
    0.22089E+06        -0.48820E+08         0.00000E+00
    0.00000E+00         0.00000E+00         0.00000E+00
 
    0.23782E+06         0.23108E+06         0.00000E+00
    0.23108E+06        -0.48898E+08         0.00000E+00
    0.00000E+00         0.00000E+00         0.50741E-08
 
    0.23148E+06         0.24067E+06         0.00000E+00
    0.24067E+06        -0.48977E+08         0.00000E+00
    0.00000E+00         0.00000E+00         0.10148E-07
 
    0.22656E+06         0.24973E+06         0.00000E+00
    0.24973E+06        -0.49057E+08         0.00000E+00
    0.00000E+00         0.00000E+00        -0.50741E-08
 
    0.22288E+06         0.25836E+06         0.00000E+00
    0.25836E+06        -0.49138E+08         0.00000E+00
    0.00000E+00         0.00000E+00        -0.20296E-07
 
    0.22031E+06         0.26663E+06         0.00000E+00
    0.26663E+06        -0.49220E+08         0.00000E+00
    0.00000E+00         0.00000E+00        -0.65963E-07
 
    0.21871E+06         0.27459E+06         0.00000E+00
    0.27459E+06        -0.49304E+08         0.00000E+00
    0.00000E+00         0.00000E+00         0.60889E-07
 
    0.21798E+06         0.28231E+06         0.00000E+00
    0.28231E+06        -0.49389E+08         0.00000E+00
    0.00000E+00         0.00000E+00        -0.15222E-07
 
    0.21800E+06         0.28984E+06         0.00000E+00
    0.28984E+06        -0.49475E+08         0.00000E+00
    0.00000E+00         0.00000E+00         0.35518E-07
 
    0.21868E+06         0.29723E+06         0.00000E+00
    0.29723E+06        -0.49562E+08         0.00000E+00
    0.00000E+00         0.00000E+00         0.15222E-07
 
    0.21992E+06         0.30450E+06         0.00000E+00
    0.30450E+06        -0.49652E+08         0.00000E+00
    0.00000E+00         0.00000E+00        -0.20296E-07
 
    0.22166E+06         0.31169E+06         0.00000E+00
    0.31169E+06        -0.49742E+08         0.00000E+00
    0.00000E+00         0.00000E+00        -0.40593E-07
 
    0.22382E+06         0.31883E+06         0.00000E+00
    0.31883E+06        -0.49835E+08         0.00000E+00
    0.00000E+00         0.00000E+00        -0.15222E-07
 
    0.22634E+06         0.32595E+06         0.00000E+00
    0.32595E+06        -0.49929E+08         0.00000E+00
    0.00000E+00         0.00000E+00        -0.50741E-08
 
    0.22916E+06         0.33306E+06         0.00000E+00
    0.33306E+06        -0.50025E+08         0.00000E+00
    0.00000E+00         0.00000E+00         0.11670E-06
 
    0.23222E+06         0.34018E+06         0.00000E+00
    0.34018E+06        -0.50123E+08         0.00000E+00
    0.00000E+00         0.00000E+00        -0.76111E-07
 
    0.23549E+06         0.34732E+06         0.00000E+00
    0.34732E+06        -0.50223E+08         0.00000E+00
    0.00000E+00         0.00000E+00         0.35518E-07
 
    0.23890E+06         0.35450E+06         0.00000E+00
    0.35450E+06        -0.50325E+08         0.00000E+00
    0.00000E+00         0.00000E+00         0.25370E-07
 
    0.24243E+06         0.36173E+06         0.00000E+00
    0.36173E+06        -0.50429E+08         0.00000E+00
    0.00000E+00         0.00000E+00        -0.25370E-07
 
    0.24604E+06         0.36901E+06         0.00000E+00
    0.36901E+06        -0.50535E+08         0.00000E+00
    0.00000E+00         0.00000E+00        -0.50741E-08
 
    0.24968E+06         0.37635E+06         0.00000E+00
    0.37635E+06        -0.50643E+08         0.00000E+00
    0.00000E+00         0.00000E+00         0.10148E-07
 
    0.25333E+06         0.38375E+06         0.00000E+00
    0.38375E+06        -0.50754E+08         0.00000E+00
    0.00000E+00         0.00000E+00        -0.20296E-07
 
    0.25696E+06         0.39121E+06         0.00000E+00
    0.39121E+06        -0.50866E+08         0.00000E+00
    0.00000E+00         0.00000E+00        -0.15222E-07
 
    0.26054E+06         0.39874E+06         0.00000E+00
    0.39874E+06        -0.50982E+08         0.00000E+00
    0.00000E+00         0.00000E+00        -0.13193E-06
 
    0.26403E+06         0.40633E+06         0.00000E+00
    0.40633E+06        -0.51099E+08         0.00000E+00
    0.00000E+00         0.00000E+00        -0.50741E-07
 
    0.26741E+06         0.41398E+06         0.00000E+00
    0.41398E+06        -0.51219E+08         0.00000E+00
    0.00000E+00         0.00000E+00        -0.40593E-07
 
    0.27066E+06         0.42169E+06         0.00000E+00
    0.42169E+06        -0.51341E+08         0.00000E+00
    0.00000E+00         0.00000E+00         0.30444E-07
 
    0.27374E+06         0.42945E+06         0.00000E+00
    0.42945E+06        -0.51467E+08         0.00000E+00
    0.00000E+00         0.00000E+00         0.50741E-07
 
    0.27663E+06         0.43726E+06         0.00000E+00
    0.43726E+06        -0.51594E+08         0.00000E+00
    0.00000E+00         0.00000E+00        -0.55815E-07
 
    0.27930E+06         0.44512E+06         0.00000E+00
    0.44512E+06        -0.51724E+08         0.00000E+00
    0.00000E+00         0.00000E+00        -0.50741E-08
 
    0.28173E+06         0.45301E+06         0.00000E+00
    0.45301E+06        -0.51857E+08         0.00000E+00
    0.00000E+00         0.00000E+00        -0.10148E-07
 
    0.28388E+06         0.46092E+06         0.00000E+00
    0.46092E+06        -0.51993E+08         0.00000E+00
    0.00000E+00         0.00000E+00        -0.60889E-07
 
    0.28573E+06         0.46886E+06         0.00000E+00
    0.46886E+06        -0.52131E+08         0.00000E+00
    0.00000E+00         0.00000E+00         0.65963E-07
 
    0.28725E+06         0.47679E+06         0.00000E+00
    0.47679E+06        -0.52273E+08         0.00000E+00
    0.00000E+00         0.00000E+00        -0.45667E-07
 
    0.28840E+06         0.48472E+06         0.00000E+00
    0.48472E+06        -0.52417E+08         0.00000E+00
    0.00000E+00         0.00000E+00        -0.65963E-07
 
    0.28916E+06         0.49263E+06         0.00000E+00
    0.49263E+06        -0.52564E+08         0.00000E+00
    0.00000E+00         0.00000E+00        -0.20296E-07
 
    0.28949E+06         0.50050E+06         0.00000E+00
    0.50050E+06        -0.52714E+08         0.00000E+00
    0.00000E+00         0.00000E+00        -0.81185E-07
 
    0.28935E+06         0.50832E+06         0.00000E+00
    0.50832E+06        -0.52866E+08         0.00000E+00
    0.00000E+00         0.00000E+00        -0.50741E-08
 
    0.28870E+06         0.51607E+06         0.00000E+00
    0.51607E+06        -0.53022E+08         0.00000E+00
    0.00000E+00         0.00000E+00         0.40593E-07
 
    0.28750E+06         0.52372E+06         0.00000E+00
    0.52372E+06        -0.53181E+08         0.00000E+00
    0.00000E+00         0.00000E+00        -0.45475E-12
 
    0.28571E+06         0.53127E+06         0.00000E+00
    0.53127E+06        -0.53343E+08         0.00000E+00
    0.00000E+00         0.00000E+00        -0.76111E-07
 
    0.28327E+06         0.53868E+06         0.00000E+00
    0.53868E+06        -0.53507E+08         0.00000E+00
    0.00000E+00         0.00000E+00         0.10148E-07
 
    0.28014E+06         0.54592E+06         0.00000E+00
    0.54592E+06        -0.53675E+08         0.00000E+00
    0.00000E+00         0.00000E+00         0.20296E-07
 
    0.27624E+06         0.55297E+06         0.00000E+00
    0.55297E+06        -0.53846E+08         0.00000E+00
    0.00000E+00         0.00000E+00         0.20296E-07
 
    0.27153E+06         0.55981E+06         0.00000E+00
    0.55981E+06        -0.54020E+08         0.00000E+00
    0.00000E+00         0.00000E+00         0.50741E-08
 
    0.26593E+06         0.56638E+06         0.00000E+00
    0.56638E+06        -0.54197E+08         0.00000E+00
    0.00000E+00         0.00000E+00         0.40593E-07
 
    0.25936E+06         0.57266E+06         0.00000E+00
    0.57266E+06        -0.54377E+08         0.00000E+00
    0.00000E+00         0.00000E+00        -0.35518E-07
 
    0.25174E+06         0.57860E+06         0.00000E+00
    0.57860E+06        -0.54561E+08         0.00000E+00
    0.00000E+00         0.00000E+00         0.10148E-07
 
    0.24298E+06         0.58415E+06         0.00000E+00
    0.58415E+06        -0.54747E+08         0.00000E+00
    0.00000E+00         0.00000E+00         0.20296E-07
 
    0.23296E+06         0.58927E+06         0.00000E+00
    0.58927E+06        -0.54936E+08         0.00000E+00
    0.00000E+00         0.00000E+00        -0.15222E-07
 
    0.22159E+06         0.59389E+06         0.00000E+00
    0.59389E+06        -0.55129E+08         0.00000E+00
    0.00000E+00         0.00000E+00        -0.11163E-06
 
    0.20872E+06         0.59795E+06         0.00000E+00
    0.59795E+06        -0.55324E+08         0.00000E+00
    0.00000E+00         0.00000E+00         0.50741E-08
 
    0.19422E+06         0.60138E+06         0.00000E+00
    0.60138E+06        -0.55523E+08         0.00000E+00
    0.00000E+00         0.00000E+00         0.71037E-07
 
    0.17794E+06         0.60410E+06         0.00000E+00
    0.60410E+06        -0.55724E+08         0.00000E+00
    0.00000E+00         0.00000E+00        -0.50741E-07
 
    0.15969E+06         0.60602E+06         0.00000E+00
    0.60602E+06        -0.55929E+08         0.00000E+00
    0.00000E+00         0.00000E+00         0.96407E-07
 
    0.13928E+06         0.60702E+06         0.00000E+00
    0.60702E+06        -0.56137E+08         0.00000E+00
    0.00000E+00         0.00000E+00         0.45667E-07
 
    0.11649E+06         0.60700E+06         0.00000E+00
    0.60700E+06        -0.56347E+08         0.00000E+00
    0.00000E+00         0.00000E+00         0.50741E-08
 
    0.91084E+05         0.60583E+06         0.00000E+00
    0.60583E+06        -0.56561E+08         0.00000E+00
    0.00000E+00         0.00000E+00         0.50741E-07
 
    0.62788E+05         0.60336E+06         0.00000E+00
    0.60336E+06        -0.56778E+08         0.00000E+00
    0.00000E+00         0.00000E+00        -0.40592E-07
 
    0.31304E+05         0.59943E+06         0.00000E+00
    0.59943E+06        -0.56997E+08         0.00000E+00
    0.00000E+00         0.00000E+00         0.00000E+00
 
   -0.36993E+04         0.59384E+06         0.00000E+00
    0.59384E+06        -0.57220E+08         0.00000E+00
    0.00000E+00         0.00000E+00         0.10148E-07
 
   -0.42587E+05         0.58640E+06         0.00000E+00
    0.58640E+06        -0.57445E+08         0.00000E+00
    0.00000E+00         0.00000E+00         0.10148E-07
 
   -0.85762E+05         0.57686E+06         0.00000E+00
    0.57686E+06        -0.57673E+08         0.00000E+00
    0.00000E+00         0.00000E+00         0.10148E-07
 
   -0.13367E+06         0.56498E+06         0.00000E+00
    0.56498E+06        -0.57904E+08         0.00000E+00
    0.00000E+00         0.00000E+00         0.20296E-07
 
   -0.18678E+06         0.55047E+06         0.00000E+00
    0.55047E+06        -0.58138E+08         0.00000E+00
    0.00000E+00         0.00000E+00         0.00000E+00
 
   -0.24562E+06         0.53304E+06         0.00000E+00
    0.53304E+06        -0.58374E+08         0.00000E+00
    0.00000E+00         0.00000E+00         0.20296E-07
 
   -0.31074E+06         0.51237E+06         0.00000E+00
    0.51237E+06        -0.58613E+08         0.00000E+00
    0.00000E+00         0.00000E+00        -0.30444E-07
 
   -0.38274E+06         0.48814E+06         0.00000E+00
    0.48814E+06        -0.58855E+08         0.00000E+00
    0.00000E+00         0.00000E+00        -0.10148E-07
 
   -0.46224E+06         0.46002E+06         0.00000E+00
    0.46002E+06        -0.59099E+08         0.00000E+00
    0.00000E+00         0.00000E+00        -0.71037E-07
 
   -0.54987E+06         0.42773E+06         0.00000E+00
    0.42773E+06        -0.59346E+08         0.00000E+00
    0.00000E+00         0.00000E+00         0.10148E-07
 
   -0.64627E+06         0.39101E+06         0.00000E+00
    0.39101E+06        -0.59595E+08         0.00000E+00
    0.00000E+00         0.00000E+00         0.20296E-07
 
   -0.75207E+06         0.34974E+06         0.00000E+00
    0.34974E+06        -0.59845E+08         0.00000E+00
    0.00000E+00         0.00000E+00        -0.91333E-07
 
   -0.86784E+06         0.30393E+06         0.00000E+00
    0.30393E+06        -0.60097E+08         0.00000E+00
    0.00000E+00         0.00000E+00        -0.10148E-07
 
   -0.99405E+06         0.25381E+06         0.00000E+00
    0.25381E+06        -0.60350E+08         0.00000E+00
    0.00000E+00         0.00000E+00         0.81185E-07
 
   -0.11310E+07         0.20001E+06         0.00000E+00
    0.20001E+06        -0.60602E+08         0.00000E+00
    0.00000E+00         0.00000E+00         0.91333E-07
 
   -0.12789E+07         0.14361E+06         0.00000E+00
    0.14361E+06        -0.60853E+08         0.00000E+00
    0.00000E+00         0.00000E+00         0.00000E+00
 
   -0.14372E+07         0.86429E+05         0.00000E+00
    0.86429E+05        -0.61102E+08         0.00000E+00
    0.00000E+00         0.00000E+00         0.10148E-07
 
   -0.16054E+07         0.31320E+05         0.00000E+00
    0.31320E+05        -0.61346E+08         0.00000E+00
    0.00000E+00         0.00000E+00         0.00000E+00
 
   -0.17821E+07        -0.17439E+05         0.00000E+00
   -0.17439E+05        -0.61581E+08         0.00000E+00
    0.00000E+00         0.00000E+00         0.00000E+00
 
   -0.19660E+07        -0.53687E+05         0.00000E+00
   -0.53687E+05        -0.61802E+08         0.00000E+00
    0.00000E+00         0.00000E+00        -0.60889E-07
 
   -0.21568E+07        -0.69653E+05         0.00000E+00
   -0.69653E+05        -0.61999E+08         0.00000E+00
    0.00000E+00         0.00000E+00         0.10148E-07
 
   -0.23586E+07        -0.58948E+05         0.00000E+00
   -0.58948E+05        -0.62152E+08         0.00000E+00
    0.00000E+00         0.00000E+00         0.81185E-07
 
   -0.25794E+07        -0.23194E+05         0.00000E+00
   -0.23194E+05        -0.62238E+08         0.00000E+00
    0.00000E+00         0.00000E+00        -0.40593E-07
 
    0.80988E+06        -0.53574E+04         0.00000E+00
   -0.53574E+04        -0.47692E+08         0.00000E+00
    0.00000E+00         0.00000E+00         0.00000E+00
 
    0.74937E+06        -0.12867E+05         0.00000E+00
   -0.12867E+05        -0.47717E+08         0.00000E+00
    0.00000E+00         0.00000E+00         0.25370E-07
 
    0.69480E+06        -0.12892E+05         0.00000E+00
   -0.12892E+05        -0.47761E+08         0.00000E+00
    0.00000E+00         0.00000E+00         0.50741E-08
 
    0.64368E+06        -0.51879E+04         0.00000E+00
   -0.51879E+04        -0.47816E+08         0.00000E+00
    0.00000E+00         0.00000E+00        -0.15222E-07
 
    0.59503E+06         0.81679E+04         0.00000E+00
    0.81679E+04        -0.47879E+08         0.00000E+00
    0.00000E+00         0.00000E+00        -0.15222E-07
 
    0.54901E+06         0.24892E+05         0.00000E+00
    0.24892E+05        -0.47944E+08         0.00000E+00
    0.00000E+00         0.00000E+00         0.20296E-07
 
    0.50607E+06         0.43285E+05         0.00000E+00
    0.43285E+05        -0.48013E+08         0.00000E+00
    0.00000E+00         0.00000E+00         0.50740E-07
 
    0.46657E+06         0.62214E+05         0.00000E+00
    0.62214E+05        -0.48082E+08         0.00000E+00
    0.00000E+00         0.00000E+00        -0.65963E-07
 
    0.43068E+06         0.80946E+05         0.00000E+00
    0.80946E+05        -0.48153E+08         0.00000E+00
    0.00000E+00         0.00000E+00        -0.25370E-07
 
    0.39841E+06         0.99023E+05         0.00000E+00
    0.99023E+05        -0.48225E+08         0.00000E+00
    0.00000E+00         0.00000E+00         0.30444E-07
 
    0.36968E+06         0.11618E+06         0.00000E+00
    0.11618E+06        -0.48297E+08         0.00000E+00
    0.00000E+00         0.00000E+00         0.25370E-07
 
    0.34432E+06         0.13228E+06         0.00000E+00
    0.13228E+06        -0.48371E+08         0.00000E+00
    0.00000E+00         0.00000E+00         0.25370E-07
 
    0.32212E+06         0.14728E+06         0.00000E+00
    0.14728E+06        -0.48444E+08         0.00000E+00
    0.00000E+00         0.00000E+00         0.20296E-07
 
    0.30285E+06         0.16120E+06         0.00000E+00
    0.16120E+06        -0.48518E+08         0.00000E+00
    0.00000E+00         0.00000E+00        -0.10148E-07
 
    0.28629E+06         0.17409E+06         0.00000E+00
    0.17409E+06        -0.48593E+08         0.00000E+00
    0.00000E+00         0.00000E+00         0.30444E-07
 
    0.27219E+06         0.18602E+06         0.00000E+00
    0.18602E+06        -0.48669E+08         0.00000E+00
    0.00000E+00         0.00000E+00        -0.15222E-07
 
    0.26033E+06         0.19710E+06         0.00000E+00
    0.19710E+06        -0.48745E+08         0.00000E+00
    0.00000E+00         0.00000E+00         0.00000E+00
 
    0.25049E+06         0.20740E+06         0.00000E+00
    0.20740E+06        -0.48822E+08         0.00000E+00
    0.00000E+00         0.00000E+00        -0.10148E-07
 
    0.24245E+06         0.21704E+06         0.00000E+00
    0.21704E+06        -0.48900E+08         0.00000E+00
    0.00000E+00         0.00000E+00         0.30444E-07
 
    0.23604E+06         0.22609E+06         0.00000E+00
    0.22609E+06        -0.48979E+08         0.00000E+00
    0.00000E+00         0.00000E+00         0.35518E-07
 
    0.23107E+06         0.23465E+06         0.00000E+00
    0.23465E+06        -0.49059E+08         0.00000E+00
    0.00000E+00         0.00000E+00         0.50741E-08
 
    0.22737E+06         0.24279E+06         0.00000E+00
    0.24279E+06        -0.49140E+08         0.00000E+00
    0.00000E+00         0.00000E+00         0.10148E-07
 
    0.22481E+06         0.25058E+06         0.00000E+00
    0.25058E+06        -0.49222E+08         0.00000E+00
    0.00000E+00         0.00000E+00        -0.30444E-07
 
    0.22325E+06         0.25808E+06         0.00000E+00
    0.25808E+06        -0.49305E+08         0.00000E+00
    0.00000E+00         0.00000E+00        -0.50741E-08
 
    0.22257E+06         0.26535E+06         0.00000E+00
    0.26535E+06        -0.49390E+08         0.00000E+00
    0.00000E+00         0.00000E+00        -0.45667E-07
 
    0.22265E+06         0.27244E+06         0.00000E+00
    0.27244E+06        -0.49476E+08         0.00000E+00
    0.00000E+00         0.00000E+00        -0.50741E-08
 
    0.22341E+06         0.27938E+06         0.00000E+00
    0.27938E+06        -0.49564E+08         0.00000E+00
    0.00000E+00         0.00000E+00         0.40593E-07
 
    0.22474E+06         0.28622E+06         0.00000E+00
    0.28622E+06        -0.49653E+08         0.00000E+00
    0.00000E+00         0.00000E+00         0.50741E-08
 
    0.22657E+06         0.29298E+06         0.00000E+00
    0.29298E+06        -0.49744E+08         0.00000E+00
    0.00000E+00         0.00000E+00         0.30444E-07
 
    0.22883E+06         0.29969E+06         0.00000E+00
    0.29969E+06        -0.49836E+08         0.00000E+00
    0.00000E+00         0.00000E+00        -0.10656E-06
 
    0.23145E+06         0.30638E+06         0.00000E+00
    0.30638E+06        -0.49931E+08         0.00000E+00
    0.00000E+00         0.00000E+00         0.00000E+00
 
    0.23438E+06         0.31306E+06         0.00000E+00
    0.31306E+06        -0.50027E+08         0.00000E+00
    0.00000E+00         0.00000E+00         0.60889E-07
 
    0.23755E+06         0.31975E+06         0.00000E+00
    0.31975E+06        -0.50125E+08         0.00000E+00
    0.00000E+00         0.00000E+00         0.35518E-07
 
    0.24092E+06         0.32646E+06         0.00000E+00
    0.32646E+06        -0.50224E+08         0.00000E+00
    0.00000E+00         0.00000E+00         0.00000E+00
 
    0.24445E+06         0.33320E+06         0.00000E+00
    0.33320E+06        -0.50326E+08         0.00000E+00
    0.00000E+00         0.00000E+00        -0.50741E-08
 
    0.24809E+06         0.33999E+06         0.00000E+00
    0.33999E+06        -0.50430E+08         0.00000E+00
    0.00000E+00         0.00000E+00         0.50741E-07
 
    0.25181E+06         0.34683E+06         0.00000E+00
    0.34683E+06        -0.50536E+08         0.00000E+00
    0.00000E+00         0.00000E+00        -0.40593E-07
 
    0.25556E+06         0.35372E+06         0.00000E+00
    0.35372E+06        -0.50645E+08         0.00000E+00
    0.00000E+00         0.00000E+00        -0.50741E-08
 
    0.25933E+06         0.36066E+06         0.00000E+00
    0.36066E+06        -0.50755E+08         0.00000E+00
    0.00000E+00         0.00000E+00         0.00000E+00
 
    0.26306E+06         0.36767E+06         0.00000E+00
    0.36767E+06        -0.50868E+08         0.00000E+00
    0.00000E+00         0.00000E+00         0.35518E-07
 
    0.26674E+06         0.37474E+06         0.00000E+00
    0.37474E+06        -0.50983E+08         0.00000E+00
    0.00000E+00         0.00000E+00        -0.20296E-07
 
    0.27034E+06         0.38186E+06         0.00000E+00
    0.38186E+06        -0.51101E+08         0.00000E+00
    0.00000E+00         0.00000E+00         0.00000E+00
 
    0.27382E+06         0.38904E+06         0.00000E+00
    0.38904E+06        -0.51220E+08         0.00000E+00
    0.00000E+00         0.00000E+00        -0.50741E-08
 
    0.27716E+06         0.39628E+06         0.00000E+00
    0.39628E+06        -0.51343E+08         0.00000E+00
    0.00000E+00         0.00000E+00        -0.20296E-07
 
    0.28033E+06         0.40357E+06         0.00000E+00
    0.40357E+06        -0.51468E+08         0.00000E+00
    0.00000E+00         0.00000E+00        -0.40592E-07
 
    0.28331E+06         0.41090E+06         0.00000E+00
    0.41090E+06        -0.51596E+08         0.00000E+00
    0.00000E+00         0.00000E+00         0.35518E-07
 
    0.28607E+06         0.41827E+06         0.00000E+00
    0.41827E+06        -0.51726E+08         0.00000E+00
    0.00000E+00         0.00000E+00        -0.40592E-07
 
    0.28857E+06         0.42568E+06         0.00000E+00
    0.42568E+06        -0.51859E+08         0.00000E+00
    0.00000E+00         0.00000E+00         0.35518E-07
 
    0.29079E+06         0.43310E+06         0.00000E+00
    0.43310E+06        -0.51994E+08         0.00000E+00
    0.00000E+00         0.00000E+00         0.40593E-07
 
    0.29271E+06         0.44055E+06         0.00000E+00
    0.44055E+06        -0.52133E+08         0.00000E+00
    0.00000E+00         0.00000E+00         0.65963E-07
 
    0.29429E+06         0.44799E+06         0.00000E+00
    0.44799E+06        -0.52274E+08         0.00000E+00
    0.00000E+00         0.00000E+00        -0.40593E-07
 
    0.29549E+06         0.45543E+06         0.00000E+00
    0.45543E+06        -0.52418E+08         0.00000E+00
    0.00000E+00         0.00000E+00         0.20296E-07
 
    0.29629E+06         0.46285E+06         0.00000E+00
    0.46285E+06        -0.52565E+08         0.00000E+00
    0.00000E+00         0.00000E+00         0.00000E+00
 
    0.29665E+06         0.47023E+06         0.00000E+00
    0.47023E+06        -0.52715E+08         0.00000E+00
    0.00000E+00         0.00000E+00        -0.10148E-07
 
    0.29654E+06         0.47756E+06         0.00000E+00
    0.47756E+06        -0.52868E+08         0.00000E+00
    0.00000E+00         0.00000E+00        -0.10148E-07
 
    0.29590E+06         0.48483E+06         0.00000E+00
    0.48483E+06        -0.53024E+08         0.00000E+00
    0.00000E+00         0.00000E+00        -0.60888E-07
 
    0.29471E+06         0.49201E+06         0.00000E+00
    0.49201E+06        -0.53182E+08         0.00000E+00
    0.00000E+00         0.00000E+00        -0.35518E-07
 
    0.29291E+06         0.49908E+06         0.00000E+00
    0.49908E+06        -0.53344E+08         0.00000E+00
    0.00000E+00         0.00000E+00        -0.55815E-07
 
    0.29045E+06         0.50603E+06         0.00000E+00
    0.50603E+06        -0.53509E+08         0.00000E+00
    0.00000E+00         0.00000E+00         0.50741E-08
 
    0.28729E+06         0.51282E+06         0.00000E+00
    0.51282E+06        -0.53677E+08         0.00000E+00
    0.00000E+00         0.00000E+00        -0.50741E-07
 
    0.28335E+06         0.51943E+06         0.00000E+00
    0.51943E+06        -0.53847E+08         0.00000E+00
    0.00000E+00         0.00000E+00        -0.11163E-06
 
    0.27858E+06         0.52583E+06         0.00000E+00
    0.52583E+06        -0.54021E+08         0.00000E+00
    0.00000E+00         0.00000E+00        -0.30444E-07
 
    0.27290E+06         0.53198E+06         0.00000E+00
    0.53198E+06        -0.54198E+08         0.00000E+00
    0.00000E+00         0.00000E+00         0.15222E-07
 
    0.26624E+06         0.53786E+06         0.00000E+00
    0.53786E+06        -0.54378E+08         0.00000E+00
    0.00000E+00         0.00000E+00         0.35518E-07
 
    0.25851E+06         0.54342E+06         0.00000E+00
    0.54342E+06        -0.54562E+08         0.00000E+00
    0.00000E+00         0.00000E+00         0.15222E-07
 
    0.24961E+06         0.54861E+06         0.00000E+00
    0.54861E+06        -0.54748E+08         0.00000E+00
    0.00000E+00         0.00000E+00         0.55815E-07
 
    0.23945E+06         0.55340E+06         0.00000E+00
    0.55340E+06        -0.54937E+08         0.00000E+00
    0.00000E+00         0.00000E+00         0.10148E-07
 
    0.22790E+06         0.55771E+06         0.00000E+00
    0.55771E+06        -0.55130E+08         0.00000E+00
    0.00000E+00         0.00000E+00         0.30444E-07
 
    0.21484E+06         0.56150E+06         0.00000E+00
    0.56150E+06        -0.55325E+08         0.00000E+00
    0.00000E+00         0.00000E+00        -0.81185E-07
 
    0.20012E+06         0.56470E+06         0.00000E+00
    0.56470E+06        -0.55523E+08         0.00000E+00
    0.00000E+00         0.00000E+00         0.20296E-07
 
    0.18357E+06         0.56722E+06         0.00000E+00
    0.56722E+06        -0.55725E+08         0.00000E+00
    0.00000E+00         0.00000E+00        -0.91333E-07
 
    0.16504E+06         0.56898E+06         0.00000E+00
    0.56898E+06        -0.55929E+08         0.00000E+00
    0.00000E+00         0.00000E+00         0.10148E-06
 
    0.14430E+06         0.56988E+06         0.00000E+00
    0.56988E+06        -0.56137E+08         0.00000E+00
    0.00000E+00         0.00000E+00         0.60889E-07
 
    0.12114E+06         0.56982E+06         0.00000E+00
    0.56982E+06        -0.56347E+08         0.00000E+00
    0.00000E+00         0.00000E+00         0.40593E-07
 
    0.95315E+05         0.56866E+06         0.00000E+00
    0.56866E+06        -0.56561E+08         0.00000E+00
    0.00000E+00         0.00000E+00         0.40593E-07
 
    0.66545E+05         0.56628E+06         0.00000E+00
    0.56628E+06        -0.56777E+08         0.00000E+00
    0.00000E+00         0.00000E+00         0.10148E-07
 
    0.34521E+05         0.56250E+06         0.00000E+00
    0.56250E+06        -0.56996E+08         0.00000E+00
    0.00000E+00         0.00000E+00        -0.20296E-07
 
   -0.10966E+04         0.55716E+06         0.00000E+00
    0.55716E+06        -0.57218E+08         0.00000E+00
    0.00000E+00         0.00000E+00        -0.50741E-07
 
   -0.40688E+05         0.55006E+06         0.00000E+00
    0.55006E+06        -0.57443E+08         0.00000E+00
    0.00000E+00         0.00000E+00        -0.10148E-07
 
   -0.84672E+05         0.54096E+06         0.00000E+00
    0.54096E+06        -0.57671E+08         0.00000E+00
    0.00000E+00         0.00000E+00         0.00000E+00
 
   -0.13351E+06         0.52963E+06         0.00000E+00
    0.52963E+06        -0.57901E+08         0.00000E+00
    0.00000E+00         0.00000E+00        -0.40593E-07
 
   -0.18770E+06         0.51580E+06         0.00000E+00
    0.51580E+06        -0.58135E+08         0.00000E+00
    0.00000E+00         0.00000E+00         0.30444E-07
 
   -0.24779E+06         0.49917E+06         0.00000E+00
    0.49917E+06        -0.58370E+08         0.00000E+00
    0.00000E+00         0.00000E+00        -0.20296E-07
 
   -0.31438E+06         0.47944E+06         0.00000E+00
    0.47944E+06        -0.58609E+08         0.00000E+00
    0.00000E+00         0.00000E+00         0.50741E-07
 
   -0.38809E+06         0.45630E+06         0.00000E+00
    0.45630E+06        -0.58850E+08         0.00000E+00
    0.00000E+00         0.00000E+00         0.20296E-07
 
   -0.46958E+06         0.42942E+06         0.00000E+00
    0.42942E+06        -0.59093E+08         0.00000E+00
    0.00000E+00         0.00000E+00        -0.30444E-07
 
   -0.55954E+06         0.39852E+06         0.00000E+00
    0.39852E+06        -0.59339E+08         0.00000E+00
    0.00000E+00         0.00000E+00         0.30444E-07
 
   -0.65867E+06         0.36336E+06         0.00000E+00
    0.36336E+06        -0.59587E+08         0.00000E+00
    0.00000E+00         0.00000E+00         0.20296E-07
 
   -0.76763E+06         0.32380E+06         0.00000E+00
    0.32380E+06        -0.59837E+08         0.00000E+00
    0.00000E+00         0.00000E+00        -0.20296E-07
 
   -0.88706E+06         0.27983E+06         0.00000E+00
    0.27983E+06        -0.60088E+08         0.00000E+00
    0.00000E+00         0.00000E+00        -0.50741E-07
 
   -0.10175E+07         0.23167E+06         0.00000E+00
    0.23167E+06        -0.60339E+08         0.00000E+00
    0.00000E+00         0.00000E+00         0.10148E-07
 
   -0.11593E+07         0.17989E+06         0.00000E+00
    0.17989E+06        -0.60591E+08         0.00000E+00
    0.00000E+00         0.00000E+00         0.20296E-07
 
   -0.13125E+07         0.12553E+06         0.00000E+00
    0.12553E+06        -0.60842E+08         0.00000E+00
    0.00000E+00         0.00000E+00         0.20296E-07
 
   -0.14768E+07         0.70312E+05         0.00000E+00
    0.70312E+05        -0.61091E+08         0.00000E+00
    0.00000E+00         0.00000E+00         0.50741E-07
 
   -0.16512E+07         0.16958E+05         0.00000E+00
    0.16958E+05        -0.61335E+08         0.00000E+00
    0.00000E+00         0.00000E+00        -0.10148E-07
 
   -0.18343E+07        -0.30366E+05         0.00000E+00
   -0.30366E+05        -0.61573E+08         0.00000E+00
    0.00000E+00         0.00000E+00         0.00000E+00
 
   -0.20240E+07        -0.65472E+05         0.00000E+00
   -0.65472E+05        -0.61797E+08         0.00000E+00
    0.00000E+00         0.00000E+00         0.91333E-07
 
   -0.22194E+07        -0.80091E+05         0.00000E+00
   -0.80091E+05        -0.61998E+08         0.00000E+00
    0.00000E+00         0.00000E+00        -0.40593E-07
 
   -0.24237E+07        -0.66715E+05         0.00000E+00
   -0.66715E+05        -0.62157E+08         0.00000E+00
    0.00000E+00         0.00000E+00         0.11163E-06
 
   -0.26454E+07        -0.26158E+05         0.00000E+00
   -0.26158E+05        -0.62247E+08         0.00000E+00
    0.00000E+00         0.00000E+00        -0.30445E-07
 
    0.82986E+06        -0.62647E+04         0.00000E+00
   -0.62647E+04        -0.47689E+08         0.00000E+00
    0.00000E+00         0.00000E+00         0.10148E-07
 
    0.76910E+06        -0.15229E+05         0.00000E+00
   -0.15229E+05        -0.47716E+08         0.00000E+00
    0.00000E+00         0.00000E+00        -0.81185E-07
 
    0.71378E+06        -0.16060E+05         0.00000E+00
   -0.16060E+05        -0.47761E+08         0.00000E+00
    0.00000E+00         0.00000E+00        -0.40593E-07
 
    0.66134E+06        -0.88154E+04         0.00000E+00
   -0.88154E+04        -0.47818E+08         0.00000E+00
    0.00000E+00         0.00000E+00         0.30444E-07
 
    0.61103E+06         0.40766E+04         0.00000E+00
    0.40766E+04        -0.47882E+08         0.00000E+00
    0.00000E+00         0.00000E+00        -0.25370E-07
 
    0.56327E+06         0.20206E+05         0.00000E+00
    0.20206E+05        -0.47948E+08         0.00000E+00
    0.00000E+00         0.00000E+00         0.10148E-07
 
    0.51867E+06         0.37886E+05         0.00000E+00
    0.37886E+05        -0.48016E+08         0.00000E+00
    0.00000E+00         0.00000E+00        -0.25370E-07
 
    0.47767E+06         0.56028E+05         0.00000E+00
    0.56028E+05        -0.48086E+08         0.00000E+00
    0.00000E+00         0.00000E+00        -0.30444E-07
 
    0.44046E+06         0.73939E+05         0.00000E+00
    0.73939E+05        -0.48157E+08         0.00000E+00
    0.00000E+00         0.00000E+00         0.15730E-06
 
    0.40705E+06         0.91190E+05         0.00000E+00
    0.91190E+05        -0.48228E+08         0.00000E+00
    0.00000E+00         0.00000E+00        -0.45667E-07
 
    0.37736E+06         0.10753E+06         0.00000E+00
    0.10753E+06        -0.48301E+08         0.00000E+00
    0.00000E+00         0.00000E+00        -0.10148E-07
 
    0.35120E+06         0.12285E+06         0.00000E+00
    0.12285E+06        -0.48374E+08         0.00000E+00
    0.00000E+00         0.00000E+00        -0.10148E-07
 
    0.32835E+06         0.13709E+06         0.00000E+00
    0.13709E+06        -0.48447E+08         0.00000E+00
    0.00000E+00         0.00000E+00        -0.10148E-06
 
    0.30856E+06         0.15029E+06         0.00000E+00
    0.15029E+06        -0.48521E+08         0.00000E+00
    0.00000E+00         0.00000E+00        -0.10148E-07
 
    0.29159E+06         0.16249E+06         0.00000E+00
    0.16249E+06        -0.48596E+08         0.00000E+00
    0.00000E+00         0.00000E+00        -0.55815E-07
 
    0.27718E+06         0.17377E+06         0.00000E+00
    0.17377E+06        -0.48671E+08         0.00000E+00
    0.00000E+00         0.00000E+00         0.20296E-07
 
    0.26508E+06         0.18422E+06         0.00000E+00
    0.18422E+06        -0.48747E+08         0.00000E+00
    0.00000E+00         0.00000E+00        -0.20296E-07
 
    0.25506E+06         0.19394E+06         0.00000E+00
    0.19394E+06        -0.48824E+08         0.00000E+00
    0.00000E+00         0.00000E+00        -0.55815E-07
 
    0.24691E+06         0.20302E+06         0.00000E+00
    0.20302E+06        -0.48902E+08         0.00000E+00
    0.00000E+00         0.00000E+00         0.40592E-07
 
    0.24042E+06         0.21154E+06         0.00000E+00
    0.21154E+06        -0.48981E+08         0.00000E+00
    0.00000E+00         0.00000E+00         0.10148E-07
 
    0.23542E+06         0.21958E+06         0.00000E+00
    0.21958E+06        -0.49060E+08         0.00000E+00
    0.00000E+00         0.00000E+00        -0.40593E-07
 
    0.23172E+06         0.22722E+06         0.00000E+00
    0.22722E+06        -0.49141E+08         0.00000E+00
    0.00000E+00         0.00000E+00         0.10148E-07
 
    0.22918E+06         0.23453E+06         0.00000E+00
    0.23453E+06        -0.49223E+08         0.00000E+00
    0.00000E+00         0.00000E+00         0.00000E+00
 
    0.22766E+06         0.24157E+06         0.00000E+00
    0.24157E+06        -0.49307E+08         0.00000E+00
    0.00000E+00         0.00000E+00        -0.76111E-07
 
    0.22704E+06         0.24838E+06         0.00000E+00
    0.24838E+06        -0.49391E+08         0.00000E+00
    0.00000E+00         0.00000E+00         0.13700E-06
 
    0.22719E+06         0.25502E+06         0.00000E+00
    0.25502E+06        -0.49478E+08         0.00000E+00
    0.00000E+00         0.00000E+00         0.00000E+00
 
    0.22803E+06         0.26152E+06         0.00000E+00
    0.26152E+06        -0.49565E+08         0.00000E+00
    0.00000E+00         0.00000E+00        -0.45667E-07
 
    0.22945E+06         0.26792E+06         0.00000E+00
    0.26792E+06        -0.49654E+08         0.00000E+00
    0.00000E+00         0.00000E+00        -0.10148E-07
 
    0.23138E+06         0.27425E+06         0.00000E+00
    0.27425E+06        -0.49745E+08         0.00000E+00
    0.00000E+00         0.00000E+00         0.50741E-07
 
    0.23374E+06         0.28053E+06         0.00000E+00
    0.28053E+06        -0.49838E+08         0.00000E+00
    0.00000E+00         0.00000E+00        -0.96407E-07
 
    0.23647E+06         0.28678E+06         0.00000E+00
    0.28678E+06        -0.49932E+08         0.00000E+00
    0.00000E+00         0.00000E+00        -0.25370E-07
 
    0.23950E+06         0.29303E+06         0.00000E+00
    0.29303E+06        -0.50028E+08         0.00000E+00
    0.00000E+00         0.00000E+00        -0.12685E-06
 
    0.24278E+06         0.29929E+06         0.00000E+00
    0.29929E+06        -0.50126E+08         0.00000E+00
    0.00000E+00         0.00000E+00         0.45667E-07
 
    0.24627E+06         0.30557E+06         0.00000E+00
    0.30557E+06        -0.50226E+08         0.00000E+00
    0.00000E+00         0.00000E+00         0.35518E-07
 
    0.24991E+06         0.31188E+06         0.00000E+00
    0.31188E+06        -0.50328E+08         0.00000E+00
    0.00000E+00         0.00000E+00         0.86259E-07
 
    0.25366E+06         0.31823E+06         0.00000E+00
    0.31823E+06        -0.50432E+08         0.00000E+00
    0.00000E+00         0.00000E+00         0.50741E-08
 
    0.25749E+06         0.32462E+06         0.00000E+00
    0.32462E+06        -0.50538E+08         0.00000E+00
    0.00000E+00         0.00000E+00        -0.25370E-07
 
    0.26136E+06         0.33106E+06         0.00000E+00
    0.33106E+06        -0.50646E+08         0.00000E+00
    0.00000E+00         0.00000E+00         0.15222E-07
 
    0.26523E+06         0.33756E+06         0.00000E+00
    0.33756E+06        -0.50756E+08         0.00000E+00
    0.00000E+00         0.00000E+00        -0.30444E-07
 
    0.26907E+06         0.34411E+06         0.00000E+00
    0.34411E+06        -0.50869E+08         0.00000E+00
    0.00000E+00         0.00000E+00         0.50741E-07
 
    0.27286E+06         0.35071E+06         0.00000E+00
    0.35071E+06        -0.50984E+08         0.00000E+00
    0.00000E+00         0.00000E+00        -0.35518E-07
 
    0.27656E+06         0.35738E+06         0.00000E+00
    0.35738E+06        -0.51102E+08         0.00000E+00
    0.00000E+00         0.00000E+00         0.30444E-07
 
    0.28014E+06         0.36409E+06         0.00000E+00
    0.36409E+06        -0.51222E+08         0.00000E+00
    0.00000E+00         0.00000E+00        -0.50741E-08
 
    0.28358E+06         0.37085E+06         0.00000E+00
    0.37085E+06        -0.51344E+08         0.00000E+00
    0.00000E+00         0.00000E+00         0.65963E-07
 
    0.28684E+06         0.37767E+06         0.00000E+00
    0.37767E+06        -0.51469E+08         0.00000E+00
    0.00000E+00         0.00000E+00        -0.20296E-07
 
    0.28991E+06         0.38452E+06         0.00000E+00
    0.38452E+06        -0.51597E+08         0.00000E+00
    0.00000E+00         0.00000E+00        -0.55815E-07
 
    0.29274E+06         0.39141E+06         0.00000E+00
    0.39141E+06        -0.51727E+08         0.00000E+00
    0.00000E+00         0.00000E+00         0.20296E-07
 
    0.29532E+06         0.39833E+06         0.00000E+00
    0.39833E+06        -0.51860E+08         0.00000E+00
    0.00000E+00         0.00000E+00         0.15222E-07
 
    0.29762E+06         0.40527E+06         0.00000E+00
    0.40527E+06        -0.51996E+08         0.00000E+00
    0.00000E+00         0.00000E+00        -0.50741E-07
 
    0.29960E+06         0.41222E+06         0.00000E+00
    0.41222E+06        -0.52134E+08         0.00000E+00
    0.00000E+00         0.00000E+00         0.15222E-07
 
    0.30124E+06         0.41918E+06         0.00000E+00
    0.41918E+06        -0.52276E+08         0.00000E+00
    0.00000E+00         0.00000E+00         0.10148E-06
 
    0.30249E+06         0.42613E+06         0.00000E+00
    0.42613E+06        -0.52420E+08         0.00000E+00
    0.00000E+00         0.00000E+00         0.35518E-07
 
    0.30334E+06         0.43306E+06         0.00000E+00
    0.43306E+06        -0.52567E+08         0.00000E+00
    0.00000E+00         0.00000E+00        -0.71037E-07
 
    0.30374E+06         0.43996E+06         0.00000E+00
    0.43996E+06        -0.52716E+08         0.00000E+00
    0.00000E+00         0.00000E+00        -0.45667E-07
 
    0.30365E+06         0.44680E+06         0.00000E+00
    0.44680E+06        -0.52869E+08         0.00000E+00
    0.00000E+00         0.00000E+00        -0.50741E-08
 
    0.30303E+06         0.45359E+06         0.00000E+00
    0.45359E+06        -0.53025E+08         0.00000E+00
    0.00000E+00         0.00000E+00        -0.50741E-08
 
    0.30185E+06         0.46029E+06         0.00000E+00
    0.46029E+06        -0.53184E+08         0.00000E+00
    0.00000E+00         0.00000E+00        -0.20296E-07
 
    0.30004E+06         0.46690E+06         0.00000E+00
    0.46690E+06        -0.53345E+08         0.00000E+00
    0.00000E+00         0.00000E+00         0.55815E-07
 
    0.29757E+06         0.47338E+06         0.00000E+00
    0.47338E+06        -0.53510E+08         0.00000E+00
    0.00000E+00         0.00000E+00        -0.10148E-07
 
    0.29438E+06         0.47972E+06         0.00000E+00
    0.47972E+06        -0.53678E+08         0.00000E+00
    0.00000E+00         0.00000E+00        -0.10148E-07
 
    0.29040E+06         0.48589E+06         0.00000E+00
    0.48589E+06        -0.53849E+08         0.00000E+00
    0.00000E+00         0.00000E+00         0.40593E-07
 
    0.28558E+06         0.49186E+06         0.00000E+00
    0.49186E+06        -0.54023E+08         0.00000E+00
    0.00000E+00         0.00000E+00         0.10148E-07
 
    0.27983E+06         0.49760E+06         0.00000E+00
    0.49760E+06        -0.54200E+08         0.00000E+00
    0.00000E+00         0.00000E+00         0.00000E+00
 
    0.27308E+06         0.50308E+06         0.00000E+00
    0.50308E+06        -0.54380E+08         0.00000E+00
    0.00000E+00         0.00000E+00         0.00000E+00
 
    0.26525E+06         0.50826E+06         0.00000E+00
    0.50826E+06        -0.54563E+08         0.00000E+00
    0.00000E+00         0.00000E+00        -0.10148E-07
 
    0.25624E+06         0.51310E+06         0.00000E+00
    0.51310E+06        -0.54749E+08         0.00000E+00
    0.00000E+00         0.00000E+00         0.50741E-07
 
    0.24593E+06         0.51756E+06         0.00000E+00
    0.51756E+06        -0.54938E+08         0.00000E+00
    0.00000E+00         0.00000E+00         0.00000E+00
 
    0.23422E+06         0.52157E+06         0.00000E+00
    0.52157E+06        -0.55130E+08         0.00000E+00
    0.00000E+00         0.00000E+00        -0.40593E-07
 
    0.22098E+06         0.52509E+06         0.00000E+00
    0.52509E+06        -0.55326E+08         0.00000E+00
    0.00000E+00         0.00000E+00         0.91332E-07
 
    0.20604E+06         0.52806E+06         0.00000E+00
    0.52806E+06        -0.55524E+08         0.00000E+00
    0.00000E+00         0.00000E+00         0.00000E+00
 
    0.18926E+06         0.53038E+06         0.00000E+00
    0.53038E+06        -0.55725E+08         0.00000E+00
    0.00000E+00         0.00000E+00         0.00000E+00
 
    0.17045E+06         0.53200E+06         0.00000E+00
    0.53200E+06        -0.55930E+08         0.00000E+00
    0.00000E+00         0.00000E+00         0.13193E-06
 
    0.14941E+06         0.53281E+06         0.00000E+00
    0.53281E+06        -0.56137E+08         0.00000E+00
    0.00000E+00         0.00000E+00        -0.60889E-07
 
    0.12590E+06         0.53271E+06         0.00000E+00
    0.53271E+06        -0.56347E+08         0.00000E+00
    0.00000E+00         0.00000E+00         0.60889E-07
 
    0.99685E+05         0.53158E+06         0.00000E+00
    0.53158E+06        -0.56560E+08         0.00000E+00
    0.00000E+00         0.00000E+00         0.50741E-07
 
    0.70468E+05         0.52929E+06         0.00000E+00
    0.52929E+06        -0.56776E+08         0.00000E+00
    0.00000E+00         0.00000E+00        -0.10148E-06
 
    0.37937E+05         0.52569E+06         0.00000E+00
    0.52569E+06        -0.56995E+08         0.00000E+00
    0.00000E+00         0.00000E+00         0.50741E-07
 
    0.17390E+04         0.52061E+06         0.00000E+00
    0.52061E+06        -0.57217E+08         0.00000E+00
    0.00000E+00         0.00000E+00         0.30444E-07
 
   -0.38518E+05         0.51386E+06         0.00000E+00
    0.51386E+06        -0.57442E+08         0.00000E+00
    0.00000E+00         0.00000E+00         0.00000E+00
 
   -0.83268E+05         0.50523E+06         0.00000E+00
    0.50523E+06        -0.57669E+08         0.00000E+00
    0.00000E+00         0.00000E+00        -0.20296E-07
 
   -0.13299E+06         0.49448E+06         0.00000E+00
    0.49448E+06        -0.57899E+08         0.00000E+00
    0.00000E+00         0.00000E+00        -0.91333E-07
 
   -0.18821E+06         0.48135E+06         0.00000E+00
    0.48135E+06        -0.58132E+08         0.00000E+00
    0.00000E+00         0.00000E+00        -0.30444E-07
 
   -0.24951E+06         0.46557E+06         0.00000E+00
    0.46557E+06        -0.58367E+08         0.00000E+00
    0.00000E+00         0.00000E+00         0.20296E-07
 
   -0.31750E+06         0.44682E+06         0.00000E+00
    0.44682E+06        -0.58605E+08         0.00000E+00
    0.00000E+00         0.00000E+00        -0.71037E-07
 
   -0.39286E+06         0.42482E+06         0.00000E+00
    0.42482E+06        -0.58845E+08         0.00000E+00
    0.00000E+00         0.00000E+00         0.10148E-07
 
   -0.47629E+06         0.39924E+06         0.00000E+00
    0.39924E+06        -0.59088E+08         0.00000E+00
    0.00000E+00         0.00000E+00        -0.50741E-07
 
   -0.56853E+06         0.36982E+06         0.00000E+00
    0.36982E+06        -0.59333E+08         0.00000E+00
    0.00000E+00         0.00000E+00         0.00000E+00
 
   -0.67032E+06         0.33630E+06         0.00000E+00
    0.33630E+06        -0.59580E+08         0.00000E+00
    0.00000E+00         0.00000E+00         0.40592E-07
 
   -0.78240E+06         0.29853E+06         0.00000E+00
    0.29853E+06        -0.59828E+08         0.00000E+00
    0.00000E+00         0.00000E+00        -0.71037E-07
 
   -0.90547E+06         0.25651E+06         0.00000E+00
    0.25651E+06        -0.60079E+08         0.00000E+00
    0.00000E+00         0.00000E+00        -0.30444E-07
 
   -0.10401E+07         0.21043E+06         0.00000E+00
    0.21043E+06        -0.60330E+08         0.00000E+00
    0.00000E+00         0.00000E+00         0.12178E-06
 
   -0.11867E+07         0.16080E+06         0.00000E+00
    0.16080E+06        -0.60581E+08         0.00000E+00
    0.00000E+00         0.00000E+00        -0.81185E-07
 
   -0.13453E+07         0.10860E+06         0.00000E+00
    0.10860E+06        -0.60831E+08         0.00000E+00
    0.00000E+00         0.00000E+00         0.40593E-07
 
   -0.15156E+07         0.55442E+05         0.00000E+00
    0.55442E+05        -0.61080E+08         0.00000E+00
    0.00000E+00         0.00000E+00         0.10148E-07
 
   -0.16967E+07         0.39112E+04         0.00000E+00
    0.39112E+04        -0.61325E+08         0.00000E+00
    0.00000E+00         0.00000E+00         0.81185E-07
 
   -0.18865E+07        -0.41993E+05         0.00000E+00
   -0.41993E+05        -0.61564E+08         0.00000E+00
    0.00000E+00         0.00000E+00         0.30444E-07
 
   -0.20826E+07        -0.76131E+05         0.00000E+00
   -0.76131E+05        -0.61792E+08         0.00000E+00
    0.00000E+00         0.00000E+00         0.14207E-06
 
   -0.22831E+07        -0.89782E+05         0.00000E+00
   -0.89782E+05        -0.61998E+08         0.00000E+00
    0.00000E+00         0.00000E+00        -0.60889E-07
 
   -0.24902E+07        -0.74184E+05         0.00000E+00
   -0.74184E+05        -0.62163E+08         0.00000E+00
    0.00000E+00         0.00000E+00        -0.20296E-07
 
   -0.27128E+07        -0.29078E+05         0.00000E+00
   -0.29078E+05        -0.62258E+08         0.00000E+00
    0.00000E+00         0.00000E+00        -0.56843E-13
 
    0.85026E+06        -0.71615E+04         0.00000E+00
   -0.71615E+04        -0.47687E+08         0.00000E+00
    0.00000E+00         0.00000E+00         0.00000E+00
 
    0.78920E+06        -0.17503E+05         0.00000E+00
   -0.17503E+05        -0.47715E+08         0.00000E+00
    0.00000E+00         0.00000E+00         0.50741E-08
 
    0.73300E+06        -0.19005E+05         0.00000E+00
   -0.19005E+05        -0.47762E+08         0.00000E+00
    0.00000E+00         0.00000E+00         0.00000E+00
 
    0.67907E+06        -0.12117E+05         0.00000E+00
   -0.12117E+05        -0.47821E+08         0.00000E+00
    0.00000E+00         0.00000E+00        -0.40593E-07
 
    0.62694E+06         0.34693E+03         0.00000E+00
    0.34693E+03        -0.47885E+08         0.00000E+00
    0.00000E+00         0.00000E+00        -0.60889E-07
 
    0.57733E+06         0.15872E+05         0.00000E+00
    0.15872E+05        -0.47951E+08         0.00000E+00
    0.00000E+00         0.00000E+00         0.20296E-07
 
    0.53102E+06         0.32810E+05         0.00000E+00
    0.32810E+05        -0.48020E+08         0.00000E+00
    0.00000E+00         0.00000E+00        -0.10148E-07
 
    0.48848E+06         0.50128E+05         0.00000E+00
    0.50128E+05        -0.48090E+08         0.00000E+00
    0.00000E+00         0.00000E+00        -0.76111E-07
 
    0.44992E+06         0.67180E+05         0.00000E+00
    0.67180E+05        -0.48160E+08         0.00000E+00
    0.00000E+00         0.00000E+00        -0.35518E-07
 
    0.41538E+06         0.83567E+05         0.00000E+00
    0.83567E+05        -0.48232E+08         0.00000E+00
    0.00000E+00         0.00000E+00        -0.91333E-07
 
    0.38473E+06         0.99063E+05         0.00000E+00
    0.99063E+05        -0.48304E+08         0.00000E+00
    0.00000E+00         0.00000E+00        -0.50741E-07
 
    0.35779E+06         0.11356E+06         0.00000E+00
    0.11356E+06        -0.48376E+08         0.00000E+00
    0.00000E+00         0.00000E+00         0.15222E-07
 
    0.33430E+06         0.12702E+06         0.00000E+00
    0.12702E+06        -0.48450E+08         0.00000E+00
    0.00000E+00         0.00000E+00        -0.60889E-07
 
    0.31401E+06         0.13947E+06         0.00000E+00
    0.13947E+06        -0.48524E+08         0.00000E+00
    0.00000E+00         0.00000E+00        -0.91333E-07
 
    0.29664E+06         0.15096E+06         0.00000E+00
    0.15096E+06        -0.48598E+08         0.00000E+00
    0.00000E+00         0.00000E+00         0.30444E-07
 
    0.28193E+06         0.16157E+06         0.00000E+00
    0.16157E+06        -0.48673E+08         0.00000E+00
    0.00000E+00         0.00000E+00        -0.60889E-07
 
    0.26961E+06         0.17139E+06         0.00000E+00
    0.17139E+06        -0.48749E+08         0.00000E+00
    0.00000E+00         0.00000E+00        -0.45667E-07
 
    0.25943E+06         0.18051E+06         0.00000E+00
    0.18051E+06        -0.48826E+08         0.00000E+00
    0.00000E+00         0.00000E+00         0.10148E-07
 
    0.25118E+06         0.18901E+06         0.00000E+00
    0.18901E+06        -0.48904E+08         0.00000E+00
    0.00000E+00         0.00000E+00        -0.20296E-07
 
    0.24464E+06         0.19699E+06         0.00000E+00
    0.19699E+06        -0.48982E+08         0.00000E+00
    0.00000E+00         0.00000E+00        -0.30444E-07
 
    0.23961E+06         0.20451E+06         0.00000E+00
    0.20451E+06        -0.49062E+08         0.00000E+00
    0.00000E+00         0.00000E+00         0.15222E-07
 
    0.23592E+06         0.21165E+06         0.00000E+00
    0.21165E+06        -0.49143E+08         0.00000E+00
    0.00000E+00         0.00000E+00        -0.20296E-07
 
    0.23341E+06         0.21847E+06         0.00000E+00
    0.21847E+06        -0.49225E+08         0.00000E+00
    0.00000E+00         0.00000E+00         0.50741E-08
 
    0.23194E+06         0.22504E+06         0.00000E+00
    0.22504E+06        -0.49308E+08         0.00000E+00
    0.00000E+00         0.00000E+00        -0.40593E-07
 
    0.23138E+06         0.23139E+06         0.00000E+00
    0.23139E+06        -0.49393E+08         0.00000E+00
    0.00000E+00         0.00000E+00        -0.30444E-07
 
    0.23161E+06         0.23758E+06         0.00000E+00
    0.23758E+06        -0.49479E+08         0.00000E+00
    0.00000E+00         0.00000E+00         0.00000E+00
 
    0.23254E+06         0.24364E+06         0.00000E+00
    0.24364E+06        -0.49566E+08         0.00000E+00
    0.00000E+00         0.00000E+00        -0.10148E-07
 
    0.23405E+06         0.24960E+06         0.00000E+00
    0.24960E+06        -0.49656E+08         0.00000E+00
    0.00000E+00         0.00000E+00         0.00000E+00
 
    0.23608E+06         0.25550E+06         0.00000E+00
    0.25550E+06        -0.49746E+08         0.00000E+00
    0.00000E+00         0.00000E+00         0.45667E-07
 
    0.23855E+06         0.26135E+06         0.00000E+00
    0.26135E+06        -0.49839E+08         0.00000E+00
    0.00000E+00         0.00000E+00        -0.35518E-07
 
    0.24138E+06         0.26717E+06         0.00000E+00
    0.26717E+06        -0.49933E+08         0.00000E+00
    0.00000E+00         0.00000E+00         0.50741E-08
 
    0.24452E+06         0.27299E+06         0.00000E+00
    0.27299E+06        -0.50029E+08         0.00000E+00
    0.00000E+00         0.00000E+00        -0.50741E-08
 
    0.24792E+06         0.27882E+06         0.00000E+00
    0.27882E+06        -0.50127E+08         0.00000E+00
    0.00000E+00         0.00000E+00        -0.30444E-07
 
    0.25152E+06         0.28466E+06         0.00000E+00
    0.28466E+06        -0.50227E+08         0.00000E+00
    0.00000E+00         0.00000E+00        -0.50741E-07
 
    0.25527E+06         0.29053E+06         0.00000E+00
    0.29053E+06        -0.50329E+08         0.00000E+00
    0.00000E+00         0.00000E+00         0.40593E-07
 
    0.25914E+06         0.29644E+06         0.00000E+00
    0.29644E+06        -0.50433E+08         0.00000E+00
    0.00000E+00         0.00000E+00         0.55814E-07
 
    0.26308E+06         0.30239E+06         0.00000E+00
    0.30239E+06        -0.50539E+08         0.00000E+00
    0.00000E+00         0.00000E+00         0.50741E-08
 
    0.26706E+06         0.30838E+06         0.00000E+00
    0.30838E+06        -0.50647E+08         0.00000E+00
    0.00000E+00         0.00000E+00        -0.65963E-07
 
    0.27104E+06         0.31443E+06         0.00000E+00
    0.31443E+06        -0.50758E+08         0.00000E+00
    0.00000E+00         0.00000E+00         0.10148E-07
 
    0.27499E+06         0.32053E+06         0.00000E+00
    0.32053E+06        -0.50870E+08         0.00000E+00
    0.00000E+00         0.00000E+00         0.65963E-07
 
    0.27888E+06         0.32667E+06         0.00000E+00
    0.32667E+06        -0.50986E+08         0.00000E+00
    0.00000E+00         0.00000E+00         0.50741E-07
 
    0.28269E+06         0.33287E+06         0.00000E+00
    0.33287E+06        -0.51103E+08         0.00000E+00
    0.00000E+00         0.00000E+00        -0.15222E-07
 
    0.28637E+06         0.33912E+06         0.00000E+00
    0.33912E+06        -0.51223E+08         0.00000E+00
    0.00000E+00         0.00000E+00        -0.10148E-07
 
    0.28990E+06         0.34541E+06         0.00000E+00
    0.34541E+06        -0.51346E+08         0.00000E+00
    0.00000E+00         0.00000E+00        -0.10148E-06
 
    0.29326E+06         0.35175E+06         0.00000E+00
    0.35175E+06        -0.51471E+08         0.00000E+00
    0.00000E+00         0.00000E+00        -0.35518E-07
 
    0.29641E+06         0.35812E+06         0.00000E+00
    0.35812E+06        -0.51598E+08         0.00000E+00
    0.00000E+00         0.00000E+00         0.50741E-07
 
    0.29934E+06         0.36453E+06         0.00000E+00
    0.36453E+06        -0.51729E+08         0.00000E+00
    0.00000E+00         0.00000E+00         0.10148E-06
 
    0.30200E+06         0.37097E+06         0.00000E+00
    0.37097E+06        -0.51862E+08         0.00000E+00
    0.00000E+00         0.00000E+00        -0.50741E-08
 
    0.30436E+06         0.37742E+06         0.00000E+00
    0.37742E+06        -0.51997E+08         0.00000E+00
    0.00000E+00         0.00000E+00         0.00000E+00
 
    0.30641E+06         0.38389E+06         0.00000E+00
    0.38389E+06        -0.52136E+08         0.00000E+00
    0.00000E+00         0.00000E+00         0.14207E-06
 
    0.30811E+06         0.39036E+06         0.00000E+00
    0.39036E+06        -0.52277E+08         0.00000E+00
    0.00000E+00         0.00000E+00        -0.10148E-07
 
    0.30942E+06         0.39682E+06         0.00000E+00
    0.39682E+06        -0.52421E+08         0.00000E+00
    0.00000E+00         0.00000E+00        -0.20296E-07
 
    0.31031E+06         0.40326E+06         0.00000E+00
    0.40326E+06        -0.52568E+08         0.00000E+00
    0.00000E+00         0.00000E+00         0.50741E-07
 
    0.31075E+06         0.40967E+06         0.00000E+00
    0.40967E+06        -0.52718E+08         0.00000E+00
    0.00000E+00         0.00000E+00        -0.30444E-07
 
    0.31069E+06         0.41604E+06         0.00000E+00
    0.41604E+06        -0.52871E+08         0.00000E+00
    0.00000E+00         0.00000E+00        -0.10148E-07
 
    0.31009E+06         0.42235E+06         0.00000E+00
    0.42235E+06        -0.53026E+08         0.00000E+00
    0.00000E+00         0.00000E+00         0.71037E-07
 
    0.30892E+06         0.42858E+06         0.00000E+00
    0.42858E+06        -0.53185E+08         0.00000E+00
    0.00000E+00         0.00000E+00         0.50741E-07
 
    0.30711E+06         0.43472E+06         0.00000E+00
    0.43472E+06        -0.53347E+08         0.00000E+00
    0.00000E+00         0.00000E+00        -0.20296E-07
 
    0.30463E+06         0.44074E+06         0.00000E+00
    0.44074E+06        -0.53511E+08         0.00000E+00
    0.00000E+00         0.00000E+00         0.14207E-06
 
    0.30141E+06         0.44663E+06         0.00000E+00
    0.44663E+06        -0.53679E+08         0.00000E+00
    0.00000E+00         0.00000E+00        -0.10148E-07
 
    0.29740E+06         0.45236E+06         0.00000E+00
    0.45236E+06        -0.53850E+08         0.00000E+00
    0.00000E+00         0.00000E+00        -0.71037E-07
 
    0.29253E+06         0.45790E+06         0.00000E+00
    0.45790E+06        -0.54024E+08         0.00000E+00
    0.00000E+00         0.00000E+00        -0.20296E-07
 
    0.28672E+06         0.46323E+06         0.00000E+00
    0.46323E+06        -0.54201E+08         0.00000E+00
    0.00000E+00         0.00000E+00         0.00000E+00
 
    0.27990E+06         0.46832E+06         0.00000E+00
    0.46832E+06        -0.54381E+08         0.00000E+00
    0.00000E+00         0.00000E+00        -0.50741E-07
 
    0.27197E+06         0.47313E+06         0.00000E+00
    0.47313E+06        -0.54564E+08         0.00000E+00
    0.00000E+00         0.00000E+00        -0.10148E-07
 
    0.26285E+06         0.47762E+06         0.00000E+00
    0.47762E+06        -0.54750E+08         0.00000E+00
    0.00000E+00         0.00000E+00        -0.81185E-07
 
    0.25241E+06         0.48175E+06         0.00000E+00
    0.48175E+06        -0.54939E+08         0.00000E+00
    0.00000E+00         0.00000E+00        -0.10148E-07
 
    0.24055E+06         0.48547E+06         0.00000E+00
    0.48547E+06        -0.55131E+08         0.00000E+00
    0.00000E+00         0.00000E+00        -0.11163E-06
 
    0.22713E+06         0.48872E+06         0.00000E+00
    0.48872E+06        -0.55326E+08         0.00000E+00
    0.00000E+00         0.00000E+00        -0.40593E-07
 
    0.21201E+06         0.49146E+06         0.00000E+00
    0.49146E+06        -0.55524E+08         0.00000E+00
    0.00000E+00         0.00000E+00         0.10148E-06
 
    0.19500E+06         0.49360E+06         0.00000E+00
    0.49360E+06        -0.55726E+08         0.00000E+00
    0.00000E+00         0.00000E+00         0.30444E-07
 
    0.17594E+06         0.49507E+06         0.00000E+00
    0.49507E+06        -0.55930E+08         0.00000E+00
    0.00000E+00         0.00000E+00         0.91333E-07
 
    0.15461E+06         0.49580E+06         0.00000E+00
    0.49580E+06        -0.56137E+08         0.00000E+00
    0.00000E+00         0.00000E+00         0.30444E-07
 
    0.13078E+06         0.49567E+06         0.00000E+00
    0.49567E+06        -0.56347E+08         0.00000E+00
    0.00000E+00         0.00000E+00         0.00000E+00
 
    0.10420E+06         0.49457E+06         0.00000E+00
    0.49457E+06        -0.56560E+08         0.00000E+00
    0.00000E+00         0.00000E+00        -0.60889E-07
 
    0.74562E+05         0.49239E+06         0.00000E+00
    0.49239E+06        -0.56776E+08         0.00000E+00
    0.00000E+00         0.00000E+00         0.30444E-07
 
    0.41555E+05         0.48898E+06         0.00000E+00
    0.48898E+06        -0.56994E+08         0.00000E+00
    0.00000E+00         0.00000E+00         0.30444E-07
 
    0.48129E+04         0.48418E+06         0.00000E+00
    0.48418E+06        -0.57216E+08         0.00000E+00
    0.00000E+00         0.00000E+00         0.30444E-07
 
   -0.36070E+05         0.47781E+06         0.00000E+00
    0.47781E+06        -0.57440E+08         0.00000E+00
    0.00000E+00         0.00000E+00        -0.10148E-06
 
   -0.81544E+05         0.46966E+06         0.00000E+00
    0.46966E+06        -0.57667E+08         0.00000E+00
    0.00000E+00         0.00000E+00         0.40593E-07
 
   -0.13211E+06         0.45952E+06         0.00000E+00
    0.45952E+06        -0.57897E+08         0.00000E+00
    0.00000E+00         0.00000E+00         0.71037E-07
 
   -0.18831E+06         0.44712E+06         0.00000E+00
    0.44712E+06        -0.58129E+08         0.00000E+00
    0.00000E+00         0.00000E+00        -0.10148E-07
 
   -0.25075E+06         0.43221E+06         0.00000E+00
    0.43221E+06        -0.58364E+08         0.00000E+00
    0.00000E+00         0.00000E+00         0.20296E-07
 
   -0.32009E+06         0.41450E+06         0.00000E+00
    0.41450E+06        -0.58601E+08         0.00000E+00
    0.00000E+00         0.00000E+00        -0.30444E-07
 
   -0.39704E+06         0.39369E+06         0.00000E+00
    0.39369E+06        -0.58840E+08         0.00000E+00
    0.00000E+00         0.00000E+00        -0.10148E-07
 
   -0.48234E+06         0.36948E+06         0.00000E+00
    0.36948E+06        -0.59082E+08         0.00000E+00
    0.00000E+00         0.00000E+00        -0.50741E-07
 
   -0.57679E+06         0.34160E+06         0.00000E+00
    0.34160E+06        -0.59327E+08         0.00000E+00
    0.00000E+00         0.00000E+00         0.00000E+00
 
   -0.68120E+06         0.30980E+06         0.00000E+00
    0.30980E+06        -0.59573E+08         0.00000E+00
    0.00000E+00         0.00000E+00        -0.10147E-07
 
   -0.79635E+06         0.27393E+06         0.00000E+00
    0.27393E+06        -0.59821E+08         0.00000E+00
    0.00000E+00         0.00000E+00        -0.10148E-06
 
   -0.92300E+06         0.23397E+06         0.00000E+00
    0.23397E+06        -0.60070E+08         0.00000E+00
    0.00000E+00         0.00000E+00         0.40593E-07
 
   -0.10618E+07         0.19008E+06         0.00000E+00
    0.19008E+06        -0.60320E+08         0.00000E+00
    0.00000E+00         0.00000E+00        -0.20296E-07
 
   -0.12132E+07         0.14274E+06         0.00000E+00
    0.14274E+06        -0.60571E+08         0.00000E+00
    0.00000E+00         0.00000E+00         0.40593E-07
 
   -0.13773E+07         0.92825E+05         0.00000E+00
    0.92825E+05        -0.60821E+08         0.00000E+00
    0.00000E+00         0.00000E+00         0.13193E-06
 
   -0.15538E+07         0.41854E+05         0.00000E+00
    0.41854E+05        -0.61070E+08         0.00000E+00
    0.00000E+00         0.00000E+00         0.00000E+00
 
   -0.17416E+07        -0.77613E+04         0.00000E+00
   -0.77613E+04        -0.61316E+08         0.00000E+00
    0.00000E+00         0.00000E+00        -0.60889E-07
 
   -0.19386E+07        -0.52229E+05         0.00000E+00
   -0.52229E+05        -0.61556E+08         0.00000E+00
    0.00000E+00         0.00000E+00        -0.40593E-07
 
   -0.21416E+07        -0.85544E+05         0.00000E+00
   -0.85544E+05        -0.61787E+08         0.00000E+00
    0.00000E+00         0.00000E+00         0.12178E-06
 
   -0.23478E+07        -0.98616E+05         0.00000E+00
   -0.98616E+05        -0.61998E+08         0.00000E+00
    0.00000E+00         0.00000E+00         0.40593E-07
 
   -0.25583E+07        -0.81302E+05         0.00000E+00
   -0.81302E+05        -0.62170E+08         0.00000E+00
    0.00000E+00         0.00000E+00        -0.22737E-12
 
   -0.27821E+07        -0.31948E+05         0.00000E+00
   -0.31948E+05        -0.62270E+08         0.00000E+00
    0.00000E+00         0.00000E+00        -0.81185E-07
 
    0.87116E+06        -0.80454E+04         0.00000E+00
   -0.80454E+04        -0.47684E+08         0.00000E+00
    0.00000E+00         0.00000E+00         0.10148E-07
 
    0.80973E+06        -0.19671E+05         0.00000E+00
   -0.19671E+05        -0.47713E+08         0.00000E+00
    0.00000E+00         0.00000E+00        -0.65963E-07
 
    0.75249E+06        -0.21689E+05         0.00000E+00
   -0.21689E+05        -0.47763E+08         0.00000E+00
    0.00000E+00         0.00000E+00         0.45667E-07
 
    0.69685E+06        -0.15055E+05         0.00000E+00
   -0.15055E+05        -0.47823E+08         0.00000E+00
    0.00000E+00         0.00000E+00        -0.20296E-07
 
    0.64274E+06        -0.29941E+04         0.00000E+00
   -0.29941E+04        -0.47887E+08         0.00000E+00
    0.00000E+00         0.00000E+00         0.15222E-07
 
    0.59118E+06         0.11908E+05         0.00000E+00
    0.11908E+05        -0.47955E+08         0.00000E+00
    0.00000E+00         0.00000E+00        -0.50741E-07
 
    0.54308E+06         0.28066E+05         0.00000E+00
    0.28066E+05        -0.48023E+08         0.00000E+00
    0.00000E+00         0.00000E+00         0.55815E-07
 
    0.49897E+06         0.44519E+05         0.00000E+00
    0.44519E+05        -0.48093E+08         0.00000E+00
    0.00000E+00         0.00000E+00         0.30444E-07
 
    0.45907E+06         0.60669E+05         0.00000E+00
    0.60669E+05        -0.48164E+08         0.00000E+00
    0.00000E+00         0.00000E+00         0.15222E-07
 
    0.42338E+06         0.76153E+05         0.00000E+00
    0.76153E+05        -0.48235E+08         0.00000E+00
    0.00000E+00         0.00000E+00        -0.86259E-07
 
    0.39179E+06         0.90765E+05         0.00000E+00
    0.90765E+05        -0.48307E+08         0.00000E+00
    0.00000E+00         0.00000E+00        -0.15222E-07
 
    0.36408E+06         0.10441E+06         0.00000E+00
    0.10441E+06        -0.48379E+08         0.00000E+00
    0.00000E+00         0.00000E+00        -0.10148E-07
 
    0.33997E+06         0.11705E+06         0.00000E+00
    0.11705E+06        -0.48452E+08         0.00000E+00
    0.00000E+00         0.00000E+00         0.45666E-07
 
    0.31919E+06         0.12873E+06         0.00000E+00
    0.12873E+06        -0.48526E+08         0.00000E+00
    0.00000E+00         0.00000E+00        -0.65963E-07
 
    0.30145E+06         0.13950E+06         0.00000E+00
    0.13950E+06        -0.48600E+08         0.00000E+00
    0.00000E+00         0.00000E+00         0.15222E-07
 
    0.28645E+06         0.14942E+06         0.00000E+00
    0.14942E+06        -0.48675E+08         0.00000E+00
    0.00000E+00         0.00000E+00        -0.65963E-07
 
    0.27392E+06         0.15859E+06         0.00000E+00
    0.15859E+06        -0.48751E+08         0.00000E+00
    0.00000E+00         0.00000E+00        -0.25370E-07
 
    0.26361E+06         0.16710E+06         0.00000E+00
    0.16710E+06        -0.48828E+08         0.00000E+00
    0.00000E+00         0.00000E+00         0.50741E-08
 
    0.25527E+06         0.17502E+06         0.00000E+00
    0.17502E+06        -0.48905E+08         0.00000E+00
    0.00000E+00         0.00000E+00         0.50741E-08
 
    0.24868E+06         0.18244E+06         0.00000E+00
    0.18244E+06        -0.48984E+08         0.00000E+00
    0.00000E+00         0.00000E+00        -0.45667E-07
 
    0.24364E+06         0.18944E+06         0.00000E+00
    0.18944E+06        -0.49063E+08         0.00000E+00
    0.00000E+00         0.00000E+00        -0.10148E-07
 
    0.23997E+06         0.19607E+06         0.00000E+00
    0.19607E+06        -0.49144E+08         0.00000E+00
    0.00000E+00         0.00000E+00         0.00000E+00
 
    0.23750E+06         0.20241E+06         0.00000E+00
    0.20241E+06        -0.49226E+08         0.00000E+00
    0.00000E+00         0.00000E+00        -0.20296E-07
 
    0.23609E+06         0.20850E+06         0.00000E+00
    0.20850E+06        -0.49309E+08         0.00000E+00
    0.00000E+00         0.00000E+00        -0.50741E-08
 
    0.23560E+06         0.21439E+06         0.00000E+00
    0.21439E+06        -0.49394E+08         0.00000E+00
    0.00000E+00         0.00000E+00        -0.50741E-08
 
    0.23592E+06         0.22013E+06         0.00000E+00
    0.22013E+06        -0.49480E+08         0.00000E+00
    0.00000E+00         0.00000E+00         0.50741E-08
 
    0.23693E+06         0.22574E+06         0.00000E+00
    0.22574E+06        -0.49568E+08         0.00000E+00
    0.00000E+00         0.00000E+00        -0.15222E-07
 
    0.23854E+06         0.23127E+06         0.00000E+00
    0.23127E+06        -0.49657E+08         0.00000E+00
    0.00000E+00         0.00000E+00        -0.50741E-08
 
    0.24068E+06         0.23672E+06         0.00000E+00
    0.23672E+06        -0.49747E+08         0.00000E+00
    0.00000E+00         0.00000E+00        -0.20296E-07
 
    0.24325E+06         0.24214E+06         0.00000E+00
    0.24214E+06        -0.49840E+08         0.00000E+00
    0.00000E+00         0.00000E+00         0.25370E-07
 
    0.24619E+06         0.24754E+06         0.00000E+00
    0.24754E+06        -0.49934E+08         0.00000E+00
    0.00000E+00         0.00000E+00        -0.10148E-07
 
    0.24945E+06         0.25292E+06         0.00000E+00
    0.25292E+06        -0.50030E+08         0.00000E+00
    0.00000E+00         0.00000E+00         0.50740E-07
 
    0.25296E+06         0.25832E+06         0.00000E+00
    0.25832E+06        -0.50128E+08         0.00000E+00
    0.00000E+00         0.00000E+00        -0.15222E-07
 
    0.25667E+06         0.26373E+06         0.00000E+00
    0.26373E+06        -0.50228E+08         0.00000E+00
    0.00000E+00         0.00000E+00         0.20296E-07
 
    0.26054E+06         0.26916E+06         0.00000E+00
    0.26916E+06        -0.50330E+08         0.00000E+00
    0.00000E+00         0.00000E+00        -0.25370E-07
 
    0.26452E+06         0.27463E+06         0.00000E+00
    0.27463E+06        -0.50434E+08         0.00000E+00
    0.00000E+00         0.00000E+00        -0.35518E-07
 
    0.26858E+06         0.28014E+06         0.00000E+00
    0.28014E+06        -0.50540E+08         0.00000E+00
    0.00000E+00         0.00000E+00        -0.81185E-07
 
    0.27267E+06         0.28569E+06         0.00000E+00
    0.28569E+06        -0.50648E+08         0.00000E+00
    0.00000E+00         0.00000E+00         0.81185E-07
 
    0.27676E+06         0.29128E+06         0.00000E+00
    0.29128E+06        -0.50759E+08         0.00000E+00
    0.00000E+00         0.00000E+00         0.71037E-07
 
    0.28082E+06         0.29692E+06         0.00000E+00
    0.29692E+06        -0.50872E+08         0.00000E+00
    0.00000E+00         0.00000E+00        -0.40593E-07
 
    0.28482E+06         0.30261E+06         0.00000E+00
    0.30261E+06        -0.50987E+08         0.00000E+00
    0.00000E+00         0.00000E+00        -0.60889E-07
 
    0.28873E+06         0.30834E+06         0.00000E+00
    0.30834E+06        -0.51104E+08         0.00000E+00
    0.00000E+00         0.00000E+00        -0.20296E-07
 
    0.29251E+06         0.31412E+06         0.00000E+00
    0.31412E+06        -0.51224E+08         0.00000E+00
    0.00000E+00         0.00000E+00         0.30444E-07
 
    0.29614E+06         0.31995E+06         0.00000E+00
    0.31995E+06        -0.51347E+08         0.00000E+00
    0.00000E+00         0.00000E+00         0.40593E-07
 
    0.29959E+06         0.32581E+06         0.00000E+00
    0.32581E+06        -0.51472E+08         0.00000E+00
    0.00000E+00         0.00000E+00         0.71037E-07
 
    0.30284E+06         0.33171E+06         0.00000E+00
    0.33171E+06        -0.51600E+08         0.00000E+00
    0.00000E+00         0.00000E+00         0.00000E+00
 
    0.30584E+06         0.33764E+06         0.00000E+00
    0.33764E+06        -0.51730E+08         0.00000E+00
    0.00000E+00         0.00000E+00         0.10148E-07
 
    0.30858E+06         0.34359E+06         0.00000E+00
    0.34359E+06        -0.51863E+08         0.00000E+00
    0.00000E+00         0.00000E+00        -0.60889E-07
 
    0.31102E+06         0.34956E+06         0.00000E+00
    0.34956E+06        -0.51998E+08         0.00000E+00
    0.00000E+00         0.00000E+00        -0.40593E-07
 
    0.31314E+06         0.35554E+06         0.00000E+00
    0.35554E+06        -0.52137E+08         0.00000E+00
    0.00000E+00         0.00000E+00         0.30444E-07
 
    0.31490E+06         0.36152E+06         0.00000E+00
    0.36152E+06        -0.52278E+08         0.00000E+00
    0.00000E+00         0.00000E+00        -0.30444E-07
 
    0.31626E+06         0.36750E+06         0.00000E+00
    0.36750E+06        -0.52422E+08         0.00000E+00
    0.00000E+00         0.00000E+00        -0.60889E-07
 
    0.31720E+06         0.37346E+06         0.00000E+00
    0.37346E+06        -0.52569E+08         0.00000E+00
    0.00000E+00         0.00000E+00         0.00000E+00
 
    0.31768E+06         0.37939E+06         0.00000E+00
    0.37939E+06        -0.52719E+08         0.00000E+00
    0.00000E+00         0.00000E+00        -0.20296E-07
 
    0.31765E+06         0.38527E+06         0.00000E+00
    0.38527E+06        -0.52872E+08         0.00000E+00
    0.00000E+00         0.00000E+00         0.40593E-07
 
    0.31708E+06         0.39110E+06         0.00000E+00
    0.39110E+06        -0.53027E+08         0.00000E+00
    0.00000E+00         0.00000E+00        -0.71037E-07
 
    0.31592E+06         0.39686E+06         0.00000E+00
    0.39686E+06        -0.53186E+08         0.00000E+00
    0.00000E+00         0.00000E+00        -0.12178E-06
 
    0.31412E+06         0.40253E+06         0.00000E+00
    0.40253E+06        -0.53348E+08         0.00000E+00
    0.00000E+00         0.00000E+00         0.10148E-06
 
    0.31163E+06         0.40810E+06         0.00000E+00
    0.40810E+06        -0.53512E+08         0.00000E+00
    0.00000E+00         0.00000E+00         0.10148E-07
 
    0.30839E+06         0.41354E+06         0.00000E+00
    0.41354E+06        -0.53680E+08         0.00000E+00
    0.00000E+00         0.00000E+00         0.30444E-07
 
    0.30435E+06         0.41883E+06         0.00000E+00
    0.41883E+06        -0.53851E+08         0.00000E+00
    0.00000E+00         0.00000E+00        -0.30444E-07
 
    0.29944E+06         0.42396E+06         0.00000E+00
    0.42396E+06        -0.54025E+08         0.00000E+00
    0.00000E+00         0.00000E+00        -0.20296E-07
 
    0.29357E+06         0.42888E+06         0.00000E+00
    0.42888E+06        -0.54202E+08         0.00000E+00
    0.00000E+00         0.00000E+00         0.20296E-07
 
    0.28668E+06         0.43358E+06         0.00000E+00
    0.43358E+06        -0.54381E+08         0.00000E+00
    0.00000E+00         0.00000E+00         0.30444E-07
 
    0.27867E+06         0.43802E+06         0.00000E+00
    0.43802E+06        -0.54564E+08         0.00000E+00
    0.00000E+00         0.00000E+00         0.40593E-07
 
    0.26944E+06         0.44216E+06         0.00000E+00
    0.44216E+06        -0.54750E+08         0.00000E+00
    0.00000E+00         0.00000E+00         0.40593E-07
 
    0.25889E+06         0.44596E+06         0.00000E+00
    0.44596E+06        -0.54940E+08         0.00000E+00
    0.00000E+00         0.00000E+00        -0.20296E-07
 
    0.24689E+06         0.44939E+06         0.00000E+00
    0.44939E+06        -0.55132E+08         0.00000E+00
    0.00000E+00         0.00000E+00         0.20296E-07
 
    0.23332E+06         0.45239E+06         0.00000E+00
    0.45239E+06        -0.55327E+08         0.00000E+00
    0.00000E+00         0.00000E+00         0.40593E-07
 
    0.21801E+06         0.45490E+06         0.00000E+00
    0.45490E+06        -0.55525E+08         0.00000E+00
    0.00000E+00         0.00000E+00        -0.20296E-07
 
    0.20080E+06         0.45686E+06         0.00000E+00
    0.45686E+06        -0.55726E+08         0.00000E+00
    0.00000E+00         0.00000E+00         0.20296E-07
 
    0.18150E+06         0.45820E+06         0.00000E+00
    0.45820E+06        -0.55930E+08         0.00000E+00
    0.00000E+00         0.00000E+00         0.20296E-07
 
    0.15991E+06         0.45884E+06         0.00000E+00
    0.45884E+06        -0.56137E+08         0.00000E+00
    0.00000E+00         0.00000E+00         0.00000E+00
 
    0.13578E+06         0.45869E+06         0.00000E+00
    0.45869E+06        -0.56347E+08         0.00000E+00
    0.00000E+00         0.00000E+00        -0.20296E-07
 
    0.10885E+06         0.45764E+06         0.00000E+00
    0.45764E+06        -0.56560E+08         0.00000E+00
    0.00000E+00         0.00000E+00         0.10148E-07
 
    0.78830E+05         0.45558E+06         0.00000E+00
    0.45558E+06        -0.56775E+08         0.00000E+00
    0.00000E+00         0.00000E+00        -0.40593E-07
 
    0.45380E+05         0.45237E+06         0.00000E+00
    0.45237E+06        -0.56994E+08         0.00000E+00
    0.00000E+00         0.00000E+00        -0.10148E-07
 
    0.81298E+04         0.44786E+06         0.00000E+00
    0.44786E+06        -0.57215E+08         0.00000E+00
    0.00000E+00         0.00000E+00        -0.40593E-07
 
   -0.33339E+05         0.44188E+06         0.00000E+00
    0.44188E+06        -0.57439E+08         0.00000E+00
    0.00000E+00         0.00000E+00        -0.20296E-07
 
   -0.79491E+05         0.43424E+06         0.00000E+00
    0.43424E+06        -0.57665E+08         0.00000E+00
    0.00000E+00         0.00000E+00        -0.60889E-07
 
   -0.13084E+06         0.42473E+06         0.00000E+00
    0.42473E+06        -0.57894E+08         0.00000E+00
    0.00000E+00         0.00000E+00        -0.30444E-07
 
   -0.18797E+06         0.41310E+06         0.00000E+00
    0.41310E+06        -0.58126E+08         0.00000E+00
    0.00000E+00         0.00000E+00        -0.40593E-07
 
   -0.25150E+06         0.39910E+06         0.00000E+00
    0.39910E+06        -0.58360E+08         0.00000E+00
    0.00000E+00         0.00000E+00        -0.20296E-07
 
   -0.32213E+06         0.38246E+06         0.00000E+00
    0.38246E+06        -0.58597E+08         0.00000E+00
    0.00000E+00         0.00000E+00         0.50741E-07
 
   -0.40060E+06         0.36290E+06         0.00000E+00
    0.36290E+06        -0.58836E+08         0.00000E+00
    0.00000E+00         0.00000E+00        -0.10148E-06
 
   -0.48772E+06         0.34012E+06         0.00000E+00
    0.34012E+06        -0.59077E+08         0.00000E+00
    0.00000E+00         0.00000E+00         0.00000E+00
 
   -0.58431E+06         0.31385E+06         0.00000E+00
    0.31385E+06        -0.59321E+08         0.00000E+00
    0.00000E+00         0.00000E+00         0.10148E-07
 
   -0.69126E+06         0.28386E+06         0.00000E+00
    0.28386E+06        -0.59566E+08         0.00000E+00
    0.00000E+00         0.00000E+00        -0.81185E-07
 
   -0.80942E+06         0.24999E+06         0.00000E+00
    0.24999E+06        -0.59813E+08         0.00000E+00
    0.00000E+00         0.00000E+00        -0.81185E-07
 
   -0.93962E+06         0.21220E+06         0.00000E+00
    0.21220E+06        -0.60062E+08         0.00000E+00
    0.00000E+00         0.00000E+00         0.30444E-07
 
   -0.10826E+07         0.17063E+06         0.00000E+00
    0.17063E+06        -0.60311E+08         0.00000E+00
    0.00000E+00         0.00000E+00        -0.30444E-07
 
   -0.12388E+07         0.12571E+06         0.00000E+00
    0.12571E+06        -0.60561E+08         0.00000E+00
    0.00000E+00         0.00000E+00         0.81184E-07
 
   -0.14085E+07         0.78228E+05         0.00000E+00
    0.78228E+05        -0.60811E+08         0.00000E+00
    0.00000E+00         0.00000E+00        -0.40593E-07
 
   -0.15913E+07         0.29584E+05         0.00000E+00
    0.29584E+05        -0.61060E+08         0.00000E+00
    0.00000E+00         0.00000E+00        -0.30444E-07
 
   -0.17861E+07        -0.17998E+05         0.00000E+00
   -0.17998E+05        -0.61306E+08         0.00000E+00
    0.00000E+00         0.00000E+00        -0.71036E-07
 
   -0.19906E+07        -0.60974E+05         0.00000E+00
   -0.60974E+05        -0.61548E+08         0.00000E+00
    0.00000E+00         0.00000E+00        -0.20296E-07
 
   -0.22012E+07        -0.93573E+05         0.00000E+00
   -0.93573E+05        -0.61782E+08         0.00000E+00
    0.00000E+00         0.00000E+00         0.10148E-07
 
   -0.24138E+07        -0.10646E+06         0.00000E+00
   -0.10646E+06        -0.61998E+08         0.00000E+00
    0.00000E+00         0.00000E+00         0.91333E-07
 
   -0.26283E+07        -0.88001E+05         0.00000E+00
   -0.88001E+05        -0.62177E+08         0.00000E+00
    0.00000E+00         0.00000E+00        -0.20296E-07
 
   -0.28534E+07        -0.34758E+05         0.00000E+00
   -0.34758E+05        -0.62283E+08         0.00000E+00
    0.00000E+00         0.00000E+00        -0.50741E-07
 
    0.89266E+06        -0.89131E+04         0.00000E+00
   -0.89131E+04        -0.47681E+08         0.00000E+00
    0.00000E+00         0.00000E+00         0.00000E+00
 
    0.83078E+06        -0.21707E+05         0.00000E+00
   -0.21707E+05        -0.47712E+08         0.00000E+00
    0.00000E+00         0.00000E+00         0.15222E-07
 
    0.77227E+06        -0.24068E+05         0.00000E+00
   -0.24068E+05        -0.47763E+08         0.00000E+00
    0.00000E+00         0.00000E+00        -0.10148E-07
 
    0.71469E+06        -0.17586E+05         0.00000E+00
   -0.17586E+05        -0.47825E+08         0.00000E+00
    0.00000E+00         0.00000E+00         0.10148E-07
 
    0.65842E+06        -0.59181E+04         0.00000E+00
   -0.59181E+04        -0.47890E+08         0.00000E+00
    0.00000E+00         0.00000E+00         0.25370E-07
 
    0.60479E+06         0.83290E+04         0.00000E+00
    0.83290E+04        -0.47958E+08         0.00000E+00
    0.00000E+00         0.00000E+00         0.50741E-07
 
    0.55484E+06         0.23665E+05         0.00000E+00
    0.23665E+05        -0.48026E+08         0.00000E+00
    0.00000E+00         0.00000E+00        -0.45667E-07
 
    0.50913E+06         0.39205E+05         0.00000E+00
    0.39205E+05        -0.48096E+08         0.00000E+00
    0.00000E+00         0.00000E+00        -0.20296E-07
 
    0.46786E+06         0.54408E+05         0.00000E+00
    0.54408E+05        -0.48167E+08         0.00000E+00
    0.00000E+00         0.00000E+00        -0.81185E-07
 
    0.43104E+06         0.68947E+05         0.00000E+00
    0.68947E+05        -0.48238E+08         0.00000E+00
    0.00000E+00         0.00000E+00        -0.15222E-07
 
    0.39852E+06         0.82637E+05         0.00000E+00
    0.82637E+05        -0.48309E+08         0.00000E+00
    0.00000E+00         0.00000E+00         0.00000E+00
 
    0.37005E+06         0.95393E+05         0.00000E+00
    0.95393E+05        -0.48382E+08         0.00000E+00
    0.00000E+00         0.00000E+00        -0.65963E-07
 
    0.34534E+06         0.10720E+06         0.00000E+00
    0.10720E+06        -0.48455E+08         0.00000E+00
    0.00000E+00         0.00000E+00        -0.71037E-07
 
    0.32409E+06         0.11808E+06         0.00000E+00
    0.11808E+06        -0.48528E+08         0.00000E+00
    0.00000E+00         0.00000E+00         0.15222E-07
 
    0.30599E+06         0.12810E+06         0.00000E+00
    0.12810E+06        -0.48602E+08         0.00000E+00
    0.00000E+00         0.00000E+00         0.50741E-08
 
    0.29073E+06         0.13732E+06         0.00000E+00
    0.13732E+06        -0.48677E+08         0.00000E+00
    0.00000E+00         0.00000E+00         0.55815E-07
 
    0.27802E+06         0.14583E+06         0.00000E+00
    0.14583E+06        -0.48753E+08         0.00000E+00
    0.00000E+00         0.00000E+00        -0.10148E-07
 
    0.26758E+06         0.15371E+06         0.00000E+00
    0.15371E+06        -0.48829E+08         0.00000E+00
    0.00000E+00         0.00000E+00        -0.10148E-06
 
    0.25917E+06         0.16104E+06         0.00000E+00
    0.16104E+06        -0.48907E+08         0.00000E+00
    0.00000E+00         0.00000E+00        -0.15222E-07
 
    0.25255E+06         0.16790E+06         0.00000E+00
    0.16790E+06        -0.48985E+08         0.00000E+00
    0.00000E+00         0.00000E+00         0.50741E-07
 
    0.24751E+06         0.17436E+06         0.00000E+00
    0.17436E+06        -0.49065E+08         0.00000E+00
    0.00000E+00         0.00000E+00        -0.10148E-07
 
    0.24387E+06         0.18049E+06         0.00000E+00
    0.18049E+06        -0.49145E+08         0.00000E+00
    0.00000E+00         0.00000E+00         0.20296E-07
 
    0.24145E+06         0.18633E+06         0.00000E+00
    0.18633E+06        -0.49227E+08         0.00000E+00
    0.00000E+00         0.00000E+00        -0.60889E-07
 
    0.24011E+06         0.19194E+06         0.00000E+00
    0.19194E+06        -0.49310E+08         0.00000E+00
    0.00000E+00         0.00000E+00         0.15222E-06
 
    0.23970E+06         0.19737E+06         0.00000E+00
    0.19737E+06        -0.49395E+08         0.00000E+00
    0.00000E+00         0.00000E+00        -0.30444E-07
 
    0.24010E+06         0.20265E+06         0.00000E+00
    0.20265E+06        -0.49481E+08         0.00000E+00
    0.00000E+00         0.00000E+00        -0.10148E-07
 
    0.24121E+06         0.20782E+06         0.00000E+00
    0.20782E+06        -0.49569E+08         0.00000E+00
    0.00000E+00         0.00000E+00        -0.20296E-07
 
    0.24293E+06         0.21291E+06         0.00000E+00
    0.21291E+06        -0.49658E+08         0.00000E+00
    0.00000E+00         0.00000E+00         0.30444E-07
 
    0.24517E+06         0.21793E+06         0.00000E+00
    0.21793E+06        -0.49748E+08         0.00000E+00
    0.00000E+00         0.00000E+00         0.40593E-07
 
    0.24785E+06         0.22292E+06         0.00000E+00
    0.22292E+06        -0.49841E+08         0.00000E+00
    0.00000E+00         0.00000E+00         0.60888E-07
 
    0.25091E+06         0.22788E+06         0.00000E+00
    0.22788E+06        -0.49935E+08         0.00000E+00
    0.00000E+00         0.00000E+00        -0.50741E-07
 
    0.25428E+06         0.23283E+06         0.00000E+00
    0.23283E+06        -0.50031E+08         0.00000E+00
    0.00000E+00         0.00000E+00        -0.20296E-07
 
    0.25791E+06         0.23780E+06         0.00000E+00
    0.23780E+06        -0.50129E+08         0.00000E+00
    0.00000E+00         0.00000E+00        -0.30444E-07
 
    0.26173E+06         0.24277E+06         0.00000E+00
    0.24277E+06        -0.50229E+08         0.00000E+00
    0.00000E+00         0.00000E+00        -0.50741E-07
 
    0.26572E+06         0.24777E+06         0.00000E+00
    0.24777E+06        -0.50331E+08         0.00000E+00
    0.00000E+00         0.00000E+00         0.81185E-07
 
    0.26982E+06         0.25280E+06         0.00000E+00
    0.25280E+06        -0.50435E+08         0.00000E+00
    0.00000E+00         0.00000E+00        -0.10148E-07
 
    0.27399E+06         0.25786E+06         0.00000E+00
    0.25786E+06        -0.50541E+08         0.00000E+00
    0.00000E+00         0.00000E+00         0.10148E-07
 
    0.27819E+06         0.26297E+06         0.00000E+00
    0.26297E+06        -0.50649E+08         0.00000E+00
    0.00000E+00         0.00000E+00        -0.20296E-07
 
    0.28240E+06         0.26811E+06         0.00000E+00
    0.26811E+06        -0.50760E+08         0.00000E+00
    0.00000E+00         0.00000E+00        -0.10148E-07
 
    0.28657E+06         0.27330E+06         0.00000E+00
    0.27330E+06        -0.50873E+08         0.00000E+00
    0.00000E+00         0.00000E+00         0.10148E-07
 
    0.29067E+06         0.27853E+06         0.00000E+00
    0.27853E+06        -0.50988E+08         0.00000E+00
    0.00000E+00         0.00000E+00         0.20296E-07
 
    0.29468E+06         0.28380E+06         0.00000E+00
    0.28380E+06        -0.51105E+08         0.00000E+00
    0.00000E+00         0.00000E+00        -0.10148E-07
 
    0.29857E+06         0.28911E+06         0.00000E+00
    0.28911E+06        -0.51225E+08         0.00000E+00
    0.00000E+00         0.00000E+00        -0.10148E-07
 
    0.30230E+06         0.29447E+06         0.00000E+00
    0.29447E+06        -0.51348E+08         0.00000E+00
    0.00000E+00         0.00000E+00        -0.50741E-07
 
    0.30584E+06         0.29985E+06         0.00000E+00
    0.29985E+06        -0.51473E+08         0.00000E+00
    0.00000E+00         0.00000E+00        -0.40593E-07
 
    0.30917E+06         0.30528E+06         0.00000E+00
    0.30528E+06        -0.51601E+08         0.00000E+00
    0.00000E+00         0.00000E+00         0.60889E-07
 
    0.31226E+06         0.31072E+06         0.00000E+00
    0.31072E+06        -0.51731E+08         0.00000E+00
    0.00000E+00         0.00000E+00        -0.71037E-07
 
    0.31508E+06         0.31620E+06         0.00000E+00
    0.31620E+06        -0.51864E+08         0.00000E+00
    0.00000E+00         0.00000E+00         0.71037E-07
 
    0.31760E+06         0.32168E+06         0.00000E+00
    0.32168E+06        -0.52000E+08         0.00000E+00
    0.00000E+00         0.00000E+00         0.40593E-07
 
    0.31979E+06         0.32718E+06         0.00000E+00
    0.32718E+06        -0.52138E+08         0.00000E+00
    0.00000E+00         0.00000E+00         0.10148E-07
 
    0.32161E+06         0.33268E+06         0.00000E+00
    0.33268E+06        -0.52279E+08         0.00000E+00
    0.00000E+00         0.00000E+00         0.13193E-06
 
    0.32303E+06         0.33817E+06         0.00000E+00
    0.33817E+06        -0.52423E+08         0.00000E+00
    0.00000E+00         0.00000E+00         0.91333E-07
 
    0.32402E+06         0.34364E+06         0.00000E+00
    0.34364E+06        -0.52570E+08         0.00000E+00
    0.00000E+00         0.00000E+00         0.00000E+00
 
    0.32453E+06         0.34909E+06         0.00000E+00
    0.34909E+06        -0.52720E+08         0.00000E+00
    0.00000E+00         0.00000E+00        -0.50741E-07
 
    0.32454E+06         0.35450E+06         0.00000E+00
    0.35450E+06        -0.52873E+08         0.00000E+00
    0.00000E+00         0.00000E+00         0.10148E-07
 
    0.32399E+06         0.35985E+06         0.00000E+00
    0.35985E+06        -0.53028E+08         0.00000E+00
    0.00000E+00         0.00000E+00         0.00000E+00
 
    0.32285E+06         0.36514E+06         0.00000E+00
    0.36514E+06        -0.53187E+08         0.00000E+00
    0.00000E+00         0.00000E+00        -0.40593E-07
 
    0.32106E+06         0.37035E+06         0.00000E+00
    0.37035E+06        -0.53349E+08         0.00000E+00
    0.00000E+00         0.00000E+00        -0.60889E-07
 
    0.31857E+06         0.37546E+06         0.00000E+00
    0.37546E+06        -0.53513E+08         0.00000E+00
    0.00000E+00         0.00000E+00        -0.50741E-07
 
    0.31532E+06         0.38046E+06         0.00000E+00
    0.38046E+06        -0.53681E+08         0.00000E+00
    0.00000E+00         0.00000E+00         0.00000E+00
 
    0.31125E+06         0.38532E+06         0.00000E+00
    0.38532E+06        -0.53852E+08         0.00000E+00
    0.00000E+00         0.00000E+00         0.20296E-07
 
    0.30630E+06         0.39002E+06         0.00000E+00
    0.39002E+06        -0.54026E+08         0.00000E+00
    0.00000E+00         0.00000E+00         0.00000E+00
 
    0.30039E+06         0.39454E+06         0.00000E+00
    0.39454E+06        -0.54202E+08         0.00000E+00
    0.00000E+00         0.00000E+00         0.00000E+00
 
    0.29343E+06         0.39885E+06         0.00000E+00
    0.39885E+06        -0.54382E+08         0.00000E+00
    0.00000E+00         0.00000E+00        -0.20296E-07
 
    0.28535E+06         0.40292E+06         0.00000E+00
    0.40292E+06        -0.54565E+08         0.00000E+00
    0.00000E+00         0.00000E+00        -0.30444E-07
 
    0.27603E+06         0.40672E+06         0.00000E+00
    0.40672E+06        -0.54751E+08         0.00000E+00
    0.00000E+00         0.00000E+00        -0.20296E-07
 
    0.26537E+06         0.41020E+06         0.00000E+00
    0.41020E+06        -0.54940E+08         0.00000E+00
    0.00000E+00         0.00000E+00        -0.30444E-07
 
    0.25325E+06         0.41334E+06         0.00000E+00
    0.41334E+06        -0.55132E+08         0.00000E+00
    0.00000E+00         0.00000E+00        -0.71037E-07
 
    0.23952E+06         0.41608E+06         0.00000E+00
    0.41608E+06        -0.55327E+08         0.00000E+00
    0.00000E+00         0.00000E+00        -0.30444E-07
 
    0.22405E+06         0.41838E+06         0.00000E+00
    0.41838E+06        -0.55525E+08         0.00000E+00
    0.00000E+00         0.00000E+00         0.50741E-07
 
    0.20665E+06         0.42017E+06         0.00000E+00
    0.42017E+06        -0.55726E+08         0.00000E+00
    0.00000E+00         0.00000E+00        -0.30444E-07
 
    0.18714E+06         0.42138E+06         0.00000E+00
    0.42138E+06        -0.55930E+08         0.00000E+00
    0.00000E+00         0.00000E+00        -0.16237E-06
 
    0.16530E+06         0.42195E+06         0.00000E+00
    0.42195E+06        -0.56137E+08         0.00000E+00
    0.00000E+00         0.00000E+00         0.00000E+00
 
    0.14089E+06         0.42178E+06         0.00000E+00
    0.42178E+06        -0.56347E+08         0.00000E+00
    0.00000E+00         0.00000E+00         0.20296E-07
 
    0.11365E+06         0.42079E+06         0.00000E+00
    0.42079E+06        -0.56559E+08         0.00000E+00
    0.00000E+00         0.00000E+00        -0.40593E-07
 
    0.83274E+05         0.41885E+06         0.00000E+00
    0.41885E+06        -0.56775E+08         0.00000E+00
    0.00000E+00         0.00000E+00         0.10148E-07
 
    0.49416E+05         0.41585E+06         0.00000E+00
    0.41585E+06        -0.56993E+08         0.00000E+00
    0.00000E+00         0.00000E+00         0.20296E-07
 
    0.11695E+05         0.41165E+06         0.00000E+00
    0.41165E+06        -0.57214E+08         0.00000E+00
    0.00000E+00         0.00000E+00        -0.20296E-07
 
   -0.30318E+05         0.40608E+06         0.00000E+00
    0.40608E+06        -0.57437E+08         0.00000E+00
    0.00000E+00         0.00000E+00         0.00000E+00
 
   -0.77103E+05         0.39896E+06         0.00000E+00
    0.39896E+06        -0.57664E+08         0.00000E+00
    0.00000E+00         0.00000E+00         0.81185E-07
 
   -0.12920E+06         0.39010E+06         0.00000E+00
    0.39010E+06        -0.57892E+08         0.00000E+00
    0.00000E+00         0.00000E+00        -0.81185E-07
 
   -0.18719E+06         0.37927E+06         0.00000E+00
    0.37927E+06        -0.58124E+08         0.00000E+00
    0.00000E+00         0.00000E+00        -0.91332E-07
 
   -0.25176E+06         0.36622E+06         0.00000E+00
    0.36622E+06        -0.58357E+08         0.00000E+00
    0.00000E+00         0.00000E+00         0.20296E-07
 
   -0.32361E+06         0.35070E+06         0.00000E+00
    0.35070E+06        -0.58594E+08         0.00000E+00
    0.00000E+00         0.00000E+00         0.71037E-07
 
   -0.40353E+06         0.33243E+06         0.00000E+00
    0.33243E+06        -0.58832E+08         0.00000E+00
    0.00000E+00         0.00000E+00         0.71037E-07
 
   -0.49238E+06         0.31114E+06         0.00000E+00
    0.31114E+06        -0.59073E+08         0.00000E+00
    0.00000E+00         0.00000E+00        -0.71037E-07
 
   -0.59105E+06         0.28656E+06         0.00000E+00
    0.28656E+06        -0.59315E+08         0.00000E+00
    0.00000E+00         0.00000E+00         0.91333E-07
 
   -0.70047E+06         0.25847E+06         0.00000E+00
    0.25847E+06        -0.59560E+08         0.00000E+00
    0.00000E+00         0.00000E+00         0.10148E-07
 
   -0.82158E+06         0.22669E+06         0.00000E+00
    0.22669E+06        -0.59806E+08         0.00000E+00
    0.00000E+00         0.00000E+00        -0.11163E-06
 
   -0.95527E+06         0.19119E+06         0.00000E+00
    0.19119E+06        -0.60054E+08         0.00000E+00
    0.00000E+00         0.00000E+00        -0.12178E-06
 
   -0.11023E+07         0.15208E+06         0.00000E+00
    0.15208E+06        -0.60303E+08         0.00000E+00
    0.00000E+00         0.00000E+00        -0.81185E-07
 
   -0.12634E+07         0.10971E+06         0.00000E+00
    0.10971E+06        -0.60552E+08         0.00000E+00
    0.00000E+00         0.00000E+00        -0.50741E-07
 
   -0.14387E+07         0.64825E+05         0.00000E+00
    0.64825E+05        -0.60802E+08         0.00000E+00
    0.00000E+00         0.00000E+00         0.10148E-07
 
   -0.16279E+07         0.18666E+05         0.00000E+00
    0.18666E+05        -0.61050E+08         0.00000E+00
    0.00000E+00         0.00000E+00         0.20296E-07
 
   -0.18300E+07        -0.26736E+05         0.00000E+00
   -0.26736E+05        -0.61297E+08         0.00000E+00
    0.00000E+00         0.00000E+00         0.13193E-06
 
   -0.20424E+07        -0.68123E+05         0.00000E+00
   -0.68123E+05        -0.61540E+08         0.00000E+00
    0.00000E+00         0.00000E+00         0.50741E-07
 
   -0.22613E+07        -0.10006E+06         0.00000E+00
   -0.10006E+06        -0.61777E+08         0.00000E+00
    0.00000E+00         0.00000E+00        -0.10148E-07
 
   -0.24812E+07        -0.11314E+06         0.00000E+00
   -0.11314E+06        -0.61999E+08         0.00000E+00
    0.00000E+00         0.00000E+00         0.81185E-07
 
   -0.27004E+07        -0.94191E+05         0.00000E+00
   -0.94191E+05        -0.62185E+08         0.00000E+00
    0.00000E+00         0.00000E+00        -0.60889E-07
 
   -0.29272E+07        -0.37497E+05         0.00000E+00
   -0.37497E+05        -0.62297E+08         0.00000E+00
    0.00000E+00         0.00000E+00         0.60889E-07
 
    0.91486E+06        -0.97599E+04         0.00000E+00
   -0.97599E+04        -0.47677E+08         0.00000E+00
    0.00000E+00         0.00000E+00         0.20296E-07
 
    0.85241E+06        -0.23579E+05         0.00000E+00
   -0.23579E+05        -0.47710E+08         0.00000E+00
    0.00000E+00         0.00000E+00         0.50740E-07
 
    0.79238E+06        -0.26085E+05         0.00000E+00
   -0.26085E+05        -0.47764E+08         0.00000E+00
    0.00000E+00         0.00000E+00        -0.10148E-07
 
    0.73258E+06        -0.19663E+05         0.00000E+00
   -0.19663E+05        -0.47827E+08         0.00000E+00
    0.00000E+00         0.00000E+00         0.81185E-07
 
    0.67394E+06        -0.83953E+04         0.00000E+00
   -0.83953E+04        -0.47893E+08         0.00000E+00
    0.00000E+00         0.00000E+00         0.30444E-07
 
    0.61814E+06         0.51532E+04         0.00000E+00
    0.51532E+04        -0.47961E+08         0.00000E+00
    0.00000E+00         0.00000E+00         0.10148E-07
 
    0.56628E+06         0.19614E+05         0.00000E+00
    0.19614E+05        -0.48030E+08         0.00000E+00
    0.00000E+00         0.00000E+00         0.00000E+00
 
    0.51893E+06         0.34190E+05         0.00000E+00
    0.34190E+05        -0.48099E+08         0.00000E+00
    0.00000E+00         0.00000E+00         0.10148E-07
 
    0.47629E+06         0.48398E+05         0.00000E+00
    0.48398E+05        -0.48170E+08         0.00000E+00
    0.00000E+00         0.00000E+00         0.00000E+00
 
    0.43834E+06         0.61946E+05         0.00000E+00
    0.61946E+05        -0.48241E+08         0.00000E+00
    0.00000E+00         0.00000E+00         0.00000E+00
 
    0.40490E+06         0.74675E+05         0.00000E+00
    0.74675E+05        -0.48312E+08         0.00000E+00
    0.00000E+00         0.00000E+00        -0.10148E-07
 
    0.37569E+06         0.86513E+05         0.00000E+00
    0.86513E+05        -0.48384E+08         0.00000E+00
    0.00000E+00         0.00000E+00         0.40593E-07
 
    0.35040E+06         0.97449E+05         0.00000E+00
    0.97449E+05        -0.48457E+08         0.00000E+00
    0.00000E+00         0.00000E+00        -0.40592E-07
 
    0.32871E+06         0.10751E+06         0.00000E+00
    0.10751E+06        -0.48530E+08         0.00000E+00
    0.00000E+00         0.00000E+00         0.20296E-07
 
    0.31027E+06         0.11676E+06         0.00000E+00
    0.11676E+06        -0.48604E+08         0.00000E+00
    0.00000E+00         0.00000E+00         0.30444E-07
 
    0.29477E+06         0.12526E+06         0.00000E+00
    0.12526E+06        -0.48679E+08         0.00000E+00
    0.00000E+00         0.00000E+00         0.00000E+00
 
    0.28189E+06         0.13309E+06         0.00000E+00
    0.13309E+06        -0.48754E+08         0.00000E+00
    0.00000E+00         0.00000E+00         0.10148E-07
 
    0.27135E+06         0.14034E+06         0.00000E+00
    0.14034E+06        -0.48831E+08         0.00000E+00
    0.00000E+00         0.00000E+00         0.00000E+00
 
    0.26288E+06         0.14707E+06         0.00000E+00
    0.14707E+06        -0.48908E+08         0.00000E+00
    0.00000E+00         0.00000E+00         0.71037E-07
 
    0.25624E+06         0.15337E+06         0.00000E+00
    0.15337E+06        -0.48986E+08         0.00000E+00
    0.00000E+00         0.00000E+00         0.10148E-07
 
    0.25122E+06         0.15929E+06         0.00000E+00
    0.15929E+06        -0.49066E+08         0.00000E+00
    0.00000E+00         0.00000E+00        -0.50740E-07
 
    0.24762E+06         0.16489E+06         0.00000E+00
    0.16489E+06        -0.49146E+08         0.00000E+00
    0.00000E+00         0.00000E+00        -0.60889E-07
 
    0.24526E+06         0.17024E+06         0.00000E+00
    0.17024E+06        -0.49228E+08         0.00000E+00
    0.00000E+00         0.00000E+00        -0.20296E-07
 
    0.24399E+06         0.17537E+06         0.00000E+00
    0.17537E+06        -0.49312E+08         0.00000E+00
    0.00000E+00         0.00000E+00        -0.20296E-07
 
    0.24366E+06         0.18034E+06         0.00000E+00
    0.18034E+06        -0.49396E+08         0.00000E+00
    0.00000E+00         0.00000E+00        -0.40593E-07
 
    0.24416E+06         0.18516E+06         0.00000E+00
    0.18516E+06        -0.49482E+08         0.00000E+00
    0.00000E+00         0.00000E+00        -0.30444E-07
 
    0.24537E+06         0.18989E+06         0.00000E+00
    0.18989E+06        -0.49570E+08         0.00000E+00
    0.00000E+00         0.00000E+00        -0.20296E-07
 
    0.24720E+06         0.19453E+06         0.00000E+00
    0.19453E+06        -0.49659E+08         0.00000E+00
    0.00000E+00         0.00000E+00         0.50741E-07
 
    0.24955E+06         0.19912E+06         0.00000E+00
    0.19912E+06        -0.49749E+08         0.00000E+00
    0.00000E+00         0.00000E+00         0.20296E-07
 
    0.25235E+06         0.20367E+06         0.00000E+00
    0.20367E+06        -0.49842E+08         0.00000E+00
    0.00000E+00         0.00000E+00         0.40592E-07
 
    0.25553E+06         0.20820E+06         0.00000E+00
    0.20820E+06        -0.49936E+08         0.00000E+00
    0.00000E+00         0.00000E+00         0.81185E-07
 
    0.25901E+06         0.21272E+06         0.00000E+00
    0.21272E+06        -0.50032E+08         0.00000E+00
    0.00000E+00         0.00000E+00         0.60889E-07
 
    0.26276E+06         0.21725E+06         0.00000E+00
    0.21725E+06        -0.50130E+08         0.00000E+00
    0.00000E+00         0.00000E+00        -0.30444E-07
 
    0.26670E+06         0.22179E+06         0.00000E+00
    0.22179E+06        -0.50230E+08         0.00000E+00
    0.00000E+00         0.00000E+00        -0.40593E-07
 
    0.27081E+06         0.22635E+06         0.00000E+00
    0.22635E+06        -0.50332E+08         0.00000E+00
    0.00000E+00         0.00000E+00         0.20296E-07
 
    0.27502E+06         0.23094E+06         0.00000E+00
    0.23094E+06        -0.50436E+08         0.00000E+00
    0.00000E+00         0.00000E+00        -0.81185E-07
 
    0.27931E+06         0.23557E+06         0.00000E+00
    0.23557E+06        -0.50542E+08         0.00000E+00
    0.00000E+00         0.00000E+00         0.20296E-07
 
    0.28362E+06         0.24022E+06         0.00000E+00
    0.24022E+06        -0.50650E+08         0.00000E+00
    0.00000E+00         0.00000E+00         0.00000E+00
 
    0.28794E+06         0.24492E+06         0.00000E+00
    0.24492E+06        -0.50761E+08         0.00000E+00
    0.00000E+00         0.00000E+00         0.71037E-07
 
    0.29222E+06         0.24965E+06         0.00000E+00
    0.24965E+06        -0.50874E+08         0.00000E+00
    0.00000E+00         0.00000E+00        -0.91333E-07
 
    0.29643E+06         0.25442E+06         0.00000E+00
    0.25442E+06        -0.50989E+08         0.00000E+00
    0.00000E+00         0.00000E+00         0.00000E+00
 
    0.30055E+06         0.25923E+06         0.00000E+00
    0.25923E+06        -0.51106E+08         0.00000E+00
    0.00000E+00         0.00000E+00        -0.10148E-07
 
    0.30453E+06         0.26408E+06         0.00000E+00
    0.26408E+06        -0.51226E+08         0.00000E+00
    0.00000E+00         0.00000E+00        -0.10148E-07
 
    0.30836E+06         0.26896E+06         0.00000E+00
    0.26896E+06        -0.51349E+08         0.00000E+00
    0.00000E+00         0.00000E+00        -0.71037E-07
 
    0.31200E+06         0.27388E+06         0.00000E+00
    0.27388E+06        -0.51474E+08         0.00000E+00
    0.00000E+00         0.00000E+00        -0.40593E-07
 
    0.31542E+06         0.27883E+06         0.00000E+00
    0.27883E+06        -0.51602E+08         0.00000E+00
    0.00000E+00         0.00000E+00         0.10148E-07
 
    0.31860E+06         0.28380E+06         0.00000E+00
    0.28380E+06        -0.51732E+08         0.00000E+00
    0.00000E+00         0.00000E+00         0.60889E-07
 
    0.32150E+06         0.28879E+06         0.00000E+00
    0.28879E+06        -0.51865E+08         0.00000E+00
    0.00000E+00         0.00000E+00         0.50741E-07
 
    0.32409E+06         0.29379E+06         0.00000E+00
    0.29379E+06        -0.52001E+08         0.00000E+00
    0.00000E+00         0.00000E+00         0.40593E-07
 
    0.32635E+06         0.29881E+06         0.00000E+00
    0.29881E+06        -0.52139E+08         0.00000E+00
    0.00000E+00         0.00000E+00        -0.10148E-07
 
    0.32823E+06         0.30382E+06         0.00000E+00
    0.30382E+06        -0.52280E+08         0.00000E+00
    0.00000E+00         0.00000E+00        -0.50741E-07
 
    0.32971E+06         0.30883E+06         0.00000E+00
    0.30883E+06        -0.52424E+08         0.00000E+00
    0.00000E+00         0.00000E+00        -0.50741E-07
 
    0.33075E+06         0.31382E+06         0.00000E+00
    0.31382E+06        -0.52571E+08         0.00000E+00
    0.00000E+00         0.00000E+00         0.10148E-07
 
    0.33132E+06         0.31879E+06         0.00000E+00
    0.31879E+06        -0.52721E+08         0.00000E+00
    0.00000E+00         0.00000E+00         0.71037E-07
 
    0.33136E+06         0.32372E+06         0.00000E+00
    0.32372E+06        -0.52874E+08         0.00000E+00
    0.00000E+00         0.00000E+00         0.10148E-07
 
    0.33084E+06         0.32860E+06         0.00000E+00
    0.32860E+06        -0.53029E+08         0.00000E+00
    0.00000E+00         0.00000E+00        -0.71037E-07
 
    0.32972E+06         0.33342E+06         0.00000E+00
    0.33342E+06        -0.53188E+08         0.00000E+00
    0.00000E+00         0.00000E+00        -0.60889E-07
 
    0.32794E+06         0.33817E+06         0.00000E+00
    0.33817E+06        -0.53350E+08         0.00000E+00
    0.00000E+00         0.00000E+00         0.40593E-07
 
    0.32545E+06         0.34283E+06         0.00000E+00
    0.34283E+06        -0.53514E+08         0.00000E+00
    0.00000E+00         0.00000E+00         0.30444E-07
 
    0.32219E+06         0.34738E+06         0.00000E+00
    0.34738E+06        -0.53682E+08         0.00000E+00
    0.00000E+00         0.00000E+00        -0.71037E-07
 
    0.31811E+06         0.35181E+06         0.00000E+00
    0.35181E+06        -0.53853E+08         0.00000E+00
    0.00000E+00         0.00000E+00        -0.20296E-07
 
    0.31312E+06         0.35609E+06         0.00000E+00
    0.35609E+06        -0.54027E+08         0.00000E+00
    0.00000E+00         0.00000E+00        -0.40593E-07
 
    0.30717E+06         0.36021E+06         0.00000E+00
    0.36021E+06        -0.54203E+08         0.00000E+00
    0.00000E+00         0.00000E+00        -0.10148E-07
 
    0.30016E+06         0.36413E+06         0.00000E+00
    0.36413E+06        -0.54383E+08         0.00000E+00
    0.00000E+00         0.00000E+00         0.00000E+00
 
    0.29200E+06         0.36784E+06         0.00000E+00
    0.36784E+06        -0.54566E+08         0.00000E+00
    0.00000E+00         0.00000E+00         0.60889E-07
 
    0.28260E+06         0.37129E+06         0.00000E+00
    0.37129E+06        -0.54752E+08         0.00000E+00
    0.00000E+00         0.00000E+00         0.20296E-07
 
    0.27185E+06         0.37447E+06         0.00000E+00
    0.37447E+06        -0.54941E+08         0.00000E+00
    0.00000E+00         0.00000E+00        -0.10148E-07
 
    0.25961E+06         0.37732E+06         0.00000E+00
    0.37732E+06        -0.55133E+08         0.00000E+00
    0.00000E+00         0.00000E+00         0.00000E+00
 
    0.24575E+06         0.37981E+06         0.00000E+00
    0.37981E+06        -0.55328E+08         0.00000E+00
    0.00000E+00         0.00000E+00        -0.60889E-07
 
    0.23013E+06         0.38189E+06         0.00000E+00
    0.38189E+06        -0.55526E+08         0.00000E+00
    0.00000E+00         0.00000E+00        -0.60889E-07
 
    0.21255E+06         0.38351E+06         0.00000E+00
    0.38351E+06        -0.55727E+08         0.00000E+00
    0.00000E+00         0.00000E+00         0.20296E-07
 
    0.19285E+06         0.38460E+06         0.00000E+00
    0.38460E+06        -0.55930E+08         0.00000E+00
    0.00000E+00         0.00000E+00        -0.50741E-07
 
    0.17079E+06         0.38510E+06         0.00000E+00
    0.38510E+06        -0.56137E+08         0.00000E+00
    0.00000E+00         0.00000E+00         0.00000E+00
 
    0.14613E+06         0.38492E+06         0.00000E+00
    0.38492E+06        -0.56347E+08         0.00000E+00
    0.00000E+00         0.00000E+00        -0.10148E-07
 
    0.11860E+06         0.38399E+06         0.00000E+00
    0.38399E+06        -0.56559E+08         0.00000E+00
    0.00000E+00         0.00000E+00        -0.20296E-07
 
    0.87899E+05         0.38219E+06         0.00000E+00
    0.38219E+06        -0.56774E+08         0.00000E+00
    0.00000E+00         0.00000E+00        -0.11163E-06
 
    0.53665E+05         0.37942E+06         0.00000E+00
    0.37942E+06        -0.56992E+08         0.00000E+00
    0.00000E+00         0.00000E+00        -0.60889E-07
 
    0.15511E+05         0.37553E+06         0.00000E+00
    0.37553E+06        -0.57213E+08         0.00000E+00
    0.00000E+00         0.00000E+00        -0.60889E-07
 
   -0.27003E+05         0.37039E+06         0.00000E+00
    0.37039E+06        -0.57436E+08         0.00000E+00
    0.00000E+00         0.00000E+00        -0.11163E-06
 
   -0.74373E+05         0.36382E+06         0.00000E+00
    0.36382E+06        -0.57662E+08         0.00000E+00
    0.00000E+00         0.00000E+00         0.10148E-07
 
   -0.12715E+06         0.35563E+06         0.00000E+00
    0.35563E+06        -0.57890E+08         0.00000E+00
    0.00000E+00         0.00000E+00         0.40593E-07
 
   -0.18596E+06         0.34562E+06         0.00000E+00
    0.34562E+06        -0.58121E+08         0.00000E+00
    0.00000E+00         0.00000E+00        -0.60889E-07
 
   -0.25149E+06         0.33356E+06         0.00000E+00
    0.33356E+06        -0.58355E+08         0.00000E+00
    0.00000E+00         0.00000E+00        -0.50741E-07
 
   -0.32450E+06         0.31919E+06         0.00000E+00
    0.31919E+06        -0.58590E+08         0.00000E+00
    0.00000E+00         0.00000E+00         0.00000E+00
 
   -0.40580E+06         0.30227E+06         0.00000E+00
    0.30227E+06        -0.58828E+08         0.00000E+00
    0.00000E+00         0.00000E+00        -0.14207E-06
 
   -0.49631E+06         0.28253E+06         0.00000E+00
    0.28253E+06        -0.59068E+08         0.00000E+00
    0.00000E+00         0.00000E+00         0.20296E-07
 
   -0.59698E+06         0.25972E+06         0.00000E+00
    0.25972E+06        -0.59310E+08         0.00000E+00
    0.00000E+00         0.00000E+00         0.00000E+00
 
   -0.70880E+06         0.23360E+06         0.00000E+00
    0.23360E+06        -0.59554E+08         0.00000E+00
    0.00000E+00         0.00000E+00         0.10148E-07
 
   -0.83278E+06         0.20403E+06         0.00000E+00
    0.20403E+06        -0.59800E+08         0.00000E+00
    0.00000E+00         0.00000E+00        -0.91333E-07
 
   -0.96990E+06         0.17094E+06         0.00000E+00
    0.17094E+06        -0.60047E+08         0.00000E+00
    0.00000E+00         0.00000E+00         0.60889E-07
 
   -0.11210E+07         0.13441E+06         0.00000E+00
    0.13441E+06        -0.60295E+08         0.00000E+00
    0.00000E+00         0.00000E+00         0.30444E-07
 
   -0.12869E+07         0.94760E+05         0.00000E+00
    0.94760E+05        -0.60544E+08         0.00000E+00
    0.00000E+00         0.00000E+00         0.30444E-07
 
   -0.14678E+07         0.52631E+05         0.00000E+00
    0.52631E+05        -0.60793E+08         0.00000E+00
    0.00000E+00         0.00000E+00         0.00000E+00
 
   -0.16636E+07         0.91339E+04         0.00000E+00
    0.91339E+04        -0.61041E+08         0.00000E+00
    0.00000E+00         0.00000E+00        -0.10148E-07
 
   -0.18731E+07        -0.33913E+05         0.00000E+00
   -0.33913E+05        -0.61289E+08         0.00000E+00
    0.00000E+00         0.00000E+00         0.00000E+00
 
   -0.20940E+07        -0.73568E+05         0.00000E+00
   -0.73568E+05        -0.61533E+08         0.00000E+00
    0.00000E+00         0.00000E+00        -0.30444E-07
 
   -0.23218E+07        -0.10484E+06         0.00000E+00
   -0.10484E+06        -0.61772E+08         0.00000E+00
    0.00000E+00         0.00000E+00        -0.50741E-07
 
   -0.25501E+07        -0.11846E+06         0.00000E+00
   -0.11846E+06        -0.61999E+08         0.00000E+00
    0.00000E+00         0.00000E+00        -0.91333E-07
 
   -0.27750E+07        -0.99751E+05         0.00000E+00
   -0.99751E+05        -0.62193E+08         0.00000E+00
    0.00000E+00         0.00000E+00         0.30444E-07
 
   -0.30040E+07        -0.40146E+05         0.00000E+00
   -0.40146E+05        -0.62312E+08         0.00000E+00
    0.00000E+00         0.00000E+00        -0.20296E-07
 
    0.93791E+06        -0.10579E+05         0.00000E+00
   -0.10579E+05        -0.47673E+08         0.00000E+00
    0.00000E+00         0.00000E+00        -0.10148E-07
 
    0.87472E+06        -0.25242E+05         0.00000E+00
   -0.25242E+05        -0.47708E+08         0.00000E+00
    0.00000E+00         0.00000E+00         0.10148E-06
 
    0.81284E+06        -0.27671E+05         0.00000E+00
   -0.27671E+05        -0.47764E+08         0.00000E+00
    0.00000E+00         0.00000E+00         0.30444E-07
 
    0.75048E+06        -0.21234E+05         0.00000E+00
   -0.21234E+05        -0.47828E+08         0.00000E+00
    0.00000E+00         0.00000E+00        -0.60889E-07
 
    0.68928E+06        -0.10396E+05         0.00000E+00
   -0.10396E+05        -0.47895E+08         0.00000E+00
    0.00000E+00         0.00000E+00        -0.60889E-07
 
    0.63118E+06         0.23965E+04         0.00000E+00
    0.23965E+04        -0.47963E+08         0.00000E+00
    0.00000E+00         0.00000E+00        -0.40593E-07
 
    0.57735E+06         0.15922E+05         0.00000E+00
    0.15922E+05        -0.48032E+08         0.00000E+00
    0.00000E+00         0.00000E+00         0.10148E-07
 
    0.52835E+06         0.29476E+05         0.00000E+00
    0.29476E+05        -0.48102E+08         0.00000E+00
    0.00000E+00         0.00000E+00        -0.10148E-07
 
    0.48434E+06         0.42636E+05         0.00000E+00
    0.42636E+05        -0.48172E+08         0.00000E+00
    0.00000E+00         0.00000E+00         0.10148E-07
 
    0.44527E+06         0.55149E+05         0.00000E+00
    0.55149E+05        -0.48243E+08         0.00000E+00
    0.00000E+00         0.00000E+00         0.10148E-06
 
    0.41091E+06         0.66877E+05         0.00000E+00
    0.66877E+05        -0.48314E+08         0.00000E+00
    0.00000E+00         0.00000E+00        -0.10148E-07
 
    0.38099E+06         0.77762E+05         0.00000E+00
    0.77762E+05        -0.48386E+08         0.00000E+00
    0.00000E+00         0.00000E+00        -0.30444E-07
 
    0.35514E+06         0.87798E+05         0.00000E+00
    0.87798E+05        -0.48459E+08         0.00000E+00
    0.00000E+00         0.00000E+00        -0.60889E-07
 
    0.33303E+06         0.97018E+05         0.00000E+00
    0.97018E+05        -0.48532E+08         0.00000E+00
    0.00000E+00         0.00000E+00         0.00000E+00
 
    0.31428E+06         0.10548E+06         0.00000E+00
    0.10548E+06        -0.48606E+08         0.00000E+00
    0.00000E+00         0.00000E+00         0.10148E-07
 
    0.29856E+06         0.11324E+06         0.00000E+00
    0.11324E+06        -0.48680E+08         0.00000E+00
    0.00000E+00         0.00000E+00         0.00000E+00
 
    0.28553E+06         0.12038E+06         0.00000E+00
    0.12038E+06        -0.48756E+08         0.00000E+00
    0.00000E+00         0.00000E+00         0.22737E-12
 
    0.27490E+06         0.12698E+06         0.00000E+00
    0.12698E+06        -0.48832E+08         0.00000E+00
    0.00000E+00         0.00000E+00         0.20296E-07
 
    0.26639E+06         0.13311E+06         0.00000E+00
    0.13311E+06        -0.48909E+08         0.00000E+00
    0.00000E+00         0.00000E+00         0.50741E-07
 
    0.25975E+06         0.13883E+06         0.00000E+00
    0.13883E+06        -0.48988E+08         0.00000E+00
    0.00000E+00         0.00000E+00         0.00000E+00
 
    0.25476E+06         0.14420E+06         0.00000E+00
    0.14420E+06        -0.49067E+08         0.00000E+00
    0.00000E+00         0.00000E+00         0.10148E-07
 
    0.25121E+06         0.14929E+06         0.00000E+00
    0.14929E+06        -0.49148E+08         0.00000E+00
    0.00000E+00         0.00000E+00         0.00000E+00
 
    0.24892E+06         0.15413E+06         0.00000E+00
    0.15413E+06        -0.49229E+08         0.00000E+00
    0.00000E+00         0.00000E+00        -0.10148E-07
 
    0.24773E+06         0.15879E+06         0.00000E+00
    0.15879E+06        -0.49312E+08         0.00000E+00
    0.00000E+00         0.00000E+00        -0.10148E-06
 
    0.24750E+06         0.16328E+06         0.00000E+00
    0.16328E+06        -0.49397E+08         0.00000E+00
    0.00000E+00         0.00000E+00        -0.20296E-07
 
    0.24811E+06         0.16765E+06         0.00000E+00
    0.16765E+06        -0.49483E+08         0.00000E+00
    0.00000E+00         0.00000E+00         0.00000E+00
 
    0.24943E+06         0.17193E+06         0.00000E+00
    0.17193E+06        -0.49570E+08         0.00000E+00
    0.00000E+00         0.00000E+00         0.10148E-07
 
    0.25136E+06         0.17613E+06         0.00000E+00
    0.17613E+06        -0.49660E+08         0.00000E+00
    0.00000E+00         0.00000E+00        -0.91333E-07
 
    0.25383E+06         0.18028E+06         0.00000E+00
    0.18028E+06        -0.49750E+08         0.00000E+00
    0.00000E+00         0.00000E+00         0.00000E+00
 
    0.25675E+06         0.18440E+06         0.00000E+00
    0.18440E+06        -0.49843E+08         0.00000E+00
    0.00000E+00         0.00000E+00         0.20296E-07
 
    0.26004E+06         0.18849E+06         0.00000E+00
    0.18849E+06        -0.49937E+08         0.00000E+00
    0.00000E+00         0.00000E+00        -0.10148E-06
 
    0.26365E+06         0.19259E+06         0.00000E+00
    0.19259E+06        -0.50033E+08         0.00000E+00
    0.00000E+00         0.00000E+00         0.00000E+00
 
    0.26751E+06         0.19668E+06         0.00000E+00
    0.19668E+06        -0.50131E+08         0.00000E+00
    0.00000E+00         0.00000E+00        -0.20296E-07
 
    0.27158E+06         0.20079E+06         0.00000E+00
    0.20079E+06        -0.50231E+08         0.00000E+00
    0.00000E+00         0.00000E+00         0.10148E-07
 
    0.27580E+06         0.20491E+06         0.00000E+00
    0.20491E+06        -0.50333E+08         0.00000E+00
    0.00000E+00         0.00000E+00        -0.10148E-07
 
    0.28013E+06         0.20907E+06         0.00000E+00
    0.20907E+06        -0.50437E+08         0.00000E+00
    0.00000E+00         0.00000E+00        -0.30444E-07
 
    0.28453E+06         0.21324E+06         0.00000E+00
    0.21324E+06        -0.50543E+08         0.00000E+00
    0.00000E+00         0.00000E+00         0.10148E-07
 
    0.28897E+06         0.21746E+06         0.00000E+00
    0.21746E+06        -0.50651E+08         0.00000E+00
    0.00000E+00         0.00000E+00         0.30444E-07
 
    0.29340E+06         0.22170E+06         0.00000E+00
    0.22170E+06        -0.50762E+08         0.00000E+00
    0.00000E+00         0.00000E+00         0.30444E-07
 
    0.29779E+06         0.22598E+06         0.00000E+00
    0.22598E+06        -0.50875E+08         0.00000E+00
    0.00000E+00         0.00000E+00         0.50741E-07
 
    0.30211E+06         0.23029E+06         0.00000E+00
    0.23029E+06        -0.50990E+08         0.00000E+00
    0.00000E+00         0.00000E+00        -0.20296E-07
 
    0.30633E+06         0.23464E+06         0.00000E+00
    0.23464E+06        -0.51107E+08         0.00000E+00
    0.00000E+00         0.00000E+00         0.10148E-07
 
    0.31042E+06         0.23903E+06         0.00000E+00
    0.23903E+06        -0.51227E+08         0.00000E+00
    0.00000E+00         0.00000E+00        -0.30444E-07
 
    0.31434E+06         0.24344E+06         0.00000E+00
    0.24344E+06        -0.51350E+08         0.00000E+00
    0.00000E+00         0.00000E+00         0.40593E-07
 
    0.31808E+06         0.24789E+06         0.00000E+00
    0.24789E+06        -0.51475E+08         0.00000E+00
    0.00000E+00         0.00000E+00        -0.91333E-07
 
    0.32159E+06         0.25236E+06         0.00000E+00
    0.25236E+06        -0.51603E+08         0.00000E+00
    0.00000E+00         0.00000E+00         0.30444E-07
 
    0.32485E+06         0.25685E+06         0.00000E+00
    0.25685E+06        -0.51733E+08         0.00000E+00
    0.00000E+00         0.00000E+00        -0.50741E-07
 
    0.32783E+06         0.26136E+06         0.00000E+00
    0.26136E+06        -0.51866E+08         0.00000E+00
    0.00000E+00         0.00000E+00         0.40593E-07
 
    0.33050E+06         0.26589E+06         0.00000E+00
    0.26589E+06        -0.52002E+08         0.00000E+00
    0.00000E+00         0.00000E+00         0.30444E-07
 
    0.33283E+06         0.27042E+06         0.00000E+00
    0.27042E+06        -0.52140E+08         0.00000E+00
    0.00000E+00         0.00000E+00        -0.30444E-07
 
    0.33478E+06         0.27495E+06         0.00000E+00
    0.27495E+06        -0.52281E+08         0.00000E+00
    0.00000E+00         0.00000E+00         0.50740E-07
 
    0.33632E+06         0.27948E+06         0.00000E+00
    0.27948E+06        -0.52425E+08         0.00000E+00
    0.00000E+00         0.00000E+00         0.10148E-07
 
    0.33741E+06         0.28399E+06         0.00000E+00
    0.28399E+06        -0.52572E+08         0.00000E+00
    0.00000E+00         0.00000E+00        -0.10148E-07
 
    0.33802E+06         0.28848E+06         0.00000E+00
    0.28848E+06        -0.52722E+08         0.00000E+00
    0.00000E+00         0.00000E+00        -0.10148E-07
 
    0.33811E+06         0.29293E+06         0.00000E+00
    0.29293E+06        -0.52875E+08         0.00000E+00
    0.00000E+00         0.00000E+00         0.00000E+00
 
    0.33762E+06         0.29734E+06         0.00000E+00
    0.29734E+06        -0.53030E+08         0.00000E+00
    0.00000E+00         0.00000E+00         0.00000E+00
 
    0.33652E+06         0.30170E+06         0.00000E+00
    0.30170E+06        -0.53189E+08         0.00000E+00
    0.00000E+00         0.00000E+00        -0.20297E-07
 
    0.33475E+06         0.30599E+06         0.00000E+00
    0.30599E+06        -0.53351E+08         0.00000E+00
    0.00000E+00         0.00000E+00         0.00000E+00
 
    0.33227E+06         0.31019E+06         0.00000E+00
    0.31019E+06        -0.53515E+08         0.00000E+00
    0.00000E+00         0.00000E+00        -0.20296E-07
 
    0.32901E+06         0.31431E+06         0.00000E+00
    0.31431E+06        -0.53683E+08         0.00000E+00
    0.00000E+00         0.00000E+00        -0.50740E-07
 
    0.32491E+06         0.31830E+06         0.00000E+00
    0.31830E+06        -0.53854E+08         0.00000E+00
    0.00000E+00         0.00000E+00        -0.91333E-07
 
    0.31990E+06         0.32217E+06         0.00000E+00
    0.32217E+06        -0.54027E+08         0.00000E+00
    0.00000E+00         0.00000E+00         0.30444E-07
 
    0.31391E+06         0.32589E+06         0.00000E+00
    0.32589E+06        -0.54204E+08         0.00000E+00
    0.00000E+00         0.00000E+00        -0.40593E-07
 
    0.30686E+06         0.32943E+06         0.00000E+00
    0.32943E+06        -0.54384E+08         0.00000E+00
    0.00000E+00         0.00000E+00        -0.10148E-07
 
    0.29864E+06         0.33277E+06         0.00000E+00
    0.33277E+06        -0.54567E+08         0.00000E+00
    0.00000E+00         0.00000E+00         0.10148E-07
 
    0.28917E+06         0.33589E+06         0.00000E+00
    0.33589E+06        -0.54752E+08         0.00000E+00
    0.00000E+00         0.00000E+00        -0.40593E-07
 
    0.27832E+06         0.33875E+06         0.00000E+00
    0.33875E+06        -0.54941E+08         0.00000E+00
    0.00000E+00         0.00000E+00         0.71037E-07
 
    0.26598E+06         0.34132E+06         0.00000E+00
    0.34132E+06        -0.55133E+08         0.00000E+00
    0.00000E+00         0.00000E+00         0.91332E-07
 
    0.25201E+06         0.34356E+06         0.00000E+00
    0.34356E+06        -0.55328E+08         0.00000E+00
    0.00000E+00         0.00000E+00         0.20296E-07
 
    0.23625E+06         0.34544E+06         0.00000E+00
    0.34544E+06        -0.55526E+08         0.00000E+00
    0.00000E+00         0.00000E+00        -0.81185E-07
 
    0.21852E+06         0.34689E+06         0.00000E+00
    0.34689E+06        -0.55727E+08         0.00000E+00
    0.00000E+00         0.00000E+00        -0.30444E-07
 
    0.19864E+06         0.34786E+06         0.00000E+00
    0.34786E+06        -0.55930E+08         0.00000E+00
    0.00000E+00         0.00000E+00        -0.20296E-07
 
    0.17638E+06         0.34829E+06         0.00000E+00
    0.34829E+06        -0.56137E+08         0.00000E+00
    0.00000E+00         0.00000E+00        -0.50741E-07
 
    0.15149E+06         0.34812E+06         0.00000E+00
    0.34812E+06        -0.56347E+08         0.00000E+00
    0.00000E+00         0.00000E+00         0.00000E+00
 
    0.12371E+06         0.34725E+06         0.00000E+00
    0.34725E+06        -0.56559E+08         0.00000E+00
    0.00000E+00         0.00000E+00         0.71037E-07
 
    0.92706E+05         0.34560E+06         0.00000E+00
    0.34560E+06        -0.56774E+08         0.00000E+00
    0.00000E+00         0.00000E+00         0.60889E-07
 
    0.58131E+05         0.34306E+06         0.00000E+00
    0.34306E+06        -0.56992E+08         0.00000E+00
    0.00000E+00         0.00000E+00         0.20296E-07
 
    0.19585E+05         0.33950E+06         0.00000E+00
    0.33950E+06        -0.57212E+08         0.00000E+00
    0.00000E+00         0.00000E+00         0.20296E-07
 
   -0.23387E+05         0.33480E+06         0.00000E+00
    0.33480E+06        -0.57435E+08         0.00000E+00
    0.00000E+00         0.00000E+00         0.00000E+00
 
   -0.71294E+05         0.32879E+06         0.00000E+00
    0.32879E+06        -0.57661E+08         0.00000E+00
    0.00000E+00         0.00000E+00        -0.50741E-07
 
   -0.12471E+06         0.32131E+06         0.00000E+00
    0.32131E+06        -0.57889E+08         0.00000E+00
    0.00000E+00         0.00000E+00        -0.60889E-07
 
   -0.18427E+06         0.31214E+06         0.00000E+00
    0.31214E+06        -0.58119E+08         0.00000E+00
    0.00000E+00         0.00000E+00        -0.30444E-07
 
   -0.25070E+06         0.30110E+06         0.00000E+00
    0.30110E+06        -0.58352E+08         0.00000E+00
    0.00000E+00         0.00000E+00         0.10148E-07
 
   -0.32479E+06         0.28793E+06         0.00000E+00
    0.28793E+06        -0.58587E+08         0.00000E+00
    0.00000E+00         0.00000E+00         0.71037E-07
 
   -0.40740E+06         0.27241E+06         0.00000E+00
    0.27241E+06        -0.58825E+08         0.00000E+00
    0.00000E+00         0.00000E+00        -0.30444E-07
 
   -0.49949E+06         0.25428E+06         0.00000E+00
    0.25428E+06        -0.59064E+08         0.00000E+00
    0.00000E+00         0.00000E+00         0.10148E-07
 
   -0.60207E+06         0.23330E+06         0.00000E+00
    0.23330E+06        -0.59306E+08         0.00000E+00
    0.00000E+00         0.00000E+00        -0.10148E-07
 
   -0.71620E+06         0.20926E+06         0.00000E+00
    0.20926E+06        -0.59549E+08         0.00000E+00
    0.00000E+00         0.00000E+00        -0.20296E-07
 
   -0.84297E+06         0.18199E+06         0.00000E+00
    0.18199E+06        -0.59794E+08         0.00000E+00
    0.00000E+00         0.00000E+00        -0.40593E-07
 
   -0.98346E+06         0.15143E+06         0.00000E+00
    0.15143E+06        -0.60040E+08         0.00000E+00
    0.00000E+00         0.00000E+00        -0.10148E-07
 
   -0.11386E+07         0.11762E+06         0.00000E+00
    0.11762E+06        -0.60288E+08         0.00000E+00
    0.00000E+00         0.00000E+00         0.10148E-07
 
   -0.13093E+07         0.80849E+05         0.00000E+00
    0.80849E+05        -0.60536E+08         0.00000E+00
    0.00000E+00         0.00000E+00        -0.60889E-07
 
   -0.14959E+07         0.41657E+05         0.00000E+00
    0.41657E+05        -0.60785E+08         0.00000E+00
    0.00000E+00         0.00000E+00        -0.13193E-06
 
   -0.16983E+07         0.10198E+04         0.00000E+00
    0.10198E+04        -0.61033E+08         0.00000E+00
    0.00000E+00         0.00000E+00        -0.10148E-07
 
   -0.19155E+07        -0.39466E+05         0.00000E+00
   -0.39466E+05        -0.61280E+08         0.00000E+00
    0.00000E+00         0.00000E+00         0.00000E+00
 
   -0.21452E+07        -0.77198E+05         0.00000E+00
   -0.77198E+05        -0.61526E+08         0.00000E+00
    0.00000E+00         0.00000E+00        -0.10148E-07
 
   -0.23827E+07        -0.10771E+06         0.00000E+00
   -0.10771E+06        -0.61767E+08         0.00000E+00
    0.00000E+00         0.00000E+00        -0.15222E-06
 
   -0.26205E+07        -0.12217E+06         0.00000E+00
   -0.12217E+06        -0.61998E+08         0.00000E+00
    0.00000E+00         0.00000E+00         0.30444E-07
 
   -0.28523E+07        -0.10452E+06         0.00000E+00
   -0.10452E+06        -0.62201E+08         0.00000E+00
    0.00000E+00         0.00000E+00         0.60889E-07
 
   -0.30840E+07        -0.42682E+05         0.00000E+00
   -0.42682E+05        -0.62327E+08         0.00000E+00
    0.00000E+00         0.00000E+00         0.20296E-07
 
    0.96196E+06        -0.11362E+05         0.00000E+00
   -0.11362E+05        -0.47669E+08         0.00000E+00
    0.00000E+00         0.00000E+00         0.30444E-07
 
    0.89780E+06        -0.26637E+05         0.00000E+00
   -0.26637E+05        -0.47707E+08         0.00000E+00
    0.00000E+00         0.00000E+00        -0.30444E-07
 
    0.83365E+06        -0.28745E+05         0.00000E+00
   -0.28745E+05        -0.47765E+08         0.00000E+00
    0.00000E+00         0.00000E+00         0.00000E+00
 
    0.76838E+06        -0.22241E+05         0.00000E+00
   -0.22241E+05        -0.47830E+08         0.00000E+00
    0.00000E+00         0.00000E+00         0.30444E-07
 
    0.70439E+06        -0.11890E+05         0.00000E+00
   -0.11890E+05        -0.47898E+08         0.00000E+00
    0.00000E+00         0.00000E+00        -0.30444E-07
 
    0.64389E+06         0.74756E+02         0.00000E+00
    0.74756E+02        -0.47966E+08         0.00000E+00
    0.00000E+00         0.00000E+00        -0.40592E-07
 
    0.58804E+06         0.12596E+05         0.00000E+00
    0.12596E+05        -0.48035E+08         0.00000E+00
    0.00000E+00         0.00000E+00        -0.50741E-07
 
    0.53736E+06         0.25066E+05         0.00000E+00
    0.25066E+05        -0.48105E+08         0.00000E+00
    0.00000E+00         0.00000E+00         0.10148E-07
 
    0.49198E+06         0.37123E+05         0.00000E+00
    0.37123E+05        -0.48175E+08         0.00000E+00
    0.00000E+00         0.00000E+00        -0.91333E-07
 
    0.45179E+06         0.48553E+05         0.00000E+00
    0.48553E+05        -0.48245E+08         0.00000E+00
    0.00000E+00         0.00000E+00         0.10148E-07
 
    0.41655E+06         0.59239E+05         0.00000E+00
    0.59239E+05        -0.48317E+08         0.00000E+00
    0.00000E+00         0.00000E+00         0.10148E-07
 
    0.38593E+06         0.69135E+05         0.00000E+00
    0.69135E+05        -0.48388E+08         0.00000E+00
    0.00000E+00         0.00000E+00         0.40593E-07
 
    0.35956E+06         0.78242E+05         0.00000E+00
    0.78242E+05        -0.48461E+08         0.00000E+00
    0.00000E+00         0.00000E+00        -0.40592E-07
 
    0.33704E+06         0.86594E+05         0.00000E+00
    0.86594E+05        -0.48534E+08         0.00000E+00
    0.00000E+00         0.00000E+00         0.00000E+00
 
    0.31801E+06         0.94243E+05         0.00000E+00
    0.94243E+05        -0.48607E+08         0.00000E+00
    0.00000E+00         0.00000E+00        -0.13193E-06
 
    0.30209E+06         0.10125E+06         0.00000E+00
    0.10125E+06        -0.48682E+08         0.00000E+00
    0.00000E+00         0.00000E+00         0.81185E-07
 
    0.28894E+06         0.10770E+06         0.00000E+00
    0.10770E+06        -0.48757E+08         0.00000E+00
    0.00000E+00         0.00000E+00         0.50740E-07
 
    0.27824E+06         0.11364E+06         0.00000E+00
    0.11364E+06        -0.48833E+08         0.00000E+00
    0.00000E+00         0.00000E+00         0.30444E-07
 
    0.26971E+06         0.11915E+06         0.00000E+00
    0.11915E+06        -0.48910E+08         0.00000E+00
    0.00000E+00         0.00000E+00        -0.10148E-07
 
    0.26309E+06         0.12428E+06         0.00000E+00
    0.12428E+06        -0.48989E+08         0.00000E+00
    0.00000E+00         0.00000E+00         0.30444E-07
 
    0.25814E+06         0.12911E+06         0.00000E+00
    0.12911E+06        -0.49068E+08         0.00000E+00
    0.00000E+00         0.00000E+00        -0.20296E-07
 
    0.25465E+06         0.13367E+06         0.00000E+00
    0.13367E+06        -0.49148E+08         0.00000E+00
    0.00000E+00         0.00000E+00        -0.50741E-07
 
    0.25244E+06         0.13801E+06         0.00000E+00
    0.13801E+06        -0.49230E+08         0.00000E+00
    0.00000E+00         0.00000E+00        -0.10148E-07
 
    0.25135E+06         0.14218E+06         0.00000E+00
    0.14218E+06        -0.49313E+08         0.00000E+00
    0.00000E+00         0.00000E+00        -0.50741E-07
 
    0.25122E+06         0.14621E+06         0.00000E+00
    0.14621E+06        -0.49398E+08         0.00000E+00
    0.00000E+00         0.00000E+00         0.40593E-07
 
    0.25193E+06         0.15012E+06         0.00000E+00
    0.15012E+06        -0.49484E+08         0.00000E+00
    0.00000E+00         0.00000E+00        -0.30444E-07
 
    0.25336E+06         0.15394E+06         0.00000E+00
    0.15394E+06        -0.49571E+08         0.00000E+00
    0.00000E+00         0.00000E+00        -0.40593E-07
 
    0.25542E+06         0.15770E+06         0.00000E+00
    0.15770E+06        -0.49660E+08         0.00000E+00
    0.00000E+00         0.00000E+00         0.00000E+00
 
    0.25800E+06         0.16142E+06         0.00000E+00
    0.16142E+06        -0.49751E+08         0.00000E+00
    0.00000E+00         0.00000E+00         0.00000E+00
 
    0.26104E+06         0.16510E+06         0.00000E+00
    0.16510E+06        -0.49844E+08         0.00000E+00
    0.00000E+00         0.00000E+00         0.50741E-07
 
    0.26446E+06         0.16877E+06         0.00000E+00
    0.16877E+06        -0.49938E+08         0.00000E+00
    0.00000E+00         0.00000E+00         0.20296E-07
 
    0.26819E+06         0.17243E+06         0.00000E+00
    0.17243E+06        -0.50034E+08         0.00000E+00
    0.00000E+00         0.00000E+00        -0.50741E-07
 
    0.27217E+06         0.17609E+06         0.00000E+00
    0.17609E+06        -0.50132E+08         0.00000E+00
    0.00000E+00         0.00000E+00        -0.20296E-07
 
    0.27636E+06         0.17976E+06         0.00000E+00
    0.17976E+06        -0.50232E+08         0.00000E+00
    0.00000E+00         0.00000E+00         0.30444E-07
 
    0.28070E+06         0.18345E+06         0.00000E+00
    0.18345E+06        -0.50334E+08         0.00000E+00
    0.00000E+00         0.00000E+00         0.00000E+00
 
    0.28515E+06         0.18716E+06         0.00000E+00
    0.18716E+06        -0.50438E+08         0.00000E+00
    0.00000E+00         0.00000E+00         0.71037E-07
 
    0.28967E+06         0.19090E+06         0.00000E+00
    0.19090E+06        -0.50544E+08         0.00000E+00
    0.00000E+00         0.00000E+00        -0.20296E-07
 
    0.29422E+06         0.19467E+06         0.00000E+00
    0.19467E+06        -0.50652E+08         0.00000E+00
    0.00000E+00         0.00000E+00         0.81185E-07
 
    0.29876E+06         0.19846E+06         0.00000E+00
    0.19846E+06        -0.50763E+08         0.00000E+00
    0.00000E+00         0.00000E+00        -0.30444E-07
 
    0.30327E+06         0.20229E+06         0.00000E+00
    0.20229E+06        -0.50875E+08         0.00000E+00
    0.00000E+00         0.00000E+00         0.30444E-07
 
    0.30769E+06         0.20615E+06         0.00000E+00
    0.20615E+06        -0.50991E+08         0.00000E+00
    0.00000E+00         0.00000E+00        -0.40592E-07
 
    0.31202E+06         0.21004E+06         0.00000E+00
    0.21004E+06        -0.51108E+08         0.00000E+00
    0.00000E+00         0.00000E+00        -0.40592E-07
 
    0.31621E+06         0.21396E+06         0.00000E+00
    0.21396E+06        -0.51228E+08         0.00000E+00
    0.00000E+00         0.00000E+00         0.15222E-06
 
    0.32023E+06         0.21790E+06         0.00000E+00
    0.21790E+06        -0.51351E+08         0.00000E+00
    0.00000E+00         0.00000E+00        -0.81185E-07
 
    0.32406E+06         0.22188E+06         0.00000E+00
    0.22188E+06        -0.51476E+08         0.00000E+00
    0.00000E+00         0.00000E+00         0.30444E-07
 
    0.32767E+06         0.22588E+06         0.00000E+00
    0.22588E+06        -0.51603E+08         0.00000E+00
    0.00000E+00         0.00000E+00         0.00000E+00
 
    0.33102E+06         0.22989E+06         0.00000E+00
    0.22989E+06        -0.51734E+08         0.00000E+00
    0.00000E+00         0.00000E+00        -0.14207E-06
 
    0.33408E+06         0.23392E+06         0.00000E+00
    0.23392E+06        -0.51867E+08         0.00000E+00
    0.00000E+00         0.00000E+00        -0.71037E-07
 
    0.33683E+06         0.23797E+06         0.00000E+00
    0.23797E+06        -0.52002E+08         0.00000E+00
    0.00000E+00         0.00000E+00         0.10148E-07
 
    0.33923E+06         0.24202E+06         0.00000E+00
    0.24202E+06        -0.52141E+08         0.00000E+00
    0.00000E+00         0.00000E+00         0.60889E-07
 
    0.34125E+06         0.24607E+06         0.00000E+00
    0.24607E+06        -0.52282E+08         0.00000E+00
    0.00000E+00         0.00000E+00         0.00000E+00
 
    0.34285E+06         0.25011E+06         0.00000E+00
    0.25011E+06        -0.52426E+08         0.00000E+00
    0.00000E+00         0.00000E+00        -0.91333E-07
 
    0.34400E+06         0.25414E+06         0.00000E+00
    0.25414E+06        -0.52573E+08         0.00000E+00
    0.00000E+00         0.00000E+00         0.20296E-07
 
    0.34466E+06         0.25816E+06         0.00000E+00
    0.25816E+06        -0.52723E+08         0.00000E+00
    0.00000E+00         0.00000E+00        -0.20296E-07
 
    0.34478E+06         0.26214E+06         0.00000E+00
    0.26214E+06        -0.52876E+08         0.00000E+00
    0.00000E+00         0.00000E+00        -0.20296E-07
 
    0.34433E+06         0.26608E+06         0.00000E+00
    0.26608E+06        -0.53031E+08         0.00000E+00
    0.00000E+00         0.00000E+00         0.60889E-07
 
    0.34325E+06         0.26997E+06         0.00000E+00
    0.26997E+06        -0.53190E+08         0.00000E+00
    0.00000E+00         0.00000E+00         0.50741E-07
 
    0.34151E+06         0.27380E+06         0.00000E+00
    0.27380E+06        -0.53351E+08         0.00000E+00
    0.00000E+00         0.00000E+00        -0.50741E-07
 
    0.33903E+06         0.27756E+06         0.00000E+00
    0.27756E+06        -0.53516E+08         0.00000E+00
    0.00000E+00         0.00000E+00        -0.10148E-07
 
    0.33578E+06         0.28123E+06         0.00000E+00
    0.28123E+06        -0.53684E+08         0.00000E+00
    0.00000E+00         0.00000E+00         0.00000E+00
 
    0.33167E+06         0.28480E+06         0.00000E+00
    0.28480E+06        -0.53854E+08         0.00000E+00
    0.00000E+00         0.00000E+00         0.00000E+00
 
    0.32664E+06         0.28826E+06         0.00000E+00
    0.28826E+06        -0.54028E+08         0.00000E+00
    0.00000E+00         0.00000E+00        -0.15222E-06
 
    0.32062E+06         0.29157E+06         0.00000E+00
    0.29157E+06        -0.54205E+08         0.00000E+00
    0.00000E+00         0.00000E+00         0.10148E-07
 
    0.31353E+06         0.29473E+06         0.00000E+00
    0.29473E+06        -0.54384E+08         0.00000E+00
    0.00000E+00         0.00000E+00         0.71037E-07
 
    0.30526E+06         0.29772E+06         0.00000E+00
    0.29772E+06        -0.54567E+08         0.00000E+00
    0.00000E+00         0.00000E+00         0.20296E-07
 
    0.29572E+06         0.30050E+06         0.00000E+00
    0.30050E+06        -0.54753E+08         0.00000E+00
    0.00000E+00         0.00000E+00         0.60889E-07
 
    0.28480E+06         0.30305E+06         0.00000E+00
    0.30305E+06        -0.54942E+08         0.00000E+00
    0.00000E+00         0.00000E+00        -0.10148E-07
 
    0.27237E+06         0.30534E+06         0.00000E+00
    0.30534E+06        -0.55134E+08         0.00000E+00
    0.00000E+00         0.00000E+00         0.20296E-07
 
    0.25830E+06         0.30734E+06         0.00000E+00
    0.30734E+06        -0.55328E+08         0.00000E+00
    0.00000E+00         0.00000E+00         0.50741E-07
 
    0.24241E+06         0.30901E+06         0.00000E+00
    0.30901E+06        -0.55526E+08         0.00000E+00
    0.00000E+00         0.00000E+00         0.11163E-06
 
    0.22455E+06         0.31029E+06         0.00000E+00
    0.31029E+06        -0.55727E+08         0.00000E+00
    0.00000E+00         0.00000E+00        -0.10148E-07
 
    0.20451E+06         0.31115E+06         0.00000E+00
    0.31115E+06        -0.55931E+08         0.00000E+00
    0.00000E+00         0.00000E+00         0.10148E-07
 
    0.18207E+06         0.31153E+06         0.00000E+00
    0.31153E+06        -0.56137E+08         0.00000E+00
    0.00000E+00         0.00000E+00        -0.40593E-07
 
    0.15698E+06         0.31136E+06         0.00000E+00
    0.31136E+06        -0.56346E+08         0.00000E+00
    0.00000E+00         0.00000E+00        -0.20296E-07
 
    0.12897E+06         0.31057E+06         0.00000E+00
    0.31057E+06        -0.56559E+08         0.00000E+00
    0.00000E+00         0.00000E+00        -0.60889E-07
 
    0.97698E+05         0.30907E+06         0.00000E+00
    0.30907E+06        -0.56773E+08         0.00000E+00
    0.00000E+00         0.00000E+00         0.10148E-06
 
    0.62819E+05         0.30677E+06         0.00000E+00
    0.30677E+06        -0.56991E+08         0.00000E+00
    0.00000E+00         0.00000E+00         0.91333E-07
 
    0.23918E+05         0.30356E+06         0.00000E+00
    0.30356E+06        -0.57211E+08         0.00000E+00
    0.00000E+00         0.00000E+00        -0.10148E-06
 
   -0.19467E+05         0.29931E+06         0.00000E+00
    0.29931E+06        -0.57434E+08         0.00000E+00
    0.00000E+00         0.00000E+00         0.00000E+00
 
   -0.67860E+05         0.29388E+06         0.00000E+00
    0.29388E+06        -0.57659E+08         0.00000E+00
    0.00000E+00         0.00000E+00        -0.20296E-07
 
   -0.12185E+06         0.28711E+06         0.00000E+00
    0.28711E+06        -0.57887E+08         0.00000E+00
    0.00000E+00         0.00000E+00         0.10148E-07
 
   -0.18211E+06         0.27883E+06         0.00000E+00
    0.27883E+06        -0.58117E+08         0.00000E+00
    0.00000E+00         0.00000E+00         0.81185E-07
 
   -0.24937E+06         0.26883E+06         0.00000E+00
    0.26883E+06        -0.58350E+08         0.00000E+00
    0.00000E+00         0.00000E+00        -0.10148E-07
 
   -0.32446E+06         0.25690E+06         0.00000E+00
    0.25690E+06        -0.58585E+08         0.00000E+00
    0.00000E+00         0.00000E+00        -0.30444E-07
 
   -0.40830E+06         0.24282E+06         0.00000E+00
    0.24282E+06        -0.58821E+08         0.00000E+00
    0.00000E+00         0.00000E+00         0.60889E-07
 
   -0.50189E+06         0.22636E+06         0.00000E+00
    0.22636E+06        -0.59060E+08         0.00000E+00
    0.00000E+00         0.00000E+00         0.12178E-06
 
   -0.60629E+06         0.20729E+06         0.00000E+00
    0.20729E+06        -0.59301E+08         0.00000E+00
    0.00000E+00         0.00000E+00        -0.40593E-07
 
   -0.72264E+06         0.18541E+06         0.00000E+00
    0.18541E+06        -0.59544E+08         0.00000E+00
    0.00000E+00         0.00000E+00        -0.91332E-07
 
   -0.85212E+06         0.16055E+06         0.00000E+00
    0.16055E+06        -0.59788E+08         0.00000E+00
    0.00000E+00         0.00000E+00         0.91333E-07
 
   -0.99589E+06         0.13264E+06         0.00000E+00
    0.13264E+06        -0.60034E+08         0.00000E+00
    0.00000E+00         0.00000E+00        -0.81185E-07
 
   -0.11550E+07         0.10171E+06         0.00000E+00
    0.10171E+06        -0.60281E+08         0.00000E+00
    0.00000E+00         0.00000E+00        -0.30444E-07
 
   -0.13304E+07         0.67978E+05         0.00000E+00
    0.67978E+05        -0.60529E+08         0.00000E+00
    0.00000E+00         0.00000E+00        -0.81185E-07
 
   -0.15227E+07         0.31915E+05         0.00000E+00
    0.31915E+05        -0.60777E+08         0.00000E+00
    0.00000E+00         0.00000E+00         0.40593E-07
 
   -0.17318E+07        -0.56470E+04         0.00000E+00
   -0.56470E+04        -0.61025E+08         0.00000E+00
    0.00000E+00         0.00000E+00        -0.40593E-07
 
   -0.19570E+07        -0.43337E+05         0.00000E+00
   -0.43337E+05        -0.61273E+08         0.00000E+00
    0.00000E+00         0.00000E+00         0.71037E-07
 
   -0.21959E+07        -0.78903E+05         0.00000E+00
   -0.78903E+05        -0.61519E+08         0.00000E+00
    0.00000E+00         0.00000E+00        -0.71037E-07
 
   -0.24438E+07        -0.10848E+06         0.00000E+00
   -0.10848E+06        -0.61762E+08         0.00000E+00
    0.00000E+00         0.00000E+00        -0.81185E-07
 
   -0.26925E+07        -0.12398E+06         0.00000E+00
   -0.12398E+06        -0.61998E+08         0.00000E+00
    0.00000E+00         0.00000E+00         0.20296E-07
 
   -0.29328E+07        -0.10828E+06         0.00000E+00
   -0.10828E+06        -0.62208E+08         0.00000E+00
    0.00000E+00         0.00000E+00         0.30444E-07
 
   -0.31680E+07        -0.45070E+05         0.00000E+00
   -0.45070E+05        -0.62344E+08         0.00000E+00
    0.00000E+00         0.00000E+00        -0.81185E-07
 
    0.98720E+06        -0.12094E+05         0.00000E+00
   -0.12094E+05        -0.47665E+08         0.00000E+00
    0.00000E+00         0.00000E+00         0.00000E+00
 
    0.92176E+06        -0.27683E+05         0.00000E+00
   -0.27683E+05        -0.47705E+08         0.00000E+00
    0.00000E+00         0.00000E+00        -0.10148E-07
 
    0.85481E+06        -0.29209E+05         0.00000E+00
   -0.29209E+05        -0.47766E+08         0.00000E+00
    0.00000E+00         0.00000E+00        -0.10148E-07
 
    0.78621E+06        -0.22628E+05         0.00000E+00
   -0.22628E+05        -0.47832E+08         0.00000E+00
    0.00000E+00         0.00000E+00        -0.81185E-07
 
    0.71924E+06        -0.12848E+05         0.00000E+00
   -0.12848E+05        -0.47900E+08         0.00000E+00
    0.00000E+00         0.00000E+00         0.00000E+00
 
    0.65624E+06        -0.17972E+04         0.00000E+00
   -0.17972E+04        -0.47968E+08         0.00000E+00
    0.00000E+00         0.00000E+00        -0.50740E-07
 
    0.59831E+06         0.96421E+04         0.00000E+00
    0.96421E+04        -0.48037E+08         0.00000E+00
    0.00000E+00         0.00000E+00        -0.50740E-07
 
    0.54594E+06         0.20961E+05         0.00000E+00
    0.20961E+05        -0.48107E+08         0.00000E+00
    0.00000E+00         0.00000E+00         0.20296E-07
 
    0.49918E+06         0.31857E+05         0.00000E+00
    0.31857E+05        -0.48177E+08         0.00000E+00
    0.00000E+00         0.00000E+00        -0.50741E-07
 
    0.45790E+06         0.42154E+05         0.00000E+00
    0.42154E+05        -0.48247E+08         0.00000E+00
    0.00000E+00         0.00000E+00         0.00000E+00
 
    0.42180E+06         0.51755E+05         0.00000E+00
    0.51755E+05        -0.48319E+08         0.00000E+00
    0.00000E+00         0.00000E+00         0.50741E-07
 
    0.39051E+06         0.60628E+05         0.00000E+00
    0.60628E+05        -0.48390E+08         0.00000E+00
    0.00000E+00         0.00000E+00         0.00000E+00
 
    0.36364E+06         0.68776E+05         0.00000E+00
    0.68776E+05        -0.48462E+08         0.00000E+00
    0.00000E+00         0.00000E+00         0.60889E-07
 
    0.34075E+06         0.76236E+05         0.00000E+00
    0.76236E+05        -0.48535E+08         0.00000E+00
    0.00000E+00         0.00000E+00        -0.50740E-07
 
    0.32145E+06         0.83056E+05         0.00000E+00
    0.83056E+05        -0.48609E+08         0.00000E+00
    0.00000E+00         0.00000E+00         0.00000E+00
 
    0.30536E+06         0.89296E+05         0.00000E+00
    0.89296E+05        -0.48683E+08         0.00000E+00
    0.00000E+00         0.00000E+00        -0.20296E-07
 
    0.29211E+06         0.95022E+05         0.00000E+00
    0.95022E+05        -0.48758E+08         0.00000E+00
    0.00000E+00         0.00000E+00         0.20296E-07
 
    0.28136E+06         0.10030E+06         0.00000E+00
    0.10030E+06        -0.48834E+08         0.00000E+00
    0.00000E+00         0.00000E+00        -0.10148E-07
 
    0.27283E+06         0.10518E+06         0.00000E+00
    0.10518E+06        -0.48911E+08         0.00000E+00
    0.00000E+00         0.00000E+00         0.50741E-07
 
    0.26624E+06         0.10973E+06         0.00000E+00
    0.10973E+06        -0.48990E+08         0.00000E+00
    0.00000E+00         0.00000E+00         0.30444E-07
 
    0.26134E+06         0.11400E+06         0.00000E+00
    0.11400E+06        -0.49069E+08         0.00000E+00
    0.00000E+00         0.00000E+00        -0.60889E-07
 
    0.25793E+06         0.11804E+06         0.00000E+00
    0.11804E+06        -0.49149E+08         0.00000E+00
    0.00000E+00         0.00000E+00         0.20296E-07
 
    0.25582E+06         0.12188E+06         0.00000E+00
    0.12188E+06        -0.49231E+08         0.00000E+00
    0.00000E+00         0.00000E+00         0.00000E+00
 
    0.25482E+06         0.12556E+06         0.00000E+00
    0.12556E+06        -0.49314E+08         0.00000E+00
    0.00000E+00         0.00000E+00         0.50741E-07
 
    0.25481E+06         0.12911E+06         0.00000E+00
    0.12911E+06        -0.49399E+08         0.00000E+00
    0.00000E+00         0.00000E+00         0.10148E-07
 
    0.25563E+06         0.13256E+06         0.00000E+00
    0.13256E+06        -0.49485E+08         0.00000E+00
    0.00000E+00         0.00000E+00         0.20296E-07
 
    0.25718E+06         0.13594E+06         0.00000E+00
    0.13594E+06        -0.49572E+08         0.00000E+00
    0.00000E+00         0.00000E+00         0.30444E-07
 
    0.25936E+06         0.13926E+06         0.00000E+00
    0.13926E+06        -0.49661E+08         0.00000E+00
    0.00000E+00         0.00000E+00        -0.20296E-07
 
    0.26207E+06         0.14253E+06         0.00000E+00
    0.14253E+06        -0.49752E+08         0.00000E+00
    0.00000E+00         0.00000E+00         0.20296E-07
 
    0.26523E+06         0.14578E+06         0.00000E+00
    0.14578E+06        -0.49844E+08         0.00000E+00
    0.00000E+00         0.00000E+00        -0.40593E-07
 
    0.26878E+06         0.14901E+06         0.00000E+00
    0.14901E+06        -0.49938E+08         0.00000E+00
    0.00000E+00         0.00000E+00         0.00000E+00
 
    0.27263E+06         0.15224E+06         0.00000E+00
    0.15224E+06        -0.50034E+08         0.00000E+00
    0.00000E+00         0.00000E+00         0.71037E-07
 
    0.27674E+06         0.15547E+06         0.00000E+00
    0.15547E+06        -0.50132E+08         0.00000E+00
    0.00000E+00         0.00000E+00        -0.12178E-06
 
    0.28105E+06         0.15871E+06         0.00000E+00
    0.15871E+06        -0.50232E+08         0.00000E+00
    0.00000E+00         0.00000E+00         0.00000E+00
 
    0.28551E+06         0.16197E+06         0.00000E+00
    0.16197E+06        -0.50334E+08         0.00000E+00
    0.00000E+00         0.00000E+00         0.71037E-07
 
    0.29008E+06         0.16524E+06         0.00000E+00
    0.16524E+06        -0.50438E+08         0.00000E+00
    0.00000E+00         0.00000E+00         0.10148E-07
 
    0.29472E+06         0.16853E+06         0.00000E+00
    0.16853E+06        -0.50544E+08         0.00000E+00
    0.00000E+00         0.00000E+00         0.00000E+00
 
    0.29938E+06         0.17186E+06         0.00000E+00
    0.17186E+06        -0.50653E+08         0.00000E+00
    0.00000E+00         0.00000E+00         0.30444E-07
 
    0.30404E+06         0.17520E+06         0.00000E+00
    0.17520E+06        -0.50763E+08         0.00000E+00
    0.00000E+00         0.00000E+00         0.60889E-07
 
    0.30866E+06         0.17858E+06         0.00000E+00
    0.17858E+06        -0.50876E+08         0.00000E+00
    0.00000E+00         0.00000E+00         0.60889E-07
 
    0.31319E+06         0.18198E+06         0.00000E+00
    0.18198E+06        -0.50991E+08         0.00000E+00
    0.00000E+00         0.00000E+00        -0.30444E-07
 
    0.31762E+06         0.18541E+06         0.00000E+00
    0.18541E+06        -0.51109E+08         0.00000E+00
    0.00000E+00         0.00000E+00         0.10148E-07
 
    0.32192E+06         0.18886E+06         0.00000E+00
    0.18886E+06        -0.51229E+08         0.00000E+00
    0.00000E+00         0.00000E+00         0.20296E-07
 
    0.32604E+06         0.19235E+06         0.00000E+00
    0.19235E+06        -0.51351E+08         0.00000E+00
    0.00000E+00         0.00000E+00         0.30444E-07
 
    0.32997E+06         0.19585E+06         0.00000E+00
    0.19585E+06        -0.51477E+08         0.00000E+00
    0.00000E+00         0.00000E+00        -0.20296E-07
 
    0.33366E+06         0.19937E+06         0.00000E+00
    0.19937E+06        -0.51604E+08         0.00000E+00
    0.00000E+00         0.00000E+00        -0.60888E-07
 
    0.33710E+06         0.20291E+06         0.00000E+00
    0.20291E+06        -0.51735E+08         0.00000E+00
    0.00000E+00         0.00000E+00        -0.30444E-07
 
    0.34025E+06         0.20647E+06         0.00000E+00
    0.20647E+06        -0.51867E+08         0.00000E+00
    0.00000E+00         0.00000E+00         0.00000E+00
 
    0.34308E+06         0.21003E+06         0.00000E+00
    0.21003E+06        -0.52003E+08         0.00000E+00
    0.00000E+00         0.00000E+00         0.91333E-07
 
    0.34555E+06         0.21360E+06         0.00000E+00
    0.21360E+06        -0.52142E+08         0.00000E+00
    0.00000E+00         0.00000E+00        -0.81185E-07
 
    0.34764E+06         0.21717E+06         0.00000E+00
    0.21717E+06        -0.52283E+08         0.00000E+00
    0.00000E+00         0.00000E+00         0.60889E-07
 
    0.34930E+06         0.22074E+06         0.00000E+00
    0.22074E+06        -0.52427E+08         0.00000E+00
    0.00000E+00         0.00000E+00         0.10148E-07
 
    0.35051E+06         0.22429E+06         0.00000E+00
    0.22429E+06        -0.52574E+08         0.00000E+00
    0.00000E+00         0.00000E+00         0.30444E-07
 
    0.35122E+06         0.22783E+06         0.00000E+00
    0.22783E+06        -0.52724E+08         0.00000E+00
    0.00000E+00         0.00000E+00         0.81185E-07
 
    0.35138E+06         0.23133E+06         0.00000E+00
    0.23133E+06        -0.52876E+08         0.00000E+00
    0.00000E+00         0.00000E+00         0.71037E-07
 
    0.35097E+06         0.23481E+06         0.00000E+00
    0.23481E+06        -0.53032E+08         0.00000E+00
    0.00000E+00         0.00000E+00        -0.60888E-07
 
    0.34993E+06         0.23824E+06         0.00000E+00
    0.23824E+06        -0.53191E+08         0.00000E+00
    0.00000E+00         0.00000E+00         0.40593E-07
 
    0.34820E+06         0.24161E+06         0.00000E+00
    0.24161E+06        -0.53352E+08         0.00000E+00
    0.00000E+00         0.00000E+00        -0.40593E-07
 
    0.34574E+06         0.24492E+06         0.00000E+00
    0.24492E+06        -0.53517E+08         0.00000E+00
    0.00000E+00         0.00000E+00        -0.10148E-06
 
    0.34249E+06         0.24816E+06         0.00000E+00
    0.24816E+06        -0.53684E+08         0.00000E+00
    0.00000E+00         0.00000E+00         0.10148E-07
 
    0.33838E+06         0.25130E+06         0.00000E+00
    0.25130E+06        -0.53855E+08         0.00000E+00
    0.00000E+00         0.00000E+00         0.30444E-07
 
    0.33334E+06         0.25434E+06         0.00000E+00
    0.25434E+06        -0.54029E+08         0.00000E+00
    0.00000E+00         0.00000E+00         0.91333E-07
 
    0.32730E+06         0.25726E+06         0.00000E+00
    0.25726E+06        -0.54205E+08         0.00000E+00
    0.00000E+00         0.00000E+00         0.50741E-07
 
    0.32017E+06         0.26005E+06         0.00000E+00
    0.26005E+06        -0.54385E+08         0.00000E+00
    0.00000E+00         0.00000E+00        -0.60889E-07
 
    0.31186E+06         0.26268E+06         0.00000E+00
    0.26268E+06        -0.54568E+08         0.00000E+00
    0.00000E+00         0.00000E+00        -0.30444E-07
 
    0.30227E+06         0.26512E+06         0.00000E+00
    0.26512E+06        -0.54754E+08         0.00000E+00
    0.00000E+00         0.00000E+00         0.30444E-07
 
    0.29129E+06         0.26737E+06         0.00000E+00
    0.26737E+06        -0.54942E+08         0.00000E+00
    0.00000E+00         0.00000E+00         0.00000E+00
 
    0.27878E+06         0.26938E+06         0.00000E+00
    0.26938E+06        -0.55134E+08         0.00000E+00
    0.00000E+00         0.00000E+00         0.20295E-07
 
    0.26461E+06         0.27114E+06         0.00000E+00
    0.27114E+06        -0.55329E+08         0.00000E+00
    0.00000E+00         0.00000E+00         0.81185E-07
 
    0.24862E+06         0.27260E+06         0.00000E+00
    0.27260E+06        -0.55527E+08         0.00000E+00
    0.00000E+00         0.00000E+00        -0.71037E-07
 
    0.23064E+06         0.27373E+06         0.00000E+00
    0.27373E+06        -0.55727E+08         0.00000E+00
    0.00000E+00         0.00000E+00        -0.30444E-07
 
    0.21046E+06         0.27448E+06         0.00000E+00
    0.27448E+06        -0.55931E+08         0.00000E+00
    0.00000E+00         0.00000E+00        -0.50741E-07
 
    0.18786E+06         0.27480E+06         0.00000E+00
    0.27480E+06        -0.56137E+08         0.00000E+00
    0.00000E+00         0.00000E+00        -0.60889E-07
 
    0.16260E+06         0.27464E+06         0.00000E+00
    0.27464E+06        -0.56346E+08         0.00000E+00
    0.00000E+00         0.00000E+00        -0.71037E-07
 
    0.13438E+06         0.27393E+06         0.00000E+00
    0.27393E+06        -0.56558E+08         0.00000E+00
    0.00000E+00         0.00000E+00         0.60889E-07
 
    0.10288E+06         0.27259E+06         0.00000E+00
    0.27259E+06        -0.56773E+08         0.00000E+00
    0.00000E+00         0.00000E+00         0.10148E-07
 
    0.67729E+05         0.27054E+06         0.00000E+00
    0.27054E+06        -0.56990E+08         0.00000E+00
    0.00000E+00         0.00000E+00         0.10148E-07
 
    0.28515E+05         0.26768E+06         0.00000E+00
    0.26768E+06        -0.57210E+08         0.00000E+00
    0.00000E+00         0.00000E+00        -0.81185E-07
 
   -0.15238E+05         0.26390E+06         0.00000E+00
    0.26390E+06        -0.57433E+08         0.00000E+00
    0.00000E+00         0.00000E+00        -0.91332E-07
 
   -0.64066E+05         0.25906E+06         0.00000E+00
    0.25906E+06        -0.57658E+08         0.00000E+00
    0.00000E+00         0.00000E+00         0.10148E-07
 
   -0.11858E+06         0.25304E+06         0.00000E+00
    0.25304E+06        -0.57886E+08         0.00000E+00
    0.00000E+00         0.00000E+00        -0.60889E-07
 
   -0.17946E+06         0.24565E+06         0.00000E+00
    0.24565E+06        -0.58116E+08         0.00000E+00
    0.00000E+00         0.00000E+00        -0.71036E-07
 
   -0.24748E+06         0.23673E+06         0.00000E+00
    0.23673E+06        -0.58348E+08         0.00000E+00
    0.00000E+00         0.00000E+00         0.50741E-07
 
   -0.32351E+06         0.22608E+06         0.00000E+00
    0.22608E+06        -0.58582E+08         0.00000E+00
    0.00000E+00         0.00000E+00         0.14207E-06
 
   -0.40849E+06         0.21350E+06         0.00000E+00
    0.21350E+06        -0.58819E+08         0.00000E+00
    0.00000E+00         0.00000E+00         0.60889E-07
 
   -0.50348E+06         0.19877E+06         0.00000E+00
    0.19877E+06        -0.59057E+08         0.00000E+00
    0.00000E+00         0.00000E+00        -0.81185E-07
 
   -0.60961E+06         0.18168E+06         0.00000E+00
    0.18168E+06        -0.59297E+08         0.00000E+00
    0.00000E+00         0.00000E+00         0.40593E-07
 
   -0.72809E+06         0.16204E+06         0.00000E+00
    0.16204E+06        -0.59540E+08         0.00000E+00
    0.00000E+00         0.00000E+00         0.81185E-07
 
   -0.86018E+06         0.13970E+06         0.00000E+00
    0.13970E+06        -0.59783E+08         0.00000E+00
    0.00000E+00         0.00000E+00        -0.30444E-07
 
   -0.10071E+07         0.11457E+06         0.00000E+00
    0.11457E+06        -0.60028E+08         0.00000E+00
    0.00000E+00         0.00000E+00         0.40593E-07
 
   -0.11702E+07         0.86657E+05         0.00000E+00
    0.86657E+05        -0.60275E+08         0.00000E+00
    0.00000E+00         0.00000E+00         0.30444E-07
 
   -0.13503E+07         0.56144E+05         0.00000E+00
    0.56144E+05        -0.60522E+08         0.00000E+00
    0.00000E+00         0.00000E+00         0.00000E+00
 
   -0.15482E+07         0.23413E+05         0.00000E+00
    0.23413E+05        -0.60770E+08         0.00000E+00
    0.00000E+00         0.00000E+00        -0.30444E-07
 
   -0.17642E+07        -0.10840E+05         0.00000E+00
   -0.10840E+05        -0.61018E+08         0.00000E+00
    0.00000E+00         0.00000E+00         0.81185E-07
 
   -0.19974E+07        -0.45468E+05         0.00000E+00
   -0.45468E+05        -0.61266E+08         0.00000E+00
    0.00000E+00         0.00000E+00        -0.81185E-07
 
   -0.22459E+07        -0.78574E+05         0.00000E+00
   -0.78574E+05        -0.61512E+08         0.00000E+00
    0.00000E+00         0.00000E+00        -0.40593E-07
 
   -0.25051E+07        -0.10692E+06         0.00000E+00
   -0.10692E+06        -0.61757E+08         0.00000E+00
    0.00000E+00         0.00000E+00        -0.14207E-06
 
   -0.27661E+07        -0.12352E+06         0.00000E+00
   -0.12352E+06        -0.61997E+08         0.00000E+00
    0.00000E+00         0.00000E+00         0.40593E-07
 
   -0.30167E+07        -0.11075E+06         0.00000E+00
   -0.11075E+06        -0.62216E+08         0.00000E+00
    0.00000E+00         0.00000E+00         0.71037E-07
 
   -0.32567E+07        -0.47260E+05         0.00000E+00
   -0.47260E+05        -0.62362E+08         0.00000E+00
    0.00000E+00         0.00000E+00        -0.12178E-06
 
    0.10139E+07        -0.12755E+05         0.00000E+00
   -0.12755E+05        -0.47660E+08         0.00000E+00
    0.00000E+00         0.00000E+00         0.20296E-07
 
    0.94669E+06        -0.28268E+05         0.00000E+00
   -0.28268E+05        -0.47704E+08         0.00000E+00
    0.00000E+00         0.00000E+00         0.00000E+00
 
    0.87628E+06        -0.28947E+05         0.00000E+00
   -0.28947E+05        -0.47767E+08         0.00000E+00
    0.00000E+00         0.00000E+00         0.30444E-07
 
    0.80394E+06        -0.22337E+05         0.00000E+00
   -0.22337E+05        -0.47834E+08         0.00000E+00
    0.00000E+00         0.00000E+00         0.00000E+00
 
    0.73378E+06        -0.13244E+05         0.00000E+00
   -0.13244E+05        -0.47902E+08         0.00000E+00
    0.00000E+00         0.00000E+00        -0.20296E-07
 
    0.66817E+06        -0.32058E+04         0.00000E+00
   -0.32058E+04        -0.47971E+08         0.00000E+00
    0.00000E+00         0.00000E+00        -0.30444E-07
 
    0.60814E+06         0.70665E+04         0.00000E+00
    0.70665E+04        -0.48040E+08         0.00000E+00
    0.00000E+00         0.00000E+00         0.00000E+00
 
    0.55405E+06         0.17161E+05         0.00000E+00
    0.17161E+05        -0.48109E+08         0.00000E+00
    0.00000E+00         0.00000E+00         0.20296E-07
 
    0.50594E+06         0.26836E+05         0.00000E+00
    0.26836E+05        -0.48179E+08         0.00000E+00
    0.00000E+00         0.00000E+00         0.91333E-07
 
    0.46358E+06         0.35947E+05         0.00000E+00
    0.35947E+05        -0.48249E+08         0.00000E+00
    0.00000E+00         0.00000E+00         0.22737E-12
 
    0.42664E+06         0.44421E+05         0.00000E+00
    0.44421E+05        -0.48320E+08         0.00000E+00
    0.00000E+00         0.00000E+00        -0.71037E-07
 
    0.39472E+06         0.52234E+05         0.00000E+00
    0.52234E+05        -0.48392E+08         0.00000E+00
    0.00000E+00         0.00000E+00         0.00000E+00
 
    0.36736E+06         0.59394E+05         0.00000E+00
    0.59394E+05        -0.48464E+08         0.00000E+00
    0.00000E+00         0.00000E+00        -0.20296E-07
 
    0.34414E+06         0.65937E+05         0.00000E+00
    0.65937E+05        -0.48536E+08         0.00000E+00
    0.00000E+00         0.00000E+00         0.40593E-07
 
    0.32461E+06         0.71908E+05         0.00000E+00
    0.71908E+05        -0.48610E+08         0.00000E+00
    0.00000E+00         0.00000E+00        -0.10148E-07
 
    0.30837E+06         0.77364E+05         0.00000E+00
    0.77364E+05        -0.48684E+08         0.00000E+00
    0.00000E+00         0.00000E+00        -0.40593E-07
 
    0.29503E+06         0.82362E+05         0.00000E+00
    0.82362E+05        -0.48759E+08         0.00000E+00
    0.00000E+00         0.00000E+00         0.00000E+00
 
    0.28427E+06         0.86960E+05         0.00000E+00
    0.86960E+05        -0.48835E+08         0.00000E+00
    0.00000E+00         0.00000E+00        -0.40593E-07
 
    0.27575E+06         0.91213E+05         0.00000E+00
    0.91213E+05        -0.48912E+08         0.00000E+00
    0.00000E+00         0.00000E+00        -0.50741E-07
 
    0.26921E+06         0.95171E+05         0.00000E+00
    0.95171E+05        -0.48990E+08         0.00000E+00
    0.00000E+00         0.00000E+00         0.50741E-07
 
    0.26438E+06         0.98881E+05         0.00000E+00
    0.98881E+05        -0.49070E+08         0.00000E+00
    0.00000E+00         0.00000E+00        -0.81185E-07
 
    0.26106E+06         0.10238E+06         0.00000E+00
    0.10238E+06        -0.49150E+08         0.00000E+00
    0.00000E+00         0.00000E+00         0.20296E-07
 
    0.25905E+06         0.10572E+06         0.00000E+00
    0.10572E+06        -0.49232E+08         0.00000E+00
    0.00000E+00         0.00000E+00         0.20296E-07
 
    0.25816E+06         0.10891E+06         0.00000E+00
    0.10891E+06        -0.49315E+08         0.00000E+00
    0.00000E+00         0.00000E+00        -0.10148E-06
 
    0.25826E+06         0.11199E+06         0.00000E+00
    0.11199E+06        -0.49399E+08         0.00000E+00
    0.00000E+00         0.00000E+00        -0.30444E-07
 
    0.25921E+06         0.11498E+06         0.00000E+00
    0.11498E+06        -0.49485E+08         0.00000E+00
    0.00000E+00         0.00000E+00        -0.20296E-07
 
    0.26089E+06         0.11791E+06         0.00000E+00
    0.11791E+06        -0.49573E+08         0.00000E+00
    0.00000E+00         0.00000E+00        -0.40593E-07
 
    0.26320E+06         0.12078E+06         0.00000E+00
    0.12078E+06        -0.49662E+08         0.00000E+00
    0.00000E+00         0.00000E+00        -0.40593E-07
 
    0.26603E+06         0.12362E+06         0.00000E+00
    0.12362E+06        -0.49752E+08         0.00000E+00
    0.00000E+00         0.00000E+00         0.50740E-07
 
    0.26933E+06         0.12643E+06         0.00000E+00
    0.12643E+06        -0.49845E+08         0.00000E+00
    0.00000E+00         0.00000E+00         0.00000E+00
 
    0.27299E+06         0.12924E+06         0.00000E+00
    0.12924E+06        -0.49939E+08         0.00000E+00
    0.00000E+00         0.00000E+00        -0.30444E-07
 
    0.27697E+06         0.13203E+06         0.00000E+00
    0.13203E+06        -0.50035E+08         0.00000E+00
    0.00000E+00         0.00000E+00        -0.10148E-07
 
    0.28121E+06         0.13483E+06         0.00000E+00
    0.13483E+06        -0.50133E+08         0.00000E+00
    0.00000E+00         0.00000E+00         0.30444E-07
 
    0.28564E+06         0.13764E+06         0.00000E+00
    0.13764E+06        -0.50233E+08         0.00000E+00
    0.00000E+00         0.00000E+00         0.30444E-07
 
    0.29023E+06         0.14045E+06         0.00000E+00
    0.14045E+06        -0.50335E+08         0.00000E+00
    0.00000E+00         0.00000E+00         0.00000E+00
 
    0.29492E+06         0.14329E+06         0.00000E+00
    0.14329E+06        -0.50439E+08         0.00000E+00
    0.00000E+00         0.00000E+00        -0.60889E-07
 
    0.29968E+06         0.14614E+06         0.00000E+00
    0.14614E+06        -0.50545E+08         0.00000E+00
    0.00000E+00         0.00000E+00         0.60889E-07
 
    0.30446E+06         0.14902E+06         0.00000E+00
    0.14902E+06        -0.50653E+08         0.00000E+00
    0.00000E+00         0.00000E+00         0.00000E+00
 
    0.30923E+06         0.15192E+06         0.00000E+00
    0.15192E+06        -0.50764E+08         0.00000E+00
    0.00000E+00         0.00000E+00        -0.10148E-07
 
    0.31396E+06         0.15484E+06         0.00000E+00
    0.15484E+06        -0.50877E+08         0.00000E+00
    0.00000E+00         0.00000E+00         0.10148E-07
 
    0.31861E+06         0.15779E+06         0.00000E+00
    0.15779E+06        -0.50992E+08         0.00000E+00
    0.00000E+00         0.00000E+00        -0.20296E-07
 
    0.32314E+06         0.16076E+06         0.00000E+00
    0.16076E+06        -0.51110E+08         0.00000E+00
    0.00000E+00         0.00000E+00         0.30444E-07
 
    0.32754E+06         0.16375E+06         0.00000E+00
    0.16375E+06        -0.51230E+08         0.00000E+00
    0.00000E+00         0.00000E+00         0.40593E-07
 
    0.33176E+06         0.16677E+06         0.00000E+00
    0.16677E+06        -0.51352E+08         0.00000E+00
    0.00000E+00         0.00000E+00        -0.30444E-07
 
    0.33579E+06         0.16980E+06         0.00000E+00
    0.16980E+06        -0.51477E+08         0.00000E+00
    0.00000E+00         0.00000E+00        -0.20296E-07
 
    0.33958E+06         0.17285E+06         0.00000E+00
    0.17285E+06        -0.51605E+08         0.00000E+00
    0.00000E+00         0.00000E+00         0.00000E+00
 
    0.34310E+06         0.17592E+06         0.00000E+00
    0.17592E+06        -0.51735E+08         0.00000E+00
    0.00000E+00         0.00000E+00        -0.40593E-07
 
    0.34634E+06         0.17900E+06         0.00000E+00
    0.17900E+06        -0.51868E+08         0.00000E+00
    0.00000E+00         0.00000E+00        -0.30444E-07
 
    0.34924E+06         0.18208E+06         0.00000E+00
    0.18208E+06        -0.52004E+08         0.00000E+00
    0.00000E+00         0.00000E+00         0.00000E+00
 
    0.35179E+06         0.18517E+06         0.00000E+00
    0.18517E+06        -0.52142E+08         0.00000E+00
    0.00000E+00         0.00000E+00         0.00000E+00
 
    0.35395E+06         0.18827E+06         0.00000E+00
    0.18827E+06        -0.52283E+08         0.00000E+00
    0.00000E+00         0.00000E+00        -0.71037E-07
 
    0.35568E+06         0.19135E+06         0.00000E+00
    0.19135E+06        -0.52428E+08         0.00000E+00
    0.00000E+00         0.00000E+00         0.40593E-07
 
    0.35694E+06         0.19443E+06         0.00000E+00
    0.19443E+06        -0.52574E+08         0.00000E+00
    0.00000E+00         0.00000E+00        -0.13193E-06
 
    0.35770E+06         0.19749E+06         0.00000E+00
    0.19749E+06        -0.52724E+08         0.00000E+00
    0.00000E+00         0.00000E+00         0.81185E-07
 
    0.35792E+06         0.20052E+06         0.00000E+00
    0.20052E+06        -0.52877E+08         0.00000E+00
    0.00000E+00         0.00000E+00        -0.10148E-07
 
    0.35754E+06         0.20353E+06         0.00000E+00
    0.20353E+06        -0.53033E+08         0.00000E+00
    0.00000E+00         0.00000E+00         0.10148E-07
 
    0.35653E+06         0.20650E+06         0.00000E+00
    0.20650E+06        -0.53191E+08         0.00000E+00
    0.00000E+00         0.00000E+00         0.20296E-07
 
    0.35483E+06         0.20942E+06         0.00000E+00
    0.20942E+06        -0.53353E+08         0.00000E+00
    0.00000E+00         0.00000E+00         0.10148E-07
 
    0.35239E+06         0.21228E+06         0.00000E+00
    0.21228E+06        -0.53517E+08         0.00000E+00
    0.00000E+00         0.00000E+00         0.71037E-07
 
    0.34915E+06         0.21508E+06         0.00000E+00
    0.21508E+06        -0.53685E+08         0.00000E+00
    0.00000E+00         0.00000E+00        -0.50741E-07
 
    0.34504E+06         0.21780E+06         0.00000E+00
    0.21780E+06        -0.53856E+08         0.00000E+00
    0.00000E+00         0.00000E+00         0.10148E-07
 
    0.34000E+06         0.22043E+06         0.00000E+00
    0.22043E+06        -0.54029E+08         0.00000E+00
    0.00000E+00         0.00000E+00         0.10148E-07
 
    0.33394E+06         0.22296E+06         0.00000E+00
    0.22296E+06        -0.54206E+08         0.00000E+00
    0.00000E+00         0.00000E+00        -0.71037E-07
 
    0.32679E+06         0.22537E+06         0.00000E+00
    0.22537E+06        -0.54385E+08         0.00000E+00
    0.00000E+00         0.00000E+00        -0.40592E-07
 
    0.31845E+06         0.22764E+06         0.00000E+00
    0.22764E+06        -0.54568E+08         0.00000E+00
    0.00000E+00         0.00000E+00        -0.12178E-06
 
    0.30881E+06         0.22976E+06         0.00000E+00
    0.22976E+06        -0.54754E+08         0.00000E+00
    0.00000E+00         0.00000E+00        -0.30444E-07
 
    0.29777E+06         0.23170E+06         0.00000E+00
    0.23170E+06        -0.54943E+08         0.00000E+00
    0.00000E+00         0.00000E+00        -0.40593E-07
 
    0.28520E+06         0.23344E+06         0.00000E+00
    0.23344E+06        -0.55134E+08         0.00000E+00
    0.00000E+00         0.00000E+00         0.10148E-07
 
    0.27095E+06         0.23496E+06         0.00000E+00
    0.23496E+06        -0.55329E+08         0.00000E+00
    0.00000E+00         0.00000E+00         0.50741E-07
 
    0.25487E+06         0.23622E+06         0.00000E+00
    0.23622E+06        -0.55527E+08         0.00000E+00
    0.00000E+00         0.00000E+00         0.00000E+00
 
    0.23679E+06         0.23719E+06         0.00000E+00
    0.23719E+06        -0.55727E+08         0.00000E+00
    0.00000E+00         0.00000E+00         0.00000E+00
 
    0.21649E+06         0.23783E+06         0.00000E+00
    0.23783E+06        -0.55931E+08         0.00000E+00
    0.00000E+00         0.00000E+00        -0.50741E-07
 
    0.19376E+06         0.23811E+06         0.00000E+00
    0.23811E+06        -0.56137E+08         0.00000E+00
    0.00000E+00         0.00000E+00        -0.10148E-07
 
    0.16835E+06         0.23796E+06         0.00000E+00
    0.23796E+06        -0.56346E+08         0.00000E+00
    0.00000E+00         0.00000E+00        -0.20296E-07
 
    0.13995E+06         0.23733E+06         0.00000E+00
    0.23733E+06        -0.56558E+08         0.00000E+00
    0.00000E+00         0.00000E+00        -0.30444E-07
 
    0.10825E+06         0.23616E+06         0.00000E+00
    0.23616E+06        -0.56773E+08         0.00000E+00
    0.00000E+00         0.00000E+00        -0.20296E-07
 
    0.72866E+05         0.23437E+06         0.00000E+00
    0.23437E+06        -0.56990E+08         0.00000E+00
    0.00000E+00         0.00000E+00         0.50741E-07
 
    0.33380E+05         0.23187E+06         0.00000E+00
    0.23187E+06        -0.57210E+08         0.00000E+00
    0.00000E+00         0.00000E+00        -0.10148E-07
 
   -0.10695E+05         0.22856E+06         0.00000E+00
    0.22856E+06        -0.57432E+08         0.00000E+00
    0.00000E+00         0.00000E+00        -0.60889E-07
 
   -0.59907E+05         0.22434E+06         0.00000E+00
    0.22434E+06        -0.57657E+08         0.00000E+00
    0.00000E+00         0.00000E+00        -0.20296E-07
 
   -0.11488E+06         0.21907E+06         0.00000E+00
    0.21907E+06        -0.57884E+08         0.00000E+00
    0.00000E+00         0.00000E+00        -0.30444E-07
 
   -0.17632E+06         0.21261E+06         0.00000E+00
    0.21261E+06        -0.58114E+08         0.00000E+00
    0.00000E+00         0.00000E+00        -0.50741E-07
 
   -0.24504E+06         0.20479E+06         0.00000E+00
    0.20479E+06        -0.58346E+08         0.00000E+00
    0.00000E+00         0.00000E+00        -0.60889E-07
 
   -0.32191E+06         0.19546E+06         0.00000E+00
    0.19546E+06        -0.58580E+08         0.00000E+00
    0.00000E+00         0.00000E+00        -0.12178E-06
 
   -0.40794E+06         0.18442E+06         0.00000E+00
    0.18442E+06        -0.58816E+08         0.00000E+00
    0.00000E+00         0.00000E+00         0.16237E-06
 
   -0.50424E+06         0.17147E+06         0.00000E+00
    0.17147E+06        -0.59054E+08         0.00000E+00
    0.00000E+00         0.00000E+00        -0.10148E-07
 
   -0.61200E+06         0.15644E+06         0.00000E+00
    0.15644E+06        -0.59294E+08         0.00000E+00
    0.00000E+00         0.00000E+00        -0.10148E-07
 
   -0.73250E+06         0.13913E+06         0.00000E+00
    0.13913E+06        -0.59536E+08         0.00000E+00
    0.00000E+00         0.00000E+00         0.60889E-07
 
   -0.86709E+06         0.11941E+06         0.00000E+00
    0.11941E+06        -0.59779E+08         0.00000E+00
    0.00000E+00         0.00000E+00         0.10148E-07
 
   -0.10171E+07         0.97186E+05         0.00000E+00
    0.97186E+05        -0.60023E+08         0.00000E+00
    0.00000E+00         0.00000E+00         0.20296E-07
 
   -0.11840E+07         0.72452E+05         0.00000E+00
    0.72452E+05        -0.60269E+08         0.00000E+00
    0.00000E+00         0.00000E+00        -0.91333E-07
 
   -0.13687E+07         0.45338E+05         0.00000E+00
    0.45338E+05        -0.60516E+08         0.00000E+00
    0.00000E+00         0.00000E+00        -0.20296E-07
 
   -0.15723E+07         0.16153E+05         0.00000E+00
    0.16153E+05        -0.60763E+08         0.00000E+00
    0.00000E+00         0.00000E+00         0.20296E-07
 
   -0.17951E+07        -0.14538E+05         0.00000E+00
   -0.14538E+05        -0.61011E+08         0.00000E+00
    0.00000E+00         0.00000E+00        -0.20296E-07
 
   -0.20367E+07        -0.45806E+05         0.00000E+00
   -0.45806E+05        -0.61259E+08         0.00000E+00
    0.00000E+00         0.00000E+00         0.12178E-06
 
   -0.22951E+07        -0.76110E+05         0.00000E+00
   -0.76110E+05        -0.61506E+08         0.00000E+00
    0.00000E+00         0.00000E+00         0.40593E-07
 
   -0.25663E+07        -0.10283E+06         0.00000E+00
   -0.10283E+06        -0.61752E+08         0.00000E+00
    0.00000E+00         0.00000E+00         0.13193E-06
 
   -0.28413E+07        -0.12039E+06         0.00000E+00
   -0.12039E+06        -0.61995E+08         0.00000E+00
    0.00000E+00         0.00000E+00        -0.81185E-07
 
   -0.31045E+07        -0.11151E+06         0.00000E+00
   -0.11151E+06        -0.62223E+08         0.00000E+00
    0.00000E+00         0.00000E+00        -0.20297E-07
 
   -0.33509E+07        -0.49179E+05         0.00000E+00
   -0.49179E+05        -0.62380E+08         0.00000E+00
    0.00000E+00         0.00000E+00         0.10148E-07
 
    0.10423E+07        -0.13316E+05         0.00000E+00
   -0.13316E+05        -0.47655E+08         0.00000E+00
    0.00000E+00         0.00000E+00        -0.10148E-07
 
    0.97270E+06        -0.28238E+05         0.00000E+00
   -0.28238E+05        -0.47702E+08         0.00000E+00
    0.00000E+00         0.00000E+00        -0.20296E-07
 
    0.89801E+06        -0.27827E+05         0.00000E+00
   -0.27827E+05        -0.47768E+08         0.00000E+00
    0.00000E+00         0.00000E+00        -0.81185E-07
 
    0.82147E+06        -0.21312E+05         0.00000E+00
   -0.21312E+05        -0.47835E+08         0.00000E+00
    0.00000E+00         0.00000E+00         0.00000E+00
 
    0.74795E+06        -0.13052E+05         0.00000E+00
   -0.13052E+05        -0.47904E+08         0.00000E+00
    0.00000E+00         0.00000E+00         0.11163E-06
 
    0.67966E+06        -0.41390E+04         0.00000E+00
   -0.41390E+04        -0.47973E+08         0.00000E+00
    0.00000E+00         0.00000E+00         0.71037E-07
 
    0.61747E+06         0.48726E+04         0.00000E+00
    0.48726E+04        -0.48042E+08         0.00000E+00
    0.00000E+00         0.00000E+00        -0.50741E-07
 
    0.56168E+06         0.13666E+05         0.00000E+00
    0.13666E+05        -0.48111E+08         0.00000E+00
    0.00000E+00         0.00000E+00         0.00000E+00
 
    0.51221E+06         0.22055E+05         0.00000E+00
    0.22055E+05        -0.48181E+08         0.00000E+00
    0.00000E+00         0.00000E+00         0.30444E-07
 
    0.46880E+06         0.29928E+05         0.00000E+00
    0.29928E+05        -0.48251E+08         0.00000E+00
    0.00000E+00         0.00000E+00         0.00000E+00
 
    0.43106E+06         0.37231E+05         0.00000E+00
    0.37231E+05        -0.48322E+08         0.00000E+00
    0.00000E+00         0.00000E+00        -0.20296E-07
 
    0.39852E+06         0.43947E+05         0.00000E+00
    0.43947E+05        -0.48393E+08         0.00000E+00
    0.00000E+00         0.00000E+00         0.20296E-07
 
    0.37073E+06         0.50090E+05         0.00000E+00
    0.50090E+05        -0.48465E+08         0.00000E+00
    0.00000E+00         0.00000E+00         0.40593E-07
 
    0.34719E+06         0.55692E+05         0.00000E+00
    0.55692E+05        -0.48538E+08         0.00000E+00
    0.00000E+00         0.00000E+00        -0.30444E-07
 
    0.32746E+06         0.60795E+05         0.00000E+00
    0.60795E+05        -0.48611E+08         0.00000E+00
    0.00000E+00         0.00000E+00        -0.20296E-07
 
    0.31110E+06         0.65451E+05         0.00000E+00
    0.65451E+05        -0.48685E+08         0.00000E+00
    0.00000E+00         0.00000E+00         0.60889E-07
 
    0.29772E+06         0.69709E+05         0.00000E+00
    0.69709E+05        -0.48760E+08         0.00000E+00
    0.00000E+00         0.00000E+00         0.20296E-07
 
    0.28695E+06         0.73622E+05         0.00000E+00
    0.73622E+05        -0.48836E+08         0.00000E+00
    0.00000E+00         0.00000E+00        -0.71037E-07
 
    0.27847E+06         0.77236E+05         0.00000E+00
    0.77236E+05        -0.48913E+08         0.00000E+00
    0.00000E+00         0.00000E+00         0.10148E-07
 
    0.27199E+06         0.80596E+05         0.00000E+00
    0.80596E+05        -0.48991E+08         0.00000E+00
    0.00000E+00         0.00000E+00         0.30444E-07
 
    0.26725E+06         0.83743E+05         0.00000E+00
    0.83743E+05        -0.49070E+08         0.00000E+00
    0.00000E+00         0.00000E+00         0.10148E-07
 
    0.26403E+06         0.86712E+05         0.00000E+00
    0.86712E+05        -0.49151E+08         0.00000E+00
    0.00000E+00         0.00000E+00        -0.50741E-07
 
    0.26213E+06         0.89534E+05         0.00000E+00
    0.89534E+05        -0.49232E+08         0.00000E+00
    0.00000E+00         0.00000E+00         0.10148E-07
 
    0.26137E+06         0.92237E+05         0.00000E+00
    0.92237E+05        -0.49315E+08         0.00000E+00
    0.00000E+00         0.00000E+00         0.20296E-07
 
    0.26160E+06         0.94845E+05         0.00000E+00
    0.94845E+05        -0.49400E+08         0.00000E+00
    0.00000E+00         0.00000E+00         0.71037E-07
 
    0.26267E+06         0.97377E+05         0.00000E+00
    0.97377E+05        -0.49486E+08         0.00000E+00
    0.00000E+00         0.00000E+00         0.20296E-07
 
    0.26448E+06         0.99852E+05         0.00000E+00
    0.99852E+05        -0.49573E+08         0.00000E+00
    0.00000E+00         0.00000E+00         0.00000E+00
 
    0.26692E+06         0.10228E+06         0.00000E+00
    0.10228E+06        -0.49662E+08         0.00000E+00
    0.00000E+00         0.00000E+00         0.71037E-07
 
    0.26989E+06         0.10468E+06         0.00000E+00
    0.10468E+06        -0.49753E+08         0.00000E+00
    0.00000E+00         0.00000E+00         0.00000E+00
 
    0.27331E+06         0.10706E+06         0.00000E+00
    0.10706E+06        -0.49845E+08         0.00000E+00
    0.00000E+00         0.00000E+00        -0.20296E-07
 
    0.27711E+06         0.10943E+06         0.00000E+00
    0.10943E+06        -0.49940E+08         0.00000E+00
    0.00000E+00         0.00000E+00        -0.20296E-07
 
    0.28122E+06         0.11180E+06         0.00000E+00
    0.11180E+06        -0.50036E+08         0.00000E+00
    0.00000E+00         0.00000E+00        -0.30444E-07
 
    0.28559E+06         0.11416E+06         0.00000E+00
    0.11416E+06        -0.50134E+08         0.00000E+00
    0.00000E+00         0.00000E+00        -0.50741E-07
 
    0.29015E+06         0.11654E+06         0.00000E+00
    0.11654E+06        -0.50233E+08         0.00000E+00
    0.00000E+00         0.00000E+00         0.30444E-07
 
    0.29486E+06         0.11892E+06         0.00000E+00
    0.11892E+06        -0.50335E+08         0.00000E+00
    0.00000E+00         0.00000E+00        -0.50741E-07
 
    0.29967E+06         0.12132E+06         0.00000E+00
    0.12132E+06        -0.50439E+08         0.00000E+00
    0.00000E+00         0.00000E+00        -0.30444E-07
 
    0.30455E+06         0.12373E+06         0.00000E+00
    0.12373E+06        -0.50546E+08         0.00000E+00
    0.00000E+00         0.00000E+00         0.71037E-07
 
    0.30945E+06         0.12616E+06         0.00000E+00
    0.12616E+06        -0.50654E+08         0.00000E+00
    0.00000E+00         0.00000E+00         0.00000E+00
 
    0.31433E+06         0.12861E+06         0.00000E+00
    0.12861E+06        -0.50764E+08         0.00000E+00
    0.00000E+00         0.00000E+00         0.10148E-07
 
    0.31917E+06         0.13109E+06         0.00000E+00
    0.13109E+06        -0.50877E+08         0.00000E+00
    0.00000E+00         0.00000E+00         0.20296E-07
 
    0.32393E+06         0.13358E+06         0.00000E+00
    0.13358E+06        -0.50992E+08         0.00000E+00
    0.00000E+00         0.00000E+00         0.20296E-07
 
    0.32857E+06         0.13609E+06         0.00000E+00
    0.13609E+06        -0.51110E+08         0.00000E+00
    0.00000E+00         0.00000E+00        -0.10148E-06
 
    0.33308E+06         0.13862E+06         0.00000E+00
    0.13862E+06        -0.51230E+08         0.00000E+00
    0.00000E+00         0.00000E+00         0.91333E-07
 
    0.33740E+06         0.14117E+06         0.00000E+00
    0.14117E+06        -0.51353E+08         0.00000E+00
    0.00000E+00         0.00000E+00        -0.91333E-07
 
    0.34152E+06         0.14373E+06         0.00000E+00
    0.14373E+06        -0.51478E+08         0.00000E+00
    0.00000E+00         0.00000E+00        -0.10148E-07
 
    0.34540E+06         0.14631E+06         0.00000E+00
    0.14631E+06        -0.51605E+08         0.00000E+00
    0.00000E+00         0.00000E+00        -0.40593E-07
 
    0.34902E+06         0.14891E+06         0.00000E+00
    0.14891E+06        -0.51736E+08         0.00000E+00
    0.00000E+00         0.00000E+00        -0.50741E-07
 
    0.35234E+06         0.15151E+06         0.00000E+00
    0.15151E+06        -0.51869E+08         0.00000E+00
    0.00000E+00         0.00000E+00        -0.10148E-07
 
    0.35533E+06         0.15412E+06         0.00000E+00
    0.15412E+06        -0.52004E+08         0.00000E+00
    0.00000E+00         0.00000E+00        -0.30444E-07
 
    0.35795E+06         0.15673E+06         0.00000E+00
    0.15673E+06        -0.52143E+08         0.00000E+00
    0.00000E+00         0.00000E+00         0.20296E-07
 
    0.36018E+06         0.15934E+06         0.00000E+00
    0.15934E+06        -0.52284E+08         0.00000E+00
    0.00000E+00         0.00000E+00         0.16237E-06
 
    0.36198E+06         0.16195E+06         0.00000E+00
    0.16195E+06        -0.52428E+08         0.00000E+00
    0.00000E+00         0.00000E+00        -0.60889E-07
 
    0.36330E+06         0.16455E+06         0.00000E+00
    0.16455E+06        -0.52575E+08         0.00000E+00
    0.00000E+00         0.00000E+00         0.20296E-07
 
    0.36412E+06         0.16714E+06         0.00000E+00
    0.16714E+06        -0.52725E+08         0.00000E+00
    0.00000E+00         0.00000E+00        -0.10148E-07
 
    0.36438E+06         0.16970E+06         0.00000E+00
    0.16970E+06        -0.52877E+08         0.00000E+00
    0.00000E+00         0.00000E+00         0.71037E-07
 
    0.36405E+06         0.17224E+06         0.00000E+00
    0.17224E+06        -0.53033E+08         0.00000E+00
    0.00000E+00         0.00000E+00        -0.15222E-06
 
    0.36307E+06         0.17475E+06         0.00000E+00
    0.17475E+06        -0.53192E+08         0.00000E+00
    0.00000E+00         0.00000E+00         0.91333E-07
 
    0.36141E+06         0.17722E+06         0.00000E+00
    0.17722E+06        -0.53353E+08         0.00000E+00
    0.00000E+00         0.00000E+00        -0.71037E-07
 
    0.35899E+06         0.17964E+06         0.00000E+00
    0.17964E+06        -0.53518E+08         0.00000E+00
    0.00000E+00         0.00000E+00         0.10148E-07
 
    0.35576E+06         0.18201E+06         0.00000E+00
    0.18201E+06        -0.53685E+08         0.00000E+00
    0.00000E+00         0.00000E+00        -0.50741E-07
 
    0.35166E+06         0.18430E+06         0.00000E+00
    0.18430E+06        -0.53856E+08         0.00000E+00
    0.00000E+00         0.00000E+00        -0.30444E-07
 
    0.34662E+06         0.18653E+06         0.00000E+00
    0.18653E+06        -0.54030E+08         0.00000E+00
    0.00000E+00         0.00000E+00         0.00000E+00
 
    0.34055E+06         0.18866E+06         0.00000E+00
    0.18866E+06        -0.54206E+08         0.00000E+00
    0.00000E+00         0.00000E+00         0.20296E-07
 
    0.33338E+06         0.19070E+06         0.00000E+00
    0.19070E+06        -0.54386E+08         0.00000E+00
    0.00000E+00         0.00000E+00        -0.20296E-07
 
    0.32501E+06         0.19261E+06         0.00000E+00
    0.19261E+06        -0.54569E+08         0.00000E+00
    0.00000E+00         0.00000E+00         0.15222E-06
 
    0.31535E+06         0.19440E+06         0.00000E+00
    0.19440E+06        -0.54754E+08         0.00000E+00
    0.00000E+00         0.00000E+00        -0.40593E-07
 
    0.30426E+06         0.19604E+06         0.00000E+00
    0.19604E+06        -0.54943E+08         0.00000E+00
    0.00000E+00         0.00000E+00        -0.20296E-07
 
    0.29163E+06         0.19751E+06         0.00000E+00
    0.19751E+06        -0.55135E+08         0.00000E+00
    0.00000E+00         0.00000E+00         0.00000E+00
 
    0.27733E+06         0.19879E+06         0.00000E+00
    0.19879E+06        -0.55329E+08         0.00000E+00
    0.00000E+00         0.00000E+00         0.60889E-07
 
    0.26117E+06         0.19985E+06         0.00000E+00
    0.19985E+06        -0.55527E+08         0.00000E+00
    0.00000E+00         0.00000E+00         0.50741E-07
 
    0.24300E+06         0.20067E+06         0.00000E+00
    0.20067E+06        -0.55727E+08         0.00000E+00
    0.00000E+00         0.00000E+00        -0.20296E-07
 
    0.22261E+06         0.20121E+06         0.00000E+00
    0.20121E+06        -0.55931E+08         0.00000E+00
    0.00000E+00         0.00000E+00         0.00000E+00
 
    0.19977E+06         0.20144E+06         0.00000E+00
    0.20144E+06        -0.56137E+08         0.00000E+00
    0.00000E+00         0.00000E+00         0.30444E-07
 
    0.17422E+06         0.20131E+06         0.00000E+00
    0.20131E+06        -0.56346E+08         0.00000E+00
    0.00000E+00         0.00000E+00        -0.10148E-07
 
    0.14568E+06         0.20077E+06         0.00000E+00
    0.20077E+06        -0.56558E+08         0.00000E+00
    0.00000E+00         0.00000E+00         0.10148E-06
 
    0.11381E+06         0.19977E+06         0.00000E+00
    0.19977E+06        -0.56772E+08         0.00000E+00
    0.00000E+00         0.00000E+00        -0.12178E-06
 
    0.78231E+05         0.19824E+06         0.00000E+00
    0.19824E+06        -0.56990E+08         0.00000E+00
    0.00000E+00         0.00000E+00        -0.10148E-07
 
    0.38514E+05         0.19611E+06         0.00000E+00
    0.19611E+06        -0.57209E+08         0.00000E+00
    0.00000E+00         0.00000E+00         0.40593E-07
 
   -0.58341E+04         0.19329E+06         0.00000E+00
    0.19329E+06        -0.57431E+08         0.00000E+00
    0.00000E+00         0.00000E+00        -0.30444E-07
 
   -0.55376E+05         0.18969E+06         0.00000E+00
    0.18969E+06        -0.57656E+08         0.00000E+00
    0.00000E+00         0.00000E+00        -0.50741E-07
 
   -0.11075E+06         0.18519E+06         0.00000E+00
    0.18519E+06        -0.57883E+08         0.00000E+00
    0.00000E+00         0.00000E+00         0.00000E+00
 
   -0.17269E+06         0.17968E+06         0.00000E+00
    0.17968E+06        -0.58113E+08         0.00000E+00
    0.00000E+00         0.00000E+00         0.30444E-07
 
   -0.24201E+06         0.17300E+06         0.00000E+00
    0.17300E+06        -0.58344E+08         0.00000E+00
    0.00000E+00         0.00000E+00         0.16237E-06
 
   -0.31965E+06         0.16502E+06         0.00000E+00
    0.16502E+06        -0.58578E+08         0.00000E+00
    0.00000E+00         0.00000E+00        -0.60889E-07
 
   -0.40665E+06         0.15556E+06         0.00000E+00
    0.15556E+06        -0.58814E+08         0.00000E+00
    0.00000E+00         0.00000E+00        -0.20296E-07
 
   -0.50415E+06         0.14446E+06         0.00000E+00
    0.14446E+06        -0.59051E+08         0.00000E+00
    0.00000E+00         0.00000E+00        -0.40593E-07
 
   -0.61342E+06         0.13155E+06         0.00000E+00
    0.13155E+06        -0.59291E+08         0.00000E+00
    0.00000E+00         0.00000E+00        -0.91333E-07
 
   -0.73583E+06         0.11666E+06         0.00000E+00
    0.11666E+06        -0.59532E+08         0.00000E+00
    0.00000E+00         0.00000E+00         0.00000E+00
 
   -0.87282E+06         0.99669E+05         0.00000E+00
    0.99669E+05        -0.59775E+08         0.00000E+00
    0.00000E+00         0.00000E+00        -0.10148E-06
 
   -0.10258E+07         0.80480E+05         0.00000E+00
    0.80480E+05        -0.60019E+08         0.00000E+00
    0.00000E+00         0.00000E+00        -0.91333E-07
 
   -0.11964E+07         0.59078E+05         0.00000E+00
    0.59078E+05        -0.60264E+08         0.00000E+00
    0.00000E+00         0.00000E+00        -0.50741E-07
 
   -0.13857E+07         0.35551E+05         0.00000E+00
    0.35551E+05        -0.60511E+08         0.00000E+00
    0.00000E+00         0.00000E+00         0.50741E-07
 
   -0.15949E+07         0.10138E+05         0.00000E+00
    0.10138E+05        -0.60758E+08         0.00000E+00
    0.00000E+00         0.00000E+00         0.30444E-07
 
   -0.18246E+07        -0.16722E+05         0.00000E+00
   -0.16722E+05        -0.61005E+08         0.00000E+00
    0.00000E+00         0.00000E+00        -0.40593E-07
 
   -0.20746E+07        -0.44305E+05         0.00000E+00
   -0.44305E+05        -0.61253E+08         0.00000E+00
    0.00000E+00         0.00000E+00         0.12178E-06
 
   -0.23434E+07        -0.71418E+05         0.00000E+00
   -0.71418E+05        -0.61501E+08         0.00000E+00
    0.00000E+00         0.00000E+00        -0.10148E-07
 
   -0.26272E+07        -0.96013E+05         0.00000E+00
   -0.96013E+05        -0.61748E+08         0.00000E+00
    0.00000E+00         0.00000E+00         0.00000E+00
 
   -0.29176E+07        -0.11410E+06         0.00000E+00
   -0.11410E+06        -0.61993E+08         0.00000E+00
    0.00000E+00         0.00000E+00         0.50741E-07
 
   -0.31966E+07        -0.11002E+06         0.00000E+00
   -0.11002E+06        -0.62229E+08         0.00000E+00
    0.00000E+00         0.00000E+00         0.60888E-07
 
   -0.34517E+07        -0.50717E+05         0.00000E+00
   -0.50717E+05        -0.62398E+08         0.00000E+00
    0.00000E+00         0.00000E+00         0.10148E-07
 
    0.10728E+07        -0.13727E+05         0.00000E+00
   -0.13727E+05        -0.47650E+08         0.00000E+00
    0.00000E+00         0.00000E+00         0.00000E+00
 
    0.99986E+06        -0.27378E+05         0.00000E+00
   -0.27378E+05        -0.47701E+08         0.00000E+00
    0.00000E+00         0.00000E+00        -0.10148E-07
 
    0.91989E+06        -0.25707E+05         0.00000E+00
   -0.25707E+05        -0.47769E+08         0.00000E+00
    0.00000E+00         0.00000E+00         0.40593E-07
 
    0.83874E+06        -0.19510E+05         0.00000E+00
   -0.19510E+05        -0.47837E+08         0.00000E+00
    0.00000E+00         0.00000E+00        -0.60889E-07
 
    0.76170E+06        -0.12250E+05         0.00000E+00
   -0.12250E+05        -0.47905E+08         0.00000E+00
    0.00000E+00         0.00000E+00        -0.40592E-07
 
    0.69064E+06        -0.45867E+04         0.00000E+00
   -0.45867E+04        -0.47974E+08         0.00000E+00
    0.00000E+00         0.00000E+00         0.10148E-07
 
    0.62628E+06         0.30627E+04         0.00000E+00
    0.30627E+04        -0.48043E+08         0.00000E+00
    0.00000E+00         0.00000E+00         0.40593E-07
 
    0.56878E+06         0.10474E+05         0.00000E+00
    0.10474E+05        -0.48113E+08         0.00000E+00
    0.00000E+00         0.00000E+00         0.40593E-07
 
    0.51799E+06         0.17511E+05         0.00000E+00
    0.17511E+05        -0.48182E+08         0.00000E+00
    0.00000E+00         0.00000E+00        -0.10148E-06
 
    0.47355E+06         0.24091E+05         0.00000E+00
    0.24091E+05        -0.48252E+08         0.00000E+00
    0.00000E+00         0.00000E+00         0.20296E-07
 
    0.43503E+06         0.30177E+05         0.00000E+00
    0.30177E+05        -0.48323E+08         0.00000E+00
    0.00000E+00         0.00000E+00        -0.10148E-07
 
    0.40193E+06         0.35760E+05         0.00000E+00
    0.35760E+05        -0.48394E+08         0.00000E+00
    0.00000E+00         0.00000E+00         0.50740E-07
 
    0.37373E+06         0.40856E+05         0.00000E+00
    0.40856E+05        -0.48466E+08         0.00000E+00
    0.00000E+00         0.00000E+00        -0.50741E-07
 
    0.34992E+06         0.45494E+05         0.00000E+00
    0.45494E+05        -0.48539E+08         0.00000E+00
    0.00000E+00         0.00000E+00        -0.20296E-07
 
    0.33001E+06         0.49711E+05         0.00000E+00
    0.49711E+05        -0.48612E+08         0.00000E+00
    0.00000E+00         0.00000E+00        -0.60889E-07
 
    0.31356E+06         0.53552E+05         0.00000E+00
    0.53552E+05        -0.48686E+08         0.00000E+00
    0.00000E+00         0.00000E+00         0.20296E-07
 
    0.30015E+06         0.57059E+05         0.00000E+00
    0.57059E+05        -0.48761E+08         0.00000E+00
    0.00000E+00         0.00000E+00        -0.20296E-07
 
    0.28940E+06         0.60277E+05         0.00000E+00
    0.60277E+05        -0.48837E+08         0.00000E+00
    0.00000E+00         0.00000E+00         0.00000E+00
 
    0.28098E+06         0.63246E+05         0.00000E+00
    0.63246E+05        -0.48914E+08         0.00000E+00
    0.00000E+00         0.00000E+00        -0.10148E-07
 
    0.27458E+06         0.66004E+05         0.00000E+00
    0.66004E+05        -0.48992E+08         0.00000E+00
    0.00000E+00         0.00000E+00        -0.40593E-07
 
    0.26995E+06         0.68584E+05         0.00000E+00
    0.68584E+05        -0.49071E+08         0.00000E+00
    0.00000E+00         0.00000E+00         0.00000E+00
 
    0.26685E+06         0.71017E+05         0.00000E+00
    0.71017E+05        -0.49151E+08         0.00000E+00
    0.00000E+00         0.00000E+00         0.00000E+00
 
    0.26507E+06         0.73328E+05         0.00000E+00
    0.73328E+05        -0.49233E+08         0.00000E+00
    0.00000E+00         0.00000E+00         0.10148E-07
 
    0.26444E+06         0.75540E+05         0.00000E+00
    0.75540E+05        -0.49316E+08         0.00000E+00
    0.00000E+00         0.00000E+00        -0.20296E-07
 
    0.26480E+06         0.77674E+05         0.00000E+00
    0.77674E+05        -0.49400E+08         0.00000E+00
    0.00000E+00         0.00000E+00         0.20296E-07
 
    0.26602E+06         0.79745E+05         0.00000E+00
    0.79745E+05        -0.49486E+08         0.00000E+00
    0.00000E+00         0.00000E+00         0.30444E-07
 
    0.26796E+06         0.81769E+05         0.00000E+00
    0.81769E+05        -0.49574E+08         0.00000E+00
    0.00000E+00         0.00000E+00         0.30444E-07
 
    0.27054E+06         0.83757E+05         0.00000E+00
    0.83757E+05        -0.49663E+08         0.00000E+00
    0.00000E+00         0.00000E+00        -0.10148E-07
 
    0.27364E+06         0.85719E+05         0.00000E+00
    0.85719E+05        -0.49753E+08         0.00000E+00
    0.00000E+00         0.00000E+00         0.20296E-07
 
    0.27720E+06         0.87665E+05         0.00000E+00
    0.87665E+05        -0.49846E+08         0.00000E+00
    0.00000E+00         0.00000E+00        -0.20296E-07
 
    0.28113E+06         0.89602E+05         0.00000E+00
    0.89602E+05        -0.49940E+08         0.00000E+00
    0.00000E+00         0.00000E+00         0.20296E-07
 
    0.28538E+06         0.91535E+05         0.00000E+00
    0.91535E+05        -0.50036E+08         0.00000E+00
    0.00000E+00         0.00000E+00        -0.10148E-06
 
    0.28987E+06         0.93470E+05         0.00000E+00
    0.93470E+05        -0.50134E+08         0.00000E+00
    0.00000E+00         0.00000E+00         0.50741E-07
 
    0.29456E+06         0.95410E+05         0.00000E+00
    0.95410E+05        -0.50234E+08         0.00000E+00
    0.00000E+00         0.00000E+00         0.10148E-07
 
    0.29939E+06         0.97359E+05         0.00000E+00
    0.97359E+05        -0.50336E+08         0.00000E+00
    0.00000E+00         0.00000E+00         0.20296E-07
 
    0.30433E+06         0.99319E+05         0.00000E+00
    0.99319E+05        -0.50440E+08         0.00000E+00
    0.00000E+00         0.00000E+00        -0.10148E-07
 
    0.30933E+06         0.10129E+06         0.00000E+00
    0.10129E+06        -0.50546E+08         0.00000E+00
    0.00000E+00         0.00000E+00         0.20296E-07
 
    0.31434E+06         0.10328E+06         0.00000E+00
    0.10328E+06        -0.50654E+08         0.00000E+00
    0.00000E+00         0.00000E+00        -0.20296E-07
 
    0.31935E+06         0.10529E+06         0.00000E+00
    0.10529E+06        -0.50765E+08         0.00000E+00
    0.00000E+00         0.00000E+00         0.91333E-07
 
    0.32430E+06         0.10731E+06         0.00000E+00
    0.10731E+06        -0.50878E+08         0.00000E+00
    0.00000E+00         0.00000E+00        -0.10148E-07
 
    0.32917E+06         0.10934E+06         0.00000E+00
    0.10934E+06        -0.50993E+08         0.00000E+00
    0.00000E+00         0.00000E+00         0.50741E-07
 
    0.33392E+06         0.11140E+06         0.00000E+00
    0.11140E+06        -0.51111E+08         0.00000E+00
    0.00000E+00         0.00000E+00        -0.10148E-07
 
    0.33853E+06         0.11347E+06         0.00000E+00
    0.11347E+06        -0.51231E+08         0.00000E+00
    0.00000E+00         0.00000E+00        -0.10148E-07
 
    0.34295E+06         0.11555E+06         0.00000E+00
    0.11555E+06        -0.51353E+08         0.00000E+00
    0.00000E+00         0.00000E+00         0.60889E-07
 
    0.34717E+06         0.11765E+06         0.00000E+00
    0.11765E+06        -0.51478E+08         0.00000E+00
    0.00000E+00         0.00000E+00        -0.50741E-07
 
    0.35115E+06         0.11976E+06         0.00000E+00
    0.11976E+06        -0.51606E+08         0.00000E+00
    0.00000E+00         0.00000E+00        -0.91333E-07
 
    0.35485E+06         0.12188E+06         0.00000E+00
    0.12188E+06        -0.51736E+08         0.00000E+00
    0.00000E+00         0.00000E+00        -0.71037E-07
 
    0.35826E+06         0.12400E+06         0.00000E+00
    0.12400E+06        -0.51869E+08         0.00000E+00
    0.00000E+00         0.00000E+00         0.10148E-06
 
    0.36133E+06         0.12614E+06         0.00000E+00
    0.12614E+06        -0.52005E+08         0.00000E+00
    0.00000E+00         0.00000E+00         0.20296E-07
 
    0.36403E+06         0.12827E+06         0.00000E+00
    0.12827E+06        -0.52143E+08         0.00000E+00
    0.00000E+00         0.00000E+00         0.00000E+00
 
    0.36633E+06         0.13041E+06         0.00000E+00
    0.13041E+06        -0.52285E+08         0.00000E+00
    0.00000E+00         0.00000E+00        -0.10148E-07
 
    0.36820E+06         0.13254E+06         0.00000E+00
    0.13254E+06        -0.52429E+08         0.00000E+00
    0.00000E+00         0.00000E+00        -0.11163E-06
 
    0.36959E+06         0.13466E+06         0.00000E+00
    0.13466E+06        -0.52575E+08         0.00000E+00
    0.00000E+00         0.00000E+00         0.00000E+00
 
    0.37046E+06         0.13678E+06         0.00000E+00
    0.13678E+06        -0.52725E+08         0.00000E+00
    0.00000E+00         0.00000E+00         0.50741E-07
 
    0.37077E+06         0.13887E+06         0.00000E+00
    0.13887E+06        -0.52878E+08         0.00000E+00
    0.00000E+00         0.00000E+00        -0.71037E-07
 
    0.37049E+06         0.14095E+06         0.00000E+00
    0.14095E+06        -0.53034E+08         0.00000E+00
    0.00000E+00         0.00000E+00        -0.10148E-07
 
    0.36955E+06         0.14300E+06         0.00000E+00
    0.14300E+06        -0.53192E+08         0.00000E+00
    0.00000E+00         0.00000E+00        -0.40593E-07
 
    0.36792E+06         0.14502E+06         0.00000E+00
    0.14502E+06        -0.53354E+08         0.00000E+00
    0.00000E+00         0.00000E+00         0.20296E-06
 
    0.36553E+06         0.14699E+06         0.00000E+00
    0.14699E+06        -0.53518E+08         0.00000E+00
    0.00000E+00         0.00000E+00        -0.20296E-07
 
    0.36232E+06         0.14893E+06         0.00000E+00
    0.14893E+06        -0.53686E+08         0.00000E+00
    0.00000E+00         0.00000E+00         0.10148E-07
 
    0.35823E+06         0.15080E+06         0.00000E+00
    0.15080E+06        -0.53856E+08         0.00000E+00
    0.00000E+00         0.00000E+00         0.10148E-07
 
    0.35320E+06         0.15262E+06         0.00000E+00
    0.15262E+06        -0.54030E+08         0.00000E+00
    0.00000E+00         0.00000E+00         0.20296E-07
 
    0.34713E+06         0.15436E+06         0.00000E+00
    0.15436E+06        -0.54207E+08         0.00000E+00
    0.00000E+00         0.00000E+00         0.00000E+00
 
    0.33995E+06         0.15602E+06         0.00000E+00
    0.15602E+06        -0.54386E+08         0.00000E+00
    0.00000E+00         0.00000E+00         0.00000E+00
 
    0.33157E+06         0.15759E+06         0.00000E+00
    0.15759E+06        -0.54569E+08         0.00000E+00
    0.00000E+00         0.00000E+00        -0.20296E-07
 
    0.32187E+06         0.15905E+06         0.00000E+00
    0.15905E+06        -0.54755E+08         0.00000E+00
    0.00000E+00         0.00000E+00        -0.40593E-07
 
    0.31076E+06         0.16039E+06         0.00000E+00
    0.16039E+06        -0.54943E+08         0.00000E+00
    0.00000E+00         0.00000E+00        -0.10148E-06
 
    0.29809E+06         0.16159E+06         0.00000E+00
    0.16159E+06        -0.55135E+08         0.00000E+00
    0.00000E+00         0.00000E+00         0.30444E-07
 
    0.28373E+06         0.16263E+06         0.00000E+00
    0.16263E+06        -0.55330E+08         0.00000E+00
    0.00000E+00         0.00000E+00        -0.40593E-07
 
    0.26752E+06         0.16350E+06         0.00000E+00
    0.16350E+06        -0.55527E+08         0.00000E+00
    0.00000E+00         0.00000E+00        -0.20296E-07
 
    0.24928E+06         0.16417E+06         0.00000E+00
    0.16417E+06        -0.55728E+08         0.00000E+00
    0.00000E+00         0.00000E+00         0.00000E+00
 
    0.22881E+06         0.16461E+06         0.00000E+00
    0.16461E+06        -0.55931E+08         0.00000E+00
    0.00000E+00         0.00000E+00        -0.20296E-07
 
    0.20588E+06         0.16479E+06         0.00000E+00
    0.16479E+06        -0.56137E+08         0.00000E+00
    0.00000E+00         0.00000E+00         0.91333E-07
 
    0.18023E+06         0.16468E+06         0.00000E+00
    0.16468E+06        -0.56346E+08         0.00000E+00
    0.00000E+00         0.00000E+00        -0.40593E-07
 
    0.15157E+06         0.16423E+06         0.00000E+00
    0.16423E+06        -0.56558E+08         0.00000E+00
    0.00000E+00         0.00000E+00         0.20296E-07
 
    0.11956E+06         0.16341E+06         0.00000E+00
    0.16341E+06        -0.56772E+08         0.00000E+00
    0.00000E+00         0.00000E+00        -0.81185E-07
 
    0.83826E+05         0.16215E+06         0.00000E+00
    0.16215E+06        -0.56989E+08         0.00000E+00
    0.00000E+00         0.00000E+00         0.20296E-07
 
    0.43921E+05         0.16040E+06         0.00000E+00
    0.16040E+06        -0.57209E+08         0.00000E+00
    0.00000E+00         0.00000E+00         0.30444E-07
 
   -0.65270E+03         0.15808E+06         0.00000E+00
    0.15808E+06        -0.57431E+08         0.00000E+00
    0.00000E+00         0.00000E+00        -0.14207E-06
 
   -0.50469E+05         0.15511E+06         0.00000E+00
    0.15511E+06        -0.57655E+08         0.00000E+00
    0.00000E+00         0.00000E+00         0.20296E-07
 
   -0.10618E+06         0.15140E+06         0.00000E+00
    0.15140E+06        -0.57882E+08         0.00000E+00
    0.00000E+00         0.00000E+00        -0.30444E-07
 
   -0.16855E+06         0.14685E+06         0.00000E+00
    0.14685E+06        -0.58112E+08         0.00000E+00
    0.00000E+00         0.00000E+00         0.00000E+00
 
   -0.23840E+06         0.14134E+06         0.00000E+00
    0.14134E+06        -0.58343E+08         0.00000E+00
    0.00000E+00         0.00000E+00        -0.71037E-07
 
   -0.31672E+06         0.13474E+06         0.00000E+00
    0.13474E+06        -0.58576E+08         0.00000E+00
    0.00000E+00         0.00000E+00        -0.50741E-07
 
   -0.40458E+06         0.12691E+06         0.00000E+00
    0.12691E+06        -0.58812E+08         0.00000E+00
    0.00000E+00         0.00000E+00         0.20296E-07
 
   -0.50318E+06         0.11771E+06         0.00000E+00
    0.11771E+06        -0.59049E+08         0.00000E+00
    0.00000E+00         0.00000E+00         0.10148E-07
 
   -0.61386E+06         0.10698E+06         0.00000E+00
    0.10698E+06        -0.59288E+08         0.00000E+00
    0.00000E+00         0.00000E+00         0.00000E+00
 
   -0.73806E+06         0.94605E+05         0.00000E+00
    0.94605E+05        -0.59529E+08         0.00000E+00
    0.00000E+00         0.00000E+00        -0.40593E-07
 
   -0.87731E+06         0.80447E+05         0.00000E+00
    0.80447E+05        -0.59772E+08         0.00000E+00
    0.00000E+00         0.00000E+00         0.81185E-07
 
   -0.10332E+07         0.64426E+05         0.00000E+00
    0.64426E+05        -0.60015E+08         0.00000E+00
    0.00000E+00         0.00000E+00        -0.11163E-06
 
   -0.12073E+07         0.46515E+05         0.00000E+00
    0.46515E+05        -0.60260E+08         0.00000E+00
    0.00000E+00         0.00000E+00         0.20296E-07
 
   -0.14012E+07         0.26770E+05         0.00000E+00
    0.26770E+05        -0.60506E+08         0.00000E+00
    0.00000E+00         0.00000E+00        -0.10148E-07
 
   -0.16159E+07         0.53628E+04         0.00000E+00
    0.53628E+04        -0.60753E+08         0.00000E+00
    0.00000E+00         0.00000E+00        -0.40593E-07
 
   -0.18525E+07        -0.17380E+05         0.00000E+00
   -0.17380E+05        -0.61000E+08         0.00000E+00
    0.00000E+00         0.00000E+00         0.00000E+00
 
   -0.21110E+07        -0.40922E+05         0.00000E+00
   -0.40922E+05        -0.61248E+08         0.00000E+00
    0.00000E+00         0.00000E+00        -0.20296E-07
 
   -0.23904E+07        -0.64411E+05         0.00000E+00
   -0.64411E+05        -0.61496E+08         0.00000E+00
    0.00000E+00         0.00000E+00         0.10148E-06
 
   -0.26875E+07        -0.86292E+05         0.00000E+00
   -0.86292E+05        -0.61743E+08         0.00000E+00
    0.00000E+00         0.00000E+00        -0.40593E-07
 
   -0.29949E+07        -0.10414E+06         0.00000E+00
   -0.10414E+06        -0.61990E+08         0.00000E+00
    0.00000E+00         0.00000E+00        -0.20296E-07
 
   -0.32932E+07        -0.10549E+06         0.00000E+00
   -0.10549E+06        -0.62233E+08         0.00000E+00
    0.00000E+00         0.00000E+00         0.11163E-06
 
   -0.35605E+07        -0.51697E+05         0.00000E+00
   -0.51697E+05        -0.62417E+08         0.00000E+00
    0.00000E+00         0.00000E+00         0.10148E-07
 
    0.11060E+07        -0.13906E+05         0.00000E+00
   -0.13906E+05        -0.47646E+08         0.00000E+00
    0.00000E+00         0.00000E+00         0.10148E-07
 
    0.10282E+07        -0.25381E+05         0.00000E+00
   -0.25381E+05        -0.47701E+08         0.00000E+00
    0.00000E+00         0.00000E+00         0.20296E-07
 
    0.94176E+06        -0.22444E+05         0.00000E+00
   -0.22444E+05        -0.47770E+08         0.00000E+00
    0.00000E+00         0.00000E+00         0.00000E+00
 
    0.85565E+06        -0.16894E+05         0.00000E+00
   -0.16894E+05        -0.47838E+08         0.00000E+00
    0.00000E+00         0.00000E+00        -0.50741E-07
 
    0.77496E+06        -0.10817E+05         0.00000E+00
   -0.10817E+05        -0.47907E+08         0.00000E+00
    0.00000E+00         0.00000E+00        -0.20296E-07
 
    0.70108E+06        -0.45418E+04         0.00000E+00
   -0.45418E+04        -0.47976E+08         0.00000E+00
    0.00000E+00         0.00000E+00         0.20296E-07
 
    0.63454E+06         0.16375E+04         0.00000E+00
    0.16375E+04        -0.48045E+08         0.00000E+00
    0.00000E+00         0.00000E+00         0.30444E-07
 
    0.57534E+06         0.75820E+04         0.00000E+00
    0.75820E+04        -0.48114E+08         0.00000E+00
    0.00000E+00         0.00000E+00         0.00000E+00
 
    0.52324E+06         0.13197E+05         0.00000E+00
    0.13197E+05        -0.48184E+08         0.00000E+00
    0.00000E+00         0.00000E+00         0.10148E-06
 
    0.47781E+06         0.18429E+05         0.00000E+00
    0.18429E+05        -0.48254E+08         0.00000E+00
    0.00000E+00         0.00000E+00        -0.60889E-07
 
    0.43855E+06         0.23253E+05         0.00000E+00
    0.23253E+05        -0.48324E+08         0.00000E+00
    0.00000E+00         0.00000E+00        -0.30444E-07
 
    0.40491E+06         0.27667E+05         0.00000E+00
    0.27667E+05        -0.48395E+08         0.00000E+00
    0.00000E+00         0.00000E+00         0.00000E+00
 
    0.37634E+06         0.31686E+05         0.00000E+00
    0.31686E+05        -0.48467E+08         0.00000E+00
    0.00000E+00         0.00000E+00        -0.10148E-07
 
    0.35230E+06         0.35336E+05         0.00000E+00
    0.35336E+05        -0.48539E+08         0.00000E+00
    0.00000E+00         0.00000E+00        -0.10148E-07
 
    0.33226E+06         0.38649E+05         0.00000E+00
    0.38649E+05        -0.48613E+08         0.00000E+00
    0.00000E+00         0.00000E+00         0.60889E-07
 
    0.31575E+06         0.41661E+05         0.00000E+00
    0.41661E+05        -0.48687E+08         0.00000E+00
    0.00000E+00         0.00000E+00         0.60889E-07
 
    0.30234E+06         0.44407E+05         0.00000E+00
    0.44407E+05        -0.48761E+08         0.00000E+00
    0.00000E+00         0.00000E+00         0.20296E-07
 
    0.29163E+06         0.46923E+05         0.00000E+00
    0.46923E+05        -0.48837E+08         0.00000E+00
    0.00000E+00         0.00000E+00         0.00000E+00
 
    0.28329E+06         0.49241E+05         0.00000E+00
    0.49241E+05        -0.48914E+08         0.00000E+00
    0.00000E+00         0.00000E+00         0.81185E-07
 
    0.27699E+06         0.51392E+05         0.00000E+00
    0.51392E+05        -0.48992E+08         0.00000E+00
    0.00000E+00         0.00000E+00        -0.50741E-07
 
    0.27248E+06         0.53402E+05         0.00000E+00
    0.53402E+05        -0.49071E+08         0.00000E+00
    0.00000E+00         0.00000E+00        -0.20296E-07
 
    0.26950E+06         0.55296E+05         0.00000E+00
    0.55296E+05        -0.49152E+08         0.00000E+00
    0.00000E+00         0.00000E+00         0.20296E-07
 
    0.26786E+06         0.57095E+05         0.00000E+00
    0.57095E+05        -0.49233E+08         0.00000E+00
    0.00000E+00         0.00000E+00         0.71037E-07
 
    0.26737E+06         0.58816E+05         0.00000E+00
    0.58816E+05        -0.49316E+08         0.00000E+00
    0.00000E+00         0.00000E+00         0.20296E-07
 
    0.26788E+06         0.60474E+05         0.00000E+00
    0.60474E+05        -0.49401E+08         0.00000E+00
    0.00000E+00         0.00000E+00         0.40593E-07
 
    0.26924E+06         0.62085E+05         0.00000E+00
    0.62085E+05        -0.49487E+08         0.00000E+00
    0.00000E+00         0.00000E+00         0.00000E+00
 
    0.27133E+06         0.63658E+05         0.00000E+00
    0.63658E+05        -0.49574E+08         0.00000E+00
    0.00000E+00         0.00000E+00         0.30444E-07
 
    0.27404E+06         0.65203E+05         0.00000E+00
    0.65203E+05        -0.49663E+08         0.00000E+00
    0.00000E+00         0.00000E+00        -0.20296E-07
 
    0.27729E+06         0.66728E+05         0.00000E+00
    0.66728E+05        -0.49754E+08         0.00000E+00
    0.00000E+00         0.00000E+00         0.11163E-06
 
    0.28099E+06         0.68240E+05         0.00000E+00
    0.68240E+05        -0.49846E+08         0.00000E+00
    0.00000E+00         0.00000E+00         0.71037E-07
 
    0.28506E+06         0.69745E+05         0.00000E+00
    0.69745E+05        -0.49940E+08         0.00000E+00
    0.00000E+00         0.00000E+00         0.71037E-07
 
    0.28943E+06         0.71248E+05         0.00000E+00
    0.71248E+05        -0.50036E+08         0.00000E+00
    0.00000E+00         0.00000E+00        -0.30444E-07
 
    0.29406E+06         0.72751E+05         0.00000E+00
    0.72751E+05        -0.50134E+08         0.00000E+00
    0.00000E+00         0.00000E+00        -0.11163E-06
 
    0.29887E+06         0.74259E+05         0.00000E+00
    0.74259E+05        -0.50234E+08         0.00000E+00
    0.00000E+00         0.00000E+00         0.30444E-07
 
    0.30384E+06         0.75774E+05         0.00000E+00
    0.75774E+05        -0.50336E+08         0.00000E+00
    0.00000E+00         0.00000E+00        -0.50741E-07
 
    0.30890E+06         0.77297E+05         0.00000E+00
    0.77297E+05        -0.50440E+08         0.00000E+00
    0.00000E+00         0.00000E+00        -0.14207E-06
 
    0.31402E+06         0.78831E+05         0.00000E+00
    0.78831E+05        -0.50546E+08         0.00000E+00
    0.00000E+00         0.00000E+00        -0.71037E-07
 
    0.31915E+06         0.80377E+05         0.00000E+00
    0.80377E+05        -0.50655E+08         0.00000E+00
    0.00000E+00         0.00000E+00        -0.81185E-07
 
    0.32427E+06         0.81935E+05         0.00000E+00
    0.81935E+05        -0.50765E+08         0.00000E+00
    0.00000E+00         0.00000E+00        -0.50741E-07
 
    0.32934E+06         0.83505E+05         0.00000E+00
    0.83505E+05        -0.50878E+08         0.00000E+00
    0.00000E+00         0.00000E+00        -0.20296E-07
 
    0.33432E+06         0.85089E+05         0.00000E+00
    0.85089E+05        -0.50993E+08         0.00000E+00
    0.00000E+00         0.00000E+00        -0.60889E-07
 
    0.33918E+06         0.86685E+05         0.00000E+00
    0.86685E+05        -0.51111E+08         0.00000E+00
    0.00000E+00         0.00000E+00        -0.30444E-07
 
    0.34389E+06         0.88293E+05         0.00000E+00
    0.88293E+05        -0.51231E+08         0.00000E+00
    0.00000E+00         0.00000E+00        -0.10148E-07
 
    0.34842E+06         0.89912E+05         0.00000E+00
    0.89912E+05        -0.51354E+08         0.00000E+00
    0.00000E+00         0.00000E+00         0.60889E-07
 
    0.35273E+06         0.91542E+05         0.00000E+00
    0.91542E+05        -0.51479E+08         0.00000E+00
    0.00000E+00         0.00000E+00         0.40593E-07
 
    0.35681E+06         0.93181E+05         0.00000E+00
    0.93181E+05        -0.51606E+08         0.00000E+00
    0.00000E+00         0.00000E+00         0.40593E-07
 
    0.36061E+06         0.94828E+05         0.00000E+00
    0.94828E+05        -0.51737E+08         0.00000E+00
    0.00000E+00         0.00000E+00         0.60889E-07
 
    0.36410E+06         0.96481E+05         0.00000E+00
    0.96481E+05        -0.51870E+08         0.00000E+00
    0.00000E+00         0.00000E+00         0.00000E+00
 
    0.36725E+06         0.98139E+05         0.00000E+00
    0.98139E+05        -0.52005E+08         0.00000E+00
    0.00000E+00         0.00000E+00         0.40593E-07
 
    0.37003E+06         0.99798E+05         0.00000E+00
    0.99798E+05        -0.52144E+08         0.00000E+00
    0.00000E+00         0.00000E+00         0.20296E-07
 
    0.37241E+06         0.10146E+06         0.00000E+00
    0.10146E+06        -0.52285E+08         0.00000E+00
    0.00000E+00         0.00000E+00        -0.10148E-07
 
    0.37434E+06         0.10311E+06         0.00000E+00
    0.10311E+06        -0.52429E+08         0.00000E+00
    0.00000E+00         0.00000E+00        -0.81185E-07
 
    0.37580E+06         0.10476E+06         0.00000E+00
    0.10476E+06        -0.52576E+08         0.00000E+00
    0.00000E+00         0.00000E+00         0.00000E+00
 
    0.37673E+06         0.10641E+06         0.00000E+00
    0.10641E+06        -0.52726E+08         0.00000E+00
    0.00000E+00         0.00000E+00        -0.20296E-07
 
    0.37710E+06         0.10804E+06         0.00000E+00
    0.10804E+06        -0.52878E+08         0.00000E+00
    0.00000E+00         0.00000E+00         0.50741E-07
 
    0.37686E+06         0.10965E+06         0.00000E+00
    0.10965E+06        -0.53034E+08         0.00000E+00
    0.00000E+00         0.00000E+00        -0.30444E-07
 
    0.37597E+06         0.11124E+06         0.00000E+00
    0.11124E+06        -0.53193E+08         0.00000E+00
    0.00000E+00         0.00000E+00        -0.60889E-07
 
    0.37437E+06         0.11281E+06         0.00000E+00
    0.11281E+06        -0.53354E+08         0.00000E+00
    0.00000E+00         0.00000E+00         0.11163E-06
 
    0.37201E+06         0.11434E+06         0.00000E+00
    0.11434E+06        -0.53519E+08         0.00000E+00
    0.00000E+00         0.00000E+00        -0.71037E-07
 
    0.36883E+06         0.11584E+06         0.00000E+00
    0.11584E+06        -0.53686E+08         0.00000E+00
    0.00000E+00         0.00000E+00         0.40593E-07
 
    0.36476E+06         0.11730E+06         0.00000E+00
    0.11730E+06        -0.53857E+08         0.00000E+00
    0.00000E+00         0.00000E+00        -0.10148E-07
 
    0.35974E+06         0.11871E+06         0.00000E+00
    0.11871E+06        -0.54030E+08         0.00000E+00
    0.00000E+00         0.00000E+00        -0.50741E-07
 
    0.35368E+06         0.12007E+06         0.00000E+00
    0.12007E+06        -0.54207E+08         0.00000E+00
    0.00000E+00         0.00000E+00         0.10148E-07
 
    0.34650E+06         0.12136E+06         0.00000E+00
    0.12136E+06        -0.54387E+08         0.00000E+00
    0.00000E+00         0.00000E+00        -0.60889E-07
 
    0.33810E+06         0.12257E+06         0.00000E+00
    0.12257E+06        -0.54569E+08         0.00000E+00
    0.00000E+00         0.00000E+00         0.15222E-06
 
    0.32839E+06         0.12371E+06         0.00000E+00
    0.12371E+06        -0.54755E+08         0.00000E+00
    0.00000E+00         0.00000E+00        -0.60889E-07
 
    0.31725E+06         0.12474E+06         0.00000E+00
    0.12474E+06        -0.54943E+08         0.00000E+00
    0.00000E+00         0.00000E+00        -0.60889E-07
 
    0.30456E+06         0.12568E+06         0.00000E+00
    0.12568E+06        -0.55135E+08         0.00000E+00
    0.00000E+00         0.00000E+00         0.20296E-07
 
    0.29016E+06         0.12649E+06         0.00000E+00
    0.12649E+06        -0.55330E+08         0.00000E+00
    0.00000E+00         0.00000E+00         0.00000E+00
 
    0.27391E+06         0.12716E+06         0.00000E+00
    0.12716E+06        -0.55527E+08         0.00000E+00
    0.00000E+00         0.00000E+00        -0.40593E-07
 
    0.25562E+06         0.12768E+06         0.00000E+00
    0.12768E+06        -0.55728E+08         0.00000E+00
    0.00000E+00         0.00000E+00        -0.30444E-07
 
    0.23509E+06         0.12802E+06         0.00000E+00
    0.12802E+06        -0.55931E+08         0.00000E+00
    0.00000E+00         0.00000E+00         0.91332E-07
 
    0.21209E+06         0.12816E+06         0.00000E+00
    0.12816E+06        -0.56137E+08         0.00000E+00
    0.00000E+00         0.00000E+00        -0.20296E-07
 
    0.18637E+06         0.12807E+06         0.00000E+00
    0.12807E+06        -0.56346E+08         0.00000E+00
    0.00000E+00         0.00000E+00         0.40593E-07
 
    0.15762E+06         0.12772E+06         0.00000E+00
    0.12772E+06        -0.56558E+08         0.00000E+00
    0.00000E+00         0.00000E+00        -0.30444E-07
 
    0.12551E+06         0.12707E+06         0.00000E+00
    0.12707E+06        -0.56772E+08         0.00000E+00
    0.00000E+00         0.00000E+00         0.50741E-07
 
    0.89653E+05         0.12609E+06         0.00000E+00
    0.12609E+06        -0.56989E+08         0.00000E+00
    0.00000E+00         0.00000E+00        -0.20296E-07
 
    0.49603E+05         0.12472E+06         0.00000E+00
    0.12472E+06        -0.57208E+08         0.00000E+00
    0.00000E+00         0.00000E+00         0.12178E-06
 
    0.48528E+04         0.12291E+06         0.00000E+00
    0.12291E+06        -0.57430E+08         0.00000E+00
    0.00000E+00         0.00000E+00         0.91333E-07
 
   -0.45183E+05         0.12059E+06         0.00000E+00
    0.12059E+06        -0.57655E+08         0.00000E+00
    0.00000E+00         0.00000E+00         0.15222E-06
 
   -0.10117E+06         0.11768E+06         0.00000E+00
    0.11768E+06        -0.57882E+08         0.00000E+00
    0.00000E+00         0.00000E+00        -0.60889E-07
 
   -0.16389E+06         0.11411E+06         0.00000E+00
    0.11411E+06        -0.58111E+08         0.00000E+00
    0.00000E+00         0.00000E+00         0.30444E-07
 
   -0.23420E+06         0.10979E+06         0.00000E+00
    0.10979E+06        -0.58342E+08         0.00000E+00
    0.00000E+00         0.00000E+00        -0.10148E-07
 
   -0.31310E+06         0.10460E+06         0.00000E+00
    0.10460E+06        -0.58575E+08         0.00000E+00
    0.00000E+00         0.00000E+00         0.40593E-07
 
   -0.40172E+06         0.98439E+05         0.00000E+00
    0.98439E+05        -0.58810E+08         0.00000E+00
    0.00000E+00         0.00000E+00        -0.10148E-07
 
   -0.50132E+06         0.91188E+05         0.00000E+00
    0.91188E+05        -0.59047E+08         0.00000E+00
    0.00000E+00         0.00000E+00         0.71037E-07
 
   -0.61328E+06         0.82726E+05         0.00000E+00
    0.82726E+05        -0.59286E+08         0.00000E+00
    0.00000E+00         0.00000E+00         0.00000E+00
 
   -0.73914E+06         0.72937E+05         0.00000E+00
    0.72937E+05        -0.59527E+08         0.00000E+00
    0.00000E+00         0.00000E+00        -0.81185E-07
 
   -0.88053E+06         0.61721E+05         0.00000E+00
    0.61721E+05        -0.59769E+08         0.00000E+00
    0.00000E+00         0.00000E+00         0.81185E-07
 
   -0.10392E+07         0.49000E+05         0.00000E+00
    0.49000E+05        -0.60012E+08         0.00000E+00
    0.00000E+00         0.00000E+00        -0.50741E-07
 
   -0.12167E+07         0.34743E+05         0.00000E+00
    0.34743E+05        -0.60257E+08         0.00000E+00
    0.00000E+00         0.00000E+00        -0.91333E-07
 
   -0.14149E+07         0.18979E+05         0.00000E+00
    0.18979E+05        -0.60502E+08         0.00000E+00
    0.00000E+00         0.00000E+00         0.20296E-07
 
   -0.16352E+07         0.18207E+04         0.00000E+00
    0.18207E+04        -0.60749E+08         0.00000E+00
    0.00000E+00         0.00000E+00        -0.30444E-07
 
   -0.18787E+07        -0.16507E+05         0.00000E+00
   -0.16507E+05        -0.60996E+08         0.00000E+00
    0.00000E+00         0.00000E+00         0.10148E-07
 
   -0.21458E+07        -0.35630E+05         0.00000E+00
   -0.35630E+05        -0.61244E+08         0.00000E+00
    0.00000E+00         0.00000E+00        -0.11163E-06
 
   -0.24360E+07        -0.55007E+05         0.00000E+00
   -0.55007E+05        -0.61492E+08         0.00000E+00
    0.00000E+00         0.00000E+00        -0.40593E-07
 
   -0.27468E+07        -0.73541E+05         0.00000E+00
   -0.73541E+05        -0.61740E+08         0.00000E+00
    0.00000E+00         0.00000E+00        -0.16237E-06
 
   -0.30726E+07        -0.89996E+05         0.00000E+00
   -0.89996E+05        -0.61987E+08         0.00000E+00
    0.00000E+00         0.00000E+00         0.10148E-07
 
   -0.33943E+07        -0.96839E+05         0.00000E+00
   -0.96839E+05        -0.62236E+08         0.00000E+00
    0.00000E+00         0.00000E+00        -0.30444E-07
 
   -0.36793E+07        -0.51824E+05         0.00000E+00
   -0.51824E+05        -0.62435E+08         0.00000E+00
    0.00000E+00         0.00000E+00         0.15222E-06
 
    0.11425E+07        -0.13710E+05         0.00000E+00
   -0.13710E+05        -0.47641E+08         0.00000E+00
    0.00000E+00         0.00000E+00         0.00000E+00
 
    0.10575E+07        -0.21815E+05         0.00000E+00
   -0.21815E+05        -0.47701E+08         0.00000E+00
    0.00000E+00         0.00000E+00         0.71037E-07
 
    0.96340E+06        -0.17926E+05         0.00000E+00
   -0.17926E+05        -0.47771E+08         0.00000E+00
    0.00000E+00         0.00000E+00        -0.50741E-07
 
    0.87211E+06        -0.13441E+05         0.00000E+00
   -0.13441E+05        -0.47839E+08         0.00000E+00
    0.00000E+00         0.00000E+00         0.60889E-07
 
    0.78766E+06        -0.87321E+04         0.00000E+00
   -0.87321E+04        -0.47908E+08         0.00000E+00
    0.00000E+00         0.00000E+00         0.91333E-07
 
    0.71092E+06        -0.40010E+04         0.00000E+00
   -0.40010E+04        -0.47977E+08         0.00000E+00
    0.00000E+00         0.00000E+00        -0.30444E-07
 
    0.64219E+06         0.59632E+03         0.00000E+00
    0.59632E+03        -0.48046E+08         0.00000E+00
    0.00000E+00         0.00000E+00        -0.20296E-07
 
    0.58131E+06         0.49850E+04         0.00000E+00
    0.49850E+04        -0.48115E+08         0.00000E+00
    0.00000E+00         0.00000E+00         0.12178E-06
 
    0.52793E+06         0.91080E+04         0.00000E+00
    0.91080E+04        -0.48184E+08         0.00000E+00
    0.00000E+00         0.00000E+00         0.10148E-07
 
    0.48155E+06         0.12934E+05         0.00000E+00
    0.12934E+05        -0.48254E+08         0.00000E+00
    0.00000E+00         0.00000E+00        -0.30444E-07
 
    0.44160E+06         0.16450E+05         0.00000E+00
    0.16450E+05        -0.48325E+08         0.00000E+00
    0.00000E+00         0.00000E+00         0.00000E+00
 
    0.40747E+06         0.19659E+05         0.00000E+00
    0.19659E+05        -0.48396E+08         0.00000E+00
    0.00000E+00         0.00000E+00         0.10148E-07
 
    0.37857E+06         0.22572E+05         0.00000E+00
    0.22572E+05        -0.48468E+08         0.00000E+00
    0.00000E+00         0.00000E+00         0.20296E-07
 
    0.35432E+06         0.25212E+05         0.00000E+00
    0.25212E+05        -0.48540E+08         0.00000E+00
    0.00000E+00         0.00000E+00         0.00000E+00
 
    0.33418E+06         0.27603E+05         0.00000E+00
    0.27603E+05        -0.48613E+08         0.00000E+00
    0.00000E+00         0.00000E+00        -0.10148E-07
 
    0.31764E+06         0.29772E+05         0.00000E+00
    0.29772E+05        -0.48687E+08         0.00000E+00
    0.00000E+00         0.00000E+00         0.50741E-07
 
    0.30426E+06         0.31747E+05         0.00000E+00
    0.31747E+05        -0.48762E+08         0.00000E+00
    0.00000E+00         0.00000E+00         0.71037E-07
 
    0.29363E+06         0.33553E+05         0.00000E+00
    0.33553E+05        -0.48838E+08         0.00000E+00
    0.00000E+00         0.00000E+00        -0.30444E-07
 
    0.28538E+06         0.35215E+05         0.00000E+00
    0.35215E+05        -0.48915E+08         0.00000E+00
    0.00000E+00         0.00000E+00         0.10148E-07
 
    0.27921E+06         0.36755E+05         0.00000E+00
    0.36755E+05        -0.48992E+08         0.00000E+00
    0.00000E+00         0.00000E+00        -0.71037E-07
 
    0.27483E+06         0.38194E+05         0.00000E+00
    0.38194E+05        -0.49072E+08         0.00000E+00
    0.00000E+00         0.00000E+00         0.40593E-07
 
    0.27200E+06         0.39548E+05         0.00000E+00
    0.39548E+05        -0.49152E+08         0.00000E+00
    0.00000E+00         0.00000E+00         0.50741E-07
 
    0.27051E+06         0.40833E+05         0.00000E+00
    0.40833E+05        -0.49234E+08         0.00000E+00
    0.00000E+00         0.00000E+00         0.40593E-07
 
    0.27017E+06         0.42061E+05         0.00000E+00
    0.42061E+05        -0.49317E+08         0.00000E+00
    0.00000E+00         0.00000E+00         0.00000E+00
 
    0.27083E+06         0.43246E+05         0.00000E+00
    0.43246E+05        -0.49401E+08         0.00000E+00
    0.00000E+00         0.00000E+00        -0.20296E-07
 
    0.27234E+06         0.44395E+05         0.00000E+00
    0.44395E+05        -0.49487E+08         0.00000E+00
    0.00000E+00         0.00000E+00        -0.40593E-07
 
    0.27458E+06         0.45517E+05         0.00000E+00
    0.45517E+05        -0.49574E+08         0.00000E+00
    0.00000E+00         0.00000E+00        -0.50741E-07
 
    0.27744E+06         0.46620E+05         0.00000E+00
    0.46620E+05        -0.49663E+08         0.00000E+00
    0.00000E+00         0.00000E+00        -0.20296E-07
 
    0.28083E+06         0.47708E+05         0.00000E+00
    0.47708E+05        -0.49754E+08         0.00000E+00
    0.00000E+00         0.00000E+00         0.60889E-07
 
    0.28467E+06         0.48787E+05         0.00000E+00
    0.48787E+05        -0.49846E+08         0.00000E+00
    0.00000E+00         0.00000E+00         0.50741E-07
 
    0.28888E+06         0.49861E+05         0.00000E+00
    0.49861E+05        -0.49941E+08         0.00000E+00
    0.00000E+00         0.00000E+00        -0.71037E-07
 
    0.29339E+06         0.50933E+05         0.00000E+00
    0.50933E+05        -0.50037E+08         0.00000E+00
    0.00000E+00         0.00000E+00         0.71037E-07
 
    0.29815E+06         0.52006E+05         0.00000E+00
    0.52006E+05        -0.50135E+08         0.00000E+00
    0.00000E+00         0.00000E+00         0.20296E-07
 
    0.30310E+06         0.53082E+05         0.00000E+00
    0.53082E+05        -0.50234E+08         0.00000E+00
    0.00000E+00         0.00000E+00         0.60889E-07
 
    0.30819E+06         0.54163E+05         0.00000E+00
    0.54163E+05        -0.50336E+08         0.00000E+00
    0.00000E+00         0.00000E+00        -0.10148E-07
 
    0.31338E+06         0.55251E+05         0.00000E+00
    0.55251E+05        -0.50440E+08         0.00000E+00
    0.00000E+00         0.00000E+00         0.20296E-07
 
    0.31862E+06         0.56346E+05         0.00000E+00
    0.56346E+05        -0.50547E+08         0.00000E+00
    0.00000E+00         0.00000E+00         0.10148E-07
 
    0.32388E+06         0.57449E+05         0.00000E+00
    0.57449E+05        -0.50655E+08         0.00000E+00
    0.00000E+00         0.00000E+00        -0.30444E-07
 
    0.32911E+06         0.58561E+05         0.00000E+00
    0.58561E+05        -0.50765E+08         0.00000E+00
    0.00000E+00         0.00000E+00        -0.30444E-07
 
    0.33429E+06         0.59681E+05         0.00000E+00
    0.59681E+05        -0.50878E+08         0.00000E+00
    0.00000E+00         0.00000E+00         0.30444E-07
 
    0.33938E+06         0.60812E+05         0.00000E+00
    0.60812E+05        -0.50994E+08         0.00000E+00
    0.00000E+00         0.00000E+00         0.91333E-07
 
    0.34435E+06         0.61951E+05         0.00000E+00
    0.61951E+05        -0.51111E+08         0.00000E+00
    0.00000E+00         0.00000E+00        -0.40593E-07
 
    0.34917E+06         0.63098E+05         0.00000E+00
    0.63098E+05        -0.51231E+08         0.00000E+00
    0.00000E+00         0.00000E+00        -0.20296E-07
 
    0.35380E+06         0.64254E+05         0.00000E+00
    0.64254E+05        -0.51354E+08         0.00000E+00
    0.00000E+00         0.00000E+00         0.50741E-07
 
    0.35822E+06         0.65417E+05         0.00000E+00
    0.65417E+05        -0.51479E+08         0.00000E+00
    0.00000E+00         0.00000E+00         0.20296E-07
 
    0.36238E+06         0.66587E+05         0.00000E+00
    0.66587E+05        -0.51607E+08         0.00000E+00
    0.00000E+00         0.00000E+00         0.30444E-07
 
    0.36627E+06         0.67762E+05         0.00000E+00
    0.67762E+05        -0.51737E+08         0.00000E+00
    0.00000E+00         0.00000E+00        -0.10148E-07
 
    0.36985E+06         0.68942E+05         0.00000E+00
    0.68942E+05        -0.51870E+08         0.00000E+00
    0.00000E+00         0.00000E+00         0.60889E-07
 
    0.37309E+06         0.70125E+05         0.00000E+00
    0.70125E+05        -0.52006E+08         0.00000E+00
    0.00000E+00         0.00000E+00        -0.40593E-07
 
    0.37596E+06         0.71309E+05         0.00000E+00
    0.71309E+05        -0.52144E+08         0.00000E+00
    0.00000E+00         0.00000E+00         0.00000E+00
 
    0.37841E+06         0.72493E+05         0.00000E+00
    0.72493E+05        -0.52285E+08         0.00000E+00
    0.00000E+00         0.00000E+00        -0.30444E-07
 
    0.38041E+06         0.73675E+05         0.00000E+00
    0.73675E+05        -0.52429E+08         0.00000E+00
    0.00000E+00         0.00000E+00        -0.40593E-07
 
    0.38193E+06         0.74853E+05         0.00000E+00
    0.74853E+05        -0.52576E+08         0.00000E+00
    0.00000E+00         0.00000E+00         0.00000E+00
 
    0.38293E+06         0.76024E+05         0.00000E+00
    0.76024E+05        -0.52726E+08         0.00000E+00
    0.00000E+00         0.00000E+00        -0.11163E-06
 
    0.38336E+06         0.77186E+05         0.00000E+00
    0.77186E+05        -0.52879E+08         0.00000E+00
    0.00000E+00         0.00000E+00         0.00000E+00
 
    0.38317E+06         0.78336E+05         0.00000E+00
    0.78336E+05        -0.53034E+08         0.00000E+00
    0.00000E+00         0.00000E+00         0.00000E+00
 
    0.38233E+06         0.79472E+05         0.00000E+00
    0.79472E+05        -0.53193E+08         0.00000E+00
    0.00000E+00         0.00000E+00        -0.50741E-07
 
    0.38077E+06         0.80590E+05         0.00000E+00
    0.80590E+05        -0.53354E+08         0.00000E+00
    0.00000E+00         0.00000E+00         0.20296E-07
 
    0.37844E+06         0.81686E+05         0.00000E+00
    0.81686E+05        -0.53519E+08         0.00000E+00
    0.00000E+00         0.00000E+00        -0.91333E-07
 
    0.37529E+06         0.82756E+05         0.00000E+00
    0.82756E+05        -0.53686E+08         0.00000E+00
    0.00000E+00         0.00000E+00         0.10148E-07
 
    0.37125E+06         0.83796E+05         0.00000E+00
    0.83796E+05        -0.53857E+08         0.00000E+00
    0.00000E+00         0.00000E+00         0.11163E-06
 
    0.36624E+06         0.84802E+05         0.00000E+00
    0.84802E+05        -0.54031E+08         0.00000E+00
    0.00000E+00         0.00000E+00        -0.50741E-07
 
    0.36019E+06         0.85767E+05         0.00000E+00
    0.85767E+05        -0.54207E+08         0.00000E+00
    0.00000E+00         0.00000E+00        -0.91333E-07
 
    0.35302E+06         0.86687E+05         0.00000E+00
    0.86687E+05        -0.54387E+08         0.00000E+00
    0.00000E+00         0.00000E+00        -0.71037E-07
 
    0.34462E+06         0.87554E+05         0.00000E+00
    0.87554E+05        -0.54569E+08         0.00000E+00
    0.00000E+00         0.00000E+00        -0.60889E-07
 
    0.33491E+06         0.88363E+05         0.00000E+00
    0.88363E+05        -0.54755E+08         0.00000E+00
    0.00000E+00         0.00000E+00        -0.14207E-06
 
    0.32376E+06         0.89103E+05         0.00000E+00
    0.89103E+05        -0.54944E+08         0.00000E+00
    0.00000E+00         0.00000E+00         0.00000E+00
 
    0.31105E+06         0.89768E+05         0.00000E+00
    0.89768E+05        -0.55135E+08         0.00000E+00
    0.00000E+00         0.00000E+00        -0.20296E-07
 
    0.29663E+06         0.90345E+05         0.00000E+00
    0.90345E+05        -0.55330E+08         0.00000E+00
    0.00000E+00         0.00000E+00        -0.13193E-06
 
    0.28035E+06         0.90825E+05         0.00000E+00
    0.90825E+05        -0.55527E+08         0.00000E+00
    0.00000E+00         0.00000E+00         0.16237E-06
 
    0.26203E+06         0.91194E+05         0.00000E+00
    0.91194E+05        -0.55728E+08         0.00000E+00
    0.00000E+00         0.00000E+00        -0.40593E-07
 
    0.24146E+06         0.91436E+05         0.00000E+00
    0.91436E+05        -0.55931E+08         0.00000E+00
    0.00000E+00         0.00000E+00         0.30444E-07
 
    0.21842E+06         0.91535E+05         0.00000E+00
    0.91535E+05        -0.56137E+08         0.00000E+00
    0.00000E+00         0.00000E+00        -0.20296E-07
 
    0.19264E+06         0.91471E+05         0.00000E+00
    0.91471E+05        -0.56346E+08         0.00000E+00
    0.00000E+00         0.00000E+00        -0.40593E-07
 
    0.16383E+06         0.91221E+05         0.00000E+00
    0.91221E+05        -0.56558E+08         0.00000E+00
    0.00000E+00         0.00000E+00         0.91333E-07
 
    0.13165E+06         0.90759E+05         0.00000E+00
    0.90759E+05        -0.56772E+08         0.00000E+00
    0.00000E+00         0.00000E+00        -0.20296E-07
 
    0.95714E+05         0.90055E+05         0.00000E+00
    0.90055E+05        -0.56989E+08         0.00000E+00
    0.00000E+00         0.00000E+00        -0.12178E-06
 
    0.55563E+05         0.89072E+05         0.00000E+00
    0.89072E+05        -0.57208E+08         0.00000E+00
    0.00000E+00         0.00000E+00        -0.30444E-07
 
    0.10685E+05         0.87770E+05         0.00000E+00
    0.87770E+05        -0.57430E+08         0.00000E+00
    0.00000E+00         0.00000E+00         0.40593E-07
 
   -0.39513E+05         0.86102E+05         0.00000E+00
    0.86102E+05        -0.57654E+08         0.00000E+00
    0.00000E+00         0.00000E+00         0.10148E-07
 
   -0.95715E+05         0.84015E+05         0.00000E+00
    0.84015E+05        -0.57881E+08         0.00000E+00
    0.00000E+00         0.00000E+00         0.20296E-07
 
   -0.15871E+06         0.81447E+05         0.00000E+00
    0.81447E+05        -0.58110E+08         0.00000E+00
    0.00000E+00         0.00000E+00         0.20296E-07
 
   -0.22939E+06         0.78329E+05         0.00000E+00
    0.78329E+05        -0.58341E+08         0.00000E+00
    0.00000E+00         0.00000E+00        -0.30444E-07
 
   -0.30878E+06         0.74585E+05         0.00000E+00
    0.74585E+05        -0.58574E+08         0.00000E+00
    0.00000E+00         0.00000E+00         0.40593E-07
 
   -0.39806E+06         0.70132E+05         0.00000E+00
    0.70132E+05        -0.58809E+08         0.00000E+00
    0.00000E+00         0.00000E+00        -0.40593E-07
 
   -0.49853E+06         0.64882E+05         0.00000E+00
    0.64882E+05        -0.59046E+08         0.00000E+00
    0.00000E+00         0.00000E+00         0.50741E-07
 
   -0.61165E+06         0.58745E+05         0.00000E+00
    0.58745E+05        -0.59285E+08         0.00000E+00
    0.00000E+00         0.00000E+00         0.30444E-07
 
   -0.73904E+06         0.51631E+05         0.00000E+00
    0.51631E+05        -0.59525E+08         0.00000E+00
    0.00000E+00         0.00000E+00        -0.15222E-06
 
   -0.88242E+06         0.43462E+05         0.00000E+00
    0.43462E+05        -0.59767E+08         0.00000E+00
    0.00000E+00         0.00000E+00         0.10148E-07
 
   -0.10436E+07         0.34174E+05         0.00000E+00
    0.34174E+05        -0.60010E+08         0.00000E+00
    0.00000E+00         0.00000E+00        -0.20296E-07
 
   -0.12245E+07         0.23736E+05         0.00000E+00
    0.23736E+05        -0.60254E+08         0.00000E+00
    0.00000E+00         0.00000E+00         0.20296E-07
 
   -0.14270E+07         0.12155E+05         0.00000E+00
    0.12155E+05        -0.60500E+08         0.00000E+00
    0.00000E+00         0.00000E+00         0.50741E-07
 
   -0.16527E+07        -0.50146E+03         0.00000E+00
   -0.50146E+03        -0.60746E+08         0.00000E+00
    0.00000E+00         0.00000E+00         0.50741E-07
 
   -0.19030E+07        -0.14100E+05         0.00000E+00
   -0.14100E+05        -0.60993E+08         0.00000E+00
    0.00000E+00         0.00000E+00        -0.91333E-07
 
   -0.21787E+07        -0.28409E+05         0.00000E+00
   -0.28409E+05        -0.61240E+08         0.00000E+00
    0.00000E+00         0.00000E+00        -0.13193E-06
 
   -0.24799E+07        -0.43129E+05         0.00000E+00
   -0.43129E+05        -0.61488E+08         0.00000E+00
    0.00000E+00         0.00000E+00        -0.20296E-07
 
   -0.28049E+07        -0.57664E+05         0.00000E+00
   -0.57664E+05        -0.61737E+08         0.00000E+00
    0.00000E+00         0.00000E+00         0.71037E-07
 
   -0.31498E+07        -0.71252E+05         0.00000E+00
   -0.71252E+05        -0.61984E+08         0.00000E+00
    0.00000E+00         0.00000E+00        -0.60889E-07
 
   -0.34996E+07        -0.82495E+05         0.00000E+00
   -0.82495E+05        -0.62236E+08         0.00000E+00
    0.00000E+00         0.00000E+00         0.81185E-07
 
   -0.38105E+07        -0.50582E+05         0.00000E+00
   -0.50582E+05        -0.62453E+08         0.00000E+00
    0.00000E+00         0.00000E+00         0.20296E-07
 
    0.11835E+07        -0.12872E+05         0.00000E+00
   -0.12872E+05        -0.47637E+08         0.00000E+00
    0.00000E+00         0.00000E+00         0.00000E+00
 
    0.10875E+07        -0.16063E+05         0.00000E+00
   -0.16063E+05        -0.47702E+08         0.00000E+00
    0.00000E+00         0.00000E+00         0.30444E-07
 
    0.98460E+06        -0.12128E+05         0.00000E+00
   -0.12128E+05        -0.47772E+08         0.00000E+00
    0.00000E+00         0.00000E+00         0.71037E-07
 
    0.88804E+06        -0.91216E+04         0.00000E+00
   -0.91216E+04        -0.47840E+08         0.00000E+00
    0.00000E+00         0.00000E+00        -0.20296E-07
 
    0.79972E+06        -0.59833E+04         0.00000E+00
   -0.59833E+04        -0.47909E+08         0.00000E+00
    0.00000E+00         0.00000E+00        -0.40593E-07
 
    0.72011E+06        -0.29641E+04         0.00000E+00
   -0.29641E+04        -0.47977E+08         0.00000E+00
    0.00000E+00         0.00000E+00         0.20296E-07
 
    0.64920E+06        -0.63325E+02         0.00000E+00
   -0.63325E+02        -0.48046E+08         0.00000E+00
    0.00000E+00         0.00000E+00        -0.20296E-07
 
    0.58667E+06         0.26770E+04         0.00000E+00
    0.26770E+04        -0.48116E+08         0.00000E+00
    0.00000E+00         0.00000E+00        -0.10148E-07
 
    0.53205E+06         0.52357E+04         0.00000E+00
    0.52357E+04        -0.48185E+08         0.00000E+00
    0.00000E+00         0.00000E+00        -0.20296E-07
 
    0.48476E+06         0.75981E+04         0.00000E+00
    0.75981E+04        -0.48255E+08         0.00000E+00
    0.00000E+00         0.00000E+00         0.50741E-07
 
    0.44415E+06         0.97604E+04         0.00000E+00
    0.97604E+04        -0.48325E+08         0.00000E+00
    0.00000E+00         0.00000E+00        -0.71037E-07
 
    0.40958E+06         0.11726E+05         0.00000E+00
    0.11726E+05        -0.48396E+08         0.00000E+00
    0.00000E+00         0.00000E+00        -0.30444E-07
 
    0.38040E+06         0.13506E+05         0.00000E+00
    0.13506E+05        -0.48468E+08         0.00000E+00
    0.00000E+00         0.00000E+00         0.00000E+00
 
    0.35599E+06         0.15114E+05         0.00000E+00
    0.15114E+05        -0.48540E+08         0.00000E+00
    0.00000E+00         0.00000E+00         0.30444E-07
 
    0.33578E+06         0.16566E+05         0.00000E+00
    0.16566E+05        -0.48613E+08         0.00000E+00
    0.00000E+00         0.00000E+00        -0.40593E-07
 
    0.31925E+06         0.17880E+05         0.00000E+00
    0.17880E+05        -0.48687E+08         0.00000E+00
    0.00000E+00         0.00000E+00        -0.10148E-07
 
    0.30593E+06         0.19074E+05         0.00000E+00
    0.19074E+05        -0.48762E+08         0.00000E+00
    0.00000E+00         0.00000E+00         0.71037E-07
 
    0.29539E+06         0.20164E+05         0.00000E+00
    0.20164E+05        -0.48838E+08         0.00000E+00
    0.00000E+00         0.00000E+00         0.81185E-07
 
    0.28727E+06         0.21165E+05         0.00000E+00
    0.21165E+05        -0.48915E+08         0.00000E+00
    0.00000E+00         0.00000E+00         0.50740E-07
 
    0.28124E+06         0.22092E+05         0.00000E+00
    0.22092E+05        -0.48993E+08         0.00000E+00
    0.00000E+00         0.00000E+00         0.60889E-07
 
    0.27701E+06         0.22956E+05         0.00000E+00
    0.22956E+05        -0.49072E+08         0.00000E+00
    0.00000E+00         0.00000E+00        -0.20296E-07
 
    0.27434E+06         0.23769E+05         0.00000E+00
    0.23769E+05        -0.49152E+08         0.00000E+00
    0.00000E+00         0.00000E+00         0.10148E-07
 
    0.27301E+06         0.24539E+05         0.00000E+00
    0.24539E+05        -0.49234E+08         0.00000E+00
    0.00000E+00         0.00000E+00        -0.91333E-07
 
    0.27283E+06         0.25276E+05         0.00000E+00
    0.25276E+05        -0.49317E+08         0.00000E+00
    0.00000E+00         0.00000E+00         0.00000E+00
 
    0.27365E+06         0.25986E+05         0.00000E+00
    0.25986E+05        -0.49401E+08         0.00000E+00
    0.00000E+00         0.00000E+00         0.00000E+00
 
    0.27532E+06         0.26674E+05         0.00000E+00
    0.26674E+05        -0.49487E+08         0.00000E+00
    0.00000E+00         0.00000E+00         0.00000E+00
 
    0.27771E+06         0.27347E+05         0.00000E+00
    0.27347E+05        -0.49574E+08         0.00000E+00
    0.00000E+00         0.00000E+00         0.60889E-07
 
    0.28073E+06         0.28007E+05         0.00000E+00
    0.28007E+05        -0.49663E+08         0.00000E+00
    0.00000E+00         0.00000E+00        -0.40592E-07
 
    0.28427E+06         0.28660E+05         0.00000E+00
    0.28660E+05        -0.49754E+08         0.00000E+00
    0.00000E+00         0.00000E+00         0.20296E-07
 
    0.28825E+06         0.29306E+05         0.00000E+00
    0.29306E+05        -0.49847E+08         0.00000E+00
    0.00000E+00         0.00000E+00        -0.14207E-06
 
    0.29260E+06         0.29949E+05         0.00000E+00
    0.29949E+05        -0.49941E+08         0.00000E+00
    0.00000E+00         0.00000E+00        -0.10148E-07
 
    0.29726E+06         0.30592E+05         0.00000E+00
    0.30592E+05        -0.50037E+08         0.00000E+00
    0.00000E+00         0.00000E+00        -0.81185E-07
 
    0.30215E+06         0.31235E+05         0.00000E+00
    0.31235E+05        -0.50135E+08         0.00000E+00
    0.00000E+00         0.00000E+00        -0.20296E-07
 
    0.30723E+06         0.31880E+05         0.00000E+00
    0.31880E+05        -0.50235E+08         0.00000E+00
    0.00000E+00         0.00000E+00        -0.40593E-07
 
    0.31245E+06         0.32527E+05         0.00000E+00
    0.32527E+05        -0.50337E+08         0.00000E+00
    0.00000E+00         0.00000E+00        -0.81185E-07
 
    0.31777E+06         0.33179E+05         0.00000E+00
    0.33179E+05        -0.50441E+08         0.00000E+00
    0.00000E+00         0.00000E+00         0.10148E-07
 
    0.32313E+06         0.33835E+05         0.00000E+00
    0.33835E+05        -0.50547E+08         0.00000E+00
    0.00000E+00         0.00000E+00         0.10148E-07
 
    0.32851E+06         0.34497E+05         0.00000E+00
    0.34497E+05        -0.50655E+08         0.00000E+00
    0.00000E+00         0.00000E+00        -0.10148E-07
 
    0.33386E+06         0.35163E+05         0.00000E+00
    0.35163E+05        -0.50766E+08         0.00000E+00
    0.00000E+00         0.00000E+00        -0.81185E-07
 
    0.33916E+06         0.35835E+05         0.00000E+00
    0.35835E+05        -0.50879E+08         0.00000E+00
    0.00000E+00         0.00000E+00         0.16237E-06
 
    0.34436E+06         0.36512E+05         0.00000E+00
    0.36512E+05        -0.50994E+08         0.00000E+00
    0.00000E+00         0.00000E+00         0.10148E-07
 
    0.34944E+06         0.37195E+05         0.00000E+00
    0.37195E+05        -0.51111E+08         0.00000E+00
    0.00000E+00         0.00000E+00         0.10148E-07
 
    0.35436E+06         0.37883E+05         0.00000E+00
    0.37883E+05        -0.51231E+08         0.00000E+00
    0.00000E+00         0.00000E+00        -0.30444E-07
 
    0.35910E+06         0.38576E+05         0.00000E+00
    0.38576E+05        -0.51354E+08         0.00000E+00
    0.00000E+00         0.00000E+00        -0.40593E-07
 
    0.36361E+06         0.39273E+05         0.00000E+00
    0.39273E+05        -0.51479E+08         0.00000E+00
    0.00000E+00         0.00000E+00        -0.40593E-07
 
    0.36788E+06         0.39974E+05         0.00000E+00
    0.39974E+05        -0.51607E+08         0.00000E+00
    0.00000E+00         0.00000E+00        -0.30444E-07
 
    0.37186E+06         0.40678E+05         0.00000E+00
    0.40678E+05        -0.51737E+08         0.00000E+00
    0.00000E+00         0.00000E+00        -0.91333E-07
 
    0.37553E+06         0.41385E+05         0.00000E+00
    0.41385E+05        -0.51870E+08         0.00000E+00
    0.00000E+00         0.00000E+00        -0.30444E-07
 
    0.37885E+06         0.42094E+05         0.00000E+00
    0.42094E+05        -0.52006E+08         0.00000E+00
    0.00000E+00         0.00000E+00        -0.50741E-07
 
    0.38180E+06         0.42804E+05         0.00000E+00
    0.42804E+05        -0.52144E+08         0.00000E+00
    0.00000E+00         0.00000E+00         0.20296E-07
 
    0.38433E+06         0.43513E+05         0.00000E+00
    0.43513E+05        -0.52285E+08         0.00000E+00
    0.00000E+00         0.00000E+00         0.20296E-07
 
    0.38641E+06         0.44222E+05         0.00000E+00
    0.44222E+05        -0.52429E+08         0.00000E+00
    0.00000E+00         0.00000E+00        -0.71037E-07
 
    0.38800E+06         0.44927E+05         0.00000E+00
    0.44927E+05        -0.52576E+08         0.00000E+00
    0.00000E+00         0.00000E+00        -0.20296E-07
 
    0.38906E+06         0.45629E+05         0.00000E+00
    0.45629E+05        -0.52726E+08         0.00000E+00
    0.00000E+00         0.00000E+00         0.81185E-07
 
    0.38954E+06         0.46325E+05         0.00000E+00
    0.46325E+05        -0.52879E+08         0.00000E+00
    0.00000E+00         0.00000E+00         0.71037E-07
 
    0.38941E+06         0.47015E+05         0.00000E+00
    0.47015E+05        -0.53034E+08         0.00000E+00
    0.00000E+00         0.00000E+00         0.10148E-07
 
    0.38862E+06         0.47695E+05         0.00000E+00
    0.47695E+05        -0.53193E+08         0.00000E+00
    0.00000E+00         0.00000E+00         0.30444E-07
 
    0.38711E+06         0.48364E+05         0.00000E+00
    0.48364E+05        -0.53354E+08         0.00000E+00
    0.00000E+00         0.00000E+00         0.00000E+00
 
    0.38482E+06         0.49021E+05         0.00000E+00
    0.49021E+05        -0.53519E+08         0.00000E+00
    0.00000E+00         0.00000E+00         0.60889E-07
 
    0.38170E+06         0.49662E+05         0.00000E+00
    0.49662E+05        -0.53687E+08         0.00000E+00
    0.00000E+00         0.00000E+00        -0.21311E-06
 
    0.37769E+06         0.50285E+05         0.00000E+00
    0.50285E+05        -0.53857E+08         0.00000E+00
    0.00000E+00         0.00000E+00        -0.91333E-07
 
    0.37270E+06         0.50887E+05         0.00000E+00
    0.50887E+05        -0.54031E+08         0.00000E+00
    0.00000E+00         0.00000E+00        -0.10148E-07
 
    0.36667E+06         0.51466E+05         0.00000E+00
    0.51466E+05        -0.54207E+08         0.00000E+00
    0.00000E+00         0.00000E+00         0.00000E+00
 
    0.35951E+06         0.52017E+05         0.00000E+00
    0.52017E+05        -0.54387E+08         0.00000E+00
    0.00000E+00         0.00000E+00         0.00000E+00
 
    0.35113E+06         0.52536E+05         0.00000E+00
    0.52536E+05        -0.54570E+08         0.00000E+00
    0.00000E+00         0.00000E+00        -0.50741E-07
 
    0.34142E+06         0.53021E+05         0.00000E+00
    0.53021E+05        -0.54755E+08         0.00000E+00
    0.00000E+00         0.00000E+00         0.40593E-07
 
    0.33027E+06         0.53464E+05         0.00000E+00
    0.53464E+05        -0.54944E+08         0.00000E+00
    0.00000E+00         0.00000E+00        -0.30444E-07
 
    0.31755E+06         0.53862E+05         0.00000E+00
    0.53862E+05        -0.55135E+08         0.00000E+00
    0.00000E+00         0.00000E+00         0.30444E-07
 
    0.30313E+06         0.54209E+05         0.00000E+00
    0.54209E+05        -0.55330E+08         0.00000E+00
    0.00000E+00         0.00000E+00         0.50741E-07
 
    0.28683E+06         0.54496E+05         0.00000E+00
    0.54496E+05        -0.55527E+08         0.00000E+00
    0.00000E+00         0.00000E+00         0.20296E-07
 
    0.26850E+06         0.54717E+05         0.00000E+00
    0.54717E+05        -0.55728E+08         0.00000E+00
    0.00000E+00         0.00000E+00         0.20296E-07
 
    0.24791E+06         0.54862E+05         0.00000E+00
    0.54862E+05        -0.55931E+08         0.00000E+00
    0.00000E+00         0.00000E+00        -0.30444E-07
 
    0.22485E+06         0.54922E+05         0.00000E+00
    0.54922E+05        -0.56137E+08         0.00000E+00
    0.00000E+00         0.00000E+00         0.11163E-06
 
    0.19905E+06         0.54884E+05         0.00000E+00
    0.54884E+05        -0.56346E+08         0.00000E+00
    0.00000E+00         0.00000E+00        -0.81185E-07
 
    0.17021E+06         0.54734E+05         0.00000E+00
    0.54734E+05        -0.56557E+08         0.00000E+00
    0.00000E+00         0.00000E+00         0.30444E-07
 
    0.13799E+06         0.54456E+05         0.00000E+00
    0.54456E+05        -0.56772E+08         0.00000E+00
    0.00000E+00         0.00000E+00         0.71037E-07
 
    0.10201E+06         0.54032E+05         0.00000E+00
    0.54032E+05        -0.56989E+08         0.00000E+00
    0.00000E+00         0.00000E+00         0.40593E-07
 
    0.61800E+05         0.53440E+05         0.00000E+00
    0.53440E+05        -0.57208E+08         0.00000E+00
    0.00000E+00         0.00000E+00         0.30444E-07
 
    0.16846E+05         0.52656E+05         0.00000E+00
    0.52656E+05        -0.57430E+08         0.00000E+00
    0.00000E+00         0.00000E+00        -0.20296E-07
 
   -0.33456E+05         0.51650E+05         0.00000E+00
    0.51650E+05        -0.57654E+08         0.00000E+00
    0.00000E+00         0.00000E+00        -0.91333E-07
 
   -0.89803E+05         0.50389E+05         0.00000E+00
    0.50389E+05        -0.57881E+08         0.00000E+00
    0.00000E+00         0.00000E+00         0.15222E-06
 
   -0.15300E+06         0.48835E+05         0.00000E+00
    0.48835E+05        -0.58110E+08         0.00000E+00
    0.00000E+00         0.00000E+00         0.11163E-06
 
   -0.22396E+06         0.46946E+05         0.00000E+00
    0.46946E+05        -0.58340E+08         0.00000E+00
    0.00000E+00         0.00000E+00        -0.40593E-07
 
   -0.30375E+06         0.44673E+05         0.00000E+00
    0.44673E+05        -0.58573E+08         0.00000E+00
    0.00000E+00         0.00000E+00        -0.91333E-07
 
   -0.39358E+06         0.41965E+05         0.00000E+00
    0.41965E+05        -0.58808E+08         0.00000E+00
    0.00000E+00         0.00000E+00         0.71037E-07
 
   -0.49480E+06         0.38765E+05         0.00000E+00
    0.38765E+05        -0.59045E+08         0.00000E+00
    0.00000E+00         0.00000E+00         0.40593E-07
 
   -0.60895E+06         0.35015E+05         0.00000E+00
    0.35015E+05        -0.59284E+08         0.00000E+00
    0.00000E+00         0.00000E+00        -0.60889E-07
 
   -0.73771E+06         0.30658E+05         0.00000E+00
    0.30658E+05        -0.59524E+08         0.00000E+00
    0.00000E+00         0.00000E+00        -0.60889E-07
 
   -0.88293E+06         0.25640E+05         0.00000E+00
    0.25640E+05        -0.59765E+08         0.00000E+00
    0.00000E+00         0.00000E+00         0.10148E-07
 
   -0.10466E+07         0.19918E+05         0.00000E+00
    0.19918E+05        -0.60008E+08         0.00000E+00
    0.00000E+00         0.00000E+00        -0.91333E-07
 
   -0.12307E+07         0.13465E+05         0.00000E+00
    0.13465E+05        -0.60252E+08         0.00000E+00
    0.00000E+00         0.00000E+00         0.60889E-07
 
   -0.14372E+07         0.62759E+04         0.00000E+00
    0.62759E+04        -0.60498E+08         0.00000E+00
    0.00000E+00         0.00000E+00         0.12178E-06
 
   -0.16682E+07        -0.16222E+04         0.00000E+00
   -0.16222E+04        -0.60744E+08         0.00000E+00
    0.00000E+00         0.00000E+00         0.50741E-07
 
   -0.19253E+07        -0.10163E+05         0.00000E+00
   -0.10163E+05        -0.60991E+08         0.00000E+00
    0.00000E+00         0.00000E+00         0.00000E+00
 
   -0.22096E+07        -0.19254E+05         0.00000E+00
   -0.19254E+05        -0.61238E+08         0.00000E+00
    0.00000E+00         0.00000E+00        -0.10148E-07
 
   -0.25219E+07        -0.28724E+05         0.00000E+00
   -0.28724E+05        -0.61486E+08         0.00000E+00
    0.00000E+00         0.00000E+00        -0.71037E-07
 
   -0.28614E+07        -0.38553E+05         0.00000E+00
   -0.38553E+05        -0.61734E+08         0.00000E+00
    0.00000E+00         0.00000E+00         0.20296E-07
 
   -0.32259E+07        -0.47812E+05         0.00000E+00
   -0.47812E+05        -0.61982E+08         0.00000E+00
    0.00000E+00         0.00000E+00        -0.10148E-07
 
   -0.36076E+07        -0.60252E+05         0.00000E+00
   -0.60252E+05        -0.62234E+08         0.00000E+00
    0.00000E+00         0.00000E+00         0.71037E-07
 
   -0.39580E+07        -0.47012E+05         0.00000E+00
   -0.47012E+05        -0.62468E+08         0.00000E+00
    0.00000E+00         0.00000E+00         0.60889E-07
 
    0.12303E+07        -0.10874E+05         0.00000E+00
   -0.10874E+05        -0.47633E+08         0.00000E+00
    0.00000E+00         0.00000E+00        -0.20296E-07
 
    0.11172E+07        -0.72601E+04         0.00000E+00
   -0.72601E+04        -0.47703E+08         0.00000E+00
    0.00000E+00         0.00000E+00         0.20296E-07
 
    0.10052E+07        -0.52204E+04         0.00000E+00
   -0.52204E+04        -0.47772E+08         0.00000E+00
    0.00000E+00         0.00000E+00         0.50741E-07
 
    0.90330E+06        -0.38528E+04         0.00000E+00
   -0.38528E+04        -0.47841E+08         0.00000E+00
    0.00000E+00         0.00000E+00         0.30444E-07
 
    0.81107E+06        -0.25846E+04         0.00000E+00
   -0.25846E+04        -0.47909E+08         0.00000E+00
    0.00000E+00         0.00000E+00        -0.50741E-07
 
    0.72859E+06        -0.14265E+04         0.00000E+00
   -0.14265E+04        -0.47978E+08         0.00000E+00
    0.00000E+00         0.00000E+00         0.00000E+00
 
    0.65552E+06        -0.34840E+03         0.00000E+00
   -0.34840E+03        -0.48047E+08         0.00000E+00
    0.00000E+00         0.00000E+00        -0.10148E-07
 
    0.59138E+06         0.65121E+03         0.00000E+00
    0.65121E+03        -0.48116E+08         0.00000E+00
    0.00000E+00         0.00000E+00        -0.40593E-07
 
    0.53557E+06         0.15713E+04         0.00000E+00
    0.15713E+04        -0.48185E+08         0.00000E+00
    0.00000E+00         0.00000E+00        -0.20296E-07
 
    0.48741E+06         0.24117E+04         0.00000E+00
    0.24117E+04        -0.48255E+08         0.00000E+00
    0.00000E+00         0.00000E+00        -0.60889E-07
 
    0.44621E+06         0.31737E+04         0.00000E+00
    0.31737E+04        -0.48326E+08         0.00000E+00
    0.00000E+00         0.00000E+00        -0.50741E-07
 
    0.41124E+06         0.38609E+04         0.00000E+00
    0.38609E+04        -0.48397E+08         0.00000E+00
    0.00000E+00         0.00000E+00         0.81185E-07
 
    0.38182E+06         0.44784E+04         0.00000E+00
    0.44784E+04        -0.48468E+08         0.00000E+00
    0.00000E+00         0.00000E+00         0.50741E-07
 
    0.35729E+06         0.50325E+04         0.00000E+00
    0.50325E+04        -0.48541E+08         0.00000E+00
    0.00000E+00         0.00000E+00        -0.30444E-07
 
    0.33706E+06         0.55299E+04         0.00000E+00
    0.55299E+04        -0.48614E+08         0.00000E+00
    0.00000E+00         0.00000E+00        -0.40593E-07
 
    0.32057E+06         0.59775E+04         0.00000E+00
    0.59775E+04        -0.48688E+08         0.00000E+00
    0.00000E+00         0.00000E+00         0.20296E-07
 
    0.30734E+06         0.63820E+04         0.00000E+00
    0.63820E+04        -0.48762E+08         0.00000E+00
    0.00000E+00         0.00000E+00         0.60889E-07
 
    0.29693E+06         0.67496E+04         0.00000E+00
    0.67496E+04        -0.48838E+08         0.00000E+00
    0.00000E+00         0.00000E+00         0.60889E-07
 
    0.28895E+06         0.70861E+04         0.00000E+00
    0.70861E+04        -0.48915E+08         0.00000E+00
    0.00000E+00         0.00000E+00         0.60889E-07
 
    0.28308E+06         0.73964E+04         0.00000E+00
    0.73964E+04        -0.48993E+08         0.00000E+00
    0.00000E+00         0.00000E+00         0.40593E-07
 
    0.27902E+06         0.76851E+04         0.00000E+00
    0.76851E+04        -0.49072E+08         0.00000E+00
    0.00000E+00         0.00000E+00        -0.40593E-07
 
    0.27652E+06         0.79560E+04         0.00000E+00
    0.79560E+04        -0.49152E+08         0.00000E+00
    0.00000E+00         0.00000E+00         0.00000E+00
 
    0.27536E+06         0.82125E+04         0.00000E+00
    0.82125E+04        -0.49234E+08         0.00000E+00
    0.00000E+00         0.00000E+00         0.71037E-07
 
    0.27536E+06         0.84575E+04         0.00000E+00
    0.84575E+04        -0.49317E+08         0.00000E+00
    0.00000E+00         0.00000E+00        -0.40593E-07
 
    0.27634E+06         0.86933E+04         0.00000E+00
    0.86933E+04        -0.49401E+08         0.00000E+00
    0.00000E+00         0.00000E+00         0.60888E-07
 
    0.27818E+06         0.89219E+04         0.00000E+00
    0.89219E+04        -0.49487E+08         0.00000E+00
    0.00000E+00         0.00000E+00         0.00000E+00
 
    0.28073E+06         0.91452E+04         0.00000E+00
    0.91452E+04        -0.49574E+08         0.00000E+00
    0.00000E+00         0.00000E+00         0.10148E-07
 
    0.28391E+06         0.93644E+04         0.00000E+00
    0.93644E+04        -0.49663E+08         0.00000E+00
    0.00000E+00         0.00000E+00         0.00000E+00
 
    0.28760E+06         0.95809E+04         0.00000E+00
    0.95809E+04        -0.49754E+08         0.00000E+00
    0.00000E+00         0.00000E+00        -0.10148E-07
 
    0.29174E+06         0.97956E+04         0.00000E+00
    0.97956E+04        -0.49847E+08         0.00000E+00
    0.00000E+00         0.00000E+00         0.60889E-07
 
    0.29623E+06         0.10009E+05         0.00000E+00
    0.10009E+05        -0.49941E+08         0.00000E+00
    0.00000E+00         0.00000E+00         0.40593E-07
 
    0.30102E+06         0.10223E+05         0.00000E+00
    0.10223E+05        -0.50037E+08         0.00000E+00
    0.00000E+00         0.00000E+00        -0.81185E-07
 
    0.30606E+06         0.10436E+05         0.00000E+00
    0.10436E+05        -0.50135E+08         0.00000E+00
    0.00000E+00         0.00000E+00         0.20296E-07
 
    0.31127E+06         0.10651E+05         0.00000E+00
    0.10651E+05        -0.50235E+08         0.00000E+00
    0.00000E+00         0.00000E+00        -0.40593E-07
 
    0.31662E+06         0.10866E+05         0.00000E+00
    0.10866E+05        -0.50337E+08         0.00000E+00
    0.00000E+00         0.00000E+00        -0.30444E-07
 
    0.32206E+06         0.11083E+05         0.00000E+00
    0.11083E+05        -0.50441E+08         0.00000E+00
    0.00000E+00         0.00000E+00        -0.10148E-07
 
    0.32756E+06         0.11301E+05         0.00000E+00
    0.11301E+05        -0.50547E+08         0.00000E+00
    0.00000E+00         0.00000E+00        -0.91333E-07
 
    0.33306E+06         0.11521E+05         0.00000E+00
    0.11521E+05        -0.50655E+08         0.00000E+00
    0.00000E+00         0.00000E+00         0.30444E-07
 
    0.33853E+06         0.11742E+05         0.00000E+00
    0.11742E+05        -0.50766E+08         0.00000E+00
    0.00000E+00         0.00000E+00         0.50741E-07
 
    0.34394E+06         0.11966E+05         0.00000E+00
    0.11966E+05        -0.50879E+08         0.00000E+00
    0.00000E+00         0.00000E+00        -0.30444E-07
 
    0.34926E+06         0.12191E+05         0.00000E+00
    0.12191E+05        -0.50994E+08         0.00000E+00
    0.00000E+00         0.00000E+00        -0.20296E-07
 
    0.35445E+06         0.12418E+05         0.00000E+00
    0.12418E+05        -0.51111E+08         0.00000E+00
    0.00000E+00         0.00000E+00        -0.10148E-07
 
    0.35947E+06         0.12647E+05         0.00000E+00
    0.12647E+05        -0.51232E+08         0.00000E+00
    0.00000E+00         0.00000E+00         0.20296E-07
 
    0.36431E+06         0.12877E+05         0.00000E+00
    0.12877E+05        -0.51354E+08         0.00000E+00
    0.00000E+00         0.00000E+00        -0.12178E-06
 
    0.36893E+06         0.13109E+05         0.00000E+00
    0.13109E+05        -0.51479E+08         0.00000E+00
    0.00000E+00         0.00000E+00        -0.81185E-07
 
    0.37329E+06         0.13342E+05         0.00000E+00
    0.13342E+05        -0.51607E+08         0.00000E+00
    0.00000E+00         0.00000E+00         0.10148E-07
 
    0.37737E+06         0.13576E+05         0.00000E+00
    0.13576E+05        -0.51737E+08         0.00000E+00
    0.00000E+00         0.00000E+00        -0.10148E-06
 
    0.38113E+06         0.13811E+05         0.00000E+00
    0.13811E+05        -0.51870E+08         0.00000E+00
    0.00000E+00         0.00000E+00         0.00000E+00
 
    0.38454E+06         0.14047E+05         0.00000E+00
    0.14047E+05        -0.52006E+08         0.00000E+00
    0.00000E+00         0.00000E+00        -0.30444E-07
 
    0.38756E+06         0.14283E+05         0.00000E+00
    0.14283E+05        -0.52144E+08         0.00000E+00
    0.00000E+00         0.00000E+00        -0.71037E-07
 
    0.39017E+06         0.14519E+05         0.00000E+00
    0.14519E+05        -0.52285E+08         0.00000E+00
    0.00000E+00         0.00000E+00        -0.81185E-07
 
    0.39233E+06         0.14754E+05         0.00000E+00
    0.14754E+05        -0.52429E+08         0.00000E+00
    0.00000E+00         0.00000E+00         0.00000E+00
 
    0.39399E+06         0.14988E+05         0.00000E+00
    0.14988E+05        -0.52576E+08         0.00000E+00
    0.00000E+00         0.00000E+00         0.20296E-07
 
    0.39511E+06         0.15222E+05         0.00000E+00
    0.15222E+05        -0.52726E+08         0.00000E+00
    0.00000E+00         0.00000E+00         0.10148E-07
 
    0.39566E+06         0.15453E+05         0.00000E+00
    0.15453E+05        -0.52879E+08         0.00000E+00
    0.00000E+00         0.00000E+00         0.50741E-07
 
    0.39559E+06         0.15682E+05         0.00000E+00
    0.15682E+05        -0.53034E+08         0.00000E+00
    0.00000E+00         0.00000E+00        -0.20296E-07
 
    0.39485E+06         0.15908E+05         0.00000E+00
    0.15908E+05        -0.53193E+08         0.00000E+00
    0.00000E+00         0.00000E+00        -0.11163E-06
 
    0.39339E+06         0.16130E+05         0.00000E+00
    0.16130E+05        -0.53355E+08         0.00000E+00
    0.00000E+00         0.00000E+00         0.10148E-06
 
    0.39114E+06         0.16348E+05         0.00000E+00
    0.16348E+05        -0.53519E+08         0.00000E+00
    0.00000E+00         0.00000E+00         0.40593E-07
 
    0.38807E+06         0.16561E+05         0.00000E+00
    0.16561E+05        -0.53687E+08         0.00000E+00
    0.00000E+00         0.00000E+00        -0.71037E-07
 
    0.38409E+06         0.16768E+05         0.00000E+00
    0.16768E+05        -0.53857E+08         0.00000E+00
    0.00000E+00         0.00000E+00         0.30444E-07
 
    0.37913E+06         0.16968E+05         0.00000E+00
    0.16968E+05        -0.54031E+08         0.00000E+00
    0.00000E+00         0.00000E+00         0.00000E+00
 
    0.37313E+06         0.17161E+05         0.00000E+00
    0.17161E+05        -0.54207E+08         0.00000E+00
    0.00000E+00         0.00000E+00        -0.60889E-07
 
    0.36599E+06         0.17344E+05         0.00000E+00
    0.17344E+05        -0.54387E+08         0.00000E+00
    0.00000E+00         0.00000E+00         0.30444E-07
 
    0.35762E+06         0.17516E+05         0.00000E+00
    0.17516E+05        -0.54570E+08         0.00000E+00
    0.00000E+00         0.00000E+00        -0.30444E-07
 
    0.34793E+06         0.17677E+05         0.00000E+00
    0.17677E+05        -0.54755E+08         0.00000E+00
    0.00000E+00         0.00000E+00        -0.30444E-07
 
    0.33679E+06         0.17825E+05         0.00000E+00
    0.17825E+05        -0.54944E+08         0.00000E+00
    0.00000E+00         0.00000E+00         0.30444E-07
 
    0.32408E+06         0.17957E+05         0.00000E+00
    0.17957E+05        -0.55135E+08         0.00000E+00
    0.00000E+00         0.00000E+00         0.17252E-06
 
    0.30966E+06         0.18072E+05         0.00000E+00
    0.18072E+05        -0.55330E+08         0.00000E+00
    0.00000E+00         0.00000E+00         0.71037E-07
 
    0.29337E+06         0.18168E+05         0.00000E+00
    0.18168E+05        -0.55527E+08         0.00000E+00
    0.00000E+00         0.00000E+00         0.10148E-07
 
    0.27503E+06         0.18242E+05         0.00000E+00
    0.18242E+05        -0.55728E+08         0.00000E+00
    0.00000E+00         0.00000E+00        -0.20296E-07
 
    0.25445E+06         0.18291E+05         0.00000E+00
    0.18291E+05        -0.55931E+08         0.00000E+00
    0.00000E+00         0.00000E+00         0.20296E-07
 
    0.23138E+06         0.18311E+05         0.00000E+00
    0.18311E+05        -0.56137E+08         0.00000E+00
    0.00000E+00         0.00000E+00         0.12178E-06
 
    0.20558E+06         0.18299E+05         0.00000E+00
    0.18299E+05        -0.56346E+08         0.00000E+00
    0.00000E+00         0.00000E+00         0.30444E-07
 
    0.17675E+06         0.18249E+05         0.00000E+00
    0.18249E+05        -0.56557E+08         0.00000E+00
    0.00000E+00         0.00000E+00        -0.71037E-07
 
    0.14453E+06         0.18157E+05         0.00000E+00
    0.18157E+05        -0.56772E+08         0.00000E+00
    0.00000E+00         0.00000E+00        -0.71037E-07
 
    0.10854E+06         0.18015E+05         0.00000E+00
    0.18015E+05        -0.56988E+08         0.00000E+00
    0.00000E+00         0.00000E+00         0.30444E-07
 
    0.68318E+05         0.17817E+05         0.00000E+00
    0.17817E+05        -0.57208E+08         0.00000E+00
    0.00000E+00         0.00000E+00        -0.91333E-07
 
    0.23339E+05         0.17554E+05         0.00000E+00
    0.17554E+05        -0.57430E+08         0.00000E+00
    0.00000E+00         0.00000E+00         0.11163E-06
 
   -0.27009E+05         0.17215E+05         0.00000E+00
    0.17215E+05        -0.57654E+08         0.00000E+00
    0.00000E+00         0.00000E+00         0.50741E-07
 
   -0.83433E+05         0.16790E+05         0.00000E+00
    0.16790E+05        -0.57880E+08         0.00000E+00
    0.00000E+00         0.00000E+00        -0.50741E-07
 
   -0.14675E+06         0.16263E+05         0.00000E+00
    0.16263E+05        -0.58109E+08         0.00000E+00
    0.00000E+00         0.00000E+00        -0.20296E-07
 
   -0.21791E+06         0.15620E+05         0.00000E+00
    0.15620E+05        -0.58340E+08         0.00000E+00
    0.00000E+00         0.00000E+00         0.30444E-07
 
   -0.29800E+06         0.14843E+05         0.00000E+00
    0.14843E+05        -0.58573E+08         0.00000E+00
    0.00000E+00         0.00000E+00        -0.20296E-07
 
   -0.38826E+06         0.13914E+05         0.00000E+00
    0.13914E+05        -0.58808E+08         0.00000E+00
    0.00000E+00         0.00000E+00         0.00000E+00
 
   -0.49010E+06         0.12809E+05         0.00000E+00
    0.12809E+05        -0.59045E+08         0.00000E+00
    0.00000E+00         0.00000E+00        -0.81185E-07
 
   -0.60514E+06         0.11508E+05         0.00000E+00
    0.11508E+05        -0.59283E+08         0.00000E+00
    0.00000E+00         0.00000E+00         0.20296E-07
 
   -0.73513E+06         0.99875E+04         0.00000E+00
    0.99875E+04        -0.59523E+08         0.00000E+00
    0.00000E+00         0.00000E+00        -0.10148E-07
 
   -0.88203E+06         0.82248E+04         0.00000E+00
    0.82248E+04        -0.59765E+08         0.00000E+00
    0.00000E+00         0.00000E+00        -0.81185E-07
 
   -0.10479E+07         0.62005E+04         0.00000E+00
    0.62005E+04        -0.60008E+08         0.00000E+00
    0.00000E+00         0.00000E+00        -0.13192E-06
 
   -0.12350E+07         0.38992E+04         0.00000E+00
    0.38992E+04        -0.60252E+08         0.00000E+00
    0.00000E+00         0.00000E+00         0.11163E-06
 
   -0.14455E+07         0.13118E+04         0.00000E+00
    0.13118E+04        -0.60497E+08         0.00000E+00
    0.00000E+00         0.00000E+00         0.30444E-07
 
   -0.16817E+07        -0.15621E+04         0.00000E+00
   -0.15621E+04        -0.60743E+08         0.00000E+00
    0.00000E+00         0.00000E+00        -0.71037E-07
 
   -0.19454E+07        -0.47167E+04         0.00000E+00
   -0.47167E+04        -0.60989E+08         0.00000E+00
    0.00000E+00         0.00000E+00         0.50741E-07
 
   -0.22383E+07        -0.81422E+04         0.00000E+00
   -0.81422E+04        -0.61237E+08         0.00000E+00
    0.00000E+00         0.00000E+00        -0.60888E-07
 
   -0.25616E+07        -0.11837E+05         0.00000E+00
   -0.11837E+05        -0.61485E+08         0.00000E+00
    0.00000E+00         0.00000E+00        -0.20296E-07
 
   -0.29159E+07        -0.15898E+05         0.00000E+00
   -0.15898E+05        -0.61733E+08         0.00000E+00
    0.00000E+00         0.00000E+00        -0.40593E-07
 
   -0.33004E+07        -0.20278E+05         0.00000E+00
   -0.20278E+05        -0.61981E+08         0.00000E+00
    0.00000E+00         0.00000E+00         0.10147E-07
 
   -0.37149E+07        -0.27003E+05         0.00000E+00
   -0.27003E+05        -0.62229E+08         0.00000E+00
    0.00000E+00         0.00000E+00        -0.12178E-06
 
   -0.41271E+07        -0.39254E+05         0.00000E+00
   -0.39254E+05        -0.62480E+08         0.00000E+00
    0.00000E+00         0.00000E+00         0.20296E-07
 
TENSORS stresstot double 
   -0.49944E+08         0.52713E+05         0.00000E+00
    0.52713E+05        -0.97463E+08         0.00000E+00
    0.00000E+00         0.00000E+00        -0.49966E+08
 
   -0.49884E+08         0.13968E+06         0.00000E+00
    0.13968E+06        -0.97422E+08         0.00000E+00
    0.00000E+00         0.00000E+00        -0.49897E+08
 
   -0.49818E+08         0.20200E+06         0.00000E+00
    0.20200E+06        -0.97395E+08         0.00000E+00
    0.00000E+00         0.00000E+00        -0.49829E+08
 
   -0.49751E+08         0.25413E+06         0.00000E+00
    0.25413E+06        -0.97378E+08         0.00000E+00
    0.00000E+00         0.00000E+00        -0.49760E+08
 
   -0.49683E+08         0.29968E+06         0.00000E+00
    0.29968E+06        -0.97368E+08         0.00000E+00
    0.00000E+00         0.00000E+00        -0.49692E+08
 
   -0.49615E+08         0.34085E+06         0.00000E+00
    0.34085E+06        -0.97365E+08         0.00000E+00
    0.00000E+00         0.00000E+00        -0.49623E+08
 
   -0.49547E+08         0.37889E+06         0.00000E+00
    0.37889E+06        -0.97367E+08         0.00000E+00
    0.00000E+00         0.00000E+00        -0.49554E+08
 
   -0.49478E+08         0.41456E+06         0.00000E+00
    0.41456E+06        -0.97372E+08         0.00000E+00
    0.00000E+00         0.00000E+00        -0.49485E+08
 
   -0.49409E+08         0.44832E+06         0.00000E+00
    0.44832E+06        -0.97380E+08         0.00000E+00
    0.00000E+00         0.00000E+00        -0.49415E+08
 
   -0.49339E+08         0.48045E+06         0.00000E+00
    0.48045E+06        -0.97390E+08         0.00000E+00
    0.00000E+00         0.00000E+00        -0.49345E+08
 
   -0.49269E+08         0.51111E+06         0.00000E+00
    0.51111E+06        -0.97400E+08         0.00000E+00
    0.00000E+00         0.00000E+00        -0.49275E+08
 
   -0.49198E+08         0.54043E+06         0.00000E+00
    0.54043E+06        -0.97411E+08         0.00000E+00
    0.00000E+00         0.00000E+00        -0.49204E+08
 
   -0.49127E+08         0.56851E+06         0.00000E+00
    0.56851E+06        -0.97422E+08         0.00000E+00
    0.00000E+00         0.00000E+00        -0.49132E+08
 
   -0.49054E+08         0.59543E+06         0.00000E+00
    0.59543E+06        -0.97432E+08         0.00000E+00
    0.00000E+00         0.00000E+00        -0.49060E+08
 
   -0.48981E+08         0.62128E+06         0.00000E+00
    0.62128E+06        -0.97442E+08         0.00000E+00
    0.00000E+00         0.00000E+00        -0.48987E+08
 
   -0.48908E+08         0.64616E+06         0.00000E+00
    0.64616E+06        -0.97451E+08         0.00000E+00
    0.00000E+00         0.00000E+00        -0.48913E+08
 
   -0.48833E+08         0.67014E+06         0.00000E+00
    0.67014E+06        -0.97458E+08         0.00000E+00
    0.00000E+00         0.00000E+00        -0.48838E+08
 
   -0.48757E+08         0.69333E+06         0.00000E+00
    0.69333E+06        -0.97466E+08         0.00000E+00
    0.00000E+00         0.00000E+00        -0.48762E+08
 
   -0.48681E+08         0.71582E+06         0.00000E+00
    0.71582E+06        -0.97472E+08         0.00000E+00
    0.00000E+00         0.00000E+00        -0.48685E+08
 
   -0.48603E+08         0.73771E+06         0.00000E+00
    0.73771E+06        -0.97477E+08         0.00000E+00
    0.00000E+00         0.00000E+00        -0.48607E+08
 
   -0.48524E+08         0.75909E+06         0.00000E+00
    0.75909E+06        -0.97482E+08         0.00000E+00
    0.00000E+00         0.00000E+00        -0.48528E+08
 
   -0.48444E+08         0.78005E+06         0.00000E+00
    0.78005E+06        -0.97485E+08         0.00000E+00
    0.00000E+00         0.00000E+00        -0.48448E+08
 
   -0.48362E+08         0.80068E+06         0.00000E+00
    0.80068E+06        -0.97489E+08         0.00000E+00
    0.00000E+00         0.00000E+00        -0.48366E+08
 
   -0.48279E+08         0.82106E+06         0.00000E+00
    0.82106E+06        -0.97491E+08         0.00000E+00
    0.00000E+00         0.00000E+00        -0.48283E+08
 
   -0.48195E+08         0.84126E+06         0.00000E+00
    0.84126E+06        -0.97493E+08         0.00000E+00
    0.00000E+00         0.00000E+00        -0.48199E+08
 
   -0.48109E+08         0.86136E+06         0.00000E+00
    0.86136E+06        -0.97494E+08         0.00000E+00
    0.00000E+00         0.00000E+00        -0.48113E+08
 
   -0.48021E+08         0.88141E+06         0.00000E+00
    0.88141E+06        -0.97495E+08         0.00000E+00
    0.00000E+00         0.00000E+00        -0.48025E+08
 
   -0.47932E+08         0.90147E+06         0.00000E+00
    0.90147E+06        -0.97496E+08         0.00000E+00
    0.00000E+00         0.00000E+00        -0.47936E+08
 
   -0.47842E+08         0.92160E+06         0.00000E+00
    0.92160E+06        -0.97496E+08         0.00000E+00
    0.00000E+00         0.00000E+00        -0.47846E+08
 
   -0.47749E+08         0.94184E+06         0.00000E+00
    0.94184E+06        -0.97496E+08         0.00000E+00
    0.00000E+00         0.00000E+00        -0.47753E+08
 
   -0.47655E+08         0.96222E+06         0.00000E+00
    0.96222E+06        -0.97496E+08         0.00000E+00
    0.00000E+00         0.00000E+00        -0.47659E+08
 
   -0.47559E+08         0.98277E+06         0.00000E+00
    0.98277E+06        -0.97496E+08         0.00000E+00
    0.00000E+00         0.00000E+00        -0.47563E+08
 
   -0.47461E+08         0.10035E+07         0.00000E+00
    0.10035E+07        -0.97495E+08         0.00000E+00
    0.00000E+00         0.00000E+00        -0.47465E+08
 
   -0.47361E+08         0.10245E+07         0.00000E+00
    0.10245E+07        -0.97494E+08         0.00000E+00
    0.00000E+00         0.00000E+00        -0.47365E+08
 
   -0.47259E+08         0.10458E+07         0.00000E+00
    0.10458E+07        -0.97493E+08         0.00000E+00
    0.00000E+00         0.00000E+00        -0.47263E+08
 
   -0.47155E+08         0.10673E+07         0.00000E+00
    0.10673E+07        -0.97492E+08         0.00000E+00
    0.00000E+00         0.00000E+00        -0.47159E+08
 
   -0.47048E+08         0.10891E+07         0.00000E+00
    0.10891E+07        -0.97491E+08         0.00000E+00
    0.00000E+00         0.00000E+00        -0.47053E+08
 
   -0.46940E+08         0.11112E+07         0.00000E+00
    0.11112E+07        -0.97490E+08         0.00000E+00
    0.00000E+00         0.00000E+00        -0.46944E+08
 
   -0.46829E+08         0.11336E+07         0.00000E+00
    0.11336E+07        -0.97489E+08         0.00000E+00
    0.00000E+00         0.00000E+00        -0.46834E+08
 
   -0.46716E+08         0.11562E+07         0.00000E+00
    0.11562E+07        -0.97488E+08         0.00000E+00
    0.00000E+00         0.00000E+00        -0.46721E+08
 
   -0.46601E+08         0.11792E+07         0.00000E+00
    0.11792E+07        -0.97487E+08         0.00000E+00
    0.00000E+00         0.00000E+00        -0.46606E+08
 
   -0.46483E+08         0.12024E+07         0.00000E+00
    0.12024E+07        -0.97485E+08         0.00000E+00
    0.00000E+00         0.00000E+00        -0.46488E+08
 
   -0.46363E+08         0.12260E+07         0.00000E+00
    0.12260E+07        -0.97484E+08         0.00000E+00
    0.00000E+00         0.00000E+00        -0.46368E+08
 
   -0.46241E+08         0.12498E+07         0.00000E+00
    0.12498E+07        -0.97483E+08         0.00000E+00
    0.00000E+00         0.00000E+00        -0.46245E+08
 
   -0.46115E+08         0.12738E+07         0.00000E+00
    0.12738E+07        -0.97482E+08         0.00000E+00
    0.00000E+00         0.00000E+00        -0.46120E+08
 
   -0.45988E+08         0.12981E+07         0.00000E+00
    0.12981E+07        -0.97481E+08         0.00000E+00
    0.00000E+00         0.00000E+00        -0.45993E+08
 
   -0.45857E+08         0.13226E+07         0.00000E+00
    0.13226E+07        -0.97481E+08         0.00000E+00
    0.00000E+00         0.00000E+00        -0.45862E+08
 
   -0.45724E+08         0.13473E+07         0.00000E+00
    0.13473E+07        -0.97480E+08         0.00000E+00
    0.00000E+00         0.00000E+00        -0.45729E+08
 
   -0.45588E+08         0.13722E+07         0.00000E+00
    0.13722E+07        -0.97479E+08         0.00000E+00
    0.00000E+00         0.00000E+00        -0.45593E+08
 
   -0.45450E+08         0.13973E+07         0.00000E+00
    0.13973E+07        -0.97479E+08         0.00000E+00
    0.00000E+00         0.00000E+00        -0.45455E+08
 
   -0.45309E+08         0.14224E+07         0.00000E+00
    0.14224E+07        -0.97479E+08         0.00000E+00
    0.00000E+00         0.00000E+00        -0.45314E+08
 
   -0.45165E+08         0.14477E+07         0.00000E+00
    0.14477E+07        -0.97479E+08         0.00000E+00
    0.00000E+00         0.00000E+00        -0.45170E+08
 
   -0.45018E+08         0.14730E+07         0.00000E+00
    0.14730E+07        -0.97479E+08         0.00000E+00
    0.00000E+00         0.00000E+00        -0.45023E+08
 
   -0.44868E+08         0.14983E+07         0.00000E+00
    0.14983E+07        -0.97479E+08         0.00000E+00
    0.00000E+00         0.00000E+00        -0.44873E+08
 
   -0.44715E+08         0.15236E+07         0.00000E+00
    0.15236E+07        -0.97480E+08         0.00000E+00
    0.00000E+00         0.00000E+00        -0.44720E+08
 
   -0.44560E+08         0.15488E+07         0.00000E+00
    0.15488E+07        -0.97481E+08         0.00000E+00
    0.00000E+00         0.00000E+00        -0.44565E+08
 
   -0.44401E+08         0.15739E+07         0.00000E+00
    0.15739E+07        -0.97482E+08         0.00000E+00
    0.00000E+00         0.00000E+00        -0.44406E+08
 
   -0.44239E+08         0.15989E+07         0.00000E+00
    0.15989E+07        -0.97483E+08         0.00000E+00
    0.00000E+00         0.00000E+00        -0.44244E+08
 
   -0.44075E+08         0.16235E+07         0.00000E+00
    0.16235E+07        -0.97485E+08         0.00000E+00
    0.00000E+00         0.00000E+00        -0.44080E+08
 
   -0.43907E+08         0.16479E+07         0.00000E+00
    0.16479E+07        -0.97487E+08         0.00000E+00
    0.00000E+00         0.00000E+00        -0.43912E+08
 
   -0.43737E+08         0.16719E+07         0.00000E+00
    0.16719E+07        -0.97490E+08         0.00000E+00
    0.00000E+00         0.00000E+00        -0.43742E+08
 
   -0.43563E+08         0.16955E+07         0.00000E+00
    0.16955E+07        -0.97493E+08         0.00000E+00
    0.00000E+00         0.00000E+00        -0.43568E+08
 
   -0.43387E+08         0.17185E+07         0.00000E+00
    0.17185E+07        -0.97497E+08         0.00000E+00
    0.00000E+00         0.00000E+00        -0.43392E+08
 
   -0.43207E+08         0.17409E+07         0.00000E+00
    0.17409E+07        -0.97501E+08         0.00000E+00
    0.00000E+00         0.00000E+00        -0.43212E+08
 
   -0.43025E+08         0.17626E+07         0.00000E+00
    0.17626E+07        -0.97505E+08         0.00000E+00
    0.00000E+00         0.00000E+00        -0.43029E+08
 
   -0.42840E+08         0.17834E+07         0.00000E+00
    0.17834E+07        -0.97511E+08         0.00000E+00
    0.00000E+00         0.00000E+00        -0.42844E+08
 
   -0.42651E+08         0.18033E+07         0.00000E+00
    0.18033E+07        -0.97517E+08         0.00000E+00
    0.00000E+00         0.00000E+00        -0.42655E+08
 
   -0.42460E+08         0.18221E+07         0.00000E+00
    0.18221E+07        -0.97524E+08         0.00000E+00
    0.00000E+00         0.00000E+00        -0.42463E+08
 
   -0.42265E+08         0.18397E+07         0.00000E+00
    0.18397E+07        -0.97531E+08         0.00000E+00
    0.00000E+00         0.00000E+00        -0.42269E+08
 
   -0.42068E+08         0.18559E+07         0.00000E+00
    0.18559E+07        -0.97540E+08         0.00000E+00
    0.00000E+00         0.00000E+00        -0.42071E+08
 
   -0.41868E+08         0.18706E+07         0.00000E+00
    0.18706E+07        -0.97550E+08         0.00000E+00
    0.00000E+00         0.00000E+00        -0.41871E+08
 
   -0.41665E+08         0.18836E+07         0.00000E+00
    0.18836E+07        -0.97561E+08         0.00000E+00
    0.00000E+00         0.00000E+00        -0.41668E+08
 
   -0.41460E+08         0.18946E+07         0.00000E+00
    0.18946E+07        -0.97573E+08         0.00000E+00
    0.00000E+00         0.00000E+00        -0.41462E+08
 
   -0.41251E+08         0.19036E+07         0.00000E+00
    0.19036E+07        -0.97587E+08         0.00000E+00
    0.00000E+00         0.00000E+00        -0.41253E+08
 
   -0.41040E+08         0.19101E+07         0.00000E+00
    0.19101E+07        -0.97602E+08         0.00000E+00
    0.00000E+00         0.00000E+00        -0.41041E+08
 
   -0.40827E+08         0.19141E+07         0.00000E+00
    0.19141E+07        -0.97619E+08         0.00000E+00
    0.00000E+00         0.00000E+00        -0.40827E+08
 
   -0.40610E+08         0.19152E+07         0.00000E+00
    0.19152E+07        -0.97638E+08         0.00000E+00
    0.00000E+00         0.00000E+00        -0.40610E+08
 
   -0.40392E+08         0.19132E+07         0.00000E+00
    0.19132E+07        -0.97659E+08         0.00000E+00
    0.00000E+00         0.00000E+00        -0.40391E+08
 
   -0.40171E+08         0.19077E+07         0.00000E+00
    0.19077E+07        -0.97682E+08         0.00000E+00
    0.00000E+00         0.00000E+00        -0.40169E+08
 
   -0.39947E+08         0.18984E+07         0.00000E+00
    0.18984E+07        -0.97708E+08         0.00000E+00
    0.00000E+00         0.00000E+00        -0.39945E+08
 
   -0.39722E+08         0.18850E+07         0.00000E+00
    0.18850E+07        -0.97737E+08         0.00000E+00
    0.00000E+00         0.00000E+00        -0.39719E+08
 
   -0.39494E+08         0.18672E+07         0.00000E+00
    0.18672E+07        -0.97768E+08         0.00000E+00
    0.00000E+00         0.00000E+00        -0.39490E+08
 
   -0.39264E+08         0.18446E+07         0.00000E+00
    0.18446E+07        -0.97802E+08         0.00000E+00
    0.00000E+00         0.00000E+00        -0.39259E+08
 
   -0.39032E+08         0.18169E+07         0.00000E+00
    0.18169E+07        -0.97839E+08         0.00000E+00
    0.00000E+00         0.00000E+00        -0.39026E+08
 
   -0.38799E+08         0.17838E+07         0.00000E+00
    0.17838E+07        -0.97879E+08         0.00000E+00
    0.00000E+00         0.00000E+00        -0.38792E+08
 
   -0.38563E+08         0.17448E+07         0.00000E+00
    0.17448E+07        -0.97922E+08         0.00000E+00
    0.00000E+00         0.00000E+00        -0.38555E+08
 
   -0.38326E+08         0.16999E+07         0.00000E+00
    0.16999E+07        -0.97967E+08         0.00000E+00
    0.00000E+00         0.00000E+00        -0.38317E+08
 
   -0.38088E+08         0.16485E+07         0.00000E+00
    0.16485E+07        -0.98014E+08         0.00000E+00
    0.00000E+00         0.00000E+00        -0.38077E+08
 
   -0.37848E+08         0.15906E+07         0.00000E+00
    0.15906E+07        -0.98063E+08         0.00000E+00
    0.00000E+00         0.00000E+00        -0.37836E+08
 
   -0.37607E+08         0.15258E+07         0.00000E+00
    0.15258E+07        -0.98111E+08         0.00000E+00
    0.00000E+00         0.00000E+00        -0.37593E+08
 
   -0.37364E+08         0.14539E+07         0.00000E+00
    0.14539E+07        -0.98157E+08         0.00000E+00
    0.00000E+00         0.00000E+00        -0.37349E+08
 
   -0.37121E+08         0.13746E+07         0.00000E+00
    0.13746E+07        -0.98200E+08         0.00000E+00
    0.00000E+00         0.00000E+00        -0.37105E+08
 
   -0.36877E+08         0.12873E+07         0.00000E+00
    0.12873E+07        -0.98235E+08         0.00000E+00
    0.00000E+00         0.00000E+00        -0.36859E+08
 
   -0.36633E+08         0.11911E+07         0.00000E+00
    0.11911E+07        -0.98261E+08         0.00000E+00
    0.00000E+00         0.00000E+00        -0.36612E+08
 
   -0.36388E+08         0.10846E+07         0.00000E+00
    0.10846E+07        -0.98272E+08         0.00000E+00
    0.00000E+00         0.00000E+00        -0.36365E+08
 
   -0.36143E+08         0.96522E+06         0.00000E+00
    0.96522E+06        -0.98265E+08         0.00000E+00
    0.00000E+00         0.00000E+00        -0.36117E+08
 
   -0.35899E+08         0.82860E+06         0.00000E+00
    0.82860E+06        -0.98233E+08         0.00000E+00
    0.00000E+00         0.00000E+00        -0.35869E+08
 
   -0.35657E+08         0.66697E+06         0.00000E+00
    0.66697E+06        -0.98171E+08         0.00000E+00
    0.00000E+00         0.00000E+00        -0.35621E+08
 
   -0.35417E+08         0.46755E+06         0.00000E+00
    0.46755E+06        -0.98076E+08         0.00000E+00
    0.00000E+00         0.00000E+00        -0.35373E+08
 
   -0.35197E+08         0.17823E+06         0.00000E+00
    0.17823E+06        -0.97928E+08         0.00000E+00
    0.00000E+00         0.00000E+00        -0.35124E+08
 
   -0.49904E+08         0.46031E+05         0.00000E+00
    0.46031E+05        -0.97482E+08         0.00000E+00
    0.00000E+00         0.00000E+00        -0.49966E+08
 
   -0.49856E+08         0.12679E+06         0.00000E+00
    0.12679E+06        -0.97436E+08         0.00000E+00
    0.00000E+00         0.00000E+00        -0.49897E+08
 
   -0.49795E+08         0.18921E+06         0.00000E+00
    0.18921E+06        -0.97407E+08         0.00000E+00
    0.00000E+00         0.00000E+00        -0.49829E+08
 
   -0.49731E+08         0.24089E+06         0.00000E+00
    0.24089E+06        -0.97387E+08         0.00000E+00
    0.00000E+00         0.00000E+00        -0.49760E+08
 
   -0.49666E+08         0.28628E+06         0.00000E+00
    0.28628E+06        -0.97377E+08         0.00000E+00
    0.00000E+00         0.00000E+00        -0.49692E+08
 
   -0.49599E+08         0.32731E+06         0.00000E+00
    0.32731E+06        -0.97373E+08         0.00000E+00
    0.00000E+00         0.00000E+00        -0.49623E+08
 
   -0.49532E+08         0.36525E+06         0.00000E+00
    0.36525E+06        -0.97374E+08         0.00000E+00
    0.00000E+00         0.00000E+00        -0.49554E+08
 
   -0.49464E+08         0.40083E+06         0.00000E+00
    0.40083E+06        -0.97379E+08         0.00000E+00
    0.00000E+00         0.00000E+00        -0.49485E+08
 
   -0.49395E+08         0.43449E+06         0.00000E+00
    0.43449E+06        -0.97387E+08         0.00000E+00
    0.00000E+00         0.00000E+00        -0.49415E+08
 
   -0.49326E+08         0.46651E+06         0.00000E+00
    0.46651E+06        -0.97396E+08         0.00000E+00
    0.00000E+00         0.00000E+00        -0.49345E+08
 
   -0.49257E+08         0.49706E+06         0.00000E+00
    0.49706E+06        -0.97406E+08         0.00000E+00
    0.00000E+00         0.00000E+00        -0.49275E+08
 
   -0.49186E+08         0.52626E+06         0.00000E+00
    0.52626E+06        -0.97417E+08         0.00000E+00
    0.00000E+00         0.00000E+00        -0.49204E+08
 
   -0.49116E+08         0.55420E+06         0.00000E+00
    0.55420E+06        -0.97427E+08         0.00000E+00
    0.00000E+00         0.00000E+00        -0.49132E+08
 
   -0.49044E+08         0.58097E+06         0.00000E+00
    0.58097E+06        -0.97437E+08         0.00000E+00
    0.00000E+00         0.00000E+00        -0.49060E+08
 
   -0.48971E+08         0.60666E+06         0.00000E+00
    0.60666E+06        -0.97447E+08         0.00000E+00
    0.00000E+00         0.00000E+00        -0.48987E+08
 
   -0.48898E+08         0.63135E+06         0.00000E+00
    0.63135E+06        -0.97455E+08         0.00000E+00
    0.00000E+00         0.00000E+00        -0.48913E+08
 
   -0.48824E+08         0.65514E+06         0.00000E+00
    0.65514E+06        -0.97463E+08         0.00000E+00
    0.00000E+00         0.00000E+00        -0.48838E+08
 
   -0.48748E+08         0.67812E+06         0.00000E+00
    0.67812E+06        -0.97470E+08         0.00000E+00
    0.00000E+00         0.00000E+00        -0.48762E+08
 
   -0.48672E+08         0.70039E+06         0.00000E+00
    0.70039E+06        -0.97476E+08         0.00000E+00
    0.00000E+00         0.00000E+00        -0.48685E+08
 
   -0.48594E+08         0.72204E+06         0.00000E+00
    0.72204E+06        -0.97481E+08         0.00000E+00
    0.00000E+00         0.00000E+00        -0.48607E+08
 
   -0.48515E+08         0.74318E+06         0.00000E+00
    0.74318E+06        -0.97486E+08         0.00000E+00
    0.00000E+00         0.00000E+00        -0.48528E+08
 
   -0.48435E+08         0.76388E+06         0.00000E+00
    0.76388E+06        -0.97490E+08         0.00000E+00
    0.00000E+00         0.00000E+00        -0.48448E+08
 
   -0.48354E+08         0.78424E+06         0.00000E+00
    0.78424E+06        -0.97493E+08         0.00000E+00
    0.00000E+00         0.00000E+00        -0.48366E+08
 
   -0.48271E+08         0.80434E+06         0.00000E+00
    0.80434E+06        -0.97495E+08         0.00000E+00
    0.00000E+00         0.00000E+00        -0.48283E+08
 
   -0.48187E+08         0.82424E+06         0.00000E+00
    0.82424E+06        -0.97497E+08         0.00000E+00
    0.00000E+00         0.00000E+00        -0.48199E+08
 
   -0.48101E+08         0.84403E+06         0.00000E+00
    0.84403E+06        -0.97498E+08         0.00000E+00
    0.00000E+00         0.00000E+00        -0.48113E+08
 
   -0.48013E+08         0.86376E+06         0.00000E+00
    0.86376E+06        -0.97499E+08         0.00000E+00
    0.00000E+00         0.00000E+00        -0.48025E+08
 
   -0.47924E+08         0.88350E+06         0.00000E+00
    0.88350E+06        -0.97500E+08         0.00000E+00
    0.00000E+00         0.00000E+00        -0.47936E+08
 
   -0.47834E+08         0.90328E+06         0.00000E+00
    0.90328E+06        -0.97500E+08         0.00000E+00
    0.00000E+00         0.00000E+00        -0.47846E+08
 
   -0.47741E+08         0.92316E+06         0.00000E+00
    0.92316E+06        -0.97500E+08         0.00000E+00
    0.00000E+00         0.00000E+00        -0.47753E+08
 
   -0.47647E+08         0.94317E+06         0.00000E+00
    0.94317E+06        -0.97500E+08         0.00000E+00
    0.00000E+00         0.00000E+00        -0.47659E+08
 
   -0.47550E+08         0.96335E+06         0.00000E+00
    0.96335E+06        -0.97500E+08         0.00000E+00
    0.00000E+00         0.00000E+00        -0.47563E+08
 
   -0.47452E+08         0.98373E+06         0.00000E+00
    0.98373E+06        -0.97499E+08         0.00000E+00
    0.00000E+00         0.00000E+00        -0.47465E+08
 
   -0.47352E+08         0.10043E+07         0.00000E+00
    0.10043E+07        -0.97498E+08         0.00000E+00
    0.00000E+00         0.00000E+00        -0.47365E+08
 
   -0.47250E+08         0.10252E+07         0.00000E+00
    0.10252E+07        -0.97498E+08         0.00000E+00
    0.00000E+00         0.00000E+00        -0.47263E+08
 
   -0.47146E+08         0.10463E+07         0.00000E+00
    0.10463E+07        -0.97497E+08         0.00000E+00
    0.00000E+00         0.00000E+00        -0.47159E+08
 
   -0.47040E+08         0.10676E+07         0.00000E+00
    0.10676E+07        -0.97496E+08         0.00000E+00
    0.00000E+00         0.00000E+00        -0.47053E+08
 
   -0.46931E+08         0.10893E+07         0.00000E+00
    0.10893E+07        -0.97495E+08         0.00000E+00
    0.00000E+00         0.00000E+00        -0.46944E+08
 
   -0.46820E+08         0.11112E+07         0.00000E+00
    0.11112E+07        -0.97493E+08         0.00000E+00
    0.00000E+00         0.00000E+00        -0.46834E+08
 
   -0.46707E+08         0.11334E+07         0.00000E+00
    0.11334E+07        -0.97492E+08         0.00000E+00
    0.00000E+00         0.00000E+00        -0.46721E+08
 
   -0.46592E+08         0.11559E+07         0.00000E+00
    0.11559E+07        -0.97491E+08         0.00000E+00
    0.00000E+00         0.00000E+00        -0.46606E+08
 
   -0.46474E+08         0.11787E+07         0.00000E+00
    0.11787E+07        -0.97490E+08         0.00000E+00
    0.00000E+00         0.00000E+00        -0.46488E+08
 
   -0.46354E+08         0.12017E+07         0.00000E+00
    0.12017E+07        -0.97489E+08         0.00000E+00
    0.00000E+00         0.00000E+00        -0.46368E+08
 
   -0.46231E+08         0.12250E+07         0.00000E+00
    0.12250E+07        -0.97488E+08         0.00000E+00
    0.00000E+00         0.00000E+00        -0.46245E+08
 
   -0.46106E+08         0.12485E+07         0.00000E+00
    0.12485E+07        -0.97487E+08         0.00000E+00
    0.00000E+00         0.00000E+00        -0.46120E+08
 
   -0.45978E+08         0.12723E+07         0.00000E+00
    0.12723E+07        -0.97486E+08         0.00000E+00
    0.00000E+00         0.00000E+00        -0.45993E+08
 
   -0.45847E+08         0.12963E+07         0.00000E+00
    0.12963E+07        -0.97486E+08         0.00000E+00
    0.00000E+00         0.00000E+00        -0.45862E+08
 
   -0.45714E+08         0.13205E+07         0.00000E+00
    0.13205E+07        -0.97485E+08         0.00000E+00
    0.00000E+00         0.00000E+00        -0.45729E+08
 
   -0.45578E+08         0.13448E+07         0.00000E+00
    0.13448E+07        -0.97484E+08         0.00000E+00
    0.00000E+00         0.00000E+00        -0.45593E+08
 
   -0.45440E+08         0.13693E+07         0.00000E+00
    0.13693E+07        -0.97484E+08         0.00000E+00
    0.00000E+00         0.00000E+00        -0.45455E+08
 
   -0.45299E+08         0.13939E+07         0.00000E+00
    0.13939E+07        -0.97484E+08         0.00000E+00
    0.00000E+00         0.00000E+00        -0.45314E+08
 
   -0.45154E+08         0.14186E+07         0.00000E+00
    0.14186E+07        -0.97484E+08         0.00000E+00
    0.00000E+00         0.00000E+00        -0.45170E+08
 
   -0.45008E+08         0.14433E+07         0.00000E+00
    0.14433E+07        -0.97484E+08         0.00000E+00
    0.00000E+00         0.00000E+00        -0.45023E+08
 
   -0.44858E+08         0.14681E+07         0.00000E+00
    0.14681E+07        -0.97484E+08         0.00000E+00
    0.00000E+00         0.00000E+00        -0.44873E+08
 
   -0.44705E+08         0.14928E+07         0.00000E+00
    0.14928E+07        -0.97485E+08         0.00000E+00
    0.00000E+00         0.00000E+00        -0.44720E+08
 
   -0.44549E+08         0.15174E+07         0.00000E+00
    0.15174E+07        -0.97486E+08         0.00000E+00
    0.00000E+00         0.00000E+00        -0.44565E+08
 
   -0.44391E+08         0.15419E+07         0.00000E+00
    0.15419E+07        -0.97487E+08         0.00000E+00
    0.00000E+00         0.00000E+00        -0.44406E+08
 
   -0.44229E+08         0.15663E+07         0.00000E+00
    0.15663E+07        -0.97488E+08         0.00000E+00
    0.00000E+00         0.00000E+00        -0.44244E+08
 
   -0.44065E+08         0.15903E+07         0.00000E+00
    0.15903E+07        -0.97490E+08         0.00000E+00
    0.00000E+00         0.00000E+00        -0.44080E+08
 
   -0.43898E+08         0.16141E+07         0.00000E+00
    0.16141E+07        -0.97492E+08         0.00000E+00
    0.00000E+00         0.00000E+00        -0.43912E+08
 
   -0.43727E+08         0.16375E+07         0.00000E+00
    0.16375E+07        -0.97495E+08         0.00000E+00
    0.00000E+00         0.00000E+00        -0.43742E+08
 
   -0.43554E+08         0.16605E+07         0.00000E+00
    0.16605E+07        -0.97498E+08         0.00000E+00
    0.00000E+00         0.00000E+00        -0.43568E+08
 
   -0.43378E+08         0.16829E+07         0.00000E+00
    0.16829E+07        -0.97501E+08         0.00000E+00
    0.00000E+00         0.00000E+00        -0.43392E+08
 
   -0.43199E+08         0.17047E+07         0.00000E+00
    0.17047E+07        -0.97505E+08         0.00000E+00
    0.00000E+00         0.00000E+00        -0.43212E+08
 
   -0.43016E+08         0.17258E+07         0.00000E+00
    0.17258E+07        -0.97510E+08         0.00000E+00
    0.00000E+00         0.00000E+00        -0.43029E+08
 
   -0.42831E+08         0.17460E+07         0.00000E+00
    0.17460E+07        -0.97515E+08         0.00000E+00
    0.00000E+00         0.00000E+00        -0.42844E+08
 
   -0.42643E+08         0.17653E+07         0.00000E+00
    0.17653E+07        -0.97521E+08         0.00000E+00
    0.00000E+00         0.00000E+00        -0.42655E+08
 
   -0.42452E+08         0.17836E+07         0.00000E+00
    0.17836E+07        -0.97527E+08         0.00000E+00
    0.00000E+00         0.00000E+00        -0.42463E+08
 
   -0.42259E+08         0.18006E+07         0.00000E+00
    0.18006E+07        -0.97535E+08         0.00000E+00
    0.00000E+00         0.00000E+00        -0.42269E+08
 
   -0.42062E+08         0.18162E+07         0.00000E+00
    0.18162E+07        -0.97543E+08         0.00000E+00
    0.00000E+00         0.00000E+00        -0.42071E+08
 
   -0.41863E+08         0.18304E+07         0.00000E+00
    0.18304E+07        -0.97553E+08         0.00000E+00
    0.00000E+00         0.00000E+00        -0.41871E+08
 
   -0.41660E+08         0.18428E+07         0.00000E+00
    0.18428E+07        -0.97563E+08         0.00000E+00
    0.00000E+00         0.00000E+00        -0.41668E+08
 
   -0.41456E+08         0.18533E+07         0.00000E+00
    0.18533E+07        -0.97575E+08         0.00000E+00
    0.00000E+00         0.00000E+00        -0.41462E+08
 
   -0.41248E+08         0.18617E+07         0.00000E+00
    0.18617E+07        -0.97588E+08         0.00000E+00
    0.00000E+00         0.00000E+00        -0.41253E+08
 
   -0.41038E+08         0.18678E+07         0.00000E+00
    0.18678E+07        -0.97603E+08         0.00000E+00
    0.00000E+00         0.00000E+00        -0.41041E+08
 
   -0.40826E+08         0.18712E+07         0.00000E+00
    0.18712E+07        -0.97620E+08         0.00000E+00
    0.00000E+00         0.00000E+00        -0.40827E+08
 
   -0.40611E+08         0.18718E+07         0.00000E+00
    0.18718E+07        -0.97638E+08         0.00000E+00
    0.00000E+00         0.00000E+00        -0.40610E+08
 
   -0.40393E+08         0.18693E+07         0.00000E+00
    0.18693E+07        -0.97658E+08         0.00000E+00
    0.00000E+00         0.00000E+00        -0.40391E+08
 
   -0.40174E+08         0.18634E+07         0.00000E+00
    0.18634E+07        -0.97681E+08         0.00000E+00
    0.00000E+00         0.00000E+00        -0.40169E+08
 
   -0.39952E+08         0.18536E+07         0.00000E+00
    0.18536E+07        -0.97706E+08         0.00000E+00
    0.00000E+00         0.00000E+00        -0.39945E+08
 
   -0.39728E+08         0.18398E+07         0.00000E+00
    0.18398E+07        -0.97734E+08         0.00000E+00
    0.00000E+00         0.00000E+00        -0.39719E+08
 
   -0.39502E+08         0.18216E+07         0.00000E+00
    0.18216E+07        -0.97764E+08         0.00000E+00
    0.00000E+00         0.00000E+00        -0.39490E+08
 
   -0.39274E+08         0.17987E+07         0.00000E+00
    0.17987E+07        -0.97797E+08         0.00000E+00
    0.00000E+00         0.00000E+00        -0.39259E+08
 
   -0.39044E+08         0.17706E+07         0.00000E+00
    0.17706E+07        -0.97833E+08         0.00000E+00
    0.00000E+00         0.00000E+00        -0.39026E+08
 
   -0.38813E+08         0.17371E+07         0.00000E+00
    0.17371E+07        -0.97872E+08         0.00000E+00
    0.00000E+00         0.00000E+00        -0.38792E+08
 
   -0.38580E+08         0.16978E+07         0.00000E+00
    0.16978E+07        -0.97914E+08         0.00000E+00
    0.00000E+00         0.00000E+00        -0.38555E+08
 
   -0.38346E+08         0.16526E+07         0.00000E+00
    0.16526E+07        -0.97958E+08         0.00000E+00
    0.00000E+00         0.00000E+00        -0.38317E+08
 
   -0.38110E+08         0.16009E+07         0.00000E+00
    0.16009E+07        -0.98003E+08         0.00000E+00
    0.00000E+00         0.00000E+00        -0.38077E+08
 
   -0.37872E+08         0.15428E+07         0.00000E+00
    0.15428E+07        -0.98050E+08         0.00000E+00
    0.00000E+00         0.00000E+00        -0.37836E+08
 
   -0.37634E+08         0.14777E+07         0.00000E+00
    0.14777E+07        -0.98097E+08         0.00000E+00
    0.00000E+00         0.00000E+00        -0.37593E+08
 
   -0.37395E+08         0.14057E+07         0.00000E+00
    0.14057E+07        -0.98142E+08         0.00000E+00
    0.00000E+00         0.00000E+00        -0.37349E+08
 
   -0.37155E+08         0.13262E+07         0.00000E+00
    0.13262E+07        -0.98183E+08         0.00000E+00
    0.00000E+00         0.00000E+00        -0.37105E+08
 
   -0.36914E+08         0.12388E+07         0.00000E+00
    0.12388E+07        -0.98217E+08         0.00000E+00
    0.00000E+00         0.00000E+00        -0.36859E+08
 
   -0.36673E+08         0.11426E+07         0.00000E+00
    0.11426E+07        -0.98241E+08         0.00000E+00
    0.00000E+00         0.00000E+00        -0.36612E+08
 
   -0.36433E+08         0.10361E+07         0.00000E+00
    0.10361E+07        -0.98250E+08         0.00000E+00
    0.00000E+00         0.00000E+00        -0.36365E+08
 
   -0.36195E+08         0.91699E+06         0.00000E+00
    0.91699E+06        -0.98239E+08         0.00000E+00
    0.00000E+00         0.00000E+00        -0.36117E+08
 
   -0.35959E+08         0.78075E+06         0.00000E+00
    0.78075E+06        -0.98203E+08         0.00000E+00
    0.00000E+00         0.00000E+00        -0.35869E+08
 
   -0.35729E+08         0.62064E+06         0.00000E+00
    0.62064E+06        -0.98136E+08         0.00000E+00
    0.00000E+00         0.00000E+00        -0.35621E+08
 
   -0.35508E+08         0.42080E+06         0.00000E+00
    0.42080E+06        -0.98029E+08         0.00000E+00
    0.00000E+00         0.00000E+00        -0.35373E+08
 
   -0.35334E+08         0.15398E+06         0.00000E+00
    0.15398E+06        -0.97864E+08         0.00000E+00
    0.00000E+00         0.00000E+00        -0.35124E+08
 
   -0.49866E+08         0.40976E+05         0.00000E+00
    0.40976E+05        -0.97499E+08         0.00000E+00
    0.00000E+00         0.00000E+00        -0.49966E+08
 
   -0.49827E+08         0.11580E+06         0.00000E+00
    0.11580E+06        -0.97450E+08         0.00000E+00
    0.00000E+00         0.00000E+00        -0.49897E+08
 
   -0.49772E+08         0.17705E+06         0.00000E+00
    0.17705E+06        -0.97418E+08         0.00000E+00
    0.00000E+00         0.00000E+00        -0.49829E+08
 
   -0.49711E+08         0.22820E+06         0.00000E+00
    0.22820E+06        -0.97397E+08         0.00000E+00
    0.00000E+00         0.00000E+00        -0.49760E+08
 
   -0.49648E+08         0.27323E+06         0.00000E+00
    0.27323E+06        -0.97385E+08         0.00000E+00
    0.00000E+00         0.00000E+00        -0.49692E+08
 
   -0.49583E+08         0.31404E+06         0.00000E+00
    0.31404E+06        -0.97381E+08         0.00000E+00
    0.00000E+00         0.00000E+00        -0.49623E+08
 
   -0.49517E+08         0.35182E+06         0.00000E+00
    0.35182E+06        -0.97381E+08         0.00000E+00
    0.00000E+00         0.00000E+00        -0.49554E+08
 
   -0.49450E+08         0.38726E+06         0.00000E+00
    0.38726E+06        -0.97386E+08         0.00000E+00
    0.00000E+00         0.00000E+00        -0.49485E+08
 
   -0.49382E+08         0.42081E+06         0.00000E+00
    0.42081E+06        -0.97393E+08         0.00000E+00
    0.00000E+00         0.00000E+00        -0.49415E+08
 
   -0.49314E+08         0.45271E+06         0.00000E+00
    0.45271E+06        -0.97402E+08         0.00000E+00
    0.00000E+00         0.00000E+00        -0.49345E+08
 
   -0.49245E+08         0.48313E+06         0.00000E+00
    0.48313E+06        -0.97412E+08         0.00000E+00
    0.00000E+00         0.00000E+00        -0.49275E+08
 
   -0.49175E+08         0.51220E+06         0.00000E+00
    0.51220E+06        -0.97423E+08         0.00000E+00
    0.00000E+00         0.00000E+00        -0.49204E+08
 
   -0.49105E+08         0.53999E+06         0.00000E+00
    0.53999E+06        -0.97433E+08         0.00000E+00
    0.00000E+00         0.00000E+00        -0.49132E+08
 
   -0.49033E+08         0.56660E+06         0.00000E+00
    0.56660E+06        -0.97443E+08         0.00000E+00
    0.00000E+00         0.00000E+00        -0.49060E+08
 
   -0.48961E+08         0.59211E+06         0.00000E+00
    0.59211E+06        -0.97452E+08         0.00000E+00
    0.00000E+00         0.00000E+00        -0.48987E+08
 
   -0.48888E+08         0.61662E+06         0.00000E+00
    0.61662E+06        -0.97460E+08         0.00000E+00
    0.00000E+00         0.00000E+00        -0.48913E+08
 
   -0.48814E+08         0.64020E+06         0.00000E+00
    0.64020E+06        -0.97468E+08         0.00000E+00
    0.00000E+00         0.00000E+00        -0.48838E+08
 
   -0.48739E+08         0.66297E+06         0.00000E+00
    0.66297E+06        -0.97475E+08         0.00000E+00
    0.00000E+00         0.00000E+00        -0.48762E+08
 
   -0.48663E+08         0.68501E+06         0.00000E+00
    0.68501E+06        -0.97480E+08         0.00000E+00
    0.00000E+00         0.00000E+00        -0.48685E+08
 
   -0.48586E+08         0.70642E+06         0.00000E+00
    0.70642E+06        -0.97486E+08         0.00000E+00
    0.00000E+00         0.00000E+00        -0.48607E+08
 
   -0.48507E+08         0.72730E+06         0.00000E+00
    0.72730E+06        -0.97490E+08         0.00000E+00
    0.00000E+00         0.00000E+00        -0.48528E+08
 
   -0.48427E+08         0.74774E+06         0.00000E+00
    0.74774E+06        -0.97494E+08         0.00000E+00
    0.00000E+00         0.00000E+00        -0.48448E+08
 
   -0.48346E+08         0.76782E+06         0.00000E+00
    0.76782E+06        -0.97497E+08         0.00000E+00
    0.00000E+00         0.00000E+00        -0.48366E+08
 
   -0.48263E+08         0.78763E+06         0.00000E+00
    0.78763E+06        -0.97499E+08         0.00000E+00
    0.00000E+00         0.00000E+00        -0.48283E+08
 
   -0.48179E+08         0.80723E+06         0.00000E+00
    0.80723E+06        -0.97501E+08         0.00000E+00
    0.00000E+00         0.00000E+00        -0.48199E+08
 
   -0.48093E+08         0.82671E+06         0.00000E+00
    0.82671E+06        -0.97502E+08         0.00000E+00
    0.00000E+00         0.00000E+00        -0.48113E+08
 
   -0.48005E+08         0.84612E+06         0.00000E+00
    0.84612E+06        -0.97503E+08         0.00000E+00
    0.00000E+00         0.00000E+00        -0.48025E+08
 
   -0.47916E+08         0.86551E+06         0.00000E+00
    0.86551E+06        -0.97504E+08         0.00000E+00
    0.00000E+00         0.00000E+00        -0.47936E+08
 
   -0.47826E+08         0.88495E+06         0.00000E+00
    0.88495E+06        -0.97504E+08         0.00000E+00
    0.00000E+00         0.00000E+00        -0.47846E+08
 
   -0.47733E+08         0.90447E+06         0.00000E+00
    0.90447E+06        -0.97504E+08         0.00000E+00
    0.00000E+00         0.00000E+00        -0.47753E+08
 
   -0.47639E+08         0.92412E+06         0.00000E+00
    0.92412E+06        -0.97504E+08         0.00000E+00
    0.00000E+00         0.00000E+00        -0.47659E+08
 
   -0.47542E+08         0.94392E+06         0.00000E+00
    0.94392E+06        -0.97504E+08         0.00000E+00
    0.00000E+00         0.00000E+00        -0.47563E+08
 
   -0.47444E+08         0.96391E+06         0.00000E+00
    0.96391E+06        -0.97503E+08         0.00000E+00
    0.00000E+00         0.00000E+00        -0.47465E+08
 
   -0.47344E+08         0.98411E+06         0.00000E+00
    0.98411E+06        -0.97503E+08         0.00000E+00
    0.00000E+00         0.00000E+00        -0.47365E+08
 
   -0.47242E+08         0.10045E+07         0.00000E+00
    0.10045E+07        -0.97502E+08         0.00000E+00
    0.00000E+00         0.00000E+00        -0.47263E+08
 
   -0.47137E+08         0.10252E+07         0.00000E+00
    0.10252E+07        -0.97501E+08         0.00000E+00
    0.00000E+00         0.00000E+00        -0.47159E+08
 
   -0.47031E+08         0.10461E+07         0.00000E+00
    0.10461E+07        -0.97500E+08         0.00000E+00
    0.00000E+00         0.00000E+00        -0.47053E+08
 
   -0.46922E+08         0.10673E+07         0.00000E+00
    0.10673E+07        -0.97499E+08         0.00000E+00
    0.00000E+00         0.00000E+00        -0.46944E+08
 
   -0.46811E+08         0.10888E+07         0.00000E+00
    0.10888E+07        -0.97498E+08         0.00000E+00
    0.00000E+00         0.00000E+00        -0.46834E+08
 
   -0.46698E+08         0.11105E+07         0.00000E+00
    0.11105E+07        -0.97497E+08         0.00000E+00
    0.00000E+00         0.00000E+00        -0.46721E+08
 
   -0.46583E+08         0.11326E+07         0.00000E+00
    0.11326E+07        -0.97496E+08         0.00000E+00
    0.00000E+00         0.00000E+00        -0.46606E+08
 
   -0.46465E+08         0.11548E+07         0.00000E+00
    0.11548E+07        -0.97495E+08         0.00000E+00
    0.00000E+00         0.00000E+00        -0.46488E+08
 
   -0.46344E+08         0.11774E+07         0.00000E+00
    0.11774E+07        -0.97494E+08         0.00000E+00
    0.00000E+00         0.00000E+00        -0.46368E+08
 
   -0.46222E+08         0.12002E+07         0.00000E+00
    0.12002E+07        -0.97493E+08         0.00000E+00
    0.00000E+00         0.00000E+00        -0.46245E+08
 
   -0.46096E+08         0.12232E+07         0.00000E+00
    0.12232E+07        -0.97492E+08         0.00000E+00
    0.00000E+00         0.00000E+00        -0.46120E+08
 
   -0.45968E+08         0.12465E+07         0.00000E+00
    0.12465E+07        -0.97491E+08         0.00000E+00
    0.00000E+00         0.00000E+00        -0.45993E+08
 
   -0.45838E+08         0.12699E+07         0.00000E+00
    0.12699E+07        -0.97490E+08         0.00000E+00
    0.00000E+00         0.00000E+00        -0.45862E+08
 
   -0.45704E+08         0.12936E+07         0.00000E+00
    0.12936E+07        -0.97490E+08         0.00000E+00
    0.00000E+00         0.00000E+00        -0.45729E+08
 
   -0.45569E+08         0.13174E+07         0.00000E+00
    0.13174E+07        -0.97489E+08         0.00000E+00
    0.00000E+00         0.00000E+00        -0.45593E+08
 
   -0.45430E+08         0.13413E+07         0.00000E+00
    0.13413E+07        -0.97489E+08         0.00000E+00
    0.00000E+00         0.00000E+00        -0.45455E+08
 
   -0.45289E+08         0.13654E+07         0.00000E+00
    0.13654E+07        -0.97489E+08         0.00000E+00
    0.00000E+00         0.00000E+00        -0.45314E+08
 
   -0.45144E+08         0.13895E+07         0.00000E+00
    0.13895E+07        -0.97489E+08         0.00000E+00
    0.00000E+00         0.00000E+00        -0.45170E+08
 
   -0.44997E+08         0.14136E+07         0.00000E+00
    0.14136E+07        -0.97489E+08         0.00000E+00
    0.00000E+00         0.00000E+00        -0.45023E+08
 
   -0.44848E+08         0.14378E+07         0.00000E+00
    0.14378E+07        -0.97489E+08         0.00000E+00
    0.00000E+00         0.00000E+00        -0.44873E+08
 
   -0.44695E+08         0.14620E+07         0.00000E+00
    0.14620E+07        -0.97490E+08         0.00000E+00
    0.00000E+00         0.00000E+00        -0.44720E+08
 
   -0.44539E+08         0.14860E+07         0.00000E+00
    0.14860E+07        -0.97491E+08         0.00000E+00
    0.00000E+00         0.00000E+00        -0.44565E+08
 
   -0.44381E+08         0.15099E+07         0.00000E+00
    0.15099E+07        -0.97492E+08         0.00000E+00
    0.00000E+00         0.00000E+00        -0.44406E+08
 
   -0.44220E+08         0.15337E+07         0.00000E+00
    0.15337E+07        -0.97493E+08         0.00000E+00
    0.00000E+00         0.00000E+00        -0.44244E+08
 
   -0.44055E+08         0.15572E+07         0.00000E+00
    0.15572E+07        -0.97495E+08         0.00000E+00
    0.00000E+00         0.00000E+00        -0.44080E+08
 
   -0.43888E+08         0.15804E+07         0.00000E+00
    0.15804E+07        -0.97497E+08         0.00000E+00
    0.00000E+00         0.00000E+00        -0.43912E+08
 
   -0.43718E+08         0.16032E+07         0.00000E+00
    0.16032E+07        -0.97499E+08         0.00000E+00
    0.00000E+00         0.00000E+00        -0.43742E+08
 
   -0.43545E+08         0.16256E+07         0.00000E+00
    0.16256E+07        -0.97502E+08         0.00000E+00
    0.00000E+00         0.00000E+00        -0.43568E+08
 
   -0.43369E+08         0.16474E+07         0.00000E+00
    0.16474E+07        -0.97506E+08         0.00000E+00
    0.00000E+00         0.00000E+00        -0.43392E+08
 
   -0.43190E+08         0.16686E+07         0.00000E+00
    0.16686E+07        -0.97509E+08         0.00000E+00
    0.00000E+00         0.00000E+00        -0.43212E+08
 
   -0.43008E+08         0.16891E+07         0.00000E+00
    0.16891E+07        -0.97514E+08         0.00000E+00
    0.00000E+00         0.00000E+00        -0.43029E+08
 
   -0.42823E+08         0.17088E+07         0.00000E+00
    0.17088E+07        -0.97519E+08         0.00000E+00
    0.00000E+00         0.00000E+00        -0.42844E+08
 
   -0.42636E+08         0.17275E+07         0.00000E+00
    0.17275E+07        -0.97524E+08         0.00000E+00
    0.00000E+00         0.00000E+00        -0.42655E+08
 
   -0.42445E+08         0.17452E+07         0.00000E+00
    0.17452E+07        -0.97531E+08         0.00000E+00
    0.00000E+00         0.00000E+00        -0.42463E+08
 
   -0.42252E+08         0.17616E+07         0.00000E+00
    0.17616E+07        -0.97538E+08         0.00000E+00
    0.00000E+00         0.00000E+00        -0.42269E+08
 
   -0.42056E+08         0.17767E+07         0.00000E+00
    0.17767E+07        -0.97546E+08         0.00000E+00
    0.00000E+00         0.00000E+00        -0.42071E+08
 
   -0.41857E+08         0.17903E+07         0.00000E+00
    0.17903E+07        -0.97555E+08         0.00000E+00
    0.00000E+00         0.00000E+00        -0.41871E+08
 
   -0.41656E+08         0.18022E+07         0.00000E+00
    0.18022E+07        -0.97565E+08         0.00000E+00
    0.00000E+00         0.00000E+00        -0.41668E+08
 
   -0.41452E+08         0.18122E+07         0.00000E+00
    0.18122E+07        -0.97577E+08         0.00000E+00
    0.00000E+00         0.00000E+00        -0.41462E+08
 
   -0.41245E+08         0.18201E+07         0.00000E+00
    0.18201E+07        -0.97590E+08         0.00000E+00
    0.00000E+00         0.00000E+00        -0.41253E+08
 
   -0.41036E+08         0.18256E+07         0.00000E+00
    0.18256E+07        -0.97604E+08         0.00000E+00
    0.00000E+00         0.00000E+00        -0.41041E+08
 
   -0.40824E+08         0.18286E+07         0.00000E+00
    0.18286E+07        -0.97620E+08         0.00000E+00
    0.00000E+00         0.00000E+00        -0.40827E+08
 
   -0.40611E+08         0.18287E+07         0.00000E+00
    0.18287E+07        -0.97638E+08         0.00000E+00
    0.00000E+00         0.00000E+00        -0.40610E+08
 
   -0.40395E+08         0.18258E+07         0.00000E+00
    0.18258E+07        -0.97657E+08         0.00000E+00
    0.00000E+00         0.00000E+00        -0.40391E+08
 
   -0.40176E+08         0.18194E+07         0.00000E+00
    0.18194E+07        -0.97679E+08         0.00000E+00
    0.00000E+00         0.00000E+00        -0.40169E+08
 
   -0.39956E+08         0.18092E+07         0.00000E+00
    0.18092E+07        -0.97704E+08         0.00000E+00
    0.00000E+00         0.00000E+00        -0.39945E+08
 
   -0.39734E+08         0.17950E+07         0.00000E+00
    0.17950E+07        -0.97730E+08         0.00000E+00
    0.00000E+00         0.00000E+00        -0.39719E+08
 
   -0.39510E+08         0.17764E+07         0.00000E+00
    0.17764E+07        -0.97760E+08         0.00000E+00
    0.00000E+00         0.00000E+00        -0.39490E+08
 
   -0.39284E+08         0.17531E+07         0.00000E+00
    0.17531E+07        -0.97792E+08         0.00000E+00
    0.00000E+00         0.00000E+00        -0.39259E+08
 
   -0.39056E+08         0.17247E+07         0.00000E+00
    0.17247E+07        -0.97827E+08         0.00000E+00
    0.00000E+00         0.00000E+00        -0.39026E+08
 
   -0.38827E+08         0.16909E+07         0.00000E+00
    0.16909E+07        -0.97865E+08         0.00000E+00
    0.00000E+00         0.00000E+00        -0.38792E+08
 
   -0.38597E+08         0.16513E+07         0.00000E+00
    0.16513E+07        -0.97905E+08         0.00000E+00
    0.00000E+00         0.00000E+00        -0.38555E+08
 
   -0.38365E+08         0.16058E+07         0.00000E+00
    0.16058E+07        -0.97948E+08         0.00000E+00
    0.00000E+00         0.00000E+00        -0.38317E+08
 
   -0.38131E+08         0.15539E+07         0.00000E+00
    0.15539E+07        -0.97992E+08         0.00000E+00
    0.00000E+00         0.00000E+00        -0.38077E+08
 
   -0.37897E+08         0.14955E+07         0.00000E+00
    0.14955E+07        -0.98038E+08         0.00000E+00
    0.00000E+00         0.00000E+00        -0.37836E+08
 
   -0.37662E+08         0.14303E+07         0.00000E+00
    0.14303E+07        -0.98083E+08         0.00000E+00
    0.00000E+00         0.00000E+00        -0.37593E+08
 
   -0.37425E+08         0.13580E+07         0.00000E+00
    0.13580E+07        -0.98127E+08         0.00000E+00
    0.00000E+00         0.00000E+00        -0.37349E+08
 
   -0.37189E+08         0.12784E+07         0.00000E+00
    0.12784E+07        -0.98166E+08         0.00000E+00
    0.00000E+00         0.00000E+00        -0.37105E+08
 
   -0.36951E+08         0.11909E+07         0.00000E+00
    0.11909E+07        -0.98199E+08         0.00000E+00
    0.00000E+00         0.00000E+00        -0.36859E+08
 
   -0.36715E+08         0.10948E+07         0.00000E+00
    0.10948E+07        -0.98221E+08         0.00000E+00
    0.00000E+00         0.00000E+00        -0.36612E+08
 
   -0.36480E+08         0.98870E+06         0.00000E+00
    0.98870E+06        -0.98227E+08         0.00000E+00
    0.00000E+00         0.00000E+00        -0.36365E+08
 
   -0.36247E+08         0.87010E+06         0.00000E+00
    0.87010E+06        -0.98214E+08         0.00000E+00
    0.00000E+00         0.00000E+00        -0.36117E+08
 
   -0.36019E+08         0.73498E+06         0.00000E+00
    0.73498E+06        -0.98174E+08         0.00000E+00
    0.00000E+00         0.00000E+00        -0.35869E+08
 
   -0.35801E+08         0.57666E+06         0.00000E+00
    0.57666E+06        -0.98101E+08         0.00000E+00
    0.00000E+00         0.00000E+00        -0.35621E+08
 
   -0.35600E+08         0.38099E+06         0.00000E+00
    0.38099E+06        -0.97984E+08         0.00000E+00
    0.00000E+00         0.00000E+00        -0.35373E+08
 
   -0.35459E+08         0.13565E+06         0.00000E+00
    0.13565E+06        -0.97807E+08         0.00000E+00
    0.00000E+00         0.00000E+00        -0.35124E+08
 
   -0.49832E+08         0.36973E+05         0.00000E+00
    0.36973E+05        -0.97515E+08         0.00000E+00
    0.00000E+00         0.00000E+00        -0.49966E+08
 
   -0.49799E+08         0.10631E+06         0.00000E+00
    0.10631E+06        -0.97463E+08         0.00000E+00
    0.00000E+00         0.00000E+00        -0.49897E+08
 
   -0.49749E+08         0.16563E+06         0.00000E+00
    0.16563E+06        -0.97429E+08         0.00000E+00
    0.00000E+00         0.00000E+00        -0.49829E+08
 
   -0.49691E+08         0.21601E+06         0.00000E+00
    0.21601E+06        -0.97406E+08         0.00000E+00
    0.00000E+00         0.00000E+00        -0.49760E+08
 
   -0.49630E+08         0.26054E+06         0.00000E+00
    0.26054E+06        -0.97394E+08         0.00000E+00
    0.00000E+00         0.00000E+00        -0.49692E+08
 
   -0.49567E+08         0.30104E+06         0.00000E+00
    0.30104E+06        -0.97388E+08         0.00000E+00
    0.00000E+00         0.00000E+00        -0.49623E+08
 
   -0.49502E+08         0.33859E+06         0.00000E+00
    0.33859E+06        -0.97389E+08         0.00000E+00
    0.00000E+00         0.00000E+00        -0.49554E+08
 
   -0.49436E+08         0.37386E+06         0.00000E+00
    0.37386E+06        -0.97393E+08         0.00000E+00
    0.00000E+00         0.00000E+00        -0.49485E+08
 
   -0.49369E+08         0.40726E+06         0.00000E+00
    0.40726E+06        -0.97400E+08         0.00000E+00
    0.00000E+00         0.00000E+00        -0.49415E+08
 
   -0.49301E+08         0.43903E+06         0.00000E+00
    0.43903E+06        -0.97409E+08         0.00000E+00
    0.00000E+00         0.00000E+00        -0.49345E+08
 
   -0.49233E+08         0.46932E+06         0.00000E+00
    0.46932E+06        -0.97418E+08         0.00000E+00
    0.00000E+00         0.00000E+00        -0.49275E+08
 
   -0.49164E+08         0.49824E+06         0.00000E+00
    0.49824E+06        -0.97428E+08         0.00000E+00
    0.00000E+00         0.00000E+00        -0.49204E+08
 
   -0.49094E+08         0.52588E+06         0.00000E+00
    0.52588E+06        -0.97438E+08         0.00000E+00
    0.00000E+00         0.00000E+00        -0.49132E+08
 
   -0.49023E+08         0.55232E+06         0.00000E+00
    0.55232E+06        -0.97448E+08         0.00000E+00
    0.00000E+00         0.00000E+00        -0.49060E+08
 
   -0.48951E+08         0.57765E+06         0.00000E+00
    0.57765E+06        -0.97457E+08         0.00000E+00
    0.00000E+00         0.00000E+00        -0.48987E+08
 
   -0.48879E+08         0.60196E+06         0.00000E+00
    0.60196E+06        -0.97465E+08         0.00000E+00
    0.00000E+00         0.00000E+00        -0.48913E+08
 
   -0.48805E+08         0.62533E+06         0.00000E+00
    0.62533E+06        -0.97472E+08         0.00000E+00
    0.00000E+00         0.00000E+00        -0.48838E+08
 
   -0.48730E+08         0.64787E+06         0.00000E+00
    0.64787E+06        -0.97479E+08         0.00000E+00
    0.00000E+00         0.00000E+00        -0.48762E+08
 
   -0.48654E+08         0.66968E+06         0.00000E+00
    0.66968E+06        -0.97485E+08         0.00000E+00
    0.00000E+00         0.00000E+00        -0.48685E+08
 
   -0.48577E+08         0.69084E+06         0.00000E+00
    0.69084E+06        -0.97490E+08         0.00000E+00
    0.00000E+00         0.00000E+00        -0.48607E+08
 
   -0.48499E+08         0.71146E+06         0.00000E+00
    0.71146E+06        -0.97494E+08         0.00000E+00
    0.00000E+00         0.00000E+00        -0.48528E+08
 
   -0.48419E+08         0.73162E+06         0.00000E+00
    0.73162E+06        -0.97498E+08         0.00000E+00
    0.00000E+00         0.00000E+00        -0.48448E+08
 
   -0.48338E+08         0.75142E+06         0.00000E+00
    0.75142E+06        -0.97501E+08         0.00000E+00
    0.00000E+00         0.00000E+00        -0.48366E+08
 
   -0.48255E+08         0.77093E+06         0.00000E+00
    0.77093E+06        -0.97503E+08         0.00000E+00
    0.00000E+00         0.00000E+00        -0.48283E+08
 
   -0.48171E+08         0.79023E+06         0.00000E+00
    0.79023E+06        -0.97505E+08         0.00000E+00
    0.00000E+00         0.00000E+00        -0.48199E+08
 
   -0.48085E+08         0.80939E+06         0.00000E+00
    0.80939E+06        -0.97506E+08         0.00000E+00
    0.00000E+00         0.00000E+00        -0.48113E+08
 
   -0.47998E+08         0.82847E+06         0.00000E+00
    0.82847E+06        -0.97507E+08         0.00000E+00
    0.00000E+00         0.00000E+00        -0.48025E+08
 
   -0.47908E+08         0.84752E+06         0.00000E+00
    0.84752E+06        -0.97508E+08         0.00000E+00
    0.00000E+00         0.00000E+00        -0.47936E+08
 
   -0.47818E+08         0.86661E+06         0.00000E+00
    0.86661E+06        -0.97508E+08         0.00000E+00
    0.00000E+00         0.00000E+00        -0.47846E+08
 
   -0.47725E+08         0.88577E+06         0.00000E+00
    0.88577E+06        -0.97508E+08         0.00000E+00
    0.00000E+00         0.00000E+00        -0.47753E+08
 
   -0.47631E+08         0.90504E+06         0.00000E+00
    0.90504E+06        -0.97508E+08         0.00000E+00
    0.00000E+00         0.00000E+00        -0.47659E+08
 
   -0.47534E+08         0.92446E+06         0.00000E+00
    0.92446E+06        -0.97508E+08         0.00000E+00
    0.00000E+00         0.00000E+00        -0.47563E+08
 
   -0.47436E+08         0.94406E+06         0.00000E+00
    0.94406E+06        -0.97507E+08         0.00000E+00
    0.00000E+00         0.00000E+00        -0.47465E+08
 
   -0.47336E+08         0.96386E+06         0.00000E+00
    0.96386E+06        -0.97507E+08         0.00000E+00
    0.00000E+00         0.00000E+00        -0.47365E+08
 
   -0.47233E+08         0.98387E+06         0.00000E+00
    0.98387E+06        -0.97506E+08         0.00000E+00
    0.00000E+00         0.00000E+00        -0.47263E+08
 
   -0.47129E+08         0.10041E+07         0.00000E+00
    0.10041E+07        -0.97505E+08         0.00000E+00
    0.00000E+00         0.00000E+00        -0.47159E+08
 
   -0.47022E+08         0.10246E+07         0.00000E+00
    0.10246E+07        -0.97504E+08         0.00000E+00
    0.00000E+00         0.00000E+00        -0.47053E+08
 
   -0.46914E+08         0.10454E+07         0.00000E+00
    0.10454E+07        -0.97503E+08         0.00000E+00
    0.00000E+00         0.00000E+00        -0.46944E+08
 
   -0.46803E+08         0.10664E+07         0.00000E+00
    0.10664E+07        -0.97502E+08         0.00000E+00
    0.00000E+00         0.00000E+00        -0.46834E+08
 
   -0.46689E+08         0.10877E+07         0.00000E+00
    0.10877E+07        -0.97501E+08         0.00000E+00
    0.00000E+00         0.00000E+00        -0.46721E+08
 
   -0.46574E+08         0.11092E+07         0.00000E+00
    0.11092E+07        -0.97500E+08         0.00000E+00
    0.00000E+00         0.00000E+00        -0.46606E+08
 
   -0.46456E+08         0.11310E+07         0.00000E+00
    0.11310E+07        -0.97499E+08         0.00000E+00
    0.00000E+00         0.00000E+00        -0.46488E+08
 
   -0.46335E+08         0.11531E+07         0.00000E+00
    0.11531E+07        -0.97498E+08         0.00000E+00
    0.00000E+00         0.00000E+00        -0.46368E+08
 
   -0.46212E+08         0.11753E+07         0.00000E+00
    0.11753E+07        -0.97497E+08         0.00000E+00
    0.00000E+00         0.00000E+00        -0.46245E+08
 
   -0.46087E+08         0.11979E+07         0.00000E+00
    0.11979E+07        -0.97496E+08         0.00000E+00
    0.00000E+00         0.00000E+00        -0.46120E+08
 
   -0.45959E+08         0.12206E+07         0.00000E+00
    0.12206E+07        -0.97496E+08         0.00000E+00
    0.00000E+00         0.00000E+00        -0.45993E+08
 
   -0.45828E+08         0.12435E+07         0.00000E+00
    0.12435E+07        -0.97495E+08         0.00000E+00
    0.00000E+00         0.00000E+00        -0.45862E+08
 
   -0.45695E+08         0.12666E+07         0.00000E+00
    0.12666E+07        -0.97494E+08         0.00000E+00
    0.00000E+00         0.00000E+00        -0.45729E+08
 
   -0.45559E+08         0.12899E+07         0.00000E+00
    0.12899E+07        -0.97494E+08         0.00000E+00
    0.00000E+00         0.00000E+00        -0.45593E+08
 
   -0.45420E+08         0.13133E+07         0.00000E+00
    0.13133E+07        -0.97494E+08         0.00000E+00
    0.00000E+00         0.00000E+00        -0.45455E+08
 
   -0.45279E+08         0.13368E+07         0.00000E+00
    0.13368E+07        -0.97493E+08         0.00000E+00
    0.00000E+00         0.00000E+00        -0.45314E+08
 
   -0.45135E+08         0.13604E+07         0.00000E+00
    0.13604E+07        -0.97493E+08         0.00000E+00
    0.00000E+00         0.00000E+00        -0.45170E+08
 
   -0.44988E+08         0.13840E+07         0.00000E+00
    0.13840E+07        -0.97494E+08         0.00000E+00
    0.00000E+00         0.00000E+00        -0.45023E+08
 
   -0.44838E+08         0.14076E+07         0.00000E+00
    0.14076E+07        -0.97494E+08         0.00000E+00
    0.00000E+00         0.00000E+00        -0.44873E+08
 
   -0.44685E+08         0.14311E+07         0.00000E+00
    0.14311E+07        -0.97495E+08         0.00000E+00
    0.00000E+00         0.00000E+00        -0.44720E+08
 
   -0.44530E+08         0.14546E+07         0.00000E+00
    0.14546E+07        -0.97495E+08         0.00000E+00
    0.00000E+00         0.00000E+00        -0.44565E+08
 
   -0.44371E+08         0.14780E+07         0.00000E+00
    0.14780E+07        -0.97496E+08         0.00000E+00
    0.00000E+00         0.00000E+00        -0.44406E+08
 
   -0.44210E+08         0.15011E+07         0.00000E+00
    0.15011E+07        -0.97498E+08         0.00000E+00
    0.00000E+00         0.00000E+00        -0.44244E+08
 
   -0.44046E+08         0.15240E+07         0.00000E+00
    0.15240E+07        -0.97499E+08         0.00000E+00
    0.00000E+00         0.00000E+00        -0.44080E+08
 
   -0.43879E+08         0.15466E+07         0.00000E+00
    0.15466E+07        -0.97501E+08         0.00000E+00
    0.00000E+00         0.00000E+00        -0.43912E+08
 
   -0.43709E+08         0.15689E+07         0.00000E+00
    0.15689E+07        -0.97504E+08         0.00000E+00
    0.00000E+00         0.00000E+00        -0.43742E+08
 
   -0.43536E+08         0.15907E+07         0.00000E+00
    0.15907E+07        -0.97507E+08         0.00000E+00
    0.00000E+00         0.00000E+00        -0.43568E+08
 
   -0.43360E+08         0.16119E+07         0.00000E+00
    0.16119E+07        -0.97510E+08         0.00000E+00
    0.00000E+00         0.00000E+00        -0.43392E+08
 
   -0.43181E+08         0.16325E+07         0.00000E+00
    0.16325E+07        -0.97513E+08         0.00000E+00
    0.00000E+00         0.00000E+00        -0.43212E+08
 
   -0.43000E+08         0.16525E+07         0.00000E+00
    0.16525E+07        -0.97518E+08         0.00000E+00
    0.00000E+00         0.00000E+00        -0.43029E+08
 
   -0.42815E+08         0.16716E+07         0.00000E+00
    0.16716E+07        -0.97523E+08         0.00000E+00
    0.00000E+00         0.00000E+00        -0.42844E+08
 
   -0.42628E+08         0.16897E+07         0.00000E+00
    0.16897E+07        -0.97528E+08         0.00000E+00
    0.00000E+00         0.00000E+00        -0.42655E+08
 
   -0.42438E+08         0.17068E+07         0.00000E+00
    0.17068E+07        -0.97534E+08         0.00000E+00
    0.00000E+00         0.00000E+00        -0.42463E+08
 
   -0.42245E+08         0.17227E+07         0.00000E+00
    0.17227E+07        -0.97541E+08         0.00000E+00
    0.00000E+00         0.00000E+00        -0.42269E+08
 
   -0.42050E+08         0.17373E+07         0.00000E+00
    0.17373E+07        -0.97549E+08         0.00000E+00
    0.00000E+00         0.00000E+00        -0.42071E+08
 
   -0.41852E+08         0.17503E+07         0.00000E+00
    0.17503E+07        -0.97558E+08         0.00000E+00
    0.00000E+00         0.00000E+00        -0.41871E+08
 
   -0.41651E+08         0.17617E+07         0.00000E+00
    0.17617E+07        -0.97568E+08         0.00000E+00
    0.00000E+00         0.00000E+00        -0.41668E+08
 
   -0.41448E+08         0.17712E+07         0.00000E+00
    0.17712E+07        -0.97579E+08         0.00000E+00
    0.00000E+00         0.00000E+00        -0.41462E+08
 
   -0.41242E+08         0.17786E+07         0.00000E+00
    0.17786E+07        -0.97591E+08         0.00000E+00
    0.00000E+00         0.00000E+00        -0.41253E+08
 
   -0.41034E+08         0.17837E+07         0.00000E+00
    0.17837E+07        -0.97605E+08         0.00000E+00
    0.00000E+00         0.00000E+00        -0.41041E+08
 
   -0.40823E+08         0.17862E+07         0.00000E+00
    0.17862E+07        -0.97620E+08         0.00000E+00
    0.00000E+00         0.00000E+00        -0.40827E+08
 
   -0.40611E+08         0.17859E+07         0.00000E+00
    0.17859E+07        -0.97637E+08         0.00000E+00
    0.00000E+00         0.00000E+00        -0.40610E+08
 
   -0.40396E+08         0.17825E+07         0.00000E+00
    0.17825E+07        -0.97656E+08         0.00000E+00
    0.00000E+00         0.00000E+00        -0.40391E+08
 
   -0.40179E+08         0.17757E+07         0.00000E+00
    0.17757E+07        -0.97678E+08         0.00000E+00
    0.00000E+00         0.00000E+00        -0.40169E+08
 
   -0.39960E+08         0.17651E+07         0.00000E+00
    0.17651E+07        -0.97701E+08         0.00000E+00
    0.00000E+00         0.00000E+00        -0.39945E+08
 
   -0.39740E+08         0.17506E+07         0.00000E+00
    0.17506E+07        -0.97727E+08         0.00000E+00
    0.00000E+00         0.00000E+00        -0.39719E+08
 
   -0.39518E+08         0.17316E+07         0.00000E+00
    0.17316E+07        -0.97756E+08         0.00000E+00
    0.00000E+00         0.00000E+00        -0.39490E+08
 
   -0.39294E+08         0.17080E+07         0.00000E+00
    0.17080E+07        -0.97787E+08         0.00000E+00
    0.00000E+00         0.00000E+00        -0.39259E+08
 
   -0.39068E+08         0.16792E+07         0.00000E+00
    0.16792E+07        -0.97821E+08         0.00000E+00
    0.00000E+00         0.00000E+00        -0.39026E+08
 
   -0.38841E+08         0.16451E+07         0.00000E+00
    0.16451E+07        -0.97857E+08         0.00000E+00
    0.00000E+00         0.00000E+00        -0.38792E+08
 
   -0.38613E+08         0.16053E+07         0.00000E+00
    0.16053E+07        -0.97897E+08         0.00000E+00
    0.00000E+00         0.00000E+00        -0.38555E+08
 
   -0.38384E+08         0.15595E+07         0.00000E+00
    0.15595E+07        -0.97938E+08         0.00000E+00
    0.00000E+00         0.00000E+00        -0.38317E+08
 
   -0.38153E+08         0.15074E+07         0.00000E+00
    0.15074E+07        -0.97981E+08         0.00000E+00
    0.00000E+00         0.00000E+00        -0.38077E+08
 
   -0.37922E+08         0.14488E+07         0.00000E+00
    0.14488E+07        -0.98026E+08         0.00000E+00
    0.00000E+00         0.00000E+00        -0.37836E+08
 
   -0.37689E+08         0.13834E+07         0.00000E+00
    0.13834E+07        -0.98070E+08         0.00000E+00
    0.00000E+00         0.00000E+00        -0.37593E+08
 
   -0.37456E+08         0.13110E+07         0.00000E+00
    0.13110E+07        -0.98112E+08         0.00000E+00
    0.00000E+00         0.00000E+00        -0.37349E+08
 
   -0.37223E+08         0.12313E+07         0.00000E+00
    0.12313E+07        -0.98150E+08         0.00000E+00
    0.00000E+00         0.00000E+00        -0.37104E+08
 
   -0.36989E+08         0.11439E+07         0.00000E+00
    0.11439E+07        -0.98181E+08         0.00000E+00
    0.00000E+00         0.00000E+00        -0.36859E+08
 
   -0.36757E+08         0.10480E+07         0.00000E+00
    0.10480E+07        -0.98201E+08         0.00000E+00
    0.00000E+00         0.00000E+00        -0.36612E+08
 
   -0.36526E+08         0.94234E+06         0.00000E+00
    0.94234E+06        -0.98205E+08         0.00000E+00
    0.00000E+00         0.00000E+00        -0.36365E+08
 
   -0.36300E+08         0.82462E+06         0.00000E+00
    0.82462E+06        -0.98189E+08         0.00000E+00
    0.00000E+00         0.00000E+00        -0.36117E+08
 
   -0.36081E+08         0.69112E+06         0.00000E+00
    0.69112E+06        -0.98145E+08         0.00000E+00
    0.00000E+00         0.00000E+00        -0.35869E+08
 
   -0.35873E+08         0.53544E+06         0.00000E+00
    0.53544E+06        -0.98067E+08         0.00000E+00
    0.00000E+00         0.00000E+00        -0.35621E+08
 
   -0.35692E+08         0.34666E+06         0.00000E+00
    0.34666E+06        -0.97941E+08         0.00000E+00
    0.00000E+00         0.00000E+00        -0.35373E+08
 
   -0.35573E+08         0.12115E+06         0.00000E+00
    0.12115E+06        -0.97756E+08         0.00000E+00
    0.00000E+00         0.00000E+00        -0.35124E+08
 
   -0.49800E+08         0.33679E+05         0.00000E+00
    0.33679E+05        -0.97529E+08         0.00000E+00
    0.00000E+00         0.00000E+00        -0.49966E+08
 
   -0.49772E+08         0.98011E+05         0.00000E+00
    0.98011E+05        -0.97476E+08         0.00000E+00
    0.00000E+00         0.00000E+00        -0.49897E+08
 
   -0.49726E+08         0.15497E+06         0.00000E+00
    0.15497E+06        -0.97439E+08         0.00000E+00
    0.00000E+00         0.00000E+00        -0.49829E+08
 
   -0.49671E+08         0.20432E+06         0.00000E+00
    0.20432E+06        -0.97416E+08         0.00000E+00
    0.00000E+00         0.00000E+00        -0.49760E+08
 
   -0.49612E+08         0.24821E+06         0.00000E+00
    0.24821E+06        -0.97402E+08         0.00000E+00
    0.00000E+00         0.00000E+00        -0.49692E+08
 
   -0.49550E+08         0.28830E+06         0.00000E+00
    0.28830E+06        -0.97396E+08         0.00000E+00
    0.00000E+00         0.00000E+00        -0.49623E+08
 
   -0.49487E+08         0.32557E+06         0.00000E+00
    0.32557E+06        -0.97396E+08         0.00000E+00
    0.00000E+00         0.00000E+00        -0.49554E+08
 
   -0.49422E+08         0.36064E+06         0.00000E+00
    0.36064E+06        -0.97400E+08         0.00000E+00
    0.00000E+00         0.00000E+00        -0.49485E+08
 
   -0.49356E+08         0.39387E+06         0.00000E+00
    0.39387E+06        -0.97406E+08         0.00000E+00
    0.00000E+00         0.00000E+00        -0.49415E+08
 
   -0.49289E+08         0.42549E+06         0.00000E+00
    0.42549E+06        -0.97415E+08         0.00000E+00
    0.00000E+00         0.00000E+00        -0.49345E+08
 
   -0.49221E+08         0.45563E+06         0.00000E+00
    0.45563E+06        -0.97424E+08         0.00000E+00
    0.00000E+00         0.00000E+00        -0.49275E+08
 
   -0.49152E+08         0.48439E+06         0.00000E+00
    0.48439E+06        -0.97434E+08         0.00000E+00
    0.00000E+00         0.00000E+00        -0.49204E+08
 
   -0.49083E+08         0.51187E+06         0.00000E+00
    0.51187E+06        -0.97444E+08         0.00000E+00
    0.00000E+00         0.00000E+00        -0.49132E+08
 
   -0.49013E+08         0.53813E+06         0.00000E+00
    0.53813E+06        -0.97453E+08         0.00000E+00
    0.00000E+00         0.00000E+00        -0.49060E+08
 
   -0.48942E+08         0.56327E+06         0.00000E+00
    0.56327E+06        -0.97462E+08         0.00000E+00
    0.00000E+00         0.00000E+00        -0.48987E+08
 
   -0.48869E+08         0.58737E+06         0.00000E+00
    0.58737E+06        -0.97470E+08         0.00000E+00
    0.00000E+00         0.00000E+00        -0.48913E+08
 
   -0.48796E+08         0.61053E+06         0.00000E+00
    0.61053E+06        -0.97477E+08         0.00000E+00
    0.00000E+00         0.00000E+00        -0.48838E+08
 
   -0.48722E+08         0.63283E+06         0.00000E+00
    0.63283E+06        -0.97483E+08         0.00000E+00
    0.00000E+00         0.00000E+00        -0.48762E+08
 
   -0.48646E+08         0.65439E+06         0.00000E+00
    0.65439E+06        -0.97489E+08         0.00000E+00
    0.00000E+00         0.00000E+00        -0.48685E+08
 
   -0.48569E+08         0.67530E+06         0.00000E+00
    0.67530E+06        -0.97494E+08         0.00000E+00
    0.00000E+00         0.00000E+00        -0.48607E+08
 
   -0.48491E+08         0.69565E+06         0.00000E+00
    0.69565E+06        -0.97498E+08         0.00000E+00
    0.00000E+00         0.00000E+00        -0.48528E+08
 
   -0.48411E+08         0.71553E+06         0.00000E+00
    0.71553E+06        -0.97502E+08         0.00000E+00
    0.00000E+00         0.00000E+00        -0.48448E+08
 
   -0.48330E+08         0.73504E+06         0.00000E+00
    0.73504E+06        -0.97504E+08         0.00000E+00
    0.00000E+00         0.00000E+00        -0.48366E+08
 
   -0.48247E+08         0.75425E+06         0.00000E+00
    0.75425E+06        -0.97507E+08         0.00000E+00
    0.00000E+00         0.00000E+00        -0.48283E+08
 
   -0.48163E+08         0.77323E+06         0.00000E+00
    0.77323E+06        -0.97509E+08         0.00000E+00
    0.00000E+00         0.00000E+00        -0.48199E+08
 
   -0.48077E+08         0.79207E+06         0.00000E+00
    0.79207E+06        -0.97510E+08         0.00000E+00
    0.00000E+00         0.00000E+00        -0.48113E+08
 
   -0.47990E+08         0.81082E+06         0.00000E+00
    0.81082E+06        -0.97511E+08         0.00000E+00
    0.00000E+00         0.00000E+00        -0.48025E+08
 
   -0.47901E+08         0.82953E+06         0.00000E+00
    0.82953E+06        -0.97512E+08         0.00000E+00
    0.00000E+00         0.00000E+00        -0.47936E+08
 
   -0.47810E+08         0.84826E+06         0.00000E+00
    0.84826E+06        -0.97512E+08         0.00000E+00
    0.00000E+00         0.00000E+00        -0.47846E+08
 
   -0.47717E+08         0.86706E+06         0.00000E+00
    0.86706E+06        -0.97512E+08         0.00000E+00
    0.00000E+00         0.00000E+00        -0.47753E+08
 
   -0.47623E+08         0.88596E+06         0.00000E+00
    0.88596E+06        -0.97512E+08         0.00000E+00
    0.00000E+00         0.00000E+00        -0.47659E+08
 
   -0.47526E+08         0.90499E+06         0.00000E+00
    0.90499E+06        -0.97512E+08         0.00000E+00
    0.00000E+00         0.00000E+00        -0.47563E+08
 
   -0.47428E+08         0.92420E+06         0.00000E+00
    0.92420E+06        -0.97511E+08         0.00000E+00
    0.00000E+00         0.00000E+00        -0.47465E+08
 
   -0.47327E+08         0.94359E+06         0.00000E+00
    0.94359E+06        -0.97510E+08         0.00000E+00
    0.00000E+00         0.00000E+00        -0.47365E+08
 
   -0.47225E+08         0.96319E+06         0.00000E+00
    0.96319E+06        -0.97510E+08         0.00000E+00
    0.00000E+00         0.00000E+00        -0.47263E+08
 
   -0.47120E+08         0.98301E+06         0.00000E+00
    0.98301E+06        -0.97509E+08         0.00000E+00
    0.00000E+00         0.00000E+00        -0.47159E+08
 
   -0.47014E+08         0.10031E+07         0.00000E+00
    0.10031E+07        -0.97508E+08         0.00000E+00
    0.00000E+00         0.00000E+00        -0.47053E+08
 
   -0.46905E+08         0.10234E+07         0.00000E+00
    0.10234E+07        -0.97507E+08         0.00000E+00
    0.00000E+00         0.00000E+00        -0.46944E+08
 
   -0.46794E+08         0.10439E+07         0.00000E+00
    0.10439E+07        -0.97506E+08         0.00000E+00
    0.00000E+00         0.00000E+00        -0.46834E+08
 
   -0.46680E+08         0.10648E+07         0.00000E+00
    0.10648E+07        -0.97505E+08         0.00000E+00
    0.00000E+00         0.00000E+00        -0.46721E+08
 
   -0.46565E+08         0.10858E+07         0.00000E+00
    0.10858E+07        -0.97504E+08         0.00000E+00
    0.00000E+00         0.00000E+00        -0.46606E+08
 
   -0.46446E+08         0.11071E+07         0.00000E+00
    0.11071E+07        -0.97503E+08         0.00000E+00
    0.00000E+00         0.00000E+00        -0.46488E+08
 
   -0.46326E+08         0.11287E+07         0.00000E+00
    0.11287E+07        -0.97502E+08         0.00000E+00
    0.00000E+00         0.00000E+00        -0.46368E+08
 
   -0.46203E+08         0.11505E+07         0.00000E+00
    0.11505E+07        -0.97502E+08         0.00000E+00
    0.00000E+00         0.00000E+00        -0.46245E+08
 
   -0.46077E+08         0.11725E+07         0.00000E+00
    0.11725E+07        -0.97501E+08         0.00000E+00
    0.00000E+00         0.00000E+00        -0.46120E+08
 
   -0.45949E+08         0.11947E+07         0.00000E+00
    0.11947E+07        -0.97500E+08         0.00000E+00
    0.00000E+00         0.00000E+00        -0.45993E+08
 
   -0.45818E+08         0.12171E+07         0.00000E+00
    0.12171E+07        -0.97499E+08         0.00000E+00
    0.00000E+00         0.00000E+00        -0.45862E+08
 
   -0.45685E+08         0.12397E+07         0.00000E+00
    0.12397E+07        -0.97499E+08         0.00000E+00
    0.00000E+00         0.00000E+00        -0.45729E+08
 
   -0.45549E+08         0.12624E+07         0.00000E+00
    0.12624E+07        -0.97499E+08         0.00000E+00
    0.00000E+00         0.00000E+00        -0.45593E+08
 
   -0.45410E+08         0.12853E+07         0.00000E+00
    0.12853E+07        -0.97498E+08         0.00000E+00
    0.00000E+00         0.00000E+00        -0.45455E+08
 
   -0.45269E+08         0.13082E+07         0.00000E+00
    0.13082E+07        -0.97498E+08         0.00000E+00
    0.00000E+00         0.00000E+00        -0.45314E+08
 
   -0.45125E+08         0.13313E+07         0.00000E+00
    0.13313E+07        -0.97498E+08         0.00000E+00
    0.00000E+00         0.00000E+00        -0.45170E+08
 
   -0.44978E+08         0.13543E+07         0.00000E+00
    0.13543E+07        -0.97498E+08         0.00000E+00
    0.00000E+00         0.00000E+00        -0.45023E+08
 
   -0.44828E+08         0.13773E+07         0.00000E+00
    0.13773E+07        -0.97499E+08         0.00000E+00
    0.00000E+00         0.00000E+00        -0.44873E+08
 
   -0.44675E+08         0.14003E+07         0.00000E+00
    0.14003E+07        -0.97499E+08         0.00000E+00
    0.00000E+00         0.00000E+00        -0.44720E+08
 
   -0.44520E+08         0.14232E+07         0.00000E+00
    0.14232E+07        -0.97500E+08         0.00000E+00
    0.00000E+00         0.00000E+00        -0.44565E+08
 
   -0.44362E+08         0.14460E+07         0.00000E+00
    0.14460E+07        -0.97501E+08         0.00000E+00
    0.00000E+00         0.00000E+00        -0.44406E+08
 
   -0.44200E+08         0.14686E+07         0.00000E+00
    0.14686E+07        -0.97502E+08         0.00000E+00
    0.00000E+00         0.00000E+00        -0.44244E+08
 
   -0.44036E+08         0.14909E+07         0.00000E+00
    0.14909E+07        -0.97504E+08         0.00000E+00
    0.00000E+00         0.00000E+00        -0.44080E+08
 
   -0.43869E+08         0.15130E+07         0.00000E+00
    0.15130E+07        -0.97506E+08         0.00000E+00
    0.00000E+00         0.00000E+00        -0.43912E+08
 
   -0.43699E+08         0.15346E+07         0.00000E+00
    0.15346E+07        -0.97508E+08         0.00000E+00
    0.00000E+00         0.00000E+00        -0.43742E+08
 
   -0.43527E+08         0.15558E+07         0.00000E+00
    0.15558E+07        -0.97511E+08         0.00000E+00
    0.00000E+00         0.00000E+00        -0.43568E+08
 
   -0.43351E+08         0.15765E+07         0.00000E+00
    0.15765E+07        -0.97514E+08         0.00000E+00
    0.00000E+00         0.00000E+00        -0.43392E+08
 
   -0.43173E+08         0.15965E+07         0.00000E+00
    0.15965E+07        -0.97517E+08         0.00000E+00
    0.00000E+00         0.00000E+00        -0.43212E+08
 
   -0.42991E+08         0.16159E+07         0.00000E+00
    0.16159E+07        -0.97522E+08         0.00000E+00
    0.00000E+00         0.00000E+00        -0.43029E+08
 
   -0.42807E+08         0.16344E+07         0.00000E+00
    0.16344E+07        -0.97526E+08         0.00000E+00
    0.00000E+00         0.00000E+00        -0.42844E+08
 
   -0.42620E+08         0.16520E+07         0.00000E+00
    0.16520E+07        -0.97531E+08         0.00000E+00
    0.00000E+00         0.00000E+00        -0.42655E+08
 
   -0.42431E+08         0.16686E+07         0.00000E+00
    0.16686E+07        -0.97537E+08         0.00000E+00
    0.00000E+00         0.00000E+00        -0.42463E+08
 
   -0.42239E+08         0.16840E+07         0.00000E+00
    0.16840E+07        -0.97544E+08         0.00000E+00
    0.00000E+00         0.00000E+00        -0.42269E+08
 
   -0.42044E+08         0.16980E+07         0.00000E+00
    0.16980E+07        -0.97552E+08         0.00000E+00
    0.00000E+00         0.00000E+00        -0.42071E+08
 
   -0.41846E+08         0.17105E+07         0.00000E+00
    0.17105E+07        -0.97560E+08         0.00000E+00
    0.00000E+00         0.00000E+00        -0.41871E+08
 
   -0.41646E+08         0.17214E+07         0.00000E+00
    0.17214E+07        -0.97570E+08         0.00000E+00
    0.00000E+00         0.00000E+00        -0.41668E+08
 
   -0.41444E+08         0.17304E+07         0.00000E+00
    0.17304E+07        -0.97580E+08         0.00000E+00
    0.00000E+00         0.00000E+00        -0.41462E+08
 
   -0.41239E+08         0.17373E+07         0.00000E+00
    0.17373E+07        -0.97592E+08         0.00000E+00
    0.00000E+00         0.00000E+00        -0.41253E+08
 
   -0.41032E+08         0.17419E+07         0.00000E+00
    0.17419E+07        -0.97606E+08         0.00000E+00
    0.00000E+00         0.00000E+00        -0.41041E+08
 
   -0.40822E+08         0.17440E+07         0.00000E+00
    0.17440E+07        -0.97620E+08         0.00000E+00
    0.00000E+00         0.00000E+00        -0.40827E+08
 
   -0.40611E+08         0.17433E+07         0.00000E+00
    0.17433E+07        -0.97637E+08         0.00000E+00
    0.00000E+00         0.00000E+00        -0.40610E+08
 
   -0.40397E+08         0.17394E+07         0.00000E+00
    0.17394E+07        -0.97655E+08         0.00000E+00
    0.00000E+00         0.00000E+00        -0.40391E+08
 
   -0.40182E+08         0.17322E+07         0.00000E+00
    0.17322E+07        -0.97676E+08         0.00000E+00
    0.00000E+00         0.00000E+00        -0.40169E+08
 
   -0.39965E+08         0.17214E+07         0.00000E+00
    0.17214E+07        -0.97699E+08         0.00000E+00
    0.00000E+00         0.00000E+00        -0.39945E+08
 
   -0.39746E+08         0.17064E+07         0.00000E+00
    0.17064E+07        -0.97724E+08         0.00000E+00
    0.00000E+00         0.00000E+00        -0.39719E+08
 
   -0.39525E+08         0.16872E+07         0.00000E+00
    0.16872E+07        -0.97751E+08         0.00000E+00
    0.00000E+00         0.00000E+00        -0.39490E+08
 
   -0.39303E+08         0.16632E+07         0.00000E+00
    0.16632E+07        -0.97781E+08         0.00000E+00
    0.00000E+00         0.00000E+00        -0.39259E+08
 
   -0.39080E+08         0.16342E+07         0.00000E+00
    0.16342E+07        -0.97814E+08         0.00000E+00
    0.00000E+00         0.00000E+00        -0.39026E+08
 
   -0.38855E+08         0.15999E+07         0.00000E+00
    0.15999E+07        -0.97850E+08         0.00000E+00
    0.00000E+00         0.00000E+00        -0.38792E+08
 
   -0.38630E+08         0.15598E+07         0.00000E+00
    0.15598E+07        -0.97888E+08         0.00000E+00
    0.00000E+00         0.00000E+00        -0.38555E+08
 
   -0.38403E+08         0.15137E+07         0.00000E+00
    0.15137E+07        -0.97928E+08         0.00000E+00
    0.00000E+00         0.00000E+00        -0.38317E+08
 
   -0.38175E+08         0.14614E+07         0.00000E+00
    0.14614E+07        -0.97970E+08         0.00000E+00
    0.00000E+00         0.00000E+00        -0.38077E+08
 
   -0.37946E+08         0.14026E+07         0.00000E+00
    0.14026E+07        -0.98013E+08         0.00000E+00
    0.00000E+00         0.00000E+00        -0.37836E+08
 
   -0.37717E+08         0.13371E+07         0.00000E+00
    0.13371E+07        -0.98056E+08         0.00000E+00
    0.00000E+00         0.00000E+00        -0.37593E+08
 
   -0.37487E+08         0.12646E+07         0.00000E+00
    0.12646E+07        -0.98097E+08         0.00000E+00
    0.00000E+00         0.00000E+00        -0.37349E+08
 
   -0.37257E+08         0.11849E+07         0.00000E+00
    0.11849E+07        -0.98133E+08         0.00000E+00
    0.00000E+00         0.00000E+00        -0.37104E+08
 
   -0.37027E+08         0.10977E+07         0.00000E+00
    0.10977E+07        -0.98162E+08         0.00000E+00
    0.00000E+00         0.00000E+00        -0.36859E+08
 
   -0.36799E+08         0.10021E+07         0.00000E+00
    0.10021E+07        -0.98181E+08         0.00000E+00
    0.00000E+00         0.00000E+00        -0.36612E+08
 
   -0.36574E+08         0.89708E+06         0.00000E+00
    0.89708E+06        -0.98183E+08         0.00000E+00
    0.00000E+00         0.00000E+00        -0.36365E+08
 
   -0.36353E+08         0.78055E+06         0.00000E+00
    0.78055E+06        -0.98164E+08         0.00000E+00
    0.00000E+00         0.00000E+00        -0.36117E+08
 
   -0.36142E+08         0.64912E+06         0.00000E+00
    0.64912E+06        -0.98117E+08         0.00000E+00
    0.00000E+00         0.00000E+00        -0.35869E+08
 
   -0.35946E+08         0.49702E+06         0.00000E+00
    0.49702E+06        -0.98033E+08         0.00000E+00
    0.00000E+00         0.00000E+00        -0.35621E+08
 
   -0.35781E+08         0.31668E+06         0.00000E+00
    0.31668E+06        -0.97901E+08         0.00000E+00
    0.00000E+00         0.00000E+00        -0.35373E+08
 
   -0.35679E+08         0.10924E+06         0.00000E+00
    0.10924E+06        -0.97711E+08         0.00000E+00
    0.00000E+00         0.00000E+00        -0.35124E+08
 
   -0.49770E+08         0.30885E+05         0.00000E+00
    0.30885E+05        -0.97541E+08         0.00000E+00
    0.00000E+00         0.00000E+00        -0.49966E+08
 
   -0.49745E+08         0.90653E+05         0.00000E+00
    0.90653E+05        -0.97488E+08         0.00000E+00
    0.00000E+00         0.00000E+00        -0.49897E+08
 
   -0.49703E+08         0.14503E+06         0.00000E+00
    0.14503E+06        -0.97450E+08         0.00000E+00
    0.00000E+00         0.00000E+00        -0.49829E+08
 
   -0.49651E+08         0.19310E+06         0.00000E+00
    0.19310E+06        -0.97425E+08         0.00000E+00
    0.00000E+00         0.00000E+00        -0.49760E+08
 
   -0.49594E+08         0.23623E+06         0.00000E+00
    0.23623E+06        -0.97410E+08         0.00000E+00
    0.00000E+00         0.00000E+00        -0.49692E+08
 
   -0.49534E+08         0.27583E+06         0.00000E+00
    0.27583E+06        -0.97404E+08         0.00000E+00
    0.00000E+00         0.00000E+00        -0.49623E+08
 
   -0.49471E+08         0.31277E+06         0.00000E+00
    0.31277E+06        -0.97403E+08         0.00000E+00
    0.00000E+00         0.00000E+00        -0.49554E+08
 
   -0.49407E+08         0.34760E+06         0.00000E+00
    0.34760E+06        -0.97406E+08         0.00000E+00
    0.00000E+00         0.00000E+00        -0.49485E+08
 
   -0.49342E+08         0.38064E+06         0.00000E+00
    0.38064E+06        -0.97413E+08         0.00000E+00
    0.00000E+00         0.00000E+00        -0.49415E+08
 
   -0.49276E+08         0.41208E+06         0.00000E+00
    0.41208E+06        -0.97421E+08         0.00000E+00
    0.00000E+00         0.00000E+00        -0.49345E+08
 
   -0.49209E+08         0.44206E+06         0.00000E+00
    0.44206E+06        -0.97430E+08         0.00000E+00
    0.00000E+00         0.00000E+00        -0.49275E+08
 
   -0.49141E+08         0.47066E+06         0.00000E+00
    0.47066E+06        -0.97440E+08         0.00000E+00
    0.00000E+00         0.00000E+00        -0.49204E+08
 
   -0.49072E+08         0.49796E+06         0.00000E+00
    0.49796E+06        -0.97449E+08         0.00000E+00
    0.00000E+00         0.00000E+00        -0.49132E+08
 
   -0.49002E+08         0.52403E+06         0.00000E+00
    0.52403E+06        -0.97458E+08         0.00000E+00
    0.00000E+00         0.00000E+00        -0.49060E+08
 
   -0.48932E+08         0.54897E+06         0.00000E+00
    0.54897E+06        -0.97467E+08         0.00000E+00
    0.00000E+00         0.00000E+00        -0.48987E+08
 
   -0.48860E+08         0.57286E+06         0.00000E+00
    0.57286E+06        -0.97474E+08         0.00000E+00
    0.00000E+00         0.00000E+00        -0.48913E+08
 
   -0.48787E+08         0.59578E+06         0.00000E+00
    0.59578E+06        -0.97482E+08         0.00000E+00
    0.00000E+00         0.00000E+00        -0.48838E+08
 
   -0.48713E+08         0.61785E+06         0.00000E+00
    0.61785E+06        -0.97488E+08         0.00000E+00
    0.00000E+00         0.00000E+00        -0.48762E+08
 
   -0.48637E+08         0.63916E+06         0.00000E+00
    0.63916E+06        -0.97493E+08         0.00000E+00
    0.00000E+00         0.00000E+00        -0.48685E+08
 
   -0.48561E+08         0.65980E+06         0.00000E+00
    0.65980E+06        -0.97498E+08         0.00000E+00
    0.00000E+00         0.00000E+00        -0.48607E+08
 
   -0.48483E+08         0.67987E+06         0.00000E+00
    0.67987E+06        -0.97502E+08         0.00000E+00
    0.00000E+00         0.00000E+00        -0.48528E+08
 
   -0.48403E+08         0.69947E+06         0.00000E+00
    0.69947E+06        -0.97505E+08         0.00000E+00
    0.00000E+00         0.00000E+00        -0.48448E+08
 
   -0.48322E+08         0.71868E+06         0.00000E+00
    0.71868E+06        -0.97508E+08         0.00000E+00
    0.00000E+00         0.00000E+00        -0.48366E+08
 
   -0.48239E+08         0.73758E+06         0.00000E+00
    0.73758E+06        -0.97511E+08         0.00000E+00
    0.00000E+00         0.00000E+00        -0.48283E+08
 
   -0.48155E+08         0.75625E+06         0.00000E+00
    0.75625E+06        -0.97512E+08         0.00000E+00
    0.00000E+00         0.00000E+00        -0.48199E+08
 
   -0.48070E+08         0.77476E+06         0.00000E+00
    0.77476E+06        -0.97514E+08         0.00000E+00
    0.00000E+00         0.00000E+00        -0.48113E+08
 
   -0.47982E+08         0.79316E+06         0.00000E+00
    0.79316E+06        -0.97515E+08         0.00000E+00
    0.00000E+00         0.00000E+00        -0.48025E+08
 
   -0.47893E+08         0.81153E+06         0.00000E+00
    0.81153E+06        -0.97515E+08         0.00000E+00
    0.00000E+00         0.00000E+00        -0.47936E+08
 
   -0.47802E+08         0.82991E+06         0.00000E+00
    0.82991E+06        -0.97516E+08         0.00000E+00
    0.00000E+00         0.00000E+00        -0.47846E+08
 
   -0.47709E+08         0.84834E+06         0.00000E+00
    0.84834E+06        -0.97516E+08         0.00000E+00
    0.00000E+00         0.00000E+00        -0.47753E+08
 
   -0.47615E+08         0.86686E+06         0.00000E+00
    0.86686E+06        -0.97516E+08         0.00000E+00
    0.00000E+00         0.00000E+00        -0.47659E+08
 
   -0.47518E+08         0.88551E+06         0.00000E+00
    0.88551E+06        -0.97515E+08         0.00000E+00
    0.00000E+00         0.00000E+00        -0.47563E+08
 
   -0.47420E+08         0.90431E+06         0.00000E+00
    0.90431E+06        -0.97515E+08         0.00000E+00
    0.00000E+00         0.00000E+00        -0.47465E+08
 
   -0.47319E+08         0.92330E+06         0.00000E+00
    0.92330E+06        -0.97514E+08         0.00000E+00
    0.00000E+00         0.00000E+00        -0.47365E+08
 
   -0.47217E+08         0.94248E+06         0.00000E+00
    0.94248E+06        -0.97514E+08         0.00000E+00
    0.00000E+00         0.00000E+00        -0.47263E+08
 
   -0.47112E+08         0.96188E+06         0.00000E+00
    0.96188E+06        -0.97513E+08         0.00000E+00
    0.00000E+00         0.00000E+00        -0.47159E+08
 
   -0.47005E+08         0.98151E+06         0.00000E+00
    0.98151E+06        -0.97512E+08         0.00000E+00
    0.00000E+00         0.00000E+00        -0.47053E+08
 
   -0.46896E+08         0.10014E+07         0.00000E+00
    0.10014E+07        -0.97511E+08         0.00000E+00
    0.00000E+00         0.00000E+00        -0.46944E+08
 
   -0.46785E+08         0.10215E+07         0.00000E+00
    0.10215E+07        -0.97510E+08         0.00000E+00
    0.00000E+00         0.00000E+00        -0.46834E+08
 
   -0.46672E+08         0.10418E+07         0.00000E+00
    0.10418E+07        -0.97509E+08         0.00000E+00
    0.00000E+00         0.00000E+00        -0.46721E+08
 
   -0.46556E+08         0.10624E+07         0.00000E+00
    0.10624E+07        -0.97509E+08         0.00000E+00
    0.00000E+00         0.00000E+00        -0.46606E+08
 
   -0.46438E+08         0.10833E+07         0.00000E+00
    0.10833E+07        -0.97508E+08         0.00000E+00
    0.00000E+00         0.00000E+00        -0.46488E+08
 
   -0.46317E+08         0.11043E+07         0.00000E+00
    0.11043E+07        -0.97507E+08         0.00000E+00
    0.00000E+00         0.00000E+00        -0.46368E+08
 
   -0.46194E+08         0.11256E+07         0.00000E+00
    0.11256E+07        -0.97506E+08         0.00000E+00
    0.00000E+00         0.00000E+00        -0.46245E+08
 
   -0.46068E+08         0.11471E+07         0.00000E+00
    0.11471E+07        -0.97505E+08         0.00000E+00
    0.00000E+00         0.00000E+00        -0.46120E+08
 
   -0.45940E+08         0.11688E+07         0.00000E+00
    0.11688E+07        -0.97505E+08         0.00000E+00
    0.00000E+00         0.00000E+00        -0.45993E+08
 
   -0.45809E+08         0.11907E+07         0.00000E+00
    0.11907E+07        -0.97504E+08         0.00000E+00
    0.00000E+00         0.00000E+00        -0.45862E+08
 
   -0.45676E+08         0.12128E+07         0.00000E+00
    0.12128E+07        -0.97503E+08         0.00000E+00
    0.00000E+00         0.00000E+00        -0.45729E+08
 
   -0.45540E+08         0.12350E+07         0.00000E+00
    0.12350E+07        -0.97503E+08         0.00000E+00
    0.00000E+00         0.00000E+00        -0.45593E+08
 
   -0.45401E+08         0.12573E+07         0.00000E+00
    0.12573E+07        -0.97503E+08         0.00000E+00
    0.00000E+00         0.00000E+00        -0.45455E+08
 
   -0.45259E+08         0.12797E+07         0.00000E+00
    0.12797E+07        -0.97503E+08         0.00000E+00
    0.00000E+00         0.00000E+00        -0.45314E+08
 
   -0.45115E+08         0.13021E+07         0.00000E+00
    0.13021E+07        -0.97503E+08         0.00000E+00
    0.00000E+00         0.00000E+00        -0.45170E+08
 
   -0.44968E+08         0.13246E+07         0.00000E+00
    0.13246E+07        -0.97503E+08         0.00000E+00
    0.00000E+00         0.00000E+00        -0.45023E+08
 
   -0.44818E+08         0.13471E+07         0.00000E+00
    0.13471E+07        -0.97503E+08         0.00000E+00
    0.00000E+00         0.00000E+00        -0.44873E+08
 
   -0.44666E+08         0.13695E+07         0.00000E+00
    0.13695E+07        -0.97504E+08         0.00000E+00
    0.00000E+00         0.00000E+00        -0.44720E+08
 
   -0.44510E+08         0.13919E+07         0.00000E+00
    0.13919E+07        -0.97504E+08         0.00000E+00
    0.00000E+00         0.00000E+00        -0.44565E+08
 
   -0.44352E+08         0.14141E+07         0.00000E+00
    0.14141E+07        -0.97506E+08         0.00000E+00
    0.00000E+00         0.00000E+00        -0.44406E+08
 
   -0.44191E+08         0.14361E+07         0.00000E+00
    0.14361E+07        -0.97507E+08         0.00000E+00
    0.00000E+00         0.00000E+00        -0.44244E+08
 
   -0.44027E+08         0.14578E+07         0.00000E+00
    0.14578E+07        -0.97508E+08         0.00000E+00
    0.00000E+00         0.00000E+00        -0.44080E+08
 
   -0.43860E+08         0.14793E+07         0.00000E+00
    0.14793E+07        -0.97510E+08         0.00000E+00
    0.00000E+00         0.00000E+00        -0.43912E+08
 
   -0.43690E+08         0.15004E+07         0.00000E+00
    0.15004E+07        -0.97512E+08         0.00000E+00
    0.00000E+00         0.00000E+00        -0.43742E+08
 
   -0.43518E+08         0.15210E+07         0.00000E+00
    0.15210E+07        -0.97515E+08         0.00000E+00
    0.00000E+00         0.00000E+00        -0.43568E+08
 
   -0.43342E+08         0.15411E+07         0.00000E+00
    0.15411E+07        -0.97518E+08         0.00000E+00
    0.00000E+00         0.00000E+00        -0.43392E+08
 
   -0.43164E+08         0.15606E+07         0.00000E+00
    0.15606E+07        -0.97521E+08         0.00000E+00
    0.00000E+00         0.00000E+00        -0.43212E+08
 
   -0.42983E+08         0.15794E+07         0.00000E+00
    0.15794E+07        -0.97525E+08         0.00000E+00
    0.00000E+00         0.00000E+00        -0.43029E+08
 
   -0.42799E+08         0.15974E+07         0.00000E+00
    0.15974E+07        -0.97530E+08         0.00000E+00
    0.00000E+00         0.00000E+00        -0.42844E+08
 
   -0.42613E+08         0.16144E+07         0.00000E+00
    0.16144E+07        -0.97535E+08         0.00000E+00
    0.00000E+00         0.00000E+00        -0.42655E+08
 
   -0.42424E+08         0.16304E+07         0.00000E+00
    0.16304E+07        -0.97541E+08         0.00000E+00
    0.00000E+00         0.00000E+00        -0.42463E+08
 
   -0.42232E+08         0.16453E+07         0.00000E+00
    0.16453E+07        -0.97547E+08         0.00000E+00
    0.00000E+00         0.00000E+00        -0.42269E+08
 
   -0.42038E+08         0.16588E+07         0.00000E+00
    0.16588E+07        -0.97554E+08         0.00000E+00
    0.00000E+00         0.00000E+00        -0.42071E+08
 
   -0.41841E+08         0.16708E+07         0.00000E+00
    0.16708E+07        -0.97562E+08         0.00000E+00
    0.00000E+00         0.00000E+00        -0.41871E+08
 
   -0.41641E+08         0.16812E+07         0.00000E+00
    0.16812E+07        -0.97572E+08         0.00000E+00
    0.00000E+00         0.00000E+00        -0.41668E+08
 
   -0.41440E+08         0.16897E+07         0.00000E+00
    0.16897E+07        -0.97582E+08         0.00000E+00
    0.00000E+00         0.00000E+00        -0.41462E+08
 
   -0.41236E+08         0.16962E+07         0.00000E+00
    0.16962E+07        -0.97593E+08         0.00000E+00
    0.00000E+00         0.00000E+00        -0.41253E+08
 
   -0.41029E+08         0.17004E+07         0.00000E+00
    0.17004E+07        -0.97606E+08         0.00000E+00
    0.00000E+00         0.00000E+00        -0.41041E+08
 
   -0.40821E+08         0.17020E+07         0.00000E+00
    0.17020E+07        -0.97621E+08         0.00000E+00
    0.00000E+00         0.00000E+00        -0.40827E+08
 
   -0.40611E+08         0.17009E+07         0.00000E+00
    0.17009E+07        -0.97637E+08         0.00000E+00
    0.00000E+00         0.00000E+00        -0.40610E+08
 
   -0.40399E+08         0.16967E+07         0.00000E+00
    0.16967E+07        -0.97654E+08         0.00000E+00
    0.00000E+00         0.00000E+00        -0.40391E+08
 
   -0.40185E+08         0.16891E+07         0.00000E+00
    0.16891E+07        -0.97674E+08         0.00000E+00
    0.00000E+00         0.00000E+00        -0.40169E+08
 
   -0.39969E+08         0.16779E+07         0.00000E+00
    0.16779E+07        -0.97696E+08         0.00000E+00
    0.00000E+00         0.00000E+00        -0.39945E+08
 
   -0.39752E+08         0.16627E+07         0.00000E+00
    0.16627E+07        -0.97720E+08         0.00000E+00
    0.00000E+00         0.00000E+00        -0.39719E+08
 
   -0.39533E+08         0.16431E+07         0.00000E+00
    0.16431E+07        -0.97747E+08         0.00000E+00
    0.00000E+00         0.00000E+00        -0.39490E+08
 
   -0.39313E+08         0.16189E+07         0.00000E+00
    0.16189E+07        -0.97776E+08         0.00000E+00
    0.00000E+00         0.00000E+00        -0.39259E+08
 
   -0.39092E+08         0.15896E+07         0.00000E+00
    0.15896E+07        -0.97808E+08         0.00000E+00
    0.00000E+00         0.00000E+00        -0.39026E+08
 
   -0.38869E+08         0.15550E+07         0.00000E+00
    0.15550E+07        -0.97842E+08         0.00000E+00
    0.00000E+00         0.00000E+00        -0.38792E+08
 
   -0.38646E+08         0.15148E+07         0.00000E+00
    0.15148E+07        -0.97879E+08         0.00000E+00
    0.00000E+00         0.00000E+00        -0.38555E+08
 
   -0.38422E+08         0.14685E+07         0.00000E+00
    0.14685E+07        -0.97918E+08         0.00000E+00
    0.00000E+00         0.00000E+00        -0.38317E+08
 
   -0.38197E+08         0.14160E+07         0.00000E+00
    0.14160E+07        -0.97959E+08         0.00000E+00
    0.00000E+00         0.00000E+00        -0.38077E+08
 
   -0.37971E+08         0.13571E+07         0.00000E+00
    0.13571E+07        -0.98001E+08         0.00000E+00
    0.00000E+00         0.00000E+00        -0.37836E+08
 
   -0.37744E+08         0.12915E+07         0.00000E+00
    0.12915E+07        -0.98042E+08         0.00000E+00
    0.00000E+00         0.00000E+00        -0.37593E+08
 
   -0.37518E+08         0.12189E+07         0.00000E+00
    0.12189E+07        -0.98081E+08         0.00000E+00
    0.00000E+00         0.00000E+00        -0.37349E+08
 
   -0.37291E+08         0.11393E+07         0.00000E+00
    0.11393E+07        -0.98116E+08         0.00000E+00
    0.00000E+00         0.00000E+00        -0.37104E+08
 
   -0.37066E+08         0.10522E+07         0.00000E+00
    0.10522E+07        -0.98144E+08         0.00000E+00
    0.00000E+00         0.00000E+00        -0.36859E+08
 
   -0.36842E+08         0.95710E+06         0.00000E+00
    0.95710E+06        -0.98161E+08         0.00000E+00
    0.00000E+00         0.00000E+00        -0.36612E+08
 
   -0.36621E+08         0.85292E+06         0.00000E+00
    0.85292E+06        -0.98161E+08         0.00000E+00
    0.00000E+00         0.00000E+00        -0.36365E+08
 
   -0.36407E+08         0.73787E+06         0.00000E+00
    0.73787E+06        -0.98140E+08         0.00000E+00
    0.00000E+00         0.00000E+00        -0.36117E+08
 
   -0.36204E+08         0.60894E+06         0.00000E+00
    0.60894E+06        -0.98089E+08         0.00000E+00
    0.00000E+00         0.00000E+00        -0.35869E+08
 
   -0.36019E+08         0.46127E+06         0.00000E+00
    0.46127E+06        -0.98001E+08         0.00000E+00
    0.00000E+00         0.00000E+00        -0.35621E+08
 
   -0.35868E+08         0.29015E+06         0.00000E+00
    0.29015E+06        -0.97863E+08         0.00000E+00
    0.00000E+00         0.00000E+00        -0.35373E+08
 
   -0.35779E+08         0.99152E+05         0.00000E+00
    0.99152E+05        -0.97669E+08         0.00000E+00
    0.00000E+00         0.00000E+00        -0.35124E+08
 
   -0.49741E+08         0.28455E+05         0.00000E+00
    0.28455E+05        -0.97553E+08         0.00000E+00
    0.00000E+00         0.00000E+00        -0.49966E+08
 
   -0.49719E+08         0.84048E+05         0.00000E+00
    0.84048E+05        -0.97499E+08         0.00000E+00
    0.00000E+00         0.00000E+00        -0.49897E+08
 
   -0.49680E+08         0.13574E+06         0.00000E+00
    0.13574E+06        -0.97460E+08         0.00000E+00
    0.00000E+00         0.00000E+00        -0.49829E+08
 
   -0.49631E+08         0.18235E+06         0.00000E+00
    0.18235E+06        -0.97434E+08         0.00000E+00
    0.00000E+00         0.00000E+00        -0.49760E+08
 
   -0.49576E+08         0.22461E+06         0.00000E+00
    0.22461E+06        -0.97419E+08         0.00000E+00
    0.00000E+00         0.00000E+00        -0.49692E+08
 
   -0.49518E+08         0.26364E+06         0.00000E+00
    0.26364E+06        -0.97411E+08         0.00000E+00
    0.00000E+00         0.00000E+00        -0.49623E+08
 
   -0.49456E+08         0.30019E+06         0.00000E+00
    0.30019E+06        -0.97410E+08         0.00000E+00
    0.00000E+00         0.00000E+00        -0.49554E+08
 
   -0.49393E+08         0.33474E+06         0.00000E+00
    0.33474E+06        -0.97413E+08         0.00000E+00
    0.00000E+00         0.00000E+00        -0.49485E+08
 
   -0.49329E+08         0.36757E+06         0.00000E+00
    0.36757E+06        -0.97419E+08         0.00000E+00
    0.00000E+00         0.00000E+00        -0.49415E+08
 
   -0.49263E+08         0.39882E+06         0.00000E+00
    0.39882E+06        -0.97427E+08         0.00000E+00
    0.00000E+00         0.00000E+00        -0.49345E+08
 
   -0.49197E+08         0.42862E+06         0.00000E+00
    0.42862E+06        -0.97436E+08         0.00000E+00
    0.00000E+00         0.00000E+00        -0.49275E+08
 
   -0.49130E+08         0.45704E+06         0.00000E+00
    0.45704E+06        -0.97445E+08         0.00000E+00
    0.00000E+00         0.00000E+00        -0.49204E+08
 
   -0.49061E+08         0.48415E+06         0.00000E+00
    0.48415E+06        -0.97454E+08         0.00000E+00
    0.00000E+00         0.00000E+00        -0.49132E+08
 
   -0.48992E+08         0.51003E+06         0.00000E+00
    0.51003E+06        -0.97463E+08         0.00000E+00
    0.00000E+00         0.00000E+00        -0.49060E+08
 
   -0.48922E+08         0.53476E+06         0.00000E+00
    0.53476E+06        -0.97471E+08         0.00000E+00
    0.00000E+00         0.00000E+00        -0.48987E+08
 
   -0.48851E+08         0.55842E+06         0.00000E+00
    0.55842E+06        -0.97479E+08         0.00000E+00
    0.00000E+00         0.00000E+00        -0.48913E+08
 
   -0.48778E+08         0.58111E+06         0.00000E+00
    0.58111E+06        -0.97486E+08         0.00000E+00
    0.00000E+00         0.00000E+00        -0.48838E+08
 
   -0.48704E+08         0.60293E+06         0.00000E+00
    0.60293E+06        -0.97492E+08         0.00000E+00
    0.00000E+00         0.00000E+00        -0.48762E+08
 
   -0.48629E+08         0.62397E+06         0.00000E+00
    0.62397E+06        -0.97497E+08         0.00000E+00
    0.00000E+00         0.00000E+00        -0.48685E+08
 
   -0.48552E+08         0.64434E+06         0.00000E+00
    0.64434E+06        -0.97502E+08         0.00000E+00
    0.00000E+00         0.00000E+00        -0.48607E+08
 
   -0.48475E+08         0.66413E+06         0.00000E+00
    0.66413E+06        -0.97506E+08         0.00000E+00
    0.00000E+00         0.00000E+00        -0.48528E+08
 
   -0.48395E+08         0.68343E+06         0.00000E+00
    0.68343E+06        -0.97509E+08         0.00000E+00
    0.00000E+00         0.00000E+00        -0.48448E+08
 
   -0.48314E+08         0.70234E+06         0.00000E+00
    0.70234E+06        -0.97512E+08         0.00000E+00
    0.00000E+00         0.00000E+00        -0.48366E+08
 
   -0.48232E+08         0.72092E+06         0.00000E+00
    0.72092E+06        -0.97514E+08         0.00000E+00
    0.00000E+00         0.00000E+00        -0.48283E+08
 
   -0.48148E+08         0.73927E+06         0.00000E+00
    0.73927E+06        -0.97516E+08         0.00000E+00
    0.00000E+00         0.00000E+00        -0.48199E+08
 
   -0.48062E+08         0.75744E+06         0.00000E+00
    0.75744E+06        -0.97517E+08         0.00000E+00
    0.00000E+00         0.00000E+00        -0.48113E+08
 
   -0.47975E+08         0.77551E+06         0.00000E+00
    0.77551E+06        -0.97518E+08         0.00000E+00
    0.00000E+00         0.00000E+00        -0.48025E+08
 
   -0.47885E+08         0.79353E+06         0.00000E+00
    0.79353E+06        -0.97519E+08         0.00000E+00
    0.00000E+00         0.00000E+00        -0.47936E+08
 
   -0.47794E+08         0.81154E+06         0.00000E+00
    0.81154E+06        -0.97519E+08         0.00000E+00
    0.00000E+00         0.00000E+00        -0.47846E+08
 
   -0.47702E+08         0.82960E+06         0.00000E+00
    0.82960E+06        -0.97519E+08         0.00000E+00
    0.00000E+00         0.00000E+00        -0.47753E+08
 
   -0.47607E+08         0.84774E+06         0.00000E+00
    0.84774E+06        -0.97519E+08         0.00000E+00
    0.00000E+00         0.00000E+00        -0.47659E+08
 
   -0.47510E+08         0.86601E+06         0.00000E+00
    0.86601E+06        -0.97519E+08         0.00000E+00
    0.00000E+00         0.00000E+00        -0.47563E+08
 
   -0.47412E+08         0.88441E+06         0.00000E+00
    0.88441E+06        -0.97519E+08         0.00000E+00
    0.00000E+00         0.00000E+00        -0.47465E+08
 
   -0.47311E+08         0.90299E+06         0.00000E+00
    0.90299E+06        -0.97518E+08         0.00000E+00
    0.00000E+00         0.00000E+00        -0.47365E+08
 
   -0.47209E+08         0.92176E+06         0.00000E+00
    0.92176E+06        -0.97517E+08         0.00000E+00
    0.00000E+00         0.00000E+00        -0.47263E+08
 
   -0.47104E+08         0.94073E+06         0.00000E+00
    0.94073E+06        -0.97517E+08         0.00000E+00
    0.00000E+00         0.00000E+00        -0.47159E+08
 
   -0.46997E+08         0.95992E+06         0.00000E+00
    0.95992E+06        -0.97516E+08         0.00000E+00
    0.00000E+00         0.00000E+00        -0.47053E+08
 
   -0.46888E+08         0.97934E+06         0.00000E+00
    0.97934E+06        -0.97515E+08         0.00000E+00
    0.00000E+00         0.00000E+00        -0.46944E+08
 
   -0.46777E+08         0.99900E+06         0.00000E+00
    0.99900E+06        -0.97514E+08         0.00000E+00
    0.00000E+00         0.00000E+00        -0.46834E+08
 
   -0.46663E+08         0.10189E+07         0.00000E+00
    0.10189E+07        -0.97513E+08         0.00000E+00
    0.00000E+00         0.00000E+00        -0.46721E+08
 
   -0.46547E+08         0.10390E+07         0.00000E+00
    0.10390E+07        -0.97513E+08         0.00000E+00
    0.00000E+00         0.00000E+00        -0.46606E+08
 
   -0.46429E+08         0.10594E+07         0.00000E+00
    0.10594E+07        -0.97512E+08         0.00000E+00
    0.00000E+00         0.00000E+00        -0.46488E+08
 
   -0.46308E+08         0.10799E+07         0.00000E+00
    0.10799E+07        -0.97511E+08         0.00000E+00
    0.00000E+00         0.00000E+00        -0.46368E+08
 
   -0.46185E+08         0.11007E+07         0.00000E+00
    0.11007E+07        -0.97510E+08         0.00000E+00
    0.00000E+00         0.00000E+00        -0.46245E+08
 
   -0.46059E+08         0.11217E+07         0.00000E+00
    0.11217E+07        -0.97509E+08         0.00000E+00
    0.00000E+00         0.00000E+00        -0.46120E+08
 
   -0.45931E+08         0.11429E+07         0.00000E+00
    0.11429E+07        -0.97509E+08         0.00000E+00
    0.00000E+00         0.00000E+00        -0.45993E+08
 
   -0.45800E+08         0.11643E+07         0.00000E+00
    0.11643E+07        -0.97508E+08         0.00000E+00
    0.00000E+00         0.00000E+00        -0.45862E+08
 
   -0.45666E+08         0.11858E+07         0.00000E+00
    0.11858E+07        -0.97508E+08         0.00000E+00
    0.00000E+00         0.00000E+00        -0.45729E+08
 
   -0.45530E+08         0.12075E+07         0.00000E+00
    0.12075E+07        -0.97507E+08         0.00000E+00
    0.00000E+00         0.00000E+00        -0.45594E+08
 
   -0.45391E+08         0.12292E+07         0.00000E+00
    0.12292E+07        -0.97507E+08         0.00000E+00
    0.00000E+00         0.00000E+00        -0.45455E+08
 
   -0.45250E+08         0.12511E+07         0.00000E+00
    0.12511E+07        -0.97507E+08         0.00000E+00
    0.00000E+00         0.00000E+00        -0.45314E+08
 
   -0.45105E+08         0.12730E+07         0.00000E+00
    0.12730E+07        -0.97507E+08         0.00000E+00
    0.00000E+00         0.00000E+00        -0.45170E+08
 
   -0.44958E+08         0.12949E+07         0.00000E+00
    0.12949E+07        -0.97507E+08         0.00000E+00
    0.00000E+00         0.00000E+00        -0.45023E+08
 
   -0.44809E+08         0.13169E+07         0.00000E+00
    0.13169E+07        -0.97508E+08         0.00000E+00
    0.00000E+00         0.00000E+00        -0.44873E+08
 
   -0.44656E+08         0.13387E+07         0.00000E+00
    0.13387E+07        -0.97508E+08         0.00000E+00
    0.00000E+00         0.00000E+00        -0.44720E+08
 
   -0.44501E+08         0.13605E+07         0.00000E+00
    0.13605E+07        -0.97509E+08         0.00000E+00
    0.00000E+00         0.00000E+00        -0.44565E+08
 
   -0.44342E+08         0.13821E+07         0.00000E+00
    0.13821E+07        -0.97510E+08         0.00000E+00
    0.00000E+00         0.00000E+00        -0.44406E+08
 
   -0.44181E+08         0.14036E+07         0.00000E+00
    0.14036E+07        -0.97511E+08         0.00000E+00
    0.00000E+00         0.00000E+00        -0.44244E+08
 
   -0.44017E+08         0.14248E+07         0.00000E+00
    0.14248E+07        -0.97513E+08         0.00000E+00
    0.00000E+00         0.00000E+00        -0.44080E+08
 
   -0.43851E+08         0.14456E+07         0.00000E+00
    0.14456E+07        -0.97514E+08         0.00000E+00
    0.00000E+00         0.00000E+00        -0.43912E+08
 
   -0.43681E+08         0.14662E+07         0.00000E+00
    0.14662E+07        -0.97517E+08         0.00000E+00
    0.00000E+00         0.00000E+00        -0.43742E+08
 
   -0.43509E+08         0.14862E+07         0.00000E+00
    0.14862E+07        -0.97519E+08         0.00000E+00
    0.00000E+00         0.00000E+00        -0.43568E+08
 
   -0.43334E+08         0.15058E+07         0.00000E+00
    0.15058E+07        -0.97522E+08         0.00000E+00
    0.00000E+00         0.00000E+00        -0.43392E+08
 
   -0.43156E+08         0.15247E+07         0.00000E+00
    0.15247E+07        -0.97525E+08         0.00000E+00
    0.00000E+00         0.00000E+00        -0.43212E+08
 
   -0.42975E+08         0.15429E+07         0.00000E+00
    0.15429E+07        -0.97529E+08         0.00000E+00
    0.00000E+00         0.00000E+00        -0.43029E+08
 
   -0.42792E+08         0.15604E+07         0.00000E+00
    0.15604E+07        -0.97533E+08         0.00000E+00
    0.00000E+00         0.00000E+00        -0.42844E+08
 
   -0.42606E+08         0.15769E+07         0.00000E+00
    0.15769E+07        -0.97538E+08         0.00000E+00
    0.00000E+00         0.00000E+00        -0.42655E+08
 
   -0.42417E+08         0.15924E+07         0.00000E+00
    0.15924E+07        -0.97544E+08         0.00000E+00
    0.00000E+00         0.00000E+00        -0.42463E+08
 
   -0.42226E+08         0.16067E+07         0.00000E+00
    0.16067E+07        -0.97550E+08         0.00000E+00
    0.00000E+00         0.00000E+00        -0.42269E+08
 
   -0.42032E+08         0.16197E+07         0.00000E+00
    0.16197E+07        -0.97557E+08         0.00000E+00
    0.00000E+00         0.00000E+00        -0.42071E+08
 
   -0.41835E+08         0.16313E+07         0.00000E+00
    0.16313E+07        -0.97565E+08         0.00000E+00
    0.00000E+00         0.00000E+00        -0.41871E+08
 
   -0.41637E+08         0.16412E+07         0.00000E+00
    0.16412E+07        -0.97573E+08         0.00000E+00
    0.00000E+00         0.00000E+00        -0.41668E+08
 
   -0.41436E+08         0.16492E+07         0.00000E+00
    0.16492E+07        -0.97583E+08         0.00000E+00
    0.00000E+00         0.00000E+00        -0.41462E+08
 
   -0.41233E+08         0.16552E+07         0.00000E+00
    0.16552E+07        -0.97594E+08         0.00000E+00
    0.00000E+00         0.00000E+00        -0.41253E+08
 
   -0.41027E+08         0.16590E+07         0.00000E+00
    0.16590E+07        -0.97607E+08         0.00000E+00
    0.00000E+00         0.00000E+00        -0.41041E+08
 
   -0.40820E+08         0.16602E+07         0.00000E+00
    0.16602E+07        -0.97621E+08         0.00000E+00
    0.00000E+00         0.00000E+00        -0.40827E+08
 
   -0.40611E+08         0.16587E+07         0.00000E+00
    0.16587E+07        -0.97636E+08         0.00000E+00
    0.00000E+00         0.00000E+00        -0.40610E+08
 
   -0.40400E+08         0.16542E+07         0.00000E+00
    0.16542E+07        -0.97653E+08         0.00000E+00
    0.00000E+00         0.00000E+00        -0.40391E+08
 
   -0.40187E+08         0.16463E+07         0.00000E+00
    0.16463E+07        -0.97672E+08         0.00000E+00
    0.00000E+00         0.00000E+00        -0.40169E+08
 
   -0.39973E+08         0.16348E+07         0.00000E+00
    0.16348E+07        -0.97693E+08         0.00000E+00
    0.00000E+00         0.00000E+00        -0.39945E+08
 
   -0.39758E+08         0.16193E+07         0.00000E+00
    0.16193E+07        -0.97717E+08         0.00000E+00
    0.00000E+00         0.00000E+00        -0.39719E+08
 
   -0.39541E+08         0.15994E+07         0.00000E+00
    0.15994E+07        -0.97743E+08         0.00000E+00
    0.00000E+00         0.00000E+00        -0.39490E+08
 
   -0.39323E+08         0.15750E+07         0.00000E+00
    0.15750E+07        -0.97771E+08         0.00000E+00
    0.00000E+00         0.00000E+00        -0.39259E+08
 
   -0.39103E+08         0.15455E+07         0.00000E+00
    0.15455E+07        -0.97802E+08         0.00000E+00
    0.00000E+00         0.00000E+00        -0.39026E+08
 
   -0.38883E+08         0.15107E+07         0.00000E+00
    0.15107E+07        -0.97835E+08         0.00000E+00
    0.00000E+00         0.00000E+00        -0.38792E+08
 
   -0.38662E+08         0.14702E+07         0.00000E+00
    0.14702E+07        -0.97871E+08         0.00000E+00
    0.00000E+00         0.00000E+00        -0.38555E+08
 
   -0.38441E+08         0.14238E+07         0.00000E+00
    0.14238E+07        -0.97909E+08         0.00000E+00
    0.00000E+00         0.00000E+00        -0.38317E+08
 
   -0.38218E+08         0.13712E+07         0.00000E+00
    0.13712E+07        -0.97948E+08         0.00000E+00
    0.00000E+00         0.00000E+00        -0.38077E+08
 
   -0.37995E+08         0.13122E+07         0.00000E+00
    0.13122E+07        -0.97988E+08         0.00000E+00
    0.00000E+00         0.00000E+00        -0.37836E+08
 
   -0.37772E+08         0.12464E+07         0.00000E+00
    0.12464E+07        -0.98028E+08         0.00000E+00
    0.00000E+00         0.00000E+00        -0.37593E+08
 
   -0.37549E+08         0.11739E+07         0.00000E+00
    0.11739E+07        -0.98066E+08         0.00000E+00
    0.00000E+00         0.00000E+00        -0.37349E+08
 
   -0.37326E+08         0.10944E+07         0.00000E+00
    0.10944E+07        -0.98100E+08         0.00000E+00
    0.00000E+00         0.00000E+00        -0.37104E+08
 
   -0.37104E+08         0.10076E+07         0.00000E+00
    0.10076E+07        -0.98126E+08         0.00000E+00
    0.00000E+00         0.00000E+00        -0.36859E+08
 
   -0.36885E+08         0.91303E+06         0.00000E+00
    0.91303E+06        -0.98141E+08         0.00000E+00
    0.00000E+00         0.00000E+00        -0.36612E+08
 
   -0.36669E+08         0.80987E+06         0.00000E+00
    0.80987E+06        -0.98139E+08         0.00000E+00
    0.00000E+00         0.00000E+00        -0.36365E+08
 
   -0.36462E+08         0.69657E+06         0.00000E+00
    0.69657E+06        -0.98116E+08         0.00000E+00
    0.00000E+00         0.00000E+00        -0.36117E+08
 
   -0.36266E+08         0.57054E+06         0.00000E+00
    0.57054E+06        -0.98062E+08         0.00000E+00
    0.00000E+00         0.00000E+00        -0.35869E+08
 
   -0.36091E+08         0.42797E+06         0.00000E+00
    0.42797E+06        -0.97970E+08         0.00000E+00
    0.00000E+00         0.00000E+00        -0.35621E+08
 
   -0.35952E+08         0.26639E+06         0.00000E+00
    0.26639E+06        -0.97828E+08         0.00000E+00
    0.00000E+00         0.00000E+00        -0.35373E+08
 
   -0.35873E+08         0.90399E+05         0.00000E+00
    0.90399E+05        -0.97631E+08         0.00000E+00
    0.00000E+00         0.00000E+00        -0.35124E+08
 
   -0.49713E+08         0.26299E+05         0.00000E+00
    0.26299E+05        -0.97564E+08         0.00000E+00
    0.00000E+00         0.00000E+00        -0.49966E+08
 
   -0.49693E+08         0.78053E+05         0.00000E+00
    0.78053E+05        -0.97510E+08         0.00000E+00
    0.00000E+00         0.00000E+00        -0.49897E+08
 
   -0.49658E+08         0.12705E+06         0.00000E+00
    0.12705E+06        -0.97469E+08         0.00000E+00
    0.00000E+00         0.00000E+00        -0.49829E+08
 
   -0.49611E+08         0.17205E+06         0.00000E+00
    0.17205E+06        -0.97443E+08         0.00000E+00
    0.00000E+00         0.00000E+00        -0.49760E+08
 
   -0.49558E+08         0.21333E+06         0.00000E+00
    0.21333E+06        -0.97427E+08         0.00000E+00
    0.00000E+00         0.00000E+00        -0.49692E+08
 
   -0.49501E+08         0.25172E+06         0.00000E+00
    0.25172E+06        -0.97419E+08         0.00000E+00
    0.00000E+00         0.00000E+00        -0.49623E+08
 
   -0.49441E+08         0.28784E+06         0.00000E+00
    0.28784E+06        -0.97417E+08         0.00000E+00
    0.00000E+00         0.00000E+00        -0.49554E+08
 
   -0.49379E+08         0.32208E+06         0.00000E+00
    0.32208E+06        -0.97420E+08         0.00000E+00
    0.00000E+00         0.00000E+00        -0.49485E+08
 
   -0.49315E+08         0.35466E+06         0.00000E+00
    0.35466E+06        -0.97426E+08         0.00000E+00
    0.00000E+00         0.00000E+00        -0.49415E+08
 
   -0.49251E+08         0.38571E+06         0.00000E+00
    0.38571E+06        -0.97433E+08         0.00000E+00
    0.00000E+00         0.00000E+00        -0.49345E+08
 
   -0.49185E+08         0.41532E+06         0.00000E+00
    0.41532E+06        -0.97442E+08         0.00000E+00
    0.00000E+00         0.00000E+00        -0.49275E+08
 
   -0.49119E+08         0.44355E+06         0.00000E+00
    0.44355E+06        -0.97451E+08         0.00000E+00
    0.00000E+00         0.00000E+00        -0.49204E+08
 
   -0.49051E+08         0.47046E+06         0.00000E+00
    0.47046E+06        -0.97460E+08         0.00000E+00
    0.00000E+00         0.00000E+00        -0.49132E+08
 
   -0.48982E+08         0.49613E+06         0.00000E+00
    0.49613E+06        -0.97468E+08         0.00000E+00
    0.00000E+00         0.00000E+00        -0.49060E+08
 
   -0.48912E+08         0.52063E+06         0.00000E+00
    0.52063E+06        -0.97476E+08         0.00000E+00
    0.00000E+00         0.00000E+00        -0.48987E+08
 
   -0.48841E+08         0.54406E+06         0.00000E+00
    0.54406E+06        -0.97484E+08         0.00000E+00
    0.00000E+00         0.00000E+00        -0.48913E+08
 
   -0.48769E+08         0.56650E+06         0.00000E+00
    0.56650E+06        -0.97490E+08         0.00000E+00
    0.00000E+00         0.00000E+00        -0.48838E+08
 
   -0.48696E+08         0.58806E+06         0.00000E+00
    0.58806E+06        -0.97496E+08         0.00000E+00
    0.00000E+00         0.00000E+00        -0.48762E+08
 
   -0.48621E+08         0.60883E+06         0.00000E+00
    0.60883E+06        -0.97502E+08         0.00000E+00
    0.00000E+00         0.00000E+00        -0.48685E+08
 
   -0.48544E+08         0.62892E+06         0.00000E+00
    0.62892E+06        -0.97506E+08         0.00000E+00
    0.00000E+00         0.00000E+00        -0.48607E+08
 
   -0.48467E+08         0.64842E+06         0.00000E+00
    0.64842E+06        -0.97510E+08         0.00000E+00
    0.00000E+00         0.00000E+00        -0.48528E+08
 
   -0.48387E+08         0.66742E+06         0.00000E+00
    0.66742E+06        -0.97513E+08         0.00000E+00
    0.00000E+00         0.00000E+00        -0.48448E+08
 
   -0.48307E+08         0.68601E+06         0.00000E+00
    0.68601E+06        -0.97516E+08         0.00000E+00
    0.00000E+00         0.00000E+00        -0.48366E+08
 
   -0.48224E+08         0.70428E+06         0.00000E+00
    0.70428E+06        -0.97518E+08         0.00000E+00
    0.00000E+00         0.00000E+00        -0.48283E+08
 
   -0.48140E+08         0.72230E+06         0.00000E+00
    0.72230E+06        -0.97520E+08         0.00000E+00
    0.00000E+00         0.00000E+00        -0.48199E+08
 
   -0.48055E+08         0.74013E+06         0.00000E+00
    0.74013E+06        -0.97521E+08         0.00000E+00
    0.00000E+00         0.00000E+00        -0.48113E+08
 
   -0.47967E+08         0.75785E+06         0.00000E+00
    0.75785E+06        -0.97522E+08         0.00000E+00
    0.00000E+00         0.00000E+00        -0.48025E+08
 
   -0.47878E+08         0.77552E+06         0.00000E+00
    0.77552E+06        -0.97523E+08         0.00000E+00
    0.00000E+00         0.00000E+00        -0.47936E+08
 
   -0.47787E+08         0.79317E+06         0.00000E+00
    0.79317E+06        -0.97523E+08         0.00000E+00
    0.00000E+00         0.00000E+00        -0.47846E+08
 
   -0.47694E+08         0.81085E+06         0.00000E+00
    0.81085E+06        -0.97523E+08         0.00000E+00
    0.00000E+00         0.00000E+00        -0.47753E+08
 
   -0.47599E+08         0.82862E+06         0.00000E+00
    0.82862E+06        -0.97523E+08         0.00000E+00
    0.00000E+00         0.00000E+00        -0.47659E+08
 
   -0.47503E+08         0.84649E+06         0.00000E+00
    0.84649E+06        -0.97523E+08         0.00000E+00
    0.00000E+00         0.00000E+00        -0.47563E+08
 
   -0.47404E+08         0.86449E+06         0.00000E+00
    0.86449E+06        -0.97522E+08         0.00000E+00
    0.00000E+00         0.00000E+00        -0.47465E+08
 
   -0.47303E+08         0.88266E+06         0.00000E+00
    0.88266E+06        -0.97522E+08         0.00000E+00
    0.00000E+00         0.00000E+00        -0.47365E+08
 
   -0.47201E+08         0.90101E+06         0.00000E+00
    0.90101E+06        -0.97521E+08         0.00000E+00
    0.00000E+00         0.00000E+00        -0.47263E+08
 
   -0.47096E+08         0.91956E+06         0.00000E+00
    0.91956E+06        -0.97521E+08         0.00000E+00
    0.00000E+00         0.00000E+00        -0.47159E+08
 
   -0.46989E+08         0.93832E+06         0.00000E+00
    0.93832E+06        -0.97520E+08         0.00000E+00
    0.00000E+00         0.00000E+00        -0.47053E+08
 
   -0.46880E+08         0.95729E+06         0.00000E+00
    0.95729E+06        -0.97519E+08         0.00000E+00
    0.00000E+00         0.00000E+00        -0.46944E+08
 
   -0.46768E+08         0.97649E+06         0.00000E+00
    0.97649E+06        -0.97518E+08         0.00000E+00
    0.00000E+00         0.00000E+00        -0.46834E+08
 
   -0.46654E+08         0.99591E+06         0.00000E+00
    0.99591E+06        -0.97517E+08         0.00000E+00
    0.00000E+00         0.00000E+00        -0.46721E+08
 
   -0.46538E+08         0.10156E+07         0.00000E+00
    0.10156E+07        -0.97517E+08         0.00000E+00
    0.00000E+00         0.00000E+00        -0.46606E+08
 
   -0.46420E+08         0.10354E+07         0.00000E+00
    0.10354E+07        -0.97516E+08         0.00000E+00
    0.00000E+00         0.00000E+00        -0.46488E+08
 
   -0.46299E+08         0.10555E+07         0.00000E+00
    0.10555E+07        -0.97515E+08         0.00000E+00
    0.00000E+00         0.00000E+00        -0.46368E+08
 
   -0.46176E+08         0.10758E+07         0.00000E+00
    0.10758E+07        -0.97514E+08         0.00000E+00
    0.00000E+00         0.00000E+00        -0.46245E+08
 
   -0.46050E+08         0.10963E+07         0.00000E+00
    0.10963E+07        -0.97514E+08         0.00000E+00
    0.00000E+00         0.00000E+00        -0.46120E+08
 
   -0.45921E+08         0.11170E+07         0.00000E+00
    0.11170E+07        -0.97513E+08         0.00000E+00
    0.00000E+00         0.00000E+00        -0.45993E+08
 
   -0.45790E+08         0.11378E+07         0.00000E+00
    0.11378E+07        -0.97513E+08         0.00000E+00
    0.00000E+00         0.00000E+00        -0.45862E+08
 
   -0.45657E+08         0.11588E+07         0.00000E+00
    0.11588E+07        -0.97512E+08         0.00000E+00
    0.00000E+00         0.00000E+00        -0.45729E+08
 
   -0.45521E+08         0.11800E+07         0.00000E+00
    0.11800E+07        -0.97512E+08         0.00000E+00
    0.00000E+00         0.00000E+00        -0.45594E+08
 
   -0.45382E+08         0.12012E+07         0.00000E+00
    0.12012E+07        -0.97511E+08         0.00000E+00
    0.00000E+00         0.00000E+00        -0.45455E+08
 
   -0.45240E+08         0.12225E+07         0.00000E+00
    0.12225E+07        -0.97511E+08         0.00000E+00
    0.00000E+00         0.00000E+00        -0.45314E+08
 
   -0.45096E+08         0.12439E+07         0.00000E+00
    0.12439E+07        -0.97511E+08         0.00000E+00
    0.00000E+00         0.00000E+00        -0.45170E+08
 
   -0.44949E+08         0.12653E+07         0.00000E+00
    0.12653E+07        -0.97512E+08         0.00000E+00
    0.00000E+00         0.00000E+00        -0.45023E+08
 
   -0.44799E+08         0.12866E+07         0.00000E+00
    0.12866E+07        -0.97512E+08         0.00000E+00
    0.00000E+00         0.00000E+00        -0.44873E+08
 
   -0.44647E+08         0.13079E+07         0.00000E+00
    0.13079E+07        -0.97512E+08         0.00000E+00
    0.00000E+00         0.00000E+00        -0.44720E+08
 
   -0.44491E+08         0.13291E+07         0.00000E+00
    0.13291E+07        -0.97513E+08         0.00000E+00
    0.00000E+00         0.00000E+00        -0.44565E+08
 
   -0.44333E+08         0.13502E+07         0.00000E+00
    0.13502E+07        -0.97514E+08         0.00000E+00
    0.00000E+00         0.00000E+00        -0.44406E+08
 
   -0.44172E+08         0.13711E+07         0.00000E+00
    0.13711E+07        -0.97515E+08         0.00000E+00
    0.00000E+00         0.00000E+00        -0.44244E+08
 
   -0.44008E+08         0.13917E+07         0.00000E+00
    0.13917E+07        -0.97517E+08         0.00000E+00
    0.00000E+00         0.00000E+00        -0.44080E+08
 
   -0.43842E+08         0.14120E+07         0.00000E+00
    0.14120E+07        -0.97518E+08         0.00000E+00
    0.00000E+00         0.00000E+00        -0.43912E+08
 
   -0.43672E+08         0.14320E+07         0.00000E+00
    0.14320E+07        -0.97521E+08         0.00000E+00
    0.00000E+00         0.00000E+00        -0.43742E+08
 
   -0.43500E+08         0.14515E+07         0.00000E+00
    0.14515E+07        -0.97523E+08         0.00000E+00
    0.00000E+00         0.00000E+00        -0.43568E+08
 
   -0.43325E+08         0.14705E+07         0.00000E+00
    0.14705E+07        -0.97526E+08         0.00000E+00
    0.00000E+00         0.00000E+00        -0.43392E+08
 
   -0.43147E+08         0.14889E+07         0.00000E+00
    0.14889E+07        -0.97529E+08         0.00000E+00
    0.00000E+00         0.00000E+00        -0.43212E+08
 
   -0.42967E+08         0.15066E+07         0.00000E+00
    0.15066E+07        -0.97532E+08         0.00000E+00
    0.00000E+00         0.00000E+00        -0.43029E+08
 
   -0.42784E+08         0.15235E+07         0.00000E+00
    0.15235E+07        -0.97537E+08         0.00000E+00
    0.00000E+00         0.00000E+00        -0.42844E+08
 
   -0.42598E+08         0.15395E+07         0.00000E+00
    0.15395E+07        -0.97541E+08         0.00000E+00
    0.00000E+00         0.00000E+00        -0.42655E+08
 
   -0.42410E+08         0.15544E+07         0.00000E+00
    0.15544E+07        -0.97547E+08         0.00000E+00
    0.00000E+00         0.00000E+00        -0.42463E+08
 
   -0.42219E+08         0.15683E+07         0.00000E+00
    0.15683E+07        -0.97552E+08         0.00000E+00
    0.00000E+00         0.00000E+00        -0.42269E+08
 
   -0.42026E+08         0.15808E+07         0.00000E+00
    0.15808E+07        -0.97559E+08         0.00000E+00
    0.00000E+00         0.00000E+00        -0.42071E+08
 
   -0.41830E+08         0.15918E+07         0.00000E+00
    0.15918E+07        -0.97567E+08         0.00000E+00
    0.00000E+00         0.00000E+00        -0.41871E+08
 
   -0.41632E+08         0.16013E+07         0.00000E+00
    0.16013E+07        -0.97575E+08         0.00000E+00
    0.00000E+00         0.00000E+00        -0.41668E+08
 
   -0.41432E+08         0.16089E+07         0.00000E+00
    0.16089E+07        -0.97585E+08         0.00000E+00
    0.00000E+00         0.00000E+00        -0.41462E+08
 
   -0.41230E+08         0.16145E+07         0.00000E+00
    0.16145E+07        -0.97595E+08         0.00000E+00
    0.00000E+00         0.00000E+00        -0.41253E+08
 
   -0.41025E+08         0.16178E+07         0.00000E+00
    0.16178E+07        -0.97607E+08         0.00000E+00
    0.00000E+00         0.00000E+00        -0.41041E+08
 
   -0.40819E+08         0.16187E+07         0.00000E+00
    0.16187E+07        -0.97620E+08         0.00000E+00
    0.00000E+00         0.00000E+00        -0.40827E+08
 
   -0.40611E+08         0.16168E+07         0.00000E+00
    0.16168E+07        -0.97635E+08         0.00000E+00
    0.00000E+00         0.00000E+00        -0.40610E+08
 
   -0.40401E+08         0.16120E+07         0.00000E+00
    0.16120E+07        -0.97652E+08         0.00000E+00
    0.00000E+00         0.00000E+00        -0.40391E+08
 
   -0.40190E+08         0.16038E+07         0.00000E+00
    0.16038E+07        -0.97670E+08         0.00000E+00
    0.00000E+00         0.00000E+00        -0.40169E+08
 
   -0.39977E+08         0.15919E+07         0.00000E+00
    0.15919E+07        -0.97691E+08         0.00000E+00
    0.00000E+00         0.00000E+00        -0.39945E+08
 
   -0.39763E+08         0.15762E+07         0.00000E+00
    0.15762E+07        -0.97713E+08         0.00000E+00
    0.00000E+00         0.00000E+00        -0.39719E+08
 
   -0.39548E+08         0.15561E+07         0.00000E+00
    0.15561E+07        -0.97738E+08         0.00000E+00
    0.00000E+00         0.00000E+00        -0.39490E+08
 
   -0.39332E+08         0.15314E+07         0.00000E+00
    0.15314E+07        -0.97765E+08         0.00000E+00
    0.00000E+00         0.00000E+00        -0.39259E+08
 
   -0.39115E+08         0.15018E+07         0.00000E+00
    0.15018E+07        -0.97795E+08         0.00000E+00
    0.00000E+00         0.00000E+00        -0.39026E+08
 
   -0.38897E+08         0.14668E+07         0.00000E+00
    0.14668E+07        -0.97827E+08         0.00000E+00
    0.00000E+00         0.00000E+00        -0.38792E+08
 
   -0.38679E+08         0.14262E+07         0.00000E+00
    0.14262E+07        -0.97862E+08         0.00000E+00
    0.00000E+00         0.00000E+00        -0.38555E+08
 
   -0.38460E+08         0.13797E+07         0.00000E+00
    0.13797E+07        -0.97899E+08         0.00000E+00
    0.00000E+00         0.00000E+00        -0.38317E+08
 
   -0.38240E+08         0.13270E+07         0.00000E+00
    0.13270E+07        -0.97937E+08         0.00000E+00
    0.00000E+00         0.00000E+00        -0.38077E+08
 
   -0.38020E+08         0.12678E+07         0.00000E+00
    0.12678E+07        -0.97976E+08         0.00000E+00
    0.00000E+00         0.00000E+00        -0.37836E+08
 
   -0.37800E+08         0.12021E+07         0.00000E+00
    0.12021E+07        -0.98014E+08         0.00000E+00
    0.00000E+00         0.00000E+00        -0.37593E+08
 
   -0.37580E+08         0.11296E+07         0.00000E+00
    0.11296E+07        -0.98051E+08         0.00000E+00
    0.00000E+00         0.00000E+00        -0.37349E+08
 
   -0.37361E+08         0.10502E+07         0.00000E+00
    0.10502E+07        -0.98083E+08         0.00000E+00
    0.00000E+00         0.00000E+00        -0.37104E+08
 
   -0.37143E+08         0.96378E+06         0.00000E+00
    0.96378E+06        -0.98108E+08         0.00000E+00
    0.00000E+00         0.00000E+00        -0.36859E+08
 
   -0.36928E+08         0.86991E+06         0.00000E+00
    0.86991E+06        -0.98121E+08         0.00000E+00
    0.00000E+00         0.00000E+00        -0.36612E+08
 
   -0.36718E+08         0.76793E+06         0.00000E+00
    0.76793E+06        -0.98118E+08         0.00000E+00
    0.00000E+00         0.00000E+00        -0.36365E+08
 
   -0.36516E+08         0.65661E+06         0.00000E+00
    0.65661E+06        -0.98092E+08         0.00000E+00
    0.00000E+00         0.00000E+00        -0.36117E+08
 
   -0.36328E+08         0.53386E+06         0.00000E+00
    0.53386E+06        -0.98036E+08         0.00000E+00
    0.00000E+00         0.00000E+00        -0.35869E+08
 
   -0.36162E+08         0.39688E+06         0.00000E+00
    0.39688E+06        -0.97940E+08         0.00000E+00
    0.00000E+00         0.00000E+00        -0.35621E+08
 
   -0.36034E+08         0.24488E+06         0.00000E+00
    0.24488E+06        -0.97795E+08         0.00000E+00
    0.00000E+00         0.00000E+00        -0.35373E+08
 
   -0.35963E+08         0.82650E+05         0.00000E+00
    0.82650E+05        -0.97597E+08         0.00000E+00
    0.00000E+00         0.00000E+00        -0.35124E+08
 
   -0.49687E+08         0.24353E+05         0.00000E+00
    0.24353E+05        -0.97574E+08         0.00000E+00
    0.00000E+00         0.00000E+00        -0.49966E+08
 
   -0.49669E+08         0.72555E+05         0.00000E+00
    0.72555E+05        -0.97519E+08         0.00000E+00
    0.00000E+00         0.00000E+00        -0.49897E+08
 
   -0.49635E+08         0.11889E+06         0.00000E+00
    0.11889E+06        -0.97479E+08         0.00000E+00
    0.00000E+00         0.00000E+00        -0.49829E+08
 
   -0.49591E+08         0.16218E+06         0.00000E+00
    0.16218E+06        -0.97451E+08         0.00000E+00
    0.00000E+00         0.00000E+00        -0.49760E+08
 
   -0.49540E+08         0.20239E+06         0.00000E+00
    0.20239E+06        -0.97434E+08         0.00000E+00
    0.00000E+00         0.00000E+00        -0.49692E+08
 
   -0.49484E+08         0.24008E+06         0.00000E+00
    0.24008E+06        -0.97426E+08         0.00000E+00
    0.00000E+00         0.00000E+00        -0.49623E+08
 
   -0.49426E+08         0.27572E+06         0.00000E+00
    0.27572E+06        -0.97424E+08         0.00000E+00
    0.00000E+00         0.00000E+00        -0.49554E+08
 
   -0.49365E+08         0.30961E+06         0.00000E+00
    0.30961E+06        -0.97427E+08         0.00000E+00
    0.00000E+00         0.00000E+00        -0.49485E+08
 
   -0.49302E+08         0.34193E+06         0.00000E+00
    0.34193E+06        -0.97432E+08         0.00000E+00
    0.00000E+00         0.00000E+00        -0.49415E+08
 
   -0.49238E+08         0.37275E+06         0.00000E+00
    0.37275E+06        -0.97439E+08         0.00000E+00
    0.00000E+00         0.00000E+00        -0.49345E+08
 
   -0.49173E+08         0.40215E+06         0.00000E+00
    0.40215E+06        -0.97447E+08         0.00000E+00
    0.00000E+00         0.00000E+00        -0.49275E+08
 
   -0.49107E+08         0.43017E+06         0.00000E+00
    0.43017E+06        -0.97456E+08         0.00000E+00
    0.00000E+00         0.00000E+00        -0.49204E+08
 
   -0.49040E+08         0.45688E+06         0.00000E+00
    0.45688E+06        -0.97465E+08         0.00000E+00
    0.00000E+00         0.00000E+00        -0.49132E+08
 
   -0.48972E+08         0.48232E+06         0.00000E+00
    0.48232E+06        -0.97473E+08         0.00000E+00
    0.00000E+00         0.00000E+00        -0.49060E+08
 
   -0.48903E+08         0.50659E+06         0.00000E+00
    0.50659E+06        -0.97481E+08         0.00000E+00
    0.00000E+00         0.00000E+00        -0.48987E+08
 
   -0.48832E+08         0.52977E+06         0.00000E+00
    0.52977E+06        -0.97488E+08         0.00000E+00
    0.00000E+00         0.00000E+00        -0.48913E+08
 
   -0.48760E+08         0.55196E+06         0.00000E+00
    0.55196E+06        -0.97495E+08         0.00000E+00
    0.00000E+00         0.00000E+00        -0.48838E+08
 
   -0.48687E+08         0.57325E+06         0.00000E+00
    0.57325E+06        -0.97501E+08         0.00000E+00
    0.00000E+00         0.00000E+00        -0.48762E+08
 
   -0.48612E+08         0.59374E+06         0.00000E+00
    0.59374E+06        -0.97506E+08         0.00000E+00
    0.00000E+00         0.00000E+00        -0.48685E+08
 
   -0.48536E+08         0.61354E+06         0.00000E+00
    0.61354E+06        -0.97510E+08         0.00000E+00
    0.00000E+00         0.00000E+00        -0.48607E+08
 
   -0.48459E+08         0.63274E+06         0.00000E+00
    0.63274E+06        -0.97514E+08         0.00000E+00
    0.00000E+00         0.00000E+00        -0.48528E+08
 
   -0.48380E+08         0.65143E+06         0.00000E+00
    0.65143E+06        -0.97517E+08         0.00000E+00
    0.00000E+00         0.00000E+00        -0.48448E+08
 
   -0.48299E+08         0.66971E+06         0.00000E+00
    0.66971E+06        -0.97519E+08         0.00000E+00
    0.00000E+00         0.00000E+00        -0.48366E+08
 
   -0.48217E+08         0.68765E+06         0.00000E+00
    0.68765E+06        -0.97522E+08         0.00000E+00
    0.00000E+00         0.00000E+00        -0.48283E+08
 
   -0.48133E+08         0.70533E+06         0.00000E+00
    0.70533E+06        -0.97523E+08         0.00000E+00
    0.00000E+00         0.00000E+00        -0.48199E+08
 
   -0.48047E+08         0.72283E+06         0.00000E+00
    0.72283E+06        -0.97524E+08         0.00000E+00
    0.00000E+00         0.00000E+00        -0.48113E+08
 
   -0.47960E+08         0.74020E+06         0.00000E+00
    0.74020E+06        -0.97525E+08         0.00000E+00
    0.00000E+00         0.00000E+00        -0.48025E+08
 
   -0.47871E+08         0.75750E+06         0.00000E+00
    0.75750E+06        -0.97526E+08         0.00000E+00
    0.00000E+00         0.00000E+00        -0.47936E+08
 
   -0.47779E+08         0.77478E+06         0.00000E+00
    0.77478E+06        -0.97526E+08         0.00000E+00
    0.00000E+00         0.00000E+00        -0.47846E+08
 
   -0.47687E+08         0.79210E+06         0.00000E+00
    0.79210E+06        -0.97527E+08         0.00000E+00
    0.00000E+00         0.00000E+00        -0.47753E+08
 
   -0.47592E+08         0.80947E+06         0.00000E+00
    0.80947E+06        -0.97526E+08         0.00000E+00
    0.00000E+00         0.00000E+00        -0.47659E+08
 
   -0.47495E+08         0.82695E+06         0.00000E+00
    0.82695E+06        -0.97526E+08         0.00000E+00
    0.00000E+00         0.00000E+00        -0.47563E+08
 
   -0.47396E+08         0.84456E+06         0.00000E+00
    0.84456E+06        -0.97526E+08         0.00000E+00
    0.00000E+00         0.00000E+00        -0.47465E+08
 
   -0.47296E+08         0.86231E+06         0.00000E+00
    0.86231E+06        -0.97525E+08         0.00000E+00
    0.00000E+00         0.00000E+00        -0.47365E+08
 
   -0.47193E+08         0.88025E+06         0.00000E+00
    0.88025E+06        -0.97525E+08         0.00000E+00
    0.00000E+00         0.00000E+00        -0.47263E+08
 
   -0.47088E+08         0.89836E+06         0.00000E+00
    0.89836E+06        -0.97524E+08         0.00000E+00
    0.00000E+00         0.00000E+00        -0.47159E+08
 
   -0.46981E+08         0.91668E+06         0.00000E+00
    0.91668E+06        -0.97524E+08         0.00000E+00
    0.00000E+00         0.00000E+00        -0.47053E+08
 
   -0.46871E+08         0.93521E+06         0.00000E+00
    0.93521E+06        -0.97523E+08         0.00000E+00
    0.00000E+00         0.00000E+00        -0.46944E+08
 
   -0.46760E+08         0.95396E+06         0.00000E+00
    0.95396E+06        -0.97522E+08         0.00000E+00
    0.00000E+00         0.00000E+00        -0.46834E+08
 
   -0.46646E+08         0.97292E+06         0.00000E+00
    0.97292E+06        -0.97521E+08         0.00000E+00
    0.00000E+00         0.00000E+00        -0.46721E+08
 
   -0.46530E+08         0.99210E+06         0.00000E+00
    0.99210E+06        -0.97521E+08         0.00000E+00
    0.00000E+00         0.00000E+00        -0.46606E+08
 
   -0.46411E+08         0.10115E+07         0.00000E+00
    0.10115E+07        -0.97520E+08         0.00000E+00
    0.00000E+00         0.00000E+00        -0.46488E+08
 
   -0.46290E+08         0.10311E+07         0.00000E+00
    0.10311E+07        -0.97519E+08         0.00000E+00
    0.00000E+00         0.00000E+00        -0.46368E+08
 
   -0.46167E+08         0.10509E+07         0.00000E+00
    0.10509E+07        -0.97518E+08         0.00000E+00
    0.00000E+00         0.00000E+00        -0.46245E+08
 
   -0.46041E+08         0.10709E+07         0.00000E+00
    0.10709E+07        -0.97518E+08         0.00000E+00
    0.00000E+00         0.00000E+00        -0.46120E+08
 
   -0.45912E+08         0.10911E+07         0.00000E+00
    0.10911E+07        -0.97517E+08         0.00000E+00
    0.00000E+00         0.00000E+00        -0.45993E+08
 
   -0.45781E+08         0.11114E+07         0.00000E+00
    0.11114E+07        -0.97517E+08         0.00000E+00
    0.00000E+00         0.00000E+00        -0.45862E+08
 
   -0.45648E+08         0.11319E+07         0.00000E+00
    0.11319E+07        -0.97516E+08         0.00000E+00
    0.00000E+00         0.00000E+00        -0.45729E+08
 
   -0.45511E+08         0.11525E+07         0.00000E+00
    0.11525E+07        -0.97516E+08         0.00000E+00
    0.00000E+00         0.00000E+00        -0.45594E+08
 
   -0.45372E+08         0.11732E+07         0.00000E+00
    0.11732E+07        -0.97516E+08         0.00000E+00
    0.00000E+00         0.00000E+00        -0.45455E+08
 
   -0.45231E+08         0.11939E+07         0.00000E+00
    0.11939E+07        -0.97516E+08         0.00000E+00
    0.00000E+00         0.00000E+00        -0.45314E+08
 
   -0.45087E+08         0.12147E+07         0.00000E+00
    0.12147E+07        -0.97516E+08         0.00000E+00
    0.00000E+00         0.00000E+00        -0.45170E+08
 
   -0.44939E+08         0.12356E+07         0.00000E+00
    0.12356E+07        -0.97516E+08         0.00000E+00
    0.00000E+00         0.00000E+00        -0.45023E+08
 
   -0.44790E+08         0.12564E+07         0.00000E+00
    0.12564E+07        -0.97516E+08         0.00000E+00
    0.00000E+00         0.00000E+00        -0.44873E+08
 
   -0.44637E+08         0.12771E+07         0.00000E+00
    0.12771E+07        -0.97517E+08         0.00000E+00
    0.00000E+00         0.00000E+00        -0.44720E+08
 
   -0.44482E+08         0.12978E+07         0.00000E+00
    0.12978E+07        -0.97517E+08         0.00000E+00
    0.00000E+00         0.00000E+00        -0.44565E+08
 
   -0.44324E+08         0.13183E+07         0.00000E+00
    0.13183E+07        -0.97518E+08         0.00000E+00
    0.00000E+00         0.00000E+00        -0.44406E+08
 
   -0.44163E+08         0.13386E+07         0.00000E+00
    0.13386E+07        -0.97519E+08         0.00000E+00
    0.00000E+00         0.00000E+00        -0.44244E+08
 
   -0.43999E+08         0.13587E+07         0.00000E+00
    0.13587E+07        -0.97521E+08         0.00000E+00
    0.00000E+00         0.00000E+00        -0.44080E+08
 
   -0.43833E+08         0.13784E+07         0.00000E+00
    0.13784E+07        -0.97522E+08         0.00000E+00
    0.00000E+00         0.00000E+00        -0.43912E+08
 
   -0.43663E+08         0.13978E+07         0.00000E+00
    0.13978E+07        -0.97524E+08         0.00000E+00
    0.00000E+00         0.00000E+00        -0.43742E+08
 
   -0.43491E+08         0.14168E+07         0.00000E+00
    0.14168E+07        -0.97527E+08         0.00000E+00
    0.00000E+00         0.00000E+00        -0.43568E+08
 
   -0.43317E+08         0.14352E+07         0.00000E+00
    0.14352E+07        -0.97529E+08         0.00000E+00
    0.00000E+00         0.00000E+00        -0.43392E+08
 
   -0.43139E+08         0.14531E+07         0.00000E+00
    0.14531E+07        -0.97532E+08         0.00000E+00
    0.00000E+00         0.00000E+00        -0.43212E+08
 
   -0.42959E+08         0.14703E+07         0.00000E+00
    0.14703E+07        -0.97536E+08         0.00000E+00
    0.00000E+00         0.00000E+00        -0.43029E+08
 
   -0.42776E+08         0.14866E+07         0.00000E+00
    0.14866E+07        -0.97540E+08         0.00000E+00
    0.00000E+00         0.00000E+00        -0.42844E+08
 
   -0.42591E+08         0.15021E+07         0.00000E+00
    0.15021E+07        -0.97544E+08         0.00000E+00
    0.00000E+00         0.00000E+00        -0.42655E+08
 
   -0.42403E+08         0.15166E+07         0.00000E+00
    0.15166E+07        -0.97549E+08         0.00000E+00
    0.00000E+00         0.00000E+00        -0.42463E+08
 
   -0.42213E+08         0.15299E+07         0.00000E+00
    0.15299E+07        -0.97555E+08         0.00000E+00
    0.00000E+00         0.00000E+00        -0.42269E+08
 
   -0.42020E+08         0.15419E+07         0.00000E+00
    0.15419E+07        -0.97562E+08         0.00000E+00
    0.00000E+00         0.00000E+00        -0.42071E+08
 
   -0.41825E+08         0.15525E+07         0.00000E+00
    0.15525E+07        -0.97569E+08         0.00000E+00
    0.00000E+00         0.00000E+00        -0.41871E+08
 
   -0.41628E+08         0.15615E+07         0.00000E+00
    0.15615E+07        -0.97577E+08         0.00000E+00
    0.00000E+00         0.00000E+00        -0.41668E+08
 
   -0.41428E+08         0.15687E+07         0.00000E+00
    0.15687E+07        -0.97586E+08         0.00000E+00
    0.00000E+00         0.00000E+00        -0.41462E+08
 
   -0.41227E+08         0.15739E+07         0.00000E+00
    0.15739E+07        -0.97596E+08         0.00000E+00
    0.00000E+00         0.00000E+00        -0.41253E+08
 
   -0.41023E+08         0.15769E+07         0.00000E+00
    0.15769E+07        -0.97608E+08         0.00000E+00
    0.00000E+00         0.00000E+00        -0.41041E+08
 
   -0.40818E+08         0.15774E+07         0.00000E+00
    0.15774E+07        -0.97620E+08         0.00000E+00
    0.00000E+00         0.00000E+00        -0.40827E+08
 
   -0.40611E+08         0.15752E+07         0.00000E+00
    0.15752E+07        -0.97635E+08         0.00000E+00
    0.00000E+00         0.00000E+00        -0.40610E+08
 
   -0.40402E+08         0.15700E+07         0.00000E+00
    0.15700E+07        -0.97651E+08         0.00000E+00
    0.00000E+00         0.00000E+00        -0.40391E+08
 
   -0.40192E+08         0.15615E+07         0.00000E+00
    0.15615E+07        -0.97668E+08         0.00000E+00
    0.00000E+00         0.00000E+00        -0.40169E+08
 
   -0.39981E+08         0.15494E+07         0.00000E+00
    0.15494E+07        -0.97688E+08         0.00000E+00
    0.00000E+00         0.00000E+00        -0.39945E+08
 
   -0.39769E+08         0.15334E+07         0.00000E+00
    0.15334E+07        -0.97710E+08         0.00000E+00
    0.00000E+00         0.00000E+00        -0.39719E+08
 
   -0.39556E+08         0.15132E+07         0.00000E+00
    0.15132E+07        -0.97734E+08         0.00000E+00
    0.00000E+00         0.00000E+00        -0.39490E+08
 
   -0.39341E+08         0.14883E+07         0.00000E+00
    0.14883E+07        -0.97760E+08         0.00000E+00
    0.00000E+00         0.00000E+00        -0.39259E+08
 
   -0.39126E+08         0.14585E+07         0.00000E+00
    0.14585E+07        -0.97789E+08         0.00000E+00
    0.00000E+00         0.00000E+00        -0.39026E+08
 
   -0.38911E+08         0.14234E+07         0.00000E+00
    0.14234E+07        -0.97820E+08         0.00000E+00
    0.00000E+00         0.00000E+00        -0.38792E+08
 
   -0.38695E+08         0.13827E+07         0.00000E+00
    0.13827E+07        -0.97853E+08         0.00000E+00
    0.00000E+00         0.00000E+00        -0.38555E+08
 
   -0.38478E+08         0.13361E+07         0.00000E+00
    0.13361E+07        -0.97889E+08         0.00000E+00
    0.00000E+00         0.00000E+00        -0.38317E+08
 
   -0.38262E+08         0.12833E+07         0.00000E+00
    0.12833E+07        -0.97926E+08         0.00000E+00
    0.00000E+00         0.00000E+00        -0.38077E+08
 
   -0.38045E+08         0.12241E+07         0.00000E+00
    0.12241E+07        -0.97963E+08         0.00000E+00
    0.00000E+00         0.00000E+00        -0.37836E+08
 
   -0.37828E+08         0.11584E+07         0.00000E+00
    0.11584E+07        -0.98001E+08         0.00000E+00
    0.00000E+00         0.00000E+00        -0.37593E+08
 
   -0.37611E+08         0.10860E+07         0.00000E+00
    0.10860E+07        -0.98036E+08         0.00000E+00
    0.00000E+00         0.00000E+00        -0.37349E+08
 
   -0.37396E+08         0.10068E+07         0.00000E+00
    0.10068E+07        -0.98067E+08         0.00000E+00
    0.00000E+00         0.00000E+00        -0.37104E+08
 
   -0.37182E+08         0.92083E+06         0.00000E+00
    0.92083E+06        -0.98090E+08         0.00000E+00
    0.00000E+00         0.00000E+00        -0.36859E+08
 
   -0.36972E+08         0.82774E+06         0.00000E+00
    0.82774E+06        -0.98102E+08         0.00000E+00
    0.00000E+00         0.00000E+00        -0.36612E+08
 
   -0.36767E+08         0.72710E+06         0.00000E+00
    0.72710E+06        -0.98097E+08         0.00000E+00
    0.00000E+00         0.00000E+00        -0.36365E+08
 
   -0.36571E+08         0.61797E+06         0.00000E+00
    0.61797E+06        -0.98069E+08         0.00000E+00
    0.00000E+00         0.00000E+00        -0.36117E+08
 
   -0.36390E+08         0.49880E+06         0.00000E+00
    0.49880E+06        -0.98010E+08         0.00000E+00
    0.00000E+00         0.00000E+00        -0.35869E+08
 
   -0.36233E+08         0.36776E+06         0.00000E+00
    0.36776E+06        -0.97912E+08         0.00000E+00
    0.00000E+00         0.00000E+00        -0.35621E+08
 
   -0.36114E+08         0.22521E+06         0.00000E+00
    0.22521E+06        -0.97764E+08         0.00000E+00
    0.00000E+00         0.00000E+00        -0.35373E+08
 
   -0.36049E+08         0.75678E+05         0.00000E+00
    0.75678E+05        -0.97565E+08         0.00000E+00
    0.00000E+00         0.00000E+00        -0.35124E+08
 
   -0.49662E+08         0.22574E+05         0.00000E+00
    0.22574E+05        -0.97584E+08         0.00000E+00
    0.00000E+00         0.00000E+00        -0.49966E+08
 
   -0.49645E+08         0.67466E+05         0.00000E+00
    0.67466E+05        -0.97529E+08         0.00000E+00
    0.00000E+00         0.00000E+00        -0.49897E+08
 
   -0.49614E+08         0.11119E+06         0.00000E+00
    0.11119E+06        -0.97487E+08         0.00000E+00
    0.00000E+00         0.00000E+00        -0.49829E+08
 
   -0.49571E+08         0.15271E+06         0.00000E+00
    0.15271E+06        -0.97459E+08         0.00000E+00
    0.00000E+00         0.00000E+00        -0.49760E+08
 
   -0.49522E+08         0.19178E+06         0.00000E+00
    0.19178E+06        -0.97442E+08         0.00000E+00
    0.00000E+00         0.00000E+00        -0.49692E+08
 
   -0.49468E+08         0.22871E+06         0.00000E+00
    0.22871E+06        -0.97434E+08         0.00000E+00
    0.00000E+00         0.00000E+00        -0.49623E+08
 
   -0.49410E+08         0.26383E+06         0.00000E+00
    0.26383E+06        -0.97431E+08         0.00000E+00
    0.00000E+00         0.00000E+00        -0.49554E+08
 
   -0.49350E+08         0.29735E+06         0.00000E+00
    0.29735E+06        -0.97433E+08         0.00000E+00
    0.00000E+00         0.00000E+00        -0.49485E+08
 
   -0.49289E+08         0.32937E+06         0.00000E+00
    0.32937E+06        -0.97438E+08         0.00000E+00
    0.00000E+00         0.00000E+00        -0.49415E+08
 
   -0.49226E+08         0.35995E+06         0.00000E+00
    0.35995E+06        -0.97445E+08         0.00000E+00
    0.00000E+00         0.00000E+00        -0.49345E+08
 
   -0.49162E+08         0.38912E+06         0.00000E+00
    0.38912E+06        -0.97453E+08         0.00000E+00
    0.00000E+00         0.00000E+00        -0.49275E+08
 
   -0.49096E+08         0.41693E+06         0.00000E+00
    0.41693E+06        -0.97462E+08         0.00000E+00
    0.00000E+00         0.00000E+00        -0.49204E+08
 
   -0.49030E+08         0.44340E+06         0.00000E+00
    0.44340E+06        -0.97470E+08         0.00000E+00
    0.00000E+00         0.00000E+00        -0.49132E+08
 
   -0.48962E+08         0.46862E+06         0.00000E+00
    0.46862E+06        -0.97478E+08         0.00000E+00
    0.00000E+00         0.00000E+00        -0.49060E+08
 
   -0.48893E+08         0.49264E+06         0.00000E+00
    0.49264E+06        -0.97486E+08         0.00000E+00
    0.00000E+00         0.00000E+00        -0.48987E+08
 
   -0.48823E+08         0.51557E+06         0.00000E+00
    0.51557E+06        -0.97493E+08         0.00000E+00
    0.00000E+00         0.00000E+00        -0.48913E+08
 
   -0.48752E+08         0.53749E+06         0.00000E+00
    0.53749E+06        -0.97499E+08         0.00000E+00
    0.00000E+00         0.00000E+00        -0.48838E+08
 
   -0.48679E+08         0.55850E+06         0.00000E+00
    0.55850E+06        -0.97505E+08         0.00000E+00
    0.00000E+00         0.00000E+00        -0.48762E+08
 
   -0.48604E+08         0.57870E+06         0.00000E+00
    0.57870E+06        -0.97510E+08         0.00000E+00
    0.00000E+00         0.00000E+00        -0.48685E+08
 
   -0.48528E+08         0.59820E+06         0.00000E+00
    0.59820E+06        -0.97514E+08         0.00000E+00
    0.00000E+00         0.00000E+00        -0.48607E+08
 
   -0.48451E+08         0.61709E+06         0.00000E+00
    0.61709E+06        -0.97517E+08         0.00000E+00
    0.00000E+00         0.00000E+00        -0.48528E+08
 
   -0.48372E+08         0.63547E+06         0.00000E+00
    0.63547E+06        -0.97520E+08         0.00000E+00
    0.00000E+00         0.00000E+00        -0.48448E+08
 
   -0.48292E+08         0.65342E+06         0.00000E+00
    0.65342E+06        -0.97523E+08         0.00000E+00
    0.00000E+00         0.00000E+00        -0.48366E+08
 
   -0.48209E+08         0.67103E+06         0.00000E+00
    0.67103E+06        -0.97525E+08         0.00000E+00
    0.00000E+00         0.00000E+00        -0.48283E+08
 
   -0.48125E+08         0.68837E+06         0.00000E+00
    0.68837E+06        -0.97527E+08         0.00000E+00
    0.00000E+00         0.00000E+00        -0.48199E+08
 
   -0.48040E+08         0.70552E+06         0.00000E+00
    0.70552E+06        -0.97528E+08         0.00000E+00
    0.00000E+00         0.00000E+00        -0.48113E+08
 
   -0.47952E+08         0.72254E+06         0.00000E+00
    0.72254E+06        -0.97529E+08         0.00000E+00
    0.00000E+00         0.00000E+00        -0.48025E+08
 
   -0.47863E+08         0.73948E+06         0.00000E+00
    0.73948E+06        -0.97529E+08         0.00000E+00
    0.00000E+00         0.00000E+00        -0.47936E+08
 
   -0.47772E+08         0.75639E+06         0.00000E+00
    0.75639E+06        -0.97530E+08         0.00000E+00
    0.00000E+00         0.00000E+00        -0.47846E+08
 
   -0.47679E+08         0.77333E+06         0.00000E+00
    0.77333E+06        -0.97530E+08         0.00000E+00
    0.00000E+00         0.00000E+00        -0.47753E+08
 
   -0.47584E+08         0.79032E+06         0.00000E+00
    0.79032E+06        -0.97530E+08         0.00000E+00
    0.00000E+00         0.00000E+00        -0.47659E+08
 
   -0.47488E+08         0.80740E+06         0.00000E+00
    0.80740E+06        -0.97530E+08         0.00000E+00
    0.00000E+00         0.00000E+00        -0.47563E+08
 
   -0.47389E+08         0.82460E+06         0.00000E+00
    0.82460E+06        -0.97529E+08         0.00000E+00
    0.00000E+00         0.00000E+00        -0.47465E+08
 
   -0.47288E+08         0.84195E+06         0.00000E+00
    0.84195E+06        -0.97529E+08         0.00000E+00
    0.00000E+00         0.00000E+00        -0.47365E+08
 
   -0.47185E+08         0.85946E+06         0.00000E+00
    0.85946E+06        -0.97528E+08         0.00000E+00
    0.00000E+00         0.00000E+00        -0.47263E+08
 
   -0.47080E+08         0.87715E+06         0.00000E+00
    0.87715E+06        -0.97528E+08         0.00000E+00
    0.00000E+00         0.00000E+00        -0.47159E+08
 
   -0.46973E+08         0.89503E+06         0.00000E+00
    0.89503E+06        -0.97527E+08         0.00000E+00
    0.00000E+00         0.00000E+00        -0.47053E+08
 
   -0.46863E+08         0.91312E+06         0.00000E+00
    0.91312E+06        -0.97526E+08         0.00000E+00
    0.00000E+00         0.00000E+00        -0.46944E+08
 
   -0.46752E+08         0.93140E+06         0.00000E+00
    0.93140E+06        -0.97526E+08         0.00000E+00
    0.00000E+00         0.00000E+00        -0.46834E+08
 
   -0.46638E+08         0.94990E+06         0.00000E+00
    0.94990E+06        -0.97525E+08         0.00000E+00
    0.00000E+00         0.00000E+00        -0.46721E+08
 
   -0.46521E+08         0.96861E+06         0.00000E+00
    0.96861E+06        -0.97524E+08         0.00000E+00
    0.00000E+00         0.00000E+00        -0.46606E+08
 
   -0.46403E+08         0.98753E+06         0.00000E+00
    0.98753E+06        -0.97524E+08         0.00000E+00
    0.00000E+00         0.00000E+00        -0.46488E+08
 
   -0.46281E+08         0.10066E+07         0.00000E+00
    0.10066E+07        -0.97523E+08         0.00000E+00
    0.00000E+00         0.00000E+00        -0.46368E+08
 
   -0.46158E+08         0.10260E+07         0.00000E+00
    0.10260E+07        -0.97522E+08         0.00000E+00
    0.00000E+00         0.00000E+00        -0.46245E+08
 
   -0.46032E+08         0.10454E+07         0.00000E+00
    0.10454E+07        -0.97522E+08         0.00000E+00
    0.00000E+00         0.00000E+00        -0.46120E+08
 
   -0.45903E+08         0.10651E+07         0.00000E+00
    0.10651E+07        -0.97521E+08         0.00000E+00
    0.00000E+00         0.00000E+00        -0.45993E+08
 
   -0.45772E+08         0.10849E+07         0.00000E+00
    0.10849E+07        -0.97521E+08         0.00000E+00
    0.00000E+00         0.00000E+00        -0.45862E+08
 
   -0.45639E+08         0.11049E+07         0.00000E+00
    0.11049E+07        -0.97520E+08         0.00000E+00
    0.00000E+00         0.00000E+00        -0.45729E+08
 
   -0.45502E+08         0.11249E+07         0.00000E+00
    0.11249E+07        -0.97520E+08         0.00000E+00
    0.00000E+00         0.00000E+00        -0.45594E+08
 
   -0.45363E+08         0.11451E+07         0.00000E+00
    0.11451E+07        -0.97520E+08         0.00000E+00
    0.00000E+00         0.00000E+00        -0.45455E+08
 
   -0.45222E+08         0.11653E+07         0.00000E+00
    0.11653E+07        -0.97520E+08         0.00000E+00
    0.00000E+00         0.00000E+00        -0.45314E+08
 
   -0.45077E+08         0.11856E+07         0.00000E+00
    0.11856E+07        -0.97520E+08         0.00000E+00
    0.00000E+00         0.00000E+00        -0.45170E+08
 
   -0.44930E+08         0.12059E+07         0.00000E+00
    0.12059E+07        -0.97520E+08         0.00000E+00
    0.00000E+00         0.00000E+00        -0.45023E+08
 
   -0.44780E+08         0.12262E+07         0.00000E+00
    0.12262E+07        -0.97520E+08         0.00000E+00
    0.00000E+00         0.00000E+00        -0.44873E+08
 
   -0.44628E+08         0.12464E+07         0.00000E+00
    0.12464E+07        -0.97521E+08         0.00000E+00
    0.00000E+00         0.00000E+00        -0.44720E+08
 
   -0.44473E+08         0.12664E+07         0.00000E+00
    0.12664E+07        -0.97521E+08         0.00000E+00
    0.00000E+00         0.00000E+00        -0.44565E+08
 
   -0.44314E+08         0.12864E+07         0.00000E+00
    0.12864E+07        -0.97522E+08         0.00000E+00
    0.00000E+00         0.00000E+00        -0.44406E+08
 
   -0.44154E+08         0.13062E+07         0.00000E+00
    0.13062E+07        -0.97523E+08         0.00000E+00
    0.00000E+00         0.00000E+00        -0.44245E+08
 
   -0.43990E+08         0.13257E+07         0.00000E+00
    0.13257E+07        -0.97525E+08         0.00000E+00
    0.00000E+00         0.00000E+00        -0.44080E+08
 
   -0.43824E+08         0.13449E+07         0.00000E+00
    0.13449E+07        -0.97526E+08         0.00000E+00
    0.00000E+00         0.00000E+00        -0.43912E+08
 
   -0.43655E+08         0.13637E+07         0.00000E+00
    0.13637E+07        -0.97528E+08         0.00000E+00
    0.00000E+00         0.00000E+00        -0.43742E+08
 
   -0.43483E+08         0.13821E+07         0.00000E+00
    0.13821E+07        -0.97530E+08         0.00000E+00
    0.00000E+00         0.00000E+00        -0.43568E+08
 
   -0.43308E+08         0.14000E+07         0.00000E+00
    0.14000E+07        -0.97533E+08         0.00000E+00
    0.00000E+00         0.00000E+00        -0.43392E+08
 
   -0.43131E+08         0.14174E+07         0.00000E+00
    0.14174E+07        -0.97536E+08         0.00000E+00
    0.00000E+00         0.00000E+00        -0.43212E+08
 
   -0.42951E+08         0.14340E+07         0.00000E+00
    0.14340E+07        -0.97539E+08         0.00000E+00
    0.00000E+00         0.00000E+00        -0.43029E+08
 
   -0.42769E+08         0.14498E+07         0.00000E+00
    0.14498E+07        -0.97543E+08         0.00000E+00
    0.00000E+00         0.00000E+00        -0.42844E+08
 
   -0.42584E+08         0.14648E+07         0.00000E+00
    0.14648E+07        -0.97547E+08         0.00000E+00
    0.00000E+00         0.00000E+00        -0.42655E+08
 
   -0.42396E+08         0.14788E+07         0.00000E+00
    0.14788E+07        -0.97552E+08         0.00000E+00
    0.00000E+00         0.00000E+00        -0.42463E+08
 
   -0.42206E+08         0.14916E+07         0.00000E+00
    0.14916E+07        -0.97558E+08         0.00000E+00
    0.00000E+00         0.00000E+00        -0.42269E+08
 
   -0.42014E+08         0.15032E+07         0.00000E+00
    0.15032E+07        -0.97564E+08         0.00000E+00
    0.00000E+00         0.00000E+00        -0.42071E+08
 
   -0.41820E+08         0.15133E+07         0.00000E+00
    0.15133E+07        -0.97571E+08         0.00000E+00
    0.00000E+00         0.00000E+00        -0.41871E+08
 
   -0.41623E+08         0.15219E+07         0.00000E+00
    0.15219E+07        -0.97578E+08         0.00000E+00
    0.00000E+00         0.00000E+00        -0.41668E+08
 
   -0.41424E+08         0.15287E+07         0.00000E+00
    0.15287E+07        -0.97587E+08         0.00000E+00
    0.00000E+00         0.00000E+00        -0.41462E+08
 
   -0.41224E+08         0.15335E+07         0.00000E+00
    0.15335E+07        -0.97597E+08         0.00000E+00
    0.00000E+00         0.00000E+00        -0.41253E+08
 
   -0.41021E+08         0.15361E+07         0.00000E+00
    0.15361E+07        -0.97608E+08         0.00000E+00
    0.00000E+00         0.00000E+00        -0.41041E+08
 
   -0.40817E+08         0.15363E+07         0.00000E+00
    0.15363E+07        -0.97620E+08         0.00000E+00
    0.00000E+00         0.00000E+00        -0.40827E+08
 
   -0.40611E+08         0.15337E+07         0.00000E+00
    0.15337E+07        -0.97634E+08         0.00000E+00
    0.00000E+00         0.00000E+00        -0.40611E+08
 
   -0.40404E+08         0.15283E+07         0.00000E+00
    0.15283E+07        -0.97649E+08         0.00000E+00
    0.00000E+00         0.00000E+00        -0.40391E+08
 
   -0.40195E+08         0.15195E+07         0.00000E+00
    0.15195E+07        -0.97666E+08         0.00000E+00
    0.00000E+00         0.00000E+00        -0.40169E+08
 
   -0.39985E+08         0.15072E+07         0.00000E+00
    0.15072E+07        -0.97685E+08         0.00000E+00
    0.00000E+00         0.00000E+00        -0.39945E+08
 
   -0.39774E+08         0.14910E+07         0.00000E+00
    0.14910E+07        -0.97706E+08         0.00000E+00
    0.00000E+00         0.00000E+00        -0.39719E+08
 
   -0.39563E+08         0.14706E+07         0.00000E+00
    0.14706E+07        -0.97729E+08         0.00000E+00
    0.00000E+00         0.00000E+00        -0.39490E+08
 
   -0.39351E+08         0.14456E+07         0.00000E+00
    0.14456E+07        -0.97754E+08         0.00000E+00
    0.00000E+00         0.00000E+00        -0.39259E+08
 
   -0.39138E+08         0.14157E+07         0.00000E+00
    0.14157E+07        -0.97782E+08         0.00000E+00
    0.00000E+00         0.00000E+00        -0.39026E+08
 
   -0.38924E+08         0.13805E+07         0.00000E+00
    0.13805E+07        -0.97812E+08         0.00000E+00
    0.00000E+00         0.00000E+00        -0.38792E+08
 
   -0.38711E+08         0.13397E+07         0.00000E+00
    0.13397E+07        -0.97845E+08         0.00000E+00
    0.00000E+00         0.00000E+00        -0.38555E+08
 
   -0.38497E+08         0.12930E+07         0.00000E+00
    0.12930E+07        -0.97879E+08         0.00000E+00
    0.00000E+00         0.00000E+00        -0.38317E+08
 
   -0.38283E+08         0.12402E+07         0.00000E+00
    0.12402E+07        -0.97915E+08         0.00000E+00
    0.00000E+00         0.00000E+00        -0.38077E+08
 
   -0.38069E+08         0.11810E+07         0.00000E+00
    0.11810E+07        -0.97951E+08         0.00000E+00
    0.00000E+00         0.00000E+00        -0.37836E+08
 
   -0.37856E+08         0.11154E+07         0.00000E+00
    0.11154E+07        -0.97987E+08         0.00000E+00
    0.00000E+00         0.00000E+00        -0.37593E+08
 
   -0.37643E+08         0.10431E+07         0.00000E+00
    0.10431E+07        -0.98021E+08         0.00000E+00
    0.00000E+00         0.00000E+00        -0.37349E+08
 
   -0.37431E+08         0.96425E+06         0.00000E+00
    0.96425E+06        -0.98050E+08         0.00000E+00
    0.00000E+00         0.00000E+00        -0.37104E+08
 
   -0.37221E+08         0.87874E+06         0.00000E+00
    0.87874E+06        -0.98072E+08         0.00000E+00
    0.00000E+00         0.00000E+00        -0.36859E+08
 
   -0.37015E+08         0.78653E+06         0.00000E+00
    0.78653E+06        -0.98082E+08         0.00000E+00
    0.00000E+00         0.00000E+00        -0.36612E+08
 
   -0.36815E+08         0.68735E+06         0.00000E+00
    0.68735E+06        -0.98076E+08         0.00000E+00
    0.00000E+00         0.00000E+00        -0.36365E+08
 
   -0.36625E+08         0.58062E+06         0.00000E+00
    0.58062E+06        -0.98047E+08         0.00000E+00
    0.00000E+00         0.00000E+00        -0.36117E+08
 
   -0.36451E+08         0.46528E+06         0.00000E+00
    0.46528E+06        -0.97986E+08         0.00000E+00
    0.00000E+00         0.00000E+00        -0.35869E+08
 
   -0.36302E+08         0.34038E+06         0.00000E+00
    0.34038E+06        -0.97885E+08         0.00000E+00
    0.00000E+00         0.00000E+00        -0.35621E+08
 
   -0.36191E+08         0.20706E+06         0.00000E+00
    0.20706E+06        -0.97736E+08         0.00000E+00
    0.00000E+00         0.00000E+00        -0.35373E+08
 
   -0.36131E+08         0.69320E+05         0.00000E+00
    0.69320E+05        -0.97536E+08         0.00000E+00
    0.00000E+00         0.00000E+00        -0.35124E+08
 
   -0.49637E+08         0.20928E+05         0.00000E+00
    0.20928E+05        -0.97592E+08         0.00000E+00
    0.00000E+00         0.00000E+00        -0.49966E+08
 
   -0.49621E+08         0.62719E+05         0.00000E+00
    0.62719E+05        -0.97537E+08         0.00000E+00
    0.00000E+00         0.00000E+00        -0.49897E+08
 
   -0.49592E+08         0.10390E+06         0.00000E+00
    0.10390E+06        -0.97496E+08         0.00000E+00
    0.00000E+00         0.00000E+00        -0.49829E+08
 
   -0.49552E+08         0.14362E+06         0.00000E+00
    0.14362E+06        -0.97467E+08         0.00000E+00
    0.00000E+00         0.00000E+00        -0.49760E+08
 
   -0.49504E+08         0.18148E+06         0.00000E+00
    0.18148E+06        -0.97450E+08         0.00000E+00
    0.00000E+00         0.00000E+00        -0.49692E+08
 
   -0.49451E+08         0.21760E+06         0.00000E+00
    0.21760E+06        -0.97441E+08         0.00000E+00
    0.00000E+00         0.00000E+00        -0.49623E+08
 
   -0.49395E+08         0.25216E+06         0.00000E+00
    0.25216E+06        -0.97438E+08         0.00000E+00
    0.00000E+00         0.00000E+00        -0.49554E+08
 
   -0.49336E+08         0.28528E+06         0.00000E+00
    0.28528E+06        -0.97440E+08         0.00000E+00
    0.00000E+00         0.00000E+00        -0.49485E+08
 
   -0.49275E+08         0.31699E+06         0.00000E+00
    0.31699E+06        -0.97444E+08         0.00000E+00
    0.00000E+00         0.00000E+00        -0.49415E+08
 
   -0.49213E+08         0.34731E+06         0.00000E+00
    0.34731E+06        -0.97451E+08         0.00000E+00
    0.00000E+00         0.00000E+00        -0.49345E+08
 
   -0.49150E+08         0.37624E+06         0.00000E+00
    0.37624E+06        -0.97459E+08         0.00000E+00
    0.00000E+00         0.00000E+00        -0.49275E+08
 
   -0.49085E+08         0.40381E+06         0.00000E+00
    0.40381E+06        -0.97467E+08         0.00000E+00
    0.00000E+00         0.00000E+00        -0.49204E+08
 
   -0.49019E+08         0.43005E+06         0.00000E+00
    0.43005E+06        -0.97475E+08         0.00000E+00
    0.00000E+00         0.00000E+00        -0.49132E+08
 
   -0.48952E+08         0.45501E+06         0.00000E+00
    0.45501E+06        -0.97483E+08         0.00000E+00
    0.00000E+00         0.00000E+00        -0.49060E+08
 
   -0.48884E+08         0.47878E+06         0.00000E+00
    0.47878E+06        -0.97490E+08         0.00000E+00
    0.00000E+00         0.00000E+00        -0.48987E+08
 
   -0.48814E+08         0.50144E+06         0.00000E+00
    0.50144E+06        -0.97497E+08         0.00000E+00
    0.00000E+00         0.00000E+00        -0.48913E+08
 
   -0.48743E+08         0.52308E+06         0.00000E+00
    0.52308E+06        -0.97503E+08         0.00000E+00
    0.00000E+00         0.00000E+00        -0.48838E+08
 
   -0.48670E+08         0.54380E+06         0.00000E+00
    0.54380E+06        -0.97509E+08         0.00000E+00
    0.00000E+00         0.00000E+00        -0.48762E+08
 
   -0.48596E+08         0.56371E+06         0.00000E+00
    0.56371E+06        -0.97514E+08         0.00000E+00
    0.00000E+00         0.00000E+00        -0.48685E+08
 
   -0.48521E+08         0.58290E+06         0.00000E+00
    0.58290E+06        -0.97518E+08         0.00000E+00
    0.00000E+00         0.00000E+00        -0.48607E+08
 
   -0.48443E+08         0.60148E+06         0.00000E+00
    0.60148E+06        -0.97521E+08         0.00000E+00
    0.00000E+00         0.00000E+00        -0.48528E+08
 
   -0.48365E+08         0.61953E+06         0.00000E+00
    0.61953E+06        -0.97524E+08         0.00000E+00
    0.00000E+00         0.00000E+00        -0.48448E+08
 
   -0.48284E+08         0.63715E+06         0.00000E+00
    0.63715E+06        -0.97527E+08         0.00000E+00
    0.00000E+00         0.00000E+00        -0.48366E+08
 
   -0.48202E+08         0.65442E+06         0.00000E+00
    0.65442E+06        -0.97529E+08         0.00000E+00
    0.00000E+00         0.00000E+00        -0.48283E+08
 
   -0.48118E+08         0.67142E+06         0.00000E+00
    0.67142E+06        -0.97530E+08         0.00000E+00
    0.00000E+00         0.00000E+00        -0.48199E+08
 
   -0.48033E+08         0.68822E+06         0.00000E+00
    0.68822E+06        -0.97531E+08         0.00000E+00
    0.00000E+00         0.00000E+00        -0.48113E+08
 
   -0.47945E+08         0.70488E+06         0.00000E+00
    0.70488E+06        -0.97532E+08         0.00000E+00
    0.00000E+00         0.00000E+00        -0.48025E+08
 
   -0.47856E+08         0.72145E+06         0.00000E+00
    0.72145E+06        -0.97533E+08         0.00000E+00
    0.00000E+00         0.00000E+00        -0.47936E+08
 
   -0.47765E+08         0.73799E+06         0.00000E+00
    0.73799E+06        -0.97533E+08         0.00000E+00
    0.00000E+00         0.00000E+00        -0.47846E+08
 
   -0.47672E+08         0.75454E+06         0.00000E+00
    0.75454E+06        -0.97533E+08         0.00000E+00
    0.00000E+00         0.00000E+00        -0.47753E+08
 
   -0.47577E+08         0.77115E+06         0.00000E+00
    0.77115E+06        -0.97533E+08         0.00000E+00
    0.00000E+00         0.00000E+00        -0.47659E+08
 
   -0.47480E+08         0.78783E+06         0.00000E+00
    0.78783E+06        -0.97533E+08         0.00000E+00
    0.00000E+00         0.00000E+00        -0.47563E+08
 
   -0.47381E+08         0.80463E+06         0.00000E+00
    0.80463E+06        -0.97533E+08         0.00000E+00
    0.00000E+00         0.00000E+00        -0.47465E+08
 
   -0.47280E+08         0.82156E+06         0.00000E+00
    0.82156E+06        -0.97532E+08         0.00000E+00
    0.00000E+00         0.00000E+00        -0.47365E+08
 
   -0.47177E+08         0.83865E+06         0.00000E+00
    0.83865E+06        -0.97532E+08         0.00000E+00
    0.00000E+00         0.00000E+00        -0.47263E+08
 
   -0.47072E+08         0.85591E+06         0.00000E+00
    0.85591E+06        -0.97531E+08         0.00000E+00
    0.00000E+00         0.00000E+00        -0.47159E+08
 
   -0.46965E+08         0.87336E+06         0.00000E+00
    0.87336E+06        -0.97531E+08         0.00000E+00
    0.00000E+00         0.00000E+00        -0.47053E+08
 
   -0.46855E+08         0.89099E+06         0.00000E+00
    0.89099E+06        -0.97530E+08         0.00000E+00
    0.00000E+00         0.00000E+00        -0.46944E+08
 
   -0.46743E+08         0.90883E+06         0.00000E+00
    0.90883E+06        -0.97529E+08         0.00000E+00
    0.00000E+00         0.00000E+00        -0.46834E+08
 
   -0.46629E+08         0.92687E+06         0.00000E+00
    0.92687E+06        -0.97529E+08         0.00000E+00
    0.00000E+00         0.00000E+00        -0.46721E+08
 
   -0.46513E+08         0.94510E+06         0.00000E+00
    0.94510E+06        -0.97528E+08         0.00000E+00
    0.00000E+00         0.00000E+00        -0.46606E+08
 
   -0.46394E+08         0.96354E+06         0.00000E+00
    0.96354E+06        -0.97527E+08         0.00000E+00
    0.00000E+00         0.00000E+00        -0.46488E+08
 
   -0.46273E+08         0.98217E+06         0.00000E+00
    0.98217E+06        -0.97527E+08         0.00000E+00
    0.00000E+00         0.00000E+00        -0.46368E+08
 
   -0.46149E+08         0.10010E+07         0.00000E+00
    0.10010E+07        -0.97526E+08         0.00000E+00
    0.00000E+00         0.00000E+00        -0.46245E+08
 
   -0.46023E+08         0.10200E+07         0.00000E+00
    0.10200E+07        -0.97526E+08         0.00000E+00
    0.00000E+00         0.00000E+00        -0.46120E+08
 
   -0.45894E+08         0.10391E+07         0.00000E+00
    0.10391E+07        -0.97525E+08         0.00000E+00
    0.00000E+00         0.00000E+00        -0.45993E+08
 
   -0.45763E+08         0.10584E+07         0.00000E+00
    0.10584E+07        -0.97525E+08         0.00000E+00
    0.00000E+00         0.00000E+00        -0.45862E+08
 
   -0.45630E+08         0.10779E+07         0.00000E+00
    0.10779E+07        -0.97524E+08         0.00000E+00
    0.00000E+00         0.00000E+00        -0.45729E+08
 
   -0.45493E+08         0.10974E+07         0.00000E+00
    0.10974E+07        -0.97524E+08         0.00000E+00
    0.00000E+00         0.00000E+00        -0.45594E+08
 
   -0.45354E+08         0.11170E+07         0.00000E+00
    0.11170E+07        -0.97524E+08         0.00000E+00
    0.00000E+00         0.00000E+00        -0.45455E+08
 
   -0.45212E+08         0.11367E+07         0.00000E+00
    0.11367E+07        -0.97524E+08         0.00000E+00
    0.00000E+00         0.00000E+00        -0.45314E+08
 
   -0.45068E+08         0.11565E+07         0.00000E+00
    0.11565E+07        -0.97524E+08         0.00000E+00
    0.00000E+00         0.00000E+00        -0.45170E+08
 
   -0.44921E+08         0.11762E+07         0.00000E+00
    0.11762E+07        -0.97524E+08         0.00000E+00
    0.00000E+00         0.00000E+00        -0.45023E+08
 
   -0.44771E+08         0.11959E+07         0.00000E+00
    0.11959E+07        -0.97524E+08         0.00000E+00
    0.00000E+00         0.00000E+00        -0.44873E+08
 
   -0.44619E+08         0.12156E+07         0.00000E+00
    0.12156E+07        -0.97525E+08         0.00000E+00
    0.00000E+00         0.00000E+00        -0.44720E+08
 
   -0.44463E+08         0.12351E+07         0.00000E+00
    0.12351E+07        -0.97525E+08         0.00000E+00
    0.00000E+00         0.00000E+00        -0.44565E+08
 
   -0.44305E+08         0.12545E+07         0.00000E+00
    0.12545E+07        -0.97526E+08         0.00000E+00
    0.00000E+00         0.00000E+00        -0.44406E+08
 
   -0.44145E+08         0.12737E+07         0.00000E+00
    0.12737E+07        -0.97527E+08         0.00000E+00
    0.00000E+00         0.00000E+00        -0.44245E+08
 
   -0.43981E+08         0.12927E+07         0.00000E+00
    0.12927E+07        -0.97529E+08         0.00000E+00
    0.00000E+00         0.00000E+00        -0.44080E+08
 
   -0.43815E+08         0.13114E+07         0.00000E+00
    0.13114E+07        -0.97530E+08         0.00000E+00
    0.00000E+00         0.00000E+00        -0.43912E+08
 
   -0.43646E+08         0.13297E+07         0.00000E+00
    0.13297E+07        -0.97532E+08         0.00000E+00
    0.00000E+00         0.00000E+00        -0.43742E+08
 
   -0.43474E+08         0.13475E+07         0.00000E+00
    0.13475E+07        -0.97534E+08         0.00000E+00
    0.00000E+00         0.00000E+00        -0.43568E+08
 
   -0.43300E+08         0.13649E+07         0.00000E+00
    0.13649E+07        -0.97536E+08         0.00000E+00
    0.00000E+00         0.00000E+00        -0.43392E+08
 
   -0.43123E+08         0.13817E+07         0.00000E+00
    0.13817E+07        -0.97539E+08         0.00000E+00
    0.00000E+00         0.00000E+00        -0.43212E+08
 
   -0.42943E+08         0.13978E+07         0.00000E+00
    0.13978E+07        -0.97542E+08         0.00000E+00
    0.00000E+00         0.00000E+00        -0.43029E+08
 
   -0.42761E+08         0.14131E+07         0.00000E+00
    0.14131E+07        -0.97546E+08         0.00000E+00
    0.00000E+00         0.00000E+00        -0.42844E+08
 
   -0.42577E+08         0.14276E+07         0.00000E+00
    0.14276E+07        -0.97550E+08         0.00000E+00
    0.00000E+00         0.00000E+00        -0.42655E+08
 
   -0.42390E+08         0.14411E+07         0.00000E+00
    0.14411E+07        -0.97555E+08         0.00000E+00
    0.00000E+00         0.00000E+00        -0.42464E+08
 
   -0.42200E+08         0.14535E+07         0.00000E+00
    0.14535E+07        -0.97560E+08         0.00000E+00
    0.00000E+00         0.00000E+00        -0.42269E+08
 
   -0.42008E+08         0.14646E+07         0.00000E+00
    0.14646E+07        -0.97566E+08         0.00000E+00
    0.00000E+00         0.00000E+00        -0.42071E+08
 
   -0.41814E+08         0.14743E+07         0.00000E+00
    0.14743E+07        -0.97573E+08         0.00000E+00
    0.00000E+00         0.00000E+00        -0.41871E+08
 
   -0.41618E+08         0.14824E+07         0.00000E+00
    0.14824E+07        -0.97580E+08         0.00000E+00
    0.00000E+00         0.00000E+00        -0.41668E+08
 
   -0.41420E+08         0.14888E+07         0.00000E+00
    0.14888E+07        -0.97588E+08         0.00000E+00
    0.00000E+00         0.00000E+00        -0.41462E+08
 
   -0.41220E+08         0.14932E+07         0.00000E+00
    0.14932E+07        -0.97598E+08         0.00000E+00
    0.00000E+00         0.00000E+00        -0.41253E+08
 
   -0.41019E+08         0.14955E+07         0.00000E+00
    0.14955E+07        -0.97608E+08         0.00000E+00
    0.00000E+00         0.00000E+00        -0.41042E+08
 
   -0.40815E+08         0.14953E+07         0.00000E+00
    0.14953E+07        -0.97620E+08         0.00000E+00
    0.00000E+00         0.00000E+00        -0.40827E+08
 
   -0.40611E+08         0.14925E+07         0.00000E+00
    0.14925E+07        -0.97633E+08         0.00000E+00
    0.00000E+00         0.00000E+00        -0.40611E+08
 
   -0.40405E+08         0.14868E+07         0.00000E+00
    0.14868E+07        -0.97648E+08         0.00000E+00
    0.00000E+00         0.00000E+00        -0.40391E+08
 
   -0.40197E+08         0.14778E+07         0.00000E+00
    0.14778E+07        -0.97664E+08         0.00000E+00
    0.00000E+00         0.00000E+00        -0.40169E+08
 
   -0.39989E+08         0.14653E+07         0.00000E+00
    0.14653E+07        -0.97682E+08         0.00000E+00
    0.00000E+00         0.00000E+00        -0.39945E+08
 
   -0.39780E+08         0.14490E+07         0.00000E+00
    0.14490E+07        -0.97702E+08         0.00000E+00
    0.00000E+00         0.00000E+00        -0.39719E+08
 
   -0.39570E+08         0.14284E+07         0.00000E+00
    0.14284E+07        -0.97725E+08         0.00000E+00
    0.00000E+00         0.00000E+00        -0.39490E+08
 
   -0.39360E+08         0.14033E+07         0.00000E+00
    0.14033E+07        -0.97749E+08         0.00000E+00
    0.00000E+00         0.00000E+00        -0.39259E+08
 
   -0.39149E+08         0.13733E+07         0.00000E+00
    0.13733E+07        -0.97776E+08         0.00000E+00
    0.00000E+00         0.00000E+00        -0.39026E+08
 
   -0.38938E+08         0.13380E+07         0.00000E+00
    0.13380E+07        -0.97805E+08         0.00000E+00
    0.00000E+00         0.00000E+00        -0.38792E+08
 
   -0.38727E+08         0.12972E+07         0.00000E+00
    0.12972E+07        -0.97836E+08         0.00000E+00
    0.00000E+00         0.00000E+00        -0.38555E+08
 
   -0.38516E+08         0.12505E+07         0.00000E+00
    0.12505E+07        -0.97869E+08         0.00000E+00
    0.00000E+00         0.00000E+00        -0.38317E+08
 
   -0.38304E+08         0.11977E+07         0.00000E+00
    0.11977E+07        -0.97903E+08         0.00000E+00
    0.00000E+00         0.00000E+00        -0.38077E+08
 
   -0.38094E+08         0.11386E+07         0.00000E+00
    0.11386E+07        -0.97938E+08         0.00000E+00
    0.00000E+00         0.00000E+00        -0.37836E+08
 
   -0.37883E+08         0.10730E+07         0.00000E+00
    0.10730E+07        -0.97973E+08         0.00000E+00
    0.00000E+00         0.00000E+00        -0.37593E+08
 
   -0.37674E+08         0.10010E+07         0.00000E+00
    0.10010E+07        -0.98006E+08         0.00000E+00
    0.00000E+00         0.00000E+00        -0.37349E+08
 
   -0.37466E+08         0.92244E+06         0.00000E+00
    0.92244E+06        -0.98034E+08         0.00000E+00
    0.00000E+00         0.00000E+00        -0.37104E+08
 
   -0.37261E+08         0.83751E+06         0.00000E+00
    0.83751E+06        -0.98054E+08         0.00000E+00
    0.00000E+00         0.00000E+00        -0.36859E+08
 
   -0.37059E+08         0.74627E+06         0.00000E+00
    0.74627E+06        -0.98063E+08         0.00000E+00
    0.00000E+00         0.00000E+00        -0.36612E+08
 
   -0.36864E+08         0.64868E+06         0.00000E+00
    0.64868E+06        -0.98056E+08         0.00000E+00
    0.00000E+00         0.00000E+00        -0.36365E+08
 
   -0.36680E+08         0.54450E+06         0.00000E+00
    0.54450E+06        -0.98025E+08         0.00000E+00
    0.00000E+00         0.00000E+00        -0.36117E+08
 
   -0.36512E+08         0.43319E+06         0.00000E+00
    0.43319E+06        -0.97962E+08         0.00000E+00
    0.00000E+00         0.00000E+00        -0.35869E+08
 
   -0.36371E+08         0.31456E+06         0.00000E+00
    0.31456E+06        -0.97860E+08         0.00000E+00
    0.00000E+00         0.00000E+00        -0.35621E+08
 
   -0.36266E+08         0.19018E+06         0.00000E+00
    0.19018E+06        -0.97710E+08         0.00000E+00
    0.00000E+00         0.00000E+00        -0.35373E+08
 
   -0.36210E+08         0.63457E+05         0.00000E+00
    0.63457E+05        -0.97510E+08         0.00000E+00
    0.00000E+00         0.00000E+00        -0.35124E+08
 
   -0.49613E+08         0.19391E+05         0.00000E+00
    0.19391E+05        -0.97600E+08         0.00000E+00
    0.00000E+00         0.00000E+00        -0.49966E+08
 
   -0.49598E+08         0.58257E+05         0.00000E+00
    0.58257E+05        -0.97545E+08         0.00000E+00
    0.00000E+00         0.00000E+00        -0.49897E+08
 
   -0.49571E+08         0.96982E+05         0.00000E+00
    0.96982E+05        -0.97504E+08         0.00000E+00
    0.00000E+00         0.00000E+00        -0.49829E+08
 
   -0.49532E+08         0.13488E+06         0.00000E+00
    0.13488E+06        -0.97475E+08         0.00000E+00
    0.00000E+00         0.00000E+00        -0.49760E+08
 
   -0.49486E+08         0.17149E+06         0.00000E+00
    0.17149E+06        -0.97457E+08         0.00000E+00
    0.00000E+00         0.00000E+00        -0.49692E+08
 
   -0.49435E+08         0.20676E+06         0.00000E+00
    0.20676E+06        -0.97448E+08         0.00000E+00
    0.00000E+00         0.00000E+00        -0.49623E+08
 
   -0.49379E+08         0.24073E+06         0.00000E+00
    0.24073E+06        -0.97445E+08         0.00000E+00
    0.00000E+00         0.00000E+00        -0.49554E+08
 
   -0.49322E+08         0.27342E+06         0.00000E+00
    0.27342E+06        -0.97446E+08         0.00000E+00
    0.00000E+00         0.00000E+00        -0.49485E+08
 
   -0.49262E+08         0.30480E+06         0.00000E+00
    0.30480E+06        -0.97451E+08         0.00000E+00
    0.00000E+00         0.00000E+00        -0.49415E+08
 
   -0.49201E+08         0.33483E+06         0.00000E+00
    0.33483E+06        -0.97457E+08         0.00000E+00
    0.00000E+00         0.00000E+00        -0.49345E+08
 
   -0.49138E+08         0.36350E+06         0.00000E+00
    0.36350E+06        -0.97464E+08         0.00000E+00
    0.00000E+00         0.00000E+00        -0.49275E+08
 
   -0.49074E+08         0.39082E+06         0.00000E+00
    0.39082E+06        -0.97472E+08         0.00000E+00
    0.00000E+00         0.00000E+00        -0.49204E+08
 
   -0.49009E+08         0.41681E+06         0.00000E+00
    0.41681E+06        -0.97480E+08         0.00000E+00
    0.00000E+00         0.00000E+00        -0.49132E+08
 
   -0.48943E+08         0.44152E+06         0.00000E+00
    0.44152E+06        -0.97488E+08         0.00000E+00
    0.00000E+00         0.00000E+00        -0.49060E+08
 
   -0.48875E+08         0.46502E+06         0.00000E+00
    0.46502E+06        -0.97495E+08         0.00000E+00
    0.00000E+00         0.00000E+00        -0.48987E+08
 
   -0.48805E+08         0.48739E+06         0.00000E+00
    0.48739E+06        -0.97502E+08         0.00000E+00
    0.00000E+00         0.00000E+00        -0.48913E+08
 
   -0.48735E+08         0.50874E+06         0.00000E+00
    0.50874E+06        -0.97508E+08         0.00000E+00
    0.00000E+00         0.00000E+00        -0.48838E+08
 
   -0.48662E+08         0.52917E+06         0.00000E+00
    0.52917E+06        -0.97513E+08         0.00000E+00
    0.00000E+00         0.00000E+00        -0.48762E+08
 
   -0.48588E+08         0.54877E+06         0.00000E+00
    0.54877E+06        -0.97517E+08         0.00000E+00
    0.00000E+00         0.00000E+00        -0.48685E+08
 
   -0.48513E+08         0.56764E+06         0.00000E+00
    0.56764E+06        -0.97521E+08         0.00000E+00
    0.00000E+00         0.00000E+00        -0.48607E+08
 
   -0.48436E+08         0.58589E+06         0.00000E+00
    0.58589E+06        -0.97525E+08         0.00000E+00
    0.00000E+00         0.00000E+00        -0.48528E+08
 
   -0.48357E+08         0.60362E+06         0.00000E+00
    0.60362E+06        -0.97528E+08         0.00000E+00
    0.00000E+00         0.00000E+00        -0.48448E+08
 
   -0.48277E+08         0.62090E+06         0.00000E+00
    0.62090E+06        -0.97530E+08         0.00000E+00
    0.00000E+00         0.00000E+00        -0.48366E+08
 
   -0.48195E+08         0.63783E+06         0.00000E+00
    0.63783E+06        -0.97532E+08         0.00000E+00
    0.00000E+00         0.00000E+00        -0.48283E+08
 
   -0.48111E+08         0.65448E+06         0.00000E+00
    0.65448E+06        -0.97533E+08         0.00000E+00
    0.00000E+00         0.00000E+00        -0.48199E+08
 
   -0.48025E+08         0.67092E+06         0.00000E+00
    0.67092E+06        -0.97535E+08         0.00000E+00
    0.00000E+00         0.00000E+00        -0.48113E+08
 
   -0.47938E+08         0.68721E+06         0.00000E+00
    0.68721E+06        -0.97535E+08         0.00000E+00
    0.00000E+00         0.00000E+00        -0.48025E+08
 
   -0.47849E+08         0.70342E+06         0.00000E+00
    0.70342E+06        -0.97536E+08         0.00000E+00
    0.00000E+00         0.00000E+00        -0.47936E+08
 
   -0.47758E+08         0.71958E+06         0.00000E+00
    0.71958E+06        -0.97536E+08         0.00000E+00
    0.00000E+00         0.00000E+00        -0.47846E+08
 
   -0.47665E+08         0.73575E+06         0.00000E+00
    0.73575E+06        -0.97537E+08         0.00000E+00
    0.00000E+00         0.00000E+00        -0.47753E+08
 
   -0.47570E+08         0.75196E+06         0.00000E+00
    0.75196E+06        -0.97537E+08         0.00000E+00
    0.00000E+00         0.00000E+00        -0.47659E+08
 
   -0.47473E+08         0.76825E+06         0.00000E+00
    0.76825E+06        -0.97536E+08         0.00000E+00
    0.00000E+00         0.00000E+00        -0.47563E+08
 
   -0.47374E+08         0.78464E+06         0.00000E+00
    0.78464E+06        -0.97536E+08         0.00000E+00
    0.00000E+00         0.00000E+00        -0.47465E+08
 
   -0.47273E+08         0.80116E+06         0.00000E+00
    0.80116E+06        -0.97536E+08         0.00000E+00
    0.00000E+00         0.00000E+00        -0.47365E+08
 
   -0.47170E+08         0.81783E+06         0.00000E+00
    0.81783E+06        -0.97535E+08         0.00000E+00
    0.00000E+00         0.00000E+00        -0.47263E+08
 
   -0.47064E+08         0.83466E+06         0.00000E+00
    0.83466E+06        -0.97535E+08         0.00000E+00
    0.00000E+00         0.00000E+00        -0.47159E+08
 
   -0.46957E+08         0.85166E+06         0.00000E+00
    0.85166E+06        -0.97534E+08         0.00000E+00
    0.00000E+00         0.00000E+00        -0.47053E+08
 
   -0.46847E+08         0.86885E+06         0.00000E+00
    0.86885E+06        -0.97534E+08         0.00000E+00
    0.00000E+00         0.00000E+00        -0.46944E+08
 
   -0.46735E+08         0.88623E+06         0.00000E+00
    0.88623E+06        -0.97533E+08         0.00000E+00
    0.00000E+00         0.00000E+00        -0.46834E+08
 
   -0.46621E+08         0.90381E+06         0.00000E+00
    0.90381E+06        -0.97532E+08         0.00000E+00
    0.00000E+00         0.00000E+00        -0.46721E+08
 
   -0.46505E+08         0.92158E+06         0.00000E+00
    0.92158E+06        -0.97532E+08         0.00000E+00
    0.00000E+00         0.00000E+00        -0.46606E+08
 
   -0.46386E+08         0.93953E+06         0.00000E+00
    0.93953E+06        -0.97531E+08         0.00000E+00
    0.00000E+00         0.00000E+00        -0.46488E+08
 
   -0.46264E+08         0.95768E+06         0.00000E+00
    0.95768E+06        -0.97530E+08         0.00000E+00
    0.00000E+00         0.00000E+00        -0.46368E+08
 
   -0.46141E+08         0.97600E+06         0.00000E+00
    0.97600E+06        -0.97530E+08         0.00000E+00
    0.00000E+00         0.00000E+00        -0.46245E+08
 
   -0.46014E+08         0.99449E+06         0.00000E+00
    0.99449E+06        -0.97529E+08         0.00000E+00
    0.00000E+00         0.00000E+00        -0.46120E+08
 
   -0.45886E+08         0.10131E+07         0.00000E+00
    0.10131E+07        -0.97529E+08         0.00000E+00
    0.00000E+00         0.00000E+00        -0.45993E+08
 
   -0.45754E+08         0.10319E+07         0.00000E+00
    0.10319E+07        -0.97528E+08         0.00000E+00
    0.00000E+00         0.00000E+00        -0.45862E+08
 
   -0.45621E+08         0.10508E+07         0.00000E+00
    0.10508E+07        -0.97528E+08         0.00000E+00
    0.00000E+00         0.00000E+00        -0.45729E+08
 
   -0.45484E+08         0.10699E+07         0.00000E+00
    0.10699E+07        -0.97528E+08         0.00000E+00
    0.00000E+00         0.00000E+00        -0.45594E+08
 
   -0.45345E+08         0.10890E+07         0.00000E+00
    0.10890E+07        -0.97528E+08         0.00000E+00
    0.00000E+00         0.00000E+00        -0.45455E+08
 
   -0.45203E+08         0.11081E+07         0.00000E+00
    0.11081E+07        -0.97528E+08         0.00000E+00
    0.00000E+00         0.00000E+00        -0.45314E+08
 
   -0.45059E+08         0.11273E+07         0.00000E+00
    0.11273E+07        -0.97528E+08         0.00000E+00
    0.00000E+00         0.00000E+00        -0.45170E+08
 
   -0.44912E+08         0.11465E+07         0.00000E+00
    0.11465E+07        -0.97528E+08         0.00000E+00
    0.00000E+00         0.00000E+00        -0.45023E+08
 
   -0.44762E+08         0.11657E+07         0.00000E+00
    0.11657E+07        -0.97528E+08         0.00000E+00
    0.00000E+00         0.00000E+00        -0.44873E+08
 
   -0.44610E+08         0.11848E+07         0.00000E+00
    0.11848E+07        -0.97529E+08         0.00000E+00
    0.00000E+00         0.00000E+00        -0.44720E+08
 
   -0.44454E+08         0.12038E+07         0.00000E+00
    0.12038E+07        -0.97529E+08         0.00000E+00
    0.00000E+00         0.00000E+00        -0.44565E+08
 
   -0.44296E+08         0.12226E+07         0.00000E+00
    0.12226E+07        -0.97530E+08         0.00000E+00
    0.00000E+00         0.00000E+00        -0.44406E+08
 
   -0.44136E+08         0.12413E+07         0.00000E+00
    0.12413E+07        -0.97531E+08         0.00000E+00
    0.00000E+00         0.00000E+00        -0.44245E+08
 
   -0.43972E+08         0.12597E+07         0.00000E+00
    0.12597E+07        -0.97532E+08         0.00000E+00
    0.00000E+00         0.00000E+00        -0.44080E+08
 
   -0.43806E+08         0.12779E+07         0.00000E+00
    0.12779E+07        -0.97534E+08         0.00000E+00
    0.00000E+00         0.00000E+00        -0.43912E+08
 
   -0.43637E+08         0.12956E+07         0.00000E+00
    0.12956E+07        -0.97535E+08         0.00000E+00
    0.00000E+00         0.00000E+00        -0.43742E+08
 
   -0.43466E+08         0.13129E+07         0.00000E+00
    0.13129E+07        -0.97537E+08         0.00000E+00
    0.00000E+00         0.00000E+00        -0.43568E+08
 
   -0.43292E+08         0.13298E+07         0.00000E+00
    0.13298E+07        -0.97540E+08         0.00000E+00
    0.00000E+00         0.00000E+00        -0.43392E+08
 
   -0.43115E+08         0.13460E+07         0.00000E+00
    0.13460E+07        -0.97542E+08         0.00000E+00
    0.00000E+00         0.00000E+00        -0.43212E+08
 
   -0.42936E+08         0.13616E+07         0.00000E+00
    0.13616E+07        -0.97545E+08         0.00000E+00
    0.00000E+00         0.00000E+00        -0.43029E+08
 
   -0.42754E+08         0.13765E+07         0.00000E+00
    0.13765E+07        -0.97549E+08         0.00000E+00
    0.00000E+00         0.00000E+00        -0.42844E+08
 
   -0.42570E+08         0.13905E+07         0.00000E+00
    0.13905E+07        -0.97553E+08         0.00000E+00
    0.00000E+00         0.00000E+00        -0.42655E+08
 
   -0.42383E+08         0.14035E+07         0.00000E+00
    0.14035E+07        -0.97557E+08         0.00000E+00
    0.00000E+00         0.00000E+00        -0.42464E+08
 
   -0.42194E+08         0.14154E+07         0.00000E+00
    0.14154E+07        -0.97562E+08         0.00000E+00
    0.00000E+00         0.00000E+00        -0.42269E+08
 
   -0.42003E+08         0.14261E+07         0.00000E+00
    0.14261E+07        -0.97568E+08         0.00000E+00
    0.00000E+00         0.00000E+00        -0.42072E+08
 
   -0.41809E+08         0.14353E+07         0.00000E+00
    0.14353E+07        -0.97574E+08         0.00000E+00
    0.00000E+00         0.00000E+00        -0.41871E+08
 
   -0.41614E+08         0.14431E+07         0.00000E+00
    0.14431E+07        -0.97581E+08         0.00000E+00
    0.00000E+00         0.00000E+00        -0.41668E+08
 
   -0.41417E+08         0.14491E+07         0.00000E+00
    0.14491E+07        -0.97589E+08         0.00000E+00
    0.00000E+00         0.00000E+00        -0.41462E+08
 
   -0.41217E+08         0.14531E+07         0.00000E+00
    0.14531E+07        -0.97598E+08         0.00000E+00
    0.00000E+00         0.00000E+00        -0.41253E+08
 
   -0.41017E+08         0.14551E+07         0.00000E+00
    0.14551E+07        -0.97608E+08         0.00000E+00
    0.00000E+00         0.00000E+00        -0.41042E+08
 
   -0.40814E+08         0.14546E+07         0.00000E+00
    0.14546E+07        -0.97620E+08         0.00000E+00
    0.00000E+00         0.00000E+00        -0.40827E+08
 
   -0.40611E+08         0.14516E+07         0.00000E+00
    0.14516E+07        -0.97632E+08         0.00000E+00
    0.00000E+00         0.00000E+00        -0.40611E+08
 
   -0.40406E+08         0.14456E+07         0.00000E+00
    0.14456E+07        -0.97646E+08         0.00000E+00
    0.00000E+00         0.00000E+00        -0.40391E+08
 
   -0.40200E+08         0.14364E+07         0.00000E+00
    0.14364E+07        -0.97662E+08         0.00000E+00
    0.00000E+00         0.00000E+00        -0.40169E+08
 
   -0.39993E+08         0.14237E+07         0.00000E+00
    0.14237E+07        -0.97679E+08         0.00000E+00
    0.00000E+00         0.00000E+00        -0.39945E+08
 
   -0.39785E+08         0.14072E+07         0.00000E+00
    0.14072E+07        -0.97699E+08         0.00000E+00
    0.00000E+00         0.00000E+00        -0.39719E+08
 
   -0.39577E+08         0.13866E+07         0.00000E+00
    0.13866E+07        -0.97720E+08         0.00000E+00
    0.00000E+00         0.00000E+00        -0.39490E+08
 
   -0.39369E+08         0.13614E+07         0.00000E+00
    0.13614E+07        -0.97743E+08         0.00000E+00
    0.00000E+00         0.00000E+00        -0.39259E+08
 
   -0.39160E+08         0.13313E+07         0.00000E+00
    0.13313E+07        -0.97769E+08         0.00000E+00
    0.00000E+00         0.00000E+00        -0.39026E+08
 
   -0.38951E+08         0.12960E+07         0.00000E+00
    0.12960E+07        -0.97797E+08         0.00000E+00
    0.00000E+00         0.00000E+00        -0.38792E+08
 
   -0.38742E+08         0.12552E+07         0.00000E+00
    0.12552E+07        -0.97827E+08         0.00000E+00
    0.00000E+00         0.00000E+00        -0.38555E+08
 
   -0.38534E+08         0.12086E+07         0.00000E+00
    0.12086E+07        -0.97859E+08         0.00000E+00
    0.00000E+00         0.00000E+00        -0.38317E+08
 
   -0.38326E+08         0.11558E+07         0.00000E+00
    0.11558E+07        -0.97892E+08         0.00000E+00
    0.00000E+00         0.00000E+00        -0.38077E+08
 
   -0.38118E+08         0.10968E+07         0.00000E+00
    0.10968E+07        -0.97926E+08         0.00000E+00
    0.00000E+00         0.00000E+00        -0.37836E+08
 
   -0.37911E+08         0.10314E+07         0.00000E+00
    0.10314E+07        -0.97959E+08         0.00000E+00
    0.00000E+00         0.00000E+00        -0.37593E+08
 
   -0.37705E+08         0.95957E+06         0.00000E+00
    0.95957E+06        -0.97991E+08         0.00000E+00
    0.00000E+00         0.00000E+00        -0.37349E+08
 
   -0.37501E+08         0.88143E+06         0.00000E+00
    0.88143E+06        -0.98017E+08         0.00000E+00
    0.00000E+00         0.00000E+00        -0.37104E+08
 
   -0.37300E+08         0.79715E+06         0.00000E+00
    0.79715E+06        -0.98037E+08         0.00000E+00
    0.00000E+00         0.00000E+00        -0.36859E+08
 
   -0.37103E+08         0.70697E+06         0.00000E+00
    0.70697E+06        -0.98045E+08         0.00000E+00
    0.00000E+00         0.00000E+00        -0.36612E+08
 
   -0.36913E+08         0.61108E+06         0.00000E+00
    0.61108E+06        -0.98036E+08         0.00000E+00
    0.00000E+00         0.00000E+00        -0.36365E+08
 
   -0.36735E+08         0.50958E+06         0.00000E+00
    0.50958E+06        -0.98004E+08         0.00000E+00
    0.00000E+00         0.00000E+00        -0.36117E+08
 
   -0.36573E+08         0.40245E+06         0.00000E+00
    0.40245E+06        -0.97940E+08         0.00000E+00
    0.00000E+00         0.00000E+00        -0.35869E+08
 
   -0.36438E+08         0.29010E+06         0.00000E+00
    0.29010E+06        -0.97836E+08         0.00000E+00
    0.00000E+00         0.00000E+00        -0.35621E+08
 
   -0.36339E+08         0.17437E+06         0.00000E+00
    0.17437E+06        -0.97685E+08         0.00000E+00
    0.00000E+00         0.00000E+00        -0.35373E+08
 
   -0.36287E+08         0.58000E+05         0.00000E+00
    0.58000E+05        -0.97485E+08         0.00000E+00
    0.00000E+00         0.00000E+00        -0.35124E+08
 
   -0.49590E+08         0.17943E+05         0.00000E+00
    0.17943E+05        -0.97608E+08         0.00000E+00
    0.00000E+00         0.00000E+00        -0.49966E+08
 
   -0.49576E+08         0.54037E+05         0.00000E+00
    0.54037E+05        -0.97553E+08         0.00000E+00
    0.00000E+00         0.00000E+00        -0.49897E+08
 
   -0.49550E+08         0.90380E+05         0.00000E+00
    0.90380E+05        -0.97511E+08         0.00000E+00
    0.00000E+00         0.00000E+00        -0.49829E+08
 
   -0.49513E+08         0.12646E+06         0.00000E+00
    0.12646E+06        -0.97482E+08         0.00000E+00
    0.00000E+00         0.00000E+00        -0.49760E+08
 
   -0.49468E+08         0.16180E+06         0.00000E+00
    0.16180E+06        -0.97464E+08         0.00000E+00
    0.00000E+00         0.00000E+00        -0.49692E+08
 
   -0.49418E+08         0.19618E+06         0.00000E+00
    0.19618E+06        -0.97454E+08         0.00000E+00
    0.00000E+00         0.00000E+00        -0.49623E+08
 
   -0.49364E+08         0.22953E+06         0.00000E+00
    0.22953E+06        -0.97451E+08         0.00000E+00
    0.00000E+00         0.00000E+00        -0.49554E+08
 
   -0.49308E+08         0.26176E+06         0.00000E+00
    0.26176E+06        -0.97452E+08         0.00000E+00
    0.00000E+00         0.00000E+00        -0.49485E+08
 
   -0.49249E+08         0.29278E+06         0.00000E+00
    0.29278E+06        -0.97457E+08         0.00000E+00
    0.00000E+00         0.00000E+00        -0.49415E+08
 
   -0.49189E+08         0.32252E+06         0.00000E+00
    0.32252E+06        -0.97463E+08         0.00000E+00
    0.00000E+00         0.00000E+00        -0.49345E+08
 
   -0.49127E+08         0.35092E+06         0.00000E+00
    0.35092E+06        -0.97470E+08         0.00000E+00
    0.00000E+00         0.00000E+00        -0.49275E+08
 
   -0.49063E+08         0.37797E+06         0.00000E+00
    0.37797E+06        -0.97478E+08         0.00000E+00
    0.00000E+00         0.00000E+00        -0.49204E+08
 
   -0.48999E+08         0.40369E+06         0.00000E+00
    0.40369E+06        -0.97485E+08         0.00000E+00
    0.00000E+00         0.00000E+00        -0.49132E+08
 
   -0.48933E+08         0.42812E+06         0.00000E+00
    0.42812E+06        -0.97493E+08         0.00000E+00
    0.00000E+00         0.00000E+00        -0.49060E+08
 
   -0.48865E+08         0.45134E+06         0.00000E+00
    0.45134E+06        -0.97500E+08         0.00000E+00
    0.00000E+00         0.00000E+00        -0.48987E+08
 
   -0.48797E+08         0.47343E+06         0.00000E+00
    0.47343E+06        -0.97506E+08         0.00000E+00
    0.00000E+00         0.00000E+00        -0.48913E+08
 
   -0.48726E+08         0.49448E+06         0.00000E+00
    0.49448E+06        -0.97512E+08         0.00000E+00
    0.00000E+00         0.00000E+00        -0.48838E+08
 
   -0.48654E+08         0.51459E+06         0.00000E+00
    0.51459E+06        -0.97517E+08         0.00000E+00
    0.00000E+00         0.00000E+00        -0.48762E+08
 
   -0.48581E+08         0.53387E+06         0.00000E+00
    0.53387E+06        -0.97521E+08         0.00000E+00
    0.00000E+00         0.00000E+00        -0.48685E+08
 
   -0.48505E+08         0.55242E+06         0.00000E+00
    0.55242E+06        -0.97525E+08         0.00000E+00
    0.00000E+00         0.00000E+00        -0.48607E+08
 
   -0.48429E+08         0.57034E+06         0.00000E+00
    0.57034E+06        -0.97528E+08         0.00000E+00
    0.00000E+00         0.00000E+00        -0.48528E+08
 
   -0.48350E+08         0.58773E+06         0.00000E+00
    0.58773E+06        -0.97531E+08         0.00000E+00
    0.00000E+00         0.00000E+00        -0.48448E+08
 
   -0.48270E+08         0.60467E+06         0.00000E+00
    0.60467E+06        -0.97533E+08         0.00000E+00
    0.00000E+00         0.00000E+00        -0.48366E+08
 
   -0.48188E+08         0.62125E+06         0.00000E+00
    0.62125E+06        -0.97535E+08         0.00000E+00
    0.00000E+00         0.00000E+00        -0.48283E+08
 
   -0.48104E+08         0.63754E+06         0.00000E+00
    0.63754E+06        -0.97537E+08         0.00000E+00
    0.00000E+00         0.00000E+00        -0.48199E+08
 
   -0.48018E+08         0.65362E+06         0.00000E+00
    0.65362E+06        -0.97538E+08         0.00000E+00
    0.00000E+00         0.00000E+00        -0.48113E+08
 
   -0.47931E+08         0.66955E+06         0.00000E+00
    0.66955E+06        -0.97539E+08         0.00000E+00
    0.00000E+00         0.00000E+00        -0.48025E+08
 
   -0.47842E+08         0.68538E+06         0.00000E+00
    0.68538E+06        -0.97539E+08         0.00000E+00
    0.00000E+00         0.00000E+00        -0.47936E+08
 
   -0.47751E+08         0.70116E+06         0.00000E+00
    0.70116E+06        -0.97540E+08         0.00000E+00
    0.00000E+00         0.00000E+00        -0.47846E+08
 
   -0.47657E+08         0.71694E+06         0.00000E+00
    0.71694E+06        -0.97540E+08         0.00000E+00
    0.00000E+00         0.00000E+00        -0.47753E+08
 
   -0.47562E+08         0.73276E+06         0.00000E+00
    0.73276E+06        -0.97540E+08         0.00000E+00
    0.00000E+00         0.00000E+00        -0.47659E+08
 
   -0.47465E+08         0.74865E+06         0.00000E+00
    0.74865E+06        -0.97540E+08         0.00000E+00
    0.00000E+00         0.00000E+00        -0.47563E+08
 
   -0.47366E+08         0.76463E+06         0.00000E+00
    0.76463E+06        -0.97539E+08         0.00000E+00
    0.00000E+00         0.00000E+00        -0.47465E+08
 
   -0.47265E+08         0.78073E+06         0.00000E+00
    0.78073E+06        -0.97539E+08         0.00000E+00
    0.00000E+00         0.00000E+00        -0.47365E+08
 
   -0.47162E+08         0.79698E+06         0.00000E+00
    0.79698E+06        -0.97539E+08         0.00000E+00
    0.00000E+00         0.00000E+00        -0.47263E+08
 
   -0.47057E+08         0.81338E+06         0.00000E+00
    0.81338E+06        -0.97538E+08         0.00000E+00
    0.00000E+00         0.00000E+00        -0.47159E+08
 
   -0.46949E+08         0.82994E+06         0.00000E+00
    0.82994E+06        -0.97538E+08         0.00000E+00
    0.00000E+00         0.00000E+00        -0.47053E+08
 
   -0.46839E+08         0.84669E+06         0.00000E+00
    0.84669E+06        -0.97537E+08         0.00000E+00
    0.00000E+00         0.00000E+00        -0.46944E+08
 
   -0.46727E+08         0.86362E+06         0.00000E+00
    0.86362E+06        -0.97536E+08         0.00000E+00
    0.00000E+00         0.00000E+00        -0.46834E+08
 
   -0.46613E+08         0.88073E+06         0.00000E+00
    0.88073E+06        -0.97536E+08         0.00000E+00
    0.00000E+00         0.00000E+00        -0.46721E+08
 
   -0.46496E+08         0.89803E+06         0.00000E+00
    0.89803E+06        -0.97535E+08         0.00000E+00
    0.00000E+00         0.00000E+00        -0.46606E+08
 
   -0.46377E+08         0.91551E+06         0.00000E+00
    0.91551E+06        -0.97535E+08         0.00000E+00
    0.00000E+00         0.00000E+00        -0.46488E+08
 
   -0.46256E+08         0.93317E+06         0.00000E+00
    0.93317E+06        -0.97534E+08         0.00000E+00
    0.00000E+00         0.00000E+00        -0.46368E+08
 
   -0.46132E+08         0.95100E+06         0.00000E+00
    0.95100E+06        -0.97533E+08         0.00000E+00
    0.00000E+00         0.00000E+00        -0.46245E+08
 
   -0.46006E+08         0.96899E+06         0.00000E+00
    0.96899E+06        -0.97533E+08         0.00000E+00
    0.00000E+00         0.00000E+00        -0.46120E+08
 
   -0.45877E+08         0.98713E+06         0.00000E+00
    0.98713E+06        -0.97533E+08         0.00000E+00
    0.00000E+00         0.00000E+00        -0.45993E+08
 
   -0.45746E+08         0.10054E+07         0.00000E+00
    0.10054E+07        -0.97532E+08         0.00000E+00
    0.00000E+00         0.00000E+00        -0.45862E+08
 
   -0.45612E+08         0.10238E+07         0.00000E+00
    0.10238E+07        -0.97532E+08         0.00000E+00
    0.00000E+00         0.00000E+00        -0.45729E+08
 
   -0.45475E+08         0.10423E+07         0.00000E+00
    0.10423E+07        -0.97532E+08         0.00000E+00
    0.00000E+00         0.00000E+00        -0.45594E+08
 
   -0.45336E+08         0.10609E+07         0.00000E+00
    0.10609E+07        -0.97531E+08         0.00000E+00
    0.00000E+00         0.00000E+00        -0.45455E+08
 
   -0.45194E+08         0.10795E+07         0.00000E+00
    0.10795E+07        -0.97531E+08         0.00000E+00
    0.00000E+00         0.00000E+00        -0.45314E+08
 
   -0.45050E+08         0.10982E+07         0.00000E+00
    0.10982E+07        -0.97531E+08         0.00000E+00
    0.00000E+00         0.00000E+00        -0.45170E+08
 
   -0.44903E+08         0.11168E+07         0.00000E+00
    0.11168E+07        -0.97532E+08         0.00000E+00
    0.00000E+00         0.00000E+00        -0.45023E+08
 
   -0.44753E+08         0.11355E+07         0.00000E+00
    0.11355E+07        -0.97532E+08         0.00000E+00
    0.00000E+00         0.00000E+00        -0.44873E+08
 
   -0.44601E+08         0.11540E+07         0.00000E+00
    0.11540E+07        -0.97532E+08         0.00000E+00
    0.00000E+00         0.00000E+00        -0.44720E+08
 
   -0.44445E+08         0.11725E+07         0.00000E+00
    0.11725E+07        -0.97533E+08         0.00000E+00
    0.00000E+00         0.00000E+00        -0.44565E+08
 
   -0.44287E+08         0.11908E+07         0.00000E+00
    0.11908E+07        -0.97534E+08         0.00000E+00
    0.00000E+00         0.00000E+00        -0.44406E+08
 
   -0.44127E+08         0.12089E+07         0.00000E+00
    0.12089E+07        -0.97535E+08         0.00000E+00
    0.00000E+00         0.00000E+00        -0.44245E+08
 
   -0.43963E+08         0.12268E+07         0.00000E+00
    0.12268E+07        -0.97536E+08         0.00000E+00
    0.00000E+00         0.00000E+00        -0.44080E+08
 
   -0.43797E+08         0.12444E+07         0.00000E+00
    0.12444E+07        -0.97537E+08         0.00000E+00
    0.00000E+00         0.00000E+00        -0.43912E+08
 
   -0.43629E+08         0.12616E+07         0.00000E+00
    0.12616E+07        -0.97539E+08         0.00000E+00
    0.00000E+00         0.00000E+00        -0.43742E+08
 
   -0.43457E+08         0.12784E+07         0.00000E+00
    0.12784E+07        -0.97541E+08         0.00000E+00
    0.00000E+00         0.00000E+00        -0.43568E+08
 
   -0.43284E+08         0.12947E+07         0.00000E+00
    0.12947E+07        -0.97543E+08         0.00000E+00
    0.00000E+00         0.00000E+00        -0.43392E+08
 
   -0.43107E+08         0.13105E+07         0.00000E+00
    0.13105E+07        -0.97546E+08         0.00000E+00
    0.00000E+00         0.00000E+00        -0.43212E+08
 
   -0.42928E+08         0.13256E+07         0.00000E+00
    0.13256E+07        -0.97548E+08         0.00000E+00
    0.00000E+00         0.00000E+00        -0.43029E+08
 
   -0.42746E+08         0.13399E+07         0.00000E+00
    0.13399E+07        -0.97552E+08         0.00000E+00
    0.00000E+00         0.00000E+00        -0.42844E+08
 
   -0.42563E+08         0.13534E+07         0.00000E+00
    0.13534E+07        -0.97555E+08         0.00000E+00
    0.00000E+00         0.00000E+00        -0.42655E+08
 
   -0.42376E+08         0.13660E+07         0.00000E+00
    0.13660E+07        -0.97560E+08         0.00000E+00
    0.00000E+00         0.00000E+00        -0.42464E+08
 
   -0.42188E+08         0.13774E+07         0.00000E+00
    0.13774E+07        -0.97564E+08         0.00000E+00
    0.00000E+00         0.00000E+00        -0.42269E+08
 
   -0.41997E+08         0.13876E+07         0.00000E+00
    0.13876E+07        -0.97570E+08         0.00000E+00
    0.00000E+00         0.00000E+00        -0.42072E+08
 
   -0.41804E+08         0.13965E+07         0.00000E+00
    0.13965E+07        -0.97576E+08         0.00000E+00
    0.00000E+00         0.00000E+00        -0.41871E+08
 
   -0.41609E+08         0.14039E+07         0.00000E+00
    0.14039E+07        -0.97583E+08         0.00000E+00
    0.00000E+00         0.00000E+00        -0.41668E+08
 
   -0.41413E+08         0.14095E+07         0.00000E+00
    0.14095E+07        -0.97590E+08         0.00000E+00
    0.00000E+00         0.00000E+00        -0.41462E+08
 
   -0.41214E+08         0.14132E+07         0.00000E+00
    0.14132E+07        -0.97599E+08         0.00000E+00
    0.00000E+00         0.00000E+00        -0.41253E+08
 
   -0.41014E+08         0.14148E+07         0.00000E+00
    0.14148E+07        -0.97608E+08         0.00000E+00
    0.00000E+00         0.00000E+00        -0.41042E+08
 
   -0.40813E+08         0.14141E+07         0.00000E+00
    0.14141E+07        -0.97619E+08         0.00000E+00
    0.00000E+00         0.00000E+00        -0.40827E+08
 
   -0.40610E+08         0.14108E+07         0.00000E+00
    0.14108E+07        -0.97631E+08         0.00000E+00
    0.00000E+00         0.00000E+00        -0.40611E+08
 
   -0.40407E+08         0.14046E+07         0.00000E+00
    0.14046E+07        -0.97645E+08         0.00000E+00
    0.00000E+00         0.00000E+00        -0.40391E+08
 
   -0.40202E+08         0.13953E+07         0.00000E+00
    0.13953E+07        -0.97660E+08         0.00000E+00
    0.00000E+00         0.00000E+00        -0.40169E+08
 
   -0.39996E+08         0.13824E+07         0.00000E+00
    0.13824E+07        -0.97676E+08         0.00000E+00
    0.00000E+00         0.00000E+00        -0.39945E+08
 
   -0.39790E+08         0.13658E+07         0.00000E+00
    0.13658E+07        -0.97695E+08         0.00000E+00
    0.00000E+00         0.00000E+00        -0.39719E+08
 
   -0.39584E+08         0.13451E+07         0.00000E+00
    0.13451E+07        -0.97715E+08         0.00000E+00
    0.00000E+00         0.00000E+00        -0.39490E+08
 
   -0.39377E+08         0.13198E+07         0.00000E+00
    0.13198E+07        -0.97738E+08         0.00000E+00
    0.00000E+00         0.00000E+00        -0.39259E+08
 
   -0.39171E+08         0.12898E+07         0.00000E+00
    0.12898E+07        -0.97763E+08         0.00000E+00
    0.00000E+00         0.00000E+00        -0.39026E+08
 
   -0.38964E+08         0.12545E+07         0.00000E+00
    0.12545E+07        -0.97790E+08         0.00000E+00
    0.00000E+00         0.00000E+00        -0.38792E+08
 
   -0.38758E+08         0.12137E+07         0.00000E+00
    0.12137E+07        -0.97818E+08         0.00000E+00
    0.00000E+00         0.00000E+00        -0.38555E+08
 
   -0.38552E+08         0.11672E+07         0.00000E+00
    0.11672E+07        -0.97849E+08         0.00000E+00
    0.00000E+00         0.00000E+00        -0.38317E+08
 
   -0.38347E+08         0.11145E+07         0.00000E+00
    0.11145E+07        -0.97881E+08         0.00000E+00
    0.00000E+00         0.00000E+00        -0.38077E+08
 
   -0.38142E+08         0.10556E+07         0.00000E+00
    0.10556E+07        -0.97914E+08         0.00000E+00
    0.00000E+00         0.00000E+00        -0.37836E+08
 
   -0.37939E+08         0.99043E+06         0.00000E+00
    0.99043E+06        -0.97946E+08         0.00000E+00
    0.00000E+00         0.00000E+00        -0.37593E+08
 
   -0.37737E+08         0.91892E+06         0.00000E+00
    0.91892E+06        -0.97976E+08         0.00000E+00
    0.00000E+00         0.00000E+00        -0.37349E+08
 
   -0.37537E+08         0.84124E+06         0.00000E+00
    0.84124E+06        -0.98001E+08         0.00000E+00
    0.00000E+00         0.00000E+00        -0.37104E+08
 
   -0.37340E+08         0.75768E+06         0.00000E+00
    0.75768E+06        -0.98019E+08         0.00000E+00
    0.00000E+00         0.00000E+00        -0.36859E+08
 
   -0.37147E+08         0.66862E+06         0.00000E+00
    0.66862E+06        -0.98026E+08         0.00000E+00
    0.00000E+00         0.00000E+00        -0.36612E+08
 
   -0.36963E+08         0.57452E+06         0.00000E+00
    0.57452E+06        -0.98016E+08         0.00000E+00
    0.00000E+00         0.00000E+00        -0.36365E+08
 
   -0.36789E+08         0.47581E+06         0.00000E+00
    0.47581E+06        -0.97983E+08         0.00000E+00
    0.00000E+00         0.00000E+00        -0.36117E+08
 
   -0.36634E+08         0.37295E+06         0.00000E+00
    0.37295E+06        -0.97918E+08         0.00000E+00
    0.00000E+00         0.00000E+00        -0.35869E+08
 
   -0.36504E+08         0.26685E+06         0.00000E+00
    0.26685E+06        -0.97814E+08         0.00000E+00
    0.00000E+00         0.00000E+00        -0.35621E+08
 
   -0.36411E+08         0.15946E+06         0.00000E+00
    0.15946E+06        -0.97663E+08         0.00000E+00
    0.00000E+00         0.00000E+00        -0.35373E+08
 
   -0.36361E+08         0.52879E+05         0.00000E+00
    0.52879E+05        -0.97463E+08         0.00000E+00
    0.00000E+00         0.00000E+00        -0.35124E+08
 
   -0.49568E+08         0.16570E+05         0.00000E+00
    0.16570E+05        -0.97615E+08         0.00000E+00
    0.00000E+00         0.00000E+00        -0.49966E+08
 
   -0.49554E+08         0.50023E+05         0.00000E+00
    0.50023E+05        -0.97560E+08         0.00000E+00
    0.00000E+00         0.00000E+00        -0.49897E+08
 
   -0.49529E+08         0.84061E+05         0.00000E+00
    0.84061E+05        -0.97518E+08         0.00000E+00
    0.00000E+00         0.00000E+00        -0.49829E+08
 
   -0.49493E+08         0.11834E+06         0.00000E+00
    0.11834E+06        -0.97489E+08         0.00000E+00
    0.00000E+00         0.00000E+00        -0.49760E+08
 
   -0.49450E+08         0.15238E+06         0.00000E+00
    0.15238E+06        -0.97471E+08         0.00000E+00
    0.00000E+00         0.00000E+00        -0.49692E+08
 
   -0.49401E+08         0.18586E+06         0.00000E+00
    0.18586E+06        -0.97461E+08         0.00000E+00
    0.00000E+00         0.00000E+00        -0.49623E+08
 
   -0.49349E+08         0.21857E+06         0.00000E+00
    0.21857E+06        -0.97458E+08         0.00000E+00
    0.00000E+00         0.00000E+00        -0.49554E+08
 
   -0.49293E+08         0.25032E+06         0.00000E+00
    0.25032E+06        -0.97459E+08         0.00000E+00
    0.00000E+00         0.00000E+00        -0.49485E+08
 
   -0.49236E+08         0.28096E+06         0.00000E+00
    0.28096E+06        -0.97463E+08         0.00000E+00
    0.00000E+00         0.00000E+00        -0.49415E+08
 
   -0.49176E+08         0.31038E+06         0.00000E+00
    0.31038E+06        -0.97469E+08         0.00000E+00
    0.00000E+00         0.00000E+00        -0.49345E+08
 
   -0.49115E+08         0.33848E+06         0.00000E+00
    0.33848E+06        -0.97476E+08         0.00000E+00
    0.00000E+00         0.00000E+00        -0.49275E+08
 
   -0.49053E+08         0.36525E+06         0.00000E+00
    0.36525E+06        -0.97483E+08         0.00000E+00
    0.00000E+00         0.00000E+00        -0.49204E+08
 
   -0.48989E+08         0.39069E+06         0.00000E+00
    0.39069E+06        -0.97490E+08         0.00000E+00
    0.00000E+00         0.00000E+00        -0.49132E+08
 
   -0.48923E+08         0.41483E+06         0.00000E+00
    0.41483E+06        -0.97497E+08         0.00000E+00
    0.00000E+00         0.00000E+00        -0.49060E+08
 
   -0.48856E+08         0.43776E+06         0.00000E+00
    0.43776E+06        -0.97504E+08         0.00000E+00
    0.00000E+00         0.00000E+00        -0.48987E+08
 
   -0.48788E+08         0.45954E+06         0.00000E+00
    0.45954E+06        -0.97510E+08         0.00000E+00
    0.00000E+00         0.00000E+00        -0.48913E+08
 
   -0.48718E+08         0.48027E+06         0.00000E+00
    0.48027E+06        -0.97516E+08         0.00000E+00
    0.00000E+00         0.00000E+00        -0.48838E+08
 
   -0.48646E+08         0.50007E+06         0.00000E+00
    0.50007E+06        -0.97521E+08         0.00000E+00
    0.00000E+00         0.00000E+00        -0.48762E+08
 
   -0.48573E+08         0.51902E+06         0.00000E+00
    0.51902E+06        -0.97525E+08         0.00000E+00
    0.00000E+00         0.00000E+00        -0.48685E+08
 
   -0.48498E+08         0.53724E+06         0.00000E+00
    0.53724E+06        -0.97529E+08         0.00000E+00
    0.00000E+00         0.00000E+00        -0.48607E+08
 
   -0.48421E+08         0.55482E+06         0.00000E+00
    0.55482E+06        -0.97532E+08         0.00000E+00
    0.00000E+00         0.00000E+00        -0.48528E+08
 
   -0.48343E+08         0.57186E+06         0.00000E+00
    0.57186E+06        -0.97534E+08         0.00000E+00
    0.00000E+00         0.00000E+00        -0.48448E+08
 
   -0.48263E+08         0.58845E+06         0.00000E+00
    0.58845E+06        -0.97537E+08         0.00000E+00
    0.00000E+00         0.00000E+00        -0.48366E+08
 
   -0.48181E+08         0.60468E+06         0.00000E+00
    0.60468E+06        -0.97538E+08         0.00000E+00
    0.00000E+00         0.00000E+00        -0.48283E+08
 
   -0.48097E+08         0.62061E+06         0.00000E+00
    0.62061E+06        -0.97540E+08         0.00000E+00
    0.00000E+00         0.00000E+00        -0.48199E+08
 
   -0.48011E+08         0.63632E+06         0.00000E+00
    0.63632E+06        -0.97541E+08         0.00000E+00
    0.00000E+00         0.00000E+00        -0.48113E+08
 
   -0.47924E+08         0.65188E+06         0.00000E+00
    0.65188E+06        -0.97542E+08         0.00000E+00
    0.00000E+00         0.00000E+00        -0.48025E+08
 
   -0.47835E+08         0.66733E+06         0.00000E+00
    0.66733E+06        -0.97542E+08         0.00000E+00
    0.00000E+00         0.00000E+00        -0.47936E+08
 
   -0.47744E+08         0.68273E+06         0.00000E+00
    0.68273E+06        -0.97543E+08         0.00000E+00
    0.00000E+00         0.00000E+00        -0.47846E+08
 
   -0.47650E+08         0.69813E+06         0.00000E+00
    0.69813E+06        -0.97543E+08         0.00000E+00
    0.00000E+00         0.00000E+00        -0.47753E+08
 
   -0.47555E+08         0.71355E+06         0.00000E+00
    0.71355E+06        -0.97543E+08         0.00000E+00
    0.00000E+00         0.00000E+00        -0.47659E+08
 
   -0.47458E+08         0.72903E+06         0.00000E+00
    0.72903E+06        -0.97543E+08         0.00000E+00
    0.00000E+00         0.00000E+00        -0.47563E+08
 
   -0.47359E+08         0.74460E+06         0.00000E+00
    0.74460E+06        -0.97543E+08         0.00000E+00
    0.00000E+00         0.00000E+00        -0.47465E+08
 
   -0.47258E+08         0.76029E+06         0.00000E+00
    0.76029E+06        -0.97542E+08         0.00000E+00
    0.00000E+00         0.00000E+00        -0.47365E+08
 
   -0.47155E+08         0.77611E+06         0.00000E+00
    0.77611E+06        -0.97542E+08         0.00000E+00
    0.00000E+00         0.00000E+00        -0.47263E+08
 
   -0.47049E+08         0.79208E+06         0.00000E+00
    0.79208E+06        -0.97541E+08         0.00000E+00
    0.00000E+00         0.00000E+00        -0.47159E+08
 
   -0.46941E+08         0.80821E+06         0.00000E+00
    0.80821E+06        -0.97541E+08         0.00000E+00
    0.00000E+00         0.00000E+00        -0.47053E+08
 
   -0.46832E+08         0.82450E+06         0.00000E+00
    0.82450E+06        -0.97540E+08         0.00000E+00
    0.00000E+00         0.00000E+00        -0.46944E+08
 
   -0.46719E+08         0.84098E+06         0.00000E+00
    0.84098E+06        -0.97540E+08         0.00000E+00
    0.00000E+00         0.00000E+00        -0.46834E+08
 
   -0.46605E+08         0.85763E+06         0.00000E+00
    0.85763E+06        -0.97539E+08         0.00000E+00
    0.00000E+00         0.00000E+00        -0.46721E+08
 
   -0.46488E+08         0.87445E+06         0.00000E+00
    0.87445E+06        -0.97539E+08         0.00000E+00
    0.00000E+00         0.00000E+00        -0.46606E+08
 
   -0.46369E+08         0.89146E+06         0.00000E+00
    0.89146E+06        -0.97538E+08         0.00000E+00
    0.00000E+00         0.00000E+00        -0.46488E+08
 
   -0.46248E+08         0.90863E+06         0.00000E+00
    0.90863E+06        -0.97538E+08         0.00000E+00
    0.00000E+00         0.00000E+00        -0.46368E+08
 
   -0.46124E+08         0.92597E+06         0.00000E+00
    0.92597E+06        -0.97537E+08         0.00000E+00
    0.00000E+00         0.00000E+00        -0.46245E+08
 
   -0.45997E+08         0.94347E+06         0.00000E+00
    0.94347E+06        -0.97537E+08         0.00000E+00
    0.00000E+00         0.00000E+00        -0.46120E+08
 
   -0.45868E+08         0.96111E+06         0.00000E+00
    0.96111E+06        -0.97536E+08         0.00000E+00
    0.00000E+00         0.00000E+00        -0.45993E+08
 
   -0.45737E+08         0.97887E+06         0.00000E+00
    0.97887E+06        -0.97536E+08         0.00000E+00
    0.00000E+00         0.00000E+00        -0.45862E+08
 
   -0.45603E+08         0.99676E+06         0.00000E+00
    0.99676E+06        -0.97535E+08         0.00000E+00
    0.00000E+00         0.00000E+00        -0.45729E+08
 
   -0.45466E+08         0.10147E+07         0.00000E+00
    0.10147E+07        -0.97535E+08         0.00000E+00
    0.00000E+00         0.00000E+00        -0.45594E+08
 
   -0.45327E+08         0.10328E+07         0.00000E+00
    0.10328E+07        -0.97535E+08         0.00000E+00
    0.00000E+00         0.00000E+00        -0.45455E+08
 
   -0.45185E+08         0.10509E+07         0.00000E+00
    0.10509E+07        -0.97535E+08         0.00000E+00
    0.00000E+00         0.00000E+00        -0.45314E+08
 
   -0.45041E+08         0.10690E+07         0.00000E+00
    0.10690E+07        -0.97535E+08         0.00000E+00
    0.00000E+00         0.00000E+00        -0.45170E+08
 
   -0.44894E+08         0.10871E+07         0.00000E+00
    0.10871E+07        -0.97535E+08         0.00000E+00
    0.00000E+00         0.00000E+00        -0.45023E+08
 
   -0.44744E+08         0.11052E+07         0.00000E+00
    0.11052E+07        -0.97536E+08         0.00000E+00
    0.00000E+00         0.00000E+00        -0.44873E+08
 
   -0.44592E+08         0.11233E+07         0.00000E+00
    0.11233E+07        -0.97536E+08         0.00000E+00
    0.00000E+00         0.00000E+00        -0.44720E+08
 
   -0.44436E+08         0.11412E+07         0.00000E+00
    0.11412E+07        -0.97537E+08         0.00000E+00
    0.00000E+00         0.00000E+00        -0.44565E+08
 
   -0.44279E+08         0.11589E+07         0.00000E+00
    0.11589E+07        -0.97537E+08         0.00000E+00
    0.00000E+00         0.00000E+00        -0.44406E+08
 
   -0.44118E+08         0.11765E+07         0.00000E+00
    0.11765E+07        -0.97538E+08         0.00000E+00
    0.00000E+00         0.00000E+00        -0.44245E+08
 
   -0.43955E+08         0.11939E+07         0.00000E+00
    0.11939E+07        -0.97539E+08         0.00000E+00
    0.00000E+00         0.00000E+00        -0.44080E+08
 
   -0.43789E+08         0.12109E+07         0.00000E+00
    0.12109E+07        -0.97541E+08         0.00000E+00
    0.00000E+00         0.00000E+00        -0.43912E+08
 
   -0.43620E+08         0.12276E+07         0.00000E+00
    0.12276E+07        -0.97542E+08         0.00000E+00
    0.00000E+00         0.00000E+00        -0.43742E+08
 
   -0.43449E+08         0.12439E+07         0.00000E+00
    0.12439E+07        -0.97544E+08         0.00000E+00
    0.00000E+00         0.00000E+00        -0.43568E+08
 
   -0.43275E+08         0.12597E+07         0.00000E+00
    0.12597E+07        -0.97546E+08         0.00000E+00
    0.00000E+00         0.00000E+00        -0.43392E+08
 
   -0.43099E+08         0.12749E+07         0.00000E+00
    0.12749E+07        -0.97549E+08         0.00000E+00
    0.00000E+00         0.00000E+00        -0.43212E+08
 
   -0.42920E+08         0.12895E+07         0.00000E+00
    0.12895E+07        -0.97551E+08         0.00000E+00
    0.00000E+00         0.00000E+00        -0.43029E+08
 
   -0.42739E+08         0.13034E+07         0.00000E+00
    0.13034E+07        -0.97554E+08         0.00000E+00
    0.00000E+00         0.00000E+00        -0.42844E+08
 
   -0.42556E+08         0.13164E+07         0.00000E+00
    0.13164E+07        -0.97558E+08         0.00000E+00
    0.00000E+00         0.00000E+00        -0.42655E+08
 
   -0.42370E+08         0.13285E+07         0.00000E+00
    0.13285E+07        -0.97562E+08         0.00000E+00
    0.00000E+00         0.00000E+00        -0.42464E+08
 
   -0.42182E+08         0.13395E+07         0.00000E+00
    0.13395E+07        -0.97567E+08         0.00000E+00
    0.00000E+00         0.00000E+00        -0.42269E+08
 
   -0.41991E+08         0.13493E+07         0.00000E+00
    0.13493E+07        -0.97572E+08         0.00000E+00
    0.00000E+00         0.00000E+00        -0.42072E+08
 
   -0.41799E+08         0.13578E+07         0.00000E+00
    0.13578E+07        -0.97578E+08         0.00000E+00
    0.00000E+00         0.00000E+00        -0.41871E+08
 
   -0.41605E+08         0.13648E+07         0.00000E+00
    0.13648E+07        -0.97584E+08         0.00000E+00
    0.00000E+00         0.00000E+00        -0.41668E+08
 
   -0.41409E+08         0.13701E+07         0.00000E+00
    0.13701E+07        -0.97591E+08         0.00000E+00
    0.00000E+00         0.00000E+00        -0.41462E+08
 
   -0.41211E+08         0.13735E+07         0.00000E+00
    0.13735E+07        -0.97599E+08         0.00000E+00
    0.00000E+00         0.00000E+00        -0.41253E+08
 
   -0.41012E+08         0.13748E+07         0.00000E+00
    0.13748E+07        -0.97609E+08         0.00000E+00
    0.00000E+00         0.00000E+00        -0.41042E+08
 
   -0.40812E+08         0.13738E+07         0.00000E+00
    0.13738E+07        -0.97619E+08         0.00000E+00
    0.00000E+00         0.00000E+00        -0.40827E+08
 
   -0.40610E+08         0.13703E+07         0.00000E+00
    0.13703E+07        -0.97630E+08         0.00000E+00
    0.00000E+00         0.00000E+00        -0.40611E+08
 
   -0.40407E+08         0.13639E+07         0.00000E+00
    0.13639E+07        -0.97643E+08         0.00000E+00
    0.00000E+00         0.00000E+00        -0.40391E+08
 
   -0.40204E+08         0.13544E+07         0.00000E+00
    0.13544E+07        -0.97657E+08         0.00000E+00
    0.00000E+00         0.00000E+00        -0.40169E+08
 
   -0.40000E+08         0.13414E+07         0.00000E+00
    0.13414E+07        -0.97673E+08         0.00000E+00
    0.00000E+00         0.00000E+00        -0.39945E+08
 
   -0.39796E+08         0.13247E+07         0.00000E+00
    0.13247E+07        -0.97691E+08         0.00000E+00
    0.00000E+00         0.00000E+00        -0.39719E+08
 
   -0.39591E+08         0.13039E+07         0.00000E+00
    0.13039E+07        -0.97711E+08         0.00000E+00
    0.00000E+00         0.00000E+00        -0.39490E+08
 
   -0.39386E+08         0.12787E+07         0.00000E+00
    0.12787E+07        -0.97732E+08         0.00000E+00
    0.00000E+00         0.00000E+00        -0.39259E+08
 
   -0.39182E+08         0.12486E+07         0.00000E+00
    0.12486E+07        -0.97756E+08         0.00000E+00
    0.00000E+00         0.00000E+00        -0.39026E+08
 
   -0.38977E+08         0.12134E+07         0.00000E+00
    0.12134E+07        -0.97782E+08         0.00000E+00
    0.00000E+00         0.00000E+00        -0.38792E+08
 
   -0.38773E+08         0.11728E+07         0.00000E+00
    0.11728E+07        -0.97810E+08         0.00000E+00
    0.00000E+00         0.00000E+00        -0.38555E+08
 
   -0.38570E+08         0.11263E+07         0.00000E+00
    0.11263E+07        -0.97839E+08         0.00000E+00
    0.00000E+00         0.00000E+00        -0.38317E+08
 
   -0.38368E+08         0.10738E+07         0.00000E+00
    0.10738E+07        -0.97870E+08         0.00000E+00
    0.00000E+00         0.00000E+00        -0.38077E+08
 
   -0.38167E+08         0.10151E+07         0.00000E+00
    0.10151E+07        -0.97901E+08         0.00000E+00
    0.00000E+00         0.00000E+00        -0.37836E+08
 
   -0.37966E+08         0.95019E+06         0.00000E+00
    0.95019E+06        -0.97932E+08         0.00000E+00
    0.00000E+00         0.00000E+00        -0.37593E+08
 
   -0.37768E+08         0.87903E+06         0.00000E+00
    0.87903E+06        -0.97961E+08         0.00000E+00
    0.00000E+00         0.00000E+00        -0.37349E+08
 
   -0.37572E+08         0.80187E+06         0.00000E+00
    0.80187E+06        -0.97985E+08         0.00000E+00
    0.00000E+00         0.00000E+00        -0.37104E+08
 
   -0.37379E+08         0.71908E+06         0.00000E+00
    0.71908E+06        -0.98002E+08         0.00000E+00
    0.00000E+00         0.00000E+00        -0.36859E+08
 
   -0.37192E+08         0.63123E+06         0.00000E+00
    0.63123E+06        -0.98008E+08         0.00000E+00
    0.00000E+00         0.00000E+00        -0.36612E+08
 
   -0.37012E+08         0.53899E+06         0.00000E+00
    0.53899E+06        -0.97997E+08         0.00000E+00
    0.00000E+00         0.00000E+00        -0.36365E+08
 
   -0.36844E+08         0.44315E+06         0.00000E+00
    0.44315E+06        -0.97963E+08         0.00000E+00
    0.00000E+00         0.00000E+00        -0.36117E+08
 
   -0.36694E+08         0.34460E+06         0.00000E+00
    0.34460E+06        -0.97898E+08         0.00000E+00
    0.00000E+00         0.00000E+00        -0.35869E+08
 
   -0.36569E+08         0.24469E+06         0.00000E+00
    0.24469E+06        -0.97793E+08         0.00000E+00
    0.00000E+00         0.00000E+00        -0.35621E+08
 
   -0.36480E+08         0.14534E+06         0.00000E+00
    0.14534E+06        -0.97643E+08         0.00000E+00
    0.00000E+00         0.00000E+00        -0.35373E+08
 
   -0.36434E+08         0.48041E+05         0.00000E+00
    0.48041E+05        -0.97443E+08         0.00000E+00
    0.00000E+00         0.00000E+00        -0.35124E+08
 
   -0.49546E+08         0.15260E+05         0.00000E+00
    0.15260E+05        -0.97621E+08         0.00000E+00
    0.00000E+00         0.00000E+00        -0.49966E+08
 
   -0.49533E+08         0.46187E+05         0.00000E+00
    0.46187E+05        -0.97566E+08         0.00000E+00
    0.00000E+00         0.00000E+00        -0.49897E+08
 
   -0.49509E+08         0.77994E+05         0.00000E+00
    0.77994E+05        -0.97525E+08         0.00000E+00
    0.00000E+00         0.00000E+00        -0.49829E+08
 
   -0.49474E+08         0.11050E+06         0.00000E+00
    0.11050E+06        -0.97496E+08         0.00000E+00
    0.00000E+00         0.00000E+00        -0.49760E+08
 
   -0.49432E+08         0.14324E+06         0.00000E+00
    0.14324E+06        -0.97478E+08         0.00000E+00
    0.00000E+00         0.00000E+00        -0.49692E+08
 
   -0.49385E+08         0.17579E+06         0.00000E+00
    0.17579E+06        -0.97468E+08         0.00000E+00
    0.00000E+00         0.00000E+00        -0.49623E+08
 
   -0.49333E+08         0.20783E+06         0.00000E+00
    0.20783E+06        -0.97464E+08         0.00000E+00
    0.00000E+00         0.00000E+00        -0.49554E+08
 
   -0.49279E+08         0.23909E+06         0.00000E+00
    0.23909E+06        -0.97465E+08         0.00000E+00
    0.00000E+00         0.00000E+00        -0.49485E+08
 
   -0.49222E+08         0.26933E+06         0.00000E+00
    0.26933E+06        -0.97469E+08         0.00000E+00
    0.00000E+00         0.00000E+00        -0.49415E+08
 
   -0.49164E+08         0.29841E+06         0.00000E+00
    0.29841E+06        -0.97474E+08         0.00000E+00
    0.00000E+00         0.00000E+00        -0.49345E+08
 
   -0.49104E+08         0.32620E+06         0.00000E+00
    0.32620E+06        -0.97481E+08         0.00000E+00
    0.00000E+00         0.00000E+00        -0.49275E+08
 
   -0.49042E+08         0.35267E+06         0.00000E+00
    0.35267E+06        -0.97488E+08         0.00000E+00
    0.00000E+00         0.00000E+00        -0.49204E+08
 
   -0.48979E+08         0.37781E+06         0.00000E+00
    0.37781E+06        -0.97495E+08         0.00000E+00
    0.00000E+00         0.00000E+00        -0.49132E+08
 
   -0.48914E+08         0.40165E+06         0.00000E+00
    0.40165E+06        -0.97502E+08         0.00000E+00
    0.00000E+00         0.00000E+00        -0.49060E+08
 
   -0.48847E+08         0.42426E+06         0.00000E+00
    0.42426E+06        -0.97509E+08         0.00000E+00
    0.00000E+00         0.00000E+00        -0.48986E+08
 
   -0.48779E+08         0.44573E+06         0.00000E+00
    0.44573E+06        -0.97514E+08         0.00000E+00
    0.00000E+00         0.00000E+00        -0.48913E+08
 
   -0.48710E+08         0.46614E+06         0.00000E+00
    0.46614E+06        -0.97520E+08         0.00000E+00
    0.00000E+00         0.00000E+00        -0.48838E+08
 
   -0.48638E+08         0.48560E+06         0.00000E+00
    0.48560E+06        -0.97525E+08         0.00000E+00
    0.00000E+00         0.00000E+00        -0.48762E+08
 
   -0.48565E+08         0.50422E+06         0.00000E+00
    0.50422E+06        -0.97529E+08         0.00000E+00
    0.00000E+00         0.00000E+00        -0.48685E+08
 
   -0.48491E+08         0.52210E+06         0.00000E+00
    0.52210E+06        -0.97532E+08         0.00000E+00
    0.00000E+00         0.00000E+00        -0.48607E+08
 
   -0.48414E+08         0.53933E+06         0.00000E+00
    0.53933E+06        -0.97535E+08         0.00000E+00
    0.00000E+00         0.00000E+00        -0.48528E+08
 
   -0.48336E+08         0.55602E+06         0.00000E+00
    0.55602E+06        -0.97538E+08         0.00000E+00
    0.00000E+00         0.00000E+00        -0.48448E+08
 
   -0.48256E+08         0.57225E+06         0.00000E+00
    0.57225E+06        -0.97540E+08         0.00000E+00
    0.00000E+00         0.00000E+00        -0.48366E+08
 
   -0.48174E+08         0.58812E+06         0.00000E+00
    0.58812E+06        -0.97542E+08         0.00000E+00
    0.00000E+00         0.00000E+00        -0.48283E+08
 
   -0.48090E+08         0.60369E+06         0.00000E+00
    0.60369E+06        -0.97543E+08         0.00000E+00
    0.00000E+00         0.00000E+00        -0.48199E+08
 
   -0.48005E+08         0.61903E+06         0.00000E+00
    0.61903E+06        -0.97544E+08         0.00000E+00
    0.00000E+00         0.00000E+00        -0.48113E+08
 
   -0.47917E+08         0.63421E+06         0.00000E+00
    0.63421E+06        -0.97545E+08         0.00000E+00
    0.00000E+00         0.00000E+00        -0.48025E+08
 
   -0.47828E+08         0.64928E+06         0.00000E+00
    0.64928E+06        -0.97545E+08         0.00000E+00
    0.00000E+00         0.00000E+00        -0.47936E+08
 
   -0.47737E+08         0.66430E+06         0.00000E+00
    0.66430E+06        -0.97546E+08         0.00000E+00
    0.00000E+00         0.00000E+00        -0.47846E+08
 
   -0.47643E+08         0.67930E+06         0.00000E+00
    0.67930E+06        -0.97546E+08         0.00000E+00
    0.00000E+00         0.00000E+00        -0.47753E+08
 
   -0.47548E+08         0.69432E+06         0.00000E+00
    0.69432E+06        -0.97546E+08         0.00000E+00
    0.00000E+00         0.00000E+00        -0.47659E+08
 
   -0.47451E+08         0.70940E+06         0.00000E+00
    0.70940E+06        -0.97546E+08         0.00000E+00
    0.00000E+00         0.00000E+00        -0.47563E+08
 
   -0.47352E+08         0.72456E+06         0.00000E+00
    0.72456E+06        -0.97546E+08         0.00000E+00
    0.00000E+00         0.00000E+00        -0.47465E+08
 
   -0.47251E+08         0.73983E+06         0.00000E+00
    0.73983E+06        -0.97545E+08         0.00000E+00
    0.00000E+00         0.00000E+00        -0.47365E+08
 
   -0.47147E+08         0.75522E+06         0.00000E+00
    0.75522E+06        -0.97545E+08         0.00000E+00
    0.00000E+00         0.00000E+00        -0.47263E+08
 
   -0.47042E+08         0.77076E+06         0.00000E+00
    0.77076E+06        -0.97545E+08         0.00000E+00
    0.00000E+00         0.00000E+00        -0.47159E+08
 
   -0.46934E+08         0.78645E+06         0.00000E+00
    0.78645E+06        -0.97544E+08         0.00000E+00
    0.00000E+00         0.00000E+00        -0.47053E+08
 
   -0.46824E+08         0.80230E+06         0.00000E+00
    0.80230E+06        -0.97544E+08         0.00000E+00
    0.00000E+00         0.00000E+00        -0.46944E+08
 
   -0.46712E+08         0.81831E+06         0.00000E+00
    0.81831E+06        -0.97543E+08         0.00000E+00
    0.00000E+00         0.00000E+00        -0.46834E+08
 
   -0.46597E+08         0.83450E+06         0.00000E+00
    0.83450E+06        -0.97542E+08         0.00000E+00
    0.00000E+00         0.00000E+00        -0.46721E+08
 
   -0.46480E+08         0.85086E+06         0.00000E+00
    0.85086E+06        -0.97542E+08         0.00000E+00
    0.00000E+00         0.00000E+00        -0.46606E+08
 
   -0.46361E+08         0.86739E+06         0.00000E+00
    0.86739E+06        -0.97541E+08         0.00000E+00
    0.00000E+00         0.00000E+00        -0.46488E+08
 
   -0.46239E+08         0.88408E+06         0.00000E+00
    0.88408E+06        -0.97541E+08         0.00000E+00
    0.00000E+00         0.00000E+00        -0.46368E+08
 
   -0.46115E+08         0.90093E+06         0.00000E+00
    0.90093E+06        -0.97540E+08         0.00000E+00
    0.00000E+00         0.00000E+00        -0.46245E+08
 
   -0.45989E+08         0.91793E+06         0.00000E+00
    0.91793E+06        -0.97540E+08         0.00000E+00
    0.00000E+00         0.00000E+00        -0.46120E+08
 
   -0.45860E+08         0.93507E+06         0.00000E+00
    0.93507E+06        -0.97540E+08         0.00000E+00
    0.00000E+00         0.00000E+00        -0.45993E+08
 
   -0.45728E+08         0.95233E+06         0.00000E+00
    0.95233E+06        -0.97539E+08         0.00000E+00
    0.00000E+00         0.00000E+00        -0.45862E+08
 
   -0.45594E+08         0.96969E+06         0.00000E+00
    0.96969E+06        -0.97539E+08         0.00000E+00
    0.00000E+00         0.00000E+00        -0.45729E+08
 
   -0.45458E+08         0.98715E+06         0.00000E+00
    0.98715E+06        -0.97539E+08         0.00000E+00
    0.00000E+00         0.00000E+00        -0.45594E+08
 
   -0.45319E+08         0.10047E+07         0.00000E+00
    0.10047E+07        -0.97539E+08         0.00000E+00
    0.00000E+00         0.00000E+00        -0.45455E+08
 
   -0.45177E+08         0.10223E+07         0.00000E+00
    0.10223E+07        -0.97539E+08         0.00000E+00
    0.00000E+00         0.00000E+00        -0.45314E+08
 
   -0.45032E+08         0.10399E+07         0.00000E+00
    0.10399E+07        -0.97539E+08         0.00000E+00
    0.00000E+00         0.00000E+00        -0.45170E+08
 
   -0.44885E+08         0.10574E+07         0.00000E+00
    0.10574E+07        -0.97539E+08         0.00000E+00
    0.00000E+00         0.00000E+00        -0.45023E+08
 
   -0.44735E+08         0.10750E+07         0.00000E+00
    0.10750E+07        -0.97539E+08         0.00000E+00
    0.00000E+00         0.00000E+00        -0.44873E+08
 
   -0.44583E+08         0.10925E+07         0.00000E+00
    0.10925E+07        -0.97540E+08         0.00000E+00
    0.00000E+00         0.00000E+00        -0.44720E+08
 
   -0.44428E+08         0.11099E+07         0.00000E+00
    0.11099E+07        -0.97540E+08         0.00000E+00
    0.00000E+00         0.00000E+00        -0.44565E+08
 
   -0.44270E+08         0.11271E+07         0.00000E+00
    0.11271E+07        -0.97541E+08         0.00000E+00
    0.00000E+00         0.00000E+00        -0.44406E+08
 
   -0.44109E+08         0.11442E+07         0.00000E+00
    0.11442E+07        -0.97542E+08         0.00000E+00
    0.00000E+00         0.00000E+00        -0.44245E+08
 
   -0.43946E+08         0.11610E+07         0.00000E+00
    0.11610E+07        -0.97543E+08         0.00000E+00
    0.00000E+00         0.00000E+00        -0.44080E+08
 
   -0.43780E+08         0.11775E+07         0.00000E+00
    0.11775E+07        -0.97544E+08         0.00000E+00
    0.00000E+00         0.00000E+00        -0.43912E+08
 
   -0.43612E+08         0.11937E+07         0.00000E+00
    0.11937E+07        -0.97545E+08         0.00000E+00
    0.00000E+00         0.00000E+00        -0.43742E+08
 
   -0.43441E+08         0.12094E+07         0.00000E+00
    0.12094E+07        -0.97547E+08         0.00000E+00
    0.00000E+00         0.00000E+00        -0.43568E+08
 
   -0.43267E+08         0.12247E+07         0.00000E+00
    0.12247E+07        -0.97549E+08         0.00000E+00
    0.00000E+00         0.00000E+00        -0.43392E+08
 
   -0.43091E+08         0.12395E+07         0.00000E+00
    0.12395E+07        -0.97552E+08         0.00000E+00
    0.00000E+00         0.00000E+00        -0.43212E+08
 
   -0.42913E+08         0.12536E+07         0.00000E+00
    0.12536E+07        -0.97554E+08         0.00000E+00
    0.00000E+00         0.00000E+00        -0.43029E+08
 
   -0.42732E+08         0.12669E+07         0.00000E+00
    0.12669E+07        -0.97557E+08         0.00000E+00
    0.00000E+00         0.00000E+00        -0.42844E+08
 
   -0.42549E+08         0.12795E+07         0.00000E+00
    0.12795E+07        -0.97561E+08         0.00000E+00
    0.00000E+00         0.00000E+00        -0.42655E+08
 
   -0.42363E+08         0.12911E+07         0.00000E+00
    0.12911E+07        -0.97564E+08         0.00000E+00
    0.00000E+00         0.00000E+00        -0.42464E+08
 
   -0.42175E+08         0.13017E+07         0.00000E+00
    0.13017E+07        -0.97569E+08         0.00000E+00
    0.00000E+00         0.00000E+00        -0.42269E+08
 
   -0.41986E+08         0.13111E+07         0.00000E+00
    0.13111E+07        -0.97574E+08         0.00000E+00
    0.00000E+00         0.00000E+00        -0.42072E+08
 
   -0.41794E+08         0.13192E+07         0.00000E+00
    0.13192E+07        -0.97579E+08         0.00000E+00
    0.00000E+00         0.00000E+00        -0.41871E+08
 
   -0.41600E+08         0.13258E+07         0.00000E+00
    0.13258E+07        -0.97585E+08         0.00000E+00
    0.00000E+00         0.00000E+00        -0.41668E+08
 
   -0.41405E+08         0.13308E+07         0.00000E+00
    0.13308E+07        -0.97592E+08         0.00000E+00
    0.00000E+00         0.00000E+00        -0.41462E+08
 
   -0.41208E+08         0.13339E+07         0.00000E+00
    0.13339E+07        -0.97600E+08         0.00000E+00
    0.00000E+00         0.00000E+00        -0.41253E+08
 
   -0.41010E+08         0.13349E+07         0.00000E+00
    0.13349E+07        -0.97609E+08         0.00000E+00
    0.00000E+00         0.00000E+00        -0.41042E+08
 
   -0.40810E+08         0.13337E+07         0.00000E+00
    0.13337E+07        -0.97618E+08         0.00000E+00
    0.00000E+00         0.00000E+00        -0.40827E+08
 
   -0.40610E+08         0.13299E+07         0.00000E+00
    0.13299E+07        -0.97629E+08         0.00000E+00
    0.00000E+00         0.00000E+00        -0.40611E+08
 
   -0.40408E+08         0.13234E+07         0.00000E+00
    0.13234E+07        -0.97642E+08         0.00000E+00
    0.00000E+00         0.00000E+00        -0.40391E+08
 
   -0.40206E+08         0.13138E+07         0.00000E+00
    0.13138E+07        -0.97655E+08         0.00000E+00
    0.00000E+00         0.00000E+00        -0.40169E+08
 
   -0.40003E+08         0.13007E+07         0.00000E+00
    0.13007E+07        -0.97670E+08         0.00000E+00
    0.00000E+00         0.00000E+00        -0.39945E+08
 
   -0.39800E+08         0.12840E+07         0.00000E+00
    0.12840E+07        -0.97687E+08         0.00000E+00
    0.00000E+00         0.00000E+00        -0.39719E+08
 
   -0.39597E+08         0.12632E+07         0.00000E+00
    0.12632E+07        -0.97706E+08         0.00000E+00
    0.00000E+00         0.00000E+00        -0.39490E+08
 
   -0.39395E+08         0.12380E+07         0.00000E+00
    0.12380E+07        -0.97727E+08         0.00000E+00
    0.00000E+00         0.00000E+00        -0.39259E+08
 
   -0.39192E+08         0.12080E+07         0.00000E+00
    0.12080E+07        -0.97750E+08         0.00000E+00
    0.00000E+00         0.00000E+00        -0.39026E+08
 
   -0.38990E+08         0.11729E+07         0.00000E+00
    0.11729E+07        -0.97774E+08         0.00000E+00
    0.00000E+00         0.00000E+00        -0.38792E+08
 
   -0.38789E+08         0.11323E+07         0.00000E+00
    0.11323E+07        -0.97801E+08         0.00000E+00
    0.00000E+00         0.00000E+00        -0.38555E+08
 
   -0.38588E+08         0.10860E+07         0.00000E+00
    0.10860E+07        -0.97829E+08         0.00000E+00
    0.00000E+00         0.00000E+00        -0.38317E+08
 
   -0.38389E+08         0.10337E+07         0.00000E+00
    0.10337E+07        -0.97859E+08         0.00000E+00
    0.00000E+00         0.00000E+00        -0.38077E+08
 
   -0.38191E+08         0.97531E+06         0.00000E+00
    0.97531E+06        -0.97889E+08         0.00000E+00
    0.00000E+00         0.00000E+00        -0.37836E+08
 
   -0.37994E+08         0.91067E+06         0.00000E+00
    0.91067E+06        -0.97918E+08         0.00000E+00
    0.00000E+00         0.00000E+00        -0.37593E+08
 
   -0.37799E+08         0.83992E+06         0.00000E+00
    0.83992E+06        -0.97946E+08         0.00000E+00
    0.00000E+00         0.00000E+00        -0.37349E+08
 
   -0.37607E+08         0.76333E+06         0.00000E+00
    0.76333E+06        -0.97969E+08         0.00000E+00
    0.00000E+00         0.00000E+00        -0.37104E+08
 
   -0.37419E+08         0.68138E+06         0.00000E+00
    0.68138E+06        -0.97985E+08         0.00000E+00
    0.00000E+00         0.00000E+00        -0.36859E+08
 
   -0.37236E+08         0.59479E+06         0.00000E+00
    0.59479E+06        -0.97990E+08         0.00000E+00
    0.00000E+00         0.00000E+00        -0.36612E+08
 
   -0.37061E+08         0.50447E+06         0.00000E+00
    0.50447E+06        -0.97979E+08         0.00000E+00
    0.00000E+00         0.00000E+00        -0.36365E+08
 
   -0.36898E+08         0.41154E+06         0.00000E+00
    0.41154E+06        -0.97944E+08         0.00000E+00
    0.00000E+00         0.00000E+00        -0.36117E+08
 
   -0.36753E+08         0.31733E+06         0.00000E+00
    0.31733E+06        -0.97879E+08         0.00000E+00
    0.00000E+00         0.00000E+00        -0.35869E+08
 
   -0.36634E+08         0.22348E+06         0.00000E+00
    0.22348E+06        -0.97774E+08         0.00000E+00
    0.00000E+00         0.00000E+00        -0.35621E+08
 
   -0.36549E+08         0.13189E+06         0.00000E+00
    0.13189E+06        -0.97624E+08         0.00000E+00
    0.00000E+00         0.00000E+00        -0.35372E+08
 
   -0.36504E+08         0.43441E+05         0.00000E+00
    0.43441E+05        -0.97425E+08         0.00000E+00
    0.00000E+00         0.00000E+00        -0.35124E+08
 
   -0.49524E+08         0.14004E+05         0.00000E+00
    0.14004E+05        -0.97627E+08         0.00000E+00
    0.00000E+00         0.00000E+00        -0.49966E+08
 
   -0.49512E+08         0.42503E+05         0.00000E+00
    0.42503E+05        -0.97572E+08         0.00000E+00
    0.00000E+00         0.00000E+00        -0.49897E+08
 
   -0.49488E+08         0.72151E+05         0.00000E+00
    0.72151E+05        -0.97531E+08         0.00000E+00
    0.00000E+00         0.00000E+00        -0.49829E+08
 
   -0.49455E+08         0.10291E+06         0.00000E+00
    0.10291E+06        -0.97502E+08         0.00000E+00
    0.00000E+00         0.00000E+00        -0.49760E+08
 
   -0.49415E+08         0.13435E+06         0.00000E+00
    0.13435E+06        -0.97484E+08         0.00000E+00
    0.00000E+00         0.00000E+00        -0.49692E+08
 
   -0.49368E+08         0.16596E+06         0.00000E+00
    0.16596E+06        -0.97474E+08         0.00000E+00
    0.00000E+00         0.00000E+00        -0.49623E+08
 
   -0.49318E+08         0.19732E+06         0.00000E+00
    0.19732E+06        -0.97470E+08         0.00000E+00
    0.00000E+00         0.00000E+00        -0.49554E+08
 
   -0.49265E+08         0.22806E+06         0.00000E+00
    0.22806E+06        -0.97471E+08         0.00000E+00
    0.00000E+00         0.00000E+00        -0.49485E+08
 
   -0.49209E+08         0.25790E+06         0.00000E+00
    0.25790E+06        -0.97475E+08         0.00000E+00
    0.00000E+00         0.00000E+00        -0.49415E+08
 
   -0.49152E+08         0.28662E+06         0.00000E+00
    0.28662E+06        -0.97480E+08         0.00000E+00
    0.00000E+00         0.00000E+00        -0.49345E+08
 
   -0.49092E+08         0.31408E+06         0.00000E+00
    0.31408E+06        -0.97486E+08         0.00000E+00
    0.00000E+00         0.00000E+00        -0.49275E+08
 
   -0.49031E+08         0.34023E+06         0.00000E+00
    0.34023E+06        -0.97493E+08         0.00000E+00
    0.00000E+00         0.00000E+00        -0.49204E+08
 
   -0.48969E+08         0.36505E+06         0.00000E+00
    0.36505E+06        -0.97500E+08         0.00000E+00
    0.00000E+00         0.00000E+00        -0.49132E+08
 
   -0.48904E+08         0.38858E+06         0.00000E+00
    0.38858E+06        -0.97507E+08         0.00000E+00
    0.00000E+00         0.00000E+00        -0.49060E+08
 
   -0.48839E+08         0.41087E+06         0.00000E+00
    0.41087E+06        -0.97513E+08         0.00000E+00
    0.00000E+00         0.00000E+00        -0.48986E+08
 
   -0.48771E+08         0.43200E+06         0.00000E+00
    0.43200E+06        -0.97519E+08         0.00000E+00
    0.00000E+00         0.00000E+00        -0.48913E+08
 
   -0.48702E+08         0.45208E+06         0.00000E+00
    0.45208E+06        -0.97524E+08         0.00000E+00
    0.00000E+00         0.00000E+00        -0.48838E+08
 
   -0.48631E+08         0.47120E+06         0.00000E+00
    0.47120E+06        -0.97528E+08         0.00000E+00
    0.00000E+00         0.00000E+00        -0.48762E+08
 
   -0.48558E+08         0.48947E+06         0.00000E+00
    0.48947E+06        -0.97532E+08         0.00000E+00
    0.00000E+00         0.00000E+00        -0.48685E+08
 
   -0.48483E+08         0.50699E+06         0.00000E+00
    0.50699E+06        -0.97536E+08         0.00000E+00
    0.00000E+00         0.00000E+00        -0.48607E+08
 
   -0.48407E+08         0.52387E+06         0.00000E+00
    0.52387E+06        -0.97539E+08         0.00000E+00
    0.00000E+00         0.00000E+00        -0.48528E+08
 
   -0.48329E+08         0.54020E+06         0.00000E+00
    0.54020E+06        -0.97541E+08         0.00000E+00
    0.00000E+00         0.00000E+00        -0.48448E+08
 
   -0.48249E+08         0.55607E+06         0.00000E+00
    0.55607E+06        -0.97543E+08         0.00000E+00
    0.00000E+00         0.00000E+00        -0.48366E+08
 
   -0.48167E+08         0.57157E+06         0.00000E+00
    0.57157E+06        -0.97545E+08         0.00000E+00
    0.00000E+00         0.00000E+00        -0.48283E+08
 
   -0.48083E+08         0.58676E+06         0.00000E+00
    0.58676E+06        -0.97546E+08         0.00000E+00
    0.00000E+00         0.00000E+00        -0.48199E+08
 
   -0.47998E+08         0.60173E+06         0.00000E+00
    0.60173E+06        -0.97547E+08         0.00000E+00
    0.00000E+00         0.00000E+00        -0.48113E+08
 
   -0.47910E+08         0.61653E+06         0.00000E+00
    0.61653E+06        -0.97548E+08         0.00000E+00
    0.00000E+00         0.00000E+00        -0.48025E+08
 
   -0.47821E+08         0.63122E+06         0.00000E+00
    0.63122E+06        -0.97548E+08         0.00000E+00
    0.00000E+00         0.00000E+00        -0.47936E+08
 
   -0.47730E+08         0.64585E+06         0.00000E+00
    0.64585E+06        -0.97549E+08         0.00000E+00
    0.00000E+00         0.00000E+00        -0.47846E+08
 
   -0.47637E+08         0.66045E+06         0.00000E+00
    0.66045E+06        -0.97549E+08         0.00000E+00
    0.00000E+00         0.00000E+00        -0.47753E+08
 
   -0.47541E+08         0.67508E+06         0.00000E+00
    0.67508E+06        -0.97549E+08         0.00000E+00
    0.00000E+00         0.00000E+00        -0.47659E+08
 
   -0.47444E+08         0.68975E+06         0.00000E+00
    0.68975E+06        -0.97549E+08         0.00000E+00
    0.00000E+00         0.00000E+00        -0.47563E+08
 
   -0.47345E+08         0.70450E+06         0.00000E+00
    0.70450E+06        -0.97549E+08         0.00000E+00
    0.00000E+00         0.00000E+00        -0.47465E+08
 
   -0.47243E+08         0.71935E+06         0.00000E+00
    0.71935E+06        -0.97548E+08         0.00000E+00
    0.00000E+00         0.00000E+00        -0.47365E+08
 
   -0.47140E+08         0.73432E+06         0.00000E+00
    0.73432E+06        -0.97548E+08         0.00000E+00
    0.00000E+00         0.00000E+00        -0.47263E+08
 
   -0.47034E+08         0.74942E+06         0.00000E+00
    0.74942E+06        -0.97548E+08         0.00000E+00
    0.00000E+00         0.00000E+00        -0.47159E+08
 
   -0.46926E+08         0.76467E+06         0.00000E+00
    0.76467E+06        -0.97547E+08         0.00000E+00
    0.00000E+00         0.00000E+00        -0.47053E+08
 
   -0.46816E+08         0.78007E+06         0.00000E+00
    0.78007E+06        -0.97547E+08         0.00000E+00
    0.00000E+00         0.00000E+00        -0.46944E+08
 
   -0.46704E+08         0.79563E+06         0.00000E+00
    0.79563E+06        -0.97546E+08         0.00000E+00
    0.00000E+00         0.00000E+00        -0.46834E+08
 
   -0.46589E+08         0.81136E+06         0.00000E+00
    0.81136E+06        -0.97546E+08         0.00000E+00
    0.00000E+00         0.00000E+00        -0.46721E+08
 
   -0.46472E+08         0.82725E+06         0.00000E+00
    0.82725E+06        -0.97545E+08         0.00000E+00
    0.00000E+00         0.00000E+00        -0.46606E+08
 
   -0.46353E+08         0.84330E+06         0.00000E+00
    0.84330E+06        -0.97545E+08         0.00000E+00
    0.00000E+00         0.00000E+00        -0.46488E+08
 
   -0.46231E+08         0.85951E+06         0.00000E+00
    0.85951E+06        -0.97544E+08         0.00000E+00
    0.00000E+00         0.00000E+00        -0.46368E+08
 
   -0.46107E+08         0.87587E+06         0.00000E+00
    0.87587E+06        -0.97544E+08         0.00000E+00
    0.00000E+00         0.00000E+00        -0.46245E+08
 
   -0.45981E+08         0.89238E+06         0.00000E+00
    0.89238E+06        -0.97543E+08         0.00000E+00
    0.00000E+00         0.00000E+00        -0.46120E+08
 
   -0.45852E+08         0.90901E+06         0.00000E+00
    0.90901E+06        -0.97543E+08         0.00000E+00
    0.00000E+00         0.00000E+00        -0.45993E+08
 
   -0.45720E+08         0.92576E+06         0.00000E+00
    0.92576E+06        -0.97543E+08         0.00000E+00
    0.00000E+00         0.00000E+00        -0.45862E+08
 
   -0.45586E+08         0.94262E+06         0.00000E+00
    0.94262E+06        -0.97542E+08         0.00000E+00
    0.00000E+00         0.00000E+00        -0.45729E+08
 
   -0.45449E+08         0.95956E+06         0.00000E+00
    0.95956E+06        -0.97542E+08         0.00000E+00
    0.00000E+00         0.00000E+00        -0.45594E+08
 
   -0.45310E+08         0.97657E+06         0.00000E+00
    0.97657E+06        -0.97542E+08         0.00000E+00
    0.00000E+00         0.00000E+00        -0.45455E+08
 
   -0.45168E+08         0.99362E+06         0.00000E+00
    0.99362E+06        -0.97542E+08         0.00000E+00
    0.00000E+00         0.00000E+00        -0.45314E+08
 
   -0.45023E+08         0.10107E+07         0.00000E+00
    0.10107E+07        -0.97542E+08         0.00000E+00
    0.00000E+00         0.00000E+00        -0.45170E+08
 
   -0.44876E+08         0.10278E+07         0.00000E+00
    0.10278E+07        -0.97542E+08         0.00000E+00
    0.00000E+00         0.00000E+00        -0.45023E+08
 
   -0.44727E+08         0.10448E+07         0.00000E+00
    0.10448E+07        -0.97543E+08         0.00000E+00
    0.00000E+00         0.00000E+00        -0.44873E+08
 
   -0.44574E+08         0.10617E+07         0.00000E+00
    0.10617E+07        -0.97543E+08         0.00000E+00
    0.00000E+00         0.00000E+00        -0.44720E+08
 
   -0.44419E+08         0.10786E+07         0.00000E+00
    0.10786E+07        -0.97543E+08         0.00000E+00
    0.00000E+00         0.00000E+00        -0.44565E+08
 
   -0.44261E+08         0.10953E+07         0.00000E+00
    0.10953E+07        -0.97544E+08         0.00000E+00
    0.00000E+00         0.00000E+00        -0.44406E+08
 
   -0.44101E+08         0.11118E+07         0.00000E+00
    0.11118E+07        -0.97545E+08         0.00000E+00
    0.00000E+00         0.00000E+00        -0.44245E+08
 
   -0.43938E+08         0.11281E+07         0.00000E+00
    0.11281E+07        -0.97546E+08         0.00000E+00
    0.00000E+00         0.00000E+00        -0.44080E+08
 
   -0.43772E+08         0.11441E+07         0.00000E+00
    0.11441E+07        -0.97547E+08         0.00000E+00
    0.00000E+00         0.00000E+00        -0.43913E+08
 
   -0.43604E+08         0.11597E+07         0.00000E+00
    0.11597E+07        -0.97549E+08         0.00000E+00
    0.00000E+00         0.00000E+00        -0.43742E+08
 
   -0.43433E+08         0.11750E+07         0.00000E+00
    0.11750E+07        -0.97550E+08         0.00000E+00
    0.00000E+00         0.00000E+00        -0.43568E+08
 
   -0.43259E+08         0.11898E+07         0.00000E+00
    0.11898E+07        -0.97552E+08         0.00000E+00
    0.00000E+00         0.00000E+00        -0.43392E+08
 
   -0.43084E+08         0.12040E+07         0.00000E+00
    0.12040E+07        -0.97554E+08         0.00000E+00
    0.00000E+00         0.00000E+00        -0.43212E+08
 
   -0.42905E+08         0.12176E+07         0.00000E+00
    0.12176E+07        -0.97557E+08         0.00000E+00
    0.00000E+00         0.00000E+00        -0.43029E+08
 
   -0.42725E+08         0.12305E+07         0.00000E+00
    0.12305E+07        -0.97560E+08         0.00000E+00
    0.00000E+00         0.00000E+00        -0.42844E+08
 
   -0.42542E+08         0.12427E+07         0.00000E+00
    0.12427E+07        -0.97563E+08         0.00000E+00
    0.00000E+00         0.00000E+00        -0.42655E+08
 
   -0.42357E+08         0.12539E+07         0.00000E+00
    0.12539E+07        -0.97567E+08         0.00000E+00
    0.00000E+00         0.00000E+00        -0.42464E+08
 
   -0.42169E+08         0.12640E+07         0.00000E+00
    0.12640E+07        -0.97571E+08         0.00000E+00
    0.00000E+00         0.00000E+00        -0.42269E+08
 
   -0.41980E+08         0.12730E+07         0.00000E+00
    0.12730E+07        -0.97575E+08         0.00000E+00
    0.00000E+00         0.00000E+00        -0.42072E+08
 
   -0.41789E+08         0.12807E+07         0.00000E+00
    0.12807E+07        -0.97580E+08         0.00000E+00
    0.00000E+00         0.00000E+00        -0.41871E+08
 
   -0.41596E+08         0.12870E+07         0.00000E+00
    0.12870E+07        -0.97586E+08         0.00000E+00
    0.00000E+00         0.00000E+00        -0.41668E+08
 
   -0.41401E+08         0.12916E+07         0.00000E+00
    0.12916E+07        -0.97593E+08         0.00000E+00
    0.00000E+00         0.00000E+00        -0.41462E+08
 
   -0.41205E+08         0.12944E+07         0.00000E+00
    0.12944E+07        -0.97600E+08         0.00000E+00
    0.00000E+00         0.00000E+00        -0.41253E+08
 
   -0.41007E+08         0.12952E+07         0.00000E+00
    0.12952E+07        -0.97609E+08         0.00000E+00
    0.00000E+00         0.00000E+00        -0.41042E+08
 
   -0.40809E+08         0.12938E+07         0.00000E+00
    0.12938E+07        -0.97618E+08         0.00000E+00
    0.00000E+00         0.00000E+00        -0.40827E+08
 
   -0.40609E+08         0.12898E+07         0.00000E+00
    0.12898E+07        -0.97628E+08         0.00000E+00
    0.00000E+00         0.00000E+00        -0.40611E+08
 
   -0.40409E+08         0.12831E+07         0.00000E+00
    0.12831E+07        -0.97640E+08         0.00000E+00
    0.00000E+00         0.00000E+00        -0.40391E+08
 
   -0.40208E+08         0.12734E+07         0.00000E+00
    0.12734E+07        -0.97653E+08         0.00000E+00
    0.00000E+00         0.00000E+00        -0.40170E+08
 
   -0.40007E+08         0.12603E+07         0.00000E+00
    0.12603E+07        -0.97667E+08         0.00000E+00
    0.00000E+00         0.00000E+00        -0.39945E+08
 
   -0.39805E+08         0.12435E+07         0.00000E+00
    0.12435E+07        -0.97684E+08         0.00000E+00
    0.00000E+00         0.00000E+00        -0.39719E+08
 
   -0.39604E+08         0.12228E+07         0.00000E+00
    0.12228E+07        -0.97702E+08         0.00000E+00
    0.00000E+00         0.00000E+00        -0.39490E+08
 
   -0.39403E+08         0.11976E+07         0.00000E+00
    0.11976E+07        -0.97721E+08         0.00000E+00
    0.00000E+00         0.00000E+00        -0.39259E+08
 
   -0.39202E+08         0.11677E+07         0.00000E+00
    0.11677E+07        -0.97743E+08         0.00000E+00
    0.00000E+00         0.00000E+00        -0.39026E+08
 
   -0.39003E+08         0.11328E+07         0.00000E+00
    0.11328E+07        -0.97767E+08         0.00000E+00
    0.00000E+00         0.00000E+00        -0.38792E+08
 
   -0.38804E+08         0.10924E+07         0.00000E+00
    0.10924E+07        -0.97792E+08         0.00000E+00
    0.00000E+00         0.00000E+00        -0.38555E+08
 
   -0.38606E+08         0.10463E+07         0.00000E+00
    0.10463E+07        -0.97819E+08         0.00000E+00
    0.00000E+00         0.00000E+00        -0.38317E+08
 
   -0.38409E+08         0.99427E+06         0.00000E+00
    0.99427E+06        -0.97848E+08         0.00000E+00
    0.00000E+00         0.00000E+00        -0.38077E+08
 
   -0.38215E+08         0.93614E+06         0.00000E+00
    0.93614E+06        -0.97877E+08         0.00000E+00
    0.00000E+00         0.00000E+00        -0.37836E+08
 
   -0.38021E+08         0.87187E+06         0.00000E+00
    0.87187E+06        -0.97905E+08         0.00000E+00
    0.00000E+00         0.00000E+00        -0.37593E+08
 
   -0.37830E+08         0.80159E+06         0.00000E+00
    0.80159E+06        -0.97931E+08         0.00000E+00
    0.00000E+00         0.00000E+00        -0.37349E+08
 
   -0.37642E+08         0.72563E+06         0.00000E+00
    0.72563E+06        -0.97953E+08         0.00000E+00
    0.00000E+00         0.00000E+00        -0.37104E+08
 
   -0.37458E+08         0.64458E+06         0.00000E+00
    0.64458E+06        -0.97968E+08         0.00000E+00
    0.00000E+00         0.00000E+00        -0.36859E+08
 
   -0.37280E+08         0.55929E+06         0.00000E+00
    0.55929E+06        -0.97973E+08         0.00000E+00
    0.00000E+00         0.00000E+00        -0.36612E+08
 
   -0.37110E+08         0.47094E+06         0.00000E+00
    0.47094E+06        -0.97961E+08         0.00000E+00
    0.00000E+00         0.00000E+00        -0.36365E+08
 
   -0.36952E+08         0.38096E+06         0.00000E+00
    0.38096E+06        -0.97926E+08         0.00000E+00
    0.00000E+00         0.00000E+00        -0.36117E+08
 
   -0.36812E+08         0.29105E+06         0.00000E+00
    0.29105E+06        -0.97860E+08         0.00000E+00
    0.00000E+00         0.00000E+00        -0.35869E+08
 
   -0.36697E+08         0.20314E+06         0.00000E+00
    0.20314E+06        -0.97756E+08         0.00000E+00
    0.00000E+00         0.00000E+00        -0.35621E+08
 
   -0.36615E+08         0.11903E+06         0.00000E+00
    0.11903E+06        -0.97607E+08         0.00000E+00
    0.00000E+00         0.00000E+00        -0.35372E+08
 
   -0.36573E+08         0.39047E+05         0.00000E+00
    0.39047E+05        -0.97408E+08         0.00000E+00
    0.00000E+00         0.00000E+00        -0.35124E+08
 
   -0.49503E+08         0.12794E+05         0.00000E+00
    0.12794E+05        -0.97632E+08         0.00000E+00
    0.00000E+00         0.00000E+00        -0.49966E+08
 
   -0.49491E+08         0.38951E+05         0.00000E+00
    0.38951E+05        -0.97578E+08         0.00000E+00
    0.00000E+00         0.00000E+00        -0.49897E+08
 
   -0.49469E+08         0.66508E+05         0.00000E+00
    0.66508E+05        -0.97537E+08         0.00000E+00
    0.00000E+00         0.00000E+00        -0.49829E+08
 
   -0.49437E+08         0.95564E+05         0.00000E+00
    0.95564E+05        -0.97508E+08         0.00000E+00
    0.00000E+00         0.00000E+00        -0.49760E+08
 
   -0.49397E+08         0.12571E+06         0.00000E+00
    0.12571E+06        -0.97490E+08         0.00000E+00
    0.00000E+00         0.00000E+00        -0.49691E+08
 
   -0.49352E+08         0.15638E+06         0.00000E+00
    0.15638E+06        -0.97480E+08         0.00000E+00
    0.00000E+00         0.00000E+00        -0.49623E+08
 
   -0.49303E+08         0.18705E+06         0.00000E+00
    0.18705E+06        -0.97477E+08         0.00000E+00
    0.00000E+00         0.00000E+00        -0.49554E+08
 
   -0.49251E+08         0.21726E+06         0.00000E+00
    0.21726E+06        -0.97477E+08         0.00000E+00
    0.00000E+00         0.00000E+00        -0.49485E+08
 
   -0.49196E+08         0.24666E+06         0.00000E+00
    0.24666E+06        -0.97480E+08         0.00000E+00
    0.00000E+00         0.00000E+00        -0.49415E+08
 
   -0.49140E+08         0.27500E+06         0.00000E+00
    0.27500E+06        -0.97486E+08         0.00000E+00
    0.00000E+00         0.00000E+00        -0.49345E+08
 
   -0.49081E+08         0.30212E+06         0.00000E+00
    0.30212E+06        -0.97492E+08         0.00000E+00
    0.00000E+00         0.00000E+00        -0.49275E+08
 
   -0.49021E+08         0.32794E+06         0.00000E+00
    0.32794E+06        -0.97498E+08         0.00000E+00
    0.00000E+00         0.00000E+00        -0.49204E+08
 
   -0.48959E+08         0.35243E+06         0.00000E+00
    0.35243E+06        -0.97505E+08         0.00000E+00
    0.00000E+00         0.00000E+00        -0.49132E+08
 
   -0.48895E+08         0.37562E+06         0.00000E+00
    0.37562E+06        -0.97511E+08         0.00000E+00
    0.00000E+00         0.00000E+00        -0.49060E+08
 
   -0.48830E+08         0.39757E+06         0.00000E+00
    0.39757E+06        -0.97517E+08         0.00000E+00
    0.00000E+00         0.00000E+00        -0.48986E+08
 
   -0.48763E+08         0.41836E+06         0.00000E+00
    0.41836E+06        -0.97523E+08         0.00000E+00
    0.00000E+00         0.00000E+00        -0.48913E+08
 
   -0.48694E+08         0.43808E+06         0.00000E+00
    0.43808E+06        -0.97528E+08         0.00000E+00
    0.00000E+00         0.00000E+00        -0.48838E+08
 
   -0.48623E+08         0.45685E+06         0.00000E+00
    0.45685E+06        -0.97532E+08         0.00000E+00
    0.00000E+00         0.00000E+00        -0.48762E+08
 
   -0.48551E+08         0.47476E+06         0.00000E+00
    0.47476E+06        -0.97536E+08         0.00000E+00
    0.00000E+00         0.00000E+00        -0.48685E+08
 
   -0.48476E+08         0.49192E+06         0.00000E+00
    0.49192E+06        -0.97539E+08         0.00000E+00
    0.00000E+00         0.00000E+00        -0.48607E+08
 
   -0.48400E+08         0.50844E+06         0.00000E+00
    0.50844E+06        -0.97542E+08         0.00000E+00
    0.00000E+00         0.00000E+00        -0.48528E+08
 
   -0.48322E+08         0.52440E+06         0.00000E+00
    0.52440E+06        -0.97544E+08         0.00000E+00
    0.00000E+00         0.00000E+00        -0.48448E+08
 
   -0.48242E+08         0.53990E+06         0.00000E+00
    0.53990E+06        -0.97546E+08         0.00000E+00
    0.00000E+00         0.00000E+00        -0.48366E+08
 
   -0.48160E+08         0.55503E+06         0.00000E+00
    0.55503E+06        -0.97548E+08         0.00000E+00
    0.00000E+00         0.00000E+00        -0.48283E+08
 
   -0.48077E+08         0.56985E+06         0.00000E+00
    0.56985E+06        -0.97549E+08         0.00000E+00
    0.00000E+00         0.00000E+00        -0.48199E+08
 
   -0.47991E+08         0.58444E+06         0.00000E+00
    0.58444E+06        -0.97550E+08         0.00000E+00
    0.00000E+00         0.00000E+00        -0.48113E+08
 
   -0.47904E+08         0.59885E+06         0.00000E+00
    0.59885E+06        -0.97551E+08         0.00000E+00
    0.00000E+00         0.00000E+00        -0.48025E+08
 
   -0.47814E+08         0.61316E+06         0.00000E+00
    0.61316E+06        -0.97551E+08         0.00000E+00
    0.00000E+00         0.00000E+00        -0.47936E+08
 
   -0.47723E+08         0.62739E+06         0.00000E+00
    0.62739E+06        -0.97552E+08         0.00000E+00
    0.00000E+00         0.00000E+00        -0.47846E+08
 
   -0.47630E+08         0.64160E+06         0.00000E+00
    0.64160E+06        -0.97552E+08         0.00000E+00
    0.00000E+00         0.00000E+00        -0.47753E+08
 
   -0.47534E+08         0.65582E+06         0.00000E+00
    0.65582E+06        -0.97552E+08         0.00000E+00
    0.00000E+00         0.00000E+00        -0.47659E+08
 
   -0.47437E+08         0.67008E+06         0.00000E+00
    0.67008E+06        -0.97552E+08         0.00000E+00
    0.00000E+00         0.00000E+00        -0.47563E+08
 
   -0.47338E+08         0.68442E+06         0.00000E+00
    0.68442E+06        -0.97552E+08         0.00000E+00
    0.00000E+00         0.00000E+00        -0.47465E+08
 
   -0.47236E+08         0.69885E+06         0.00000E+00
    0.69885E+06        -0.97551E+08         0.00000E+00
    0.00000E+00         0.00000E+00        -0.47365E+08
 
   -0.47133E+08         0.71339E+06         0.00000E+00
    0.71339E+06        -0.97551E+08         0.00000E+00
    0.00000E+00         0.00000E+00        -0.47263E+08
 
   -0.47027E+08         0.72806E+06         0.00000E+00
    0.72806E+06        -0.97551E+08         0.00000E+00
    0.00000E+00         0.00000E+00        -0.47159E+08
 
   -0.46919E+08         0.74287E+06         0.00000E+00
    0.74287E+06        -0.97550E+08         0.00000E+00
    0.00000E+00         0.00000E+00        -0.47053E+08
 
   -0.46809E+08         0.75782E+06         0.00000E+00
    0.75782E+06        -0.97550E+08         0.00000E+00
    0.00000E+00         0.00000E+00        -0.46944E+08
 
   -0.46696E+08         0.77293E+06         0.00000E+00
    0.77293E+06        -0.97549E+08         0.00000E+00
    0.00000E+00         0.00000E+00        -0.46834E+08
 
   -0.46582E+08         0.78819E+06         0.00000E+00
    0.78819E+06        -0.97549E+08         0.00000E+00
    0.00000E+00         0.00000E+00        -0.46721E+08
 
   -0.46465E+08         0.80362E+06         0.00000E+00
    0.80362E+06        -0.97548E+08         0.00000E+00
    0.00000E+00         0.00000E+00        -0.46606E+08
 
   -0.46345E+08         0.81919E+06         0.00000E+00
    0.81919E+06        -0.97548E+08         0.00000E+00
    0.00000E+00         0.00000E+00        -0.46488E+08
 
   -0.46223E+08         0.83492E+06         0.00000E+00
    0.83492E+06        -0.97547E+08         0.00000E+00
    0.00000E+00         0.00000E+00        -0.46368E+08
 
   -0.46099E+08         0.85080E+06         0.00000E+00
    0.85080E+06        -0.97547E+08         0.00000E+00
    0.00000E+00         0.00000E+00        -0.46245E+08
 
   -0.45972E+08         0.86681E+06         0.00000E+00
    0.86681E+06        -0.97547E+08         0.00000E+00
    0.00000E+00         0.00000E+00        -0.46120E+08
 
   -0.45843E+08         0.88294E+06         0.00000E+00
    0.88294E+06        -0.97546E+08         0.00000E+00
    0.00000E+00         0.00000E+00        -0.45993E+08
 
   -0.45712E+08         0.89919E+06         0.00000E+00
    0.89919E+06        -0.97546E+08         0.00000E+00
    0.00000E+00         0.00000E+00        -0.45862E+08
 
   -0.45577E+08         0.91553E+06         0.00000E+00
    0.91553E+06        -0.97546E+08         0.00000E+00
    0.00000E+00         0.00000E+00        -0.45729E+08
 
   -0.45441E+08         0.93196E+06         0.00000E+00
    0.93196E+06        -0.97546E+08         0.00000E+00
    0.00000E+00         0.00000E+00        -0.45594E+08
 
   -0.45301E+08         0.94845E+06         0.00000E+00
    0.94845E+06        -0.97545E+08         0.00000E+00
    0.00000E+00         0.00000E+00        -0.45455E+08
 
   -0.45159E+08         0.96497E+06         0.00000E+00
    0.96497E+06        -0.97545E+08         0.00000E+00
    0.00000E+00         0.00000E+00        -0.45314E+08
 
   -0.45015E+08         0.98152E+06         0.00000E+00
    0.98152E+06        -0.97546E+08         0.00000E+00
    0.00000E+00         0.00000E+00        -0.45170E+08
 
   -0.44868E+08         0.99805E+06         0.00000E+00
    0.99805E+06        -0.97546E+08         0.00000E+00
    0.00000E+00         0.00000E+00        -0.45023E+08
 
   -0.44718E+08         0.10145E+07         0.00000E+00
    0.10145E+07        -0.97546E+08         0.00000E+00
    0.00000E+00         0.00000E+00        -0.44873E+08
 
   -0.44565E+08         0.10310E+07         0.00000E+00
    0.10310E+07        -0.97546E+08         0.00000E+00
    0.00000E+00         0.00000E+00        -0.44720E+08
 
   -0.44410E+08         0.10473E+07         0.00000E+00
    0.10473E+07        -0.97547E+08         0.00000E+00
    0.00000E+00         0.00000E+00        -0.44565E+08
 
   -0.44253E+08         0.10635E+07         0.00000E+00
    0.10635E+07        -0.97547E+08         0.00000E+00
    0.00000E+00         0.00000E+00        -0.44406E+08
 
   -0.44092E+08         0.10795E+07         0.00000E+00
    0.10795E+07        -0.97548E+08         0.00000E+00
    0.00000E+00         0.00000E+00        -0.44245E+08
 
   -0.43929E+08         0.10952E+07         0.00000E+00
    0.10952E+07        -0.97549E+08         0.00000E+00
    0.00000E+00         0.00000E+00        -0.44080E+08
 
   -0.43764E+08         0.11107E+07         0.00000E+00
    0.11107E+07        -0.97550E+08         0.00000E+00
    0.00000E+00         0.00000E+00        -0.43913E+08
 
   -0.43595E+08         0.11258E+07         0.00000E+00
    0.11258E+07        -0.97552E+08         0.00000E+00
    0.00000E+00         0.00000E+00        -0.43742E+08
 
   -0.43425E+08         0.11406E+07         0.00000E+00
    0.11406E+07        -0.97553E+08         0.00000E+00
    0.00000E+00         0.00000E+00        -0.43568E+08
 
   -0.43252E+08         0.11549E+07         0.00000E+00
    0.11549E+07        -0.97555E+08         0.00000E+00
    0.00000E+00         0.00000E+00        -0.43392E+08
 
   -0.43076E+08         0.11686E+07         0.00000E+00
    0.11686E+07        -0.97557E+08         0.00000E+00
    0.00000E+00         0.00000E+00        -0.43212E+08
 
   -0.42898E+08         0.11818E+07         0.00000E+00
    0.11818E+07        -0.97559E+08         0.00000E+00
    0.00000E+00         0.00000E+00        -0.43030E+08
 
   -0.42718E+08         0.11942E+07         0.00000E+00
    0.11942E+07        -0.97562E+08         0.00000E+00
    0.00000E+00         0.00000E+00        -0.42844E+08
 
   -0.42535E+08         0.12059E+07         0.00000E+00
    0.12059E+07        -0.97565E+08         0.00000E+00
    0.00000E+00         0.00000E+00        -0.42655E+08
 
   -0.42350E+08         0.12166E+07         0.00000E+00
    0.12166E+07        -0.97569E+08         0.00000E+00
    0.00000E+00         0.00000E+00        -0.42464E+08
 
   -0.42163E+08         0.12264E+07         0.00000E+00
    0.12264E+07        -0.97573E+08         0.00000E+00
    0.00000E+00         0.00000E+00        -0.42269E+08
 
   -0.41974E+08         0.12350E+07         0.00000E+00
    0.12350E+07        -0.97577E+08         0.00000E+00
    0.00000E+00         0.00000E+00        -0.42072E+08
 
   -0.41784E+08         0.12424E+07         0.00000E+00
    0.12424E+07        -0.97582E+08         0.00000E+00
    0.00000E+00         0.00000E+00        -0.41871E+08
 
   -0.41591E+08         0.12483E+07         0.00000E+00
    0.12483E+07        -0.97587E+08         0.00000E+00
    0.00000E+00         0.00000E+00        -0.41668E+08
 
   -0.41397E+08         0.12526E+07         0.00000E+00
    0.12526E+07        -0.97594E+08         0.00000E+00
    0.00000E+00         0.00000E+00        -0.41462E+08
 
   -0.41202E+08         0.12551E+07         0.00000E+00
    0.12551E+07        -0.97601E+08         0.00000E+00
    0.00000E+00         0.00000E+00        -0.41253E+08
 
   -0.41005E+08         0.12557E+07         0.00000E+00
    0.12557E+07        -0.97608E+08         0.00000E+00
    0.00000E+00         0.00000E+00        -0.41042E+08
 
   -0.40807E+08         0.12540E+07         0.00000E+00
    0.12540E+07        -0.97617E+08         0.00000E+00
    0.00000E+00         0.00000E+00        -0.40827E+08
 
   -0.40609E+08         0.12499E+07         0.00000E+00
    0.12499E+07        -0.97627E+08         0.00000E+00
    0.00000E+00         0.00000E+00        -0.40611E+08
 
   -0.40409E+08         0.12431E+07         0.00000E+00
    0.12431E+07        -0.97638E+08         0.00000E+00
    0.00000E+00         0.00000E+00        -0.40391E+08
 
   -0.40210E+08         0.12333E+07         0.00000E+00
    0.12333E+07        -0.97651E+08         0.00000E+00
    0.00000E+00         0.00000E+00        -0.40170E+08
 
   -0.40010E+08         0.12202E+07         0.00000E+00
    0.12202E+07        -0.97665E+08         0.00000E+00
    0.00000E+00         0.00000E+00        -0.39945E+08
 
   -0.39810E+08         0.12034E+07         0.00000E+00
    0.12034E+07        -0.97680E+08         0.00000E+00
    0.00000E+00         0.00000E+00        -0.39719E+08
 
   -0.39610E+08         0.11827E+07         0.00000E+00
    0.11827E+07        -0.97697E+08         0.00000E+00
    0.00000E+00         0.00000E+00        -0.39490E+08
 
   -0.39411E+08         0.11576E+07         0.00000E+00
    0.11576E+07        -0.97716E+08         0.00000E+00
    0.00000E+00         0.00000E+00        -0.39259E+08
 
   -0.39213E+08         0.11279E+07         0.00000E+00
    0.11279E+07        -0.97737E+08         0.00000E+00
    0.00000E+00         0.00000E+00        -0.39026E+08
 
   -0.39015E+08         0.10931E+07         0.00000E+00
    0.10931E+07        -0.97759E+08         0.00000E+00
    0.00000E+00         0.00000E+00        -0.38792E+08
 
   -0.38819E+08         0.10530E+07         0.00000E+00
    0.10530E+07        -0.97784E+08         0.00000E+00
    0.00000E+00         0.00000E+00        -0.38555E+08
 
   -0.38623E+08         0.10071E+07         0.00000E+00
    0.10071E+07        -0.97810E+08         0.00000E+00
    0.00000E+00         0.00000E+00        -0.38317E+08
 
   -0.38430E+08         0.95542E+06         0.00000E+00
    0.95542E+06        -0.97837E+08         0.00000E+00
    0.00000E+00         0.00000E+00        -0.38077E+08
 
   -0.38238E+08         0.89765E+06         0.00000E+00
    0.89765E+06        -0.97864E+08         0.00000E+00
    0.00000E+00         0.00000E+00        -0.37836E+08
 
   -0.38049E+08         0.83380E+06         0.00000E+00
    0.83380E+06        -0.97891E+08         0.00000E+00
    0.00000E+00         0.00000E+00        -0.37593E+08
 
   -0.37862E+08         0.76405E+06         0.00000E+00
    0.76405E+06        -0.97917E+08         0.00000E+00
    0.00000E+00         0.00000E+00        -0.37349E+08
 
   -0.37678E+08         0.68878E+06         0.00000E+00
    0.68878E+06        -0.97938E+08         0.00000E+00
    0.00000E+00         0.00000E+00        -0.37104E+08
 
   -0.37498E+08         0.60867E+06         0.00000E+00
    0.60867E+06        -0.97952E+08         0.00000E+00
    0.00000E+00         0.00000E+00        -0.36858E+08
 
   -0.37324E+08         0.52474E+06         0.00000E+00
    0.52474E+06        -0.97955E+08         0.00000E+00
    0.00000E+00         0.00000E+00        -0.36612E+08
 
   -0.37159E+08         0.43839E+06         0.00000E+00
    0.43839E+06        -0.97943E+08         0.00000E+00
    0.00000E+00         0.00000E+00        -0.36365E+08
 
   -0.37006E+08         0.35136E+06         0.00000E+00
    0.35136E+06        -0.97908E+08         0.00000E+00
    0.00000E+00         0.00000E+00        -0.36117E+08
 
   -0.36870E+08         0.26569E+06         0.00000E+00
    0.26569E+06        -0.97843E+08         0.00000E+00
    0.00000E+00         0.00000E+00        -0.35869E+08
 
   -0.36760E+08         0.18358E+06         0.00000E+00
    0.18358E+06        -0.97739E+08         0.00000E+00
    0.00000E+00         0.00000E+00        -0.35621E+08
 
   -0.36681E+08         0.10667E+06         0.00000E+00
    0.10667E+06        -0.97591E+08         0.00000E+00
    0.00000E+00         0.00000E+00        -0.35372E+08
 
   -0.36640E+08         0.34829E+05         0.00000E+00
    0.34829E+05        -0.97393E+08         0.00000E+00
    0.00000E+00         0.00000E+00        -0.35124E+08
 
   -0.49482E+08         0.11622E+05         0.00000E+00
    0.11622E+05        -0.97637E+08         0.00000E+00
    0.00000E+00         0.00000E+00        -0.49966E+08
 
   -0.49471E+08         0.35516E+05         0.00000E+00
    0.35516E+05        -0.97583E+08         0.00000E+00
    0.00000E+00         0.00000E+00        -0.49897E+08
 
   -0.49449E+08         0.61046E+05         0.00000E+00
    0.61046E+05        -0.97542E+08         0.00000E+00
    0.00000E+00         0.00000E+00        -0.49829E+08
 
   -0.49418E+08         0.88436E+05         0.00000E+00
    0.88436E+05        -0.97514E+08         0.00000E+00
    0.00000E+00         0.00000E+00        -0.49760E+08
 
   -0.49380E+08         0.11730E+06         0.00000E+00
    0.11730E+06        -0.97496E+08         0.00000E+00
    0.00000E+00         0.00000E+00        -0.49691E+08
 
   -0.49336E+08         0.14703E+06         0.00000E+00
    0.14703E+06        -0.97486E+08         0.00000E+00
    0.00000E+00         0.00000E+00        -0.49623E+08
 
   -0.49288E+08         0.17700E+06         0.00000E+00
    0.17700E+06        -0.97483E+08         0.00000E+00
    0.00000E+00         0.00000E+00        -0.49554E+08
 
   -0.49237E+08         0.20667E+06         0.00000E+00
    0.20667E+06        -0.97483E+08         0.00000E+00
    0.00000E+00         0.00000E+00        -0.49485E+08
 
   -0.49183E+08         0.23562E+06         0.00000E+00
    0.23562E+06        -0.97486E+08         0.00000E+00
    0.00000E+00         0.00000E+00        -0.49415E+08
 
   -0.49128E+08         0.26357E+06         0.00000E+00
    0.26357E+06        -0.97491E+08         0.00000E+00
    0.00000E+00         0.00000E+00        -0.49345E+08
 
   -0.49070E+08         0.29032E+06         0.00000E+00
    0.29032E+06        -0.97497E+08         0.00000E+00
    0.00000E+00         0.00000E+00        -0.49275E+08
 
   -0.49011E+08         0.31578E+06         0.00000E+00
    0.31578E+06        -0.97503E+08         0.00000E+00
    0.00000E+00         0.00000E+00        -0.49204E+08
 
   -0.48949E+08         0.33992E+06         0.00000E+00
    0.33992E+06        -0.97510E+08         0.00000E+00
    0.00000E+00         0.00000E+00        -0.49132E+08
 
   -0.48886E+08         0.36276E+06         0.00000E+00
    0.36276E+06        -0.97516E+08         0.00000E+00
    0.00000E+00         0.00000E+00        -0.49060E+08
 
   -0.48821E+08         0.38436E+06         0.00000E+00
    0.38436E+06        -0.97521E+08         0.00000E+00
    0.00000E+00         0.00000E+00        -0.48986E+08
 
   -0.48755E+08         0.40479E+06         0.00000E+00
    0.40479E+06        -0.97527E+08         0.00000E+00
    0.00000E+00         0.00000E+00        -0.48913E+08
 
   -0.48686E+08         0.42416E+06         0.00000E+00
    0.42416E+06        -0.97531E+08         0.00000E+00
    0.00000E+00         0.00000E+00        -0.48838E+08
 
   -0.48616E+08         0.44256E+06         0.00000E+00
    0.44256E+06        -0.97536E+08         0.00000E+00
    0.00000E+00         0.00000E+00        -0.48762E+08
 
   -0.48543E+08         0.46010E+06         0.00000E+00
    0.46010E+06        -0.97539E+08         0.00000E+00
    0.00000E+00         0.00000E+00        -0.48685E+08
 
   -0.48469E+08         0.47689E+06         0.00000E+00
    0.47689E+06        -0.97542E+08         0.00000E+00
    0.00000E+00         0.00000E+00        -0.48607E+08
 
   -0.48393E+08         0.49304E+06         0.00000E+00
    0.49304E+06        -0.97545E+08         0.00000E+00
    0.00000E+00         0.00000E+00        -0.48528E+08
 
   -0.48315E+08         0.50862E+06         0.00000E+00
    0.50862E+06        -0.97547E+08         0.00000E+00
    0.00000E+00         0.00000E+00        -0.48448E+08
 
   -0.48236E+08         0.52375E+06         0.00000E+00
    0.52375E+06        -0.97549E+08         0.00000E+00
    0.00000E+00         0.00000E+00        -0.48366E+08
 
   -0.48154E+08         0.53849E+06         0.00000E+00
    0.53849E+06        -0.97551E+08         0.00000E+00
    0.00000E+00         0.00000E+00        -0.48283E+08
 
   -0.48070E+08         0.55294E+06         0.00000E+00
    0.55294E+06        -0.97552E+08         0.00000E+00
    0.00000E+00         0.00000E+00        -0.48199E+08
 
   -0.47985E+08         0.56714E+06         0.00000E+00
    0.56714E+06        -0.97553E+08         0.00000E+00
    0.00000E+00         0.00000E+00        -0.48113E+08
 
   -0.47897E+08         0.58117E+06         0.00000E+00
    0.58117E+06        -0.97554E+08         0.00000E+00
    0.00000E+00         0.00000E+00        -0.48025E+08
 
   -0.47808E+08         0.59508E+06         0.00000E+00
    0.59508E+06        -0.97554E+08         0.00000E+00
    0.00000E+00         0.00000E+00        -0.47936E+08
 
   -0.47717E+08         0.60892E+06         0.00000E+00
    0.60892E+06        -0.97554E+08         0.00000E+00
    0.00000E+00         0.00000E+00        -0.47846E+08
 
   -0.47623E+08         0.62273E+06         0.00000E+00
    0.62273E+06        -0.97555E+08         0.00000E+00
    0.00000E+00         0.00000E+00        -0.47753E+08
 
   -0.47528E+08         0.63655E+06         0.00000E+00
    0.63655E+06        -0.97555E+08         0.00000E+00
    0.00000E+00         0.00000E+00        -0.47659E+08
 
   -0.47430E+08         0.65040E+06         0.00000E+00
    0.65040E+06        -0.97555E+08         0.00000E+00
    0.00000E+00         0.00000E+00        -0.47563E+08
 
   -0.47331E+08         0.66432E+06         0.00000E+00
    0.66432E+06        -0.97554E+08         0.00000E+00
    0.00000E+00         0.00000E+00        -0.47465E+08
 
   -0.47229E+08         0.67833E+06         0.00000E+00
    0.67833E+06        -0.97554E+08         0.00000E+00
    0.00000E+00         0.00000E+00        -0.47365E+08
 
   -0.47126E+08         0.69244E+06         0.00000E+00
    0.69244E+06        -0.97554E+08         0.00000E+00
    0.00000E+00         0.00000E+00        -0.47263E+08
 
   -0.47020E+08         0.70668E+06         0.00000E+00
    0.70668E+06        -0.97553E+08         0.00000E+00
    0.00000E+00         0.00000E+00        -0.47159E+08
 
   -0.46912E+08         0.72104E+06         0.00000E+00
    0.72104E+06        -0.97553E+08         0.00000E+00
    0.00000E+00         0.00000E+00        -0.47053E+08
 
   -0.46801E+08         0.73555E+06         0.00000E+00
    0.73555E+06        -0.97553E+08         0.00000E+00
    0.00000E+00         0.00000E+00        -0.46945E+08
 
   -0.46689E+08         0.75020E+06         0.00000E+00
    0.75020E+06        -0.97552E+08         0.00000E+00
    0.00000E+00         0.00000E+00        -0.46834E+08
 
   -0.46574E+08         0.76501E+06         0.00000E+00
    0.76501E+06        -0.97552E+08         0.00000E+00
    0.00000E+00         0.00000E+00        -0.46721E+08
 
   -0.46457E+08         0.77996E+06         0.00000E+00
    0.77996E+06        -0.97551E+08         0.00000E+00
    0.00000E+00         0.00000E+00        -0.46606E+08
 
   -0.46337E+08         0.79507E+06         0.00000E+00
    0.79507E+06        -0.97551E+08         0.00000E+00
    0.00000E+00         0.00000E+00        -0.46488E+08
 
   -0.46215E+08         0.81031E+06         0.00000E+00
    0.81031E+06        -0.97551E+08         0.00000E+00
    0.00000E+00         0.00000E+00        -0.46368E+08
 
   -0.46091E+08         0.82570E+06         0.00000E+00
    0.82570E+06        -0.97550E+08         0.00000E+00
    0.00000E+00         0.00000E+00        -0.46245E+08
 
   -0.45964E+08         0.84122E+06         0.00000E+00
    0.84122E+06        -0.97550E+08         0.00000E+00
    0.00000E+00         0.00000E+00        -0.46120E+08
 
   -0.45835E+08         0.85685E+06         0.00000E+00
    0.85685E+06        -0.97549E+08         0.00000E+00
    0.00000E+00         0.00000E+00        -0.45993E+08
 
   -0.45703E+08         0.87260E+06         0.00000E+00
    0.87260E+06        -0.97549E+08         0.00000E+00
    0.00000E+00         0.00000E+00        -0.45862E+08
 
   -0.45569E+08         0.88843E+06         0.00000E+00
    0.88843E+06        -0.97549E+08         0.00000E+00
    0.00000E+00         0.00000E+00        -0.45729E+08
 
   -0.45432E+08         0.90435E+06         0.00000E+00
    0.90435E+06        -0.97549E+08         0.00000E+00
    0.00000E+00         0.00000E+00        -0.45594E+08
 
   -0.45293E+08         0.92032E+06         0.00000E+00
    0.92032E+06        -0.97549E+08         0.00000E+00
    0.00000E+00         0.00000E+00        -0.45455E+08
 
   -0.45151E+08         0.93632E+06         0.00000E+00
    0.93632E+06        -0.97549E+08         0.00000E+00
    0.00000E+00         0.00000E+00        -0.45314E+08
 
   -0.45006E+08         0.95234E+06         0.00000E+00
    0.95234E+06        -0.97549E+08         0.00000E+00
    0.00000E+00         0.00000E+00        -0.45170E+08
 
   -0.44859E+08         0.96835E+06         0.00000E+00
    0.96835E+06        -0.97549E+08         0.00000E+00
    0.00000E+00         0.00000E+00        -0.45023E+08
 
   -0.44709E+08         0.98432E+06         0.00000E+00
    0.98432E+06        -0.97549E+08         0.00000E+00
    0.00000E+00         0.00000E+00        -0.44873E+08
 
   -0.44557E+08         0.10002E+07         0.00000E+00
    0.10002E+07        -0.97550E+08         0.00000E+00
    0.00000E+00         0.00000E+00        -0.44720E+08
 
   -0.44402E+08         0.10160E+07         0.00000E+00
    0.10160E+07        -0.97550E+08         0.00000E+00
    0.00000E+00         0.00000E+00        -0.44565E+08
 
   -0.44244E+08         0.10317E+07         0.00000E+00
    0.10317E+07        -0.97551E+08         0.00000E+00
    0.00000E+00         0.00000E+00        -0.44406E+08
 
   -0.44084E+08         0.10471E+07         0.00000E+00
    0.10471E+07        -0.97551E+08         0.00000E+00
    0.00000E+00         0.00000E+00        -0.44245E+08
 
   -0.43921E+08         0.10624E+07         0.00000E+00
    0.10624E+07        -0.97552E+08         0.00000E+00
    0.00000E+00         0.00000E+00        -0.44080E+08
 
   -0.43755E+08         0.10773E+07         0.00000E+00
    0.10773E+07        -0.97553E+08         0.00000E+00
    0.00000E+00         0.00000E+00        -0.43913E+08
 
   -0.43587E+08         0.10920E+07         0.00000E+00
    0.10920E+07        -0.97555E+08         0.00000E+00
    0.00000E+00         0.00000E+00        -0.43742E+08
 
   -0.43417E+08         0.11062E+07         0.00000E+00
    0.11062E+07        -0.97556E+08         0.00000E+00
    0.00000E+00         0.00000E+00        -0.43568E+08
 
   -0.43244E+08         0.11200E+07         0.00000E+00
    0.11200E+07        -0.97558E+08         0.00000E+00
    0.00000E+00         0.00000E+00        -0.43392E+08
 
   -0.43068E+08         0.11333E+07         0.00000E+00
    0.11333E+07        -0.97560E+08         0.00000E+00
    0.00000E+00         0.00000E+00        -0.43212E+08
 
   -0.42891E+08         0.11459E+07         0.00000E+00
    0.11459E+07        -0.97562E+08         0.00000E+00
    0.00000E+00         0.00000E+00        -0.43030E+08
 
   -0.42710E+08         0.11579E+07         0.00000E+00
    0.11579E+07        -0.97565E+08         0.00000E+00
    0.00000E+00         0.00000E+00        -0.42844E+08
 
   -0.42528E+08         0.11692E+07         0.00000E+00
    0.11692E+07        -0.97567E+08         0.00000E+00
    0.00000E+00         0.00000E+00        -0.42655E+08
 
   -0.42344E+08         0.11795E+07         0.00000E+00
    0.11795E+07        -0.97571E+08         0.00000E+00
    0.00000E+00         0.00000E+00        -0.42464E+08
 
   -0.42157E+08         0.11889E+07         0.00000E+00
    0.11889E+07        -0.97574E+08         0.00000E+00
    0.00000E+00         0.00000E+00        -0.42269E+08
 
   -0.41969E+08         0.11971E+07         0.00000E+00
    0.11971E+07        -0.97578E+08         0.00000E+00
    0.00000E+00         0.00000E+00        -0.42072E+08
 
   -0.41778E+08         0.12041E+07         0.00000E+00
    0.12041E+07        -0.97583E+08         0.00000E+00
    0.00000E+00         0.00000E+00        -0.41871E+08
 
   -0.41587E+08         0.12097E+07         0.00000E+00
    0.12097E+07        -0.97588E+08         0.00000E+00
    0.00000E+00         0.00000E+00        -0.41668E+08
 
   -0.41393E+08         0.12137E+07         0.00000E+00
    0.12137E+07        -0.97594E+08         0.00000E+00
    0.00000E+00         0.00000E+00        -0.41462E+08
 
   -0.41198E+08         0.12160E+07         0.00000E+00
    0.12160E+07        -0.97601E+08         0.00000E+00
    0.00000E+00         0.00000E+00        -0.41253E+08
 
   -0.41003E+08         0.12163E+07         0.00000E+00
    0.12163E+07        -0.97608E+08         0.00000E+00
    0.00000E+00         0.00000E+00        -0.41042E+08
 
   -0.40806E+08         0.12145E+07         0.00000E+00
    0.12145E+07        -0.97617E+08         0.00000E+00
    0.00000E+00         0.00000E+00        -0.40827E+08
 
   -0.40608E+08         0.12102E+07         0.00000E+00
    0.12102E+07        -0.97626E+08         0.00000E+00
    0.00000E+00         0.00000E+00        -0.40611E+08
 
   -0.40410E+08         0.12033E+07         0.00000E+00
    0.12033E+07        -0.97637E+08         0.00000E+00
    0.00000E+00         0.00000E+00        -0.40391E+08
 
   -0.40211E+08         0.11935E+07         0.00000E+00
    0.11935E+07        -0.97648E+08         0.00000E+00
    0.00000E+00         0.00000E+00        -0.40170E+08
 
   -0.40013E+08         0.11803E+07         0.00000E+00
    0.11803E+07        -0.97662E+08         0.00000E+00
    0.00000E+00         0.00000E+00        -0.39945E+08
 
   -0.39814E+08         0.11636E+07         0.00000E+00
    0.11636E+07        -0.97676E+08         0.00000E+00
    0.00000E+00         0.00000E+00        -0.39719E+08
 
   -0.39616E+08         0.11430E+07         0.00000E+00
    0.11430E+07        -0.97693E+08         0.00000E+00
    0.00000E+00         0.00000E+00        -0.39490E+08
 
   -0.39419E+08         0.11180E+07         0.00000E+00
    0.11180E+07        -0.97711E+08         0.00000E+00
    0.00000E+00         0.00000E+00        -0.39259E+08
 
   -0.39222E+08         0.10885E+07         0.00000E+00
    0.10885E+07        -0.97730E+08         0.00000E+00
    0.00000E+00         0.00000E+00        -0.39026E+08
 
   -0.39027E+08         0.10539E+07         0.00000E+00
    0.10539E+07        -0.97752E+08         0.00000E+00
    0.00000E+00         0.00000E+00        -0.38792E+08
 
   -0.38833E+08         0.10141E+07         0.00000E+00
    0.10141E+07        -0.97775E+08         0.00000E+00
    0.00000E+00         0.00000E+00        -0.38555E+08
 
   -0.38641E+08         0.96856E+06         0.00000E+00
    0.96856E+06        -0.97800E+08         0.00000E+00
    0.00000E+00         0.00000E+00        -0.38317E+08
 
   -0.38450E+08         0.91719E+06         0.00000E+00
    0.91719E+06        -0.97826E+08         0.00000E+00
    0.00000E+00         0.00000E+00        -0.38077E+08
 
   -0.38262E+08         0.85983E+06         0.00000E+00
    0.85983E+06        -0.97852E+08         0.00000E+00
    0.00000E+00         0.00000E+00        -0.37836E+08
 
   -0.38076E+08         0.79647E+06         0.00000E+00
    0.79647E+06        -0.97878E+08         0.00000E+00
    0.00000E+00         0.00000E+00        -0.37593E+08
 
   -0.37892E+08         0.72731E+06         0.00000E+00
    0.72731E+06        -0.97902E+08         0.00000E+00
    0.00000E+00         0.00000E+00        -0.37349E+08
 
   -0.37713E+08         0.65278E+06         0.00000E+00
    0.65278E+06        -0.97922E+08         0.00000E+00
    0.00000E+00         0.00000E+00        -0.37104E+08
 
   -0.37538E+08         0.57367E+06         0.00000E+00
    0.57367E+06        -0.97936E+08         0.00000E+00
    0.00000E+00         0.00000E+00        -0.36858E+08
 
   -0.37368E+08         0.49113E+06         0.00000E+00
    0.49113E+06        -0.97938E+08         0.00000E+00
    0.00000E+00         0.00000E+00        -0.36612E+08
 
   -0.37208E+08         0.40679E+06         0.00000E+00
    0.40679E+06        -0.97926E+08         0.00000E+00
    0.00000E+00         0.00000E+00        -0.36365E+08
 
   -0.37059E+08         0.32269E+06         0.00000E+00
    0.32269E+06        -0.97891E+08         0.00000E+00
    0.00000E+00         0.00000E+00        -0.36117E+08
 
   -0.36928E+08         0.24121E+06         0.00000E+00
    0.24121E+06        -0.97826E+08         0.00000E+00
    0.00000E+00         0.00000E+00        -0.35869E+08
 
   -0.36822E+08         0.16472E+06         0.00000E+00
    0.16472E+06        -0.97724E+08         0.00000E+00
    0.00000E+00         0.00000E+00        -0.35621E+08
 
   -0.36746E+08         0.94773E+05         0.00000E+00
    0.94773E+05        -0.97577E+08         0.00000E+00
    0.00000E+00         0.00000E+00        -0.35372E+08
 
   -0.36706E+08         0.30765E+05         0.00000E+00
    0.30765E+05        -0.97380E+08         0.00000E+00
    0.00000E+00         0.00000E+00        -0.35124E+08
 
   -0.49462E+08         0.10485E+05         0.00000E+00
    0.10485E+05        -0.97642E+08         0.00000E+00
    0.00000E+00         0.00000E+00        -0.49966E+08
 
   -0.49451E+08         0.32182E+05         0.00000E+00
    0.32182E+05        -0.97588E+08         0.00000E+00
    0.00000E+00         0.00000E+00        -0.49897E+08
 
   -0.49430E+08         0.55746E+05         0.00000E+00
    0.55746E+05        -0.97547E+08         0.00000E+00
    0.00000E+00         0.00000E+00        -0.49829E+08
 
   -0.49399E+08         0.81513E+05         0.00000E+00
    0.81513E+05        -0.97520E+08         0.00000E+00
    0.00000E+00         0.00000E+00        -0.49760E+08
 
   -0.49362E+08         0.10913E+06         0.00000E+00
    0.10913E+06        -0.97502E+08         0.00000E+00
    0.00000E+00         0.00000E+00        -0.49691E+08
 
   -0.49320E+08         0.13792E+06         0.00000E+00
    0.13792E+06        -0.97492E+08         0.00000E+00
    0.00000E+00         0.00000E+00        -0.49623E+08
 
   -0.49273E+08         0.16718E+06         0.00000E+00
    0.16718E+06        -0.97489E+08         0.00000E+00
    0.00000E+00         0.00000E+00        -0.49554E+08
 
   -0.49223E+08         0.19629E+06         0.00000E+00
    0.19629E+06        -0.97489E+08         0.00000E+00
    0.00000E+00         0.00000E+00        -0.49485E+08
 
   -0.49170E+08         0.22478E+06         0.00000E+00
    0.22478E+06        -0.97492E+08         0.00000E+00
    0.00000E+00         0.00000E+00        -0.49415E+08
 
   -0.49116E+08         0.25232E+06         0.00000E+00
    0.25232E+06        -0.97497E+08         0.00000E+00
    0.00000E+00         0.00000E+00        -0.49345E+08
 
   -0.49059E+08         0.27869E+06         0.00000E+00
    0.27869E+06        -0.97502E+08         0.00000E+00
    0.00000E+00         0.00000E+00        -0.49275E+08
 
   -0.49000E+08         0.30378E+06         0.00000E+00
    0.30378E+06        -0.97508E+08         0.00000E+00
    0.00000E+00         0.00000E+00        -0.49204E+08
 
   -0.48940E+08         0.32755E+06         0.00000E+00
    0.32755E+06        -0.97514E+08         0.00000E+00
    0.00000E+00         0.00000E+00        -0.49132E+08
 
   -0.48877E+08         0.35002E+06         0.00000E+00
    0.35002E+06        -0.97520E+08         0.00000E+00
    0.00000E+00         0.00000E+00        -0.49060E+08
 
   -0.48813E+08         0.37125E+06         0.00000E+00
    0.37125E+06        -0.97526E+08         0.00000E+00
    0.00000E+00         0.00000E+00        -0.48986E+08
 
   -0.48747E+08         0.39131E+06         0.00000E+00
    0.39131E+06        -0.97531E+08         0.00000E+00
    0.00000E+00         0.00000E+00        -0.48913E+08
 
   -0.48678E+08         0.41030E+06         0.00000E+00
    0.41030E+06        -0.97535E+08         0.00000E+00
    0.00000E+00         0.00000E+00        -0.48838E+08
 
   -0.48608E+08         0.42832E+06         0.00000E+00
    0.42832E+06        -0.97539E+08         0.00000E+00
    0.00000E+00         0.00000E+00        -0.48762E+08
 
   -0.48536E+08         0.44549E+06         0.00000E+00
    0.44549E+06        -0.97543E+08         0.00000E+00
    0.00000E+00         0.00000E+00        -0.48685E+08
 
   -0.48462E+08         0.46190E+06         0.00000E+00
    0.46190E+06        -0.97546E+08         0.00000E+00
    0.00000E+00         0.00000E+00        -0.48607E+08
 
   -0.48386E+08         0.47766E+06         0.00000E+00
    0.47766E+06        -0.97548E+08         0.00000E+00
    0.00000E+00         0.00000E+00        -0.48528E+08
 
   -0.48309E+08         0.49287E+06         0.00000E+00
    0.49287E+06        -0.97550E+08         0.00000E+00
    0.00000E+00         0.00000E+00        -0.48448E+08
 
   -0.48229E+08         0.50761E+06         0.00000E+00
    0.50761E+06        -0.97552E+08         0.00000E+00
    0.00000E+00         0.00000E+00        -0.48366E+08
 
   -0.48147E+08         0.52197E+06         0.00000E+00
    0.52197E+06        -0.97554E+08         0.00000E+00
    0.00000E+00         0.00000E+00        -0.48283E+08
 
   -0.48064E+08         0.53603E+06         0.00000E+00
    0.53603E+06        -0.97555E+08         0.00000E+00
    0.00000E+00         0.00000E+00        -0.48199E+08
 
   -0.47978E+08         0.54984E+06         0.00000E+00
    0.54984E+06        -0.97556E+08         0.00000E+00
    0.00000E+00         0.00000E+00        -0.48113E+08
 
   -0.47891E+08         0.56348E+06         0.00000E+00
    0.56348E+06        -0.97556E+08         0.00000E+00
    0.00000E+00         0.00000E+00        -0.48025E+08
 
   -0.47801E+08         0.57700E+06         0.00000E+00
    0.57700E+06        -0.97557E+08         0.00000E+00
    0.00000E+00         0.00000E+00        -0.47936E+08
 
   -0.47710E+08         0.59044E+06         0.00000E+00
    0.59044E+06        -0.97557E+08         0.00000E+00
    0.00000E+00         0.00000E+00        -0.47846E+08
 
   -0.47617E+08         0.60385E+06         0.00000E+00
    0.60385E+06        -0.97557E+08         0.00000E+00
    0.00000E+00         0.00000E+00        -0.47753E+08
 
   -0.47521E+08         0.61726E+06         0.00000E+00
    0.61726E+06        -0.97557E+08         0.00000E+00
    0.00000E+00         0.00000E+00        -0.47659E+08
 
   -0.47424E+08         0.63070E+06         0.00000E+00
    0.63070E+06        -0.97557E+08         0.00000E+00
    0.00000E+00         0.00000E+00        -0.47563E+08
 
   -0.47324E+08         0.64421E+06         0.00000E+00
    0.64421E+06        -0.97557E+08         0.00000E+00
    0.00000E+00         0.00000E+00        -0.47465E+08
 
   -0.47222E+08         0.65779E+06         0.00000E+00
    0.65779E+06        -0.97557E+08         0.00000E+00
    0.00000E+00         0.00000E+00        -0.47365E+08
 
   -0.47118E+08         0.67147E+06         0.00000E+00
    0.67147E+06        -0.97557E+08         0.00000E+00
    0.00000E+00         0.00000E+00        -0.47263E+08
 
   -0.47013E+08         0.68527E+06         0.00000E+00
    0.68527E+06        -0.97556E+08         0.00000E+00
    0.00000E+00         0.00000E+00        -0.47159E+08
 
   -0.46904E+08         0.69920E+06         0.00000E+00
    0.69920E+06        -0.97556E+08         0.00000E+00
    0.00000E+00         0.00000E+00        -0.47053E+08
 
   -0.46794E+08         0.71326E+06         0.00000E+00
    0.71326E+06        -0.97556E+08         0.00000E+00
    0.00000E+00         0.00000E+00        -0.46945E+08
 
   -0.46681E+08         0.72746E+06         0.00000E+00
    0.72746E+06        -0.97555E+08         0.00000E+00
    0.00000E+00         0.00000E+00        -0.46834E+08
 
   -0.46566E+08         0.74180E+06         0.00000E+00
    0.74180E+06        -0.97555E+08         0.00000E+00
    0.00000E+00         0.00000E+00        -0.46721E+08
 
   -0.46449E+08         0.75629E+06         0.00000E+00
    0.75629E+06        -0.97554E+08         0.00000E+00
    0.00000E+00         0.00000E+00        -0.46606E+08
 
   -0.46330E+08         0.77092E+06         0.00000E+00
    0.77092E+06        -0.97554E+08         0.00000E+00
    0.00000E+00         0.00000E+00        -0.46488E+08
 
   -0.46208E+08         0.78569E+06         0.00000E+00
    0.78569E+06        -0.97554E+08         0.00000E+00
    0.00000E+00         0.00000E+00        -0.46368E+08
 
   -0.46083E+08         0.80059E+06         0.00000E+00
    0.80059E+06        -0.97553E+08         0.00000E+00
    0.00000E+00         0.00000E+00        -0.46246E+08
 
   -0.45956E+08         0.81561E+06         0.00000E+00
    0.81561E+06        -0.97553E+08         0.00000E+00
    0.00000E+00         0.00000E+00        -0.46120E+08
 
   -0.45827E+08         0.83075E+06         0.00000E+00
    0.83075E+06        -0.97553E+08         0.00000E+00
    0.00000E+00         0.00000E+00        -0.45993E+08
 
   -0.45695E+08         0.84599E+06         0.00000E+00
    0.84599E+06        -0.97552E+08         0.00000E+00
    0.00000E+00         0.00000E+00        -0.45862E+08
 
   -0.45561E+08         0.86132E+06         0.00000E+00
    0.86132E+06        -0.97552E+08         0.00000E+00
    0.00000E+00         0.00000E+00        -0.45729E+08
 
   -0.45424E+08         0.87672E+06         0.00000E+00
    0.87672E+06        -0.97552E+08         0.00000E+00
    0.00000E+00         0.00000E+00        -0.45594E+08
 
   -0.45285E+08         0.89218E+06         0.00000E+00
    0.89218E+06        -0.97552E+08         0.00000E+00
    0.00000E+00         0.00000E+00        -0.45455E+08
 
   -0.45142E+08         0.90767E+06         0.00000E+00
    0.90767E+06        -0.97552E+08         0.00000E+00
    0.00000E+00         0.00000E+00        -0.45314E+08
 
   -0.44998E+08         0.92317E+06         0.00000E+00
    0.92317E+06        -0.97552E+08         0.00000E+00
    0.00000E+00         0.00000E+00        -0.45170E+08
 
   -0.44851E+08         0.93865E+06         0.00000E+00
    0.93865E+06        -0.97552E+08         0.00000E+00
    0.00000E+00         0.00000E+00        -0.45023E+08
 
   -0.44701E+08         0.95410E+06         0.00000E+00
    0.95410E+06        -0.97552E+08         0.00000E+00
    0.00000E+00         0.00000E+00        -0.44873E+08
 
   -0.44548E+08         0.96947E+06         0.00000E+00
    0.96947E+06        -0.97553E+08         0.00000E+00
    0.00000E+00         0.00000E+00        -0.44720E+08
 
   -0.44393E+08         0.98474E+06         0.00000E+00
    0.98474E+06        -0.97553E+08         0.00000E+00
    0.00000E+00         0.00000E+00        -0.44565E+08
 
   -0.44236E+08         0.99986E+06         0.00000E+00
    0.99986E+06        -0.97554E+08         0.00000E+00
    0.00000E+00         0.00000E+00        -0.44406E+08
 
   -0.44075E+08         0.10148E+07         0.00000E+00
    0.10148E+07        -0.97554E+08         0.00000E+00
    0.00000E+00         0.00000E+00        -0.44245E+08
 
   -0.43913E+08         0.10295E+07         0.00000E+00
    0.10295E+07        -0.97555E+08         0.00000E+00
    0.00000E+00         0.00000E+00        -0.44080E+08
 
   -0.43747E+08         0.10440E+07         0.00000E+00
    0.10440E+07        -0.97556E+08         0.00000E+00
    0.00000E+00         0.00000E+00        -0.43913E+08
 
   -0.43579E+08         0.10581E+07         0.00000E+00
    0.10581E+07        -0.97557E+08         0.00000E+00
    0.00000E+00         0.00000E+00        -0.43742E+08
 
   -0.43409E+08         0.10719E+07         0.00000E+00
    0.10719E+07        -0.97559E+08         0.00000E+00
    0.00000E+00         0.00000E+00        -0.43568E+08
 
   -0.43236E+08         0.10852E+07         0.00000E+00
    0.10852E+07        -0.97560E+08         0.00000E+00
    0.00000E+00         0.00000E+00        -0.43392E+08
 
   -0.43061E+08         0.10980E+07         0.00000E+00
    0.10980E+07        -0.97562E+08         0.00000E+00
    0.00000E+00         0.00000E+00        -0.43212E+08
 
   -0.42883E+08         0.11102E+07         0.00000E+00
    0.11102E+07        -0.97564E+08         0.00000E+00
    0.00000E+00         0.00000E+00        -0.43030E+08
 
   -0.42703E+08         0.11217E+07         0.00000E+00
    0.11217E+07        -0.97567E+08         0.00000E+00
    0.00000E+00         0.00000E+00        -0.42844E+08
 
   -0.42521E+08         0.11325E+07         0.00000E+00
    0.11325E+07        -0.97570E+08         0.00000E+00
    0.00000E+00         0.00000E+00        -0.42655E+08
 
   -0.42337E+08         0.11424E+07         0.00000E+00
    0.11424E+07        -0.97573E+08         0.00000E+00
    0.00000E+00         0.00000E+00        -0.42464E+08
 
   -0.42151E+08         0.11514E+07         0.00000E+00
    0.11514E+07        -0.97576E+08         0.00000E+00
    0.00000E+00         0.00000E+00        -0.42269E+08
 
   -0.41963E+08         0.11593E+07         0.00000E+00
    0.11593E+07        -0.97580E+08         0.00000E+00
    0.00000E+00         0.00000E+00        -0.42072E+08
 
   -0.41773E+08         0.11659E+07         0.00000E+00
    0.11659E+07        -0.97584E+08         0.00000E+00
    0.00000E+00         0.00000E+00        -0.41871E+08
 
   -0.41582E+08         0.11712E+07         0.00000E+00
    0.11712E+07        -0.97589E+08         0.00000E+00
    0.00000E+00         0.00000E+00        -0.41668E+08
 
   -0.41389E+08         0.11750E+07         0.00000E+00
    0.11750E+07        -0.97595E+08         0.00000E+00
    0.00000E+00         0.00000E+00        -0.41462E+08
 
   -0.41195E+08         0.11770E+07         0.00000E+00
    0.11770E+07        -0.97601E+08         0.00000E+00
    0.00000E+00         0.00000E+00        -0.41253E+08
 
   -0.41000E+08         0.11771E+07         0.00000E+00
    0.11771E+07        -0.97608E+08         0.00000E+00
    0.00000E+00         0.00000E+00        -0.41042E+08
 
   -0.40804E+08         0.11751E+07         0.00000E+00
    0.11751E+07        -0.97616E+08         0.00000E+00
    0.00000E+00         0.00000E+00        -0.40828E+08
 
   -0.40607E+08         0.11708E+07         0.00000E+00
    0.11708E+07        -0.97625E+08         0.00000E+00
    0.00000E+00         0.00000E+00        -0.40611E+08
 
   -0.40410E+08         0.11638E+07         0.00000E+00
    0.11638E+07        -0.97635E+08         0.00000E+00
    0.00000E+00         0.00000E+00        -0.40391E+08
 
   -0.40213E+08         0.11539E+07         0.00000E+00
    0.11539E+07        -0.97646E+08         0.00000E+00
    0.00000E+00         0.00000E+00        -0.40170E+08
 
   -0.40016E+08         0.11407E+07         0.00000E+00
    0.11407E+07        -0.97659E+08         0.00000E+00
    0.00000E+00         0.00000E+00        -0.39945E+08
 
   -0.39819E+08         0.11241E+07         0.00000E+00
    0.11241E+07        -0.97673E+08         0.00000E+00
    0.00000E+00         0.00000E+00        -0.39719E+08
 
   -0.39622E+08         0.11036E+07         0.00000E+00
    0.11036E+07        -0.97688E+08         0.00000E+00
    0.00000E+00         0.00000E+00        -0.39490E+08
 
   -0.39427E+08         0.10788E+07         0.00000E+00
    0.10788E+07        -0.97705E+08         0.00000E+00
    0.00000E+00         0.00000E+00        -0.39259E+08
 
   -0.39232E+08         0.10495E+07         0.00000E+00
    0.10495E+07        -0.97724E+08         0.00000E+00
    0.00000E+00         0.00000E+00        -0.39026E+08
 
   -0.39039E+08         0.10152E+07         0.00000E+00
    0.10152E+07        -0.97744E+08         0.00000E+00
    0.00000E+00         0.00000E+00        -0.38792E+08
 
   -0.38847E+08         0.97567E+06         0.00000E+00
    0.97567E+06        -0.97767E+08         0.00000E+00
    0.00000E+00         0.00000E+00        -0.38555E+08
 
   -0.38658E+08         0.93054E+06         0.00000E+00
    0.93054E+06        -0.97790E+08         0.00000E+00
    0.00000E+00         0.00000E+00        -0.38317E+08
 
   -0.38470E+08         0.87959E+06         0.00000E+00
    0.87959E+06        -0.97815E+08         0.00000E+00
    0.00000E+00         0.00000E+00        -0.38077E+08
 
   -0.38285E+08         0.82271E+06         0.00000E+00
    0.82271E+06        -0.97840E+08         0.00000E+00
    0.00000E+00         0.00000E+00        -0.37836E+08
 
   -0.38103E+08         0.75989E+06         0.00000E+00
    0.75989E+06        -0.97865E+08         0.00000E+00
    0.00000E+00         0.00000E+00        -0.37593E+08
 
   -0.37923E+08         0.69137E+06         0.00000E+00
    0.69137E+06        -0.97888E+08         0.00000E+00
    0.00000E+00         0.00000E+00        -0.37349E+08
 
   -0.37748E+08         0.61764E+06         0.00000E+00
    0.61764E+06        -0.97907E+08         0.00000E+00
    0.00000E+00         0.00000E+00        -0.37104E+08
 
   -0.37577E+08         0.53957E+06         0.00000E+00
    0.53957E+06        -0.97919E+08         0.00000E+00
    0.00000E+00         0.00000E+00        -0.36858E+08
 
   -0.37412E+08         0.45847E+06         0.00000E+00
    0.45847E+06        -0.97922E+08         0.00000E+00
    0.00000E+00         0.00000E+00        -0.36612E+08
 
   -0.37256E+08         0.37615E+06         0.00000E+00
    0.37615E+06        -0.97909E+08         0.00000E+00
    0.00000E+00         0.00000E+00        -0.36365E+08
 
   -0.37113E+08         0.29494E+06         0.00000E+00
    0.29494E+06        -0.97875E+08         0.00000E+00
    0.00000E+00         0.00000E+00        -0.36117E+08
 
   -0.36986E+08         0.21753E+06         0.00000E+00
    0.21753E+06        -0.97811E+08         0.00000E+00
    0.00000E+00         0.00000E+00        -0.35869E+08
 
   -0.36883E+08         0.14649E+06         0.00000E+00
    0.14649E+06        -0.97710E+08         0.00000E+00
    0.00000E+00         0.00000E+00        -0.35621E+08
 
   -0.36809E+08         0.83269E+05         0.00000E+00
    0.83269E+05        -0.97564E+08         0.00000E+00
    0.00000E+00         0.00000E+00        -0.35372E+08
 
   -0.36771E+08         0.26834E+05         0.00000E+00
    0.26834E+05        -0.97368E+08         0.00000E+00
    0.00000E+00         0.00000E+00        -0.35124E+08
 
   -0.49442E+08         0.93779E+04         0.00000E+00
    0.93779E+04        -0.97646E+08         0.00000E+00
    0.00000E+00         0.00000E+00        -0.49966E+08
 
   -0.49431E+08         0.28939E+05         0.00000E+00
    0.28939E+05        -0.97592E+08         0.00000E+00
    0.00000E+00         0.00000E+00        -0.49897E+08
 
   -0.49411E+08         0.50594E+05         0.00000E+00
    0.50594E+05        -0.97552E+08         0.00000E+00
    0.00000E+00         0.00000E+00        -0.49829E+08
 
   -0.49381E+08         0.74785E+05         0.00000E+00
    0.74785E+05        -0.97525E+08         0.00000E+00
    0.00000E+00         0.00000E+00        -0.49760E+08
 
   -0.49345E+08         0.10118E+06         0.00000E+00
    0.10118E+06        -0.97508E+08         0.00000E+00
    0.00000E+00         0.00000E+00        -0.49691E+08
 
   -0.49303E+08         0.12904E+06         0.00000E+00
    0.12904E+06        -0.97498E+08         0.00000E+00
    0.00000E+00         0.00000E+00        -0.49623E+08
 
   -0.49258E+08         0.15760E+06         0.00000E+00
    0.15760E+06        -0.97494E+08         0.00000E+00
    0.00000E+00         0.00000E+00        -0.49554E+08
 
   -0.49209E+08         0.18614E+06         0.00000E+00
    0.18614E+06        -0.97495E+08         0.00000E+00
    0.00000E+00         0.00000E+00        -0.49485E+08
 
   -0.49158E+08         0.21415E+06         0.00000E+00
    0.21415E+06        -0.97497E+08         0.00000E+00
    0.00000E+00         0.00000E+00        -0.49415E+08
 
   -0.49104E+08         0.24126E+06         0.00000E+00
    0.24126E+06        -0.97502E+08         0.00000E+00
    0.00000E+00         0.00000E+00        -0.49345E+08
 
   -0.49048E+08         0.26722E+06         0.00000E+00
    0.26722E+06        -0.97507E+08         0.00000E+00
    0.00000E+00         0.00000E+00        -0.49275E+08
 
   -0.48990E+08         0.29192E+06         0.00000E+00
    0.29192E+06        -0.97513E+08         0.00000E+00
    0.00000E+00         0.00000E+00        -0.49204E+08
 
   -0.48930E+08         0.31531E+06         0.00000E+00
    0.31531E+06        -0.97519E+08         0.00000E+00
    0.00000E+00         0.00000E+00        -0.49132E+08
 
   -0.48868E+08         0.33739E+06         0.00000E+00
    0.33739E+06        -0.97524E+08         0.00000E+00
    0.00000E+00         0.00000E+00        -0.49060E+08
 
   -0.48804E+08         0.35823E+06         0.00000E+00
    0.35823E+06        -0.97530E+08         0.00000E+00
    0.00000E+00         0.00000E+00        -0.48986E+08
 
   -0.48739E+08         0.37791E+06         0.00000E+00
    0.37791E+06        -0.97535E+08         0.00000E+00
    0.00000E+00         0.00000E+00        -0.48913E+08
 
   -0.48671E+08         0.39651E+06         0.00000E+00
    0.39651E+06        -0.97539E+08         0.00000E+00
    0.00000E+00         0.00000E+00        -0.48838E+08
 
   -0.48601E+08         0.41414E+06         0.00000E+00
    0.41414E+06        -0.97543E+08         0.00000E+00
    0.00000E+00         0.00000E+00        -0.48762E+08
 
   -0.48529E+08         0.43092E+06         0.00000E+00
    0.43092E+06        -0.97546E+08         0.00000E+00
    0.00000E+00         0.00000E+00        -0.48685E+08
 
   -0.48456E+08         0.44694E+06         0.00000E+00
    0.44694E+06        -0.97549E+08         0.00000E+00
    0.00000E+00         0.00000E+00        -0.48607E+08
 
   -0.48380E+08         0.46231E+06         0.00000E+00
    0.46231E+06        -0.97551E+08         0.00000E+00
    0.00000E+00         0.00000E+00        -0.48528E+08
 
   -0.48302E+08         0.47713E+06         0.00000E+00
    0.47713E+06        -0.97553E+08         0.00000E+00
    0.00000E+00         0.00000E+00        -0.48448E+08
 
   -0.48223E+08         0.49149E+06         0.00000E+00
    0.49149E+06        -0.97555E+08         0.00000E+00
    0.00000E+00         0.00000E+00        -0.48366E+08
 
   -0.48141E+08         0.50546E+06         0.00000E+00
    0.50546E+06        -0.97556E+08         0.00000E+00
    0.00000E+00         0.00000E+00        -0.48283E+08
 
   -0.48057E+08         0.51912E+06         0.00000E+00
    0.51912E+06        -0.97558E+08         0.00000E+00
    0.00000E+00         0.00000E+00        -0.48199E+08
 
   -0.47972E+08         0.53255E+06         0.00000E+00
    0.53255E+06        -0.97558E+08         0.00000E+00
    0.00000E+00         0.00000E+00        -0.48113E+08
 
   -0.47884E+08         0.54579E+06         0.00000E+00
    0.54579E+06        -0.97559E+08         0.00000E+00
    0.00000E+00         0.00000E+00        -0.48025E+08
 
   -0.47795E+08         0.55891E+06         0.00000E+00
    0.55891E+06        -0.97559E+08         0.00000E+00
    0.00000E+00         0.00000E+00        -0.47936E+08
 
   -0.47704E+08         0.57195E+06         0.00000E+00
    0.57195E+06        -0.97560E+08         0.00000E+00
    0.00000E+00         0.00000E+00        -0.47846E+08
 
   -0.47610E+08         0.58496E+06         0.00000E+00
    0.58496E+06        -0.97560E+08         0.00000E+00
    0.00000E+00         0.00000E+00        -0.47753E+08
 
   -0.47515E+08         0.59796E+06         0.00000E+00
    0.59796E+06        -0.97560E+08         0.00000E+00
    0.00000E+00         0.00000E+00        -0.47659E+08
 
   -0.47417E+08         0.61099E+06         0.00000E+00
    0.61099E+06        -0.97560E+08         0.00000E+00
    0.00000E+00         0.00000E+00        -0.47563E+08
 
   -0.47317E+08         0.62407E+06         0.00000E+00
    0.62407E+06        -0.97560E+08         0.00000E+00
    0.00000E+00         0.00000E+00        -0.47465E+08
 
   -0.47215E+08         0.63723E+06         0.00000E+00
    0.63723E+06        -0.97560E+08         0.00000E+00
    0.00000E+00         0.00000E+00        -0.47365E+08
 
   -0.47112E+08         0.65049E+06         0.00000E+00
    0.65049E+06        -0.97559E+08         0.00000E+00
    0.00000E+00         0.00000E+00        -0.47263E+08
 
   -0.47005E+08         0.66385E+06         0.00000E+00
    0.66385E+06        -0.97559E+08         0.00000E+00
    0.00000E+00         0.00000E+00        -0.47159E+08
 
   -0.46897E+08         0.67733E+06         0.00000E+00
    0.67733E+06        -0.97559E+08         0.00000E+00
    0.00000E+00         0.00000E+00        -0.47053E+08
 
   -0.46787E+08         0.69095E+06         0.00000E+00
    0.69095E+06        -0.97558E+08         0.00000E+00
    0.00000E+00         0.00000E+00        -0.46945E+08
 
   -0.46674E+08         0.70469E+06         0.00000E+00
    0.70469E+06        -0.97558E+08         0.00000E+00
    0.00000E+00         0.00000E+00        -0.46834E+08
 
   -0.46559E+08         0.71857E+06         0.00000E+00
    0.71857E+06        -0.97558E+08         0.00000E+00
    0.00000E+00         0.00000E+00        -0.46721E+08
 
   -0.46442E+08         0.73259E+06         0.00000E+00
    0.73259E+06        -0.97557E+08         0.00000E+00
    0.00000E+00         0.00000E+00        -0.46606E+08
 
   -0.46322E+08         0.74675E+06         0.00000E+00
    0.74675E+06        -0.97557E+08         0.00000E+00
    0.00000E+00         0.00000E+00        -0.46488E+08
 
   -0.46200E+08         0.76104E+06         0.00000E+00
    0.76104E+06        -0.97556E+08         0.00000E+00
    0.00000E+00         0.00000E+00        -0.46368E+08
 
   -0.46075E+08         0.77545E+06         0.00000E+00
    0.77545E+06        -0.97556E+08         0.00000E+00
    0.00000E+00         0.00000E+00        -0.46246E+08
 
   -0.45948E+08         0.78999E+06         0.00000E+00
    0.78999E+06        -0.97556E+08         0.00000E+00
    0.00000E+00         0.00000E+00        -0.46120E+08
 
   -0.45819E+08         0.80463E+06         0.00000E+00
    0.80463E+06        -0.97556E+08         0.00000E+00
    0.00000E+00         0.00000E+00        -0.45993E+08
 
   -0.45687E+08         0.81937E+06         0.00000E+00
    0.81937E+06        -0.97555E+08         0.00000E+00
    0.00000E+00         0.00000E+00        -0.45862E+08
 
   -0.45553E+08         0.83419E+06         0.00000E+00
    0.83419E+06        -0.97555E+08         0.00000E+00
    0.00000E+00         0.00000E+00        -0.45729E+08
 
   -0.45416E+08         0.84908E+06         0.00000E+00
    0.84908E+06        -0.97555E+08         0.00000E+00
    0.00000E+00         0.00000E+00        -0.45594E+08
 
   -0.45276E+08         0.86403E+06         0.00000E+00
    0.86403E+06        -0.97555E+08         0.00000E+00
    0.00000E+00         0.00000E+00        -0.45455E+08
 
   -0.45134E+08         0.87900E+06         0.00000E+00
    0.87900E+06        -0.97555E+08         0.00000E+00
    0.00000E+00         0.00000E+00        -0.45314E+08
 
   -0.44990E+08         0.89398E+06         0.00000E+00
    0.89398E+06        -0.97555E+08         0.00000E+00
    0.00000E+00         0.00000E+00        -0.45170E+08
 
   -0.44842E+08         0.90895E+06         0.00000E+00
    0.90895E+06        -0.97555E+08         0.00000E+00
    0.00000E+00         0.00000E+00        -0.45023E+08
 
   -0.44692E+08         0.92387E+06         0.00000E+00
    0.92387E+06        -0.97555E+08         0.00000E+00
    0.00000E+00         0.00000E+00        -0.44873E+08
 
   -0.44540E+08         0.93872E+06         0.00000E+00
    0.93872E+06        -0.97556E+08         0.00000E+00
    0.00000E+00         0.00000E+00        -0.44721E+08
 
   -0.44385E+08         0.95347E+06         0.00000E+00
    0.95347E+06        -0.97556E+08         0.00000E+00
    0.00000E+00         0.00000E+00        -0.44565E+08
 
   -0.44227E+08         0.96808E+06         0.00000E+00
    0.96808E+06        -0.97557E+08         0.00000E+00
    0.00000E+00         0.00000E+00        -0.44406E+08
 
   -0.44067E+08         0.98251E+06         0.00000E+00
    0.98251E+06        -0.97557E+08         0.00000E+00
    0.00000E+00         0.00000E+00        -0.44245E+08
 
   -0.43904E+08         0.99672E+06         0.00000E+00
    0.99672E+06        -0.97558E+08         0.00000E+00
    0.00000E+00         0.00000E+00        -0.44080E+08
 
   -0.43739E+08         0.10107E+07         0.00000E+00
    0.10107E+07        -0.97559E+08         0.00000E+00
    0.00000E+00         0.00000E+00        -0.43913E+08
 
   -0.43571E+08         0.10243E+07         0.00000E+00
    0.10243E+07        -0.97560E+08         0.00000E+00
    0.00000E+00         0.00000E+00        -0.43742E+08
 
   -0.43401E+08         0.10375E+07         0.00000E+00
    0.10375E+07        -0.97562E+08         0.00000E+00
    0.00000E+00         0.00000E+00        -0.43568E+08
 
   -0.43228E+08         0.10504E+07         0.00000E+00
    0.10504E+07        -0.97563E+08         0.00000E+00
    0.00000E+00         0.00000E+00        -0.43392E+08
 
   -0.43053E+08         0.10627E+07         0.00000E+00
    0.10627E+07        -0.97565E+08         0.00000E+00
    0.00000E+00         0.00000E+00        -0.43212E+08
 
   -0.42876E+08         0.10745E+07         0.00000E+00
    0.10745E+07        -0.97567E+08         0.00000E+00
    0.00000E+00         0.00000E+00        -0.43030E+08
 
   -0.42696E+08         0.10856E+07         0.00000E+00
    0.10856E+07        -0.97569E+08         0.00000E+00
    0.00000E+00         0.00000E+00        -0.42844E+08
 
   -0.42515E+08         0.10959E+07         0.00000E+00
    0.10959E+07        -0.97572E+08         0.00000E+00
    0.00000E+00         0.00000E+00        -0.42655E+08
 
   -0.42331E+08         0.11054E+07         0.00000E+00
    0.11054E+07        -0.97574E+08         0.00000E+00
    0.00000E+00         0.00000E+00        -0.42464E+08
 
   -0.42145E+08         0.11140E+07         0.00000E+00
    0.11140E+07        -0.97578E+08         0.00000E+00
    0.00000E+00         0.00000E+00        -0.42269E+08
 
   -0.41958E+08         0.11215E+07         0.00000E+00
    0.11215E+07        -0.97581E+08         0.00000E+00
    0.00000E+00         0.00000E+00        -0.42072E+08
 
   -0.41768E+08         0.11279E+07         0.00000E+00
    0.11279E+07        -0.97586E+08         0.00000E+00
    0.00000E+00         0.00000E+00        -0.41871E+08
 
   -0.41577E+08         0.11329E+07         0.00000E+00
    0.11329E+07        -0.97590E+08         0.00000E+00
    0.00000E+00         0.00000E+00        -0.41668E+08
 
   -0.41385E+08         0.11363E+07         0.00000E+00
    0.11363E+07        -0.97595E+08         0.00000E+00
    0.00000E+00         0.00000E+00        -0.41462E+08
 
   -0.41192E+08         0.11381E+07         0.00000E+00
    0.11381E+07        -0.97601E+08         0.00000E+00
    0.00000E+00         0.00000E+00        -0.41253E+08
 
   -0.40997E+08         0.11381E+07         0.00000E+00
    0.11381E+07        -0.97608E+08         0.00000E+00
    0.00000E+00         0.00000E+00        -0.41042E+08
 
   -0.40802E+08         0.11359E+07         0.00000E+00
    0.11359E+07        -0.97615E+08         0.00000E+00
    0.00000E+00         0.00000E+00        -0.40828E+08
 
   -0.40606E+08         0.11315E+07         0.00000E+00
    0.11315E+07        -0.97624E+08         0.00000E+00
    0.00000E+00         0.00000E+00        -0.40611E+08
 
   -0.40410E+08         0.11244E+07         0.00000E+00
    0.11244E+07        -0.97633E+08         0.00000E+00
    0.00000E+00         0.00000E+00        -0.40391E+08
 
   -0.40214E+08         0.11145E+07         0.00000E+00
    0.11145E+07        -0.97644E+08         0.00000E+00
    0.00000E+00         0.00000E+00        -0.40170E+08
 
   -0.40018E+08         0.11014E+07         0.00000E+00
    0.11014E+07        -0.97656E+08         0.00000E+00
    0.00000E+00         0.00000E+00        -0.39945E+08
 
   -0.39823E+08         0.10849E+07         0.00000E+00
    0.10849E+07        -0.97669E+08         0.00000E+00
    0.00000E+00         0.00000E+00        -0.39719E+08
 
   -0.39628E+08         0.10645E+07         0.00000E+00
    0.10645E+07        -0.97683E+08         0.00000E+00
    0.00000E+00         0.00000E+00        -0.39490E+08
 
   -0.39434E+08         0.10400E+07         0.00000E+00
    0.10400E+07        -0.97700E+08         0.00000E+00
    0.00000E+00         0.00000E+00        -0.39259E+08
 
   -0.39241E+08         0.10109E+07         0.00000E+00
    0.10109E+07        -0.97718E+08         0.00000E+00
    0.00000E+00         0.00000E+00        -0.39026E+08
 
   -0.39051E+08         0.97699E+06         0.00000E+00
    0.97699E+06        -0.97737E+08         0.00000E+00
    0.00000E+00         0.00000E+00        -0.38792E+08
 
   -0.38861E+08         0.93780E+06         0.00000E+00
    0.93780E+06        -0.97758E+08         0.00000E+00
    0.00000E+00         0.00000E+00        -0.38555E+08
 
   -0.38674E+08         0.89309E+06         0.00000E+00
    0.89309E+06        -0.97781E+08         0.00000E+00
    0.00000E+00         0.00000E+00        -0.38317E+08
 
   -0.38490E+08         0.84262E+06         0.00000E+00
    0.84262E+06        -0.97804E+08         0.00000E+00
    0.00000E+00         0.00000E+00        -0.38077E+08
 
   -0.38308E+08         0.78627E+06         0.00000E+00
    0.78627E+06        -0.97828E+08         0.00000E+00
    0.00000E+00         0.00000E+00        -0.37836E+08
 
   -0.38129E+08         0.72406E+06         0.00000E+00
    0.72406E+06        -0.97852E+08         0.00000E+00
    0.00000E+00         0.00000E+00        -0.37593E+08
 
   -0.37954E+08         0.65625E+06         0.00000E+00
    0.65625E+06        -0.97874E+08         0.00000E+00
    0.00000E+00         0.00000E+00        -0.37349E+08
 
   -0.37783E+08         0.58338E+06         0.00000E+00
    0.58338E+06        -0.97892E+08         0.00000E+00
    0.00000E+00         0.00000E+00        -0.37104E+08
 
   -0.37616E+08         0.50640E+06         0.00000E+00
    0.50640E+06        -0.97904E+08         0.00000E+00
    0.00000E+00         0.00000E+00        -0.36858E+08
 
   -0.37456E+08         0.42674E+06         0.00000E+00
    0.42674E+06        -0.97906E+08         0.00000E+00
    0.00000E+00         0.00000E+00        -0.36612E+08
 
   -0.37305E+08         0.34643E+06         0.00000E+00
    0.34643E+06        -0.97893E+08         0.00000E+00
    0.00000E+00         0.00000E+00        -0.36365E+08
 
   -0.37166E+08         0.26807E+06         0.00000E+00
    0.26807E+06        -0.97859E+08         0.00000E+00
    0.00000E+00         0.00000E+00        -0.36117E+08
 
   -0.37043E+08         0.19463E+06         0.00000E+00
    0.19463E+06        -0.97797E+08         0.00000E+00
    0.00000E+00         0.00000E+00        -0.35869E+08
 
   -0.36943E+08         0.12886E+06         0.00000E+00
    0.12886E+06        -0.97697E+08         0.00000E+00
    0.00000E+00         0.00000E+00        -0.35621E+08
 
   -0.36872E+08         0.72122E+05         0.00000E+00
    0.72122E+05        -0.97553E+08         0.00000E+00
    0.00000E+00         0.00000E+00        -0.35372E+08
 
   -0.36835E+08         0.23020E+05         0.00000E+00
    0.23020E+05        -0.97358E+08         0.00000E+00
    0.00000E+00         0.00000E+00        -0.35124E+08
 
   -0.49422E+08         0.82961E+04         0.00000E+00
    0.82961E+04        -0.97649E+08         0.00000E+00
    0.00000E+00         0.00000E+00        -0.49966E+08
 
   -0.49412E+08         0.25775E+05         0.00000E+00
    0.25775E+05        -0.97596E+08         0.00000E+00
    0.00000E+00         0.00000E+00        -0.49897E+08
 
   -0.49392E+08         0.45578E+05         0.00000E+00
    0.45578E+05        -0.97557E+08         0.00000E+00
    0.00000E+00         0.00000E+00        -0.49829E+08
 
   -0.49363E+08         0.68240E+05         0.00000E+00
    0.68240E+05        -0.97530E+08         0.00000E+00
    0.00000E+00         0.00000E+00        -0.49760E+08
 
   -0.49328E+08         0.93439E+05         0.00000E+00
    0.93439E+05        -0.97513E+08         0.00000E+00
    0.00000E+00         0.00000E+00        -0.49691E+08
 
   -0.49287E+08         0.12040E+06         0.00000E+00
    0.12040E+06        -0.97504E+08         0.00000E+00
    0.00000E+00         0.00000E+00        -0.49623E+08
 
   -0.49243E+08         0.14824E+06         0.00000E+00
    0.14824E+06        -0.97500E+08         0.00000E+00
    0.00000E+00         0.00000E+00        -0.49554E+08
 
   -0.49195E+08         0.17621E+06         0.00000E+00
    0.17621E+06        -0.97500E+08         0.00000E+00
    0.00000E+00         0.00000E+00        -0.49484E+08
 
   -0.49145E+08         0.20373E+06         0.00000E+00
    0.20373E+06        -0.97503E+08         0.00000E+00
    0.00000E+00         0.00000E+00        -0.49415E+08
 
   -0.49092E+08         0.23038E+06         0.00000E+00
    0.23038E+06        -0.97507E+08         0.00000E+00
    0.00000E+00         0.00000E+00        -0.49345E+08
 
   -0.49037E+08         0.25592E+06         0.00000E+00
    0.25592E+06        -0.97512E+08         0.00000E+00
    0.00000E+00         0.00000E+00        -0.49275E+08
 
   -0.48980E+08         0.28021E+06         0.00000E+00
    0.28021E+06        -0.97518E+08         0.00000E+00
    0.00000E+00         0.00000E+00        -0.49204E+08
 
   -0.48921E+08         0.30319E+06         0.00000E+00
    0.30319E+06        -0.97523E+08         0.00000E+00
    0.00000E+00         0.00000E+00        -0.49132E+08
 
   -0.48860E+08         0.32487E+06         0.00000E+00
    0.32487E+06        -0.97529E+08         0.00000E+00
    0.00000E+00         0.00000E+00        -0.49060E+08
 
   -0.48796E+08         0.34531E+06         0.00000E+00
    0.34531E+06        -0.97534E+08         0.00000E+00
    0.00000E+00         0.00000E+00        -0.48986E+08
 
   -0.48731E+08         0.36458E+06         0.00000E+00
    0.36458E+06        -0.97538E+08         0.00000E+00
    0.00000E+00         0.00000E+00        -0.48913E+08
 
   -0.48663E+08         0.38278E+06         0.00000E+00
    0.38278E+06        -0.97542E+08         0.00000E+00
    0.00000E+00         0.00000E+00        -0.48838E+08
 
   -0.48594E+08         0.40002E+06         0.00000E+00
    0.40002E+06        -0.97546E+08         0.00000E+00
    0.00000E+00         0.00000E+00        -0.48762E+08
 
   -0.48522E+08         0.41640E+06         0.00000E+00
    0.41640E+06        -0.97549E+08         0.00000E+00
    0.00000E+00         0.00000E+00        -0.48685E+08
 
   -0.48449E+08         0.43202E+06         0.00000E+00
    0.43202E+06        -0.97552E+08         0.00000E+00
    0.00000E+00         0.00000E+00        -0.48607E+08
 
   -0.48373E+08         0.44699E+06         0.00000E+00
    0.44699E+06        -0.97554E+08         0.00000E+00
    0.00000E+00         0.00000E+00        -0.48528E+08
 
   -0.48296E+08         0.46142E+06         0.00000E+00
    0.46142E+06        -0.97556E+08         0.00000E+00
    0.00000E+00         0.00000E+00        -0.48448E+08
 
   -0.48216E+08         0.47537E+06         0.00000E+00
    0.47537E+06        -0.97558E+08         0.00000E+00
    0.00000E+00         0.00000E+00        -0.48366E+08
 
   -0.48135E+08         0.48895E+06         0.00000E+00
    0.48895E+06        -0.97559E+08         0.00000E+00
    0.00000E+00         0.00000E+00        -0.48283E+08
 
   -0.48051E+08         0.50222E+06         0.00000E+00
    0.50222E+06        -0.97560E+08         0.00000E+00
    0.00000E+00         0.00000E+00        -0.48199E+08
 
   -0.47966E+08         0.51525E+06         0.00000E+00
    0.51525E+06        -0.97561E+08         0.00000E+00
    0.00000E+00         0.00000E+00        -0.48113E+08
 
   -0.47878E+08         0.52809E+06         0.00000E+00
    0.52809E+06        -0.97562E+08         0.00000E+00
    0.00000E+00         0.00000E+00        -0.48025E+08
 
   -0.47789E+08         0.54081E+06         0.00000E+00
    0.54081E+06        -0.97562E+08         0.00000E+00
    0.00000E+00         0.00000E+00        -0.47936E+08
 
   -0.47697E+08         0.55345E+06         0.00000E+00
    0.55345E+06        -0.97562E+08         0.00000E+00
    0.00000E+00         0.00000E+00        -0.47846E+08
 
   -0.47604E+08         0.56605E+06         0.00000E+00
    0.56605E+06        -0.97563E+08         0.00000E+00
    0.00000E+00         0.00000E+00        -0.47753E+08
 
   -0.47508E+08         0.57864E+06         0.00000E+00
    0.57864E+06        -0.97563E+08         0.00000E+00
    0.00000E+00         0.00000E+00        -0.47659E+08
 
   -0.47410E+08         0.59125E+06         0.00000E+00
    0.59125E+06        -0.97563E+08         0.00000E+00
    0.00000E+00         0.00000E+00        -0.47563E+08
 
   -0.47311E+08         0.60392E+06         0.00000E+00
    0.60392E+06        -0.97562E+08         0.00000E+00
    0.00000E+00         0.00000E+00        -0.47465E+08
 
   -0.47209E+08         0.61666E+06         0.00000E+00
    0.61666E+06        -0.97562E+08         0.00000E+00
    0.00000E+00         0.00000E+00        -0.47365E+08
 
   -0.47105E+08         0.62948E+06         0.00000E+00
    0.62948E+06        -0.97562E+08         0.00000E+00
    0.00000E+00         0.00000E+00        -0.47263E+08
 
   -0.46999E+08         0.64241E+06         0.00000E+00
    0.64241E+06        -0.97562E+08         0.00000E+00
    0.00000E+00         0.00000E+00        -0.47159E+08
 
   -0.46890E+08         0.65545E+06         0.00000E+00
    0.65545E+06        -0.97561E+08         0.00000E+00
    0.00000E+00         0.00000E+00        -0.47053E+08
 
   -0.46780E+08         0.66861E+06         0.00000E+00
    0.66861E+06        -0.97561E+08         0.00000E+00
    0.00000E+00         0.00000E+00        -0.46945E+08
 
   -0.46667E+08         0.68190E+06         0.00000E+00
    0.68190E+06        -0.97561E+08         0.00000E+00
    0.00000E+00         0.00000E+00        -0.46834E+08
 
   -0.46552E+08         0.69533E+06         0.00000E+00
    0.69533E+06        -0.97560E+08         0.00000E+00
    0.00000E+00         0.00000E+00        -0.46721E+08
 
   -0.46434E+08         0.70888E+06         0.00000E+00
    0.70888E+06        -0.97560E+08         0.00000E+00
    0.00000E+00         0.00000E+00        -0.46606E+08
 
   -0.46314E+08         0.72256E+06         0.00000E+00
    0.72256E+06        -0.97560E+08         0.00000E+00
    0.00000E+00         0.00000E+00        -0.46488E+08
 
   -0.46192E+08         0.73637E+06         0.00000E+00
    0.73637E+06        -0.97559E+08         0.00000E+00
    0.00000E+00         0.00000E+00        -0.46368E+08
 
   -0.46068E+08         0.75030E+06         0.00000E+00
    0.75030E+06        -0.97559E+08         0.00000E+00
    0.00000E+00         0.00000E+00        -0.46246E+08
 
   -0.45941E+08         0.76435E+06         0.00000E+00
    0.76435E+06        -0.97559E+08         0.00000E+00
    0.00000E+00         0.00000E+00        -0.46120E+08
 
   -0.45811E+08         0.77849E+06         0.00000E+00
    0.77849E+06        -0.97558E+08         0.00000E+00
    0.00000E+00         0.00000E+00        -0.45993E+08
 
   -0.45679E+08         0.79273E+06         0.00000E+00
    0.79273E+06        -0.97558E+08         0.00000E+00
    0.00000E+00         0.00000E+00        -0.45862E+08
 
   -0.45545E+08         0.80705E+06         0.00000E+00
    0.80705E+06        -0.97558E+08         0.00000E+00
    0.00000E+00         0.00000E+00        -0.45729E+08
 
   -0.45408E+08         0.82144E+06         0.00000E+00
    0.82144E+06        -0.97558E+08         0.00000E+00
    0.00000E+00         0.00000E+00        -0.45594E+08
 
   -0.45268E+08         0.83587E+06         0.00000E+00
    0.83587E+06        -0.97558E+08         0.00000E+00
    0.00000E+00         0.00000E+00        -0.45455E+08
 
   -0.45126E+08         0.85033E+06         0.00000E+00
    0.85033E+06        -0.97558E+08         0.00000E+00
    0.00000E+00         0.00000E+00        -0.45314E+08
 
   -0.44981E+08         0.86479E+06         0.00000E+00
    0.86479E+06        -0.97558E+08         0.00000E+00
    0.00000E+00         0.00000E+00        -0.45170E+08
 
   -0.44834E+08         0.87924E+06         0.00000E+00
    0.87924E+06        -0.97558E+08         0.00000E+00
    0.00000E+00         0.00000E+00        -0.45023E+08
 
   -0.44684E+08         0.89364E+06         0.00000E+00
    0.89364E+06        -0.97558E+08         0.00000E+00
    0.00000E+00         0.00000E+00        -0.44873E+08
 
   -0.44532E+08         0.90797E+06         0.00000E+00
    0.90797E+06        -0.97559E+08         0.00000E+00
    0.00000E+00         0.00000E+00        -0.44721E+08
 
   -0.44377E+08         0.92220E+06         0.00000E+00
    0.92220E+06        -0.97559E+08         0.00000E+00
    0.00000E+00         0.00000E+00        -0.44565E+08
 
   -0.44219E+08         0.93630E+06         0.00000E+00
    0.93630E+06        -0.97559E+08         0.00000E+00
    0.00000E+00         0.00000E+00        -0.44406E+08
 
   -0.44059E+08         0.95022E+06         0.00000E+00
    0.95022E+06        -0.97560E+08         0.00000E+00
    0.00000E+00         0.00000E+00        -0.44245E+08
 
   -0.43896E+08         0.96392E+06         0.00000E+00
    0.96392E+06        -0.97561E+08         0.00000E+00
    0.00000E+00         0.00000E+00        -0.44080E+08
 
   -0.43731E+08         0.97736E+06         0.00000E+00
    0.97736E+06        -0.97562E+08         0.00000E+00
    0.00000E+00         0.00000E+00        -0.43913E+08
 
   -0.43563E+08         0.99049E+06         0.00000E+00
    0.99049E+06        -0.97563E+08         0.00000E+00
    0.00000E+00         0.00000E+00        -0.43742E+08
 
   -0.43393E+08         0.10033E+07         0.00000E+00
    0.10033E+07        -0.97564E+08         0.00000E+00
    0.00000E+00         0.00000E+00        -0.43568E+08
 
   -0.43221E+08         0.10156E+07         0.00000E+00
    0.10156E+07        -0.97565E+08         0.00000E+00
    0.00000E+00         0.00000E+00        -0.43392E+08
 
   -0.43046E+08         0.10275E+07         0.00000E+00
    0.10275E+07        -0.97567E+08         0.00000E+00
    0.00000E+00         0.00000E+00        -0.43212E+08
 
   -0.42869E+08         0.10388E+07         0.00000E+00
    0.10388E+07        -0.97569E+08         0.00000E+00
    0.00000E+00         0.00000E+00        -0.43030E+08
 
   -0.42689E+08         0.10494E+07         0.00000E+00
    0.10494E+07        -0.97571E+08         0.00000E+00
    0.00000E+00         0.00000E+00        -0.42844E+08
 
   -0.42508E+08         0.10594E+07         0.00000E+00
    0.10594E+07        -0.97574E+08         0.00000E+00
    0.00000E+00         0.00000E+00        -0.42655E+08
 
   -0.42324E+08         0.10685E+07         0.00000E+00
    0.10685E+07        -0.97576E+08         0.00000E+00
    0.00000E+00         0.00000E+00        -0.42464E+08
 
   -0.42139E+08         0.10767E+07         0.00000E+00
    0.10767E+07        -0.97579E+08         0.00000E+00
    0.00000E+00         0.00000E+00        -0.42269E+08
 
   -0.41952E+08         0.10839E+07         0.00000E+00
    0.10839E+07        -0.97583E+08         0.00000E+00
    0.00000E+00         0.00000E+00        -0.42072E+08
 
   -0.41763E+08         0.10899E+07         0.00000E+00
    0.10899E+07        -0.97587E+08         0.00000E+00
    0.00000E+00         0.00000E+00        -0.41871E+08
 
   -0.41573E+08         0.10946E+07         0.00000E+00
    0.10946E+07        -0.97591E+08         0.00000E+00
    0.00000E+00         0.00000E+00        -0.41668E+08
 
   -0.41381E+08         0.10978E+07         0.00000E+00
    0.10978E+07        -0.97596E+08         0.00000E+00
    0.00000E+00         0.00000E+00        -0.41462E+08
 
   -0.41188E+08         0.10994E+07         0.00000E+00
    0.10994E+07        -0.97602E+08         0.00000E+00
    0.00000E+00         0.00000E+00        -0.41253E+08
 
   -0.40995E+08         0.10992E+07         0.00000E+00
    0.10992E+07        -0.97608E+08         0.00000E+00
    0.00000E+00         0.00000E+00        -0.41042E+08
 
   -0.40800E+08         0.10969E+07         0.00000E+00
    0.10969E+07        -0.97615E+08         0.00000E+00
    0.00000E+00         0.00000E+00        -0.40828E+08
 
   -0.40606E+08         0.10924E+07         0.00000E+00
    0.10924E+07        -0.97623E+08         0.00000E+00
    0.00000E+00         0.00000E+00        -0.40611E+08
 
   -0.40410E+08         0.10853E+07         0.00000E+00
    0.10853E+07        -0.97632E+08         0.00000E+00
    0.00000E+00         0.00000E+00        -0.40391E+08
 
   -0.40215E+08         0.10754E+07         0.00000E+00
    0.10754E+07        -0.97642E+08         0.00000E+00
    0.00000E+00         0.00000E+00        -0.40170E+08
 
   -0.40021E+08         0.10624E+07         0.00000E+00
    0.10624E+07        -0.97653E+08         0.00000E+00
    0.00000E+00         0.00000E+00        -0.39945E+08
 
   -0.39826E+08         0.10460E+07         0.00000E+00
    0.10460E+07        -0.97665E+08         0.00000E+00
    0.00000E+00         0.00000E+00        -0.39719E+08
 
   -0.39633E+08         0.10258E+07         0.00000E+00
    0.10258E+07        -0.97679E+08         0.00000E+00
    0.00000E+00         0.00000E+00        -0.39490E+08
 
   -0.39441E+08         0.10016E+07         0.00000E+00
    0.10016E+07        -0.97694E+08         0.00000E+00
    0.00000E+00         0.00000E+00        -0.39259E+08
 
   -0.39251E+08         0.97279E+06         0.00000E+00
    0.97279E+06        -0.97711E+08         0.00000E+00
    0.00000E+00         0.00000E+00        -0.39026E+08
 
   -0.39062E+08         0.93920E+06         0.00000E+00
    0.93920E+06        -0.97730E+08         0.00000E+00
    0.00000E+00         0.00000E+00        -0.38792E+08
 
   -0.38875E+08         0.90044E+06         0.00000E+00
    0.90044E+06        -0.97750E+08         0.00000E+00
    0.00000E+00         0.00000E+00        -0.38555E+08
 
   -0.38691E+08         0.85621E+06         0.00000E+00
    0.85621E+06        -0.97771E+08         0.00000E+00
    0.00000E+00         0.00000E+00        -0.38317E+08
 
   -0.38509E+08         0.80628E+06         0.00000E+00
    0.80628E+06        -0.97794E+08         0.00000E+00
    0.00000E+00         0.00000E+00        -0.38077E+08
 
   -0.38331E+08         0.75052E+06         0.00000E+00
    0.75052E+06        -0.97817E+08         0.00000E+00
    0.00000E+00         0.00000E+00        -0.37836E+08
 
   -0.38156E+08         0.68899E+06         0.00000E+00
    0.68899E+06        -0.97839E+08         0.00000E+00
    0.00000E+00         0.00000E+00        -0.37593E+08
 
   -0.37984E+08         0.62195E+06         0.00000E+00
    0.62195E+06        -0.97860E+08         0.00000E+00
    0.00000E+00         0.00000E+00        -0.37349E+08
 
   -0.37817E+08         0.54999E+06         0.00000E+00
    0.54999E+06        -0.97877E+08         0.00000E+00
    0.00000E+00         0.00000E+00        -0.37104E+08
 
   -0.37655E+08         0.47414E+06         0.00000E+00
    0.47414E+06        -0.97888E+08         0.00000E+00
    0.00000E+00         0.00000E+00        -0.36858E+08
 
   -0.37500E+08         0.39596E+06         0.00000E+00
    0.39596E+06        -0.97890E+08         0.00000E+00
    0.00000E+00         0.00000E+00        -0.36612E+08
 
   -0.37354E+08         0.31765E+06         0.00000E+00
    0.31765E+06        -0.97877E+08         0.00000E+00
    0.00000E+00         0.00000E+00        -0.36365E+08
 
   -0.37219E+08         0.24206E+06         0.00000E+00
    0.24206E+06        -0.97844E+08         0.00000E+00
    0.00000E+00         0.00000E+00        -0.36117E+08
 
   -0.37100E+08         0.17245E+06         0.00000E+00
    0.17245E+06        -0.97783E+08         0.00000E+00
    0.00000E+00         0.00000E+00        -0.35869E+08
 
   -0.37003E+08         0.11176E+06         0.00000E+00
    0.11176E+06        -0.97686E+08         0.00000E+00
    0.00000E+00         0.00000E+00        -0.35621E+08
 
   -0.36934E+08         0.61293E+05         0.00000E+00
    0.61293E+05        -0.97543E+08         0.00000E+00
    0.00000E+00         0.00000E+00        -0.35372E+08
 
   -0.36898E+08         0.19309E+05         0.00000E+00
    0.19309E+05        -0.97350E+08         0.00000E+00
    0.00000E+00         0.00000E+00        -0.35124E+08
 
   -0.49403E+08         0.72367E+04         0.00000E+00
    0.72367E+04        -0.97652E+08         0.00000E+00
    0.00000E+00         0.00000E+00        -0.49966E+08
 
   -0.49393E+08         0.22682E+05         0.00000E+00
    0.22682E+05        -0.97599E+08         0.00000E+00
    0.00000E+00         0.00000E+00        -0.49897E+08
 
   -0.49373E+08         0.40687E+05         0.00000E+00
    0.40687E+05        -0.97561E+08         0.00000E+00
    0.00000E+00         0.00000E+00        -0.49829E+08
 
   -0.49345E+08         0.61870E+05         0.00000E+00
    0.61870E+05        -0.97534E+08         0.00000E+00
    0.00000E+00         0.00000E+00        -0.49760E+08
 
   -0.49311E+08         0.85912E+05         0.00000E+00
    0.85912E+05        -0.97518E+08         0.00000E+00
    0.00000E+00         0.00000E+00        -0.49691E+08
 
   -0.49271E+08         0.11198E+06         0.00000E+00
    0.11198E+06        -0.97509E+08         0.00000E+00
    0.00000E+00         0.00000E+00        -0.49623E+08
 
   -0.49228E+08         0.13912E+06         0.00000E+00
    0.13912E+06        -0.97506E+08         0.00000E+00
    0.00000E+00         0.00000E+00        -0.49554E+08
 
   -0.49182E+08         0.16650E+06         0.00000E+00
    0.16650E+06        -0.97506E+08         0.00000E+00
    0.00000E+00         0.00000E+00        -0.49484E+08
 
   -0.49132E+08         0.19351E+06         0.00000E+00
    0.19351E+06        -0.97508E+08         0.00000E+00
    0.00000E+00         0.00000E+00        -0.49415E+08
 
   -0.49081E+08         0.21970E+06         0.00000E+00
    0.21970E+06        -0.97512E+08         0.00000E+00
    0.00000E+00         0.00000E+00        -0.49345E+08
 
   -0.49027E+08         0.24479E+06         0.00000E+00
    0.24479E+06        -0.97517E+08         0.00000E+00
    0.00000E+00         0.00000E+00        -0.49274E+08
 
   -0.48970E+08         0.26865E+06         0.00000E+00
    0.26865E+06        -0.97523E+08         0.00000E+00
    0.00000E+00         0.00000E+00        -0.49203E+08
 
   -0.48912E+08         0.29121E+06         0.00000E+00
    0.29121E+06        -0.97528E+08         0.00000E+00
    0.00000E+00         0.00000E+00        -0.49132E+08
 
   -0.48851E+08         0.31247E+06         0.00000E+00
    0.31247E+06        -0.97533E+08         0.00000E+00
    0.00000E+00         0.00000E+00        -0.49060E+08
 
   -0.48788E+08         0.33249E+06         0.00000E+00
    0.33249E+06        -0.97538E+08         0.00000E+00
    0.00000E+00         0.00000E+00        -0.48986E+08
 
   -0.48723E+08         0.35134E+06         0.00000E+00
    0.35134E+06        -0.97542E+08         0.00000E+00
    0.00000E+00         0.00000E+00        -0.48913E+08
 
   -0.48656E+08         0.36913E+06         0.00000E+00
    0.36913E+06        -0.97546E+08         0.00000E+00
    0.00000E+00         0.00000E+00        -0.48838E+08
 
   -0.48587E+08         0.38595E+06         0.00000E+00
    0.38595E+06        -0.97549E+08         0.00000E+00
    0.00000E+00         0.00000E+00        -0.48762E+08
 
   -0.48516E+08         0.40191E+06         0.00000E+00
    0.40191E+06        -0.97552E+08         0.00000E+00
    0.00000E+00         0.00000E+00        -0.48685E+08
 
   -0.48442E+08         0.41713E+06         0.00000E+00
    0.41713E+06        -0.97555E+08         0.00000E+00
    0.00000E+00         0.00000E+00        -0.48607E+08
 
   -0.48367E+08         0.43170E+06         0.00000E+00
    0.43170E+06        -0.97557E+08         0.00000E+00
    0.00000E+00         0.00000E+00        -0.48528E+08
 
   -0.48290E+08         0.44572E+06         0.00000E+00
    0.44572E+06        -0.97559E+08         0.00000E+00
    0.00000E+00         0.00000E+00        -0.48448E+08
 
   -0.48210E+08         0.45927E+06         0.00000E+00
    0.45927E+06        -0.97561E+08         0.00000E+00
    0.00000E+00         0.00000E+00        -0.48366E+08
 
   -0.48129E+08         0.47245E+06         0.00000E+00
    0.47245E+06        -0.97562E+08         0.00000E+00
    0.00000E+00         0.00000E+00        -0.48283E+08
 
   -0.48045E+08         0.48532E+06         0.00000E+00
    0.48532E+06        -0.97563E+08         0.00000E+00
    0.00000E+00         0.00000E+00        -0.48199E+08
 
   -0.47960E+08         0.49794E+06         0.00000E+00
    0.49794E+06        -0.97564E+08         0.00000E+00
    0.00000E+00         0.00000E+00        -0.48113E+08
 
   -0.47872E+08         0.51039E+06         0.00000E+00
    0.51039E+06        -0.97564E+08         0.00000E+00
    0.00000E+00         0.00000E+00        -0.48025E+08
 
   -0.47783E+08         0.52270E+06         0.00000E+00
    0.52270E+06        -0.97565E+08         0.00000E+00
    0.00000E+00         0.00000E+00        -0.47936E+08
 
   -0.47691E+08         0.53494E+06         0.00000E+00
    0.53494E+06        -0.97565E+08         0.00000E+00
    0.00000E+00         0.00000E+00        -0.47846E+08
 
   -0.47597E+08         0.54713E+06         0.00000E+00
    0.54713E+06        -0.97565E+08         0.00000E+00
    0.00000E+00         0.00000E+00        -0.47753E+08
 
   -0.47502E+08         0.55930E+06         0.00000E+00
    0.55930E+06        -0.97565E+08         0.00000E+00
    0.00000E+00         0.00000E+00        -0.47659E+08
 
   -0.47404E+08         0.57150E+06         0.00000E+00
    0.57150E+06        -0.97565E+08         0.00000E+00
    0.00000E+00         0.00000E+00        -0.47563E+08
 
   -0.47304E+08         0.58375E+06         0.00000E+00
    0.58375E+06        -0.97565E+08         0.00000E+00
    0.00000E+00         0.00000E+00        -0.47465E+08
 
   -0.47202E+08         0.59606E+06         0.00000E+00
    0.59606E+06        -0.97565E+08         0.00000E+00
    0.00000E+00         0.00000E+00        -0.47365E+08
 
   -0.47098E+08         0.60845E+06         0.00000E+00
    0.60845E+06        -0.97564E+08         0.00000E+00
    0.00000E+00         0.00000E+00        -0.47263E+08
 
   -0.46992E+08         0.62094E+06         0.00000E+00
    0.62094E+06        -0.97564E+08         0.00000E+00
    0.00000E+00         0.00000E+00        -0.47159E+08
 
   -0.46883E+08         0.63354E+06         0.00000E+00
    0.63354E+06        -0.97564E+08         0.00000E+00
    0.00000E+00         0.00000E+00        -0.47053E+08
 
   -0.46773E+08         0.64626E+06         0.00000E+00
    0.64626E+06        -0.97564E+08         0.00000E+00
    0.00000E+00         0.00000E+00        -0.46945E+08
 
   -0.46660E+08         0.65910E+06         0.00000E+00
    0.65910E+06        -0.97563E+08         0.00000E+00
    0.00000E+00         0.00000E+00        -0.46834E+08
 
   -0.46544E+08         0.67206E+06         0.00000E+00
    0.67206E+06        -0.97563E+08         0.00000E+00
    0.00000E+00         0.00000E+00        -0.46721E+08
 
   -0.46427E+08         0.68514E+06         0.00000E+00
    0.68514E+06        -0.97563E+08         0.00000E+00
    0.00000E+00         0.00000E+00        -0.46606E+08
 
   -0.46307E+08         0.69836E+06         0.00000E+00
    0.69836E+06        -0.97562E+08         0.00000E+00
    0.00000E+00         0.00000E+00        -0.46488E+08
 
   -0.46185E+08         0.71169E+06         0.00000E+00
    0.71169E+06        -0.97562E+08         0.00000E+00
    0.00000E+00         0.00000E+00        -0.46368E+08
 
   -0.46060E+08         0.72513E+06         0.00000E+00
    0.72513E+06        -0.97562E+08         0.00000E+00
    0.00000E+00         0.00000E+00        -0.46246E+08
 
   -0.45933E+08         0.73869E+06         0.00000E+00
    0.73869E+06        -0.97561E+08         0.00000E+00
    0.00000E+00         0.00000E+00        -0.46120E+08
 
   -0.45803E+08         0.75234E+06         0.00000E+00
    0.75234E+06        -0.97561E+08         0.00000E+00
    0.00000E+00         0.00000E+00        -0.45993E+08
 
   -0.45671E+08         0.76608E+06         0.00000E+00
    0.76608E+06        -0.97561E+08         0.00000E+00
    0.00000E+00         0.00000E+00        -0.45862E+08
 
   -0.45537E+08         0.77990E+06         0.00000E+00
    0.77990E+06        -0.97561E+08         0.00000E+00
    0.00000E+00         0.00000E+00        -0.45729E+08
 
   -0.45400E+08         0.79378E+06         0.00000E+00
    0.79378E+06        -0.97561E+08         0.00000E+00
    0.00000E+00         0.00000E+00        -0.45594E+08
 
   -0.45260E+08         0.80770E+06         0.00000E+00
    0.80770E+06        -0.97561E+08         0.00000E+00
    0.00000E+00         0.00000E+00        -0.45455E+08
 
   -0.45118E+08         0.82164E+06         0.00000E+00
    0.82164E+06        -0.97561E+08         0.00000E+00
    0.00000E+00         0.00000E+00        -0.45314E+08
 
   -0.44973E+08         0.83559E+06         0.00000E+00
    0.83559E+06        -0.97561E+08         0.00000E+00
    0.00000E+00         0.00000E+00        -0.45170E+08
 
   -0.44826E+08         0.84953E+06         0.00000E+00
    0.84953E+06        -0.97561E+08         0.00000E+00
    0.00000E+00         0.00000E+00        -0.45023E+08
 
   -0.44676E+08         0.86341E+06         0.00000E+00
    0.86341E+06        -0.97561E+08         0.00000E+00
    0.00000E+00         0.00000E+00        -0.44873E+08
 
   -0.44524E+08         0.87723E+06         0.00000E+00
    0.87723E+06        -0.97561E+08         0.00000E+00
    0.00000E+00         0.00000E+00        -0.44721E+08
 
   -0.44369E+08         0.89095E+06         0.00000E+00
    0.89095E+06        -0.97562E+08         0.00000E+00
    0.00000E+00         0.00000E+00        -0.44565E+08
 
   -0.44211E+08         0.90453E+06         0.00000E+00
    0.90453E+06        -0.97562E+08         0.00000E+00
    0.00000E+00         0.00000E+00        -0.44406E+08
 
   -0.44051E+08         0.91794E+06         0.00000E+00
    0.91794E+06        -0.97563E+08         0.00000E+00
    0.00000E+00         0.00000E+00        -0.44245E+08
 
   -0.43888E+08         0.93114E+06         0.00000E+00
    0.93114E+06        -0.97564E+08         0.00000E+00
    0.00000E+00         0.00000E+00        -0.44080E+08
 
   -0.43723E+08         0.94408E+06         0.00000E+00
    0.94408E+06        -0.97564E+08         0.00000E+00
    0.00000E+00         0.00000E+00        -0.43913E+08
 
   -0.43556E+08         0.95672E+06         0.00000E+00
    0.95672E+06        -0.97565E+08         0.00000E+00
    0.00000E+00         0.00000E+00        -0.43742E+08
 
   -0.43386E+08         0.96901E+06         0.00000E+00
    0.96901E+06        -0.97567E+08         0.00000E+00
    0.00000E+00         0.00000E+00        -0.43569E+08
 
   -0.43213E+08         0.98089E+06         0.00000E+00
    0.98089E+06        -0.97568E+08         0.00000E+00
    0.00000E+00         0.00000E+00        -0.43392E+08
 
   -0.43038E+08         0.99229E+06         0.00000E+00
    0.99229E+06        -0.97569E+08         0.00000E+00
    0.00000E+00         0.00000E+00        -0.43212E+08
 
   -0.42862E+08         0.10032E+07         0.00000E+00
    0.10032E+07        -0.97571E+08         0.00000E+00
    0.00000E+00         0.00000E+00        -0.43030E+08
 
   -0.42682E+08         0.10134E+07         0.00000E+00
    0.10134E+07        -0.97573E+08         0.00000E+00
    0.00000E+00         0.00000E+00        -0.42844E+08
 
   -0.42501E+08         0.10229E+07         0.00000E+00
    0.10229E+07        -0.97575E+08         0.00000E+00
    0.00000E+00         0.00000E+00        -0.42655E+08
 
   -0.42318E+08         0.10317E+07         0.00000E+00
    0.10317E+07        -0.97578E+08         0.00000E+00
    0.00000E+00         0.00000E+00        -0.42464E+08
 
   -0.42133E+08         0.10395E+07         0.00000E+00
    0.10395E+07        -0.97581E+08         0.00000E+00
    0.00000E+00         0.00000E+00        -0.42269E+08
 
   -0.41946E+08         0.10463E+07         0.00000E+00
    0.10463E+07        -0.97584E+08         0.00000E+00
    0.00000E+00         0.00000E+00        -0.42072E+08
 
   -0.41758E+08         0.10520E+07         0.00000E+00
    0.10520E+07        -0.97588E+08         0.00000E+00
    0.00000E+00         0.00000E+00        -0.41871E+08
 
   -0.41568E+08         0.10565E+07         0.00000E+00
    0.10565E+07        -0.97592E+08         0.00000E+00
    0.00000E+00         0.00000E+00        -0.41668E+08
 
   -0.41377E+08         0.10595E+07         0.00000E+00
    0.10595E+07        -0.97596E+08         0.00000E+00
    0.00000E+00         0.00000E+00        -0.41462E+08
 
   -0.41185E+08         0.10608E+07         0.00000E+00
    0.10608E+07        -0.97602E+08         0.00000E+00
    0.00000E+00         0.00000E+00        -0.41253E+08
 
   -0.40992E+08         0.10605E+07         0.00000E+00
    0.10605E+07        -0.97608E+08         0.00000E+00
    0.00000E+00         0.00000E+00        -0.41042E+08
 
   -0.40798E+08         0.10581E+07         0.00000E+00
    0.10581E+07        -0.97614E+08         0.00000E+00
    0.00000E+00         0.00000E+00        -0.40828E+08
 
   -0.40604E+08         0.10534E+07         0.00000E+00
    0.10534E+07        -0.97622E+08         0.00000E+00
    0.00000E+00         0.00000E+00        -0.40611E+08
 
   -0.40410E+08         0.10464E+07         0.00000E+00
    0.10464E+07        -0.97630E+08         0.00000E+00
    0.00000E+00         0.00000E+00        -0.40391E+08
 
   -0.40216E+08         0.10365E+07         0.00000E+00
    0.10365E+07        -0.97639E+08         0.00000E+00
    0.00000E+00         0.00000E+00        -0.40170E+08
 
   -0.40023E+08         0.10236E+07         0.00000E+00
    0.10236E+07        -0.97650E+08         0.00000E+00
    0.00000E+00         0.00000E+00        -0.39945E+08
 
   -0.39830E+08         0.10074E+07         0.00000E+00
    0.10074E+07        -0.97662E+08         0.00000E+00
    0.00000E+00         0.00000E+00        -0.39719E+08
 
   -0.39638E+08         0.98746E+06         0.00000E+00
    0.98746E+06        -0.97675E+08         0.00000E+00
    0.00000E+00         0.00000E+00        -0.39490E+08
 
   -0.39448E+08         0.96346E+06         0.00000E+00
    0.96346E+06        -0.97689E+08         0.00000E+00
    0.00000E+00         0.00000E+00        -0.39259E+08
 
   -0.39259E+08         0.93506E+06         0.00000E+00
    0.93506E+06        -0.97705E+08         0.00000E+00
    0.00000E+00         0.00000E+00        -0.39027E+08
 
   -0.39073E+08         0.90188E+06         0.00000E+00
    0.90188E+06        -0.97723E+08         0.00000E+00
    0.00000E+00         0.00000E+00        -0.38792E+08
 
   -0.38889E+08         0.86359E+06         0.00000E+00
    0.86359E+06        -0.97742E+08         0.00000E+00
    0.00000E+00         0.00000E+00        -0.38555E+08
 
   -0.38707E+08         0.81990E+06         0.00000E+00
    0.81990E+06        -0.97762E+08         0.00000E+00
    0.00000E+00         0.00000E+00        -0.38317E+08
 
   -0.38528E+08         0.77056E+06         0.00000E+00
    0.77056E+06        -0.97783E+08         0.00000E+00
    0.00000E+00         0.00000E+00        -0.38077E+08
 
   -0.38353E+08         0.71547E+06         0.00000E+00
    0.71547E+06        -0.97805E+08         0.00000E+00
    0.00000E+00         0.00000E+00        -0.37836E+08
 
   -0.38182E+08         0.65468E+06         0.00000E+00
    0.65468E+06        -0.97826E+08         0.00000E+00
    0.00000E+00         0.00000E+00        -0.37593E+08
 
   -0.38014E+08         0.58848E+06         0.00000E+00
    0.58848E+06        -0.97846E+08         0.00000E+00
    0.00000E+00         0.00000E+00        -0.37349E+08
 
   -0.37852E+08         0.51749E+06         0.00000E+00
    0.51749E+06        -0.97862E+08         0.00000E+00
    0.00000E+00         0.00000E+00        -0.37104E+08
 
   -0.37694E+08         0.44282E+06         0.00000E+00
    0.44282E+06        -0.97873E+08         0.00000E+00
    0.00000E+00         0.00000E+00        -0.36858E+08
 
   -0.37544E+08         0.36612E+06         0.00000E+00
    0.36612E+06        -0.97874E+08         0.00000E+00
    0.00000E+00         0.00000E+00        -0.36612E+08
 
   -0.37402E+08         0.28978E+06         0.00000E+00
    0.28978E+06        -0.97862E+08         0.00000E+00
    0.00000E+00         0.00000E+00        -0.36365E+08
 
   -0.37272E+08         0.21689E+06         0.00000E+00
    0.21689E+06        -0.97830E+08         0.00000E+00
    0.00000E+00         0.00000E+00        -0.36117E+08
 
   -0.37157E+08         0.15097E+06         0.00000E+00
    0.15097E+06        -0.97770E+08         0.00000E+00
    0.00000E+00         0.00000E+00        -0.35869E+08
 
   -0.37063E+08         0.95158E+05         0.00000E+00
    0.95158E+05        -0.97675E+08         0.00000E+00
    0.00000E+00         0.00000E+00        -0.35621E+08
 
   -0.36996E+08         0.50753E+05         0.00000E+00
    0.50753E+05        -0.97535E+08         0.00000E+00
    0.00000E+00         0.00000E+00        -0.35372E+08
 
   -0.36961E+08         0.15690E+05         0.00000E+00
    0.15690E+05        -0.97343E+08         0.00000E+00
    0.00000E+00         0.00000E+00        -0.35124E+08
 
   -0.49384E+08         0.61969E+04         0.00000E+00
    0.61969E+04        -0.97655E+08         0.00000E+00
    0.00000E+00         0.00000E+00        -0.49966E+08
 
   -0.49373E+08         0.19654E+05         0.00000E+00
    0.19654E+05        -0.97602E+08         0.00000E+00
    0.00000E+00         0.00000E+00        -0.49897E+08
 
   -0.49354E+08         0.35913E+05         0.00000E+00
    0.35913E+05        -0.97564E+08         0.00000E+00
    0.00000E+00         0.00000E+00        -0.49828E+08
 
   -0.49327E+08         0.55669E+05         0.00000E+00
    0.55669E+05        -0.97539E+08         0.00000E+00
    0.00000E+00         0.00000E+00        -0.49760E+08
 
   -0.49294E+08         0.78593E+05         0.00000E+00
    0.78593E+05        -0.97523E+08         0.00000E+00
    0.00000E+00         0.00000E+00        -0.49691E+08
 
   -0.49255E+08         0.10379E+06         0.00000E+00
    0.10379E+06        -0.97514E+08         0.00000E+00
    0.00000E+00         0.00000E+00        -0.49623E+08
 
   -0.49213E+08         0.13022E+06         0.00000E+00
    0.13022E+06        -0.97511E+08         0.00000E+00
    0.00000E+00         0.00000E+00        -0.49554E+08
 
   -0.49168E+08         0.15702E+06         0.00000E+00
    0.15702E+06        -0.97511E+08         0.00000E+00
    0.00000E+00         0.00000E+00        -0.49484E+08
 
   -0.49120E+08         0.18350E+06         0.00000E+00
    0.18350E+06        -0.97514E+08         0.00000E+00
    0.00000E+00         0.00000E+00        -0.49415E+08
 
   -0.49069E+08         0.20921E+06         0.00000E+00
    0.20921E+06        -0.97517E+08         0.00000E+00
    0.00000E+00         0.00000E+00        -0.49345E+08
 
   -0.49016E+08         0.23384E+06         0.00000E+00
    0.23384E+06        -0.97522E+08         0.00000E+00
    0.00000E+00         0.00000E+00        -0.49274E+08
 
   -0.48961E+08         0.25724E+06         0.00000E+00
    0.25724E+06        -0.97527E+08         0.00000E+00
    0.00000E+00         0.00000E+00        -0.49203E+08
 
   -0.48903E+08         0.27935E+06         0.00000E+00
    0.27935E+06        -0.97532E+08         0.00000E+00
    0.00000E+00         0.00000E+00        -0.49132E+08
 
   -0.48843E+08         0.30018E+06         0.00000E+00
    0.30018E+06        -0.97537E+08         0.00000E+00
    0.00000E+00         0.00000E+00        -0.49060E+08
 
   -0.48780E+08         0.31976E+06         0.00000E+00
    0.31976E+06        -0.97541E+08         0.00000E+00
    0.00000E+00         0.00000E+00        -0.48986E+08
 
   -0.48716E+08         0.33818E+06         0.00000E+00
    0.33818E+06        -0.97546E+08         0.00000E+00
    0.00000E+00         0.00000E+00        -0.48913E+08
 
   -0.48649E+08         0.35553E+06         0.00000E+00
    0.35553E+06        -0.97549E+08         0.00000E+00
    0.00000E+00         0.00000E+00        -0.48838E+08
 
   -0.48580E+08         0.37193E+06         0.00000E+00
    0.37193E+06        -0.97553E+08         0.00000E+00
    0.00000E+00         0.00000E+00        -0.48762E+08
 
   -0.48509E+08         0.38748E+06         0.00000E+00
    0.38748E+06        -0.97555E+08         0.00000E+00
    0.00000E+00         0.00000E+00        -0.48685E+08
 
   -0.48436E+08         0.40228E+06         0.00000E+00
    0.40228E+06        -0.97558E+08         0.00000E+00
    0.00000E+00         0.00000E+00        -0.48607E+08
 
   -0.48361E+08         0.41643E+06         0.00000E+00
    0.41643E+06        -0.97560E+08         0.00000E+00
    0.00000E+00         0.00000E+00        -0.48528E+08
 
   -0.48283E+08         0.43004E+06         0.00000E+00
    0.43004E+06        -0.97562E+08         0.00000E+00
    0.00000E+00         0.00000E+00        -0.48448E+08
 
   -0.48204E+08         0.44318E+06         0.00000E+00
    0.44318E+06        -0.97563E+08         0.00000E+00
    0.00000E+00         0.00000E+00        -0.48366E+08
 
   -0.48123E+08         0.45595E+06         0.00000E+00
    0.45595E+06        -0.97564E+08         0.00000E+00
    0.00000E+00         0.00000E+00        -0.48283E+08
 
   -0.48039E+08         0.46841E+06         0.00000E+00
    0.46841E+06        -0.97565E+08         0.00000E+00
    0.00000E+00         0.00000E+00        -0.48199E+08
 
   -0.47954E+08         0.48064E+06         0.00000E+00
    0.48064E+06        -0.97566E+08         0.00000E+00
    0.00000E+00         0.00000E+00        -0.48113E+08
 
   -0.47866E+08         0.49268E+06         0.00000E+00
    0.49268E+06        -0.97567E+08         0.00000E+00
    0.00000E+00         0.00000E+00        -0.48025E+08
 
   -0.47776E+08         0.50459E+06         0.00000E+00
    0.50459E+06        -0.97567E+08         0.00000E+00
    0.00000E+00         0.00000E+00        -0.47936E+08
 
   -0.47685E+08         0.51641E+06         0.00000E+00
    0.51641E+06        -0.97567E+08         0.00000E+00
    0.00000E+00         0.00000E+00        -0.47846E+08
 
   -0.47591E+08         0.52819E+06         0.00000E+00
    0.52819E+06        -0.97567E+08         0.00000E+00
    0.00000E+00         0.00000E+00        -0.47753E+08
 
   -0.47495E+08         0.53995E+06         0.00000E+00
    0.53995E+06        -0.97567E+08         0.00000E+00
    0.00000E+00         0.00000E+00        -0.47659E+08
 
   -0.47398E+08         0.55174E+06         0.00000E+00
    0.55174E+06        -0.97567E+08         0.00000E+00
    0.00000E+00         0.00000E+00        -0.47563E+08
 
   -0.47298E+08         0.56356E+06         0.00000E+00
    0.56356E+06        -0.97567E+08         0.00000E+00
    0.00000E+00         0.00000E+00        -0.47465E+08
 
   -0.47196E+08         0.57544E+06         0.00000E+00
    0.57544E+06        -0.97567E+08         0.00000E+00
    0.00000E+00         0.00000E+00        -0.47365E+08
 
   -0.47091E+08         0.58740E+06         0.00000E+00
    0.58740E+06        -0.97567E+08         0.00000E+00
    0.00000E+00         0.00000E+00        -0.47263E+08
 
   -0.46985E+08         0.59946E+06         0.00000E+00
    0.59946E+06        -0.97567E+08         0.00000E+00
    0.00000E+00         0.00000E+00        -0.47159E+08
 
   -0.46876E+08         0.61162E+06         0.00000E+00
    0.61162E+06        -0.97566E+08         0.00000E+00
    0.00000E+00         0.00000E+00        -0.47053E+08
 
   -0.46766E+08         0.62388E+06         0.00000E+00
    0.62388E+06        -0.97566E+08         0.00000E+00
    0.00000E+00         0.00000E+00        -0.46945E+08
 
   -0.46652E+08         0.63627E+06         0.00000E+00
    0.63627E+06        -0.97566E+08         0.00000E+00
    0.00000E+00         0.00000E+00        -0.46834E+08
 
   -0.46537E+08         0.64877E+06         0.00000E+00
    0.64877E+06        -0.97566E+08         0.00000E+00
    0.00000E+00         0.00000E+00        -0.46721E+08
 
   -0.46419E+08         0.66139E+06         0.00000E+00
    0.66139E+06        -0.97565E+08         0.00000E+00
    0.00000E+00         0.00000E+00        -0.46606E+08
 
   -0.46299E+08         0.67413E+06         0.00000E+00
    0.67413E+06        -0.97565E+08         0.00000E+00
    0.00000E+00         0.00000E+00        -0.46488E+08
 
   -0.46177E+08         0.68698E+06         0.00000E+00
    0.68698E+06        -0.97565E+08         0.00000E+00
    0.00000E+00         0.00000E+00        -0.46368E+08
 
   -0.46052E+08         0.69995E+06         0.00000E+00
    0.69995E+06        -0.97564E+08         0.00000E+00
    0.00000E+00         0.00000E+00        -0.46246E+08
 
   -0.45925E+08         0.71301E+06         0.00000E+00
    0.71301E+06        -0.97564E+08         0.00000E+00
    0.00000E+00         0.00000E+00        -0.46120E+08
 
   -0.45795E+08         0.72617E+06         0.00000E+00
    0.72617E+06        -0.97564E+08         0.00000E+00
    0.00000E+00         0.00000E+00        -0.45993E+08
 
   -0.45663E+08         0.73942E+06         0.00000E+00
    0.73942E+06        -0.97564E+08         0.00000E+00
    0.00000E+00         0.00000E+00        -0.45862E+08
 
   -0.45529E+08         0.75273E+06         0.00000E+00
    0.75273E+06        -0.97564E+08         0.00000E+00
    0.00000E+00         0.00000E+00        -0.45729E+08
 
   -0.45392E+08         0.76611E+06         0.00000E+00
    0.76611E+06        -0.97563E+08         0.00000E+00
    0.00000E+00         0.00000E+00        -0.45594E+08
 
   -0.45252E+08         0.77952E+06         0.00000E+00
    0.77952E+06        -0.97563E+08         0.00000E+00
    0.00000E+00         0.00000E+00        -0.45455E+08
 
   -0.45110E+08         0.79295E+06         0.00000E+00
    0.79295E+06        -0.97563E+08         0.00000E+00
    0.00000E+00         0.00000E+00        -0.45314E+08
 
   -0.44965E+08         0.80639E+06         0.00000E+00
    0.80639E+06        -0.97563E+08         0.00000E+00
    0.00000E+00         0.00000E+00        -0.45170E+08
 
   -0.44818E+08         0.81981E+06         0.00000E+00
    0.81981E+06        -0.97564E+08         0.00000E+00
    0.00000E+00         0.00000E+00        -0.45023E+08
 
   -0.44668E+08         0.83319E+06         0.00000E+00
    0.83319E+06        -0.97564E+08         0.00000E+00
    0.00000E+00         0.00000E+00        -0.44873E+08
 
   -0.44515E+08         0.84649E+06         0.00000E+00
    0.84649E+06        -0.97564E+08         0.00000E+00
    0.00000E+00         0.00000E+00        -0.44721E+08
 
   -0.44360E+08         0.85969E+06         0.00000E+00
    0.85969E+06        -0.97564E+08         0.00000E+00
    0.00000E+00         0.00000E+00        -0.44565E+08
 
   -0.44203E+08         0.87276E+06         0.00000E+00
    0.87276E+06        -0.97565E+08         0.00000E+00
    0.00000E+00         0.00000E+00        -0.44406E+08
 
   -0.44043E+08         0.88567E+06         0.00000E+00
    0.88567E+06        -0.97565E+08         0.00000E+00
    0.00000E+00         0.00000E+00        -0.44245E+08
 
   -0.43880E+08         0.89837E+06         0.00000E+00
    0.89837E+06        -0.97566E+08         0.00000E+00
    0.00000E+00         0.00000E+00        -0.44080E+08
 
   -0.43715E+08         0.91082E+06         0.00000E+00
    0.91082E+06        -0.97567E+08         0.00000E+00
    0.00000E+00         0.00000E+00        -0.43913E+08
 
   -0.43548E+08         0.92297E+06         0.00000E+00
    0.92297E+06        -0.97568E+08         0.00000E+00
    0.00000E+00         0.00000E+00        -0.43742E+08
 
   -0.43378E+08         0.93478E+06         0.00000E+00
    0.93478E+06        -0.97569E+08         0.00000E+00
    0.00000E+00         0.00000E+00        -0.43569E+08
 
   -0.43206E+08         0.94619E+06         0.00000E+00
    0.94619E+06        -0.97570E+08         0.00000E+00
    0.00000E+00         0.00000E+00        -0.43392E+08
 
   -0.43031E+08         0.95714E+06         0.00000E+00
    0.95714E+06        -0.97572E+08         0.00000E+00
    0.00000E+00         0.00000E+00        -0.43212E+08
 
   -0.42854E+08         0.96757E+06         0.00000E+00
    0.96757E+06        -0.97573E+08         0.00000E+00
    0.00000E+00         0.00000E+00        -0.43030E+08
 
   -0.42676E+08         0.97738E+06         0.00000E+00
    0.97738E+06        -0.97575E+08         0.00000E+00
    0.00000E+00         0.00000E+00        -0.42844E+08
 
   -0.42495E+08         0.98652E+06         0.00000E+00
    0.98652E+06        -0.97577E+08         0.00000E+00
    0.00000E+00         0.00000E+00        -0.42655E+08
 
   -0.42312E+08         0.99488E+06         0.00000E+00
    0.99488E+06        -0.97580E+08         0.00000E+00
    0.00000E+00         0.00000E+00        -0.42464E+08
 
   -0.42127E+08         0.10024E+07         0.00000E+00
    0.10024E+07        -0.97582E+08         0.00000E+00
    0.00000E+00         0.00000E+00        -0.42269E+08
 
   -0.41941E+08         0.10089E+07         0.00000E+00
    0.10089E+07        -0.97585E+08         0.00000E+00
    0.00000E+00         0.00000E+00        -0.42072E+08
 
   -0.41753E+08         0.10143E+07         0.00000E+00
    0.10143E+07        -0.97589E+08         0.00000E+00
    0.00000E+00         0.00000E+00        -0.41871E+08
 
   -0.41563E+08         0.10184E+07         0.00000E+00
    0.10184E+07        -0.97593E+08         0.00000E+00
    0.00000E+00         0.00000E+00        -0.41668E+08
 
   -0.41373E+08         0.10212E+07         0.00000E+00
    0.10212E+07        -0.97597E+08         0.00000E+00
    0.00000E+00         0.00000E+00        -0.41462E+08
 
   -0.41181E+08         0.10224E+07         0.00000E+00
    0.10224E+07        -0.97602E+08         0.00000E+00
    0.00000E+00         0.00000E+00        -0.41253E+08
 
   -0.40989E+08         0.10219E+07         0.00000E+00
    0.10219E+07        -0.97607E+08         0.00000E+00
    0.00000E+00         0.00000E+00        -0.41042E+08
 
   -0.40796E+08         0.10194E+07         0.00000E+00
    0.10194E+07        -0.97613E+08         0.00000E+00
    0.00000E+00         0.00000E+00        -0.40828E+08
 
   -0.40603E+08         0.10147E+07         0.00000E+00
    0.10147E+07        -0.97620E+08         0.00000E+00
    0.00000E+00         0.00000E+00        -0.40611E+08
 
   -0.40410E+08         0.10076E+07         0.00000E+00
    0.10076E+07        -0.97628E+08         0.00000E+00
    0.00000E+00         0.00000E+00        -0.40392E+08
 
   -0.40217E+08         0.99788E+06         0.00000E+00
    0.99788E+06        -0.97637E+08         0.00000E+00
    0.00000E+00         0.00000E+00        -0.40170E+08
 
   -0.40025E+08         0.98513E+06         0.00000E+00
    0.98513E+06        -0.97647E+08         0.00000E+00
    0.00000E+00         0.00000E+00        -0.39945E+08
 
   -0.39833E+08         0.96908E+06         0.00000E+00
    0.96908E+06        -0.97658E+08         0.00000E+00
    0.00000E+00         0.00000E+00        -0.39719E+08
 
   -0.39643E+08         0.94940E+06         0.00000E+00
    0.94940E+06        -0.97670E+08         0.00000E+00
    0.00000E+00         0.00000E+00        -0.39490E+08
 
   -0.39455E+08         0.92574E+06         0.00000E+00
    0.92574E+06        -0.97684E+08         0.00000E+00
    0.00000E+00         0.00000E+00        -0.39259E+08
 
   -0.39268E+08         0.89773E+06         0.00000E+00
    0.89773E+06        -0.97699E+08         0.00000E+00
    0.00000E+00         0.00000E+00        -0.39027E+08
 
   -0.39084E+08         0.86501E+06         0.00000E+00
    0.86501E+06        -0.97716E+08         0.00000E+00
    0.00000E+00         0.00000E+00        -0.38792E+08
 
   -0.38902E+08         0.82726E+06         0.00000E+00
    0.82726E+06        -0.97734E+08         0.00000E+00
    0.00000E+00         0.00000E+00        -0.38555E+08
 
   -0.38723E+08         0.78416E+06         0.00000E+00
    0.78416E+06        -0.97753E+08         0.00000E+00
    0.00000E+00         0.00000E+00        -0.38317E+08
 
   -0.38547E+08         0.73548E+06         0.00000E+00
    0.73548E+06        -0.97773E+08         0.00000E+00
    0.00000E+00         0.00000E+00        -0.38077E+08
 
   -0.38375E+08         0.68112E+06         0.00000E+00
    0.68112E+06        -0.97793E+08         0.00000E+00
    0.00000E+00         0.00000E+00        -0.37836E+08
 
   -0.38208E+08         0.62114E+06         0.00000E+00
    0.62114E+06        -0.97813E+08         0.00000E+00
    0.00000E+00         0.00000E+00        -0.37593E+08
 
   -0.38044E+08         0.55584E+06         0.00000E+00
    0.55584E+06        -0.97832E+08         0.00000E+00
    0.00000E+00         0.00000E+00        -0.37349E+08
 
   -0.37886E+08         0.48589E+06         0.00000E+00
    0.48589E+06        -0.97848E+08         0.00000E+00
    0.00000E+00         0.00000E+00        -0.37104E+08
 
   -0.37733E+08         0.41243E+06         0.00000E+00
    0.41243E+06        -0.97858E+08         0.00000E+00
    0.00000E+00         0.00000E+00        -0.36858E+08
 
   -0.37587E+08         0.33724E+06         0.00000E+00
    0.33724E+06        -0.97859E+08         0.00000E+00
    0.00000E+00         0.00000E+00        -0.36612E+08
 
   -0.37450E+08         0.26284E+06         0.00000E+00
    0.26284E+06        -0.97847E+08         0.00000E+00
    0.00000E+00         0.00000E+00        -0.36364E+08
 
   -0.37324E+08         0.19255E+06         0.00000E+00
    0.19255E+06        -0.97816E+08         0.00000E+00
    0.00000E+00         0.00000E+00        -0.36117E+08
 
   -0.37213E+08         0.13016E+06         0.00000E+00
    0.13016E+06        -0.97758E+08         0.00000E+00
    0.00000E+00         0.00000E+00        -0.35869E+08
 
   -0.37122E+08         0.79031E+05         0.00000E+00
    0.79031E+05        -0.97666E+08         0.00000E+00
    0.00000E+00         0.00000E+00        -0.35621E+08
 
   -0.37057E+08         0.40473E+05         0.00000E+00
    0.40473E+05        -0.97528E+08         0.00000E+00
    0.00000E+00         0.00000E+00        -0.35372E+08
 
   -0.37023E+08         0.12152E+05         0.00000E+00
    0.12152E+05        -0.97337E+08         0.00000E+00
    0.00000E+00         0.00000E+00        -0.35124E+08
 
   -0.49364E+08         0.51742E+04         0.00000E+00
    0.51742E+04        -0.97658E+08         0.00000E+00
    0.00000E+00         0.00000E+00        -0.49966E+08
 
   -0.49355E+08         0.16684E+05         0.00000E+00
    0.16684E+05        -0.97605E+08         0.00000E+00
    0.00000E+00         0.00000E+00        -0.49897E+08
 
   -0.49336E+08         0.31249E+05         0.00000E+00
    0.31249E+05        -0.97568E+08         0.00000E+00
    0.00000E+00         0.00000E+00        -0.49828E+08
 
   -0.49309E+08         0.49631E+05         0.00000E+00
    0.49631E+05        -0.97543E+08         0.00000E+00
    0.00000E+00         0.00000E+00        -0.49760E+08
 
   -0.49277E+08         0.71479E+05         0.00000E+00
    0.71479E+05        -0.97528E+08         0.00000E+00
    0.00000E+00         0.00000E+00        -0.49691E+08
 
   -0.49240E+08         0.95824E+05         0.00000E+00
    0.95824E+05        -0.97520E+08         0.00000E+00
    0.00000E+00         0.00000E+00        -0.49623E+08
 
   -0.49199E+08         0.12157E+06         0.00000E+00
    0.12157E+06        -0.97516E+08         0.00000E+00
    0.00000E+00         0.00000E+00        -0.49554E+08
 
   -0.49155E+08         0.14777E+06         0.00000E+00
    0.14777E+06        -0.97516E+08         0.00000E+00
    0.00000E+00         0.00000E+00        -0.49484E+08
 
   -0.49108E+08         0.17371E+06         0.00000E+00
    0.17371E+06        -0.97519E+08         0.00000E+00
    0.00000E+00         0.00000E+00        -0.49415E+08
 
   -0.49058E+08         0.19891E+06         0.00000E+00
    0.19891E+06        -0.97522E+08         0.00000E+00
    0.00000E+00         0.00000E+00        -0.49345E+08
 
   -0.49006E+08         0.22306E+06         0.00000E+00
    0.22306E+06        -0.97527E+08         0.00000E+00
    0.00000E+00         0.00000E+00        -0.49274E+08
 
   -0.48951E+08         0.24599E+06         0.00000E+00
    0.24599E+06        -0.97532E+08         0.00000E+00
    0.00000E+00         0.00000E+00        -0.49203E+08
 
   -0.48894E+08         0.26763E+06         0.00000E+00
    0.26763E+06        -0.97536E+08         0.00000E+00
    0.00000E+00         0.00000E+00        -0.49132E+08
 
   -0.48834E+08         0.28799E+06         0.00000E+00
    0.28799E+06        -0.97541E+08         0.00000E+00
    0.00000E+00         0.00000E+00        -0.49060E+08
 
   -0.48773E+08         0.30712E+06         0.00000E+00
    0.30712E+06        -0.97545E+08         0.00000E+00
    0.00000E+00         0.00000E+00        -0.48986E+08
 
   -0.48709E+08         0.32509E+06         0.00000E+00
    0.32509E+06        -0.97549E+08         0.00000E+00
    0.00000E+00         0.00000E+00        -0.48912E+08
 
   -0.48642E+08         0.34201E+06         0.00000E+00
    0.34201E+06        -0.97553E+08         0.00000E+00
    0.00000E+00         0.00000E+00        -0.48838E+08
 
   -0.48574E+08         0.35797E+06         0.00000E+00
    0.35797E+06        -0.97556E+08         0.00000E+00
    0.00000E+00         0.00000E+00        -0.48762E+08
 
   -0.48503E+08         0.37308E+06         0.00000E+00
    0.37308E+06        -0.97558E+08         0.00000E+00
    0.00000E+00         0.00000E+00        -0.48685E+08
 
   -0.48430E+08         0.38745E+06         0.00000E+00
    0.38745E+06        -0.97561E+08         0.00000E+00
    0.00000E+00         0.00000E+00        -0.48607E+08
 
   -0.48355E+08         0.40118E+06         0.00000E+00
    0.40118E+06        -0.97563E+08         0.00000E+00
    0.00000E+00         0.00000E+00        -0.48528E+08
 
   -0.48277E+08         0.41437E+06         0.00000E+00
    0.41437E+06        -0.97564E+08         0.00000E+00
    0.00000E+00         0.00000E+00        -0.48448E+08
 
   -0.48198E+08         0.42710E+06         0.00000E+00
    0.42710E+06        -0.97566E+08         0.00000E+00
    0.00000E+00         0.00000E+00        -0.48366E+08
 
   -0.48117E+08         0.43946E+06         0.00000E+00
    0.43946E+06        -0.97567E+08         0.00000E+00
    0.00000E+00         0.00000E+00        -0.48283E+08
 
   -0.48033E+08         0.45151E+06         0.00000E+00
    0.45151E+06        -0.97568E+08         0.00000E+00
    0.00000E+00         0.00000E+00        -0.48199E+08
 
   -0.47948E+08         0.46333E+06         0.00000E+00
    0.46333E+06        -0.97568E+08         0.00000E+00
    0.00000E+00         0.00000E+00        -0.48113E+08
 
   -0.47860E+08         0.47496E+06         0.00000E+00
    0.47496E+06        -0.97569E+08         0.00000E+00
    0.00000E+00         0.00000E+00        -0.48025E+08
 
   -0.47771E+08         0.48646E+06         0.00000E+00
    0.48646E+06        -0.97569E+08         0.00000E+00
    0.00000E+00         0.00000E+00        -0.47936E+08
 
   -0.47679E+08         0.49787E+06         0.00000E+00
    0.49787E+06        -0.97570E+08         0.00000E+00
    0.00000E+00         0.00000E+00        -0.47846E+08
 
   -0.47585E+08         0.50924E+06         0.00000E+00
    0.50924E+06        -0.97570E+08         0.00000E+00
    0.00000E+00         0.00000E+00        -0.47753E+08
 
   -0.47489E+08         0.52059E+06         0.00000E+00
    0.52059E+06        -0.97570E+08         0.00000E+00
    0.00000E+00         0.00000E+00        -0.47659E+08
 
   -0.47391E+08         0.53195E+06         0.00000E+00
    0.53195E+06        -0.97570E+08         0.00000E+00
    0.00000E+00         0.00000E+00        -0.47563E+08
 
   -0.47291E+08         0.54335E+06         0.00000E+00
    0.54335E+06        -0.97570E+08         0.00000E+00
    0.00000E+00         0.00000E+00        -0.47465E+08
 
   -0.47189E+08         0.55481E+06         0.00000E+00
    0.55481E+06        -0.97569E+08         0.00000E+00
    0.00000E+00         0.00000E+00        -0.47365E+08
 
   -0.47085E+08         0.56634E+06         0.00000E+00
    0.56634E+06        -0.97569E+08         0.00000E+00
    0.00000E+00         0.00000E+00        -0.47263E+08
 
   -0.46978E+08         0.57795E+06         0.00000E+00
    0.57795E+06        -0.97569E+08         0.00000E+00
    0.00000E+00         0.00000E+00        -0.47159E+08
 
   -0.46870E+08         0.58967E+06         0.00000E+00
    0.58967E+06        -0.97569E+08         0.00000E+00
    0.00000E+00         0.00000E+00        -0.47053E+08
 
   -0.46759E+08         0.60149E+06         0.00000E+00
    0.60149E+06        -0.97569E+08         0.00000E+00
    0.00000E+00         0.00000E+00        -0.46945E+08
 
   -0.46646E+08         0.61341E+06         0.00000E+00
    0.61341E+06        -0.97568E+08         0.00000E+00
    0.00000E+00         0.00000E+00        -0.46834E+08
 
   -0.46530E+08         0.62546E+06         0.00000E+00
    0.62546E+06        -0.97568E+08         0.00000E+00
    0.00000E+00         0.00000E+00        -0.46721E+08
 
   -0.46412E+08         0.63761E+06         0.00000E+00
    0.63761E+06        -0.97568E+08         0.00000E+00
    0.00000E+00         0.00000E+00        -0.46606E+08
 
   -0.46292E+08         0.64988E+06         0.00000E+00
    0.64988E+06        -0.97567E+08         0.00000E+00
    0.00000E+00         0.00000E+00        -0.46488E+08
 
   -0.46170E+08         0.66226E+06         0.00000E+00
    0.66226E+06        -0.97567E+08         0.00000E+00
    0.00000E+00         0.00000E+00        -0.46368E+08
 
   -0.46045E+08         0.67474E+06         0.00000E+00
    0.67474E+06        -0.97567E+08         0.00000E+00
    0.00000E+00         0.00000E+00        -0.46246E+08
 
   -0.45918E+08         0.68732E+06         0.00000E+00
    0.68732E+06        -0.97567E+08         0.00000E+00
    0.00000E+00         0.00000E+00        -0.46120E+08
 
   -0.45788E+08         0.69999E+06         0.00000E+00
    0.69999E+06        -0.97567E+08         0.00000E+00
    0.00000E+00         0.00000E+00        -0.45993E+08
 
   -0.45656E+08         0.71274E+06         0.00000E+00
    0.71274E+06        -0.97566E+08         0.00000E+00
    0.00000E+00         0.00000E+00        -0.45862E+08
 
   -0.45521E+08         0.72556E+06         0.00000E+00
    0.72556E+06        -0.97566E+08         0.00000E+00
    0.00000E+00         0.00000E+00        -0.45729E+08
 
   -0.45384E+08         0.73842E+06         0.00000E+00
    0.73842E+06        -0.97566E+08         0.00000E+00
    0.00000E+00         0.00000E+00        -0.45594E+08
 
   -0.45244E+08         0.75133E+06         0.00000E+00
    0.75133E+06        -0.97566E+08         0.00000E+00
    0.00000E+00         0.00000E+00        -0.45455E+08
 
   -0.45102E+08         0.76426E+06         0.00000E+00
    0.76426E+06        -0.97566E+08         0.00000E+00
    0.00000E+00         0.00000E+00        -0.45314E+08
 
   -0.44957E+08         0.77718E+06         0.00000E+00
    0.77718E+06        -0.97566E+08         0.00000E+00
    0.00000E+00         0.00000E+00        -0.45170E+08
 
   -0.44810E+08         0.79009E+06         0.00000E+00
    0.79009E+06        -0.97566E+08         0.00000E+00
    0.00000E+00         0.00000E+00        -0.45023E+08
 
   -0.44660E+08         0.80296E+06         0.00000E+00
    0.80296E+06        -0.97566E+08         0.00000E+00
    0.00000E+00         0.00000E+00        -0.44873E+08
 
   -0.44507E+08         0.81575E+06         0.00000E+00
    0.81575E+06        -0.97567E+08         0.00000E+00
    0.00000E+00         0.00000E+00        -0.44721E+08
 
   -0.44352E+08         0.82844E+06         0.00000E+00
    0.82844E+06        -0.97567E+08         0.00000E+00
    0.00000E+00         0.00000E+00        -0.44565E+08
 
   -0.44195E+08         0.84101E+06         0.00000E+00
    0.84101E+06        -0.97567E+08         0.00000E+00
    0.00000E+00         0.00000E+00        -0.44406E+08
 
   -0.44035E+08         0.85341E+06         0.00000E+00
    0.85341E+06        -0.97568E+08         0.00000E+00
    0.00000E+00         0.00000E+00        -0.44245E+08
 
   -0.43872E+08         0.86561E+06         0.00000E+00
    0.86561E+06        -0.97569E+08         0.00000E+00
    0.00000E+00         0.00000E+00        -0.44080E+08
 
   -0.43707E+08         0.87757E+06         0.00000E+00
    0.87757E+06        -0.97569E+08         0.00000E+00
    0.00000E+00         0.00000E+00        -0.43913E+08
 
   -0.43540E+08         0.88925E+06         0.00000E+00
    0.88925E+06        -0.97570E+08         0.00000E+00
    0.00000E+00         0.00000E+00        -0.43742E+08
 
   -0.43370E+08         0.90058E+06         0.00000E+00
    0.90058E+06        -0.97571E+08         0.00000E+00
    0.00000E+00         0.00000E+00        -0.43569E+08
 
   -0.43198E+08         0.91153E+06         0.00000E+00
    0.91153E+06        -0.97572E+08         0.00000E+00
    0.00000E+00         0.00000E+00        -0.43392E+08
 
   -0.43024E+08         0.92203E+06         0.00000E+00
    0.92203E+06        -0.97574E+08         0.00000E+00
    0.00000E+00         0.00000E+00        -0.43212E+08
 
   -0.42847E+08         0.93202E+06         0.00000E+00
    0.93202E+06        -0.97575E+08         0.00000E+00
    0.00000E+00         0.00000E+00        -0.43030E+08
 
   -0.42669E+08         0.94143E+06         0.00000E+00
    0.94143E+06        -0.97577E+08         0.00000E+00
    0.00000E+00         0.00000E+00        -0.42844E+08
 
   -0.42488E+08         0.95017E+06         0.00000E+00
    0.95017E+06        -0.97579E+08         0.00000E+00
    0.00000E+00         0.00000E+00        -0.42655E+08
 
   -0.42305E+08         0.95815E+06         0.00000E+00
    0.95815E+06        -0.97581E+08         0.00000E+00
    0.00000E+00         0.00000E+00        -0.42464E+08
 
   -0.42121E+08         0.96529E+06         0.00000E+00
    0.96529E+06        -0.97584E+08         0.00000E+00
    0.00000E+00         0.00000E+00        -0.42269E+08
 
   -0.41935E+08         0.97148E+06         0.00000E+00
    0.97148E+06        -0.97586E+08         0.00000E+00
    0.00000E+00         0.00000E+00        -0.42072E+08
 
   -0.41748E+08         0.97659E+06         0.00000E+00
    0.97659E+06        -0.97590E+08         0.00000E+00
    0.00000E+00         0.00000E+00        -0.41871E+08
 
   -0.41559E+08         0.98049E+06         0.00000E+00
    0.98049E+06        -0.97593E+08         0.00000E+00
    0.00000E+00         0.00000E+00        -0.41668E+08
 
   -0.41369E+08         0.98304E+06         0.00000E+00
    0.98304E+06        -0.97597E+08         0.00000E+00
    0.00000E+00         0.00000E+00        -0.41462E+08
 
   -0.41178E+08         0.98407E+06         0.00000E+00
    0.98407E+06        -0.97602E+08         0.00000E+00
    0.00000E+00         0.00000E+00        -0.41253E+08
 
   -0.40986E+08         0.98341E+06         0.00000E+00
    0.98341E+06        -0.97607E+08         0.00000E+00
    0.00000E+00         0.00000E+00        -0.41042E+08
 
   -0.40794E+08         0.98085E+06         0.00000E+00
    0.98085E+06        -0.97613E+08         0.00000E+00
    0.00000E+00         0.00000E+00        -0.40828E+08
 
   -0.40602E+08         0.97617E+06         0.00000E+00
    0.97617E+06        -0.97619E+08         0.00000E+00
    0.00000E+00         0.00000E+00        -0.40611E+08
 
   -0.40410E+08         0.96913E+06         0.00000E+00
    0.96913E+06        -0.97627E+08         0.00000E+00
    0.00000E+00         0.00000E+00        -0.40392E+08
 
   -0.40218E+08         0.95946E+06         0.00000E+00
    0.95946E+06        -0.97635E+08         0.00000E+00
    0.00000E+00         0.00000E+00        -0.40170E+08
 
   -0.40027E+08         0.94687E+06         0.00000E+00
    0.94687E+06        -0.97644E+08         0.00000E+00
    0.00000E+00         0.00000E+00        -0.39946E+08
 
   -0.39837E+08         0.93105E+06         0.00000E+00
    0.93105E+06        -0.97654E+08         0.00000E+00
    0.00000E+00         0.00000E+00        -0.39719E+08
 
   -0.39648E+08         0.91167E+06         0.00000E+00
    0.91167E+06        -0.97666E+08         0.00000E+00
    0.00000E+00         0.00000E+00        -0.39490E+08
 
   -0.39461E+08         0.88837E+06         0.00000E+00
    0.88837E+06        -0.97679E+08         0.00000E+00
    0.00000E+00         0.00000E+00        -0.39259E+08
 
   -0.39276E+08         0.86080E+06         0.00000E+00
    0.86080E+06        -0.97693E+08         0.00000E+00
    0.00000E+00         0.00000E+00        -0.39027E+08
 
   -0.39094E+08         0.82860E+06         0.00000E+00
    0.82860E+06        -0.97709E+08         0.00000E+00
    0.00000E+00         0.00000E+00        -0.38792E+08
 
   -0.38914E+08         0.79143E+06         0.00000E+00
    0.79143E+06        -0.97726E+08         0.00000E+00
    0.00000E+00         0.00000E+00        -0.38555E+08
 
   -0.38738E+08         0.74898E+06         0.00000E+00
    0.74898E+06        -0.97744E+08         0.00000E+00
    0.00000E+00         0.00000E+00        -0.38317E+08
 
   -0.38566E+08         0.70104E+06         0.00000E+00
    0.70104E+06        -0.97763E+08         0.00000E+00
    0.00000E+00         0.00000E+00        -0.38077E+08
 
   -0.38397E+08         0.64748E+06         0.00000E+00
    0.64748E+06        -0.97782E+08         0.00000E+00
    0.00000E+00         0.00000E+00        -0.37836E+08
 
   -0.38233E+08         0.58837E+06         0.00000E+00
    0.58837E+06        -0.97801E+08         0.00000E+00
    0.00000E+00         0.00000E+00        -0.37593E+08
 
   -0.38074E+08         0.52405E+06         0.00000E+00
    0.52405E+06        -0.97819E+08         0.00000E+00
    0.00000E+00         0.00000E+00        -0.37349E+08
 
   -0.37920E+08         0.45519E+06         0.00000E+00
    0.45519E+06        -0.97833E+08         0.00000E+00
    0.00000E+00         0.00000E+00        -0.37104E+08
 
   -0.37772E+08         0.38299E+06         0.00000E+00
    0.38299E+06        -0.97843E+08         0.00000E+00
    0.00000E+00         0.00000E+00        -0.36858E+08
 
   -0.37631E+08         0.30931E+06         0.00000E+00
    0.30931E+06        -0.97844E+08         0.00000E+00
    0.00000E+00         0.00000E+00        -0.36612E+08
 
   -0.37498E+08         0.23682E+06         0.00000E+00
    0.23682E+06        -0.97833E+08         0.00000E+00
    0.00000E+00         0.00000E+00        -0.36364E+08
 
   -0.37377E+08         0.16904E+06         0.00000E+00
    0.16904E+06        -0.97803E+08         0.00000E+00
    0.00000E+00         0.00000E+00        -0.36117E+08
 
   -0.37269E+08         0.11001E+06         0.00000E+00
    0.11001E+06        -0.97747E+08         0.00000E+00
    0.00000E+00         0.00000E+00        -0.35869E+08
 
   -0.37181E+08         0.63349E+05         0.00000E+00
    0.63349E+05        -0.97657E+08         0.00000E+00
    0.00000E+00         0.00000E+00        -0.35620E+08
 
   -0.37117E+08         0.30434E+05         0.00000E+00
    0.30434E+05        -0.97522E+08         0.00000E+00
    0.00000E+00         0.00000E+00        -0.35372E+08
 
   -0.37084E+08         0.86859E+04         0.00000E+00
    0.86859E+04        -0.97333E+08         0.00000E+00
    0.00000E+00         0.00000E+00        -0.35124E+08
 
   -0.49346E+08         0.41667E+04         0.00000E+00
    0.41667E+04        -0.97659E+08         0.00000E+00
    0.00000E+00         0.00000E+00        -0.49966E+08
 
   -0.49336E+08         0.13766E+05         0.00000E+00
    0.13766E+05        -0.97608E+08         0.00000E+00
    0.00000E+00         0.00000E+00        -0.49897E+08
 
   -0.49317E+08         0.26691E+05         0.00000E+00
    0.26691E+05        -0.97571E+08         0.00000E+00
    0.00000E+00         0.00000E+00        -0.49828E+08
 
   -0.49291E+08         0.43755E+05         0.00000E+00
    0.43755E+05        -0.97547E+08         0.00000E+00
    0.00000E+00         0.00000E+00        -0.49760E+08
 
   -0.49260E+08         0.64571E+05         0.00000E+00
    0.64571E+05        -0.97532E+08         0.00000E+00
    0.00000E+00         0.00000E+00        -0.49691E+08
 
   -0.49224E+08         0.88094E+05         0.00000E+00
    0.88094E+05        -0.97524E+08         0.00000E+00
    0.00000E+00         0.00000E+00        -0.49623E+08
 
   -0.49184E+08         0.11315E+06         0.00000E+00
    0.11315E+06        -0.97521E+08         0.00000E+00
    0.00000E+00         0.00000E+00        -0.49554E+08
 
   -0.49141E+08         0.13875E+06         0.00000E+00
    0.13875E+06        -0.97522E+08         0.00000E+00
    0.00000E+00         0.00000E+00        -0.49484E+08
 
   -0.49095E+08         0.16414E+06         0.00000E+00
    0.16414E+06        -0.97524E+08         0.00000E+00
    0.00000E+00         0.00000E+00        -0.49415E+08
 
   -0.49047E+08         0.18881E+06         0.00000E+00
    0.18881E+06        -0.97527E+08         0.00000E+00
    0.00000E+00         0.00000E+00        -0.49345E+08
 
   -0.48995E+08         0.21245E+06         0.00000E+00
    0.21245E+06        -0.97532E+08         0.00000E+00
    0.00000E+00         0.00000E+00        -0.49274E+08
 
   -0.48942E+08         0.23488E+06         0.00000E+00
    0.23488E+06        -0.97536E+08         0.00000E+00
    0.00000E+00         0.00000E+00        -0.49203E+08
 
   -0.48885E+08         0.25604E+06         0.00000E+00
    0.25604E+06        -0.97541E+08         0.00000E+00
    0.00000E+00         0.00000E+00        -0.49132E+08
 
   -0.48826E+08         0.27593E+06         0.00000E+00
    0.27593E+06        -0.97545E+08         0.00000E+00
    0.00000E+00         0.00000E+00        -0.49059E+08
 
   -0.48765E+08         0.29458E+06         0.00000E+00
    0.29458E+06        -0.97549E+08         0.00000E+00
    0.00000E+00         0.00000E+00        -0.48986E+08
 
   -0.48701E+08         0.31209E+06         0.00000E+00
    0.31209E+06        -0.97553E+08         0.00000E+00
    0.00000E+00         0.00000E+00        -0.48912E+08
 
   -0.48635E+08         0.32855E+06         0.00000E+00
    0.32855E+06        -0.97556E+08         0.00000E+00
    0.00000E+00         0.00000E+00        -0.48838E+08
 
   -0.48567E+08         0.34405E+06         0.00000E+00
    0.34405E+06        -0.97559E+08         0.00000E+00
    0.00000E+00         0.00000E+00        -0.48762E+08
 
   -0.48497E+08         0.35872E+06         0.00000E+00
    0.35872E+06        -0.97561E+08         0.00000E+00
    0.00000E+00         0.00000E+00        -0.48685E+08
 
   -0.48424E+08         0.37266E+06         0.00000E+00
    0.37266E+06        -0.97563E+08         0.00000E+00
    0.00000E+00         0.00000E+00        -0.48607E+08
 
   -0.48349E+08         0.38596E+06         0.00000E+00
    0.38596E+06        -0.97565E+08         0.00000E+00
    0.00000E+00         0.00000E+00        -0.48528E+08
 
   -0.48272E+08         0.39872E+06         0.00000E+00
    0.39872E+06        -0.97567E+08         0.00000E+00
    0.00000E+00         0.00000E+00        -0.48448E+08
 
   -0.48192E+08         0.41103E+06         0.00000E+00
    0.41103E+06        -0.97568E+08         0.00000E+00
    0.00000E+00         0.00000E+00        -0.48366E+08
 
   -0.48111E+08         0.42297E+06         0.00000E+00
    0.42297E+06        -0.97569E+08         0.00000E+00
    0.00000E+00         0.00000E+00        -0.48283E+08
 
   -0.48027E+08         0.43461E+06         0.00000E+00
    0.43461E+06        -0.97570E+08         0.00000E+00
    0.00000E+00         0.00000E+00        -0.48199E+08
 
   -0.47942E+08         0.44601E+06         0.00000E+00
    0.44601E+06        -0.97571E+08         0.00000E+00
    0.00000E+00         0.00000E+00        -0.48113E+08
 
   -0.47854E+08         0.45723E+06         0.00000E+00
    0.45723E+06        -0.97571E+08         0.00000E+00
    0.00000E+00         0.00000E+00        -0.48025E+08
 
   -0.47765E+08         0.46832E+06         0.00000E+00
    0.46832E+06        -0.97572E+08         0.00000E+00
    0.00000E+00         0.00000E+00        -0.47936E+08
 
   -0.47673E+08         0.47932E+06         0.00000E+00
    0.47932E+06        -0.97572E+08         0.00000E+00
    0.00000E+00         0.00000E+00        -0.47846E+08
 
   -0.47579E+08         0.49027E+06         0.00000E+00
    0.49027E+06        -0.97572E+08         0.00000E+00
    0.00000E+00         0.00000E+00        -0.47753E+08
 
   -0.47483E+08         0.50120E+06         0.00000E+00
    0.50120E+06        -0.97572E+08         0.00000E+00
    0.00000E+00         0.00000E+00        -0.47659E+08
 
   -0.47385E+08         0.51215E+06         0.00000E+00
    0.51215E+06        -0.97572E+08         0.00000E+00
    0.00000E+00         0.00000E+00        -0.47563E+08
 
   -0.47285E+08         0.52312E+06         0.00000E+00
    0.52312E+06        -0.97572E+08         0.00000E+00
    0.00000E+00         0.00000E+00        -0.47465E+08
 
   -0.47183E+08         0.53415E+06         0.00000E+00
    0.53415E+06        -0.97572E+08         0.00000E+00
    0.00000E+00         0.00000E+00        -0.47365E+08
 
   -0.47078E+08         0.54525E+06         0.00000E+00
    0.54525E+06        -0.97572E+08         0.00000E+00
    0.00000E+00         0.00000E+00        -0.47263E+08
 
   -0.46972E+08         0.55643E+06         0.00000E+00
    0.55643E+06        -0.97571E+08         0.00000E+00
    0.00000E+00         0.00000E+00        -0.47159E+08
 
   -0.46863E+08         0.56770E+06         0.00000E+00
    0.56770E+06        -0.97571E+08         0.00000E+00
    0.00000E+00         0.00000E+00        -0.47053E+08
 
   -0.46752E+08         0.57907E+06         0.00000E+00
    0.57907E+06        -0.97571E+08         0.00000E+00
    0.00000E+00         0.00000E+00        -0.46945E+08
 
   -0.46639E+08         0.59054E+06         0.00000E+00
    0.59054E+06        -0.97571E+08         0.00000E+00
    0.00000E+00         0.00000E+00        -0.46834E+08
 
   -0.46523E+08         0.60213E+06         0.00000E+00
    0.60213E+06        -0.97570E+08         0.00000E+00
    0.00000E+00         0.00000E+00        -0.46721E+08
 
   -0.46405E+08         0.61382E+06         0.00000E+00
    0.61382E+06        -0.97570E+08         0.00000E+00
    0.00000E+00         0.00000E+00        -0.46606E+08
 
   -0.46285E+08         0.62561E+06         0.00000E+00
    0.62561E+06        -0.97570E+08         0.00000E+00
    0.00000E+00         0.00000E+00        -0.46488E+08
 
   -0.46162E+08         0.63752E+06         0.00000E+00
    0.63752E+06        -0.97570E+08         0.00000E+00
    0.00000E+00         0.00000E+00        -0.46368E+08
 
   -0.46037E+08         0.64952E+06         0.00000E+00
    0.64952E+06        -0.97569E+08         0.00000E+00
    0.00000E+00         0.00000E+00        -0.46246E+08
 
   -0.45910E+08         0.66161E+06         0.00000E+00
    0.66161E+06        -0.97569E+08         0.00000E+00
    0.00000E+00         0.00000E+00        -0.46120E+08
 
   -0.45780E+08         0.67379E+06         0.00000E+00
    0.67379E+06        -0.97569E+08         0.00000E+00
    0.00000E+00         0.00000E+00        -0.45993E+08
 
   -0.45648E+08         0.68605E+06         0.00000E+00
    0.68605E+06        -0.97569E+08         0.00000E+00
    0.00000E+00         0.00000E+00        -0.45862E+08
 
   -0.45513E+08         0.69836E+06         0.00000E+00
    0.69836E+06        -0.97569E+08         0.00000E+00
    0.00000E+00         0.00000E+00        -0.45729E+08
 
   -0.45376E+08         0.71073E+06         0.00000E+00
    0.71073E+06        -0.97569E+08         0.00000E+00
    0.00000E+00         0.00000E+00        -0.45594E+08
 
   -0.45236E+08         0.72313E+06         0.00000E+00
    0.72313E+06        -0.97569E+08         0.00000E+00
    0.00000E+00         0.00000E+00        -0.45455E+08
 
   -0.45094E+08         0.73555E+06         0.00000E+00
    0.73555E+06        -0.97569E+08         0.00000E+00
    0.00000E+00         0.00000E+00        -0.45314E+08
 
   -0.44949E+08         0.74797E+06         0.00000E+00
    0.74797E+06        -0.97569E+08         0.00000E+00
    0.00000E+00         0.00000E+00        -0.45170E+08
 
   -0.44802E+08         0.76037E+06         0.00000E+00
    0.76037E+06        -0.97569E+08         0.00000E+00
    0.00000E+00         0.00000E+00        -0.45023E+08
 
   -0.44652E+08         0.77272E+06         0.00000E+00
    0.77272E+06        -0.97569E+08         0.00000E+00
    0.00000E+00         0.00000E+00        -0.44873E+08
 
   -0.44499E+08         0.78501E+06         0.00000E+00
    0.78501E+06        -0.97569E+08         0.00000E+00
    0.00000E+00         0.00000E+00        -0.44721E+08
 
   -0.44344E+08         0.79720E+06         0.00000E+00
    0.79720E+06        -0.97569E+08         0.00000E+00
    0.00000E+00         0.00000E+00        -0.44565E+08
 
   -0.44187E+08         0.80926E+06         0.00000E+00
    0.80926E+06        -0.97570E+08         0.00000E+00
    0.00000E+00         0.00000E+00        -0.44406E+08
 
   -0.44027E+08         0.82116E+06         0.00000E+00
    0.82116E+06        -0.97570E+08         0.00000E+00
    0.00000E+00         0.00000E+00        -0.44245E+08
 
   -0.43865E+08         0.83287E+06         0.00000E+00
    0.83287E+06        -0.97571E+08         0.00000E+00
    0.00000E+00         0.00000E+00        -0.44080E+08
 
   -0.43700E+08         0.84434E+06         0.00000E+00
    0.84434E+06        -0.97572E+08         0.00000E+00
    0.00000E+00         0.00000E+00        -0.43913E+08
 
   -0.43532E+08         0.85554E+06         0.00000E+00
    0.85554E+06        -0.97572E+08         0.00000E+00
    0.00000E+00         0.00000E+00        -0.43742E+08
 
   -0.43363E+08         0.86641E+06         0.00000E+00
    0.86641E+06        -0.97573E+08         0.00000E+00
    0.00000E+00         0.00000E+00        -0.43569E+08
 
   -0.43191E+08         0.87690E+06         0.00000E+00
    0.87690E+06        -0.97574E+08         0.00000E+00
    0.00000E+00         0.00000E+00        -0.43392E+08
 
   -0.43017E+08         0.88696E+06         0.00000E+00
    0.88696E+06        -0.97576E+08         0.00000E+00
    0.00000E+00         0.00000E+00        -0.43212E+08
 
   -0.42840E+08         0.89652E+06         0.00000E+00
    0.89652E+06        -0.97577E+08         0.00000E+00
    0.00000E+00         0.00000E+00        -0.43030E+08
 
   -0.42662E+08         0.90551E+06         0.00000E+00
    0.90551E+06        -0.97579E+08         0.00000E+00
    0.00000E+00         0.00000E+00        -0.42844E+08
 
   -0.42481E+08         0.91387E+06         0.00000E+00
    0.91387E+06        -0.97581E+08         0.00000E+00
    0.00000E+00         0.00000E+00        -0.42656E+08
 
   -0.42299E+08         0.92149E+06         0.00000E+00
    0.92149E+06        -0.97583E+08         0.00000E+00
    0.00000E+00         0.00000E+00        -0.42464E+08
 
   -0.42115E+08         0.92829E+06         0.00000E+00
    0.92829E+06        -0.97585E+08         0.00000E+00
    0.00000E+00         0.00000E+00        -0.42269E+08
 
   -0.41929E+08         0.93416E+06         0.00000E+00
    0.93416E+06        -0.97588E+08         0.00000E+00
    0.00000E+00         0.00000E+00        -0.42072E+08
 
   -0.41742E+08         0.93899E+06         0.00000E+00
    0.93899E+06        -0.97590E+08         0.00000E+00
    0.00000E+00         0.00000E+00        -0.41872E+08
 
   -0.41554E+08         0.94266E+06         0.00000E+00
    0.94266E+06        -0.97594E+08         0.00000E+00
    0.00000E+00         0.00000E+00        -0.41668E+08
 
   -0.41365E+08         0.94500E+06         0.00000E+00
    0.94500E+06        -0.97598E+08         0.00000E+00
    0.00000E+00         0.00000E+00        -0.41462E+08
 
   -0.41174E+08         0.94588E+06         0.00000E+00
    0.94588E+06        -0.97602E+08         0.00000E+00
    0.00000E+00         0.00000E+00        -0.41253E+08
 
   -0.40983E+08         0.94510E+06         0.00000E+00
    0.94510E+06        -0.97607E+08         0.00000E+00
    0.00000E+00         0.00000E+00        -0.41042E+08
 
   -0.40792E+08         0.94248E+06         0.00000E+00
    0.94248E+06        -0.97612E+08         0.00000E+00
    0.00000E+00         0.00000E+00        -0.40828E+08
 
   -0.40600E+08         0.93780E+06         0.00000E+00
    0.93780E+06        -0.97618E+08         0.00000E+00
    0.00000E+00         0.00000E+00        -0.40611E+08
 
   -0.40409E+08         0.93081E+06         0.00000E+00
    0.93081E+06        -0.97625E+08         0.00000E+00
    0.00000E+00         0.00000E+00        -0.40392E+08
 
   -0.40218E+08         0.92126E+06         0.00000E+00
    0.92126E+06        -0.97633E+08         0.00000E+00
    0.00000E+00         0.00000E+00        -0.40170E+08
 
   -0.40028E+08         0.90886E+06         0.00000E+00
    0.90886E+06        -0.97641E+08         0.00000E+00
    0.00000E+00         0.00000E+00        -0.39946E+08
 
   -0.39840E+08         0.89330E+06         0.00000E+00
    0.89330E+06        -0.97651E+08         0.00000E+00
    0.00000E+00         0.00000E+00        -0.39719E+08
 
   -0.39652E+08         0.87425E+06         0.00000E+00
    0.87425E+06        -0.97662E+08         0.00000E+00
    0.00000E+00         0.00000E+00        -0.39490E+08
 
   -0.39467E+08         0.85136E+06         0.00000E+00
    0.85136E+06        -0.97674E+08         0.00000E+00
    0.00000E+00         0.00000E+00        -0.39259E+08
 
   -0.39284E+08         0.82427E+06         0.00000E+00
    0.82427E+06        -0.97687E+08         0.00000E+00
    0.00000E+00         0.00000E+00        -0.39027E+08
 
   -0.39104E+08         0.79263E+06         0.00000E+00
    0.79263E+06        -0.97702E+08         0.00000E+00
    0.00000E+00         0.00000E+00        -0.38792E+08
 
   -0.38927E+08         0.75610E+06         0.00000E+00
    0.75610E+06        -0.97718E+08         0.00000E+00
    0.00000E+00         0.00000E+00        -0.38555E+08
 
   -0.38753E+08         0.71437E+06         0.00000E+00
    0.71437E+06        -0.97735E+08         0.00000E+00
    0.00000E+00         0.00000E+00        -0.38317E+08
 
   -0.38584E+08         0.66722E+06         0.00000E+00
    0.66722E+06        -0.97753E+08         0.00000E+00
    0.00000E+00         0.00000E+00        -0.38077E+08
 
   -0.38418E+08         0.61453E+06         0.00000E+00
    0.61453E+06        -0.97771E+08         0.00000E+00
    0.00000E+00         0.00000E+00        -0.37836E+08
 
   -0.38258E+08         0.55638E+06         0.00000E+00
    0.55638E+06        -0.97789E+08         0.00000E+00
    0.00000E+00         0.00000E+00        -0.37593E+08
 
   -0.38103E+08         0.49310E+06         0.00000E+00
    0.49310E+06        -0.97805E+08         0.00000E+00
    0.00000E+00         0.00000E+00        -0.37349E+08
 
   -0.37953E+08         0.42540E+06         0.00000E+00
    0.42540E+06        -0.97819E+08         0.00000E+00
    0.00000E+00         0.00000E+00        -0.37104E+08
 
   -0.37810E+08         0.35451E+06         0.00000E+00
    0.35451E+06        -0.97828E+08         0.00000E+00
    0.00000E+00         0.00000E+00        -0.36858E+08
 
   -0.37674E+08         0.28236E+06         0.00000E+00
    0.28236E+06        -0.97829E+08         0.00000E+00
    0.00000E+00         0.00000E+00        -0.36612E+08
 
   -0.37546E+08         0.21174E+06         0.00000E+00
    0.21174E+06        -0.97819E+08         0.00000E+00
    0.00000E+00         0.00000E+00        -0.36364E+08
 
   -0.37429E+08         0.14635E+06         0.00000E+00
    0.14635E+06        -0.97790E+08         0.00000E+00
    0.00000E+00         0.00000E+00        -0.36117E+08
 
   -0.37325E+08         0.90513E+05         0.00000E+00
    0.90513E+05        -0.97737E+08         0.00000E+00
    0.00000E+00         0.00000E+00        -0.35869E+08
 
   -0.37240E+08         0.48096E+05         0.00000E+00
    0.48096E+05        -0.97650E+08         0.00000E+00
    0.00000E+00         0.00000E+00        -0.35620E+08
 
   -0.37178E+08         0.20616E+05         0.00000E+00
    0.20616E+05        -0.97517E+08         0.00000E+00
    0.00000E+00         0.00000E+00        -0.35372E+08
 
   -0.37145E+08         0.52847E+04         0.00000E+00
    0.52847E+04        -0.97330E+08         0.00000E+00
    0.00000E+00         0.00000E+00        -0.35124E+08
 
   -0.49327E+08         0.31724E+04         0.00000E+00
    0.31724E+04        -0.97661E+08         0.00000E+00
    0.00000E+00         0.00000E+00        -0.49966E+08
 
   -0.49317E+08         0.10898E+05         0.00000E+00
    0.10898E+05        -0.97610E+08         0.00000E+00
    0.00000E+00         0.00000E+00        -0.49897E+08
 
   -0.49299E+08         0.22234E+05         0.00000E+00
    0.22234E+05        -0.97574E+08         0.00000E+00
    0.00000E+00         0.00000E+00        -0.49828E+08
 
   -0.49274E+08         0.38039E+05         0.00000E+00
    0.38039E+05        -0.97551E+08         0.00000E+00
    0.00000E+00         0.00000E+00        -0.49760E+08
 
   -0.49243E+08         0.57872E+05         0.00000E+00
    0.57872E+05        -0.97537E+08         0.00000E+00
    0.00000E+00         0.00000E+00        -0.49691E+08
 
   -0.49208E+08         0.80600E+05         0.00000E+00
    0.80600E+05        -0.97529E+08         0.00000E+00
    0.00000E+00         0.00000E+00        -0.49623E+08
 
   -0.49170E+08         0.10498E+06         0.00000E+00
    0.10498E+06        -0.97526E+08         0.00000E+00
    0.00000E+00         0.00000E+00        -0.49554E+08
 
   -0.49128E+08         0.12997E+06         0.00000E+00
    0.12997E+06        -0.97527E+08         0.00000E+00
    0.00000E+00         0.00000E+00        -0.49484E+08
 
   -0.49083E+08         0.15479E+06         0.00000E+00
    0.15479E+06        -0.97529E+08         0.00000E+00
    0.00000E+00         0.00000E+00        -0.49415E+08
 
   -0.49036E+08         0.17891E+06         0.00000E+00
    0.17891E+06        -0.97532E+08         0.00000E+00
    0.00000E+00         0.00000E+00        -0.49345E+08
 
   -0.48985E+08         0.20202E+06         0.00000E+00
    0.20202E+06        -0.97536E+08         0.00000E+00
    0.00000E+00         0.00000E+00        -0.49274E+08
 
   -0.48932E+08         0.22393E+06         0.00000E+00
    0.22393E+06        -0.97540E+08         0.00000E+00
    0.00000E+00         0.00000E+00        -0.49203E+08
 
   -0.48877E+08         0.24458E+06         0.00000E+00
    0.24458E+06        -0.97545E+08         0.00000E+00
    0.00000E+00         0.00000E+00        -0.49132E+08
 
   -0.48818E+08         0.26397E+06         0.00000E+00
    0.26397E+06        -0.97549E+08         0.00000E+00
    0.00000E+00         0.00000E+00        -0.49059E+08
 
   -0.48758E+08         0.28213E+06         0.00000E+00
    0.28213E+06        -0.97552E+08         0.00000E+00
    0.00000E+00         0.00000E+00        -0.48986E+08
 
   -0.48694E+08         0.29916E+06         0.00000E+00
    0.29916E+06        -0.97556E+08         0.00000E+00
    0.00000E+00         0.00000E+00        -0.48912E+08
 
   -0.48629E+08         0.31515E+06         0.00000E+00
    0.31515E+06        -0.97559E+08         0.00000E+00
    0.00000E+00         0.00000E+00        -0.48838E+08
 
   -0.48561E+08         0.33019E+06         0.00000E+00
    0.33019E+06        -0.97562E+08         0.00000E+00
    0.00000E+00         0.00000E+00        -0.48762E+08
 
   -0.48490E+08         0.34441E+06         0.00000E+00
    0.34441E+06        -0.97564E+08         0.00000E+00
    0.00000E+00         0.00000E+00        -0.48685E+08
 
   -0.48418E+08         0.35789E+06         0.00000E+00
    0.35789E+06        -0.97566E+08         0.00000E+00
    0.00000E+00         0.00000E+00        -0.48607E+08
 
   -0.48343E+08         0.37076E+06         0.00000E+00
    0.37076E+06        -0.97568E+08         0.00000E+00
    0.00000E+00         0.00000E+00        -0.48528E+08
 
   -0.48266E+08         0.38309E+06         0.00000E+00
    0.38309E+06        -0.97569E+08         0.00000E+00
    0.00000E+00         0.00000E+00        -0.48448E+08
 
   -0.48187E+08         0.39497E+06         0.00000E+00
    0.39497E+06        -0.97571E+08         0.00000E+00
    0.00000E+00         0.00000E+00        -0.48366E+08
 
   -0.48105E+08         0.40649E+06         0.00000E+00
    0.40649E+06        -0.97572E+08         0.00000E+00
    0.00000E+00         0.00000E+00        -0.48283E+08
 
   -0.48022E+08         0.41771E+06         0.00000E+00
    0.41771E+06        -0.97572E+08         0.00000E+00
    0.00000E+00         0.00000E+00        -0.48199E+08
 
   -0.47936E+08         0.42869E+06         0.00000E+00
    0.42869E+06        -0.97573E+08         0.00000E+00
    0.00000E+00         0.00000E+00        -0.48113E+08
 
   -0.47849E+08         0.43950E+06         0.00000E+00
    0.43950E+06        -0.97573E+08         0.00000E+00
    0.00000E+00         0.00000E+00        -0.48025E+08
 
   -0.47759E+08         0.45017E+06         0.00000E+00
    0.45017E+06        -0.97574E+08         0.00000E+00
    0.00000E+00         0.00000E+00        -0.47936E+08
 
   -0.47667E+08         0.46076E+06         0.00000E+00
    0.46076E+06        -0.97574E+08         0.00000E+00
    0.00000E+00         0.00000E+00        -0.47846E+08
 
   -0.47573E+08         0.47129E+06         0.00000E+00
    0.47129E+06        -0.97574E+08         0.00000E+00
    0.00000E+00         0.00000E+00        -0.47753E+08
 
   -0.47477E+08         0.48180E+06         0.00000E+00
    0.48180E+06        -0.97574E+08         0.00000E+00
    0.00000E+00         0.00000E+00        -0.47659E+08
 
   -0.47379E+08         0.49232E+06         0.00000E+00
    0.49232E+06        -0.97574E+08         0.00000E+00
    0.00000E+00         0.00000E+00        -0.47563E+08
 
   -0.47279E+08         0.50287E+06         0.00000E+00
    0.50287E+06        -0.97574E+08         0.00000E+00
    0.00000E+00         0.00000E+00        -0.47465E+08
 
   -0.47176E+08         0.51347E+06         0.00000E+00
    0.51347E+06        -0.97574E+08         0.00000E+00
    0.00000E+00         0.00000E+00        -0.47365E+08
 
   -0.47072E+08         0.52414E+06         0.00000E+00
    0.52414E+06        -0.97574E+08         0.00000E+00
    0.00000E+00         0.00000E+00        -0.47263E+08
 
   -0.46965E+08         0.53488E+06         0.00000E+00
    0.53488E+06        -0.97574E+08         0.00000E+00
    0.00000E+00         0.00000E+00        -0.47159E+08
 
   -0.46856E+08         0.54571E+06         0.00000E+00
    0.54571E+06        -0.97573E+08         0.00000E+00
    0.00000E+00         0.00000E+00        -0.47053E+08
 
   -0.46745E+08         0.55663E+06         0.00000E+00
    0.55663E+06        -0.97573E+08         0.00000E+00
    0.00000E+00         0.00000E+00        -0.46945E+08
 
   -0.46632E+08         0.56765E+06         0.00000E+00
    0.56765E+06        -0.97573E+08         0.00000E+00
    0.00000E+00         0.00000E+00        -0.46834E+08
 
   -0.46516E+08         0.57877E+06         0.00000E+00
    0.57877E+06        -0.97573E+08         0.00000E+00
    0.00000E+00         0.00000E+00        -0.46721E+08
 
   -0.46398E+08         0.59000E+06         0.00000E+00
    0.59000E+06        -0.97572E+08         0.00000E+00
    0.00000E+00         0.00000E+00        -0.46606E+08
 
   -0.46278E+08         0.60133E+06         0.00000E+00
    0.60133E+06        -0.97572E+08         0.00000E+00
    0.00000E+00         0.00000E+00        -0.46488E+08
 
   -0.46155E+08         0.61276E+06         0.00000E+00
    0.61276E+06        -0.97572E+08         0.00000E+00
    0.00000E+00         0.00000E+00        -0.46368E+08
 
   -0.46030E+08         0.62428E+06         0.00000E+00
    0.62428E+06        -0.97572E+08         0.00000E+00
    0.00000E+00         0.00000E+00        -0.46246E+08
 
   -0.45903E+08         0.63589E+06         0.00000E+00
    0.63589E+06        -0.97572E+08         0.00000E+00
    0.00000E+00         0.00000E+00        -0.46121E+08
 
   -0.45773E+08         0.64758E+06         0.00000E+00
    0.64758E+06        -0.97571E+08         0.00000E+00
    0.00000E+00         0.00000E+00        -0.45993E+08
 
   -0.45640E+08         0.65934E+06         0.00000E+00
    0.65934E+06        -0.97571E+08         0.00000E+00
    0.00000E+00         0.00000E+00        -0.45862E+08
 
   -0.45506E+08         0.67116E+06         0.00000E+00
    0.67116E+06        -0.97571E+08         0.00000E+00
    0.00000E+00         0.00000E+00        -0.45730E+08
 
   -0.45368E+08         0.68302E+06         0.00000E+00
    0.68302E+06        -0.97571E+08         0.00000E+00
    0.00000E+00         0.00000E+00        -0.45594E+08
 
   -0.45229E+08         0.69492E+06         0.00000E+00
    0.69492E+06        -0.97571E+08         0.00000E+00
    0.00000E+00         0.00000E+00        -0.45455E+08
 
   -0.45086E+08         0.70684E+06         0.00000E+00
    0.70684E+06        -0.97571E+08         0.00000E+00
    0.00000E+00         0.00000E+00        -0.45314E+08
 
   -0.44941E+08         0.71875E+06         0.00000E+00
    0.71875E+06        -0.97571E+08         0.00000E+00
    0.00000E+00         0.00000E+00        -0.45170E+08
 
   -0.44794E+08         0.73064E+06         0.00000E+00
    0.73064E+06        -0.97571E+08         0.00000E+00
    0.00000E+00         0.00000E+00        -0.45023E+08
 
   -0.44644E+08         0.74249E+06         0.00000E+00
    0.74249E+06        -0.97571E+08         0.00000E+00
    0.00000E+00         0.00000E+00        -0.44873E+08
 
   -0.44492E+08         0.75427E+06         0.00000E+00
    0.75427E+06        -0.97572E+08         0.00000E+00
    0.00000E+00         0.00000E+00        -0.44721E+08
 
   -0.44337E+08         0.76595E+06         0.00000E+00
    0.76595E+06        -0.97572E+08         0.00000E+00
    0.00000E+00         0.00000E+00        -0.44565E+08
 
   -0.44179E+08         0.77752E+06         0.00000E+00
    0.77752E+06        -0.97572E+08         0.00000E+00
    0.00000E+00         0.00000E+00        -0.44406E+08
 
   -0.44019E+08         0.78892E+06         0.00000E+00
    0.78892E+06        -0.97573E+08         0.00000E+00
    0.00000E+00         0.00000E+00        -0.44245E+08
 
   -0.43857E+08         0.80014E+06         0.00000E+00
    0.80014E+06        -0.97573E+08         0.00000E+00
    0.00000E+00         0.00000E+00        -0.44080E+08
 
   -0.43692E+08         0.81113E+06         0.00000E+00
    0.81113E+06        -0.97574E+08         0.00000E+00
    0.00000E+00         0.00000E+00        -0.43913E+08
 
   -0.43525E+08         0.82185E+06         0.00000E+00
    0.82185E+06        -0.97575E+08         0.00000E+00
    0.00000E+00         0.00000E+00        -0.43742E+08
 
   -0.43355E+08         0.83226E+06         0.00000E+00
    0.83226E+06        -0.97575E+08         0.00000E+00
    0.00000E+00         0.00000E+00        -0.43569E+08
 
   -0.43183E+08         0.84230E+06         0.00000E+00
    0.84230E+06        -0.97576E+08         0.00000E+00
    0.00000E+00         0.00000E+00        -0.43392E+08
 
   -0.43009E+08         0.85192E+06         0.00000E+00
    0.85192E+06        -0.97578E+08         0.00000E+00
    0.00000E+00         0.00000E+00        -0.43212E+08
 
   -0.42833E+08         0.86106E+06         0.00000E+00
    0.86106E+06        -0.97579E+08         0.00000E+00
    0.00000E+00         0.00000E+00        -0.43030E+08
 
   -0.42655E+08         0.86965E+06         0.00000E+00
    0.86965E+06        -0.97580E+08         0.00000E+00
    0.00000E+00         0.00000E+00        -0.42844E+08
 
   -0.42475E+08         0.87762E+06         0.00000E+00
    0.87762E+06        -0.97582E+08         0.00000E+00
    0.00000E+00         0.00000E+00        -0.42656E+08
 
   -0.42293E+08         0.88488E+06         0.00000E+00
    0.88488E+06        -0.97584E+08         0.00000E+00
    0.00000E+00         0.00000E+00        -0.42464E+08
 
   -0.42109E+08         0.89135E+06         0.00000E+00
    0.89135E+06        -0.97586E+08         0.00000E+00
    0.00000E+00         0.00000E+00        -0.42269E+08
 
   -0.41924E+08         0.89692E+06         0.00000E+00
    0.89692E+06        -0.97589E+08         0.00000E+00
    0.00000E+00         0.00000E+00        -0.42072E+08
 
   -0.41737E+08         0.90149E+06         0.00000E+00
    0.90149E+06        -0.97591E+08         0.00000E+00
    0.00000E+00         0.00000E+00        -0.41872E+08
 
   -0.41549E+08         0.90491E+06         0.00000E+00
    0.90491E+06        -0.97594E+08         0.00000E+00
    0.00000E+00         0.00000E+00        -0.41668E+08
 
   -0.41360E+08         0.90707E+06         0.00000E+00
    0.90707E+06        -0.97598E+08         0.00000E+00
    0.00000E+00         0.00000E+00        -0.41462E+08
 
   -0.41170E+08         0.90780E+06         0.00000E+00
    0.90780E+06        -0.97602E+08         0.00000E+00
    0.00000E+00         0.00000E+00        -0.41253E+08
 
   -0.40980E+08         0.90693E+06         0.00000E+00
    0.90693E+06        -0.97606E+08         0.00000E+00
    0.00000E+00         0.00000E+00        -0.41042E+08
 
   -0.40790E+08         0.90426E+06         0.00000E+00
    0.90426E+06        -0.97611E+08         0.00000E+00
    0.00000E+00         0.00000E+00        -0.40828E+08
 
   -0.40599E+08         0.89959E+06         0.00000E+00
    0.89959E+06        -0.97617E+08         0.00000E+00
    0.00000E+00         0.00000E+00        -0.40611E+08
 
   -0.40408E+08         0.89268E+06         0.00000E+00
    0.89268E+06        -0.97623E+08         0.00000E+00
    0.00000E+00         0.00000E+00        -0.40392E+08
 
   -0.40219E+08         0.88328E+06         0.00000E+00
    0.88328E+06        -0.97630E+08         0.00000E+00
    0.00000E+00         0.00000E+00        -0.40170E+08
 
   -0.40030E+08         0.87109E+06         0.00000E+00
    0.87109E+06        -0.97638E+08         0.00000E+00
    0.00000E+00         0.00000E+00        -0.39946E+08
 
   -0.39842E+08         0.85582E+06         0.00000E+00
    0.85582E+06        -0.97648E+08         0.00000E+00
    0.00000E+00         0.00000E+00        -0.39719E+08
 
   -0.39656E+08         0.83714E+06         0.00000E+00
    0.83714E+06        -0.97658E+08         0.00000E+00
    0.00000E+00         0.00000E+00        -0.39490E+08
 
   -0.39473E+08         0.81469E+06         0.00000E+00
    0.81469E+06        -0.97669E+08         0.00000E+00
    0.00000E+00         0.00000E+00        -0.39259E+08
 
   -0.39292E+08         0.78814E+06         0.00000E+00
    0.78814E+06        -0.97681E+08         0.00000E+00
    0.00000E+00         0.00000E+00        -0.39027E+08
 
   -0.39113E+08         0.75711E+06         0.00000E+00
    0.75711E+06        -0.97695E+08         0.00000E+00
    0.00000E+00         0.00000E+00        -0.38792E+08
 
   -0.38939E+08         0.72128E+06         0.00000E+00
    0.72128E+06        -0.97710E+08         0.00000E+00
    0.00000E+00         0.00000E+00        -0.38555E+08
 
   -0.38768E+08         0.68033E+06         0.00000E+00
    0.68033E+06        -0.97726E+08         0.00000E+00
    0.00000E+00         0.00000E+00        -0.38317E+08
 
   -0.38601E+08         0.63404E+06         0.00000E+00
    0.63404E+06        -0.97743E+08         0.00000E+00
    0.00000E+00         0.00000E+00        -0.38077E+08
 
   -0.38439E+08         0.58230E+06         0.00000E+00
    0.58230E+06        -0.97760E+08         0.00000E+00
    0.00000E+00         0.00000E+00        -0.37836E+08
 
   -0.38283E+08         0.52517E+06         0.00000E+00
    0.52517E+06        -0.97777E+08         0.00000E+00
    0.00000E+00         0.00000E+00        -0.37593E+08
 
   -0.38132E+08         0.46301E+06         0.00000E+00
    0.46301E+06        -0.97792E+08         0.00000E+00
    0.00000E+00         0.00000E+00        -0.37349E+08
 
   -0.37986E+08         0.39653E+06         0.00000E+00
    0.39653E+06        -0.97806E+08         0.00000E+00
    0.00000E+00         0.00000E+00        -0.37104E+08
 
   -0.37848E+08         0.32700E+06         0.00000E+00
    0.32700E+06        -0.97814E+08         0.00000E+00
    0.00000E+00         0.00000E+00        -0.36858E+08
 
   -0.37717E+08         0.25639E+06         0.00000E+00
    0.25639E+06        -0.97815E+08         0.00000E+00
    0.00000E+00         0.00000E+00        -0.36612E+08
 
   -0.37594E+08         0.18759E+06         0.00000E+00
    0.18759E+06        -0.97805E+08         0.00000E+00
    0.00000E+00         0.00000E+00        -0.36364E+08
 
   -0.37481E+08         0.12449E+06         0.00000E+00
    0.12449E+06        -0.97778E+08         0.00000E+00
    0.00000E+00         0.00000E+00        -0.36117E+08
 
   -0.37381E+08         0.71655E+05         0.00000E+00
    0.71655E+05        -0.97728E+08         0.00000E+00
    0.00000E+00         0.00000E+00        -0.35869E+08
 
   -0.37299E+08         0.33258E+05         0.00000E+00
    0.33258E+05        -0.97643E+08         0.00000E+00
    0.00000E+00         0.00000E+00        -0.35620E+08
 
   -0.37238E+08         0.11006E+05         0.00000E+00
    0.11006E+05        -0.97514E+08         0.00000E+00
    0.00000E+00         0.00000E+00        -0.35372E+08
 
   -0.37206E+08         0.19416E+04         0.00000E+00
    0.19416E+04        -0.97328E+08         0.00000E+00
    0.00000E+00         0.00000E+00        -0.35124E+08
 
   -0.49308E+08         0.21898E+04         0.00000E+00
    0.21898E+04        -0.97662E+08         0.00000E+00
    0.00000E+00         0.00000E+00        -0.49966E+08
 
   -0.49298E+08         0.80763E+04         0.00000E+00
    0.80763E+04        -0.97611E+08         0.00000E+00
    0.00000E+00         0.00000E+00        -0.49897E+08
 
   -0.49281E+08         0.17878E+05         0.00000E+00
    0.17878E+05        -0.97576E+08         0.00000E+00
    0.00000E+00         0.00000E+00        -0.49828E+08
 
   -0.49256E+08         0.32485E+05         0.00000E+00
    0.32485E+05        -0.97554E+08         0.00000E+00
    0.00000E+00         0.00000E+00        -0.49760E+08
 
   -0.49227E+08         0.51383E+05         0.00000E+00
    0.51383E+05        -0.97541E+08         0.00000E+00
    0.00000E+00         0.00000E+00        -0.49691E+08
 
   -0.49193E+08         0.73345E+05         0.00000E+00
    0.73345E+05        -0.97534E+08         0.00000E+00
    0.00000E+00         0.00000E+00        -0.49622E+08
 
   -0.49156E+08         0.97056E+05         0.00000E+00
    0.97056E+05        -0.97531E+08         0.00000E+00
    0.00000E+00         0.00000E+00        -0.49554E+08
 
   -0.49115E+08         0.12142E+06         0.00000E+00
    0.12142E+06        -0.97532E+08         0.00000E+00
    0.00000E+00         0.00000E+00        -0.49484E+08
 
   -0.49071E+08         0.14565E+06         0.00000E+00
    0.14565E+06        -0.97534E+08         0.00000E+00
    0.00000E+00         0.00000E+00        -0.49415E+08
 
   -0.49025E+08         0.16921E+06         0.00000E+00
    0.16921E+06        -0.97537E+08         0.00000E+00
    0.00000E+00         0.00000E+00        -0.49345E+08
 
   -0.48976E+08         0.19177E+06         0.00000E+00
    0.19177E+06        -0.97541E+08         0.00000E+00
    0.00000E+00         0.00000E+00        -0.49274E+08
 
   -0.48923E+08         0.21314E+06         0.00000E+00
    0.21314E+06        -0.97545E+08         0.00000E+00
    0.00000E+00         0.00000E+00        -0.49203E+08
 
   -0.48868E+08         0.23326E+06         0.00000E+00
    0.23326E+06        -0.97549E+08         0.00000E+00
    0.00000E+00         0.00000E+00        -0.49132E+08
 
   -0.48811E+08         0.25212E+06         0.00000E+00
    0.25212E+06        -0.97552E+08         0.00000E+00
    0.00000E+00         0.00000E+00        -0.49059E+08
 
   -0.48750E+08         0.26978E+06         0.00000E+00
    0.26978E+06        -0.97556E+08         0.00000E+00
    0.00000E+00         0.00000E+00        -0.48986E+08
 
   -0.48688E+08         0.28631E+06         0.00000E+00
    0.28631E+06        -0.97559E+08         0.00000E+00
    0.00000E+00         0.00000E+00        -0.48912E+08
 
   -0.48622E+08         0.30181E+06         0.00000E+00
    0.30181E+06        -0.97562E+08         0.00000E+00
    0.00000E+00         0.00000E+00        -0.48838E+08
 
   -0.48555E+08         0.31638E+06         0.00000E+00
    0.31638E+06        -0.97565E+08         0.00000E+00
    0.00000E+00         0.00000E+00        -0.48762E+08
 
   -0.48484E+08         0.33013E+06         0.00000E+00
    0.33013E+06        -0.97567E+08         0.00000E+00
    0.00000E+00         0.00000E+00        -0.48685E+08
 
   -0.48412E+08         0.34316E+06         0.00000E+00
    0.34316E+06        -0.97569E+08         0.00000E+00
    0.00000E+00         0.00000E+00        -0.48607E+08
 
   -0.48337E+08         0.35557E+06         0.00000E+00
    0.35557E+06        -0.97570E+08         0.00000E+00
    0.00000E+00         0.00000E+00        -0.48528E+08
 
   -0.48260E+08         0.36747E+06         0.00000E+00
    0.36747E+06        -0.97572E+08         0.00000E+00
    0.00000E+00         0.00000E+00        -0.48448E+08
 
   -0.48181E+08         0.37892E+06         0.00000E+00
    0.37892E+06        -0.97573E+08         0.00000E+00
    0.00000E+00         0.00000E+00        -0.48366E+08
 
   -0.48100E+08         0.39001E+06         0.00000E+00
    0.39001E+06        -0.97574E+08         0.00000E+00
    0.00000E+00         0.00000E+00        -0.48283E+08
 
   -0.48016E+08         0.40080E+06         0.00000E+00
    0.40080E+06        -0.97574E+08         0.00000E+00
    0.00000E+00         0.00000E+00        -0.48199E+08
 
   -0.47931E+08         0.41137E+06         0.00000E+00
    0.41137E+06        -0.97575E+08         0.00000E+00
    0.00000E+00         0.00000E+00        -0.48113E+08
 
   -0.47843E+08         0.42175E+06         0.00000E+00
    0.42175E+06        -0.97575E+08         0.00000E+00
    0.00000E+00         0.00000E+00        -0.48025E+08
 
   -0.47753E+08         0.43201E+06         0.00000E+00
    0.43201E+06        -0.97576E+08         0.00000E+00
    0.00000E+00         0.00000E+00        -0.47936E+08
 
   -0.47661E+08         0.44218E+06         0.00000E+00
    0.44218E+06        -0.97576E+08         0.00000E+00
    0.00000E+00         0.00000E+00        -0.47846E+08
 
   -0.47567E+08         0.45229E+06         0.00000E+00
    0.45229E+06        -0.97576E+08         0.00000E+00
    0.00000E+00         0.00000E+00        -0.47753E+08
 
   -0.47471E+08         0.46239E+06         0.00000E+00
    0.46239E+06        -0.97576E+08         0.00000E+00
    0.00000E+00         0.00000E+00        -0.47659E+08
 
   -0.47373E+08         0.47248E+06         0.00000E+00
    0.47248E+06        -0.97576E+08         0.00000E+00
    0.00000E+00         0.00000E+00        -0.47563E+08
 
   -0.47273E+08         0.48261E+06         0.00000E+00
    0.48261E+06        -0.97576E+08         0.00000E+00
    0.00000E+00         0.00000E+00        -0.47465E+08
 
   -0.47170E+08         0.49278E+06         0.00000E+00
    0.49278E+06        -0.97576E+08         0.00000E+00
    0.00000E+00         0.00000E+00        -0.47365E+08
 
   -0.47066E+08         0.50301E+06         0.00000E+00
    0.50301E+06        -0.97576E+08         0.00000E+00
    0.00000E+00         0.00000E+00        -0.47263E+08
 
   -0.46959E+08         0.51331E+06         0.00000E+00
    0.51331E+06        -0.97576E+08         0.00000E+00
    0.00000E+00         0.00000E+00        -0.47159E+08
 
   -0.46850E+08         0.52369E+06         0.00000E+00
    0.52369E+06        -0.97575E+08         0.00000E+00
    0.00000E+00         0.00000E+00        -0.47053E+08
 
   -0.46739E+08         0.53417E+06         0.00000E+00
    0.53417E+06        -0.97575E+08         0.00000E+00
    0.00000E+00         0.00000E+00        -0.46945E+08
 
   -0.46625E+08         0.54474E+06         0.00000E+00
    0.54474E+06        -0.97575E+08         0.00000E+00
    0.00000E+00         0.00000E+00        -0.46834E+08
 
   -0.46509E+08         0.55540E+06         0.00000E+00
    0.55540E+06        -0.97575E+08         0.00000E+00
    0.00000E+00         0.00000E+00        -0.46721E+08
 
   -0.46391E+08         0.56616E+06         0.00000E+00
    0.56616E+06        -0.97575E+08         0.00000E+00
    0.00000E+00         0.00000E+00        -0.46606E+08
 
   -0.46271E+08         0.57702E+06         0.00000E+00
    0.57702E+06        -0.97574E+08         0.00000E+00
    0.00000E+00         0.00000E+00        -0.46488E+08
 
   -0.46148E+08         0.58798E+06         0.00000E+00
    0.58798E+06        -0.97574E+08         0.00000E+00
    0.00000E+00         0.00000E+00        -0.46368E+08
 
   -0.46023E+08         0.59902E+06         0.00000E+00
    0.59902E+06        -0.97574E+08         0.00000E+00
    0.00000E+00         0.00000E+00        -0.46246E+08
 
   -0.45895E+08         0.61014E+06         0.00000E+00
    0.61014E+06        -0.97574E+08         0.00000E+00
    0.00000E+00         0.00000E+00        -0.46121E+08
 
   -0.45765E+08         0.62134E+06         0.00000E+00
    0.62134E+06        -0.97574E+08         0.00000E+00
    0.00000E+00         0.00000E+00        -0.45993E+08
 
   -0.45633E+08         0.63261E+06         0.00000E+00
    0.63261E+06        -0.97574E+08         0.00000E+00
    0.00000E+00         0.00000E+00        -0.45863E+08
 
   -0.45498E+08         0.64394E+06         0.00000E+00
    0.64394E+06        -0.97573E+08         0.00000E+00
    0.00000E+00         0.00000E+00        -0.45730E+08
 
   -0.45361E+08         0.65530E+06         0.00000E+00
    0.65530E+06        -0.97573E+08         0.00000E+00
    0.00000E+00         0.00000E+00        -0.45594E+08
 
   -0.45221E+08         0.66670E+06         0.00000E+00
    0.66670E+06        -0.97573E+08         0.00000E+00
    0.00000E+00         0.00000E+00        -0.45455E+08
 
   -0.45078E+08         0.67811E+06         0.00000E+00
    0.67811E+06        -0.97573E+08         0.00000E+00
    0.00000E+00         0.00000E+00        -0.45314E+08
 
   -0.44934E+08         0.68952E+06         0.00000E+00
    0.68952E+06        -0.97573E+08         0.00000E+00
    0.00000E+00         0.00000E+00        -0.45170E+08
 
   -0.44786E+08         0.70091E+06         0.00000E+00
    0.70091E+06        -0.97574E+08         0.00000E+00
    0.00000E+00         0.00000E+00        -0.45023E+08
 
   -0.44636E+08         0.71225E+06         0.00000E+00
    0.71225E+06        -0.97574E+08         0.00000E+00
    0.00000E+00         0.00000E+00        -0.44873E+08
 
   -0.44484E+08         0.72353E+06         0.00000E+00
    0.72353E+06        -0.97574E+08         0.00000E+00
    0.00000E+00         0.00000E+00        -0.44721E+08
 
   -0.44329E+08         0.73471E+06         0.00000E+00
    0.73471E+06        -0.97574E+08         0.00000E+00
    0.00000E+00         0.00000E+00        -0.44565E+08
 
   -0.44171E+08         0.74578E+06         0.00000E+00
    0.74578E+06        -0.97574E+08         0.00000E+00
    0.00000E+00         0.00000E+00        -0.44406E+08
 
   -0.44011E+08         0.75669E+06         0.00000E+00
    0.75669E+06        -0.97575E+08         0.00000E+00
    0.00000E+00         0.00000E+00        -0.44245E+08
 
   -0.43849E+08         0.76743E+06         0.00000E+00
    0.76743E+06        -0.97575E+08         0.00000E+00
    0.00000E+00         0.00000E+00        -0.44080E+08
 
   -0.43684E+08         0.77794E+06         0.00000E+00
    0.77794E+06        -0.97576E+08         0.00000E+00
    0.00000E+00         0.00000E+00        -0.43913E+08
 
   -0.43517E+08         0.78819E+06         0.00000E+00
    0.78819E+06        -0.97577E+08         0.00000E+00
    0.00000E+00         0.00000E+00        -0.43742E+08
 
   -0.43348E+08         0.79813E+06         0.00000E+00
    0.79813E+06        -0.97577E+08         0.00000E+00
    0.00000E+00         0.00000E+00        -0.43569E+08
 
   -0.43176E+08         0.80773E+06         0.00000E+00
    0.80773E+06        -0.97578E+08         0.00000E+00
    0.00000E+00         0.00000E+00        -0.43392E+08
 
   -0.43002E+08         0.81691E+06         0.00000E+00
    0.81691E+06        -0.97579E+08         0.00000E+00
    0.00000E+00         0.00000E+00        -0.43212E+08
 
   -0.42826E+08         0.82563E+06         0.00000E+00
    0.82563E+06        -0.97581E+08         0.00000E+00
    0.00000E+00         0.00000E+00        -0.43030E+08
 
   -0.42648E+08         0.83383E+06         0.00000E+00
    0.83383E+06        -0.97582E+08         0.00000E+00
    0.00000E+00         0.00000E+00        -0.42844E+08
 
   -0.42468E+08         0.84142E+06         0.00000E+00
    0.84142E+06        -0.97584E+08         0.00000E+00
    0.00000E+00         0.00000E+00        -0.42656E+08
 
   -0.42287E+08         0.84833E+06         0.00000E+00
    0.84833E+06        -0.97585E+08         0.00000E+00
    0.00000E+00         0.00000E+00        -0.42464E+08
 
   -0.42103E+08         0.85448E+06         0.00000E+00
    0.85448E+06        -0.97587E+08         0.00000E+00
    0.00000E+00         0.00000E+00        -0.42269E+08
 
   -0.41918E+08         0.85976E+06         0.00000E+00
    0.85976E+06        -0.97590E+08         0.00000E+00
    0.00000E+00         0.00000E+00        -0.42072E+08
 
   -0.41732E+08         0.86406E+06         0.00000E+00
    0.86406E+06        -0.97592E+08         0.00000E+00
    0.00000E+00         0.00000E+00        -0.41872E+08
 
   -0.41544E+08         0.86727E+06         0.00000E+00
    0.86727E+06        -0.97595E+08         0.00000E+00
    0.00000E+00         0.00000E+00        -0.41668E+08
 
   -0.41356E+08         0.86924E+06         0.00000E+00
    0.86924E+06        -0.97598E+08         0.00000E+00
    0.00000E+00         0.00000E+00        -0.41462E+08
 
   -0.41167E+08         0.86984E+06         0.00000E+00
    0.86984E+06        -0.97602E+08         0.00000E+00
    0.00000E+00         0.00000E+00        -0.41254E+08
 
   -0.40977E+08         0.86888E+06         0.00000E+00
    0.86888E+06        -0.97606E+08         0.00000E+00
    0.00000E+00         0.00000E+00        -0.41042E+08
 
   -0.40787E+08         0.86619E+06         0.00000E+00
    0.86619E+06        -0.97611E+08         0.00000E+00
    0.00000E+00         0.00000E+00        -0.40828E+08
 
   -0.40597E+08         0.86155E+06         0.00000E+00
    0.86155E+06        -0.97616E+08         0.00000E+00
    0.00000E+00         0.00000E+00        -0.40611E+08
 
   -0.40407E+08         0.85474E+06         0.00000E+00
    0.85474E+06        -0.97622E+08         0.00000E+00
    0.00000E+00         0.00000E+00        -0.40392E+08
 
   -0.40219E+08         0.84550E+06         0.00000E+00
    0.84550E+06        -0.97628E+08         0.00000E+00
    0.00000E+00         0.00000E+00        -0.40170E+08
 
   -0.40031E+08         0.83356E+06         0.00000E+00
    0.83356E+06        -0.97636E+08         0.00000E+00
    0.00000E+00         0.00000E+00        -0.39946E+08
 
   -0.39845E+08         0.81861E+06         0.00000E+00
    0.81861E+06        -0.97644E+08         0.00000E+00
    0.00000E+00         0.00000E+00        -0.39719E+08
 
   -0.39660E+08         0.80032E+06         0.00000E+00
    0.80032E+06        -0.97654E+08         0.00000E+00
    0.00000E+00         0.00000E+00        -0.39490E+08
 
   -0.39478E+08         0.77837E+06         0.00000E+00
    0.77837E+06        -0.97664E+08         0.00000E+00
    0.00000E+00         0.00000E+00        -0.39259E+08
 
   -0.39299E+08         0.75239E+06         0.00000E+00
    0.75239E+06        -0.97676E+08         0.00000E+00
    0.00000E+00         0.00000E+00        -0.39027E+08
 
   -0.39123E+08         0.72203E+06         0.00000E+00
    0.72203E+06        -0.97688E+08         0.00000E+00
    0.00000E+00         0.00000E+00        -0.38792E+08
 
   -0.38950E+08         0.68695E+06         0.00000E+00
    0.68695E+06        -0.97702E+08         0.00000E+00
    0.00000E+00         0.00000E+00        -0.38555E+08
 
   -0.38782E+08         0.64684E+06         0.00000E+00
    0.64684E+06        -0.97717E+08         0.00000E+00
    0.00000E+00         0.00000E+00        -0.38317E+08
 
   -0.38618E+08         0.60149E+06         0.00000E+00
    0.60149E+06        -0.97733E+08         0.00000E+00
    0.00000E+00         0.00000E+00        -0.38077E+08
 
   -0.38460E+08         0.55077E+06         0.00000E+00
    0.55077E+06        -0.97749E+08         0.00000E+00
    0.00000E+00         0.00000E+00        -0.37836E+08
 
   -0.38307E+08         0.49475E+06         0.00000E+00
    0.49475E+06        -0.97765E+08         0.00000E+00
    0.00000E+00         0.00000E+00        -0.37593E+08
 
   -0.38160E+08         0.43379E+06         0.00000E+00
    0.43379E+06        -0.97780E+08         0.00000E+00
    0.00000E+00         0.00000E+00        -0.37349E+08
 
   -0.38019E+08         0.36860E+06         0.00000E+00
    0.36860E+06        -0.97792E+08         0.00000E+00
    0.00000E+00         0.00000E+00        -0.37104E+08
 
   -0.37886E+08         0.30047E+06         0.00000E+00
    0.30047E+06        -0.97800E+08         0.00000E+00
    0.00000E+00         0.00000E+00        -0.36858E+08
 
   -0.37759E+08         0.23142E+06         0.00000E+00
    0.23142E+06        -0.97801E+08         0.00000E+00
    0.00000E+00         0.00000E+00        -0.36612E+08
 
   -0.37642E+08         0.16441E+06         0.00000E+00
    0.16441E+06        -0.97792E+08         0.00000E+00
    0.00000E+00         0.00000E+00        -0.36364E+08
 
   -0.37533E+08         0.10348E+06         0.00000E+00
    0.10348E+06        -0.97767E+08         0.00000E+00
    0.00000E+00         0.00000E+00        -0.36117E+08
 
   -0.37437E+08         0.53446E+05         0.00000E+00
    0.53446E+05        -0.97719E+08         0.00000E+00
    0.00000E+00         0.00000E+00        -0.35869E+08
 
   -0.37357E+08         0.18832E+05         0.00000E+00
    0.18832E+05        -0.97637E+08         0.00000E+00
    0.00000E+00         0.00000E+00        -0.35620E+08
 
   -0.37298E+08         0.15926E+04         0.00000E+00
    0.15926E+04        -0.97511E+08         0.00000E+00
    0.00000E+00         0.00000E+00        -0.35372E+08
 
   -0.37267E+08        -0.13489E+04         0.00000E+00
   -0.13489E+04        -0.97328E+08         0.00000E+00
    0.00000E+00         0.00000E+00        -0.35124E+08
 
   -0.49289E+08         0.12177E+04         0.00000E+00
    0.12177E+04        -0.97663E+08         0.00000E+00
    0.00000E+00         0.00000E+00        -0.49966E+08
 
   -0.49280E+08         0.52983E+04         0.00000E+00
    0.52983E+04        -0.97613E+08         0.00000E+00
    0.00000E+00         0.00000E+00        -0.49897E+08
 
   -0.49262E+08         0.13622E+05         0.00000E+00
    0.13622E+05        -0.97579E+08         0.00000E+00
    0.00000E+00         0.00000E+00        -0.49828E+08
 
   -0.49239E+08         0.27096E+05         0.00000E+00
    0.27096E+05        -0.97557E+08         0.00000E+00
    0.00000E+00         0.00000E+00        -0.49760E+08
 
   -0.49210E+08         0.45112E+05         0.00000E+00
    0.45112E+05        -0.97545E+08         0.00000E+00
    0.00000E+00         0.00000E+00        -0.49691E+08
 
   -0.49178E+08         0.66336E+05         0.00000E+00
    0.66336E+05        -0.97539E+08         0.00000E+00
    0.00000E+00         0.00000E+00        -0.49622E+08
 
   -0.49141E+08         0.89382E+05         0.00000E+00
    0.89382E+05        -0.97536E+08         0.00000E+00
    0.00000E+00         0.00000E+00        -0.49554E+08
 
   -0.49102E+08         0.11312E+06         0.00000E+00
    0.11312E+06        -0.97536E+08         0.00000E+00
    0.00000E+00         0.00000E+00        -0.49484E+08
 
   -0.49060E+08         0.13675E+06         0.00000E+00
    0.13675E+06        -0.97538E+08         0.00000E+00
    0.00000E+00         0.00000E+00        -0.49415E+08
 
   -0.49014E+08         0.15971E+06         0.00000E+00
    0.15971E+06        -0.97541E+08         0.00000E+00
    0.00000E+00         0.00000E+00        -0.49345E+08
 
   -0.48966E+08         0.18169E+06         0.00000E+00
    0.18169E+06        -0.97545E+08         0.00000E+00
    0.00000E+00         0.00000E+00        -0.49274E+08
 
   -0.48914E+08         0.20250E+06         0.00000E+00
    0.20250E+06        -0.97549E+08         0.00000E+00
    0.00000E+00         0.00000E+00        -0.49203E+08
 
   -0.48860E+08         0.22206E+06         0.00000E+00
    0.22206E+06        -0.97552E+08         0.00000E+00
    0.00000E+00         0.00000E+00        -0.49132E+08
 
   -0.48803E+08         0.24039E+06         0.00000E+00
    0.24039E+06        -0.97556E+08         0.00000E+00
    0.00000E+00         0.00000E+00        -0.49059E+08
 
   -0.48743E+08         0.25752E+06         0.00000E+00
    0.25752E+06        -0.97559E+08         0.00000E+00
    0.00000E+00         0.00000E+00        -0.48986E+08
 
   -0.48681E+08         0.27353E+06         0.00000E+00
    0.27353E+06        -0.97562E+08         0.00000E+00
    0.00000E+00         0.00000E+00        -0.48912E+08
 
   -0.48616E+08         0.28853E+06         0.00000E+00
    0.28853E+06        -0.97565E+08         0.00000E+00
    0.00000E+00         0.00000E+00        -0.48838E+08
 
   -0.48549E+08         0.30261E+06         0.00000E+00
    0.30261E+06        -0.97567E+08         0.00000E+00
    0.00000E+00         0.00000E+00        -0.48762E+08
 
   -0.48479E+08         0.31588E+06         0.00000E+00
    0.31588E+06        -0.97569E+08         0.00000E+00
    0.00000E+00         0.00000E+00        -0.48685E+08
 
   -0.48406E+08         0.32845E+06         0.00000E+00
    0.32845E+06        -0.97571E+08         0.00000E+00
    0.00000E+00         0.00000E+00        -0.48607E+08
 
   -0.48332E+08         0.34041E+06         0.00000E+00
    0.34041E+06        -0.97573E+08         0.00000E+00
    0.00000E+00         0.00000E+00        -0.48528E+08
 
   -0.48255E+08         0.35186E+06         0.00000E+00
    0.35186E+06        -0.97574E+08         0.00000E+00
    0.00000E+00         0.00000E+00        -0.48448E+08
 
   -0.48176E+08         0.36287E+06         0.00000E+00
    0.36287E+06        -0.97575E+08         0.00000E+00
    0.00000E+00         0.00000E+00        -0.48366E+08
 
   -0.48094E+08         0.37353E+06         0.00000E+00
    0.37353E+06        -0.97576E+08         0.00000E+00
    0.00000E+00         0.00000E+00        -0.48283E+08
 
   -0.48011E+08         0.38389E+06         0.00000E+00
    0.38389E+06        -0.97577E+08         0.00000E+00
    0.00000E+00         0.00000E+00        -0.48199E+08
 
   -0.47925E+08         0.39404E+06         0.00000E+00
    0.39404E+06        -0.97577E+08         0.00000E+00
    0.00000E+00         0.00000E+00        -0.48113E+08
 
   -0.47837E+08         0.40400E+06         0.00000E+00
    0.40400E+06        -0.97577E+08         0.00000E+00
    0.00000E+00         0.00000E+00        -0.48025E+08
 
   -0.47748E+08         0.41384E+06         0.00000E+00
    0.41384E+06        -0.97578E+08         0.00000E+00
    0.00000E+00         0.00000E+00        -0.47936E+08
 
   -0.47656E+08         0.42359E+06         0.00000E+00
    0.42359E+06        -0.97578E+08         0.00000E+00
    0.00000E+00         0.00000E+00        -0.47846E+08
 
   -0.47562E+08         0.43328E+06         0.00000E+00
    0.43328E+06        -0.97578E+08         0.00000E+00
    0.00000E+00         0.00000E+00        -0.47753E+08
 
   -0.47465E+08         0.44295E+06         0.00000E+00
    0.44295E+06        -0.97578E+08         0.00000E+00
    0.00000E+00         0.00000E+00        -0.47659E+08
 
   -0.47367E+08         0.45263E+06         0.00000E+00
    0.45263E+06        -0.97578E+08         0.00000E+00
    0.00000E+00         0.00000E+00        -0.47563E+08
 
   -0.47267E+08         0.46232E+06         0.00000E+00
    0.46232E+06        -0.97578E+08         0.00000E+00
    0.00000E+00         0.00000E+00        -0.47465E+08
 
   -0.47164E+08         0.47206E+06         0.00000E+00
    0.47206E+06        -0.97578E+08         0.00000E+00
    0.00000E+00         0.00000E+00        -0.47365E+08
 
   -0.47059E+08         0.48186E+06         0.00000E+00
    0.48186E+06        -0.97578E+08         0.00000E+00
    0.00000E+00         0.00000E+00        -0.47263E+08
 
   -0.46953E+08         0.49172E+06         0.00000E+00
    0.49172E+06        -0.97578E+08         0.00000E+00
    0.00000E+00         0.00000E+00        -0.47159E+08
 
   -0.46843E+08         0.50166E+06         0.00000E+00
    0.50166E+06        -0.97578E+08         0.00000E+00
    0.00000E+00         0.00000E+00        -0.47053E+08
 
   -0.46732E+08         0.51169E+06         0.00000E+00
    0.51169E+06        -0.97577E+08         0.00000E+00
    0.00000E+00         0.00000E+00        -0.46945E+08
 
   -0.46619E+08         0.52180E+06         0.00000E+00
    0.52180E+06        -0.97577E+08         0.00000E+00
    0.00000E+00         0.00000E+00        -0.46834E+08
 
   -0.46503E+08         0.53201E+06         0.00000E+00
    0.53201E+06        -0.97577E+08         0.00000E+00
    0.00000E+00         0.00000E+00        -0.46721E+08
 
   -0.46384E+08         0.54231E+06         0.00000E+00
    0.54231E+06        -0.97577E+08         0.00000E+00
    0.00000E+00         0.00000E+00        -0.46606E+08
 
   -0.46264E+08         0.55270E+06         0.00000E+00
    0.55270E+06        -0.97577E+08         0.00000E+00
    0.00000E+00         0.00000E+00        -0.46488E+08
 
   -0.46141E+08         0.56318E+06         0.00000E+00
    0.56318E+06        -0.97576E+08         0.00000E+00
    0.00000E+00         0.00000E+00        -0.46368E+08
 
   -0.46016E+08         0.57374E+06         0.00000E+00
    0.57374E+06        -0.97576E+08         0.00000E+00
    0.00000E+00         0.00000E+00        -0.46246E+08
 
   -0.45888E+08         0.58438E+06         0.00000E+00
    0.58438E+06        -0.97576E+08         0.00000E+00
    0.00000E+00         0.00000E+00        -0.46121E+08
 
   -0.45758E+08         0.59510E+06         0.00000E+00
    0.59510E+06        -0.97576E+08         0.00000E+00
    0.00000E+00         0.00000E+00        -0.45993E+08
 
   -0.45626E+08         0.60587E+06         0.00000E+00
    0.60587E+06        -0.97576E+08         0.00000E+00
    0.00000E+00         0.00000E+00        -0.45863E+08
 
   -0.45491E+08         0.61670E+06         0.00000E+00
    0.61670E+06        -0.97576E+08         0.00000E+00
    0.00000E+00         0.00000E+00        -0.45730E+08
 
   -0.45353E+08         0.62757E+06         0.00000E+00
    0.62757E+06        -0.97576E+08         0.00000E+00
    0.00000E+00         0.00000E+00        -0.45594E+08
 
   -0.45213E+08         0.63847E+06         0.00000E+00
    0.63847E+06        -0.97576E+08         0.00000E+00
    0.00000E+00         0.00000E+00        -0.45455E+08
 
   -0.45071E+08         0.64938E+06         0.00000E+00
    0.64938E+06        -0.97576E+08         0.00000E+00
    0.00000E+00         0.00000E+00        -0.45314E+08
 
   -0.44926E+08         0.66029E+06         0.00000E+00
    0.66029E+06        -0.97576E+08         0.00000E+00
    0.00000E+00         0.00000E+00        -0.45170E+08
 
   -0.44778E+08         0.67117E+06         0.00000E+00
    0.67117E+06        -0.97576E+08         0.00000E+00
    0.00000E+00         0.00000E+00        -0.45023E+08
 
   -0.44629E+08         0.68201E+06         0.00000E+00
    0.68201E+06        -0.97576E+08         0.00000E+00
    0.00000E+00         0.00000E+00        -0.44873E+08
 
   -0.44476E+08         0.69279E+06         0.00000E+00
    0.69279E+06        -0.97576E+08         0.00000E+00
    0.00000E+00         0.00000E+00        -0.44721E+08
 
   -0.44321E+08         0.70348E+06         0.00000E+00
    0.70348E+06        -0.97576E+08         0.00000E+00
    0.00000E+00         0.00000E+00        -0.44565E+08
 
   -0.44164E+08         0.71405E+06         0.00000E+00
    0.71405E+06        -0.97577E+08         0.00000E+00
    0.00000E+00         0.00000E+00        -0.44406E+08
 
   -0.44004E+08         0.72447E+06         0.00000E+00
    0.72447E+06        -0.97577E+08         0.00000E+00
    0.00000E+00         0.00000E+00        -0.44245E+08
 
   -0.43842E+08         0.73472E+06         0.00000E+00
    0.73472E+06        -0.97577E+08         0.00000E+00
    0.00000E+00         0.00000E+00        -0.44080E+08
 
   -0.43677E+08         0.74475E+06         0.00000E+00
    0.74475E+06        -0.97578E+08         0.00000E+00
    0.00000E+00         0.00000E+00        -0.43913E+08
 
   -0.43510E+08         0.75454E+06         0.00000E+00
    0.75454E+06        -0.97579E+08         0.00000E+00
    0.00000E+00         0.00000E+00        -0.43742E+08
 
   -0.43340E+08         0.76403E+06         0.00000E+00
    0.76403E+06        -0.97579E+08         0.00000E+00
    0.00000E+00         0.00000E+00        -0.43569E+08
 
   -0.43169E+08         0.77318E+06         0.00000E+00
    0.77318E+06        -0.97580E+08         0.00000E+00
    0.00000E+00         0.00000E+00        -0.43392E+08
 
   -0.42995E+08         0.78194E+06         0.00000E+00
    0.78194E+06        -0.97581E+08         0.00000E+00
    0.00000E+00         0.00000E+00        -0.43212E+08
 
   -0.42819E+08         0.79025E+06         0.00000E+00
    0.79025E+06        -0.97582E+08         0.00000E+00
    0.00000E+00         0.00000E+00        -0.43030E+08
 
   -0.42641E+08         0.79805E+06         0.00000E+00
    0.79805E+06        -0.97584E+08         0.00000E+00
    0.00000E+00         0.00000E+00        -0.42844E+08
 
   -0.42462E+08         0.80527E+06         0.00000E+00
    0.80527E+06        -0.97585E+08         0.00000E+00
    0.00000E+00         0.00000E+00        -0.42656E+08
 
   -0.42280E+08         0.81184E+06         0.00000E+00
    0.81184E+06        -0.97587E+08         0.00000E+00
    0.00000E+00         0.00000E+00        -0.42464E+08
 
   -0.42097E+08         0.81767E+06         0.00000E+00
    0.81767E+06        -0.97588E+08         0.00000E+00
    0.00000E+00         0.00000E+00        -0.42269E+08
 
   -0.41913E+08         0.82266E+06         0.00000E+00
    0.82266E+06        -0.97590E+08         0.00000E+00
    0.00000E+00         0.00000E+00        -0.42072E+08
 
   -0.41727E+08         0.82671E+06         0.00000E+00
    0.82671E+06        -0.97593E+08         0.00000E+00
    0.00000E+00         0.00000E+00        -0.41872E+08
 
   -0.41539E+08         0.82971E+06         0.00000E+00
    0.82971E+06        -0.97595E+08         0.00000E+00
    0.00000E+00         0.00000E+00        -0.41668E+08
 
   -0.41351E+08         0.83151E+06         0.00000E+00
    0.83151E+06        -0.97598E+08         0.00000E+00
    0.00000E+00         0.00000E+00        -0.41462E+08
 
   -0.41163E+08         0.83199E+06         0.00000E+00
    0.83199E+06        -0.97602E+08         0.00000E+00
    0.00000E+00         0.00000E+00        -0.41254E+08
 
   -0.40974E+08         0.83096E+06         0.00000E+00
    0.83096E+06        -0.97606E+08         0.00000E+00
    0.00000E+00         0.00000E+00        -0.41042E+08
 
   -0.40784E+08         0.82826E+06         0.00000E+00
    0.82826E+06        -0.97610E+08         0.00000E+00
    0.00000E+00         0.00000E+00        -0.40828E+08
 
   -0.40595E+08         0.82367E+06         0.00000E+00
    0.82367E+06        -0.97615E+08         0.00000E+00
    0.00000E+00         0.00000E+00        -0.40611E+08
 
   -0.40406E+08         0.81698E+06         0.00000E+00
    0.81698E+06        -0.97620E+08         0.00000E+00
    0.00000E+00         0.00000E+00        -0.40392E+08
 
   -0.40218E+08         0.80793E+06         0.00000E+00
    0.80793E+06        -0.97626E+08         0.00000E+00
    0.00000E+00         0.00000E+00        -0.40170E+08
 
   -0.40032E+08         0.79625E+06         0.00000E+00
    0.79625E+06        -0.97633E+08         0.00000E+00
    0.00000E+00         0.00000E+00        -0.39946E+08
 
   -0.39847E+08         0.78165E+06         0.00000E+00
    0.78165E+06        -0.97641E+08         0.00000E+00
    0.00000E+00         0.00000E+00        -0.39719E+08
 
   -0.39664E+08         0.76381E+06         0.00000E+00
    0.76381E+06        -0.97650E+08         0.00000E+00
    0.00000E+00         0.00000E+00        -0.39490E+08
 
   -0.39483E+08         0.74238E+06         0.00000E+00
    0.74238E+06        -0.97659E+08         0.00000E+00
    0.00000E+00         0.00000E+00        -0.39260E+08
 
   -0.39306E+08         0.71702E+06         0.00000E+00
    0.71702E+06        -0.97670E+08         0.00000E+00
    0.00000E+00         0.00000E+00        -0.39027E+08
 
   -0.39132E+08         0.68738E+06         0.00000E+00
    0.68738E+06        -0.97682E+08         0.00000E+00
    0.00000E+00         0.00000E+00        -0.38792E+08
 
   -0.38961E+08         0.65311E+06         0.00000E+00
    0.65311E+06        -0.97695E+08         0.00000E+00
    0.00000E+00         0.00000E+00        -0.38555E+08
 
   -0.38796E+08         0.61392E+06         0.00000E+00
    0.61392E+06        -0.97709E+08         0.00000E+00
    0.00000E+00         0.00000E+00        -0.38317E+08
 
   -0.38635E+08         0.56956E+06         0.00000E+00
    0.56956E+06        -0.97723E+08         0.00000E+00
    0.00000E+00         0.00000E+00        -0.38077E+08
 
   -0.38480E+08         0.51994E+06         0.00000E+00
    0.51994E+06        -0.97738E+08         0.00000E+00
    0.00000E+00         0.00000E+00        -0.37836E+08
 
   -0.38331E+08         0.46512E+06         0.00000E+00
    0.46512E+06        -0.97753E+08         0.00000E+00
    0.00000E+00         0.00000E+00        -0.37593E+08
 
   -0.38188E+08         0.40543E+06         0.00000E+00
    0.40543E+06        -0.97767E+08         0.00000E+00
    0.00000E+00         0.00000E+00        -0.37349E+08
 
   -0.38052E+08         0.34161E+06         0.00000E+00
    0.34161E+06        -0.97779E+08         0.00000E+00
    0.00000E+00         0.00000E+00        -0.37104E+08
 
   -0.37923E+08         0.27494E+06         0.00000E+00
    0.27494E+06        -0.97786E+08         0.00000E+00
    0.00000E+00         0.00000E+00        -0.36858E+08
 
   -0.37802E+08         0.20746E+06         0.00000E+00
    0.20746E+06        -0.97788E+08         0.00000E+00
    0.00000E+00         0.00000E+00        -0.36611E+08
 
   -0.37689E+08         0.14220E+06         0.00000E+00
    0.14220E+06        -0.97779E+08         0.00000E+00
    0.00000E+00         0.00000E+00        -0.36364E+08
 
   -0.37586E+08         0.83323E+05         0.00000E+00
    0.83323E+05        -0.97756E+08         0.00000E+00
    0.00000E+00         0.00000E+00        -0.36117E+08
 
   -0.37493E+08         0.35898E+05         0.00000E+00
    0.35898E+05        -0.97710E+08         0.00000E+00
    0.00000E+00         0.00000E+00        -0.35869E+08
 
   -0.37416E+08         0.48160E+04         0.00000E+00
    0.48160E+04        -0.97633E+08         0.00000E+00
    0.00000E+00         0.00000E+00        -0.35620E+08
 
   -0.37359E+08        -0.76320E+04         0.00000E+00
   -0.76320E+04        -0.97510E+08         0.00000E+00
    0.00000E+00         0.00000E+00        -0.35372E+08
 
   -0.37328E+08        -0.45914E+04         0.00000E+00
   -0.45914E+04        -0.97329E+08         0.00000E+00
    0.00000E+00         0.00000E+00        -0.35124E+08
 
   -0.49270E+08         0.25488E+03         0.00000E+00
    0.25488E+03        -0.97663E+08         0.00000E+00
    0.00000E+00         0.00000E+00        -0.49966E+08
 
   -0.49261E+08         0.25632E+04         0.00000E+00
    0.25632E+04        -0.97614E+08         0.00000E+00
    0.00000E+00         0.00000E+00        -0.49897E+08
 
   -0.49244E+08         0.94687E+04         0.00000E+00
    0.94687E+04        -0.97581E+08         0.00000E+00
    0.00000E+00         0.00000E+00        -0.49828E+08
 
   -0.49221E+08         0.21878E+05         0.00000E+00
    0.21878E+05        -0.97561E+08         0.00000E+00
    0.00000E+00         0.00000E+00        -0.49760E+08
 
   -0.49194E+08         0.39064E+05         0.00000E+00
    0.39064E+05        -0.97549E+08         0.00000E+00
    0.00000E+00         0.00000E+00        -0.49691E+08
 
   -0.49162E+08         0.59578E+05         0.00000E+00
    0.59578E+05        -0.97543E+08         0.00000E+00
    0.00000E+00         0.00000E+00        -0.49622E+08
 
   -0.49127E+08         0.81966E+05         0.00000E+00
    0.81966E+05        -0.97541E+08         0.00000E+00
    0.00000E+00         0.00000E+00        -0.49553E+08
 
   -0.49089E+08         0.10507E+06         0.00000E+00
    0.10507E+06        -0.97541E+08         0.00000E+00
    0.00000E+00         0.00000E+00        -0.49484E+08
 
   -0.49048E+08         0.12807E+06         0.00000E+00
    0.12807E+06        -0.97543E+08         0.00000E+00
    0.00000E+00         0.00000E+00        -0.49415E+08
 
   -0.49004E+08         0.15042E+06         0.00000E+00
    0.15042E+06        -0.97546E+08         0.00000E+00
    0.00000E+00         0.00000E+00        -0.49345E+08
 
   -0.48956E+08         0.17179E+06         0.00000E+00
    0.17179E+06        -0.97549E+08         0.00000E+00
    0.00000E+00         0.00000E+00        -0.49274E+08
 
   -0.48906E+08         0.19201E+06         0.00000E+00
    0.19201E+06        -0.97553E+08         0.00000E+00
    0.00000E+00         0.00000E+00        -0.49203E+08
 
   -0.48852E+08         0.21100E+06         0.00000E+00
    0.21100E+06        -0.97556E+08         0.00000E+00
    0.00000E+00         0.00000E+00        -0.49132E+08
 
   -0.48796E+08         0.22876E+06         0.00000E+00
    0.22876E+06        -0.97559E+08         0.00000E+00
    0.00000E+00         0.00000E+00        -0.49059E+08
 
   -0.48737E+08         0.24534E+06         0.00000E+00
    0.24534E+06        -0.97563E+08         0.00000E+00
    0.00000E+00         0.00000E+00        -0.48986E+08
 
   -0.48675E+08         0.26083E+06         0.00000E+00
    0.26083E+06        -0.97565E+08         0.00000E+00
    0.00000E+00         0.00000E+00        -0.48912E+08
 
   -0.48610E+08         0.27531E+06         0.00000E+00
    0.27531E+06        -0.97568E+08         0.00000E+00
    0.00000E+00         0.00000E+00        -0.48838E+08
 
   -0.48543E+08         0.28889E+06         0.00000E+00
    0.28889E+06        -0.97570E+08         0.00000E+00
    0.00000E+00         0.00000E+00        -0.48762E+08
 
   -0.48473E+08         0.30167E+06         0.00000E+00
    0.30167E+06        -0.97572E+08         0.00000E+00
    0.00000E+00         0.00000E+00        -0.48685E+08
 
   -0.48401E+08         0.31377E+06         0.00000E+00
    0.31377E+06        -0.97574E+08         0.00000E+00
    0.00000E+00         0.00000E+00        -0.48607E+08
 
   -0.48326E+08         0.32526E+06         0.00000E+00
    0.32526E+06        -0.97575E+08         0.00000E+00
    0.00000E+00         0.00000E+00        -0.48528E+08
 
   -0.48249E+08         0.33626E+06         0.00000E+00
    0.33626E+06        -0.97576E+08         0.00000E+00
    0.00000E+00         0.00000E+00        -0.48448E+08
 
   -0.48170E+08         0.34682E+06         0.00000E+00
    0.34682E+06        -0.97577E+08         0.00000E+00
    0.00000E+00         0.00000E+00        -0.48366E+08
 
   -0.48089E+08         0.35704E+06         0.00000E+00
    0.35704E+06        -0.97578E+08         0.00000E+00
    0.00000E+00         0.00000E+00        -0.48283E+08
 
   -0.48006E+08         0.36698E+06         0.00000E+00
    0.36698E+06        -0.97579E+08         0.00000E+00
    0.00000E+00         0.00000E+00        -0.48199E+08
 
   -0.47920E+08         0.37669E+06         0.00000E+00
    0.37669E+06        -0.97579E+08         0.00000E+00
    0.00000E+00         0.00000E+00        -0.48113E+08
 
   -0.47832E+08         0.38624E+06         0.00000E+00
    0.38624E+06        -0.97579E+08         0.00000E+00
    0.00000E+00         0.00000E+00        -0.48025E+08
 
   -0.47742E+08         0.39565E+06         0.00000E+00
    0.39565E+06        -0.97580E+08         0.00000E+00
    0.00000E+00         0.00000E+00        -0.47936E+08
 
   -0.47650E+08         0.40498E+06         0.00000E+00
    0.40498E+06        -0.97580E+08         0.00000E+00
    0.00000E+00         0.00000E+00        -0.47846E+08
 
   -0.47556E+08         0.41425E+06         0.00000E+00
    0.41425E+06        -0.97580E+08         0.00000E+00
    0.00000E+00         0.00000E+00        -0.47753E+08
 
   -0.47460E+08         0.42350E+06         0.00000E+00
    0.42350E+06        -0.97580E+08         0.00000E+00
    0.00000E+00         0.00000E+00        -0.47659E+08
 
   -0.47361E+08         0.43275E+06         0.00000E+00
    0.43275E+06        -0.97580E+08         0.00000E+00
    0.00000E+00         0.00000E+00        -0.47563E+08
 
   -0.47261E+08         0.44202E+06         0.00000E+00
    0.44202E+06        -0.97580E+08         0.00000E+00
    0.00000E+00         0.00000E+00        -0.47465E+08
 
   -0.47158E+08         0.45132E+06         0.00000E+00
    0.45132E+06        -0.97580E+08         0.00000E+00
    0.00000E+00         0.00000E+00        -0.47365E+08
 
   -0.47053E+08         0.46068E+06         0.00000E+00
    0.46068E+06        -0.97580E+08         0.00000E+00
    0.00000E+00         0.00000E+00        -0.47263E+08
 
   -0.46946E+08         0.47011E+06         0.00000E+00
    0.47011E+06        -0.97580E+08         0.00000E+00
    0.00000E+00         0.00000E+00        -0.47159E+08
 
   -0.46837E+08         0.47961E+06         0.00000E+00
    0.47961E+06        -0.97579E+08         0.00000E+00
    0.00000E+00         0.00000E+00        -0.47053E+08
 
   -0.46726E+08         0.48918E+06         0.00000E+00
    0.48918E+06        -0.97579E+08         0.00000E+00
    0.00000E+00         0.00000E+00        -0.46945E+08
 
   -0.46612E+08         0.49885E+06         0.00000E+00
    0.49885E+06        -0.97579E+08         0.00000E+00
    0.00000E+00         0.00000E+00        -0.46834E+08
 
   -0.46496E+08         0.50859E+06         0.00000E+00
    0.50859E+06        -0.97579E+08         0.00000E+00
    0.00000E+00         0.00000E+00        -0.46721E+08
 
   -0.46378E+08         0.51843E+06         0.00000E+00
    0.51843E+06        -0.97579E+08         0.00000E+00
    0.00000E+00         0.00000E+00        -0.46606E+08
 
   -0.46257E+08         0.52835E+06         0.00000E+00
    0.52835E+06        -0.97579E+08         0.00000E+00
    0.00000E+00         0.00000E+00        -0.46488E+08
 
   -0.46134E+08         0.53836E+06         0.00000E+00
    0.53836E+06        -0.97578E+08         0.00000E+00
    0.00000E+00         0.00000E+00        -0.46368E+08
 
   -0.46009E+08         0.54844E+06         0.00000E+00
    0.54844E+06        -0.97578E+08         0.00000E+00
    0.00000E+00         0.00000E+00        -0.46246E+08
 
   -0.45881E+08         0.55860E+06         0.00000E+00
    0.55860E+06        -0.97578E+08         0.00000E+00
    0.00000E+00         0.00000E+00        -0.46121E+08
 
   -0.45751E+08         0.56883E+06         0.00000E+00
    0.56883E+06        -0.97578E+08         0.00000E+00
    0.00000E+00         0.00000E+00        -0.45993E+08
 
   -0.45618E+08         0.57912E+06         0.00000E+00
    0.57912E+06        -0.97578E+08         0.00000E+00
    0.00000E+00         0.00000E+00        -0.45863E+08
 
   -0.45483E+08         0.58946E+06         0.00000E+00
    0.58946E+06        -0.97578E+08         0.00000E+00
    0.00000E+00         0.00000E+00        -0.45730E+08
 
   -0.45346E+08         0.59983E+06         0.00000E+00
    0.59983E+06        -0.97578E+08         0.00000E+00
    0.00000E+00         0.00000E+00        -0.45594E+08
 
   -0.45206E+08         0.61023E+06         0.00000E+00
    0.61023E+06        -0.97578E+08         0.00000E+00
    0.00000E+00         0.00000E+00        -0.45455E+08
 
   -0.45063E+08         0.62064E+06         0.00000E+00
    0.62064E+06        -0.97578E+08         0.00000E+00
    0.00000E+00         0.00000E+00        -0.45314E+08
 
   -0.44918E+08         0.63105E+06         0.00000E+00
    0.63105E+06        -0.97578E+08         0.00000E+00
    0.00000E+00         0.00000E+00        -0.45170E+08
 
   -0.44771E+08         0.64143E+06         0.00000E+00
    0.64143E+06        -0.97578E+08         0.00000E+00
    0.00000E+00         0.00000E+00        -0.45023E+08
 
   -0.44621E+08         0.65177E+06         0.00000E+00
    0.65177E+06        -0.97578E+08         0.00000E+00
    0.00000E+00         0.00000E+00        -0.44873E+08
 
   -0.44468E+08         0.66205E+06         0.00000E+00
    0.66205E+06        -0.97578E+08         0.00000E+00
    0.00000E+00         0.00000E+00        -0.44721E+08
 
   -0.44314E+08         0.67224E+06         0.00000E+00
    0.67224E+06        -0.97578E+08         0.00000E+00
    0.00000E+00         0.00000E+00        -0.44565E+08
 
   -0.44156E+08         0.68232E+06         0.00000E+00
    0.68232E+06        -0.97579E+08         0.00000E+00
    0.00000E+00         0.00000E+00        -0.44407E+08
 
   -0.43996E+08         0.69226E+06         0.00000E+00
    0.69226E+06        -0.97579E+08         0.00000E+00
    0.00000E+00         0.00000E+00        -0.44245E+08
 
   -0.43834E+08         0.70202E+06         0.00000E+00
    0.70202E+06        -0.97579E+08         0.00000E+00
    0.00000E+00         0.00000E+00        -0.44080E+08
 
   -0.43669E+08         0.71159E+06         0.00000E+00
    0.71159E+06        -0.97580E+08         0.00000E+00
    0.00000E+00         0.00000E+00        -0.43913E+08
 
   -0.43502E+08         0.72091E+06         0.00000E+00
    0.72091E+06        -0.97581E+08         0.00000E+00
    0.00000E+00         0.00000E+00        -0.43742E+08
 
   -0.43333E+08         0.72994E+06         0.00000E+00
    0.72994E+06        -0.97581E+08         0.00000E+00
    0.00000E+00         0.00000E+00        -0.43569E+08
 
   -0.43162E+08         0.73866E+06         0.00000E+00
    0.73866E+06        -0.97582E+08         0.00000E+00
    0.00000E+00         0.00000E+00        -0.43392E+08
 
   -0.42988E+08         0.74699E+06         0.00000E+00
    0.74699E+06        -0.97583E+08         0.00000E+00
    0.00000E+00         0.00000E+00        -0.43213E+08
 
   -0.42812E+08         0.75489E+06         0.00000E+00
    0.75489E+06        -0.97584E+08         0.00000E+00
    0.00000E+00         0.00000E+00        -0.43030E+08
 
   -0.42635E+08         0.76231E+06         0.00000E+00
    0.76231E+06        -0.97585E+08         0.00000E+00
    0.00000E+00         0.00000E+00        -0.42844E+08
 
   -0.42455E+08         0.76917E+06         0.00000E+00
    0.76917E+06        -0.97586E+08         0.00000E+00
    0.00000E+00         0.00000E+00        -0.42656E+08
 
   -0.42274E+08         0.77540E+06         0.00000E+00
    0.77540E+06        -0.97588E+08         0.00000E+00
    0.00000E+00         0.00000E+00        -0.42464E+08
 
   -0.42091E+08         0.78091E+06         0.00000E+00
    0.78091E+06        -0.97589E+08         0.00000E+00
    0.00000E+00         0.00000E+00        -0.42270E+08
 
   -0.41907E+08         0.78563E+06         0.00000E+00
    0.78563E+06        -0.97591E+08         0.00000E+00
    0.00000E+00         0.00000E+00        -0.42072E+08
 
   -0.41721E+08         0.78944E+06         0.00000E+00
    0.78944E+06        -0.97594E+08         0.00000E+00
    0.00000E+00         0.00000E+00        -0.41872E+08
 
   -0.41535E+08         0.79223E+06         0.00000E+00
    0.79223E+06        -0.97596E+08         0.00000E+00
    0.00000E+00         0.00000E+00        -0.41668E+08
 
   -0.41347E+08         0.79388E+06         0.00000E+00
    0.79388E+06        -0.97599E+08         0.00000E+00
    0.00000E+00         0.00000E+00        -0.41462E+08
 
   -0.41159E+08         0.79425E+06         0.00000E+00
    0.79425E+06        -0.97602E+08         0.00000E+00
    0.00000E+00         0.00000E+00        -0.41254E+08
 
   -0.40970E+08         0.79317E+06         0.00000E+00
    0.79317E+06        -0.97605E+08         0.00000E+00
    0.00000E+00         0.00000E+00        -0.41042E+08
 
   -0.40781E+08         0.79047E+06         0.00000E+00
    0.79047E+06        -0.97609E+08         0.00000E+00
    0.00000E+00         0.00000E+00        -0.40828E+08
 
   -0.40593E+08         0.78595E+06         0.00000E+00
    0.78595E+06        -0.97614E+08         0.00000E+00
    0.00000E+00         0.00000E+00        -0.40611E+08
 
   -0.40405E+08         0.77939E+06         0.00000E+00
    0.77939E+06        -0.97619E+08         0.00000E+00
    0.00000E+00         0.00000E+00        -0.40392E+08
 
   -0.40218E+08         0.77056E+06         0.00000E+00
    0.77056E+06        -0.97624E+08         0.00000E+00
    0.00000E+00         0.00000E+00        -0.40170E+08
 
   -0.40032E+08         0.75917E+06         0.00000E+00
    0.75917E+06        -0.97631E+08         0.00000E+00
    0.00000E+00         0.00000E+00        -0.39946E+08
 
   -0.39849E+08         0.74495E+06         0.00000E+00
    0.74495E+06        -0.97638E+08         0.00000E+00
    0.00000E+00         0.00000E+00        -0.39719E+08
 
   -0.39667E+08         0.72758E+06         0.00000E+00
    0.72758E+06        -0.97646E+08         0.00000E+00
    0.00000E+00         0.00000E+00        -0.39490E+08
 
   -0.39488E+08         0.70672E+06         0.00000E+00
    0.70672E+06        -0.97655E+08         0.00000E+00
    0.00000E+00         0.00000E+00        -0.39260E+08
 
   -0.39312E+08         0.68202E+06         0.00000E+00
    0.68202E+06        -0.97665E+08         0.00000E+00
    0.00000E+00         0.00000E+00        -0.39027E+08
 
   -0.39140E+08         0.65315E+06         0.00000E+00
    0.65315E+06        -0.97676E+08         0.00000E+00
    0.00000E+00         0.00000E+00        -0.38792E+08
 
   -0.38972E+08         0.61976E+06         0.00000E+00
    0.61976E+06        -0.97688E+08         0.00000E+00
    0.00000E+00         0.00000E+00        -0.38555E+08
 
   -0.38809E+08         0.58154E+06         0.00000E+00
    0.58154E+06        -0.97701E+08         0.00000E+00
    0.00000E+00         0.00000E+00        -0.38317E+08
 
   -0.38651E+08         0.53827E+06         0.00000E+00
    0.53827E+06        -0.97714E+08         0.00000E+00
    0.00000E+00         0.00000E+00        -0.38077E+08
 
   -0.38499E+08         0.48982E+06         0.00000E+00
    0.48982E+06        -0.97728E+08         0.00000E+00
    0.00000E+00         0.00000E+00        -0.37836E+08
 
   -0.38354E+08         0.43627E+06         0.00000E+00
    0.43627E+06        -0.97742E+08         0.00000E+00
    0.00000E+00         0.00000E+00        -0.37593E+08
 
   -0.38215E+08         0.37794E+06         0.00000E+00
    0.37794E+06        -0.97755E+08         0.00000E+00
    0.00000E+00         0.00000E+00        -0.37349E+08
 
   -0.38084E+08         0.31556E+06         0.00000E+00
    0.31556E+06        -0.97766E+08         0.00000E+00
    0.00000E+00         0.00000E+00        -0.37104E+08
 
   -0.37960E+08         0.25042E+06         0.00000E+00
    0.25042E+06        -0.97773E+08         0.00000E+00
    0.00000E+00         0.00000E+00        -0.36858E+08
 
   -0.37844E+08         0.18454E+06         0.00000E+00
    0.18454E+06        -0.97774E+08         0.00000E+00
    0.00000E+00         0.00000E+00        -0.36611E+08
 
   -0.37736E+08         0.12100E+06         0.00000E+00
    0.12100E+06        -0.97767E+08         0.00000E+00
    0.00000E+00         0.00000E+00        -0.36364E+08
 
   -0.37638E+08         0.64060E+05         0.00000E+00
    0.64060E+05        -0.97745E+08         0.00000E+00
    0.00000E+00         0.00000E+00        -0.36116E+08
 
   -0.37550E+08         0.19032E+05         0.00000E+00
    0.19032E+05        -0.97703E+08         0.00000E+00
    0.00000E+00         0.00000E+00        -0.35868E+08
 
   -0.37475E+08        -0.87811E+04         0.00000E+00
   -0.87811E+04        -0.97629E+08         0.00000E+00
    0.00000E+00         0.00000E+00        -0.35620E+08
 
   -0.37419E+08        -0.16672E+05         0.00000E+00
   -0.16672E+05        -0.97510E+08         0.00000E+00
    0.00000E+00         0.00000E+00        -0.35372E+08
 
   -0.37389E+08        -0.77897E+04         0.00000E+00
   -0.77897E+04        -0.97331E+08         0.00000E+00
    0.00000E+00         0.00000E+00        -0.35124E+08
 
   -0.49252E+08        -0.69945E+03         0.00000E+00
   -0.69945E+03        -0.97663E+08         0.00000E+00
    0.00000E+00         0.00000E+00        -0.49966E+08
 
   -0.49243E+08        -0.12917E+03         0.00000E+00
   -0.12917E+03        -0.97614E+08         0.00000E+00
    0.00000E+00         0.00000E+00        -0.49897E+08
 
   -0.49226E+08         0.54221E+04         0.00000E+00
    0.54221E+04        -0.97583E+08         0.00000E+00
    0.00000E+00         0.00000E+00        -0.49828E+08
 
   -0.49204E+08         0.16839E+05         0.00000E+00
    0.16839E+05        -0.97563E+08         0.00000E+00
    0.00000E+00         0.00000E+00        -0.49760E+08
 
   -0.49177E+08         0.33251E+05         0.00000E+00
    0.33251E+05        -0.97553E+08         0.00000E+00
    0.00000E+00         0.00000E+00        -0.49691E+08
 
   -0.49147E+08         0.53082E+05         0.00000E+00
    0.53082E+05        -0.97547E+08         0.00000E+00
    0.00000E+00         0.00000E+00        -0.49622E+08
 
   -0.49114E+08         0.74814E+05         0.00000E+00
    0.74814E+05        -0.97545E+08         0.00000E+00
    0.00000E+00         0.00000E+00        -0.49553E+08
 
   -0.49077E+08         0.97270E+05         0.00000E+00
    0.97270E+05        -0.97546E+08         0.00000E+00
    0.00000E+00         0.00000E+00        -0.49484E+08
 
   -0.49037E+08         0.11962E+06         0.00000E+00
    0.11962E+06        -0.97547E+08         0.00000E+00
    0.00000E+00         0.00000E+00        -0.49415E+08
 
   -0.48994E+08         0.14133E+06         0.00000E+00
    0.14133E+06        -0.97550E+08         0.00000E+00
    0.00000E+00         0.00000E+00        -0.49345E+08
 
   -0.48947E+08         0.16208E+06         0.00000E+00
    0.16208E+06        -0.97553E+08         0.00000E+00
    0.00000E+00         0.00000E+00        -0.49274E+08
 
   -0.48897E+08         0.18168E+06         0.00000E+00
    0.18168E+06        -0.97556E+08         0.00000E+00
    0.00000E+00         0.00000E+00        -0.49203E+08
 
   -0.48845E+08         0.20006E+06         0.00000E+00
    0.20006E+06        -0.97560E+08         0.00000E+00
    0.00000E+00         0.00000E+00        -0.49132E+08
 
   -0.48789E+08         0.21724E+06         0.00000E+00
    0.21724E+06        -0.97563E+08         0.00000E+00
    0.00000E+00         0.00000E+00        -0.49059E+08
 
   -0.48730E+08         0.23326E+06         0.00000E+00
    0.23326E+06        -0.97566E+08         0.00000E+00
    0.00000E+00         0.00000E+00        -0.48986E+08
 
   -0.48668E+08         0.24819E+06         0.00000E+00
    0.24819E+06        -0.97568E+08         0.00000E+00
    0.00000E+00         0.00000E+00        -0.48912E+08
 
   -0.48604E+08         0.26214E+06         0.00000E+00
    0.26214E+06        -0.97571E+08         0.00000E+00
    0.00000E+00         0.00000E+00        -0.48838E+08
 
   -0.48537E+08         0.27521E+06         0.00000E+00
    0.27521E+06        -0.97573E+08         0.00000E+00
    0.00000E+00         0.00000E+00        -0.48762E+08
 
   -0.48468E+08         0.28750E+06         0.00000E+00
    0.28750E+06        -0.97574E+08         0.00000E+00
    0.00000E+00         0.00000E+00        -0.48685E+08
 
   -0.48395E+08         0.29911E+06         0.00000E+00
    0.29911E+06        -0.97576E+08         0.00000E+00
    0.00000E+00         0.00000E+00        -0.48607E+08
 
   -0.48321E+08         0.31013E+06         0.00000E+00
    0.31013E+06        -0.97577E+08         0.00000E+00
    0.00000E+00         0.00000E+00        -0.48528E+08
 
   -0.48244E+08         0.32067E+06         0.00000E+00
    0.32067E+06        -0.97578E+08         0.00000E+00
    0.00000E+00         0.00000E+00        -0.48448E+08
 
   -0.48165E+08         0.33078E+06         0.00000E+00
    0.33078E+06        -0.97579E+08         0.00000E+00
    0.00000E+00         0.00000E+00        -0.48366E+08
 
   -0.48084E+08         0.34056E+06         0.00000E+00
    0.34056E+06        -0.97580E+08         0.00000E+00
    0.00000E+00         0.00000E+00        -0.48283E+08
 
   -0.48000E+08         0.35006E+06         0.00000E+00
    0.35006E+06        -0.97580E+08         0.00000E+00
    0.00000E+00         0.00000E+00        -0.48199E+08
 
   -0.47915E+08         0.35935E+06         0.00000E+00
    0.35935E+06        -0.97581E+08         0.00000E+00
    0.00000E+00         0.00000E+00        -0.48113E+08
 
   -0.47827E+08         0.36846E+06         0.00000E+00
    0.36846E+06        -0.97581E+08         0.00000E+00
    0.00000E+00         0.00000E+00        -0.48025E+08
 
   -0.47737E+08         0.37745E+06         0.00000E+00
    0.37745E+06        -0.97582E+08         0.00000E+00
    0.00000E+00         0.00000E+00        -0.47936E+08
 
   -0.47645E+08         0.38635E+06         0.00000E+00
    0.38635E+06        -0.97582E+08         0.00000E+00
    0.00000E+00         0.00000E+00        -0.47846E+08
 
   -0.47550E+08         0.39520E+06         0.00000E+00
    0.39520E+06        -0.97582E+08         0.00000E+00
    0.00000E+00         0.00000E+00        -0.47753E+08
 
   -0.47454E+08         0.40403E+06         0.00000E+00
    0.40403E+06        -0.97582E+08         0.00000E+00
    0.00000E+00         0.00000E+00        -0.47659E+08
 
   -0.47356E+08         0.41285E+06         0.00000E+00
    0.41285E+06        -0.97582E+08         0.00000E+00
    0.00000E+00         0.00000E+00        -0.47563E+08
 
   -0.47255E+08         0.42169E+06         0.00000E+00
    0.42169E+06        -0.97582E+08         0.00000E+00
    0.00000E+00         0.00000E+00        -0.47465E+08
 
   -0.47152E+08         0.43057E+06         0.00000E+00
    0.43057E+06        -0.97582E+08         0.00000E+00
    0.00000E+00         0.00000E+00        -0.47365E+08
 
   -0.47047E+08         0.43949E+06         0.00000E+00
    0.43949E+06        -0.97582E+08         0.00000E+00
    0.00000E+00         0.00000E+00        -0.47263E+08
 
   -0.46940E+08         0.44848E+06         0.00000E+00
    0.44848E+06        -0.97581E+08         0.00000E+00
    0.00000E+00         0.00000E+00        -0.47159E+08
 
   -0.46831E+08         0.45753E+06         0.00000E+00
    0.45753E+06        -0.97581E+08         0.00000E+00
    0.00000E+00         0.00000E+00        -0.47053E+08
 
   -0.46719E+08         0.46666E+06         0.00000E+00
    0.46666E+06        -0.97581E+08         0.00000E+00
    0.00000E+00         0.00000E+00        -0.46945E+08
 
   -0.46606E+08         0.47587E+06         0.00000E+00
    0.47587E+06        -0.97581E+08         0.00000E+00
    0.00000E+00         0.00000E+00        -0.46834E+08
 
   -0.46489E+08         0.48516E+06         0.00000E+00
    0.48516E+06        -0.97581E+08         0.00000E+00
    0.00000E+00         0.00000E+00        -0.46721E+08
 
   -0.46371E+08         0.49453E+06         0.00000E+00
    0.49453E+06        -0.97581E+08         0.00000E+00
    0.00000E+00         0.00000E+00        -0.46606E+08
 
   -0.46250E+08         0.50399E+06         0.00000E+00
    0.50399E+06        -0.97581E+08         0.00000E+00
    0.00000E+00         0.00000E+00        -0.46488E+08
 
   -0.46127E+08         0.51352E+06         0.00000E+00
    0.51352E+06        -0.97580E+08         0.00000E+00
    0.00000E+00         0.00000E+00        -0.46368E+08
 
   -0.46002E+08         0.52313E+06         0.00000E+00
    0.52313E+06        -0.97580E+08         0.00000E+00
    0.00000E+00         0.00000E+00        -0.46246E+08
 
   -0.45874E+08         0.53281E+06         0.00000E+00
    0.53281E+06        -0.97580E+08         0.00000E+00
    0.00000E+00         0.00000E+00        -0.46121E+08
 
   -0.45744E+08         0.54255E+06         0.00000E+00
    0.54255E+06        -0.97580E+08         0.00000E+00
    0.00000E+00         0.00000E+00        -0.45993E+08
 
   -0.45611E+08         0.55235E+06         0.00000E+00
    0.55235E+06        -0.97580E+08         0.00000E+00
    0.00000E+00         0.00000E+00        -0.45863E+08
 
   -0.45476E+08         0.56219E+06         0.00000E+00
    0.56219E+06        -0.97580E+08         0.00000E+00
    0.00000E+00         0.00000E+00        -0.45730E+08
 
   -0.45339E+08         0.57207E+06         0.00000E+00
    0.57207E+06        -0.97580E+08         0.00000E+00
    0.00000E+00         0.00000E+00        -0.45594E+08
 
   -0.45198E+08         0.58198E+06         0.00000E+00
    0.58198E+06        -0.97580E+08         0.00000E+00
    0.00000E+00         0.00000E+00        -0.45455E+08
 
   -0.45056E+08         0.59189E+06         0.00000E+00
    0.59189E+06        -0.97580E+08         0.00000E+00
    0.00000E+00         0.00000E+00        -0.45314E+08
 
   -0.44911E+08         0.60180E+06         0.00000E+00
    0.60180E+06        -0.97580E+08         0.00000E+00
    0.00000E+00         0.00000E+00        -0.45170E+08
 
   -0.44763E+08         0.61168E+06         0.00000E+00
    0.61168E+06        -0.97580E+08         0.00000E+00
    0.00000E+00         0.00000E+00        -0.45023E+08
 
   -0.44613E+08         0.62153E+06         0.00000E+00
    0.62153E+06        -0.97580E+08         0.00000E+00
    0.00000E+00         0.00000E+00        -0.44873E+08
 
   -0.44461E+08         0.63131E+06         0.00000E+00
    0.63131E+06        -0.97580E+08         0.00000E+00
    0.00000E+00         0.00000E+00        -0.44721E+08
 
   -0.44306E+08         0.64101E+06         0.00000E+00
    0.64101E+06        -0.97580E+08         0.00000E+00
    0.00000E+00         0.00000E+00        -0.44565E+08
 
   -0.44149E+08         0.65059E+06         0.00000E+00
    0.65059E+06        -0.97581E+08         0.00000E+00
    0.00000E+00         0.00000E+00        -0.44407E+08
 
   -0.43989E+08         0.66005E+06         0.00000E+00
    0.66005E+06        -0.97581E+08         0.00000E+00
    0.00000E+00         0.00000E+00        -0.44245E+08
 
   -0.43827E+08         0.66934E+06         0.00000E+00
    0.66934E+06        -0.97581E+08         0.00000E+00
    0.00000E+00         0.00000E+00        -0.44080E+08
 
   -0.43662E+08         0.67843E+06         0.00000E+00
    0.67843E+06        -0.97582E+08         0.00000E+00
    0.00000E+00         0.00000E+00        -0.43913E+08
 
   -0.43495E+08         0.68729E+06         0.00000E+00
    0.68729E+06        -0.97582E+08         0.00000E+00
    0.00000E+00         0.00000E+00        -0.43742E+08
 
   -0.43326E+08         0.69588E+06         0.00000E+00
    0.69588E+06        -0.97583E+08         0.00000E+00
    0.00000E+00         0.00000E+00        -0.43569E+08
 
   -0.43155E+08         0.70416E+06         0.00000E+00
    0.70416E+06        -0.97584E+08         0.00000E+00
    0.00000E+00         0.00000E+00        -0.43392E+08
 
   -0.42981E+08         0.71207E+06         0.00000E+00
    0.71207E+06        -0.97584E+08         0.00000E+00
    0.00000E+00         0.00000E+00        -0.43213E+08
 
   -0.42806E+08         0.71957E+06         0.00000E+00
    0.71957E+06        -0.97585E+08         0.00000E+00
    0.00000E+00         0.00000E+00        -0.43030E+08
 
   -0.42628E+08         0.72661E+06         0.00000E+00
    0.72661E+06        -0.97586E+08         0.00000E+00
    0.00000E+00         0.00000E+00        -0.42844E+08
 
   -0.42449E+08         0.73311E+06         0.00000E+00
    0.73311E+06        -0.97588E+08         0.00000E+00
    0.00000E+00         0.00000E+00        -0.42656E+08
 
   -0.42268E+08         0.73900E+06         0.00000E+00
    0.73900E+06        -0.97589E+08         0.00000E+00
    0.00000E+00         0.00000E+00        -0.42464E+08
 
   -0.42085E+08         0.74422E+06         0.00000E+00
    0.74422E+06        -0.97590E+08         0.00000E+00
    0.00000E+00         0.00000E+00        -0.42270E+08
 
   -0.41901E+08         0.74866E+06         0.00000E+00
    0.74866E+06        -0.97592E+08         0.00000E+00
    0.00000E+00         0.00000E+00        -0.42072E+08
 
   -0.41716E+08         0.75224E+06         0.00000E+00
    0.75224E+06        -0.97594E+08         0.00000E+00
    0.00000E+00         0.00000E+00        -0.41872E+08
 
   -0.41530E+08         0.75484E+06         0.00000E+00
    0.75484E+06        -0.97596E+08         0.00000E+00
    0.00000E+00         0.00000E+00        -0.41668E+08
 
   -0.41342E+08         0.75634E+06         0.00000E+00
    0.75634E+06        -0.97599E+08         0.00000E+00
    0.00000E+00         0.00000E+00        -0.41462E+08
 
   -0.41155E+08         0.75661E+06         0.00000E+00
    0.75661E+06        -0.97602E+08         0.00000E+00
    0.00000E+00         0.00000E+00        -0.41254E+08
 
   -0.40967E+08         0.75549E+06         0.00000E+00
    0.75549E+06        -0.97605E+08         0.00000E+00
    0.00000E+00         0.00000E+00        -0.41042E+08
 
   -0.40779E+08         0.75280E+06         0.00000E+00
    0.75280E+06        -0.97608E+08         0.00000E+00
    0.00000E+00         0.00000E+00        -0.40828E+08
 
   -0.40591E+08         0.74837E+06         0.00000E+00
    0.74837E+06        -0.97612E+08         0.00000E+00
    0.00000E+00         0.00000E+00        -0.40611E+08
 
   -0.40404E+08         0.74197E+06         0.00000E+00
    0.74197E+06        -0.97617E+08         0.00000E+00
    0.00000E+00         0.00000E+00        -0.40392E+08
 
   -0.40217E+08         0.73337E+06         0.00000E+00
    0.73337E+06        -0.97622E+08         0.00000E+00
    0.00000E+00         0.00000E+00        -0.40170E+08
 
   -0.40033E+08         0.72231E+06         0.00000E+00
    0.72231E+06        -0.97628E+08         0.00000E+00
    0.00000E+00         0.00000E+00        -0.39946E+08
 
   -0.39850E+08         0.70850E+06         0.00000E+00
    0.70850E+06        -0.97635E+08         0.00000E+00
    0.00000E+00         0.00000E+00        -0.39719E+08
 
   -0.39670E+08         0.69163E+06         0.00000E+00
    0.69163E+06        -0.97642E+08         0.00000E+00
    0.00000E+00         0.00000E+00        -0.39490E+08
 
   -0.39492E+08         0.67138E+06         0.00000E+00
    0.67138E+06        -0.97650E+08         0.00000E+00
    0.00000E+00         0.00000E+00        -0.39260E+08
 
   -0.39318E+08         0.64740E+06         0.00000E+00
    0.64740E+06        -0.97659E+08         0.00000E+00
    0.00000E+00         0.00000E+00        -0.39027E+08
 
   -0.39148E+08         0.61934E+06         0.00000E+00
    0.61934E+06        -0.97670E+08         0.00000E+00
    0.00000E+00         0.00000E+00        -0.38792E+08
 
   -0.38982E+08         0.58688E+06         0.00000E+00
    0.58688E+06        -0.97681E+08         0.00000E+00
    0.00000E+00         0.00000E+00        -0.38555E+08
 
   -0.38822E+08         0.54971E+06         0.00000E+00
    0.54971E+06        -0.97693E+08         0.00000E+00
    0.00000E+00         0.00000E+00        -0.38317E+08
 
   -0.38667E+08         0.50759E+06         0.00000E+00
    0.50759E+06        -0.97705E+08         0.00000E+00
    0.00000E+00         0.00000E+00        -0.38077E+08
 
   -0.38518E+08         0.46041E+06         0.00000E+00
    0.46041E+06        -0.97718E+08         0.00000E+00
    0.00000E+00         0.00000E+00        -0.37836E+08
 
   -0.38376E+08         0.40822E+06         0.00000E+00
    0.40822E+06        -0.97731E+08         0.00000E+00
    0.00000E+00         0.00000E+00        -0.37593E+08
 
   -0.38242E+08         0.35134E+06         0.00000E+00
    0.35134E+06        -0.97743E+08         0.00000E+00
    0.00000E+00         0.00000E+00        -0.37349E+08
 
   -0.38115E+08         0.29049E+06         0.00000E+00
    0.29049E+06        -0.97753E+08         0.00000E+00
    0.00000E+00         0.00000E+00        -0.37104E+08
 
   -0.37996E+08         0.22692E+06         0.00000E+00
    0.22692E+06        -0.97760E+08         0.00000E+00
    0.00000E+00         0.00000E+00        -0.36858E+08
 
   -0.37886E+08         0.16269E+06         0.00000E+00
    0.16269E+06        -0.97761E+08         0.00000E+00
    0.00000E+00         0.00000E+00        -0.36611E+08
 
   -0.37783E+08         0.10084E+06         0.00000E+00
    0.10084E+06        -0.97755E+08         0.00000E+00
    0.00000E+00         0.00000E+00        -0.36364E+08
 
   -0.37690E+08         0.45720E+05         0.00000E+00
    0.45720E+05        -0.97735E+08         0.00000E+00
    0.00000E+00         0.00000E+00        -0.36116E+08
 
   -0.37606E+08         0.28763E+04         0.00000E+00
    0.28763E+04        -0.97695E+08         0.00000E+00
    0.00000E+00         0.00000E+00        -0.35868E+08
 
   -0.37534E+08        -0.21945E+05         0.00000E+00
   -0.21945E+05        -0.97626E+08         0.00000E+00
    0.00000E+00         0.00000E+00        -0.35620E+08
 
   -0.37480E+08        -0.25526E+05         0.00000E+00
   -0.25526E+05        -0.97511E+08         0.00000E+00
    0.00000E+00         0.00000E+00        -0.35372E+08
 
   -0.37450E+08        -0.10947E+05         0.00000E+00
   -0.10947E+05        -0.97335E+08         0.00000E+00
    0.00000E+00         0.00000E+00        -0.35124E+08
 
   -0.49233E+08        -0.16459E+04         0.00000E+00
   -0.16459E+04        -0.97663E+08         0.00000E+00
    0.00000E+00         0.00000E+00        -0.49966E+08
 
   -0.49224E+08        -0.27779E+04         0.00000E+00
   -0.27779E+04        -0.97615E+08         0.00000E+00
    0.00000E+00         0.00000E+00        -0.49897E+08
 
   -0.49208E+08         0.14884E+04         0.00000E+00
    0.14884E+04        -0.97584E+08         0.00000E+00
    0.00000E+00         0.00000E+00        -0.49828E+08
 
   -0.49186E+08         0.11990E+05         0.00000E+00
    0.11990E+05        -0.97566E+08         0.00000E+00
    0.00000E+00         0.00000E+00        -0.49760E+08
 
   -0.49161E+08         0.27682E+05         0.00000E+00
    0.27682E+05        -0.97556E+08         0.00000E+00
    0.00000E+00         0.00000E+00        -0.49691E+08
 
   -0.49132E+08         0.46856E+05         0.00000E+00
    0.46856E+05        -0.97551E+08         0.00000E+00
    0.00000E+00         0.00000E+00        -0.49622E+08
 
   -0.49100E+08         0.67934E+05         0.00000E+00
    0.67934E+05        -0.97550E+08         0.00000E+00
    0.00000E+00         0.00000E+00        -0.49553E+08
 
   -0.49065E+08         0.89725E+05         0.00000E+00
    0.89725E+05        -0.97550E+08         0.00000E+00
    0.00000E+00         0.00000E+00        -0.49484E+08
 
   -0.49026E+08         0.11141E+06         0.00000E+00
    0.11141E+06        -0.97552E+08         0.00000E+00
    0.00000E+00         0.00000E+00        -0.49415E+08
 
   -0.48984E+08         0.13245E+06         0.00000E+00
    0.13245E+06        -0.97554E+08         0.00000E+00
    0.00000E+00         0.00000E+00        -0.49345E+08
 
   -0.48938E+08         0.15254E+06         0.00000E+00
    0.15254E+06        -0.97557E+08         0.00000E+00
    0.00000E+00         0.00000E+00        -0.49274E+08
 
   -0.48889E+08         0.17150E+06         0.00000E+00
    0.17150E+06        -0.97560E+08         0.00000E+00
    0.00000E+00         0.00000E+00        -0.49203E+08
 
   -0.48837E+08         0.18926E+06         0.00000E+00
    0.18926E+06        -0.97563E+08         0.00000E+00
    0.00000E+00         0.00000E+00        -0.49132E+08
 
   -0.48782E+08         0.20583E+06         0.00000E+00
    0.20583E+06        -0.97566E+08         0.00000E+00
    0.00000E+00         0.00000E+00        -0.49059E+08
 
   -0.48724E+08         0.22126E+06         0.00000E+00
    0.22126E+06        -0.97569E+08         0.00000E+00
    0.00000E+00         0.00000E+00        -0.48986E+08
 
   -0.48662E+08         0.23563E+06         0.00000E+00
    0.23563E+06        -0.97571E+08         0.00000E+00
    0.00000E+00         0.00000E+00        -0.48912E+08
 
   -0.48598E+08         0.24903E+06         0.00000E+00
    0.24903E+06        -0.97573E+08         0.00000E+00
    0.00000E+00         0.00000E+00        -0.48838E+08
 
   -0.48532E+08         0.26157E+06         0.00000E+00
    0.26157E+06        -0.97575E+08         0.00000E+00
    0.00000E+00         0.00000E+00        -0.48762E+08
 
   -0.48462E+08         0.27335E+06         0.00000E+00
    0.27335E+06        -0.97577E+08         0.00000E+00
    0.00000E+00         0.00000E+00        -0.48685E+08
 
   -0.48390E+08         0.28447E+06         0.00000E+00
    0.28447E+06        -0.97578E+08         0.00000E+00
    0.00000E+00         0.00000E+00        -0.48607E+08
 
   -0.48316E+08         0.29502E+06         0.00000E+00
    0.29502E+06        -0.97579E+08         0.00000E+00
    0.00000E+00         0.00000E+00        -0.48528E+08
 
   -0.48239E+08         0.30508E+06         0.00000E+00
    0.30508E+06        -0.97580E+08         0.00000E+00
    0.00000E+00         0.00000E+00        -0.48448E+08
 
   -0.48160E+08         0.31474E+06         0.00000E+00
    0.31474E+06        -0.97581E+08         0.00000E+00
    0.00000E+00         0.00000E+00        -0.48366E+08
 
   -0.48079E+08         0.32408E+06         0.00000E+00
    0.32408E+06        -0.97582E+08         0.00000E+00
    0.00000E+00         0.00000E+00        -0.48283E+08
 
   -0.47995E+08         0.33314E+06         0.00000E+00
    0.33314E+06        -0.97582E+08         0.00000E+00
    0.00000E+00         0.00000E+00        -0.48199E+08
 
   -0.47910E+08         0.34199E+06         0.00000E+00
    0.34199E+06        -0.97583E+08         0.00000E+00
    0.00000E+00         0.00000E+00        -0.48113E+08
 
   -0.47822E+08         0.35067E+06         0.00000E+00
    0.35067E+06        -0.97583E+08         0.00000E+00
    0.00000E+00         0.00000E+00        -0.48025E+08
 
   -0.47732E+08         0.35923E+06         0.00000E+00
    0.35923E+06        -0.97583E+08         0.00000E+00
    0.00000E+00         0.00000E+00        -0.47936E+08
 
   -0.47639E+08         0.36771E+06         0.00000E+00
    0.36771E+06        -0.97583E+08         0.00000E+00
    0.00000E+00         0.00000E+00        -0.47846E+08
 
   -0.47545E+08         0.37614E+06         0.00000E+00
    0.37614E+06        -0.97584E+08         0.00000E+00
    0.00000E+00         0.00000E+00        -0.47753E+08
 
   -0.47449E+08         0.38454E+06         0.00000E+00
    0.38454E+06        -0.97584E+08         0.00000E+00
    0.00000E+00         0.00000E+00        -0.47659E+08
 
   -0.47350E+08         0.39293E+06         0.00000E+00
    0.39293E+06        -0.97584E+08         0.00000E+00
    0.00000E+00         0.00000E+00        -0.47563E+08
 
   -0.47249E+08         0.40134E+06         0.00000E+00
    0.40134E+06        -0.97584E+08         0.00000E+00
    0.00000E+00         0.00000E+00        -0.47465E+08
 
   -0.47146E+08         0.40979E+06         0.00000E+00
    0.40979E+06        -0.97583E+08         0.00000E+00
    0.00000E+00         0.00000E+00        -0.47365E+08
 
   -0.47041E+08         0.41828E+06         0.00000E+00
    0.41828E+06        -0.97583E+08         0.00000E+00
    0.00000E+00         0.00000E+00        -0.47263E+08
 
   -0.46934E+08         0.42682E+06         0.00000E+00
    0.42682E+06        -0.97583E+08         0.00000E+00
    0.00000E+00         0.00000E+00        -0.47159E+08
 
   -0.46825E+08         0.43543E+06         0.00000E+00
    0.43543E+06        -0.97583E+08         0.00000E+00
    0.00000E+00         0.00000E+00        -0.47053E+08
 
   -0.46713E+08         0.44411E+06         0.00000E+00
    0.44411E+06        -0.97583E+08         0.00000E+00
    0.00000E+00         0.00000E+00        -0.46945E+08
 
   -0.46599E+08         0.45287E+06         0.00000E+00
    0.45287E+06        -0.97583E+08         0.00000E+00
    0.00000E+00         0.00000E+00        -0.46834E+08
 
   -0.46483E+08         0.46170E+06         0.00000E+00
    0.46170E+06        -0.97583E+08         0.00000E+00
    0.00000E+00         0.00000E+00        -0.46721E+08
 
   -0.46365E+08         0.47061E+06         0.00000E+00
    0.47061E+06        -0.97583E+08         0.00000E+00
    0.00000E+00         0.00000E+00        -0.46606E+08
 
   -0.46244E+08         0.47960E+06         0.00000E+00
    0.47960E+06        -0.97582E+08         0.00000E+00
    0.00000E+00         0.00000E+00        -0.46488E+08
 
   -0.46121E+08         0.48866E+06         0.00000E+00
    0.48866E+06        -0.97582E+08         0.00000E+00
    0.00000E+00         0.00000E+00        -0.46368E+08
 
   -0.45995E+08         0.49780E+06         0.00000E+00
    0.49780E+06        -0.97582E+08         0.00000E+00
    0.00000E+00         0.00000E+00        -0.46246E+08
 
   -0.45867E+08         0.50700E+06         0.00000E+00
    0.50700E+06        -0.97582E+08         0.00000E+00
    0.00000E+00         0.00000E+00        -0.46121E+08
 
   -0.45737E+08         0.51625E+06         0.00000E+00
    0.51625E+06        -0.97582E+08         0.00000E+00
    0.00000E+00         0.00000E+00        -0.45993E+08
 
   -0.45604E+08         0.52557E+06         0.00000E+00
    0.52557E+06        -0.97582E+08         0.00000E+00
    0.00000E+00         0.00000E+00        -0.45863E+08
 
   -0.45469E+08         0.53492E+06         0.00000E+00
    0.53492E+06        -0.97582E+08         0.00000E+00
    0.00000E+00         0.00000E+00        -0.45730E+08
 
   -0.45331E+08         0.54431E+06         0.00000E+00
    0.54431E+06        -0.97582E+08         0.00000E+00
    0.00000E+00         0.00000E+00        -0.45594E+08
 
   -0.45191E+08         0.55371E+06         0.00000E+00
    0.55371E+06        -0.97582E+08         0.00000E+00
    0.00000E+00         0.00000E+00        -0.45455E+08
 
   -0.45049E+08         0.56313E+06         0.00000E+00
    0.56313E+06        -0.97582E+08         0.00000E+00
    0.00000E+00         0.00000E+00        -0.45314E+08
 
   -0.44904E+08         0.57254E+06         0.00000E+00
    0.57254E+06        -0.97582E+08         0.00000E+00
    0.00000E+00         0.00000E+00        -0.45170E+08
 
   -0.44756E+08         0.58193E+06         0.00000E+00
    0.58193E+06        -0.97582E+08         0.00000E+00
    0.00000E+00         0.00000E+00        -0.45023E+08
 
   -0.44606E+08         0.59128E+06         0.00000E+00
    0.59128E+06        -0.97582E+08         0.00000E+00
    0.00000E+00         0.00000E+00        -0.44873E+08
 
   -0.44453E+08         0.60056E+06         0.00000E+00
    0.60056E+06        -0.97582E+08         0.00000E+00
    0.00000E+00         0.00000E+00        -0.44721E+08
 
   -0.44298E+08         0.60977E+06         0.00000E+00
    0.60977E+06        -0.97582E+08         0.00000E+00
    0.00000E+00         0.00000E+00        -0.44565E+08
 
   -0.44141E+08         0.61887E+06         0.00000E+00
    0.61887E+06        -0.97582E+08         0.00000E+00
    0.00000E+00         0.00000E+00        -0.44407E+08
 
   -0.43981E+08         0.62785E+06         0.00000E+00
    0.62785E+06        -0.97583E+08         0.00000E+00
    0.00000E+00         0.00000E+00        -0.44245E+08
 
   -0.43819E+08         0.63666E+06         0.00000E+00
    0.63666E+06        -0.97583E+08         0.00000E+00
    0.00000E+00         0.00000E+00        -0.44080E+08
 
   -0.43655E+08         0.64529E+06         0.00000E+00
    0.64529E+06        -0.97584E+08         0.00000E+00
    0.00000E+00         0.00000E+00        -0.43913E+08
 
   -0.43488E+08         0.65369E+06         0.00000E+00
    0.65369E+06        -0.97584E+08         0.00000E+00
    0.00000E+00         0.00000E+00        -0.43742E+08
 
   -0.43319E+08         0.66184E+06         0.00000E+00
    0.66184E+06        -0.97585E+08         0.00000E+00
    0.00000E+00         0.00000E+00        -0.43569E+08
 
   -0.43147E+08         0.66968E+06         0.00000E+00
    0.66968E+06        -0.97585E+08         0.00000E+00
    0.00000E+00         0.00000E+00        -0.43392E+08
 
   -0.42974E+08         0.67718E+06         0.00000E+00
    0.67718E+06        -0.97586E+08         0.00000E+00
    0.00000E+00         0.00000E+00        -0.43213E+08
 
   -0.42799E+08         0.68429E+06         0.00000E+00
    0.68429E+06        -0.97587E+08         0.00000E+00
    0.00000E+00         0.00000E+00        -0.43030E+08
 
   -0.42621E+08         0.69094E+06         0.00000E+00
    0.69094E+06        -0.97588E+08         0.00000E+00
    0.00000E+00         0.00000E+00        -0.42844E+08
 
   -0.42442E+08         0.69709E+06         0.00000E+00
    0.69709E+06        -0.97589E+08         0.00000E+00
    0.00000E+00         0.00000E+00        -0.42656E+08
 
   -0.42261E+08         0.70266E+06         0.00000E+00
    0.70266E+06        -0.97590E+08         0.00000E+00
    0.00000E+00         0.00000E+00        -0.42464E+08
 
   -0.42079E+08         0.70758E+06         0.00000E+00
    0.70758E+06        -0.97591E+08         0.00000E+00
    0.00000E+00         0.00000E+00        -0.42270E+08
 
   -0.41895E+08         0.71176E+06         0.00000E+00
    0.71176E+06        -0.97593E+08         0.00000E+00
    0.00000E+00         0.00000E+00        -0.42072E+08
 
   -0.41710E+08         0.71511E+06         0.00000E+00
    0.71511E+06        -0.97595E+08         0.00000E+00
    0.00000E+00         0.00000E+00        -0.41872E+08
 
   -0.41524E+08         0.71753E+06         0.00000E+00
    0.71753E+06        -0.97597E+08         0.00000E+00
    0.00000E+00         0.00000E+00        -0.41669E+08
 
   -0.41338E+08         0.71889E+06         0.00000E+00
    0.71889E+06        -0.97599E+08         0.00000E+00
    0.00000E+00         0.00000E+00        -0.41462E+08
 
   -0.41150E+08         0.71907E+06         0.00000E+00
    0.71907E+06        -0.97602E+08         0.00000E+00
    0.00000E+00         0.00000E+00        -0.41254E+08
 
   -0.40963E+08         0.71792E+06         0.00000E+00
    0.71792E+06        -0.97604E+08         0.00000E+00
    0.00000E+00         0.00000E+00        -0.41042E+08
 
   -0.40775E+08         0.71527E+06         0.00000E+00
    0.71527E+06        -0.97608E+08         0.00000E+00
    0.00000E+00         0.00000E+00        -0.40828E+08
 
   -0.40588E+08         0.71094E+06         0.00000E+00
    0.71094E+06        -0.97611E+08         0.00000E+00
    0.00000E+00         0.00000E+00        -0.40611E+08
 
   -0.40402E+08         0.70471E+06         0.00000E+00
    0.70471E+06        -0.97616E+08         0.00000E+00
    0.00000E+00         0.00000E+00        -0.40392E+08
 
   -0.40217E+08         0.69637E+06         0.00000E+00
    0.69637E+06        -0.97620E+08         0.00000E+00
    0.00000E+00         0.00000E+00        -0.40170E+08
 
   -0.40033E+08         0.68565E+06         0.00000E+00
    0.68565E+06        -0.97626E+08         0.00000E+00
    0.00000E+00         0.00000E+00        -0.39946E+08
 
   -0.39851E+08         0.67228E+06         0.00000E+00
    0.67228E+06        -0.97632E+08         0.00000E+00
    0.00000E+00         0.00000E+00        -0.39719E+08
 
   -0.39672E+08         0.65595E+06         0.00000E+00
    0.65595E+06        -0.97638E+08         0.00000E+00
    0.00000E+00         0.00000E+00        -0.39490E+08
 
   -0.39496E+08         0.63635E+06         0.00000E+00
    0.63635E+06        -0.97646E+08         0.00000E+00
    0.00000E+00         0.00000E+00        -0.39260E+08
 
   -0.39324E+08         0.61312E+06         0.00000E+00
    0.61312E+06        -0.97654E+08         0.00000E+00
    0.00000E+00         0.00000E+00        -0.39027E+08
 
   -0.39155E+08         0.58595E+06         0.00000E+00
    0.58595E+06        -0.97664E+08         0.00000E+00
    0.00000E+00         0.00000E+00        -0.38792E+08
 
   -0.38992E+08         0.55448E+06         0.00000E+00
    0.55448E+06        -0.97674E+08         0.00000E+00
    0.00000E+00         0.00000E+00        -0.38555E+08
 
   -0.38834E+08         0.51842E+06         0.00000E+00
    0.51842E+06        -0.97685E+08         0.00000E+00
    0.00000E+00         0.00000E+00        -0.38317E+08
 
   -0.38682E+08         0.47754E+06         0.00000E+00
    0.47754E+06        -0.97696E+08         0.00000E+00
    0.00000E+00         0.00000E+00        -0.38077E+08
 
   -0.38537E+08         0.43170E+06         0.00000E+00
    0.43170E+06        -0.97708E+08         0.00000E+00
    0.00000E+00         0.00000E+00        -0.37836E+08
 
   -0.38398E+08         0.38096E+06         0.00000E+00
    0.38096E+06        -0.97720E+08         0.00000E+00
    0.00000E+00         0.00000E+00        -0.37593E+08
 
   -0.38268E+08         0.32562E+06         0.00000E+00
    0.32562E+06        -0.97731E+08         0.00000E+00
    0.00000E+00         0.00000E+00        -0.37349E+08
 
   -0.38146E+08         0.26638E+06         0.00000E+00
    0.26638E+06        -0.97741E+08         0.00000E+00
    0.00000E+00         0.00000E+00        -0.37104E+08
 
   -0.38032E+08         0.20448E+06         0.00000E+00
    0.20448E+06        -0.97747E+08         0.00000E+00
    0.00000E+00         0.00000E+00        -0.36858E+08
 
   -0.37927E+08         0.14192E+06         0.00000E+00
    0.14192E+06        -0.97749E+08         0.00000E+00
    0.00000E+00         0.00000E+00        -0.36611E+08
 
   -0.37830E+08         0.81747E+05         0.00000E+00
    0.81747E+05        -0.97743E+08         0.00000E+00
    0.00000E+00         0.00000E+00        -0.36364E+08
 
   -0.37742E+08         0.28346E+05         0.00000E+00
    0.28346E+05        -0.97725E+08         0.00000E+00
    0.00000E+00         0.00000E+00        -0.36116E+08
 
   -0.37663E+08        -0.12529E+05         0.00000E+00
   -0.12529E+05        -0.97689E+08         0.00000E+00
    0.00000E+00         0.00000E+00        -0.35868E+08
 
   -0.37594E+08        -0.34652E+05         0.00000E+00
   -0.34652E+05        -0.97623E+08         0.00000E+00
    0.00000E+00         0.00000E+00        -0.35620E+08
 
   -0.37542E+08        -0.34193E+05         0.00000E+00
   -0.34193E+05        -0.97513E+08         0.00000E+00
    0.00000E+00         0.00000E+00        -0.35372E+08
 
   -0.37512E+08        -0.14065E+05         0.00000E+00
   -0.14065E+05        -0.97340E+08         0.00000E+00
    0.00000E+00         0.00000E+00        -0.35124E+08
 
   -0.49214E+08        -0.25850E+04         0.00000E+00
   -0.25850E+04        -0.97662E+08         0.00000E+00
    0.00000E+00         0.00000E+00        -0.49966E+08
 
   -0.49205E+08        -0.53807E+04         0.00000E+00
   -0.53807E+04        -0.97615E+08         0.00000E+00
    0.00000E+00         0.00000E+00        -0.49897E+08
 
   -0.49189E+08        -0.23236E+04         0.00000E+00
   -0.23236E+04        -0.97586E+08         0.00000E+00
    0.00000E+00         0.00000E+00        -0.49828E+08
 
   -0.49169E+08         0.73438E+04         0.00000E+00
    0.73438E+04        -0.97569E+08         0.00000E+00
    0.00000E+00         0.00000E+00        -0.49760E+08
 
   -0.49144E+08         0.22372E+05         0.00000E+00
    0.22372E+05        -0.97560E+08         0.00000E+00
    0.00000E+00         0.00000E+00        -0.49691E+08
 
   -0.49117E+08         0.40911E+05         0.00000E+00
    0.40911E+05        -0.97555E+08         0.00000E+00
    0.00000E+00         0.00000E+00        -0.49622E+08
 
   -0.49087E+08         0.61332E+05         0.00000E+00
    0.61332E+05        -0.97554E+08         0.00000E+00
    0.00000E+00         0.00000E+00        -0.49553E+08
 
   -0.49053E+08         0.82443E+05         0.00000E+00
    0.82443E+05        -0.97554E+08         0.00000E+00
    0.00000E+00         0.00000E+00        -0.49484E+08
 
   -0.49015E+08         0.10343E+06         0.00000E+00
    0.10343E+06        -0.97556E+08         0.00000E+00
    0.00000E+00         0.00000E+00        -0.49415E+08
 
   -0.48974E+08         0.12378E+06         0.00000E+00
    0.12378E+06        -0.97558E+08         0.00000E+00
    0.00000E+00         0.00000E+00        -0.49345E+08
 
   -0.48929E+08         0.14318E+06         0.00000E+00
    0.14318E+06        -0.97561E+08         0.00000E+00
    0.00000E+00         0.00000E+00        -0.49274E+08
 
   -0.48881E+08         0.16147E+06         0.00000E+00
    0.16147E+06        -0.97564E+08         0.00000E+00
    0.00000E+00         0.00000E+00        -0.49203E+08
 
   -0.48830E+08         0.17858E+06         0.00000E+00
    0.17858E+06        -0.97567E+08         0.00000E+00
    0.00000E+00         0.00000E+00        -0.49132E+08
 
   -0.48775E+08         0.19452E+06         0.00000E+00
    0.19452E+06        -0.97569E+08         0.00000E+00
    0.00000E+00         0.00000E+00        -0.49059E+08
 
   -0.48717E+08         0.20934E+06         0.00000E+00
    0.20934E+06        -0.97572E+08         0.00000E+00
    0.00000E+00         0.00000E+00        -0.48986E+08
 
   -0.48657E+08         0.22313E+06         0.00000E+00
    0.22313E+06        -0.97574E+08         0.00000E+00
    0.00000E+00         0.00000E+00        -0.48912E+08
 
   -0.48593E+08         0.23598E+06         0.00000E+00
    0.23598E+06        -0.97576E+08         0.00000E+00
    0.00000E+00         0.00000E+00        -0.48838E+08
 
   -0.48526E+08         0.24798E+06         0.00000E+00
    0.24798E+06        -0.97578E+08         0.00000E+00
    0.00000E+00         0.00000E+00        -0.48762E+08
 
   -0.48457E+08         0.25924E+06         0.00000E+00
    0.25924E+06        -0.97579E+08         0.00000E+00
    0.00000E+00         0.00000E+00        -0.48685E+08
 
   -0.48385E+08         0.26985E+06         0.00000E+00
    0.26985E+06        -0.97580E+08         0.00000E+00
    0.00000E+00         0.00000E+00        -0.48607E+08
 
   -0.48311E+08         0.27991E+06         0.00000E+00
    0.27991E+06        -0.97581E+08         0.00000E+00
    0.00000E+00         0.00000E+00        -0.48528E+08
 
   -0.48234E+08         0.28950E+06         0.00000E+00
    0.28950E+06        -0.97582E+08         0.00000E+00
    0.00000E+00         0.00000E+00        -0.48448E+08
 
   -0.48155E+08         0.29871E+06         0.00000E+00
    0.29871E+06        -0.97583E+08         0.00000E+00
    0.00000E+00         0.00000E+00        -0.48366E+08
 
   -0.48074E+08         0.30759E+06         0.00000E+00
    0.30759E+06        -0.97584E+08         0.00000E+00
    0.00000E+00         0.00000E+00        -0.48283E+08
 
   -0.47990E+08         0.31621E+06         0.00000E+00
    0.31621E+06        -0.97584E+08         0.00000E+00
    0.00000E+00         0.00000E+00        -0.48199E+08
 
   -0.47905E+08         0.32462E+06         0.00000E+00
    0.32462E+06        -0.97584E+08         0.00000E+00
    0.00000E+00         0.00000E+00        -0.48113E+08
 
   -0.47817E+08         0.33287E+06         0.00000E+00
    0.33287E+06        -0.97585E+08         0.00000E+00
    0.00000E+00         0.00000E+00        -0.48025E+08
 
   -0.47726E+08         0.34100E+06         0.00000E+00
    0.34100E+06        -0.97585E+08         0.00000E+00
    0.00000E+00         0.00000E+00        -0.47936E+08
 
   -0.47634E+08         0.34906E+06         0.00000E+00
    0.34906E+06        -0.97585E+08         0.00000E+00
    0.00000E+00         0.00000E+00        -0.47846E+08
 
   -0.47540E+08         0.35705E+06         0.00000E+00
    0.35705E+06        -0.97585E+08         0.00000E+00
    0.00000E+00         0.00000E+00        -0.47753E+08
 
   -0.47443E+08         0.36503E+06         0.00000E+00
    0.36503E+06        -0.97585E+08         0.00000E+00
    0.00000E+00         0.00000E+00        -0.47659E+08
 
   -0.47345E+08         0.37299E+06         0.00000E+00
    0.37299E+06        -0.97585E+08         0.00000E+00
    0.00000E+00         0.00000E+00        -0.47563E+08
 
   -0.47244E+08         0.38098E+06         0.00000E+00
    0.38098E+06        -0.97585E+08         0.00000E+00
    0.00000E+00         0.00000E+00        -0.47465E+08
 
   -0.47141E+08         0.38899E+06         0.00000E+00
    0.38899E+06        -0.97585E+08         0.00000E+00
    0.00000E+00         0.00000E+00        -0.47365E+08
 
   -0.47036E+08         0.39704E+06         0.00000E+00
    0.39704E+06        -0.97585E+08         0.00000E+00
    0.00000E+00         0.00000E+00        -0.47263E+08
 
   -0.46928E+08         0.40515E+06         0.00000E+00
    0.40515E+06        -0.97585E+08         0.00000E+00
    0.00000E+00         0.00000E+00        -0.47159E+08
 
   -0.46819E+08         0.41331E+06         0.00000E+00
    0.41331E+06        -0.97585E+08         0.00000E+00
    0.00000E+00         0.00000E+00        -0.47053E+08
 
   -0.46707E+08         0.42155E+06         0.00000E+00
    0.42155E+06        -0.97585E+08         0.00000E+00
    0.00000E+00         0.00000E+00        -0.46945E+08
 
   -0.46593E+08         0.42985E+06         0.00000E+00
    0.42985E+06        -0.97585E+08         0.00000E+00
    0.00000E+00         0.00000E+00        -0.46834E+08
 
   -0.46477E+08         0.43823E+06         0.00000E+00
    0.43823E+06        -0.97584E+08         0.00000E+00
    0.00000E+00         0.00000E+00        -0.46721E+08
 
   -0.46358E+08         0.44667E+06         0.00000E+00
    0.44667E+06        -0.97584E+08         0.00000E+00
    0.00000E+00         0.00000E+00        -0.46606E+08
 
   -0.46237E+08         0.45520E+06         0.00000E+00
    0.45520E+06        -0.97584E+08         0.00000E+00
    0.00000E+00         0.00000E+00        -0.46488E+08
 
   -0.46114E+08         0.46379E+06         0.00000E+00
    0.46379E+06        -0.97584E+08         0.00000E+00
    0.00000E+00         0.00000E+00        -0.46368E+08
 
   -0.45988E+08         0.47244E+06         0.00000E+00
    0.47244E+06        -0.97584E+08         0.00000E+00
    0.00000E+00         0.00000E+00        -0.46246E+08
 
   -0.45860E+08         0.48116E+06         0.00000E+00
    0.48116E+06        -0.97584E+08         0.00000E+00
    0.00000E+00         0.00000E+00        -0.46121E+08
 
   -0.45730E+08         0.48994E+06         0.00000E+00
    0.48994E+06        -0.97584E+08         0.00000E+00
    0.00000E+00         0.00000E+00        -0.45993E+08
 
   -0.45597E+08         0.49877E+06         0.00000E+00
    0.49877E+06        -0.97584E+08         0.00000E+00
    0.00000E+00         0.00000E+00        -0.45863E+08
 
   -0.45462E+08         0.50763E+06         0.00000E+00
    0.50763E+06        -0.97584E+08         0.00000E+00
    0.00000E+00         0.00000E+00        -0.45730E+08
 
   -0.45324E+08         0.51653E+06         0.00000E+00
    0.51653E+06        -0.97584E+08         0.00000E+00
    0.00000E+00         0.00000E+00        -0.45594E+08
 
   -0.45184E+08         0.52544E+06         0.00000E+00
    0.52544E+06        -0.97584E+08         0.00000E+00
    0.00000E+00         0.00000E+00        -0.45455E+08
 
   -0.45041E+08         0.53436E+06         0.00000E+00
    0.53436E+06        -0.97584E+08         0.00000E+00
    0.00000E+00         0.00000E+00        -0.45314E+08
 
   -0.44896E+08         0.54328E+06         0.00000E+00
    0.54328E+06        -0.97584E+08         0.00000E+00
    0.00000E+00         0.00000E+00        -0.45170E+08
 
   -0.44749E+08         0.55217E+06         0.00000E+00
    0.55217E+06        -0.97584E+08         0.00000E+00
    0.00000E+00         0.00000E+00        -0.45023E+08
 
   -0.44599E+08         0.56102E+06         0.00000E+00
    0.56102E+06        -0.97584E+08         0.00000E+00
    0.00000E+00         0.00000E+00        -0.44873E+08
 
   -0.44446E+08         0.56982E+06         0.00000E+00
    0.56982E+06        -0.97584E+08         0.00000E+00
    0.00000E+00         0.00000E+00        -0.44721E+08
 
   -0.44291E+08         0.57854E+06         0.00000E+00
    0.57854E+06        -0.97584E+08         0.00000E+00
    0.00000E+00         0.00000E+00        -0.44565E+08
 
   -0.44134E+08         0.58716E+06         0.00000E+00
    0.58716E+06        -0.97584E+08         0.00000E+00
    0.00000E+00         0.00000E+00        -0.44407E+08
 
   -0.43974E+08         0.59565E+06         0.00000E+00
    0.59565E+06        -0.97585E+08         0.00000E+00
    0.00000E+00         0.00000E+00        -0.44245E+08
 
   -0.43812E+08         0.60399E+06         0.00000E+00
    0.60399E+06        -0.97585E+08         0.00000E+00
    0.00000E+00         0.00000E+00        -0.44080E+08
 
   -0.43647E+08         0.61216E+06         0.00000E+00
    0.61216E+06        -0.97585E+08         0.00000E+00
    0.00000E+00         0.00000E+00        -0.43913E+08
 
   -0.43481E+08         0.62011E+06         0.00000E+00
    0.62011E+06        -0.97586E+08         0.00000E+00
    0.00000E+00         0.00000E+00        -0.43742E+08
 
   -0.43312E+08         0.62781E+06         0.00000E+00
    0.62781E+06        -0.97586E+08         0.00000E+00
    0.00000E+00         0.00000E+00        -0.43569E+08
 
   -0.43140E+08         0.63523E+06         0.00000E+00
    0.63523E+06        -0.97587E+08         0.00000E+00
    0.00000E+00         0.00000E+00        -0.43392E+08
 
   -0.42967E+08         0.64232E+06         0.00000E+00
    0.64232E+06        -0.97587E+08         0.00000E+00
    0.00000E+00         0.00000E+00        -0.43213E+08
 
   -0.42792E+08         0.64903E+06         0.00000E+00
    0.64903E+06        -0.97588E+08         0.00000E+00
    0.00000E+00         0.00000E+00        -0.43030E+08
 
   -0.42615E+08         0.65531E+06         0.00000E+00
    0.65531E+06        -0.97589E+08         0.00000E+00
    0.00000E+00         0.00000E+00        -0.42844E+08
 
   -0.42436E+08         0.66111E+06         0.00000E+00
    0.66111E+06        -0.97590E+08         0.00000E+00
    0.00000E+00         0.00000E+00        -0.42656E+08
 
   -0.42255E+08         0.66636E+06         0.00000E+00
    0.66636E+06        -0.97591E+08         0.00000E+00
    0.00000E+00         0.00000E+00        -0.42464E+08
 
   -0.42073E+08         0.67099E+06         0.00000E+00
    0.67099E+06        -0.97592E+08         0.00000E+00
    0.00000E+00         0.00000E+00        -0.42270E+08
 
   -0.41890E+08         0.67491E+06         0.00000E+00
    0.67491E+06        -0.97594E+08         0.00000E+00
    0.00000E+00         0.00000E+00        -0.42072E+08
 
   -0.41705E+08         0.67804E+06         0.00000E+00
    0.67804E+06        -0.97595E+08         0.00000E+00
    0.00000E+00         0.00000E+00        -0.41872E+08
 
   -0.41519E+08         0.68029E+06         0.00000E+00
    0.68029E+06        -0.97597E+08         0.00000E+00
    0.00000E+00         0.00000E+00        -0.41669E+08
 
   -0.41333E+08         0.68152E+06         0.00000E+00
    0.68152E+06        -0.97599E+08         0.00000E+00
    0.00000E+00         0.00000E+00        -0.41462E+08
 
   -0.41146E+08         0.68163E+06         0.00000E+00
    0.68163E+06        -0.97601E+08         0.00000E+00
    0.00000E+00         0.00000E+00        -0.41254E+08
 
   -0.40959E+08         0.68046E+06         0.00000E+00
    0.68046E+06        -0.97604E+08         0.00000E+00
    0.00000E+00         0.00000E+00        -0.41042E+08
 
   -0.40772E+08         0.67785E+06         0.00000E+00
    0.67785E+06        -0.97607E+08         0.00000E+00
    0.00000E+00         0.00000E+00        -0.40828E+08
 
   -0.40586E+08         0.67364E+06         0.00000E+00
    0.67364E+06        -0.97610E+08         0.00000E+00
    0.00000E+00         0.00000E+00        -0.40611E+08
 
   -0.40400E+08         0.66761E+06         0.00000E+00
    0.66761E+06        -0.97614E+08         0.00000E+00
    0.00000E+00         0.00000E+00        -0.40392E+08
 
   -0.40216E+08         0.65954E+06         0.00000E+00
    0.65954E+06        -0.97618E+08         0.00000E+00
    0.00000E+00         0.00000E+00        -0.40170E+08
 
   -0.40033E+08         0.64920E+06         0.00000E+00
    0.64920E+06        -0.97623E+08         0.00000E+00
    0.00000E+00         0.00000E+00        -0.39946E+08
 
   -0.39852E+08         0.63629E+06         0.00000E+00
    0.63629E+06        -0.97629E+08         0.00000E+00
    0.00000E+00         0.00000E+00        -0.39719E+08
 
   -0.39674E+08         0.62054E+06         0.00000E+00
    0.62054E+06        -0.97635E+08         0.00000E+00
    0.00000E+00         0.00000E+00        -0.39490E+08
 
   -0.39500E+08         0.60162E+06         0.00000E+00
    0.60162E+06        -0.97642E+08         0.00000E+00
    0.00000E+00         0.00000E+00        -0.39260E+08
 
   -0.39329E+08         0.57920E+06         0.00000E+00
    0.57920E+06        -0.97649E+08         0.00000E+00
    0.00000E+00         0.00000E+00        -0.39027E+08
 
   -0.39162E+08         0.55295E+06         0.00000E+00
    0.55295E+06        -0.97658E+08         0.00000E+00
    0.00000E+00         0.00000E+00        -0.38792E+08
 
   -0.39001E+08         0.52254E+06         0.00000E+00
    0.52254E+06        -0.97667E+08         0.00000E+00
    0.00000E+00         0.00000E+00        -0.38555E+08
 
   -0.38845E+08         0.48767E+06         0.00000E+00
    0.48767E+06        -0.97677E+08         0.00000E+00
    0.00000E+00         0.00000E+00        -0.38317E+08
 
   -0.38696E+08         0.44809E+06         0.00000E+00
    0.44809E+06        -0.97688E+08         0.00000E+00
    0.00000E+00         0.00000E+00        -0.38077E+08
 
   -0.38554E+08         0.40369E+06         0.00000E+00
    0.40369E+06        -0.97699E+08         0.00000E+00
    0.00000E+00         0.00000E+00        -0.37835E+08
 
   -0.38420E+08         0.35449E+06         0.00000E+00
    0.35449E+06        -0.97710E+08         0.00000E+00
    0.00000E+00         0.00000E+00        -0.37593E+08
 
   -0.38294E+08         0.30079E+06         0.00000E+00
    0.30079E+06        -0.97720E+08         0.00000E+00
    0.00000E+00         0.00000E+00        -0.37349E+08
 
   -0.38176E+08         0.24326E+06         0.00000E+00
    0.24326E+06        -0.97729E+08         0.00000E+00
    0.00000E+00         0.00000E+00        -0.37104E+08
 
   -0.38068E+08         0.18310E+06         0.00000E+00
    0.18310E+06        -0.97735E+08         0.00000E+00
    0.00000E+00         0.00000E+00        -0.36858E+08
 
   -0.37968E+08         0.12226E+06         0.00000E+00
    0.12226E+06        -0.97737E+08         0.00000E+00
    0.00000E+00         0.00000E+00        -0.36611E+08
 
   -0.37877E+08         0.63766E+05         0.00000E+00
    0.63766E+05        -0.97731E+08         0.00000E+00
    0.00000E+00         0.00000E+00        -0.36364E+08
 
   -0.37794E+08         0.11988E+05         0.00000E+00
    0.11988E+05        -0.97715E+08         0.00000E+00
    0.00000E+00         0.00000E+00        -0.36116E+08
 
   -0.37719E+08        -0.27134E+05         0.00000E+00
   -0.27134E+05        -0.97682E+08         0.00000E+00
    0.00000E+00         0.00000E+00        -0.35868E+08
 
   -0.37654E+08        -0.46870E+05         0.00000E+00
   -0.46870E+05        -0.97621E+08         0.00000E+00
    0.00000E+00         0.00000E+00        -0.35620E+08
 
   -0.37604E+08        -0.42662E+05         0.00000E+00
   -0.42662E+05        -0.97515E+08         0.00000E+00
    0.00000E+00         0.00000E+00        -0.35372E+08
 
   -0.37575E+08        -0.17146E+05         0.00000E+00
   -0.17146E+05        -0.97346E+08         0.00000E+00
    0.00000E+00         0.00000E+00        -0.35124E+08
 
   -0.49195E+08        -0.35168E+04         0.00000E+00
   -0.35168E+04        -0.97661E+08         0.00000E+00
    0.00000E+00         0.00000E+00        -0.49966E+08
 
   -0.49186E+08        -0.79339E+04         0.00000E+00
   -0.79339E+04        -0.97615E+08         0.00000E+00
    0.00000E+00         0.00000E+00        -0.49897E+08
 
   -0.49171E+08        -0.60018E+04         0.00000E+00
   -0.60018E+04        -0.97587E+08         0.00000E+00
    0.00000E+00         0.00000E+00        -0.49828E+08
 
   -0.49151E+08         0.29180E+04         0.00000E+00
    0.29180E+04        -0.97571E+08         0.00000E+00
    0.00000E+00         0.00000E+00        -0.49760E+08
 
   -0.49128E+08         0.17338E+05         0.00000E+00
    0.17338E+05        -0.97563E+08         0.00000E+00
    0.00000E+00         0.00000E+00        -0.49691E+08
 
   -0.49102E+08         0.35260E+05         0.00000E+00
    0.35260E+05        -0.97559E+08         0.00000E+00
    0.00000E+00         0.00000E+00        -0.49622E+08
 
   -0.49073E+08         0.55018E+05         0.00000E+00
    0.55018E+05        -0.97558E+08         0.00000E+00
    0.00000E+00         0.00000E+00        -0.49553E+08
 
   -0.49041E+08         0.75426E+05         0.00000E+00
    0.75426E+05        -0.97559E+08         0.00000E+00
    0.00000E+00         0.00000E+00        -0.49484E+08
 
   -0.49004E+08         0.95695E+05         0.00000E+00
    0.95695E+05        -0.97560E+08         0.00000E+00
    0.00000E+00         0.00000E+00        -0.49415E+08
 
   -0.48964E+08         0.11532E+06         0.00000E+00
    0.11532E+06        -0.97562E+08         0.00000E+00
    0.00000E+00         0.00000E+00        -0.49345E+08
 
   -0.48921E+08         0.13400E+06         0.00000E+00
    0.13400E+06        -0.97565E+08         0.00000E+00
    0.00000E+00         0.00000E+00        -0.49274E+08
 
   -0.48874E+08         0.15159E+06         0.00000E+00
    0.15159E+06        -0.97567E+08         0.00000E+00
    0.00000E+00         0.00000E+00        -0.49203E+08
 
   -0.48823E+08         0.16802E+06         0.00000E+00
    0.16802E+06        -0.97570E+08         0.00000E+00
    0.00000E+00         0.00000E+00        -0.49132E+08
 
   -0.48769E+08         0.18331E+06         0.00000E+00
    0.18331E+06        -0.97572E+08         0.00000E+00
    0.00000E+00         0.00000E+00        -0.49059E+08
 
   -0.48711E+08         0.19751E+06         0.00000E+00
    0.19751E+06        -0.97574E+08         0.00000E+00
    0.00000E+00         0.00000E+00        -0.48986E+08
 
   -0.48651E+08         0.21070E+06         0.00000E+00
    0.21070E+06        -0.97576E+08         0.00000E+00
    0.00000E+00         0.00000E+00        -0.48912E+08
 
   -0.48587E+08         0.22297E+06         0.00000E+00
    0.22297E+06        -0.97578E+08         0.00000E+00
    0.00000E+00         0.00000E+00        -0.48838E+08
 
   -0.48521E+08         0.23442E+06         0.00000E+00
    0.23442E+06        -0.97580E+08         0.00000E+00
    0.00000E+00         0.00000E+00        -0.48762E+08
 
   -0.48452E+08         0.24515E+06         0.00000E+00
    0.24515E+06        -0.97581E+08         0.00000E+00
    0.00000E+00         0.00000E+00        -0.48685E+08
 
   -0.48380E+08         0.25525E+06         0.00000E+00
    0.25525E+06        -0.97582E+08         0.00000E+00
    0.00000E+00         0.00000E+00        -0.48607E+08
 
   -0.48306E+08         0.26482E+06         0.00000E+00
    0.26482E+06        -0.97583E+08         0.00000E+00
    0.00000E+00         0.00000E+00        -0.48528E+08
 
   -0.48229E+08         0.27393E+06         0.00000E+00
    0.27393E+06        -0.97584E+08         0.00000E+00
    0.00000E+00         0.00000E+00        -0.48448E+08
 
   -0.48150E+08         0.28267E+06         0.00000E+00
    0.28267E+06        -0.97585E+08         0.00000E+00
    0.00000E+00         0.00000E+00        -0.48366E+08
 
   -0.48069E+08         0.29109E+06         0.00000E+00
    0.29109E+06        -0.97585E+08         0.00000E+00
    0.00000E+00         0.00000E+00        -0.48283E+08
 
   -0.47985E+08         0.29927E+06         0.00000E+00
    0.29927E+06        -0.97586E+08         0.00000E+00
    0.00000E+00         0.00000E+00        -0.48199E+08
 
   -0.47900E+08         0.30724E+06         0.00000E+00
    0.30724E+06        -0.97586E+08         0.00000E+00
    0.00000E+00         0.00000E+00        -0.48113E+08
 
   -0.47812E+08         0.31506E+06         0.00000E+00
    0.31506E+06        -0.97586E+08         0.00000E+00
    0.00000E+00         0.00000E+00        -0.48025E+08
 
   -0.47721E+08         0.32276E+06         0.00000E+00
    0.32276E+06        -0.97587E+08         0.00000E+00
    0.00000E+00         0.00000E+00        -0.47936E+08
 
   -0.47629E+08         0.33038E+06         0.00000E+00
    0.33038E+06        -0.97587E+08         0.00000E+00
    0.00000E+00         0.00000E+00        -0.47846E+08
 
   -0.47535E+08         0.33795E+06         0.00000E+00
    0.33795E+06        -0.97587E+08         0.00000E+00
    0.00000E+00         0.00000E+00        -0.47753E+08
 
   -0.47438E+08         0.34550E+06         0.00000E+00
    0.34550E+06        -0.97587E+08         0.00000E+00
    0.00000E+00         0.00000E+00        -0.47659E+08
 
   -0.47339E+08         0.35304E+06         0.00000E+00
    0.35304E+06        -0.97587E+08         0.00000E+00
    0.00000E+00         0.00000E+00        -0.47563E+08
 
   -0.47238E+08         0.36059E+06         0.00000E+00
    0.36059E+06        -0.97587E+08         0.00000E+00
    0.00000E+00         0.00000E+00        -0.47465E+08
 
   -0.47135E+08         0.36817E+06         0.00000E+00
    0.36817E+06        -0.97587E+08         0.00000E+00
    0.00000E+00         0.00000E+00        -0.47365E+08
 
   -0.47030E+08         0.37578E+06         0.00000E+00
    0.37578E+06        -0.97587E+08         0.00000E+00
    0.00000E+00         0.00000E+00        -0.47263E+08
 
   -0.46922E+08         0.38345E+06         0.00000E+00
    0.38345E+06        -0.97586E+08         0.00000E+00
    0.00000E+00         0.00000E+00        -0.47159E+08
 
   -0.46813E+08         0.39117E+06         0.00000E+00
    0.39117E+06        -0.97586E+08         0.00000E+00
    0.00000E+00         0.00000E+00        -0.47053E+08
 
   -0.46701E+08         0.39896E+06         0.00000E+00
    0.39896E+06        -0.97586E+08         0.00000E+00
    0.00000E+00         0.00000E+00        -0.46945E+08
 
   -0.46587E+08         0.40681E+06         0.00000E+00
    0.40681E+06        -0.97586E+08         0.00000E+00
    0.00000E+00         0.00000E+00        -0.46834E+08
 
   -0.46470E+08         0.41473E+06         0.00000E+00
    0.41473E+06        -0.97586E+08         0.00000E+00
    0.00000E+00         0.00000E+00        -0.46721E+08
 
   -0.46352E+08         0.42272E+06         0.00000E+00
    0.42272E+06        -0.97586E+08         0.00000E+00
    0.00000E+00         0.00000E+00        -0.46606E+08
 
   -0.46231E+08         0.43077E+06         0.00000E+00
    0.43077E+06        -0.97586E+08         0.00000E+00
    0.00000E+00         0.00000E+00        -0.46488E+08
 
   -0.46107E+08         0.43889E+06         0.00000E+00
    0.43889E+06        -0.97586E+08         0.00000E+00
    0.00000E+00         0.00000E+00        -0.46368E+08
 
   -0.45982E+08         0.44708E+06         0.00000E+00
    0.44708E+06        -0.97586E+08         0.00000E+00
    0.00000E+00         0.00000E+00        -0.46246E+08
 
   -0.45854E+08         0.45532E+06         0.00000E+00
    0.45532E+06        -0.97586E+08         0.00000E+00
    0.00000E+00         0.00000E+00        -0.46121E+08
 
   -0.45723E+08         0.46361E+06         0.00000E+00
    0.46361E+06        -0.97585E+08         0.00000E+00
    0.00000E+00         0.00000E+00        -0.45993E+08
 
   -0.45590E+08         0.47195E+06         0.00000E+00
    0.47195E+06        -0.97585E+08         0.00000E+00
    0.00000E+00         0.00000E+00        -0.45863E+08
 
   -0.45455E+08         0.48033E+06         0.00000E+00
    0.48033E+06        -0.97585E+08         0.00000E+00
    0.00000E+00         0.00000E+00        -0.45730E+08
 
   -0.45317E+08         0.48873E+06         0.00000E+00
    0.48873E+06        -0.97585E+08         0.00000E+00
    0.00000E+00         0.00000E+00        -0.45594E+08
 
   -0.45177E+08         0.49715E+06         0.00000E+00
    0.49715E+06        -0.97585E+08         0.00000E+00
    0.00000E+00         0.00000E+00        -0.45455E+08
 
   -0.45034E+08         0.50558E+06         0.00000E+00
    0.50558E+06        -0.97585E+08         0.00000E+00
    0.00000E+00         0.00000E+00        -0.45314E+08
 
   -0.44889E+08         0.51400E+06         0.00000E+00
    0.51400E+06        -0.97585E+08         0.00000E+00
    0.00000E+00         0.00000E+00        -0.45170E+08
 
   -0.44741E+08         0.52240E+06         0.00000E+00
    0.52240E+06        -0.97585E+08         0.00000E+00
    0.00000E+00         0.00000E+00        -0.45023E+08
 
   -0.44591E+08         0.53076E+06         0.00000E+00
    0.53076E+06        -0.97585E+08         0.00000E+00
    0.00000E+00         0.00000E+00        -0.44874E+08
 
   -0.44439E+08         0.53907E+06         0.00000E+00
    0.53907E+06        -0.97586E+08         0.00000E+00
    0.00000E+00         0.00000E+00        -0.44721E+08
 
   -0.44284E+08         0.54730E+06         0.00000E+00
    0.54730E+06        -0.97586E+08         0.00000E+00
    0.00000E+00         0.00000E+00        -0.44565E+08
 
   -0.44126E+08         0.55544E+06         0.00000E+00
    0.55544E+06        -0.97586E+08         0.00000E+00
    0.00000E+00         0.00000E+00        -0.44407E+08
 
   -0.43967E+08         0.56346E+06         0.00000E+00
    0.56346E+06        -0.97586E+08         0.00000E+00
    0.00000E+00         0.00000E+00        -0.44245E+08
 
   -0.43804E+08         0.57133E+06         0.00000E+00
    0.57133E+06        -0.97586E+08         0.00000E+00
    0.00000E+00         0.00000E+00        -0.44081E+08
 
   -0.43640E+08         0.57903E+06         0.00000E+00
    0.57903E+06        -0.97587E+08         0.00000E+00
    0.00000E+00         0.00000E+00        -0.43913E+08
 
   -0.43473E+08         0.58653E+06         0.00000E+00
    0.58653E+06        -0.97587E+08         0.00000E+00
    0.00000E+00         0.00000E+00        -0.43742E+08
 
   -0.43304E+08         0.59380E+06         0.00000E+00
    0.59380E+06        -0.97588E+08         0.00000E+00
    0.00000E+00         0.00000E+00        -0.43569E+08
 
   -0.43133E+08         0.60079E+06         0.00000E+00
    0.60079E+06        -0.97588E+08         0.00000E+00
    0.00000E+00         0.00000E+00        -0.43392E+08
 
   -0.42960E+08         0.60748E+06         0.00000E+00
    0.60748E+06        -0.97589E+08         0.00000E+00
    0.00000E+00         0.00000E+00        -0.43213E+08
 
   -0.42785E+08         0.61380E+06         0.00000E+00
    0.61380E+06        -0.97589E+08         0.00000E+00
    0.00000E+00         0.00000E+00        -0.43030E+08
 
   -0.42608E+08         0.61972E+06         0.00000E+00
    0.61972E+06        -0.97590E+08         0.00000E+00
    0.00000E+00         0.00000E+00        -0.42844E+08
 
   -0.42429E+08         0.62517E+06         0.00000E+00
    0.62517E+06        -0.97591E+08         0.00000E+00
    0.00000E+00         0.00000E+00        -0.42656E+08
 
   -0.42249E+08         0.63011E+06         0.00000E+00
    0.63011E+06        -0.97592E+08         0.00000E+00
    0.00000E+00         0.00000E+00        -0.42464E+08
 
   -0.42067E+08         0.63445E+06         0.00000E+00
    0.63445E+06        -0.97593E+08         0.00000E+00
    0.00000E+00         0.00000E+00        -0.42270E+08
 
   -0.41884E+08         0.63812E+06         0.00000E+00
    0.63812E+06        -0.97594E+08         0.00000E+00
    0.00000E+00         0.00000E+00        -0.42072E+08
 
   -0.41699E+08         0.64104E+06         0.00000E+00
    0.64104E+06        -0.97596E+08         0.00000E+00
    0.00000E+00         0.00000E+00        -0.41872E+08
 
   -0.41514E+08         0.64312E+06         0.00000E+00
    0.64312E+06        -0.97597E+08         0.00000E+00
    0.00000E+00         0.00000E+00        -0.41669E+08
 
   -0.41328E+08         0.64423E+06         0.00000E+00
    0.64423E+06        -0.97599E+08         0.00000E+00
    0.00000E+00         0.00000E+00        -0.41463E+08
 
   -0.41142E+08         0.64427E+06         0.00000E+00
    0.64427E+06        -0.97601E+08         0.00000E+00
    0.00000E+00         0.00000E+00        -0.41254E+08
 
   -0.40955E+08         0.64310E+06         0.00000E+00
    0.64310E+06        -0.97604E+08         0.00000E+00
    0.00000E+00         0.00000E+00        -0.41042E+08
 
   -0.40769E+08         0.64055E+06         0.00000E+00
    0.64055E+06        -0.97606E+08         0.00000E+00
    0.00000E+00         0.00000E+00        -0.40828E+08
 
   -0.40583E+08         0.63647E+06         0.00000E+00
    0.63647E+06        -0.97609E+08         0.00000E+00
    0.00000E+00         0.00000E+00        -0.40611E+08
 
   -0.40398E+08         0.63065E+06         0.00000E+00
    0.63065E+06        -0.97613E+08         0.00000E+00
    0.00000E+00         0.00000E+00        -0.40392E+08
 
   -0.40214E+08         0.62289E+06         0.00000E+00
    0.62289E+06        -0.97617E+08         0.00000E+00
    0.00000E+00         0.00000E+00        -0.40170E+08
 
   -0.40032E+08         0.61293E+06         0.00000E+00
    0.61293E+06        -0.97621E+08         0.00000E+00
    0.00000E+00         0.00000E+00        -0.39946E+08
 
   -0.39853E+08         0.60053E+06         0.00000E+00
    0.60053E+06        -0.97626E+08         0.00000E+00
    0.00000E+00         0.00000E+00        -0.39719E+08
 
   -0.39676E+08         0.58538E+06         0.00000E+00
    0.58538E+06        -0.97631E+08         0.00000E+00
    0.00000E+00         0.00000E+00        -0.39490E+08
 
   -0.39503E+08         0.56719E+06         0.00000E+00
    0.56719E+06        -0.97638E+08         0.00000E+00
    0.00000E+00         0.00000E+00        -0.39260E+08
 
   -0.39333E+08         0.54562E+06         0.00000E+00
    0.54562E+06        -0.97645E+08         0.00000E+00
    0.00000E+00         0.00000E+00        -0.39027E+08
 
   -0.39169E+08         0.52035E+06         0.00000E+00
    0.52035E+06        -0.97652E+08         0.00000E+00
    0.00000E+00         0.00000E+00        -0.38792E+08
 
   -0.39009E+08         0.49106E+06         0.00000E+00
    0.49106E+06        -0.97661E+08         0.00000E+00
    0.00000E+00         0.00000E+00        -0.38555E+08
 
   -0.38856E+08         0.45744E+06         0.00000E+00
    0.45744E+06        -0.97670E+08         0.00000E+00
    0.00000E+00         0.00000E+00        -0.38317E+08
 
   -0.38710E+08         0.41925E+06         0.00000E+00
    0.41925E+06        -0.97679E+08         0.00000E+00
    0.00000E+00         0.00000E+00        -0.38077E+08
 
   -0.38571E+08         0.37637E+06         0.00000E+00
    0.37637E+06        -0.97690E+08         0.00000E+00
    0.00000E+00         0.00000E+00        -0.37835E+08
 
   -0.38441E+08         0.32881E+06         0.00000E+00
    0.32881E+06        -0.97700E+08         0.00000E+00
    0.00000E+00         0.00000E+00        -0.37593E+08
 
   -0.38319E+08         0.27686E+06         0.00000E+00
    0.27686E+06        -0.97709E+08         0.00000E+00
    0.00000E+00         0.00000E+00        -0.37349E+08
 
   -0.38206E+08         0.22113E+06         0.00000E+00
    0.22113E+06        -0.97717E+08         0.00000E+00
    0.00000E+00         0.00000E+00        -0.37104E+08
 
   -0.38103E+08         0.16280E+06         0.00000E+00
    0.16280E+06        -0.97723E+08         0.00000E+00
    0.00000E+00         0.00000E+00        -0.36858E+08
 
   -0.38008E+08         0.10376E+06         0.00000E+00
    0.10376E+06        -0.97725E+08         0.00000E+00
    0.00000E+00         0.00000E+00        -0.36611E+08
 
   -0.37923E+08         0.46940E+05         0.00000E+00
    0.46940E+05        -0.97720E+08         0.00000E+00
    0.00000E+00         0.00000E+00        -0.36364E+08
 
   -0.37846E+08        -0.32961E+04         0.00000E+00
   -0.32961E+04        -0.97706E+08         0.00000E+00
    0.00000E+00         0.00000E+00        -0.36116E+08
 
   -0.37777E+08        -0.40878E+05         0.00000E+00
   -0.40878E+05        -0.97676E+08         0.00000E+00
    0.00000E+00         0.00000E+00        -0.35868E+08
 
   -0.37715E+08        -0.58556E+05         0.00000E+00
   -0.58556E+05        -0.97620E+08         0.00000E+00
    0.00000E+00         0.00000E+00        -0.35620E+08
 
   -0.37667E+08        -0.50921E+05         0.00000E+00
   -0.50921E+05        -0.97519E+08         0.00000E+00
    0.00000E+00         0.00000E+00        -0.35372E+08
 
   -0.37639E+08        -0.20189E+05         0.00000E+00
   -0.20189E+05        -0.97353E+08         0.00000E+00
    0.00000E+00         0.00000E+00        -0.35124E+08
 
   -0.49175E+08        -0.44411E+04         0.00000E+00
   -0.44411E+04        -0.97659E+08         0.00000E+00
    0.00000E+00         0.00000E+00        -0.49966E+08
 
   -0.49167E+08        -0.10432E+05         0.00000E+00
   -0.10432E+05        -0.97614E+08         0.00000E+00
    0.00000E+00         0.00000E+00        -0.49897E+08
 
   -0.49152E+08        -0.95310E+04         0.00000E+00
   -0.95310E+04        -0.97588E+08         0.00000E+00
    0.00000E+00         0.00000E+00        -0.49828E+08
 
   -0.49134E+08        -0.12673E+04         0.00000E+00
   -0.12673E+04        -0.97574E+08         0.00000E+00
    0.00000E+00         0.00000E+00        -0.49760E+08
 
   -0.49112E+08         0.12596E+05         0.00000E+00
    0.12596E+05        -0.97566E+08         0.00000E+00
    0.00000E+00         0.00000E+00        -0.49691E+08
 
   -0.49088E+08         0.29915E+05         0.00000E+00
    0.29915E+05        -0.97563E+08         0.00000E+00
    0.00000E+00         0.00000E+00        -0.49622E+08
 
   -0.49060E+08         0.48999E+05         0.00000E+00
    0.48999E+05        -0.97562E+08         0.00000E+00
    0.00000E+00         0.00000E+00        -0.49553E+08
 
   -0.49029E+08         0.68682E+05         0.00000E+00
    0.68682E+05        -0.97563E+08         0.00000E+00
    0.00000E+00         0.00000E+00        -0.49484E+08
 
   -0.48994E+08         0.88198E+05         0.00000E+00
    0.88198E+05        -0.97564E+08         0.00000E+00
    0.00000E+00         0.00000E+00        -0.49415E+08
 
   -0.48955E+08         0.10707E+06         0.00000E+00
    0.10707E+06        -0.97566E+08         0.00000E+00
    0.00000E+00         0.00000E+00        -0.49345E+08
 
   -0.48913E+08         0.12500E+06         0.00000E+00
    0.12500E+06        -0.97568E+08         0.00000E+00
    0.00000E+00         0.00000E+00        -0.49274E+08
 
   -0.48866E+08         0.14186E+06         0.00000E+00
    0.14186E+06        -0.97571E+08         0.00000E+00
    0.00000E+00         0.00000E+00        -0.49203E+08
 
   -0.48816E+08         0.15759E+06         0.00000E+00
    0.15759E+06        -0.97573E+08         0.00000E+00
    0.00000E+00         0.00000E+00        -0.49132E+08
 
   -0.48763E+08         0.17221E+06         0.00000E+00
    0.17221E+06        -0.97575E+08         0.00000E+00
    0.00000E+00         0.00000E+00        -0.49059E+08
 
   -0.48706E+08         0.18576E+06         0.00000E+00
    0.18576E+06        -0.97577E+08         0.00000E+00
    0.00000E+00         0.00000E+00        -0.48986E+08
 
   -0.48645E+08         0.19833E+06         0.00000E+00
    0.19833E+06        -0.97579E+08         0.00000E+00
    0.00000E+00         0.00000E+00        -0.48912E+08
 
   -0.48582E+08         0.21001E+06         0.00000E+00
    0.21001E+06        -0.97581E+08         0.00000E+00
    0.00000E+00         0.00000E+00        -0.48838E+08
 
   -0.48516E+08         0.22089E+06         0.00000E+00
    0.22089E+06        -0.97582E+08         0.00000E+00
    0.00000E+00         0.00000E+00        -0.48762E+08
 
   -0.48447E+08         0.23108E+06         0.00000E+00
    0.23108E+06        -0.97583E+08         0.00000E+00
    0.00000E+00         0.00000E+00        -0.48685E+08
 
   -0.48376E+08         0.24067E+06         0.00000E+00
    0.24067E+06        -0.97584E+08         0.00000E+00
    0.00000E+00         0.00000E+00        -0.48607E+08
 
   -0.48301E+08         0.24973E+06         0.00000E+00
    0.24973E+06        -0.97585E+08         0.00000E+00
    0.00000E+00         0.00000E+00        -0.48528E+08
 
   -0.48225E+08         0.25836E+06         0.00000E+00
    0.25836E+06        -0.97586E+08         0.00000E+00
    0.00000E+00         0.00000E+00        -0.48448E+08
 
   -0.48146E+08         0.26663E+06         0.00000E+00
    0.26663E+06        -0.97586E+08         0.00000E+00
    0.00000E+00         0.00000E+00        -0.48366E+08
 
   -0.48064E+08         0.27459E+06         0.00000E+00
    0.27459E+06        -0.97587E+08         0.00000E+00
    0.00000E+00         0.00000E+00        -0.48283E+08
 
   -0.47981E+08         0.28231E+06         0.00000E+00
    0.28231E+06        -0.97587E+08         0.00000E+00
    0.00000E+00         0.00000E+00        -0.48199E+08
 
   -0.47895E+08         0.28984E+06         0.00000E+00
    0.28984E+06        -0.97588E+08         0.00000E+00
    0.00000E+00         0.00000E+00        -0.48113E+08
 
   -0.47807E+08         0.29723E+06         0.00000E+00
    0.29723E+06        -0.97588E+08         0.00000E+00
    0.00000E+00         0.00000E+00        -0.48025E+08
 
   -0.47716E+08         0.30450E+06         0.00000E+00
    0.30450E+06        -0.97588E+08         0.00000E+00
    0.00000E+00         0.00000E+00        -0.47936E+08
 
   -0.47624E+08         0.31169E+06         0.00000E+00
    0.31169E+06        -0.97588E+08         0.00000E+00
    0.00000E+00         0.00000E+00        -0.47846E+08
 
   -0.47529E+08         0.31883E+06         0.00000E+00
    0.31883E+06        -0.97588E+08         0.00000E+00
    0.00000E+00         0.00000E+00        -0.47753E+08
 
   -0.47433E+08         0.32595E+06         0.00000E+00
    0.32595E+06        -0.97588E+08         0.00000E+00
    0.00000E+00         0.00000E+00        -0.47659E+08
 
   -0.47334E+08         0.33306E+06         0.00000E+00
    0.33306E+06        -0.97588E+08         0.00000E+00
    0.00000E+00         0.00000E+00        -0.47563E+08
 
   -0.47233E+08         0.34018E+06         0.00000E+00
    0.34018E+06        -0.97588E+08         0.00000E+00
    0.00000E+00         0.00000E+00        -0.47465E+08
 
   -0.47130E+08         0.34732E+06         0.00000E+00
    0.34732E+06        -0.97588E+08         0.00000E+00
    0.00000E+00         0.00000E+00        -0.47365E+08
 
   -0.47024E+08         0.35450E+06         0.00000E+00
    0.35450E+06        -0.97588E+08         0.00000E+00
    0.00000E+00         0.00000E+00        -0.47263E+08
 
   -0.46917E+08         0.36173E+06         0.00000E+00
    0.36173E+06        -0.97588E+08         0.00000E+00
    0.00000E+00         0.00000E+00        -0.47159E+08
 
   -0.46807E+08         0.36901E+06         0.00000E+00
    0.36901E+06        -0.97588E+08         0.00000E+00
    0.00000E+00         0.00000E+00        -0.47053E+08
 
   -0.46695E+08         0.37635E+06         0.00000E+00
    0.37635E+06        -0.97588E+08         0.00000E+00
    0.00000E+00         0.00000E+00        -0.46945E+08
 
   -0.46581E+08         0.38375E+06         0.00000E+00
    0.38375E+06        -0.97588E+08         0.00000E+00
    0.00000E+00         0.00000E+00        -0.46834E+08
 
   -0.46464E+08         0.39121E+06         0.00000E+00
    0.39121E+06        -0.97588E+08         0.00000E+00
    0.00000E+00         0.00000E+00        -0.46721E+08
 
   -0.46345E+08         0.39874E+06         0.00000E+00
    0.39874E+06        -0.97587E+08         0.00000E+00
    0.00000E+00         0.00000E+00        -0.46606E+08
 
   -0.46224E+08         0.40633E+06         0.00000E+00
    0.40633E+06        -0.97587E+08         0.00000E+00
    0.00000E+00         0.00000E+00        -0.46488E+08
 
   -0.46101E+08         0.41398E+06         0.00000E+00
    0.41398E+06        -0.97587E+08         0.00000E+00
    0.00000E+00         0.00000E+00        -0.46368E+08
 
   -0.45975E+08         0.42169E+06         0.00000E+00
    0.42169E+06        -0.97587E+08         0.00000E+00
    0.00000E+00         0.00000E+00        -0.46246E+08
 
   -0.45847E+08         0.42945E+06         0.00000E+00
    0.42945E+06        -0.97587E+08         0.00000E+00
    0.00000E+00         0.00000E+00        -0.46121E+08
 
   -0.45716E+08         0.43726E+06         0.00000E+00
    0.43726E+06        -0.97587E+08         0.00000E+00
    0.00000E+00         0.00000E+00        -0.45993E+08
 
   -0.45583E+08         0.44512E+06         0.00000E+00
    0.44512E+06        -0.97587E+08         0.00000E+00
    0.00000E+00         0.00000E+00        -0.45863E+08
 
   -0.45448E+08         0.45301E+06         0.00000E+00
    0.45301E+06        -0.97587E+08         0.00000E+00
    0.00000E+00         0.00000E+00        -0.45730E+08
 
   -0.45310E+08         0.46092E+06         0.00000E+00
    0.46092E+06        -0.97587E+08         0.00000E+00
    0.00000E+00         0.00000E+00        -0.45594E+08
 
   -0.45170E+08         0.46886E+06         0.00000E+00
    0.46886E+06        -0.97587E+08         0.00000E+00
    0.00000E+00         0.00000E+00        -0.45456E+08
 
   -0.45027E+08         0.47679E+06         0.00000E+00
    0.47679E+06        -0.97587E+08         0.00000E+00
    0.00000E+00         0.00000E+00        -0.45314E+08
 
   -0.44882E+08         0.48472E+06         0.00000E+00
    0.48472E+06        -0.97587E+08         0.00000E+00
    0.00000E+00         0.00000E+00        -0.45170E+08
 
   -0.44734E+08         0.49263E+06         0.00000E+00
    0.49263E+06        -0.97587E+08         0.00000E+00
    0.00000E+00         0.00000E+00        -0.45023E+08
 
   -0.44584E+08         0.50050E+06         0.00000E+00
    0.50050E+06        -0.97587E+08         0.00000E+00
    0.00000E+00         0.00000E+00        -0.44874E+08
 
   -0.44431E+08         0.50832E+06         0.00000E+00
    0.50832E+06        -0.97587E+08         0.00000E+00
    0.00000E+00         0.00000E+00        -0.44721E+08
 
   -0.44277E+08         0.51607E+06         0.00000E+00
    0.51607E+06        -0.97587E+08         0.00000E+00
    0.00000E+00         0.00000E+00        -0.44565E+08
 
   -0.44119E+08         0.52372E+06         0.00000E+00
    0.52372E+06        -0.97587E+08         0.00000E+00
    0.00000E+00         0.00000E+00        -0.44407E+08
 
   -0.43959E+08         0.53127E+06         0.00000E+00
    0.53127E+06        -0.97588E+08         0.00000E+00
    0.00000E+00         0.00000E+00        -0.44245E+08
 
   -0.43797E+08         0.53868E+06         0.00000E+00
    0.53868E+06        -0.97588E+08         0.00000E+00
    0.00000E+00         0.00000E+00        -0.44081E+08
 
   -0.43633E+08         0.54592E+06         0.00000E+00
    0.54592E+06        -0.97588E+08         0.00000E+00
    0.00000E+00         0.00000E+00        -0.43913E+08
 
   -0.43466E+08         0.55297E+06         0.00000E+00
    0.55297E+06        -0.97589E+08         0.00000E+00
    0.00000E+00         0.00000E+00        -0.43742E+08
 
   -0.43297E+08         0.55981E+06         0.00000E+00
    0.55981E+06        -0.97589E+08         0.00000E+00
    0.00000E+00         0.00000E+00        -0.43569E+08
 
   -0.43126E+08         0.56638E+06         0.00000E+00
    0.56638E+06        -0.97589E+08         0.00000E+00
    0.00000E+00         0.00000E+00        -0.43392E+08
 
   -0.42953E+08         0.57266E+06         0.00000E+00
    0.57266E+06        -0.97590E+08         0.00000E+00
    0.00000E+00         0.00000E+00        -0.43213E+08
 
   -0.42778E+08         0.57860E+06         0.00000E+00
    0.57860E+06        -0.97591E+08         0.00000E+00
    0.00000E+00         0.00000E+00        -0.43030E+08
 
   -0.42601E+08         0.58415E+06         0.00000E+00
    0.58415E+06        -0.97591E+08         0.00000E+00
    0.00000E+00         0.00000E+00        -0.42844E+08
 
   -0.42423E+08         0.58927E+06         0.00000E+00
    0.58927E+06        -0.97592E+08         0.00000E+00
    0.00000E+00         0.00000E+00        -0.42656E+08
 
   -0.42243E+08         0.59389E+06         0.00000E+00
    0.59389E+06        -0.97593E+08         0.00000E+00
    0.00000E+00         0.00000E+00        -0.42464E+08
 
   -0.42061E+08         0.59795E+06         0.00000E+00
    0.59795E+06        -0.97594E+08         0.00000E+00
    0.00000E+00         0.00000E+00        -0.42270E+08
 
   -0.41878E+08         0.60138E+06         0.00000E+00
    0.60138E+06        -0.97595E+08         0.00000E+00
    0.00000E+00         0.00000E+00        -0.42072E+08
 
   -0.41694E+08         0.60410E+06         0.00000E+00
    0.60410E+06        -0.97596E+08         0.00000E+00
    0.00000E+00         0.00000E+00        -0.41872E+08
 
   -0.41509E+08         0.60602E+06         0.00000E+00
    0.60602E+06        -0.97598E+08         0.00000E+00
    0.00000E+00         0.00000E+00        -0.41669E+08
 
   -0.41323E+08         0.60702E+06         0.00000E+00
    0.60702E+06        -0.97599E+08         0.00000E+00
    0.00000E+00         0.00000E+00        -0.41463E+08
 
   -0.41137E+08         0.60700E+06         0.00000E+00
    0.60700E+06        -0.97601E+08         0.00000E+00
    0.00000E+00         0.00000E+00        -0.41254E+08
 
   -0.40951E+08         0.60583E+06         0.00000E+00
    0.60583E+06        -0.97603E+08         0.00000E+00
    0.00000E+00         0.00000E+00        -0.41042E+08
 
   -0.40765E+08         0.60336E+06         0.00000E+00
    0.60336E+06        -0.97606E+08         0.00000E+00
    0.00000E+00         0.00000E+00        -0.40828E+08
 
   -0.40580E+08         0.59943E+06         0.00000E+00
    0.59943E+06        -0.97608E+08         0.00000E+00
    0.00000E+00         0.00000E+00        -0.40611E+08
 
   -0.40396E+08         0.59384E+06         0.00000E+00
    0.59384E+06        -0.97611E+08         0.00000E+00
    0.00000E+00         0.00000E+00        -0.40392E+08
 
   -0.40213E+08         0.58640E+06         0.00000E+00
    0.58640E+06        -0.97615E+08         0.00000E+00
    0.00000E+00         0.00000E+00        -0.40170E+08
 
   -0.40032E+08         0.57686E+06         0.00000E+00
    0.57686E+06        -0.97619E+08         0.00000E+00
    0.00000E+00         0.00000E+00        -0.39946E+08
 
   -0.39853E+08         0.56498E+06         0.00000E+00
    0.56498E+06        -0.97623E+08         0.00000E+00
    0.00000E+00         0.00000E+00        -0.39719E+08
 
   -0.39677E+08         0.55047E+06         0.00000E+00
    0.55047E+06        -0.97628E+08         0.00000E+00
    0.00000E+00         0.00000E+00        -0.39491E+08
 
   -0.39505E+08         0.53304E+06         0.00000E+00
    0.53304E+06        -0.97634E+08         0.00000E+00
    0.00000E+00         0.00000E+00        -0.39260E+08
 
   -0.39337E+08         0.51237E+06         0.00000E+00
    0.51237E+06        -0.97640E+08         0.00000E+00
    0.00000E+00         0.00000E+00        -0.39027E+08
 
   -0.39175E+08         0.48814E+06         0.00000E+00
    0.48814E+06        -0.97647E+08         0.00000E+00
    0.00000E+00         0.00000E+00        -0.38792E+08
 
   -0.39017E+08         0.46002E+06         0.00000E+00
    0.46002E+06        -0.97655E+08         0.00000E+00
    0.00000E+00         0.00000E+00        -0.38555E+08
 
   -0.38867E+08         0.42773E+06         0.00000E+00
    0.42773E+06        -0.97663E+08         0.00000E+00
    0.00000E+00         0.00000E+00        -0.38317E+08
 
   -0.38723E+08         0.39101E+06         0.00000E+00
    0.39101E+06        -0.97672E+08         0.00000E+00
    0.00000E+00         0.00000E+00        -0.38077E+08
 
   -0.38588E+08         0.34974E+06         0.00000E+00
    0.34974E+06        -0.97681E+08         0.00000E+00
    0.00000E+00         0.00000E+00        -0.37835E+08
 
   -0.38461E+08         0.30393E+06         0.00000E+00
    0.30393E+06        -0.97690E+08         0.00000E+00
    0.00000E+00         0.00000E+00        -0.37593E+08
 
   -0.38343E+08         0.25381E+06         0.00000E+00
    0.25381E+06        -0.97698E+08         0.00000E+00
    0.00000E+00         0.00000E+00        -0.37349E+08
 
   -0.38235E+08         0.20001E+06         0.00000E+00
    0.20001E+06        -0.97706E+08         0.00000E+00
    0.00000E+00         0.00000E+00        -0.37104E+08
 
   -0.38137E+08         0.14361E+06         0.00000E+00
    0.14361E+06        -0.97711E+08         0.00000E+00
    0.00000E+00         0.00000E+00        -0.36858E+08
 
   -0.38049E+08         0.86429E+05         0.00000E+00
    0.86429E+05        -0.97713E+08         0.00000E+00
    0.00000E+00         0.00000E+00        -0.36611E+08
 
   -0.37969E+08         0.31320E+05         0.00000E+00
    0.31320E+05        -0.97710E+08         0.00000E+00
    0.00000E+00         0.00000E+00        -0.36364E+08
 
   -0.37898E+08        -0.17439E+05         0.00000E+00
   -0.17439E+05        -0.97697E+08         0.00000E+00
    0.00000E+00         0.00000E+00        -0.36116E+08
 
   -0.37834E+08        -0.53687E+05         0.00000E+00
   -0.53687E+05        -0.97671E+08         0.00000E+00
    0.00000E+00         0.00000E+00        -0.35868E+08
 
   -0.37777E+08        -0.69653E+05         0.00000E+00
   -0.69653E+05        -0.97619E+08         0.00000E+00
    0.00000E+00         0.00000E+00        -0.35620E+08
 
   -0.37730E+08        -0.58948E+05         0.00000E+00
   -0.58948E+05        -0.97524E+08         0.00000E+00
    0.00000E+00         0.00000E+00        -0.35372E+08
 
   -0.37703E+08        -0.23194E+05         0.00000E+00
   -0.23194E+05        -0.97361E+08         0.00000E+00
    0.00000E+00         0.00000E+00        -0.35124E+08
 
   -0.49156E+08        -0.53574E+04         0.00000E+00
   -0.53574E+04        -0.97657E+08         0.00000E+00
    0.00000E+00         0.00000E+00        -0.49966E+08
 
   -0.49147E+08        -0.12867E+05         0.00000E+00
   -0.12867E+05        -0.97613E+08         0.00000E+00
    0.00000E+00         0.00000E+00        -0.49897E+08
 
   -0.49133E+08        -0.12892E+05         0.00000E+00
   -0.12892E+05        -0.97589E+08         0.00000E+00
    0.00000E+00         0.00000E+00        -0.49828E+08
 
   -0.49116E+08        -0.51879E+04         0.00000E+00
   -0.51879E+04        -0.97576E+08         0.00000E+00
    0.00000E+00         0.00000E+00        -0.49760E+08
 
   -0.49096E+08         0.81679E+04         0.00000E+00
    0.81679E+04        -0.97569E+08         0.00000E+00
    0.00000E+00         0.00000E+00        -0.49691E+08
 
   -0.49073E+08         0.24892E+05         0.00000E+00
    0.24892E+05        -0.97567E+08         0.00000E+00
    0.00000E+00         0.00000E+00        -0.49622E+08
 
   -0.49047E+08         0.43285E+05         0.00000E+00
    0.43285E+05        -0.97566E+08         0.00000E+00
    0.00000E+00         0.00000E+00        -0.49553E+08
 
   -0.49018E+08         0.62214E+05         0.00000E+00
    0.62214E+05        -0.97566E+08         0.00000E+00
    0.00000E+00         0.00000E+00        -0.49484E+08
 
   -0.48984E+08         0.80946E+05         0.00000E+00
    0.80946E+05        -0.97568E+08         0.00000E+00
    0.00000E+00         0.00000E+00        -0.49415E+08
 
   -0.48946E+08         0.99023E+05         0.00000E+00
    0.99023E+05        -0.97570E+08         0.00000E+00
    0.00000E+00         0.00000E+00        -0.49345E+08
 
   -0.48905E+08         0.11618E+06         0.00000E+00
    0.11618E+06        -0.97572E+08         0.00000E+00
    0.00000E+00         0.00000E+00        -0.49274E+08
 
   -0.48859E+08         0.13228E+06         0.00000E+00
    0.13228E+06        -0.97574E+08         0.00000E+00
    0.00000E+00         0.00000E+00        -0.49203E+08
 
   -0.48810E+08         0.14728E+06         0.00000E+00
    0.14728E+06        -0.97576E+08         0.00000E+00
    0.00000E+00         0.00000E+00        -0.49132E+08
 
   -0.48757E+08         0.16120E+06         0.00000E+00
    0.16120E+06        -0.97578E+08         0.00000E+00
    0.00000E+00         0.00000E+00        -0.49059E+08
 
   -0.48700E+08         0.17409E+06         0.00000E+00
    0.17409E+06        -0.97580E+08         0.00000E+00
    0.00000E+00         0.00000E+00        -0.48986E+08
 
   -0.48640E+08         0.18602E+06         0.00000E+00
    0.18602E+06        -0.97581E+08         0.00000E+00
    0.00000E+00         0.00000E+00        -0.48912E+08
 
   -0.48577E+08         0.19710E+06         0.00000E+00
    0.19710E+06        -0.97583E+08         0.00000E+00
    0.00000E+00         0.00000E+00        -0.48838E+08
 
   -0.48511E+08         0.20740E+06         0.00000E+00
    0.20740E+06        -0.97584E+08         0.00000E+00
    0.00000E+00         0.00000E+00        -0.48762E+08
 
   -0.48443E+08         0.21704E+06         0.00000E+00
    0.21704E+06        -0.97585E+08         0.00000E+00
    0.00000E+00         0.00000E+00        -0.48685E+08
 
   -0.48371E+08         0.22609E+06         0.00000E+00
    0.22609E+06        -0.97586E+08         0.00000E+00
    0.00000E+00         0.00000E+00        -0.48607E+08
 
   -0.48297E+08         0.23465E+06         0.00000E+00
    0.23465E+06        -0.97587E+08         0.00000E+00
    0.00000E+00         0.00000E+00        -0.48528E+08
 
   -0.48220E+08         0.24279E+06         0.00000E+00
    0.24279E+06        -0.97587E+08         0.00000E+00
    0.00000E+00         0.00000E+00        -0.48448E+08
 
   -0.48141E+08         0.25058E+06         0.00000E+00
    0.25058E+06        -0.97588E+08         0.00000E+00
    0.00000E+00         0.00000E+00        -0.48366E+08
 
   -0.48060E+08         0.25808E+06         0.00000E+00
    0.25808E+06        -0.97588E+08         0.00000E+00
    0.00000E+00         0.00000E+00        -0.48283E+08
 
   -0.47976E+08         0.26535E+06         0.00000E+00
    0.26535E+06        -0.97589E+08         0.00000E+00
    0.00000E+00         0.00000E+00        -0.48199E+08
 
   -0.47890E+08         0.27244E+06         0.00000E+00
    0.27244E+06        -0.97589E+08         0.00000E+00
    0.00000E+00         0.00000E+00        -0.48113E+08
 
   -0.47802E+08         0.27938E+06         0.00000E+00
    0.27938E+06        -0.97589E+08         0.00000E+00
    0.00000E+00         0.00000E+00        -0.48025E+08
 
   -0.47712E+08         0.28622E+06         0.00000E+00
    0.28622E+06        -0.97589E+08         0.00000E+00
    0.00000E+00         0.00000E+00        -0.47936E+08
 
   -0.47619E+08         0.29298E+06         0.00000E+00
    0.29298E+06        -0.97590E+08         0.00000E+00
    0.00000E+00         0.00000E+00        -0.47846E+08
 
   -0.47524E+08         0.29969E+06         0.00000E+00
    0.29969E+06        -0.97590E+08         0.00000E+00
    0.00000E+00         0.00000E+00        -0.47753E+08
 
   -0.47428E+08         0.30638E+06         0.00000E+00
    0.30638E+06        -0.97590E+08         0.00000E+00
    0.00000E+00         0.00000E+00        -0.47659E+08
 
   -0.47329E+08         0.31306E+06         0.00000E+00
    0.31306E+06        -0.97590E+08         0.00000E+00
    0.00000E+00         0.00000E+00        -0.47563E+08
 
   -0.47228E+08         0.31975E+06         0.00000E+00
    0.31975E+06        -0.97590E+08         0.00000E+00
    0.00000E+00         0.00000E+00        -0.47465E+08
 
   -0.47124E+08         0.32646E+06         0.00000E+00
    0.32646E+06        -0.97590E+08         0.00000E+00
    0.00000E+00         0.00000E+00        -0.47365E+08
 
   -0.47019E+08         0.33320E+06         0.00000E+00
    0.33320E+06        -0.97589E+08         0.00000E+00
    0.00000E+00         0.00000E+00        -0.47263E+08
 
   -0.46911E+08         0.33999E+06         0.00000E+00
    0.33999E+06        -0.97589E+08         0.00000E+00
    0.00000E+00         0.00000E+00        -0.47159E+08
 
   -0.46801E+08         0.34683E+06         0.00000E+00
    0.34683E+06        -0.97589E+08         0.00000E+00
    0.00000E+00         0.00000E+00        -0.47053E+08
 
   -0.46689E+08         0.35372E+06         0.00000E+00
    0.35372E+06        -0.97589E+08         0.00000E+00
    0.00000E+00         0.00000E+00        -0.46945E+08
 
   -0.46575E+08         0.36066E+06         0.00000E+00
    0.36066E+06        -0.97589E+08         0.00000E+00
    0.00000E+00         0.00000E+00        -0.46834E+08
 
   -0.46458E+08         0.36767E+06         0.00000E+00
    0.36767E+06        -0.97589E+08         0.00000E+00
    0.00000E+00         0.00000E+00        -0.46721E+08
 
   -0.46339E+08         0.37474E+06         0.00000E+00
    0.37474E+06        -0.97589E+08         0.00000E+00
    0.00000E+00         0.00000E+00        -0.46606E+08
 
   -0.46218E+08         0.38186E+06         0.00000E+00
    0.38186E+06        -0.97589E+08         0.00000E+00
    0.00000E+00         0.00000E+00        -0.46488E+08
 
   -0.46094E+08         0.38904E+06         0.00000E+00
    0.38904E+06        -0.97589E+08         0.00000E+00
    0.00000E+00         0.00000E+00        -0.46368E+08
 
   -0.45969E+08         0.39628E+06         0.00000E+00
    0.39628E+06        -0.97589E+08         0.00000E+00
    0.00000E+00         0.00000E+00        -0.46246E+08
 
   -0.45840E+08         0.40357E+06         0.00000E+00
    0.40357E+06        -0.97589E+08         0.00000E+00
    0.00000E+00         0.00000E+00        -0.46121E+08
 
   -0.45710E+08         0.41090E+06         0.00000E+00
    0.41090E+06        -0.97589E+08         0.00000E+00
    0.00000E+00         0.00000E+00        -0.45993E+08
 
   -0.45577E+08         0.41827E+06         0.00000E+00
    0.41827E+06        -0.97589E+08         0.00000E+00
    0.00000E+00         0.00000E+00        -0.45863E+08
 
   -0.45441E+08         0.42568E+06         0.00000E+00
    0.42568E+06        -0.97588E+08         0.00000E+00
    0.00000E+00         0.00000E+00        -0.45730E+08
 
   -0.45303E+08         0.43310E+06         0.00000E+00
    0.43310E+06        -0.97588E+08         0.00000E+00
    0.00000E+00         0.00000E+00        -0.45594E+08
 
   -0.45163E+08         0.44055E+06         0.00000E+00
    0.44055E+06        -0.97588E+08         0.00000E+00
    0.00000E+00         0.00000E+00        -0.45456E+08
 
   -0.45020E+08         0.44799E+06         0.00000E+00
    0.44799E+06        -0.97588E+08         0.00000E+00
    0.00000E+00         0.00000E+00        -0.45314E+08
 
   -0.44875E+08         0.45543E+06         0.00000E+00
    0.45543E+06        -0.97588E+08         0.00000E+00
    0.00000E+00         0.00000E+00        -0.45170E+08
 
   -0.44727E+08         0.46285E+06         0.00000E+00
    0.46285E+06        -0.97589E+08         0.00000E+00
    0.00000E+00         0.00000E+00        -0.45023E+08
 
   -0.44577E+08         0.47023E+06         0.00000E+00
    0.47023E+06        -0.97589E+08         0.00000E+00
    0.00000E+00         0.00000E+00        -0.44874E+08
 
   -0.44424E+08         0.47756E+06         0.00000E+00
    0.47756E+06        -0.97589E+08         0.00000E+00
    0.00000E+00         0.00000E+00        -0.44721E+08
 
   -0.44269E+08         0.48483E+06         0.00000E+00
    0.48483E+06        -0.97589E+08         0.00000E+00
    0.00000E+00         0.00000E+00        -0.44565E+08
 
   -0.44112E+08         0.49201E+06         0.00000E+00
    0.49201E+06        -0.97589E+08         0.00000E+00
    0.00000E+00         0.00000E+00        -0.44407E+08
 
   -0.43952E+08         0.49908E+06         0.00000E+00
    0.49908E+06        -0.97589E+08         0.00000E+00
    0.00000E+00         0.00000E+00        -0.44245E+08
 
   -0.43790E+08         0.50603E+06         0.00000E+00
    0.50603E+06        -0.97589E+08         0.00000E+00
    0.00000E+00         0.00000E+00        -0.44081E+08
 
   -0.43626E+08         0.51282E+06         0.00000E+00
    0.51282E+06        -0.97590E+08         0.00000E+00
    0.00000E+00         0.00000E+00        -0.43913E+08
 
   -0.43459E+08         0.51943E+06         0.00000E+00
    0.51943E+06        -0.97590E+08         0.00000E+00
    0.00000E+00         0.00000E+00        -0.43742E+08
 
   -0.43290E+08         0.52583E+06         0.00000E+00
    0.52583E+06        -0.97590E+08         0.00000E+00
    0.00000E+00         0.00000E+00        -0.43569E+08
 
   -0.43119E+08         0.53198E+06         0.00000E+00
    0.53198E+06        -0.97591E+08         0.00000E+00
    0.00000E+00         0.00000E+00        -0.43392E+08
 
   -0.42946E+08         0.53786E+06         0.00000E+00
    0.53786E+06        -0.97591E+08         0.00000E+00
    0.00000E+00         0.00000E+00        -0.43213E+08
 
   -0.42772E+08         0.54342E+06         0.00000E+00
    0.54342E+06        -0.97592E+08         0.00000E+00
    0.00000E+00         0.00000E+00        -0.43030E+08
 
   -0.42595E+08         0.54861E+06         0.00000E+00
    0.54861E+06        -0.97592E+08         0.00000E+00
    0.00000E+00         0.00000E+00        -0.42844E+08
 
   -0.42416E+08         0.55340E+06         0.00000E+00
    0.55340E+06        -0.97593E+08         0.00000E+00
    0.00000E+00         0.00000E+00        -0.42656E+08
 
   -0.42236E+08         0.55771E+06         0.00000E+00
    0.55771E+06        -0.97594E+08         0.00000E+00
    0.00000E+00         0.00000E+00        -0.42464E+08
 
   -0.42055E+08         0.56150E+06         0.00000E+00
    0.56150E+06        -0.97595E+08         0.00000E+00
    0.00000E+00         0.00000E+00        -0.42270E+08
 
   -0.41872E+08         0.56470E+06         0.00000E+00
    0.56470E+06        -0.97596E+08         0.00000E+00
    0.00000E+00         0.00000E+00        -0.42072E+08
 
   -0.41688E+08         0.56722E+06         0.00000E+00
    0.56722E+06        -0.97597E+08         0.00000E+00
    0.00000E+00         0.00000E+00        -0.41872E+08
 
   -0.41504E+08         0.56898E+06         0.00000E+00
    0.56898E+06        -0.97598E+08         0.00000E+00
    0.00000E+00         0.00000E+00        -0.41669E+08
 
   -0.41318E+08         0.56988E+06         0.00000E+00
    0.56988E+06        -0.97599E+08         0.00000E+00
    0.00000E+00         0.00000E+00        -0.41463E+08
 
   -0.41133E+08         0.56982E+06         0.00000E+00
    0.56982E+06        -0.97601E+08         0.00000E+00
    0.00000E+00         0.00000E+00        -0.41254E+08
 
   -0.40947E+08         0.56866E+06         0.00000E+00
    0.56866E+06        -0.97603E+08         0.00000E+00
    0.00000E+00         0.00000E+00        -0.41042E+08
 
   -0.40761E+08         0.56628E+06         0.00000E+00
    0.56628E+06        -0.97605E+08         0.00000E+00
    0.00000E+00         0.00000E+00        -0.40828E+08
 
   -0.40577E+08         0.56250E+06         0.00000E+00
    0.56250E+06        -0.97607E+08         0.00000E+00
    0.00000E+00         0.00000E+00        -0.40611E+08
 
   -0.40393E+08         0.55716E+06         0.00000E+00
    0.55716E+06        -0.97610E+08         0.00000E+00
    0.00000E+00         0.00000E+00        -0.40392E+08
 
   -0.40211E+08         0.55006E+06         0.00000E+00
    0.55006E+06        -0.97613E+08         0.00000E+00
    0.00000E+00         0.00000E+00        -0.40170E+08
 
   -0.40030E+08         0.54096E+06         0.00000E+00
    0.54096E+06        -0.97617E+08         0.00000E+00
    0.00000E+00         0.00000E+00        -0.39946E+08
 
   -0.39853E+08         0.52963E+06         0.00000E+00
    0.52963E+06        -0.97621E+08         0.00000E+00
    0.00000E+00         0.00000E+00        -0.39719E+08
 
   -0.39678E+08         0.51580E+06         0.00000E+00
    0.51580E+06        -0.97625E+08         0.00000E+00
    0.00000E+00         0.00000E+00        -0.39491E+08
 
   -0.39507E+08         0.49917E+06         0.00000E+00
    0.49917E+06        -0.97630E+08         0.00000E+00
    0.00000E+00         0.00000E+00        -0.39260E+08
 
   -0.39341E+08         0.47944E+06         0.00000E+00
    0.47944E+06        -0.97636E+08         0.00000E+00
    0.00000E+00         0.00000E+00        -0.39027E+08
 
   -0.39180E+08         0.45630E+06         0.00000E+00
    0.45630E+06        -0.97642E+08         0.00000E+00
    0.00000E+00         0.00000E+00        -0.38792E+08
 
   -0.39025E+08         0.42942E+06         0.00000E+00
    0.42942E+06        -0.97649E+08         0.00000E+00
    0.00000E+00         0.00000E+00        -0.38555E+08
 
   -0.38876E+08         0.39852E+06         0.00000E+00
    0.39852E+06        -0.97656E+08         0.00000E+00
    0.00000E+00         0.00000E+00        -0.38317E+08
 
   -0.38736E+08         0.36336E+06         0.00000E+00
    0.36336E+06        -0.97664E+08         0.00000E+00
    0.00000E+00         0.00000E+00        -0.38077E+08
 
   -0.38603E+08         0.32380E+06         0.00000E+00
    0.32380E+06        -0.97672E+08         0.00000E+00
    0.00000E+00         0.00000E+00        -0.37835E+08
 
   -0.38480E+08         0.27983E+06         0.00000E+00
    0.27983E+06        -0.97680E+08         0.00000E+00
    0.00000E+00         0.00000E+00        -0.37593E+08
 
   -0.38366E+08         0.23167E+06         0.00000E+00
    0.23167E+06        -0.97688E+08         0.00000E+00
    0.00000E+00         0.00000E+00        -0.37349E+08
 
   -0.38263E+08         0.17989E+06         0.00000E+00
    0.17989E+06        -0.97695E+08         0.00000E+00
    0.00000E+00         0.00000E+00        -0.37104E+08
 
   -0.38170E+08         0.12553E+06         0.00000E+00
    0.12553E+06        -0.97700E+08         0.00000E+00
    0.00000E+00         0.00000E+00        -0.36858E+08
 
   -0.38088E+08         0.70312E+05         0.00000E+00
    0.70312E+05        -0.97702E+08         0.00000E+00
    0.00000E+00         0.00000E+00        -0.36611E+08
 
   -0.38015E+08         0.16958E+05         0.00000E+00
    0.16958E+05        -0.97699E+08         0.00000E+00
    0.00000E+00         0.00000E+00        -0.36364E+08
 
   -0.37951E+08        -0.30366E+05         0.00000E+00
   -0.30366E+05        -0.97689E+08         0.00000E+00
    0.00000E+00         0.00000E+00        -0.36116E+08
 
   -0.37892E+08        -0.65472E+05         0.00000E+00
   -0.65472E+05        -0.97665E+08         0.00000E+00
    0.00000E+00         0.00000E+00        -0.35868E+08
 
   -0.37839E+08        -0.80091E+05         0.00000E+00
   -0.80091E+05        -0.97618E+08         0.00000E+00
    0.00000E+00         0.00000E+00        -0.35620E+08
 
   -0.37796E+08        -0.66715E+05         0.00000E+00
   -0.66715E+05        -0.97529E+08         0.00000E+00
    0.00000E+00         0.00000E+00        -0.35372E+08
 
   -0.37769E+08        -0.26158E+05         0.00000E+00
   -0.26158E+05        -0.97371E+08         0.00000E+00
    0.00000E+00         0.00000E+00        -0.35124E+08
 
   -0.49136E+08        -0.62647E+04         0.00000E+00
   -0.62647E+04        -0.97655E+08         0.00000E+00
    0.00000E+00         0.00000E+00        -0.49966E+08
 
   -0.49128E+08        -0.15229E+05         0.00000E+00
   -0.15229E+05        -0.97612E+08         0.00000E+00
    0.00000E+00         0.00000E+00        -0.49897E+08
 
   -0.49114E+08        -0.16060E+05         0.00000E+00
   -0.16060E+05        -0.97590E+08         0.00000E+00
    0.00000E+00         0.00000E+00        -0.49828E+08
 
   -0.49098E+08        -0.88154E+04         0.00000E+00
   -0.88154E+04        -0.97578E+08         0.00000E+00
    0.00000E+00         0.00000E+00        -0.49760E+08
 
   -0.49080E+08         0.40766E+04         0.00000E+00
    0.40766E+04        -0.97573E+08         0.00000E+00
    0.00000E+00         0.00000E+00        -0.49691E+08
 
   -0.49059E+08         0.20206E+05         0.00000E+00
    0.20206E+05        -0.97570E+08         0.00000E+00
    0.00000E+00         0.00000E+00        -0.49622E+08
 
   -0.49035E+08         0.37886E+05         0.00000E+00
    0.37886E+05        -0.97570E+08         0.00000E+00
    0.00000E+00         0.00000E+00        -0.49553E+08
 
   -0.49006E+08         0.56028E+05         0.00000E+00
    0.56028E+05        -0.97570E+08         0.00000E+00
    0.00000E+00         0.00000E+00        -0.49484E+08
 
   -0.48974E+08         0.73939E+05         0.00000E+00
    0.73939E+05        -0.97571E+08         0.00000E+00
    0.00000E+00         0.00000E+00        -0.49415E+08
 
   -0.48938E+08         0.91190E+05         0.00000E+00
    0.91190E+05        -0.97573E+08         0.00000E+00
    0.00000E+00         0.00000E+00        -0.49345E+08
 
   -0.48897E+08         0.10753E+06         0.00000E+00
    0.10753E+06        -0.97575E+08         0.00000E+00
    0.00000E+00         0.00000E+00        -0.49274E+08
 
   -0.48852E+08         0.12285E+06         0.00000E+00
    0.12285E+06        -0.97577E+08         0.00000E+00
    0.00000E+00         0.00000E+00        -0.49203E+08
 
   -0.48803E+08         0.13709E+06         0.00000E+00
    0.13709E+06        -0.97579E+08         0.00000E+00
    0.00000E+00         0.00000E+00        -0.49132E+08
 
   -0.48751E+08         0.15029E+06         0.00000E+00
    0.15029E+06        -0.97580E+08         0.00000E+00
    0.00000E+00         0.00000E+00        -0.49059E+08
 
   -0.48695E+08         0.16249E+06         0.00000E+00
    0.16249E+06        -0.97582E+08         0.00000E+00
    0.00000E+00         0.00000E+00        -0.48986E+08
 
   -0.48635E+08         0.17377E+06         0.00000E+00
    0.17377E+06        -0.97584E+08         0.00000E+00
    0.00000E+00         0.00000E+00        -0.48912E+08
 
   -0.48573E+08         0.18422E+06         0.00000E+00
    0.18422E+06        -0.97585E+08         0.00000E+00
    0.00000E+00         0.00000E+00        -0.48838E+08
 
   -0.48507E+08         0.19394E+06         0.00000E+00
    0.19394E+06        -0.97586E+08         0.00000E+00
    0.00000E+00         0.00000E+00        -0.48762E+08
 
   -0.48438E+08         0.20302E+06         0.00000E+00
    0.20302E+06        -0.97587E+08         0.00000E+00
    0.00000E+00         0.00000E+00        -0.48685E+08
 
   -0.48367E+08         0.21154E+06         0.00000E+00
    0.21154E+06        -0.97588E+08         0.00000E+00
    0.00000E+00         0.00000E+00        -0.48607E+08
 
   -0.48293E+08         0.21958E+06         0.00000E+00
    0.21958E+06        -0.97588E+08         0.00000E+00
    0.00000E+00         0.00000E+00        -0.48528E+08
 
   -0.48216E+08         0.22722E+06         0.00000E+00
    0.22722E+06        -0.97589E+08         0.00000E+00
    0.00000E+00         0.00000E+00        -0.48448E+08
 
   -0.48137E+08         0.23453E+06         0.00000E+00
    0.23453E+06        -0.97589E+08         0.00000E+00
    0.00000E+00         0.00000E+00        -0.48366E+08
 
   -0.48055E+08         0.24157E+06         0.00000E+00
    0.24157E+06        -0.97590E+08         0.00000E+00
    0.00000E+00         0.00000E+00        -0.48283E+08
 
   -0.47972E+08         0.24838E+06         0.00000E+00
    0.24838E+06        -0.97590E+08         0.00000E+00
    0.00000E+00         0.00000E+00        -0.48199E+08
 
   -0.47886E+08         0.25502E+06         0.00000E+00
    0.25502E+06        -0.97590E+08         0.00000E+00
    0.00000E+00         0.00000E+00        -0.48113E+08
 
   -0.47797E+08         0.26152E+06         0.00000E+00
    0.26152E+06        -0.97591E+08         0.00000E+00
    0.00000E+00         0.00000E+00        -0.48025E+08
 
   -0.47707E+08         0.26792E+06         0.00000E+00
    0.26792E+06        -0.97591E+08         0.00000E+00
    0.00000E+00         0.00000E+00        -0.47936E+08
 
   -0.47614E+08         0.27425E+06         0.00000E+00
    0.27425E+06        -0.97591E+08         0.00000E+00
    0.00000E+00         0.00000E+00        -0.47846E+08
 
   -0.47520E+08         0.28053E+06         0.00000E+00
    0.28053E+06        -0.97591E+08         0.00000E+00
    0.00000E+00         0.00000E+00        -0.47753E+08
 
   -0.47423E+08         0.28678E+06         0.00000E+00
    0.28678E+06        -0.97591E+08         0.00000E+00
    0.00000E+00         0.00000E+00        -0.47659E+08
 
   -0.47324E+08         0.29303E+06         0.00000E+00
    0.29303E+06        -0.97591E+08         0.00000E+00
    0.00000E+00         0.00000E+00        -0.47563E+08
 
   -0.47222E+08         0.29929E+06         0.00000E+00
    0.29929E+06        -0.97591E+08         0.00000E+00
    0.00000E+00         0.00000E+00        -0.47465E+08
 
   -0.47119E+08         0.30557E+06         0.00000E+00
    0.30557E+06        -0.97591E+08         0.00000E+00
    0.00000E+00         0.00000E+00        -0.47365E+08
 
   -0.47013E+08         0.31188E+06         0.00000E+00
    0.31188E+06        -0.97591E+08         0.00000E+00
    0.00000E+00         0.00000E+00        -0.47263E+08
 
   -0.46906E+08         0.31823E+06         0.00000E+00
    0.31823E+06        -0.97591E+08         0.00000E+00
    0.00000E+00         0.00000E+00        -0.47159E+08
 
   -0.46796E+08         0.32462E+06         0.00000E+00
    0.32462E+06        -0.97591E+08         0.00000E+00
    0.00000E+00         0.00000E+00        -0.47053E+08
 
   -0.46683E+08         0.33106E+06         0.00000E+00
    0.33106E+06        -0.97591E+08         0.00000E+00
    0.00000E+00         0.00000E+00        -0.46945E+08
 
   -0.46569E+08         0.33756E+06         0.00000E+00
    0.33756E+06        -0.97590E+08         0.00000E+00
    0.00000E+00         0.00000E+00        -0.46834E+08
 
   -0.46452E+08         0.34411E+06         0.00000E+00
    0.34411E+06        -0.97590E+08         0.00000E+00
    0.00000E+00         0.00000E+00        -0.46721E+08
 
   -0.46333E+08         0.35071E+06         0.00000E+00
    0.35071E+06        -0.97590E+08         0.00000E+00
    0.00000E+00         0.00000E+00        -0.46606E+08
 
   -0.46212E+08         0.35738E+06         0.00000E+00
    0.35738E+06        -0.97590E+08         0.00000E+00
    0.00000E+00         0.00000E+00        -0.46488E+08
 
   -0.46088E+08         0.36409E+06         0.00000E+00
    0.36409E+06        -0.97590E+08         0.00000E+00
    0.00000E+00         0.00000E+00        -0.46368E+08
 
   -0.45962E+08         0.37085E+06         0.00000E+00
    0.37085E+06        -0.97590E+08         0.00000E+00
    0.00000E+00         0.00000E+00        -0.46246E+08
 
   -0.45834E+08         0.37767E+06         0.00000E+00
    0.37767E+06        -0.97590E+08         0.00000E+00
    0.00000E+00         0.00000E+00        -0.46121E+08
 
   -0.45703E+08         0.38452E+06         0.00000E+00
    0.38452E+06        -0.97590E+08         0.00000E+00
    0.00000E+00         0.00000E+00        -0.45993E+08
 
   -0.45570E+08         0.39141E+06         0.00000E+00
    0.39141E+06        -0.97590E+08         0.00000E+00
    0.00000E+00         0.00000E+00        -0.45863E+08
 
   -0.45434E+08         0.39833E+06         0.00000E+00
    0.39833E+06        -0.97590E+08         0.00000E+00
    0.00000E+00         0.00000E+00        -0.45730E+08
 
   -0.45296E+08         0.40527E+06         0.00000E+00
    0.40527E+06        -0.97590E+08         0.00000E+00
    0.00000E+00         0.00000E+00        -0.45594E+08
 
   -0.45156E+08         0.41222E+06         0.00000E+00
    0.41222E+06        -0.97590E+08         0.00000E+00
    0.00000E+00         0.00000E+00        -0.45456E+08
 
   -0.45013E+08         0.41918E+06         0.00000E+00
    0.41918E+06        -0.97590E+08         0.00000E+00
    0.00000E+00         0.00000E+00        -0.45314E+08
 
   -0.44868E+08         0.42613E+06         0.00000E+00
    0.42613E+06        -0.97590E+08         0.00000E+00
    0.00000E+00         0.00000E+00        -0.45170E+08
 
   -0.44720E+08         0.43306E+06         0.00000E+00
    0.43306E+06        -0.97590E+08         0.00000E+00
    0.00000E+00         0.00000E+00        -0.45023E+08
 
   -0.44570E+08         0.43996E+06         0.00000E+00
    0.43996E+06        -0.97590E+08         0.00000E+00
    0.00000E+00         0.00000E+00        -0.44874E+08
 
   -0.44417E+08         0.44680E+06         0.00000E+00
    0.44680E+06        -0.97590E+08         0.00000E+00
    0.00000E+00         0.00000E+00        -0.44721E+08
 
   -0.44262E+08         0.45359E+06         0.00000E+00
    0.45359E+06        -0.97590E+08         0.00000E+00
    0.00000E+00         0.00000E+00        -0.44565E+08
 
   -0.44105E+08         0.46029E+06         0.00000E+00
    0.46029E+06        -0.97590E+08         0.00000E+00
    0.00000E+00         0.00000E+00        -0.44407E+08
 
   -0.43945E+08         0.46690E+06         0.00000E+00
    0.46690E+06        -0.97590E+08         0.00000E+00
    0.00000E+00         0.00000E+00        -0.44245E+08
 
   -0.43783E+08         0.47338E+06         0.00000E+00
    0.47338E+06        -0.97591E+08         0.00000E+00
    0.00000E+00         0.00000E+00        -0.44081E+08
 
   -0.43619E+08         0.47972E+06         0.00000E+00
    0.47972E+06        -0.97591E+08         0.00000E+00
    0.00000E+00         0.00000E+00        -0.43913E+08
 
   -0.43452E+08         0.48589E+06         0.00000E+00
    0.48589E+06        -0.97591E+08         0.00000E+00
    0.00000E+00         0.00000E+00        -0.43743E+08
 
   -0.43283E+08         0.49186E+06         0.00000E+00
    0.49186E+06        -0.97592E+08         0.00000E+00
    0.00000E+00         0.00000E+00        -0.43569E+08
 
   -0.43113E+08         0.49760E+06         0.00000E+00
    0.49760E+06        -0.97592E+08         0.00000E+00
    0.00000E+00         0.00000E+00        -0.43392E+08
 
   -0.42940E+08         0.50308E+06         0.00000E+00
    0.50308E+06        -0.97592E+08         0.00000E+00
    0.00000E+00         0.00000E+00        -0.43213E+08
 
   -0.42765E+08         0.50826E+06         0.00000E+00
    0.50826E+06        -0.97593E+08         0.00000E+00
    0.00000E+00         0.00000E+00        -0.43030E+08
 
   -0.42588E+08         0.51310E+06         0.00000E+00
    0.51310E+06        -0.97593E+08         0.00000E+00
    0.00000E+00         0.00000E+00        -0.42844E+08
 
   -0.42410E+08         0.51756E+06         0.00000E+00
    0.51756E+06        -0.97594E+08         0.00000E+00
    0.00000E+00         0.00000E+00        -0.42656E+08
 
   -0.42230E+08         0.52157E+06         0.00000E+00
    0.52157E+06        -0.97595E+08         0.00000E+00
    0.00000E+00         0.00000E+00        -0.42464E+08
 
   -0.42049E+08         0.52509E+06         0.00000E+00
    0.52509E+06        -0.97595E+08         0.00000E+00
    0.00000E+00         0.00000E+00        -0.42270E+08
 
   -0.41866E+08         0.52806E+06         0.00000E+00
    0.52806E+06        -0.97596E+08         0.00000E+00
    0.00000E+00         0.00000E+00        -0.42072E+08
 
   -0.41683E+08         0.53038E+06         0.00000E+00
    0.53038E+06        -0.97597E+08         0.00000E+00
    0.00000E+00         0.00000E+00        -0.41872E+08
 
   -0.41498E+08         0.53200E+06         0.00000E+00
    0.53200E+06        -0.97598E+08         0.00000E+00
    0.00000E+00         0.00000E+00        -0.41669E+08
 
   -0.41313E+08         0.53281E+06         0.00000E+00
    0.53281E+06        -0.97600E+08         0.00000E+00
    0.00000E+00         0.00000E+00        -0.41463E+08
 
   -0.41128E+08         0.53271E+06         0.00000E+00
    0.53271E+06        -0.97601E+08         0.00000E+00
    0.00000E+00         0.00000E+00        -0.41254E+08
 
   -0.40943E+08         0.53158E+06         0.00000E+00
    0.53158E+06        -0.97603E+08         0.00000E+00
    0.00000E+00         0.00000E+00        -0.41042E+08
 
   -0.40758E+08         0.52929E+06         0.00000E+00
    0.52929E+06        -0.97604E+08         0.00000E+00
    0.00000E+00         0.00000E+00        -0.40828E+08
 
   -0.40573E+08         0.52569E+06         0.00000E+00
    0.52569E+06        -0.97607E+08         0.00000E+00
    0.00000E+00         0.00000E+00        -0.40611E+08
 
   -0.40390E+08         0.52061E+06         0.00000E+00
    0.52061E+06        -0.97609E+08         0.00000E+00
    0.00000E+00         0.00000E+00        -0.40392E+08
 
   -0.40209E+08         0.51386E+06         0.00000E+00
    0.51386E+06        -0.97612E+08         0.00000E+00
    0.00000E+00         0.00000E+00        -0.40170E+08
 
   -0.40029E+08         0.50523E+06         0.00000E+00
    0.50523E+06        -0.97615E+08         0.00000E+00
    0.00000E+00         0.00000E+00        -0.39946E+08
 
   -0.39852E+08         0.49448E+06         0.00000E+00
    0.49448E+06        -0.97618E+08         0.00000E+00
    0.00000E+00         0.00000E+00        -0.39719E+08
 
   -0.39679E+08         0.48135E+06         0.00000E+00
    0.48135E+06        -0.97622E+08         0.00000E+00
    0.00000E+00         0.00000E+00        -0.39491E+08
 
   -0.39509E+08         0.46557E+06         0.00000E+00
    0.46557E+06        -0.97627E+08         0.00000E+00
    0.00000E+00         0.00000E+00        -0.39260E+08
 
   -0.39344E+08         0.44682E+06         0.00000E+00
    0.44682E+06        -0.97632E+08         0.00000E+00
    0.00000E+00         0.00000E+00        -0.39027E+08
 
   -0.39185E+08         0.42482E+06         0.00000E+00
    0.42482E+06        -0.97637E+08         0.00000E+00
    0.00000E+00         0.00000E+00        -0.38792E+08
 
   -0.39032E+08         0.39924E+06         0.00000E+00
    0.39924E+06        -0.97643E+08         0.00000E+00
    0.00000E+00         0.00000E+00        -0.38555E+08
 
   -0.38885E+08         0.36982E+06         0.00000E+00
    0.36982E+06        -0.97650E+08         0.00000E+00
    0.00000E+00         0.00000E+00        -0.38317E+08
 
   -0.38747E+08         0.33630E+06         0.00000E+00
    0.33630E+06        -0.97657E+08         0.00000E+00
    0.00000E+00         0.00000E+00        -0.38077E+08
 
   -0.38618E+08         0.29853E+06         0.00000E+00
    0.29853E+06        -0.97664E+08         0.00000E+00
    0.00000E+00         0.00000E+00        -0.37835E+08
 
   -0.38498E+08         0.25651E+06         0.00000E+00
    0.25651E+06        -0.97671E+08         0.00000E+00
    0.00000E+00         0.00000E+00        -0.37593E+08
 
   -0.38389E+08         0.21043E+06         0.00000E+00
    0.21043E+06        -0.97678E+08         0.00000E+00
    0.00000E+00         0.00000E+00        -0.37349E+08
 
   -0.38290E+08         0.16080E+06         0.00000E+00
    0.16080E+06        -0.97685E+08         0.00000E+00
    0.00000E+00         0.00000E+00        -0.37104E+08
 
   -0.38203E+08         0.10860E+06         0.00000E+00
    0.10860E+06        -0.97689E+08         0.00000E+00
    0.00000E+00         0.00000E+00        -0.36858E+08
 
   -0.38127E+08         0.55442E+05         0.00000E+00
    0.55442E+05        -0.97691E+08         0.00000E+00
    0.00000E+00         0.00000E+00        -0.36611E+08
 
   -0.38061E+08         0.39112E+04         0.00000E+00
    0.39112E+04        -0.97689E+08         0.00000E+00
    0.00000E+00         0.00000E+00        -0.36364E+08
 
   -0.38003E+08        -0.41993E+05         0.00000E+00
   -0.41993E+05        -0.97680E+08         0.00000E+00
    0.00000E+00         0.00000E+00        -0.36116E+08
 
   -0.37951E+08        -0.76131E+05         0.00000E+00
   -0.76131E+05        -0.97660E+08         0.00000E+00
    0.00000E+00         0.00000E+00        -0.35868E+08
 
   -0.37903E+08        -0.89782E+05         0.00000E+00
   -0.89782E+05        -0.97618E+08         0.00000E+00
    0.00000E+00         0.00000E+00        -0.35620E+08
 
   -0.37862E+08        -0.74184E+05         0.00000E+00
   -0.74184E+05        -0.97535E+08         0.00000E+00
    0.00000E+00         0.00000E+00        -0.35372E+08
 
   -0.37837E+08        -0.29078E+05         0.00000E+00
   -0.29078E+05        -0.97382E+08         0.00000E+00
    0.00000E+00         0.00000E+00        -0.35124E+08
 
   -0.49115E+08        -0.71615E+04         0.00000E+00
   -0.71615E+04        -0.97652E+08         0.00000E+00
    0.00000E+00         0.00000E+00        -0.49966E+08
 
   -0.49108E+08        -0.17503E+05         0.00000E+00
   -0.17503E+05        -0.97611E+08         0.00000E+00
    0.00000E+00         0.00000E+00        -0.49897E+08
 
   -0.49095E+08        -0.19005E+05         0.00000E+00
   -0.19005E+05        -0.97590E+08         0.00000E+00
    0.00000E+00         0.00000E+00        -0.49828E+08
 
   -0.49080E+08        -0.12117E+05         0.00000E+00
   -0.12117E+05        -0.97580E+08         0.00000E+00
    0.00000E+00         0.00000E+00        -0.49760E+08
 
   -0.49064E+08         0.34693E+03         0.00000E+00
    0.34693E+03        -0.97575E+08         0.00000E+00
    0.00000E+00         0.00000E+00        -0.49691E+08
 
   -0.49045E+08         0.15872E+05         0.00000E+00
    0.15872E+05        -0.97574E+08         0.00000E+00
    0.00000E+00         0.00000E+00        -0.49622E+08
 
   -0.49022E+08         0.32810E+05         0.00000E+00
    0.32810E+05        -0.97573E+08         0.00000E+00
    0.00000E+00         0.00000E+00        -0.49553E+08
 
   -0.48996E+08         0.50128E+05         0.00000E+00
    0.50128E+05        -0.97574E+08         0.00000E+00
    0.00000E+00         0.00000E+00        -0.49484E+08
 
   -0.48965E+08         0.67180E+05         0.00000E+00
    0.67180E+05        -0.97575E+08         0.00000E+00
    0.00000E+00         0.00000E+00        -0.49415E+08
 
   -0.48929E+08         0.83567E+05         0.00000E+00
    0.83567E+05        -0.97576E+08         0.00000E+00
    0.00000E+00         0.00000E+00        -0.49345E+08
 
   -0.48890E+08         0.99063E+05         0.00000E+00
    0.99063E+05        -0.97578E+08         0.00000E+00
    0.00000E+00         0.00000E+00        -0.49274E+08
 
   -0.48845E+08         0.11356E+06         0.00000E+00
    0.11356E+06        -0.97580E+08         0.00000E+00
    0.00000E+00         0.00000E+00        -0.49203E+08
 
   -0.48797E+08         0.12702E+06         0.00000E+00
    0.12702E+06        -0.97581E+08         0.00000E+00
    0.00000E+00         0.00000E+00        -0.49132E+08
 
   -0.48745E+08         0.13947E+06         0.00000E+00
    0.13947E+06        -0.97583E+08         0.00000E+00
    0.00000E+00         0.00000E+00        -0.49059E+08
 
   -0.48690E+08         0.15096E+06         0.00000E+00
    0.15096E+06        -0.97584E+08         0.00000E+00
    0.00000E+00         0.00000E+00        -0.48986E+08
 
   -0.48630E+08         0.16157E+06         0.00000E+00
    0.16157E+06        -0.97586E+08         0.00000E+00
    0.00000E+00         0.00000E+00        -0.48912E+08
 
   -0.48568E+08         0.17139E+06         0.00000E+00
    0.17139E+06        -0.97587E+08         0.00000E+00
    0.00000E+00         0.00000E+00        -0.48838E+08
 
   -0.48502E+08         0.18051E+06         0.00000E+00
    0.18051E+06        -0.97588E+08         0.00000E+00
    0.00000E+00         0.00000E+00        -0.48762E+08
 
   -0.48434E+08         0.18901E+06         0.00000E+00
    0.18901E+06        -0.97589E+08         0.00000E+00
    0.00000E+00         0.00000E+00        -0.48685E+08
 
   -0.48362E+08         0.19699E+06         0.00000E+00
    0.19699E+06        -0.97589E+08         0.00000E+00
    0.00000E+00         0.00000E+00        -0.48607E+08
 
   -0.48288E+08         0.20451E+06         0.00000E+00
    0.20451E+06        -0.97590E+08         0.00000E+00
    0.00000E+00         0.00000E+00        -0.48528E+08
 
   -0.48212E+08         0.21165E+06         0.00000E+00
    0.21165E+06        -0.97590E+08         0.00000E+00
    0.00000E+00         0.00000E+00        -0.48448E+08
 
   -0.48133E+08         0.21847E+06         0.00000E+00
    0.21847E+06        -0.97591E+08         0.00000E+00
    0.00000E+00         0.00000E+00        -0.48366E+08
 
   -0.48051E+08         0.22504E+06         0.00000E+00
    0.22504E+06        -0.97591E+08         0.00000E+00
    0.00000E+00         0.00000E+00        -0.48283E+08
 
   -0.47967E+08         0.23139E+06         0.00000E+00
    0.23139E+06        -0.97591E+08         0.00000E+00
    0.00000E+00         0.00000E+00        -0.48199E+08
 
   -0.47881E+08         0.23758E+06         0.00000E+00
    0.23758E+06        -0.97592E+08         0.00000E+00
    0.00000E+00         0.00000E+00        -0.48113E+08
 
   -0.47793E+08         0.24364E+06         0.00000E+00
    0.24364E+06        -0.97592E+08         0.00000E+00
    0.00000E+00         0.00000E+00        -0.48025E+08
 
   -0.47702E+08         0.24960E+06         0.00000E+00
    0.24960E+06        -0.97592E+08         0.00000E+00
    0.00000E+00         0.00000E+00        -0.47936E+08
 
   -0.47610E+08         0.25550E+06         0.00000E+00
    0.25550E+06        -0.97592E+08         0.00000E+00
    0.00000E+00         0.00000E+00        -0.47846E+08
 
   -0.47515E+08         0.26135E+06         0.00000E+00
    0.26135E+06        -0.97592E+08         0.00000E+00
    0.00000E+00         0.00000E+00        -0.47753E+08
 
   -0.47418E+08         0.26717E+06         0.00000E+00
    0.26717E+06        -0.97592E+08         0.00000E+00
    0.00000E+00         0.00000E+00        -0.47659E+08
 
   -0.47319E+08         0.27299E+06         0.00000E+00
    0.27299E+06        -0.97592E+08         0.00000E+00
    0.00000E+00         0.00000E+00        -0.47563E+08
 
   -0.47217E+08         0.27882E+06         0.00000E+00
    0.27882E+06        -0.97592E+08         0.00000E+00
    0.00000E+00         0.00000E+00        -0.47465E+08
 
   -0.47114E+08         0.28466E+06         0.00000E+00
    0.28466E+06        -0.97592E+08         0.00000E+00
    0.00000E+00         0.00000E+00        -0.47365E+08
 
   -0.47008E+08         0.29053E+06         0.00000E+00
    0.29053E+06        -0.97592E+08         0.00000E+00
    0.00000E+00         0.00000E+00        -0.47263E+08
 
   -0.46900E+08         0.29644E+06         0.00000E+00
    0.29644E+06        -0.97592E+08         0.00000E+00
    0.00000E+00         0.00000E+00        -0.47159E+08
 
   -0.46790E+08         0.30239E+06         0.00000E+00
    0.30239E+06        -0.97592E+08         0.00000E+00
    0.00000E+00         0.00000E+00        -0.47053E+08
 
   -0.46678E+08         0.30838E+06         0.00000E+00
    0.30838E+06        -0.97592E+08         0.00000E+00
    0.00000E+00         0.00000E+00        -0.46945E+08
 
   -0.46563E+08         0.31443E+06         0.00000E+00
    0.31443E+06        -0.97592E+08         0.00000E+00
    0.00000E+00         0.00000E+00        -0.46834E+08
 
   -0.46446E+08         0.32053E+06         0.00000E+00
    0.32053E+06        -0.97592E+08         0.00000E+00
    0.00000E+00         0.00000E+00        -0.46721E+08
 
   -0.46327E+08         0.32667E+06         0.00000E+00
    0.32667E+06        -0.97592E+08         0.00000E+00
    0.00000E+00         0.00000E+00        -0.46606E+08
 
   -0.46206E+08         0.33287E+06         0.00000E+00
    0.33287E+06        -0.97592E+08         0.00000E+00
    0.00000E+00         0.00000E+00        -0.46488E+08
 
   -0.46082E+08         0.33912E+06         0.00000E+00
    0.33912E+06        -0.97591E+08         0.00000E+00
    0.00000E+00         0.00000E+00        -0.46368E+08
 
   -0.45956E+08         0.34541E+06         0.00000E+00
    0.34541E+06        -0.97591E+08         0.00000E+00
    0.00000E+00         0.00000E+00        -0.46246E+08
 
   -0.45827E+08         0.35175E+06         0.00000E+00
    0.35175E+06        -0.97591E+08         0.00000E+00
    0.00000E+00         0.00000E+00        -0.46121E+08
 
   -0.45697E+08         0.35812E+06         0.00000E+00
    0.35812E+06        -0.97591E+08         0.00000E+00
    0.00000E+00         0.00000E+00        -0.45993E+08
 
   -0.45563E+08         0.36453E+06         0.00000E+00
    0.36453E+06        -0.97591E+08         0.00000E+00
    0.00000E+00         0.00000E+00        -0.45863E+08
 
   -0.45428E+08         0.37097E+06         0.00000E+00
    0.37097E+06        -0.97591E+08         0.00000E+00
    0.00000E+00         0.00000E+00        -0.45730E+08
 
   -0.45290E+08         0.37742E+06         0.00000E+00
    0.37742E+06        -0.97591E+08         0.00000E+00
    0.00000E+00         0.00000E+00        -0.45594E+08
 
   -0.45149E+08         0.38389E+06         0.00000E+00
    0.38389E+06        -0.97591E+08         0.00000E+00
    0.00000E+00         0.00000E+00        -0.45456E+08
 
   -0.45006E+08         0.39036E+06         0.00000E+00
    0.39036E+06        -0.97591E+08         0.00000E+00
    0.00000E+00         0.00000E+00        -0.45314E+08
 
   -0.44861E+08         0.39682E+06         0.00000E+00
    0.39682E+06        -0.97591E+08         0.00000E+00
    0.00000E+00         0.00000E+00        -0.45170E+08
 
   -0.44713E+08         0.40326E+06         0.00000E+00
    0.40326E+06        -0.97591E+08         0.00000E+00
    0.00000E+00         0.00000E+00        -0.45023E+08
 
   -0.44563E+08         0.40967E+06         0.00000E+00
    0.40967E+06        -0.97591E+08         0.00000E+00
    0.00000E+00         0.00000E+00        -0.44874E+08
 
   -0.44410E+08         0.41604E+06         0.00000E+00
    0.41604E+06        -0.97591E+08         0.00000E+00
    0.00000E+00         0.00000E+00        -0.44721E+08
 
   -0.44255E+08         0.42235E+06         0.00000E+00
    0.42235E+06        -0.97592E+08         0.00000E+00
    0.00000E+00         0.00000E+00        -0.44565E+08
 
   -0.44098E+08         0.42858E+06         0.00000E+00
    0.42858E+06        -0.97592E+08         0.00000E+00
    0.00000E+00         0.00000E+00        -0.44407E+08
 
   -0.43938E+08         0.43472E+06         0.00000E+00
    0.43472E+06        -0.97592E+08         0.00000E+00
    0.00000E+00         0.00000E+00        -0.44245E+08
 
   -0.43776E+08         0.44074E+06         0.00000E+00
    0.44074E+06        -0.97592E+08         0.00000E+00
    0.00000E+00         0.00000E+00        -0.44081E+08
 
   -0.43612E+08         0.44663E+06         0.00000E+00
    0.44663E+06        -0.97592E+08         0.00000E+00
    0.00000E+00         0.00000E+00        -0.43913E+08
 
   -0.43445E+08         0.45236E+06         0.00000E+00
    0.45236E+06        -0.97592E+08         0.00000E+00
    0.00000E+00         0.00000E+00        -0.43743E+08
 
   -0.43276E+08         0.45790E+06         0.00000E+00
    0.45790E+06        -0.97593E+08         0.00000E+00
    0.00000E+00         0.00000E+00        -0.43569E+08
 
   -0.43106E+08         0.46323E+06         0.00000E+00
    0.46323E+06        -0.97593E+08         0.00000E+00
    0.00000E+00         0.00000E+00        -0.43392E+08
 
   -0.42933E+08         0.46832E+06         0.00000E+00
    0.46832E+06        -0.97593E+08         0.00000E+00
    0.00000E+00         0.00000E+00        -0.43213E+08
 
   -0.42758E+08         0.47313E+06         0.00000E+00
    0.47313E+06        -0.97594E+08         0.00000E+00
    0.00000E+00         0.00000E+00        -0.43030E+08
 
   -0.42582E+08         0.47762E+06         0.00000E+00
    0.47762E+06        -0.97594E+08         0.00000E+00
    0.00000E+00         0.00000E+00        -0.42845E+08
 
   -0.42403E+08         0.48175E+06         0.00000E+00
    0.48175E+06        -0.97595E+08         0.00000E+00
    0.00000E+00         0.00000E+00        -0.42656E+08
 
   -0.42224E+08         0.48547E+06         0.00000E+00
    0.48547E+06        -0.97595E+08         0.00000E+00
    0.00000E+00         0.00000E+00        -0.42464E+08
 
   -0.42043E+08         0.48872E+06         0.00000E+00
    0.48872E+06        -0.97596E+08         0.00000E+00
    0.00000E+00         0.00000E+00        -0.42270E+08
 
   -0.41860E+08         0.49146E+06         0.00000E+00
    0.49146E+06        -0.97597E+08         0.00000E+00
    0.00000E+00         0.00000E+00        -0.42072E+08
 
   -0.41677E+08         0.49360E+06         0.00000E+00
    0.49360E+06        -0.97598E+08         0.00000E+00
    0.00000E+00         0.00000E+00        -0.41872E+08
 
   -0.41493E+08         0.49507E+06         0.00000E+00
    0.49507E+06        -0.97599E+08         0.00000E+00
    0.00000E+00         0.00000E+00        -0.41669E+08
 
   -0.41308E+08         0.49580E+06         0.00000E+00
    0.49580E+06        -0.97600E+08         0.00000E+00
    0.00000E+00         0.00000E+00        -0.41463E+08
 
   -0.41123E+08         0.49567E+06         0.00000E+00
    0.49567E+06        -0.97601E+08         0.00000E+00
    0.00000E+00         0.00000E+00        -0.41254E+08
 
   -0.40938E+08         0.49457E+06         0.00000E+00
    0.49457E+06        -0.97602E+08         0.00000E+00
    0.00000E+00         0.00000E+00        -0.41042E+08
 
   -0.40754E+08         0.49239E+06         0.00000E+00
    0.49239E+06        -0.97604E+08         0.00000E+00
    0.00000E+00         0.00000E+00        -0.40828E+08
 
   -0.40570E+08         0.48898E+06         0.00000E+00
    0.48898E+06        -0.97606E+08         0.00000E+00
    0.00000E+00         0.00000E+00        -0.40611E+08
 
   -0.40387E+08         0.48418E+06         0.00000E+00
    0.48418E+06        -0.97608E+08         0.00000E+00
    0.00000E+00         0.00000E+00        -0.40392E+08
 
   -0.40206E+08         0.47781E+06         0.00000E+00
    0.47781E+06        -0.97610E+08         0.00000E+00
    0.00000E+00         0.00000E+00        -0.40170E+08
 
   -0.40027E+08         0.46966E+06         0.00000E+00
    0.46966E+06        -0.97613E+08         0.00000E+00
    0.00000E+00         0.00000E+00        -0.39946E+08
 
   -0.39851E+08         0.45952E+06         0.00000E+00
    0.45952E+06        -0.97616E+08         0.00000E+00
    0.00000E+00         0.00000E+00        -0.39719E+08
 
   -0.39679E+08         0.44712E+06         0.00000E+00
    0.44712E+06        -0.97619E+08         0.00000E+00
    0.00000E+00         0.00000E+00        -0.39491E+08
 
   -0.39510E+08         0.43221E+06         0.00000E+00
    0.43221E+06        -0.97623E+08         0.00000E+00
    0.00000E+00         0.00000E+00        -0.39260E+08
 
   -0.39347E+08         0.41450E+06         0.00000E+00
    0.41450E+06        -0.97628E+08         0.00000E+00
    0.00000E+00         0.00000E+00        -0.39027E+08
 
   -0.39189E+08         0.39369E+06         0.00000E+00
    0.39369E+06        -0.97632E+08         0.00000E+00
    0.00000E+00         0.00000E+00        -0.38792E+08
 
   -0.39038E+08         0.36948E+06         0.00000E+00
    0.36948E+06        -0.97638E+08         0.00000E+00
    0.00000E+00         0.00000E+00        -0.38555E+08
 
   -0.38894E+08         0.34160E+06         0.00000E+00
    0.34160E+06        -0.97643E+08         0.00000E+00
    0.00000E+00         0.00000E+00        -0.38317E+08
 
   -0.38758E+08         0.30980E+06         0.00000E+00
    0.30980E+06        -0.97650E+08         0.00000E+00
    0.00000E+00         0.00000E+00        -0.38077E+08
 
   -0.38632E+08         0.27393E+06         0.00000E+00
    0.27393E+06        -0.97656E+08         0.00000E+00
    0.00000E+00         0.00000E+00        -0.37835E+08
 
   -0.38516E+08         0.23397E+06         0.00000E+00
    0.23397E+06        -0.97663E+08         0.00000E+00
    0.00000E+00         0.00000E+00        -0.37593E+08
 
   -0.38411E+08         0.19008E+06         0.00000E+00
    0.19008E+06        -0.97669E+08         0.00000E+00
    0.00000E+00         0.00000E+00        -0.37349E+08
 
   -0.38317E+08         0.14274E+06         0.00000E+00
    0.14274E+06        -0.97675E+08         0.00000E+00
    0.00000E+00         0.00000E+00        -0.37104E+08
 
   -0.38235E+08         0.92825E+05         0.00000E+00
    0.92825E+05        -0.97679E+08         0.00000E+00
    0.00000E+00         0.00000E+00        -0.36858E+08
 
   -0.38165E+08         0.41854E+05         0.00000E+00
    0.41854E+05        -0.97681E+08         0.00000E+00
    0.00000E+00         0.00000E+00        -0.36611E+08
 
   -0.38105E+08        -0.77613E+04         0.00000E+00
   -0.77613E+04        -0.97679E+08         0.00000E+00
    0.00000E+00         0.00000E+00        -0.36364E+08
 
   -0.38055E+08        -0.52229E+05         0.00000E+00
   -0.52229E+05        -0.97672E+08         0.00000E+00
    0.00000E+00         0.00000E+00        -0.36116E+08
 
   -0.38010E+08        -0.85544E+05         0.00000E+00
   -0.85544E+05        -0.97655E+08         0.00000E+00
    0.00000E+00         0.00000E+00        -0.35868E+08
 
   -0.37968E+08        -0.98616E+05         0.00000E+00
   -0.98616E+05        -0.97618E+08         0.00000E+00
    0.00000E+00         0.00000E+00        -0.35620E+08
 
   -0.37930E+08        -0.81302E+05         0.00000E+00
   -0.81302E+05        -0.97542E+08         0.00000E+00
    0.00000E+00         0.00000E+00        -0.35372E+08
 
   -0.37906E+08        -0.31948E+05         0.00000E+00
   -0.31948E+05        -0.97394E+08         0.00000E+00
    0.00000E+00         0.00000E+00        -0.35124E+08
 
   -0.49094E+08        -0.80454E+04         0.00000E+00
   -0.80454E+04        -0.97650E+08         0.00000E+00
    0.00000E+00         0.00000E+00        -0.49966E+08
 
   -0.49087E+08        -0.19671E+05         0.00000E+00
   -0.19671E+05        -0.97610E+08         0.00000E+00
    0.00000E+00         0.00000E+00        -0.49897E+08
 
   -0.49076E+08        -0.21689E+05         0.00000E+00
   -0.21689E+05        -0.97591E+08         0.00000E+00
    0.00000E+00         0.00000E+00        -0.49828E+08
 
   -0.49063E+08        -0.15055E+05         0.00000E+00
   -0.15055E+05        -0.97582E+08         0.00000E+00
    0.00000E+00         0.00000E+00        -0.49760E+08
 
   -0.49048E+08        -0.29941E+04         0.00000E+00
   -0.29941E+04        -0.97578E+08         0.00000E+00
    0.00000E+00         0.00000E+00        -0.49691E+08
 
   -0.49031E+08         0.11908E+05         0.00000E+00
    0.11908E+05        -0.97577E+08         0.00000E+00
    0.00000E+00         0.00000E+00        -0.49622E+08
 
   -0.49010E+08         0.28066E+05         0.00000E+00
    0.28066E+05        -0.97577E+08         0.00000E+00
    0.00000E+00         0.00000E+00        -0.49553E+08
 
   -0.48985E+08         0.44519E+05         0.00000E+00
    0.44519E+05        -0.97577E+08         0.00000E+00
    0.00000E+00         0.00000E+00        -0.49484E+08
 
   -0.48956E+08         0.60669E+05         0.00000E+00
    0.60669E+05        -0.97578E+08         0.00000E+00
    0.00000E+00         0.00000E+00        -0.49415E+08
 
   -0.48921E+08         0.76153E+05         0.00000E+00
    0.76153E+05        -0.97579E+08         0.00000E+00
    0.00000E+00         0.00000E+00        -0.49345E+08
 
   -0.48882E+08         0.90765E+05         0.00000E+00
    0.90765E+05        -0.97581E+08         0.00000E+00
    0.00000E+00         0.00000E+00        -0.49274E+08
 
   -0.48839E+08         0.10441E+06         0.00000E+00
    0.10441E+06        -0.97582E+08         0.00000E+00
    0.00000E+00         0.00000E+00        -0.49203E+08
 
   -0.48792E+08         0.11705E+06         0.00000E+00
    0.11705E+06        -0.97584E+08         0.00000E+00
    0.00000E+00         0.00000E+00        -0.49132E+08
 
   -0.48740E+08         0.12873E+06         0.00000E+00
    0.12873E+06        -0.97585E+08         0.00000E+00
    0.00000E+00         0.00000E+00        -0.49059E+08
 
   -0.48685E+08         0.13950E+06         0.00000E+00
    0.13950E+06        -0.97586E+08         0.00000E+00
    0.00000E+00         0.00000E+00        -0.48986E+08
 
   -0.48626E+08         0.14942E+06         0.00000E+00
    0.14942E+06        -0.97588E+08         0.00000E+00
    0.00000E+00         0.00000E+00        -0.48912E+08
 
   -0.48564E+08         0.15859E+06         0.00000E+00
    0.15859E+06        -0.97589E+08         0.00000E+00
    0.00000E+00         0.00000E+00        -0.48838E+08
 
   -0.48498E+08         0.16710E+06         0.00000E+00
    0.16710E+06        -0.97589E+08         0.00000E+00
    0.00000E+00         0.00000E+00        -0.48762E+08
 
   -0.48430E+08         0.17502E+06         0.00000E+00
    0.17502E+06        -0.97590E+08         0.00000E+00
    0.00000E+00         0.00000E+00        -0.48685E+08
 
   -0.48358E+08         0.18244E+06         0.00000E+00
    0.18244E+06        -0.97591E+08         0.00000E+00
    0.00000E+00         0.00000E+00        -0.48607E+08
 
   -0.48284E+08         0.18944E+06         0.00000E+00
    0.18944E+06        -0.97591E+08         0.00000E+00
    0.00000E+00         0.00000E+00        -0.48528E+08
 
   -0.48208E+08         0.19607E+06         0.00000E+00
    0.19607E+06        -0.97592E+08         0.00000E+00
    0.00000E+00         0.00000E+00        -0.48448E+08
 
   -0.48129E+08         0.20241E+06         0.00000E+00
    0.20241E+06        -0.97592E+08         0.00000E+00
    0.00000E+00         0.00000E+00        -0.48366E+08
 
   -0.48047E+08         0.20850E+06         0.00000E+00
    0.20850E+06        -0.97592E+08         0.00000E+00
    0.00000E+00         0.00000E+00        -0.48283E+08
 
   -0.47963E+08         0.21439E+06         0.00000E+00
    0.21439E+06        -0.97593E+08         0.00000E+00
    0.00000E+00         0.00000E+00        -0.48199E+08
 
   -0.47877E+08         0.22013E+06         0.00000E+00
    0.22013E+06        -0.97593E+08         0.00000E+00
    0.00000E+00         0.00000E+00        -0.48113E+08
 
   -0.47789E+08         0.22574E+06         0.00000E+00
    0.22574E+06        -0.97593E+08         0.00000E+00
    0.00000E+00         0.00000E+00        -0.48025E+08
 
   -0.47698E+08         0.23127E+06         0.00000E+00
    0.23127E+06        -0.97593E+08         0.00000E+00
    0.00000E+00         0.00000E+00        -0.47936E+08
 
   -0.47605E+08         0.23672E+06         0.00000E+00
    0.23672E+06        -0.97593E+08         0.00000E+00
    0.00000E+00         0.00000E+00        -0.47846E+08
 
   -0.47510E+08         0.24214E+06         0.00000E+00
    0.24214E+06        -0.97593E+08         0.00000E+00
    0.00000E+00         0.00000E+00        -0.47753E+08
 
   -0.47413E+08         0.24754E+06         0.00000E+00
    0.24754E+06        -0.97593E+08         0.00000E+00
    0.00000E+00         0.00000E+00        -0.47659E+08
 
   -0.47314E+08         0.25292E+06         0.00000E+00
    0.25292E+06        -0.97593E+08         0.00000E+00
    0.00000E+00         0.00000E+00        -0.47563E+08
 
   -0.47212E+08         0.25832E+06         0.00000E+00
    0.25832E+06        -0.97593E+08         0.00000E+00
    0.00000E+00         0.00000E+00        -0.47465E+08
 
   -0.47108E+08         0.26373E+06         0.00000E+00
    0.26373E+06        -0.97593E+08         0.00000E+00
    0.00000E+00         0.00000E+00        -0.47365E+08
 
   -0.47003E+08         0.26916E+06         0.00000E+00
    0.26916E+06        -0.97593E+08         0.00000E+00
    0.00000E+00         0.00000E+00        -0.47263E+08
 
   -0.46895E+08         0.27463E+06         0.00000E+00
    0.27463E+06        -0.97593E+08         0.00000E+00
    0.00000E+00         0.00000E+00        -0.47159E+08
 
   -0.46784E+08         0.28014E+06         0.00000E+00
    0.28014E+06        -0.97593E+08         0.00000E+00
    0.00000E+00         0.00000E+00        -0.47053E+08
 
   -0.46672E+08         0.28569E+06         0.00000E+00
    0.28569E+06        -0.97593E+08         0.00000E+00
    0.00000E+00         0.00000E+00        -0.46945E+08
 
   -0.46557E+08         0.29128E+06         0.00000E+00
    0.29128E+06        -0.97593E+08         0.00000E+00
    0.00000E+00         0.00000E+00        -0.46834E+08
 
   -0.46440E+08         0.29692E+06         0.00000E+00
    0.29692E+06        -0.97593E+08         0.00000E+00
    0.00000E+00         0.00000E+00        -0.46721E+08
 
   -0.46321E+08         0.30261E+06         0.00000E+00
    0.30261E+06        -0.97593E+08         0.00000E+00
    0.00000E+00         0.00000E+00        -0.46606E+08
 
   -0.46200E+08         0.30834E+06         0.00000E+00
    0.30834E+06        -0.97593E+08         0.00000E+00
    0.00000E+00         0.00000E+00        -0.46488E+08
 
   -0.46076E+08         0.31412E+06         0.00000E+00
    0.31412E+06        -0.97593E+08         0.00000E+00
    0.00000E+00         0.00000E+00        -0.46368E+08
 
   -0.45950E+08         0.31995E+06         0.00000E+00
    0.31995E+06        -0.97593E+08         0.00000E+00
    0.00000E+00         0.00000E+00        -0.46246E+08
 
   -0.45821E+08         0.32581E+06         0.00000E+00
    0.32581E+06        -0.97593E+08         0.00000E+00
    0.00000E+00         0.00000E+00        -0.46121E+08
 
   -0.45690E+08         0.33171E+06         0.00000E+00
    0.33171E+06        -0.97593E+08         0.00000E+00
    0.00000E+00         0.00000E+00        -0.45993E+08
 
   -0.45557E+08         0.33764E+06         0.00000E+00
    0.33764E+06        -0.97593E+08         0.00000E+00
    0.00000E+00         0.00000E+00        -0.45863E+08
 
   -0.45421E+08         0.34359E+06         0.00000E+00
    0.34359E+06        -0.97592E+08         0.00000E+00
    0.00000E+00         0.00000E+00        -0.45730E+08
 
   -0.45283E+08         0.34956E+06         0.00000E+00
    0.34956E+06        -0.97592E+08         0.00000E+00
    0.00000E+00         0.00000E+00        -0.45594E+08
 
   -0.45142E+08         0.35554E+06         0.00000E+00
    0.35554E+06        -0.97592E+08         0.00000E+00
    0.00000E+00         0.00000E+00        -0.45456E+08
 
   -0.44999E+08         0.36152E+06         0.00000E+00
    0.36152E+06        -0.97592E+08         0.00000E+00
    0.00000E+00         0.00000E+00        -0.45314E+08
 
   -0.44854E+08         0.36750E+06         0.00000E+00
    0.36750E+06        -0.97592E+08         0.00000E+00
    0.00000E+00         0.00000E+00        -0.45170E+08
 
   -0.44706E+08         0.37346E+06         0.00000E+00
    0.37346E+06        -0.97593E+08         0.00000E+00
    0.00000E+00         0.00000E+00        -0.45023E+08
 
   -0.44556E+08         0.37939E+06         0.00000E+00
    0.37939E+06        -0.97593E+08         0.00000E+00
    0.00000E+00         0.00000E+00        -0.44874E+08
 
   -0.44403E+08         0.38527E+06         0.00000E+00
    0.38527E+06        -0.97593E+08         0.00000E+00
    0.00000E+00         0.00000E+00        -0.44721E+08
 
   -0.44248E+08         0.39110E+06         0.00000E+00
    0.39110E+06        -0.97593E+08         0.00000E+00
    0.00000E+00         0.00000E+00        -0.44565E+08
 
   -0.44091E+08         0.39686E+06         0.00000E+00
    0.39686E+06        -0.97593E+08         0.00000E+00
    0.00000E+00         0.00000E+00        -0.44407E+08
 
   -0.43931E+08         0.40253E+06         0.00000E+00
    0.40253E+06        -0.97593E+08         0.00000E+00
    0.00000E+00         0.00000E+00        -0.44245E+08
 
   -0.43769E+08         0.40810E+06         0.00000E+00
    0.40810E+06        -0.97593E+08         0.00000E+00
    0.00000E+00         0.00000E+00        -0.44081E+08
 
   -0.43605E+08         0.41354E+06         0.00000E+00
    0.41354E+06        -0.97593E+08         0.00000E+00
    0.00000E+00         0.00000E+00        -0.43913E+08
 
   -0.43438E+08         0.41883E+06         0.00000E+00
    0.41883E+06        -0.97593E+08         0.00000E+00
    0.00000E+00         0.00000E+00        -0.43743E+08
 
   -0.43270E+08         0.42396E+06         0.00000E+00
    0.42396E+06        -0.97594E+08         0.00000E+00
    0.00000E+00         0.00000E+00        -0.43569E+08
 
   -0.43099E+08         0.42888E+06         0.00000E+00
    0.42888E+06        -0.97594E+08         0.00000E+00
    0.00000E+00         0.00000E+00        -0.43392E+08
 
   -0.42926E+08         0.43358E+06         0.00000E+00
    0.43358E+06        -0.97594E+08         0.00000E+00
    0.00000E+00         0.00000E+00        -0.43213E+08
 
   -0.42751E+08         0.43802E+06         0.00000E+00
    0.43802E+06        -0.97595E+08         0.00000E+00
    0.00000E+00         0.00000E+00        -0.43030E+08
 
   -0.42575E+08         0.44216E+06         0.00000E+00
    0.44216E+06        -0.97595E+08         0.00000E+00
    0.00000E+00         0.00000E+00        -0.42845E+08
 
   -0.42397E+08         0.44596E+06         0.00000E+00
    0.44596E+06        -0.97595E+08         0.00000E+00
    0.00000E+00         0.00000E+00        -0.42656E+08
 
   -0.42217E+08         0.44939E+06         0.00000E+00
    0.44939E+06        -0.97596E+08         0.00000E+00
    0.00000E+00         0.00000E+00        -0.42464E+08
 
   -0.42036E+08         0.45239E+06         0.00000E+00
    0.45239E+06        -0.97597E+08         0.00000E+00
    0.00000E+00         0.00000E+00        -0.42270E+08
 
   -0.41854E+08         0.45490E+06         0.00000E+00
    0.45490E+06        -0.97597E+08         0.00000E+00
    0.00000E+00         0.00000E+00        -0.42072E+08
 
   -0.41671E+08         0.45686E+06         0.00000E+00
    0.45686E+06        -0.97598E+08         0.00000E+00
    0.00000E+00         0.00000E+00        -0.41872E+08
 
   -0.41487E+08         0.45820E+06         0.00000E+00
    0.45820E+06        -0.97599E+08         0.00000E+00
    0.00000E+00         0.00000E+00        -0.41669E+08
 
   -0.41303E+08         0.45884E+06         0.00000E+00
    0.45884E+06        -0.97600E+08         0.00000E+00
    0.00000E+00         0.00000E+00        -0.41463E+08
 
   -0.41118E+08         0.45869E+06         0.00000E+00
    0.45869E+06        -0.97601E+08         0.00000E+00
    0.00000E+00         0.00000E+00        -0.41254E+08
 
   -0.40933E+08         0.45764E+06         0.00000E+00
    0.45764E+06        -0.97602E+08         0.00000E+00
    0.00000E+00         0.00000E+00        -0.41042E+08
 
   -0.40749E+08         0.45558E+06         0.00000E+00
    0.45558E+06        -0.97603E+08         0.00000E+00
    0.00000E+00         0.00000E+00        -0.40828E+08
 
   -0.40566E+08         0.45237E+06         0.00000E+00
    0.45237E+06        -0.97605E+08         0.00000E+00
    0.00000E+00         0.00000E+00        -0.40611E+08
 
   -0.40384E+08         0.44786E+06         0.00000E+00
    0.44786E+06        -0.97607E+08         0.00000E+00
    0.00000E+00         0.00000E+00        -0.40392E+08
 
   -0.40203E+08         0.44188E+06         0.00000E+00
    0.44188E+06        -0.97609E+08         0.00000E+00
    0.00000E+00         0.00000E+00        -0.40170E+08
 
   -0.40025E+08         0.43424E+06         0.00000E+00
    0.43424E+06        -0.97611E+08         0.00000E+00
    0.00000E+00         0.00000E+00        -0.39946E+08
 
   -0.39850E+08         0.42473E+06         0.00000E+00
    0.42473E+06        -0.97614E+08         0.00000E+00
    0.00000E+00         0.00000E+00        -0.39719E+08
 
   -0.39679E+08         0.41310E+06         0.00000E+00
    0.41310E+06        -0.97617E+08         0.00000E+00
    0.00000E+00         0.00000E+00        -0.39491E+08
 
   -0.39511E+08         0.39910E+06         0.00000E+00
    0.39910E+06        -0.97620E+08         0.00000E+00
    0.00000E+00         0.00000E+00        -0.39260E+08
 
   -0.39349E+08         0.38246E+06         0.00000E+00
    0.38246E+06        -0.97624E+08         0.00000E+00
    0.00000E+00         0.00000E+00        -0.39027E+08
 
   -0.39193E+08         0.36290E+06         0.00000E+00
    0.36290E+06        -0.97628E+08         0.00000E+00
    0.00000E+00         0.00000E+00        -0.38792E+08
 
   -0.39043E+08         0.34012E+06         0.00000E+00
    0.34012E+06        -0.97633E+08         0.00000E+00
    0.00000E+00         0.00000E+00        -0.38555E+08
 
   -0.38901E+08         0.31385E+06         0.00000E+00
    0.31385E+06        -0.97638E+08         0.00000E+00
    0.00000E+00         0.00000E+00        -0.38317E+08
 
   -0.38768E+08         0.28386E+06         0.00000E+00
    0.28386E+06        -0.97643E+08         0.00000E+00
    0.00000E+00         0.00000E+00        -0.38077E+08
 
   -0.38645E+08         0.24999E+06         0.00000E+00
    0.24999E+06        -0.97649E+08         0.00000E+00
    0.00000E+00         0.00000E+00        -0.37835E+08
 
   -0.38532E+08         0.21220E+06         0.00000E+00
    0.21220E+06        -0.97654E+08         0.00000E+00
    0.00000E+00         0.00000E+00        -0.37593E+08
 
   -0.38431E+08         0.17063E+06         0.00000E+00
    0.17063E+06        -0.97660E+08         0.00000E+00
    0.00000E+00         0.00000E+00        -0.37349E+08
 
   -0.38343E+08         0.12571E+06         0.00000E+00
    0.12571E+06        -0.97665E+08         0.00000E+00
    0.00000E+00         0.00000E+00        -0.37104E+08
 
   -0.38266E+08         0.78228E+05         0.00000E+00
    0.78228E+05        -0.97669E+08         0.00000E+00
    0.00000E+00         0.00000E+00        -0.36858E+08
 
   -0.38202E+08         0.29584E+05         0.00000E+00
    0.29584E+05        -0.97671E+08         0.00000E+00
    0.00000E+00         0.00000E+00        -0.36611E+08
 
   -0.38150E+08        -0.17998E+05         0.00000E+00
   -0.17998E+05        -0.97670E+08         0.00000E+00
    0.00000E+00         0.00000E+00        -0.36364E+08
 
   -0.38107E+08        -0.60974E+05         0.00000E+00
   -0.60974E+05        -0.97664E+08         0.00000E+00
    0.00000E+00         0.00000E+00        -0.36116E+08
 
   -0.38069E+08        -0.93573E+05         0.00000E+00
   -0.93573E+05        -0.97650E+08         0.00000E+00
    0.00000E+00         0.00000E+00        -0.35868E+08
 
   -0.38034E+08        -0.10646E+06         0.00000E+00
   -0.10646E+06        -0.97618E+08         0.00000E+00
    0.00000E+00         0.00000E+00        -0.35620E+08
 
   -0.38000E+08        -0.88001E+05         0.00000E+00
   -0.88001E+05        -0.97549E+08         0.00000E+00
    0.00000E+00         0.00000E+00        -0.35372E+08
 
   -0.37977E+08        -0.34758E+05         0.00000E+00
   -0.34758E+05        -0.97406E+08         0.00000E+00
    0.00000E+00         0.00000E+00        -0.35124E+08
 
   -0.49073E+08        -0.89131E+04         0.00000E+00
   -0.89131E+04        -0.97646E+08         0.00000E+00
    0.00000E+00         0.00000E+00        -0.49966E+08
 
   -0.49066E+08        -0.21707E+05         0.00000E+00
   -0.21707E+05        -0.97608E+08         0.00000E+00
    0.00000E+00         0.00000E+00        -0.49897E+08
 
   -0.49056E+08        -0.24068E+05         0.00000E+00
   -0.24068E+05        -0.97591E+08         0.00000E+00
    0.00000E+00         0.00000E+00        -0.49828E+08
 
   -0.49045E+08        -0.17586E+05         0.00000E+00
   -0.17586E+05        -0.97584E+08         0.00000E+00
    0.00000E+00         0.00000E+00        -0.49759E+08
 
   -0.49032E+08        -0.59181E+04         0.00000E+00
   -0.59181E+04        -0.97581E+08         0.00000E+00
    0.00000E+00         0.00000E+00        -0.49691E+08
 
   -0.49017E+08         0.83290E+04         0.00000E+00
    0.83290E+04        -0.97580E+08         0.00000E+00
    0.00000E+00         0.00000E+00        -0.49622E+08
 
   -0.48998E+08         0.23665E+05         0.00000E+00
    0.23665E+05        -0.97580E+08         0.00000E+00
    0.00000E+00         0.00000E+00        -0.49553E+08
 
   -0.48975E+08         0.39205E+05         0.00000E+00
    0.39205E+05        -0.97580E+08         0.00000E+00
    0.00000E+00         0.00000E+00        -0.49484E+08
 
   -0.48947E+08         0.54408E+05         0.00000E+00
    0.54408E+05        -0.97581E+08         0.00000E+00
    0.00000E+00         0.00000E+00        -0.49415E+08
 
   -0.48914E+08         0.68947E+05         0.00000E+00
    0.68947E+05        -0.97582E+08         0.00000E+00
    0.00000E+00         0.00000E+00        -0.49345E+08
 
   -0.48876E+08         0.82637E+05         0.00000E+00
    0.82637E+05        -0.97584E+08         0.00000E+00
    0.00000E+00         0.00000E+00        -0.49274E+08
 
   -0.48833E+08         0.95393E+05         0.00000E+00
    0.95393E+05        -0.97585E+08         0.00000E+00
    0.00000E+00         0.00000E+00        -0.49203E+08
 
   -0.48786E+08         0.10720E+06         0.00000E+00
    0.10720E+06        -0.97586E+08         0.00000E+00
    0.00000E+00         0.00000E+00        -0.49132E+08
 
   -0.48735E+08         0.11808E+06         0.00000E+00
    0.11808E+06        -0.97587E+08         0.00000E+00
    0.00000E+00         0.00000E+00        -0.49059E+08
 
   -0.48680E+08         0.12810E+06         0.00000E+00
    0.12810E+06        -0.97588E+08         0.00000E+00
    0.00000E+00         0.00000E+00        -0.48986E+08
 
   -0.48622E+08         0.13732E+06         0.00000E+00
    0.13732E+06        -0.97589E+08         0.00000E+00
    0.00000E+00         0.00000E+00        -0.48912E+08
 
   -0.48560E+08         0.14583E+06         0.00000E+00
    0.14583E+06        -0.97590E+08         0.00000E+00
    0.00000E+00         0.00000E+00        -0.48838E+08
 
   -0.48494E+08         0.15371E+06         0.00000E+00
    0.15371E+06        -0.97591E+08         0.00000E+00
    0.00000E+00         0.00000E+00        -0.48762E+08
 
   -0.48426E+08         0.16104E+06         0.00000E+00
    0.16104E+06        -0.97592E+08         0.00000E+00
    0.00000E+00         0.00000E+00        -0.48685E+08
 
   -0.48355E+08         0.16790E+06         0.00000E+00
    0.16790E+06        -0.97592E+08         0.00000E+00
    0.00000E+00         0.00000E+00        -0.48607E+08
 
   -0.48281E+08         0.17436E+06         0.00000E+00
    0.17436E+06        -0.97593E+08         0.00000E+00
    0.00000E+00         0.00000E+00        -0.48528E+08
 
   -0.48204E+08         0.18049E+06         0.00000E+00
    0.18049E+06        -0.97593E+08         0.00000E+00
    0.00000E+00         0.00000E+00        -0.48448E+08
 
   -0.48125E+08         0.18633E+06         0.00000E+00
    0.18633E+06        -0.97593E+08         0.00000E+00
    0.00000E+00         0.00000E+00        -0.48366E+08
 
   -0.48043E+08         0.19194E+06         0.00000E+00
    0.19194E+06        -0.97594E+08         0.00000E+00
    0.00000E+00         0.00000E+00        -0.48283E+08
 
   -0.47959E+08         0.19737E+06         0.00000E+00
    0.19737E+06        -0.97594E+08         0.00000E+00
    0.00000E+00         0.00000E+00        -0.48199E+08
 
   -0.47873E+08         0.20265E+06         0.00000E+00
    0.20265E+06        -0.97594E+08         0.00000E+00
    0.00000E+00         0.00000E+00        -0.48113E+08
 
   -0.47784E+08         0.20782E+06         0.00000E+00
    0.20782E+06        -0.97594E+08         0.00000E+00
    0.00000E+00         0.00000E+00        -0.48025E+08
 
   -0.47693E+08         0.21291E+06         0.00000E+00
    0.21291E+06        -0.97594E+08         0.00000E+00
    0.00000E+00         0.00000E+00        -0.47936E+08
 
   -0.47601E+08         0.21793E+06         0.00000E+00
    0.21793E+06        -0.97594E+08         0.00000E+00
    0.00000E+00         0.00000E+00        -0.47846E+08
 
   -0.47505E+08         0.22292E+06         0.00000E+00
    0.22292E+06        -0.97594E+08         0.00000E+00
    0.00000E+00         0.00000E+00        -0.47753E+08
 
   -0.47408E+08         0.22788E+06         0.00000E+00
    0.22788E+06        -0.97594E+08         0.00000E+00
    0.00000E+00         0.00000E+00        -0.47659E+08
 
   -0.47309E+08         0.23283E+06         0.00000E+00
    0.23283E+06        -0.97594E+08         0.00000E+00
    0.00000E+00         0.00000E+00        -0.47563E+08
 
   -0.47207E+08         0.23780E+06         0.00000E+00
    0.23780E+06        -0.97594E+08         0.00000E+00
    0.00000E+00         0.00000E+00        -0.47465E+08
 
   -0.47103E+08         0.24277E+06         0.00000E+00
    0.24277E+06        -0.97594E+08         0.00000E+00
    0.00000E+00         0.00000E+00        -0.47365E+08
 
   -0.46997E+08         0.24777E+06         0.00000E+00
    0.24777E+06        -0.97594E+08         0.00000E+00
    0.00000E+00         0.00000E+00        -0.47263E+08
 
   -0.46889E+08         0.25280E+06         0.00000E+00
    0.25280E+06        -0.97594E+08         0.00000E+00
    0.00000E+00         0.00000E+00        -0.47159E+08
 
   -0.46779E+08         0.25786E+06         0.00000E+00
    0.25786E+06        -0.97594E+08         0.00000E+00
    0.00000E+00         0.00000E+00        -0.47053E+08
 
   -0.46667E+08         0.26297E+06         0.00000E+00
    0.26297E+06        -0.97594E+08         0.00000E+00
    0.00000E+00         0.00000E+00        -0.46945E+08
 
   -0.46552E+08         0.26811E+06         0.00000E+00
    0.26811E+06        -0.97594E+08         0.00000E+00
    0.00000E+00         0.00000E+00        -0.46834E+08
 
   -0.46435E+08         0.27330E+06         0.00000E+00
    0.27330E+06        -0.97594E+08         0.00000E+00
    0.00000E+00         0.00000E+00        -0.46721E+08
 
   -0.46315E+08         0.27853E+06         0.00000E+00
    0.27853E+06        -0.97594E+08         0.00000E+00
    0.00000E+00         0.00000E+00        -0.46606E+08
 
   -0.46194E+08         0.28380E+06         0.00000E+00
    0.28380E+06        -0.97594E+08         0.00000E+00
    0.00000E+00         0.00000E+00        -0.46488E+08
 
   -0.46070E+08         0.28911E+06         0.00000E+00
    0.28911E+06        -0.97594E+08         0.00000E+00
    0.00000E+00         0.00000E+00        -0.46368E+08
 
   -0.45943E+08         0.29447E+06         0.00000E+00
    0.29447E+06        -0.97594E+08         0.00000E+00
    0.00000E+00         0.00000E+00        -0.46246E+08
 
   -0.45815E+08         0.29985E+06         0.00000E+00
    0.29985E+06        -0.97594E+08         0.00000E+00
    0.00000E+00         0.00000E+00        -0.46121E+08
 
   -0.45684E+08         0.30528E+06         0.00000E+00
    0.30528E+06        -0.97594E+08         0.00000E+00
    0.00000E+00         0.00000E+00        -0.45993E+08
 
   -0.45550E+08         0.31072E+06         0.00000E+00
    0.31072E+06        -0.97594E+08         0.00000E+00
    0.00000E+00         0.00000E+00        -0.45863E+08
 
   -0.45415E+08         0.31620E+06         0.00000E+00
    0.31620E+06        -0.97594E+08         0.00000E+00
    0.00000E+00         0.00000E+00        -0.45730E+08
 
   -0.45276E+08         0.32168E+06         0.00000E+00
    0.32168E+06        -0.97594E+08         0.00000E+00
    0.00000E+00         0.00000E+00        -0.45594E+08
 
   -0.45136E+08         0.32718E+06         0.00000E+00
    0.32718E+06        -0.97594E+08         0.00000E+00
    0.00000E+00         0.00000E+00        -0.45456E+08
 
   -0.44993E+08         0.33268E+06         0.00000E+00
    0.33268E+06        -0.97594E+08         0.00000E+00
    0.00000E+00         0.00000E+00        -0.45314E+08
 
   -0.44847E+08         0.33817E+06         0.00000E+00
    0.33817E+06        -0.97594E+08         0.00000E+00
    0.00000E+00         0.00000E+00        -0.45170E+08
 
   -0.44699E+08         0.34364E+06         0.00000E+00
    0.34364E+06        -0.97594E+08         0.00000E+00
    0.00000E+00         0.00000E+00        -0.45023E+08
 
   -0.44549E+08         0.34909E+06         0.00000E+00
    0.34909E+06        -0.97594E+08         0.00000E+00
    0.00000E+00         0.00000E+00        -0.44874E+08
 
   -0.44396E+08         0.35450E+06         0.00000E+00
    0.35450E+06        -0.97594E+08         0.00000E+00
    0.00000E+00         0.00000E+00        -0.44721E+08
 
   -0.44241E+08         0.35985E+06         0.00000E+00
    0.35985E+06        -0.97594E+08         0.00000E+00
    0.00000E+00         0.00000E+00        -0.44565E+08
 
   -0.44084E+08         0.36514E+06         0.00000E+00
    0.36514E+06        -0.97594E+08         0.00000E+00
    0.00000E+00         0.00000E+00        -0.44407E+08
 
   -0.43924E+08         0.37035E+06         0.00000E+00
    0.37035E+06        -0.97594E+08         0.00000E+00
    0.00000E+00         0.00000E+00        -0.44245E+08
 
   -0.43762E+08         0.37546E+06         0.00000E+00
    0.37546E+06        -0.97594E+08         0.00000E+00
    0.00000E+00         0.00000E+00        -0.44081E+08
 
   -0.43598E+08         0.38046E+06         0.00000E+00
    0.38046E+06        -0.97594E+08         0.00000E+00
    0.00000E+00         0.00000E+00        -0.43913E+08
 
   -0.43431E+08         0.38532E+06         0.00000E+00
    0.38532E+06        -0.97594E+08         0.00000E+00
    0.00000E+00         0.00000E+00        -0.43743E+08
 
   -0.43263E+08         0.39002E+06         0.00000E+00
    0.39002E+06        -0.97595E+08         0.00000E+00
    0.00000E+00         0.00000E+00        -0.43569E+08
 
   -0.43092E+08         0.39454E+06         0.00000E+00
    0.39454E+06        -0.97595E+08         0.00000E+00
    0.00000E+00         0.00000E+00        -0.43392E+08
 
   -0.42919E+08         0.39885E+06         0.00000E+00
    0.39885E+06        -0.97595E+08         0.00000E+00
    0.00000E+00         0.00000E+00        -0.43213E+08
 
   -0.42745E+08         0.40292E+06         0.00000E+00
    0.40292E+06        -0.97595E+08         0.00000E+00
    0.00000E+00         0.00000E+00        -0.43030E+08
 
   -0.42569E+08         0.40672E+06         0.00000E+00
    0.40672E+06        -0.97596E+08         0.00000E+00
    0.00000E+00         0.00000E+00        -0.42845E+08
 
   -0.42391E+08         0.41020E+06         0.00000E+00
    0.41020E+06        -0.97596E+08         0.00000E+00
    0.00000E+00         0.00000E+00        -0.42656E+08
 
   -0.42211E+08         0.41334E+06         0.00000E+00
    0.41334E+06        -0.97597E+08         0.00000E+00
    0.00000E+00         0.00000E+00        -0.42464E+08
 
   -0.42030E+08         0.41608E+06         0.00000E+00
    0.41608E+06        -0.97597E+08         0.00000E+00
    0.00000E+00         0.00000E+00        -0.42270E+08
 
   -0.41848E+08         0.41838E+06         0.00000E+00
    0.41838E+06        -0.97598E+08         0.00000E+00
    0.00000E+00         0.00000E+00        -0.42072E+08
 
   -0.41665E+08         0.42017E+06         0.00000E+00
    0.42017E+06        -0.97598E+08         0.00000E+00
    0.00000E+00         0.00000E+00        -0.41872E+08
 
   -0.41482E+08         0.42138E+06         0.00000E+00
    0.42138E+06        -0.97599E+08         0.00000E+00
    0.00000E+00         0.00000E+00        -0.41669E+08
 
   -0.41297E+08         0.42195E+06         0.00000E+00
    0.42195E+06        -0.97600E+08         0.00000E+00
    0.00000E+00         0.00000E+00        -0.41463E+08
 
   -0.41113E+08         0.42178E+06         0.00000E+00
    0.42178E+06        -0.97601E+08         0.00000E+00
    0.00000E+00         0.00000E+00        -0.41254E+08
 
   -0.40929E+08         0.42079E+06         0.00000E+00
    0.42079E+06        -0.97602E+08         0.00000E+00
    0.00000E+00         0.00000E+00        -0.41042E+08
 
   -0.40745E+08         0.41885E+06         0.00000E+00
    0.41885E+06        -0.97603E+08         0.00000E+00
    0.00000E+00         0.00000E+00        -0.40828E+08
 
   -0.40562E+08         0.41585E+06         0.00000E+00
    0.41585E+06        -0.97604E+08         0.00000E+00
    0.00000E+00         0.00000E+00        -0.40611E+08
 
   -0.40380E+08         0.41165E+06         0.00000E+00
    0.41165E+06        -0.97606E+08         0.00000E+00
    0.00000E+00         0.00000E+00        -0.40392E+08
 
   -0.40200E+08         0.40608E+06         0.00000E+00
    0.40608E+06        -0.97607E+08         0.00000E+00
    0.00000E+00         0.00000E+00        -0.40170E+08
 
   -0.40023E+08         0.39896E+06         0.00000E+00
    0.39896E+06        -0.97609E+08         0.00000E+00
    0.00000E+00         0.00000E+00        -0.39946E+08
 
   -0.39849E+08         0.39010E+06         0.00000E+00
    0.39010E+06        -0.97612E+08         0.00000E+00
    0.00000E+00         0.00000E+00        -0.39719E+08
 
   -0.39678E+08         0.37927E+06         0.00000E+00
    0.37927E+06        -0.97614E+08         0.00000E+00
    0.00000E+00         0.00000E+00        -0.39491E+08
 
   -0.39511E+08         0.36622E+06         0.00000E+00
    0.36622E+06        -0.97617E+08         0.00000E+00
    0.00000E+00         0.00000E+00        -0.39260E+08
 
   -0.39350E+08         0.35070E+06         0.00000E+00
    0.35070E+06        -0.97620E+08         0.00000E+00
    0.00000E+00         0.00000E+00        -0.39027E+08
 
   -0.39195E+08         0.33243E+06         0.00000E+00
    0.33243E+06        -0.97624E+08         0.00000E+00
    0.00000E+00         0.00000E+00        -0.38792E+08
 
   -0.39048E+08         0.31114E+06         0.00000E+00
    0.31114E+06        -0.97628E+08         0.00000E+00
    0.00000E+00         0.00000E+00        -0.38555E+08
 
   -0.38908E+08         0.28656E+06         0.00000E+00
    0.28656E+06        -0.97632E+08         0.00000E+00
    0.00000E+00         0.00000E+00        -0.38317E+08
 
   -0.38777E+08         0.25847E+06         0.00000E+00
    0.25847E+06        -0.97637E+08         0.00000E+00
    0.00000E+00         0.00000E+00        -0.38077E+08
 
   -0.38657E+08         0.22669E+06         0.00000E+00
    0.22669E+06        -0.97642E+08         0.00000E+00
    0.00000E+00         0.00000E+00        -0.37835E+08
 
   -0.38548E+08         0.19119E+06         0.00000E+00
    0.19119E+06        -0.97647E+08         0.00000E+00
    0.00000E+00         0.00000E+00        -0.37593E+08
 
   -0.38451E+08         0.15208E+06         0.00000E+00
    0.15208E+06        -0.97652E+08         0.00000E+00
    0.00000E+00         0.00000E+00        -0.37349E+08
 
   -0.38367E+08         0.10971E+06         0.00000E+00
    0.10971E+06        -0.97656E+08         0.00000E+00
    0.00000E+00         0.00000E+00        -0.37104E+08
 
   -0.38296E+08         0.64825E+05         0.00000E+00
    0.64825E+05        -0.97659E+08         0.00000E+00
    0.00000E+00         0.00000E+00        -0.36858E+08
 
   -0.38239E+08         0.18666E+05         0.00000E+00
    0.18666E+05        -0.97661E+08         0.00000E+00
    0.00000E+00         0.00000E+00        -0.36611E+08
 
   -0.38194E+08        -0.26736E+05         0.00000E+00
   -0.26736E+05        -0.97661E+08         0.00000E+00
    0.00000E+00         0.00000E+00        -0.36364E+08
 
   -0.38158E+08        -0.68123E+05         0.00000E+00
   -0.68123E+05        -0.97656E+08         0.00000E+00
    0.00000E+00         0.00000E+00        -0.36116E+08
 
   -0.38129E+08        -0.10006E+06         0.00000E+00
   -0.10006E+06        -0.97645E+08         0.00000E+00
    0.00000E+00         0.00000E+00        -0.35868E+08
 
   -0.38101E+08        -0.11314E+06         0.00000E+00
   -0.11314E+06        -0.97618E+08         0.00000E+00
    0.00000E+00         0.00000E+00        -0.35620E+08
 
   -0.38072E+08        -0.94191E+05         0.00000E+00
   -0.94191E+05        -0.97556E+08         0.00000E+00
    0.00000E+00         0.00000E+00        -0.35372E+08
 
   -0.38051E+08        -0.37497E+05         0.00000E+00
   -0.37497E+05        -0.97420E+08         0.00000E+00
    0.00000E+00         0.00000E+00        -0.35124E+08
 
   -0.49051E+08        -0.97599E+04         0.00000E+00
   -0.97599E+04        -0.97643E+08         0.00000E+00
    0.00000E+00         0.00000E+00        -0.49966E+08
 
   -0.49044E+08        -0.23579E+05         0.00000E+00
   -0.23579E+05        -0.97607E+08         0.00000E+00
    0.00000E+00         0.00000E+00        -0.49897E+08
 
   -0.49036E+08        -0.26085E+05         0.00000E+00
   -0.26085E+05        -0.97592E+08         0.00000E+00
    0.00000E+00         0.00000E+00        -0.49828E+08
 
   -0.49027E+08        -0.19663E+05         0.00000E+00
   -0.19663E+05        -0.97586E+08         0.00000E+00
    0.00000E+00         0.00000E+00        -0.49759E+08
 
   -0.49017E+08        -0.83953E+04         0.00000E+00
   -0.83953E+04        -0.97584E+08         0.00000E+00
    0.00000E+00         0.00000E+00        -0.49691E+08
 
   -0.49004E+08         0.51532E+04         0.00000E+00
    0.51532E+04        -0.97583E+08         0.00000E+00
    0.00000E+00         0.00000E+00        -0.49622E+08
 
   -0.48987E+08         0.19614E+05         0.00000E+00
    0.19614E+05        -0.97583E+08         0.00000E+00
    0.00000E+00         0.00000E+00        -0.49553E+08
 
   -0.48965E+08         0.34190E+05         0.00000E+00
    0.34190E+05        -0.97583E+08         0.00000E+00
    0.00000E+00         0.00000E+00        -0.49484E+08
 
   -0.48938E+08         0.48398E+05         0.00000E+00
    0.48398E+05        -0.97584E+08         0.00000E+00
    0.00000E+00         0.00000E+00        -0.49415E+08
 
   -0.48906E+08         0.61946E+05         0.00000E+00
    0.61946E+05        -0.97585E+08         0.00000E+00
    0.00000E+00         0.00000E+00        -0.49345E+08
 
   -0.48869E+08         0.74675E+05         0.00000E+00
    0.74675E+05        -0.97586E+08         0.00000E+00
    0.00000E+00         0.00000E+00        -0.49274E+08
 
   -0.48828E+08         0.86513E+05         0.00000E+00
    0.86513E+05        -0.97587E+08         0.00000E+00
    0.00000E+00         0.00000E+00        -0.49203E+08
 
   -0.48781E+08         0.97449E+05         0.00000E+00
    0.97449E+05        -0.97588E+08         0.00000E+00
    0.00000E+00         0.00000E+00        -0.49132E+08
 
   -0.48731E+08         0.10751E+06         0.00000E+00
    0.10751E+06        -0.97589E+08         0.00000E+00
    0.00000E+00         0.00000E+00        -0.49059E+08
 
   -0.48676E+08         0.11676E+06         0.00000E+00
    0.11676E+06        -0.97590E+08         0.00000E+00
    0.00000E+00         0.00000E+00        -0.48986E+08
 
   -0.48618E+08         0.12526E+06         0.00000E+00
    0.12526E+06        -0.97591E+08         0.00000E+00
    0.00000E+00         0.00000E+00        -0.48912E+08
 
   -0.48556E+08         0.13309E+06         0.00000E+00
    0.13309E+06        -0.97592E+08         0.00000E+00
    0.00000E+00         0.00000E+00        -0.48838E+08
 
   -0.48490E+08         0.14034E+06         0.00000E+00
    0.14034E+06        -0.97592E+08         0.00000E+00
    0.00000E+00         0.00000E+00        -0.48762E+08
 
   -0.48422E+08         0.14707E+06         0.00000E+00
    0.14707E+06        -0.97593E+08         0.00000E+00
    0.00000E+00         0.00000E+00        -0.48685E+08
 
   -0.48351E+08         0.15337E+06         0.00000E+00
    0.15337E+06        -0.97593E+08         0.00000E+00
    0.00000E+00         0.00000E+00        -0.48607E+08
 
   -0.48277E+08         0.15929E+06         0.00000E+00
    0.15929E+06        -0.97594E+08         0.00000E+00
    0.00000E+00         0.00000E+00        -0.48528E+08
 
   -0.48200E+08         0.16489E+06         0.00000E+00
    0.16489E+06        -0.97594E+08         0.00000E+00
    0.00000E+00         0.00000E+00        -0.48448E+08
 
   -0.48121E+08         0.17024E+06         0.00000E+00
    0.17024E+06        -0.97594E+08         0.00000E+00
    0.00000E+00         0.00000E+00        -0.48366E+08
 
   -0.48039E+08         0.17537E+06         0.00000E+00
    0.17537E+06        -0.97595E+08         0.00000E+00
    0.00000E+00         0.00000E+00        -0.48283E+08
 
   -0.47955E+08         0.18034E+06         0.00000E+00
    0.18034E+06        -0.97595E+08         0.00000E+00
    0.00000E+00         0.00000E+00        -0.48199E+08
 
   -0.47869E+08         0.18516E+06         0.00000E+00
    0.18516E+06        -0.97595E+08         0.00000E+00
    0.00000E+00         0.00000E+00        -0.48113E+08
 
   -0.47780E+08         0.18989E+06         0.00000E+00
    0.18989E+06        -0.97595E+08         0.00000E+00
    0.00000E+00         0.00000E+00        -0.48025E+08
 
   -0.47689E+08         0.19453E+06         0.00000E+00
    0.19453E+06        -0.97595E+08         0.00000E+00
    0.00000E+00         0.00000E+00        -0.47936E+08
 
   -0.47596E+08         0.19912E+06         0.00000E+00
    0.19912E+06        -0.97595E+08         0.00000E+00
    0.00000E+00         0.00000E+00        -0.47846E+08
 
   -0.47501E+08         0.20367E+06         0.00000E+00
    0.20367E+06        -0.97595E+08         0.00000E+00
    0.00000E+00         0.00000E+00        -0.47753E+08
 
   -0.47404E+08         0.20820E+06         0.00000E+00
    0.20820E+06        -0.97595E+08         0.00000E+00
    0.00000E+00         0.00000E+00        -0.47659E+08
 
   -0.47304E+08         0.21272E+06         0.00000E+00
    0.21272E+06        -0.97595E+08         0.00000E+00
    0.00000E+00         0.00000E+00        -0.47563E+08
 
   -0.47202E+08         0.21725E+06         0.00000E+00
    0.21725E+06        -0.97595E+08         0.00000E+00
    0.00000E+00         0.00000E+00        -0.47465E+08
 
   -0.47098E+08         0.22179E+06         0.00000E+00
    0.22179E+06        -0.97595E+08         0.00000E+00
    0.00000E+00         0.00000E+00        -0.47365E+08
 
   -0.46992E+08         0.22635E+06         0.00000E+00
    0.22635E+06        -0.97595E+08         0.00000E+00
    0.00000E+00         0.00000E+00        -0.47263E+08
 
   -0.46884E+08         0.23094E+06         0.00000E+00
    0.23094E+06        -0.97595E+08         0.00000E+00
    0.00000E+00         0.00000E+00        -0.47159E+08
 
   -0.46774E+08         0.23557E+06         0.00000E+00
    0.23557E+06        -0.97595E+08         0.00000E+00
    0.00000E+00         0.00000E+00        -0.47053E+08
 
   -0.46661E+08         0.24022E+06         0.00000E+00
    0.24022E+06        -0.97595E+08         0.00000E+00
    0.00000E+00         0.00000E+00        -0.46945E+08
 
   -0.46546E+08         0.24492E+06         0.00000E+00
    0.24492E+06        -0.97595E+08         0.00000E+00
    0.00000E+00         0.00000E+00        -0.46834E+08
 
   -0.46429E+08         0.24965E+06         0.00000E+00
    0.24965E+06        -0.97595E+08         0.00000E+00
    0.00000E+00         0.00000E+00        -0.46721E+08
 
   -0.46310E+08         0.25442E+06         0.00000E+00
    0.25442E+06        -0.97595E+08         0.00000E+00
    0.00000E+00         0.00000E+00        -0.46606E+08
 
   -0.46188E+08         0.25923E+06         0.00000E+00
    0.25923E+06        -0.97595E+08         0.00000E+00
    0.00000E+00         0.00000E+00        -0.46488E+08
 
   -0.46064E+08         0.26408E+06         0.00000E+00
    0.26408E+06        -0.97595E+08         0.00000E+00
    0.00000E+00         0.00000E+00        -0.46368E+08
 
   -0.45937E+08         0.26896E+06         0.00000E+00
    0.26896E+06        -0.97595E+08         0.00000E+00
    0.00000E+00         0.00000E+00        -0.46246E+08
 
   -0.45809E+08         0.27388E+06         0.00000E+00
    0.27388E+06        -0.97595E+08         0.00000E+00
    0.00000E+00         0.00000E+00        -0.46121E+08
 
   -0.45678E+08         0.27883E+06         0.00000E+00
    0.27883E+06        -0.97595E+08         0.00000E+00
    0.00000E+00         0.00000E+00        -0.45993E+08
 
   -0.45544E+08         0.28380E+06         0.00000E+00
    0.28380E+06        -0.97595E+08         0.00000E+00
    0.00000E+00         0.00000E+00        -0.45863E+08
 
   -0.45408E+08         0.28879E+06         0.00000E+00
    0.28879E+06        -0.97595E+08         0.00000E+00
    0.00000E+00         0.00000E+00        -0.45730E+08
 
   -0.45270E+08         0.29379E+06         0.00000E+00
    0.29379E+06        -0.97595E+08         0.00000E+00
    0.00000E+00         0.00000E+00        -0.45594E+08
 
   -0.45129E+08         0.29881E+06         0.00000E+00
    0.29881E+06        -0.97595E+08         0.00000E+00
    0.00000E+00         0.00000E+00        -0.45456E+08
 
   -0.44986E+08         0.30382E+06         0.00000E+00
    0.30382E+06        -0.97595E+08         0.00000E+00
    0.00000E+00         0.00000E+00        -0.45314E+08
 
   -0.44841E+08         0.30883E+06         0.00000E+00
    0.30883E+06        -0.97595E+08         0.00000E+00
    0.00000E+00         0.00000E+00        -0.45170E+08
 
   -0.44693E+08         0.31382E+06         0.00000E+00
    0.31382E+06        -0.97595E+08         0.00000E+00
    0.00000E+00         0.00000E+00        -0.45023E+08
 
   -0.44542E+08         0.31879E+06         0.00000E+00
    0.31879E+06        -0.97595E+08         0.00000E+00
    0.00000E+00         0.00000E+00        -0.44874E+08
 
   -0.44390E+08         0.32372E+06         0.00000E+00
    0.32372E+06        -0.97595E+08         0.00000E+00
    0.00000E+00         0.00000E+00        -0.44721E+08
 
   -0.44234E+08         0.32860E+06         0.00000E+00
    0.32860E+06        -0.97595E+08         0.00000E+00
    0.00000E+00         0.00000E+00        -0.44565E+08
 
   -0.44077E+08         0.33342E+06         0.00000E+00
    0.33342E+06        -0.97595E+08         0.00000E+00
    0.00000E+00         0.00000E+00        -0.44407E+08
 
   -0.43917E+08         0.33817E+06         0.00000E+00
    0.33817E+06        -0.97595E+08         0.00000E+00
    0.00000E+00         0.00000E+00        -0.44245E+08
 
   -0.43755E+08         0.34283E+06         0.00000E+00
    0.34283E+06        -0.97595E+08         0.00000E+00
    0.00000E+00         0.00000E+00        -0.44081E+08
 
   -0.43591E+08         0.34738E+06         0.00000E+00
    0.34738E+06        -0.97595E+08         0.00000E+00
    0.00000E+00         0.00000E+00        -0.43913E+08
 
   -0.43424E+08         0.35181E+06         0.00000E+00
    0.35181E+06        -0.97595E+08         0.00000E+00
    0.00000E+00         0.00000E+00        -0.43743E+08
 
   -0.43256E+08         0.35609E+06         0.00000E+00
    0.35609E+06        -0.97596E+08         0.00000E+00
    0.00000E+00         0.00000E+00        -0.43569E+08
 
   -0.43085E+08         0.36021E+06         0.00000E+00
    0.36021E+06        -0.97596E+08         0.00000E+00
    0.00000E+00         0.00000E+00        -0.43392E+08
 
   -0.42913E+08         0.36413E+06         0.00000E+00
    0.36413E+06        -0.97596E+08         0.00000E+00
    0.00000E+00         0.00000E+00        -0.43213E+08
 
   -0.42738E+08         0.36784E+06         0.00000E+00
    0.36784E+06        -0.97596E+08         0.00000E+00
    0.00000E+00         0.00000E+00        -0.43030E+08
 
   -0.42562E+08         0.37129E+06         0.00000E+00
    0.37129E+06        -0.97596E+08         0.00000E+00
    0.00000E+00         0.00000E+00        -0.42845E+08
 
   -0.42384E+08         0.37447E+06         0.00000E+00
    0.37447E+06        -0.97597E+08         0.00000E+00
    0.00000E+00         0.00000E+00        -0.42656E+08
 
   -0.42205E+08         0.37732E+06         0.00000E+00
    0.37732E+06        -0.97597E+08         0.00000E+00
    0.00000E+00         0.00000E+00        -0.42464E+08
 
   -0.42024E+08         0.37981E+06         0.00000E+00
    0.37981E+06        -0.97598E+08         0.00000E+00
    0.00000E+00         0.00000E+00        -0.42270E+08
 
   -0.41842E+08         0.38189E+06         0.00000E+00
    0.38189E+06        -0.97598E+08         0.00000E+00
    0.00000E+00         0.00000E+00        -0.42072E+08
 
   -0.41659E+08         0.38351E+06         0.00000E+00
    0.38351E+06        -0.97599E+08         0.00000E+00
    0.00000E+00         0.00000E+00        -0.41872E+08
 
   -0.41476E+08         0.38460E+06         0.00000E+00
    0.38460E+06        -0.97599E+08         0.00000E+00
    0.00000E+00         0.00000E+00        -0.41669E+08
 
   -0.41292E+08         0.38510E+06         0.00000E+00
    0.38510E+06        -0.97600E+08         0.00000E+00
    0.00000E+00         0.00000E+00        -0.41463E+08
 
   -0.41108E+08         0.38492E+06         0.00000E+00
    0.38492E+06        -0.97601E+08         0.00000E+00
    0.00000E+00         0.00000E+00        -0.41254E+08
 
   -0.40924E+08         0.38399E+06         0.00000E+00
    0.38399E+06        -0.97601E+08         0.00000E+00
    0.00000E+00         0.00000E+00        -0.41042E+08
 
   -0.40740E+08         0.38219E+06         0.00000E+00
    0.38219E+06        -0.97602E+08         0.00000E+00
    0.00000E+00         0.00000E+00        -0.40828E+08
 
   -0.40558E+08         0.37942E+06         0.00000E+00
    0.37942E+06        -0.97604E+08         0.00000E+00
    0.00000E+00         0.00000E+00        -0.40611E+08
 
   -0.40376E+08         0.37553E+06         0.00000E+00
    0.37553E+06        -0.97605E+08         0.00000E+00
    0.00000E+00         0.00000E+00        -0.40392E+08
 
   -0.40197E+08         0.37039E+06         0.00000E+00
    0.37039E+06        -0.97606E+08         0.00000E+00
    0.00000E+00         0.00000E+00        -0.40170E+08
 
   -0.40020E+08         0.36382E+06         0.00000E+00
    0.36382E+06        -0.97608E+08         0.00000E+00
    0.00000E+00         0.00000E+00        -0.39946E+08
 
   -0.39847E+08         0.35563E+06         0.00000E+00
    0.35563E+06        -0.97610E+08         0.00000E+00
    0.00000E+00         0.00000E+00        -0.39719E+08
 
   -0.39677E+08         0.34562E+06         0.00000E+00
    0.34562E+06        -0.97612E+08         0.00000E+00
    0.00000E+00         0.00000E+00        -0.39491E+08
 
   -0.39511E+08         0.33356E+06         0.00000E+00
    0.33356E+06        -0.97614E+08         0.00000E+00
    0.00000E+00         0.00000E+00        -0.39260E+08
 
   -0.39351E+08         0.31919E+06         0.00000E+00
    0.31919E+06        -0.97617E+08         0.00000E+00
    0.00000E+00         0.00000E+00        -0.39027E+08
 
   -0.39198E+08         0.30227E+06         0.00000E+00
    0.30227E+06        -0.97620E+08         0.00000E+00
    0.00000E+00         0.00000E+00        -0.38792E+08
 
   -0.39052E+08         0.28253E+06         0.00000E+00
    0.28253E+06        -0.97624E+08         0.00000E+00
    0.00000E+00         0.00000E+00        -0.38555E+08
 
   -0.38914E+08         0.25972E+06         0.00000E+00
    0.25972E+06        -0.97627E+08         0.00000E+00
    0.00000E+00         0.00000E+00        -0.38317E+08
 
   -0.38786E+08         0.23360E+06         0.00000E+00
    0.23360E+06        -0.97631E+08         0.00000E+00
    0.00000E+00         0.00000E+00        -0.38077E+08
 
   -0.38668E+08         0.20403E+06         0.00000E+00
    0.20403E+06        -0.97635E+08         0.00000E+00
    0.00000E+00         0.00000E+00        -0.37835E+08
 
   -0.38563E+08         0.17094E+06         0.00000E+00
    0.17094E+06        -0.97640E+08         0.00000E+00
    0.00000E+00         0.00000E+00        -0.37593E+08
 
   -0.38470E+08         0.13441E+06         0.00000E+00
    0.13441E+06        -0.97644E+08         0.00000E+00
    0.00000E+00         0.00000E+00        -0.37349E+08
 
   -0.38391E+08         0.94760E+05         0.00000E+00
    0.94760E+05        -0.97648E+08         0.00000E+00
    0.00000E+00         0.00000E+00        -0.37104E+08
 
   -0.38326E+08         0.52631E+05         0.00000E+00
    0.52631E+05        -0.97651E+08         0.00000E+00
    0.00000E+00         0.00000E+00        -0.36858E+08
 
   -0.38275E+08         0.91339E+04         0.00000E+00
    0.91339E+04        -0.97652E+08         0.00000E+00
    0.00000E+00         0.00000E+00        -0.36611E+08
 
   -0.38237E+08        -0.33913E+05         0.00000E+00
   -0.33913E+05        -0.97652E+08         0.00000E+00
    0.00000E+00         0.00000E+00        -0.36364E+08
 
   -0.38210E+08        -0.73568E+05         0.00000E+00
   -0.73568E+05        -0.97649E+08         0.00000E+00
    0.00000E+00         0.00000E+00        -0.36116E+08
 
   -0.38190E+08        -0.10484E+06         0.00000E+00
   -0.10484E+06        -0.97640E+08         0.00000E+00
    0.00000E+00         0.00000E+00        -0.35868E+08
 
   -0.38170E+08        -0.11846E+06         0.00000E+00
   -0.11846E+06        -0.97618E+08         0.00000E+00
    0.00000E+00         0.00000E+00        -0.35620E+08
 
   -0.38147E+08        -0.99751E+05         0.00000E+00
   -0.99751E+05        -0.97564E+08         0.00000E+00
    0.00000E+00         0.00000E+00        -0.35372E+08
 
   -0.38128E+08        -0.40146E+05         0.00000E+00
   -0.40146E+05        -0.97435E+08         0.00000E+00
    0.00000E+00         0.00000E+00        -0.35124E+08
 
   -0.49028E+08        -0.10579E+05         0.00000E+00
   -0.10579E+05        -0.97639E+08         0.00000E+00
    0.00000E+00         0.00000E+00        -0.49966E+08
 
   -0.49022E+08        -0.25242E+05         0.00000E+00
   -0.25242E+05        -0.97605E+08         0.00000E+00
    0.00000E+00         0.00000E+00        -0.49897E+08
 
   -0.49015E+08        -0.27671E+05         0.00000E+00
   -0.27671E+05        -0.97593E+08         0.00000E+00
    0.00000E+00         0.00000E+00        -0.49828E+08
 
   -0.49009E+08        -0.21234E+05         0.00000E+00
   -0.21234E+05        -0.97588E+08         0.00000E+00
    0.00000E+00         0.00000E+00        -0.49759E+08
 
   -0.49002E+08        -0.10396E+05         0.00000E+00
   -0.10396E+05        -0.97586E+08         0.00000E+00
    0.00000E+00         0.00000E+00        -0.49691E+08
 
   -0.48991E+08         0.23965E+04         0.00000E+00
    0.23965E+04        -0.97586E+08         0.00000E+00
    0.00000E+00         0.00000E+00        -0.49622E+08
 
   -0.48976E+08         0.15922E+05         0.00000E+00
    0.15922E+05        -0.97586E+08         0.00000E+00
    0.00000E+00         0.00000E+00        -0.49553E+08
 
   -0.48956E+08         0.29476E+05         0.00000E+00
    0.29476E+05        -0.97586E+08         0.00000E+00
    0.00000E+00         0.00000E+00        -0.49484E+08
 
   -0.48930E+08         0.42636E+05         0.00000E+00
    0.42636E+05        -0.97587E+08         0.00000E+00
    0.00000E+00         0.00000E+00        -0.49415E+08
 
   -0.48899E+08         0.55149E+05         0.00000E+00
    0.55149E+05        -0.97588E+08         0.00000E+00
    0.00000E+00         0.00000E+00        -0.49345E+08
 
   -0.48863E+08         0.66877E+05         0.00000E+00
    0.66877E+05        -0.97589E+08         0.00000E+00
    0.00000E+00         0.00000E+00        -0.49274E+08
 
   -0.48822E+08         0.77762E+05         0.00000E+00
    0.77762E+05        -0.97590E+08         0.00000E+00
    0.00000E+00         0.00000E+00        -0.49203E+08
 
   -0.48777E+08         0.87798E+05         0.00000E+00
    0.87798E+05        -0.97590E+08         0.00000E+00
    0.00000E+00         0.00000E+00        -0.49132E+08
 
   -0.48726E+08         0.97018E+05         0.00000E+00
    0.97018E+05        -0.97591E+08         0.00000E+00
    0.00000E+00         0.00000E+00        -0.49059E+08
 
   -0.48672E+08         0.10548E+06         0.00000E+00
    0.10548E+06        -0.97592E+08         0.00000E+00
    0.00000E+00         0.00000E+00        -0.48986E+08
 
   -0.48614E+08         0.11324E+06         0.00000E+00
    0.11324E+06        -0.97593E+08         0.00000E+00
    0.00000E+00         0.00000E+00        -0.48912E+08
 
   -0.48552E+08         0.12038E+06         0.00000E+00
    0.12038E+06        -0.97593E+08         0.00000E+00
    0.00000E+00         0.00000E+00        -0.48838E+08
 
   -0.48487E+08         0.12698E+06         0.00000E+00
    0.12698E+06        -0.97594E+08         0.00000E+00
    0.00000E+00         0.00000E+00        -0.48762E+08
 
   -0.48419E+08         0.13311E+06         0.00000E+00
    0.13311E+06        -0.97594E+08         0.00000E+00
    0.00000E+00         0.00000E+00        -0.48685E+08
 
   -0.48347E+08         0.13883E+06         0.00000E+00
    0.13883E+06        -0.97595E+08         0.00000E+00
    0.00000E+00         0.00000E+00        -0.48607E+08
 
   -0.48273E+08         0.14420E+06         0.00000E+00
    0.14420E+06        -0.97595E+08         0.00000E+00
    0.00000E+00         0.00000E+00        -0.48528E+08
 
   -0.48196E+08         0.14929E+06         0.00000E+00
    0.14929E+06        -0.97595E+08         0.00000E+00
    0.00000E+00         0.00000E+00        -0.48448E+08
 
   -0.48117E+08         0.15413E+06         0.00000E+00
    0.15413E+06        -0.97595E+08         0.00000E+00
    0.00000E+00         0.00000E+00        -0.48366E+08
 
   -0.48035E+08         0.15879E+06         0.00000E+00
    0.15879E+06        -0.97596E+08         0.00000E+00
    0.00000E+00         0.00000E+00        -0.48283E+08
 
   -0.47951E+08         0.16328E+06         0.00000E+00
    0.16328E+06        -0.97596E+08         0.00000E+00
    0.00000E+00         0.00000E+00        -0.48199E+08
 
   -0.47865E+08         0.16765E+06         0.00000E+00
    0.16765E+06        -0.97596E+08         0.00000E+00
    0.00000E+00         0.00000E+00        -0.48113E+08
 
   -0.47776E+08         0.17193E+06         0.00000E+00
    0.17193E+06        -0.97596E+08         0.00000E+00
    0.00000E+00         0.00000E+00        -0.48025E+08
 
   -0.47685E+08         0.17613E+06         0.00000E+00
    0.17613E+06        -0.97596E+08         0.00000E+00
    0.00000E+00         0.00000E+00        -0.47936E+08
 
   -0.47592E+08         0.18028E+06         0.00000E+00
    0.18028E+06        -0.97596E+08         0.00000E+00
    0.00000E+00         0.00000E+00        -0.47846E+08
 
   -0.47497E+08         0.18440E+06         0.00000E+00
    0.18440E+06        -0.97596E+08         0.00000E+00
    0.00000E+00         0.00000E+00        -0.47753E+08
 
   -0.47399E+08         0.18849E+06         0.00000E+00
    0.18849E+06        -0.97596E+08         0.00000E+00
    0.00000E+00         0.00000E+00        -0.47659E+08
 
   -0.47299E+08         0.19259E+06         0.00000E+00
    0.19259E+06        -0.97596E+08         0.00000E+00
    0.00000E+00         0.00000E+00        -0.47563E+08
 
   -0.47198E+08         0.19668E+06         0.00000E+00
    0.19668E+06        -0.97596E+08         0.00000E+00
    0.00000E+00         0.00000E+00        -0.47465E+08
 
   -0.47094E+08         0.20079E+06         0.00000E+00
    0.20079E+06        -0.97596E+08         0.00000E+00
    0.00000E+00         0.00000E+00        -0.47365E+08
 
   -0.46987E+08         0.20491E+06         0.00000E+00
    0.20491E+06        -0.97596E+08         0.00000E+00
    0.00000E+00         0.00000E+00        -0.47263E+08
 
   -0.46879E+08         0.20907E+06         0.00000E+00
    0.20907E+06        -0.97596E+08         0.00000E+00
    0.00000E+00         0.00000E+00        -0.47159E+08
 
   -0.46769E+08         0.21324E+06         0.00000E+00
    0.21324E+06        -0.97596E+08         0.00000E+00
    0.00000E+00         0.00000E+00        -0.47053E+08
 
   -0.46656E+08         0.21746E+06         0.00000E+00
    0.21746E+06        -0.97596E+08         0.00000E+00
    0.00000E+00         0.00000E+00        -0.46945E+08
 
   -0.46541E+08         0.22170E+06         0.00000E+00
    0.22170E+06        -0.97596E+08         0.00000E+00
    0.00000E+00         0.00000E+00        -0.46834E+08
 
   -0.46423E+08         0.22598E+06         0.00000E+00
    0.22598E+06        -0.97596E+08         0.00000E+00
    0.00000E+00         0.00000E+00        -0.46721E+08
 
   -0.46304E+08         0.23029E+06         0.00000E+00
    0.23029E+06        -0.97596E+08         0.00000E+00
    0.00000E+00         0.00000E+00        -0.46606E+08
 
   -0.46182E+08         0.23464E+06         0.00000E+00
    0.23464E+06        -0.97596E+08         0.00000E+00
    0.00000E+00         0.00000E+00        -0.46488E+08
 
   -0.46058E+08         0.23903E+06         0.00000E+00
    0.23903E+06        -0.97596E+08         0.00000E+00
    0.00000E+00         0.00000E+00        -0.46368E+08
 
   -0.45931E+08         0.24344E+06         0.00000E+00
    0.24344E+06        -0.97596E+08         0.00000E+00
    0.00000E+00         0.00000E+00        -0.46246E+08
 
   -0.45803E+08         0.24789E+06         0.00000E+00
    0.24789E+06        -0.97596E+08         0.00000E+00
    0.00000E+00         0.00000E+00        -0.46121E+08
 
   -0.45671E+08         0.25236E+06         0.00000E+00
    0.25236E+06        -0.97596E+08         0.00000E+00
    0.00000E+00         0.00000E+00        -0.45993E+08
 
   -0.45538E+08         0.25685E+06         0.00000E+00
    0.25685E+06        -0.97596E+08         0.00000E+00
    0.00000E+00         0.00000E+00        -0.45863E+08
 
   -0.45402E+08         0.26136E+06         0.00000E+00
    0.26136E+06        -0.97596E+08         0.00000E+00
    0.00000E+00         0.00000E+00        -0.45730E+08
 
   -0.45264E+08         0.26589E+06         0.00000E+00
    0.26589E+06        -0.97596E+08         0.00000E+00
    0.00000E+00         0.00000E+00        -0.45594E+08
 
   -0.45123E+08         0.27042E+06         0.00000E+00
    0.27042E+06        -0.97596E+08         0.00000E+00
    0.00000E+00         0.00000E+00        -0.45456E+08
 
   -0.44980E+08         0.27495E+06         0.00000E+00
    0.27495E+06        -0.97596E+08         0.00000E+00
    0.00000E+00         0.00000E+00        -0.45314E+08
 
   -0.44834E+08         0.27948E+06         0.00000E+00
    0.27948E+06        -0.97596E+08         0.00000E+00
    0.00000E+00         0.00000E+00        -0.45170E+08
 
   -0.44686E+08         0.28399E+06         0.00000E+00
    0.28399E+06        -0.97596E+08         0.00000E+00
    0.00000E+00         0.00000E+00        -0.45023E+08
 
   -0.44536E+08         0.28848E+06         0.00000E+00
    0.28848E+06        -0.97596E+08         0.00000E+00
    0.00000E+00         0.00000E+00        -0.44874E+08
 
   -0.44383E+08         0.29293E+06         0.00000E+00
    0.29293E+06        -0.97596E+08         0.00000E+00
    0.00000E+00         0.00000E+00        -0.44721E+08
 
   -0.44228E+08         0.29734E+06         0.00000E+00
    0.29734E+06        -0.97596E+08         0.00000E+00
    0.00000E+00         0.00000E+00        -0.44565E+08
 
   -0.44070E+08         0.30170E+06         0.00000E+00
    0.30170E+06        -0.97596E+08         0.00000E+00
    0.00000E+00         0.00000E+00        -0.44407E+08
 
   -0.43910E+08         0.30599E+06         0.00000E+00
    0.30599E+06        -0.97596E+08         0.00000E+00
    0.00000E+00         0.00000E+00        -0.44245E+08
 
   -0.43748E+08         0.31019E+06         0.00000E+00
    0.31019E+06        -0.97596E+08         0.00000E+00
    0.00000E+00         0.00000E+00        -0.44081E+08
 
   -0.43584E+08         0.31431E+06         0.00000E+00
    0.31431E+06        -0.97596E+08         0.00000E+00
    0.00000E+00         0.00000E+00        -0.43913E+08
 
   -0.43418E+08         0.31830E+06         0.00000E+00
    0.31830E+06        -0.97596E+08         0.00000E+00
    0.00000E+00         0.00000E+00        -0.43743E+08
 
   -0.43249E+08         0.32217E+06         0.00000E+00
    0.32217E+06        -0.97596E+08         0.00000E+00
    0.00000E+00         0.00000E+00        -0.43569E+08
 
   -0.43079E+08         0.32589E+06         0.00000E+00
    0.32589E+06        -0.97596E+08         0.00000E+00
    0.00000E+00         0.00000E+00        -0.43392E+08
 
   -0.42906E+08         0.32943E+06         0.00000E+00
    0.32943E+06        -0.97597E+08         0.00000E+00
    0.00000E+00         0.00000E+00        -0.43213E+08
 
   -0.42732E+08         0.33277E+06         0.00000E+00
    0.33277E+06        -0.97597E+08         0.00000E+00
    0.00000E+00         0.00000E+00        -0.43030E+08
 
   -0.42555E+08         0.33589E+06         0.00000E+00
    0.33589E+06        -0.97597E+08         0.00000E+00
    0.00000E+00         0.00000E+00        -0.42845E+08
 
   -0.42378E+08         0.33875E+06         0.00000E+00
    0.33875E+06        -0.97597E+08         0.00000E+00
    0.00000E+00         0.00000E+00        -0.42656E+08
 
   -0.42198E+08         0.34132E+06         0.00000E+00
    0.34132E+06        -0.97598E+08         0.00000E+00
    0.00000E+00         0.00000E+00        -0.42464E+08
 
   -0.42018E+08         0.34356E+06         0.00000E+00
    0.34356E+06        -0.97598E+08         0.00000E+00
    0.00000E+00         0.00000E+00        -0.42270E+08
 
   -0.41836E+08         0.34544E+06         0.00000E+00
    0.34544E+06        -0.97598E+08         0.00000E+00
    0.00000E+00         0.00000E+00        -0.42072E+08
 
   -0.41653E+08         0.34689E+06         0.00000E+00
    0.34689E+06        -0.97599E+08         0.00000E+00
    0.00000E+00         0.00000E+00        -0.41872E+08
 
   -0.41470E+08         0.34786E+06         0.00000E+00
    0.34786E+06        -0.97599E+08         0.00000E+00
    0.00000E+00         0.00000E+00        -0.41669E+08
 
   -0.41286E+08         0.34829E+06         0.00000E+00
    0.34829E+06        -0.97600E+08         0.00000E+00
    0.00000E+00         0.00000E+00        -0.41463E+08
 
   -0.41102E+08         0.34812E+06         0.00000E+00
    0.34812E+06        -0.97600E+08         0.00000E+00
    0.00000E+00         0.00000E+00        -0.41254E+08
 
   -0.40919E+08         0.34725E+06         0.00000E+00
    0.34725E+06        -0.97601E+08         0.00000E+00
    0.00000E+00         0.00000E+00        -0.41042E+08
 
   -0.40735E+08         0.34560E+06         0.00000E+00
    0.34560E+06        -0.97602E+08         0.00000E+00
    0.00000E+00         0.00000E+00        -0.40828E+08
 
   -0.40553E+08         0.34306E+06         0.00000E+00
    0.34306E+06        -0.97603E+08         0.00000E+00
    0.00000E+00         0.00000E+00        -0.40611E+08
 
   -0.40372E+08         0.33950E+06         0.00000E+00
    0.33950E+06        -0.97604E+08         0.00000E+00
    0.00000E+00         0.00000E+00        -0.40392E+08
 
   -0.40194E+08         0.33480E+06         0.00000E+00
    0.33480E+06        -0.97605E+08         0.00000E+00
    0.00000E+00         0.00000E+00        -0.40170E+08
 
   -0.40017E+08         0.32879E+06         0.00000E+00
    0.32879E+06        -0.97607E+08         0.00000E+00
    0.00000E+00         0.00000E+00        -0.39946E+08
 
   -0.39844E+08         0.32131E+06         0.00000E+00
    0.32131E+06        -0.97608E+08         0.00000E+00
    0.00000E+00         0.00000E+00        -0.39719E+08
 
   -0.39675E+08         0.31214E+06         0.00000E+00
    0.31214E+06        -0.97610E+08         0.00000E+00
    0.00000E+00         0.00000E+00        -0.39491E+08
 
   -0.39510E+08         0.30110E+06         0.00000E+00
    0.30110E+06        -0.97612E+08         0.00000E+00
    0.00000E+00         0.00000E+00        -0.39260E+08
 
   -0.39352E+08         0.28793E+06         0.00000E+00
    0.28793E+06        -0.97614E+08         0.00000E+00
    0.00000E+00         0.00000E+00        -0.39027E+08
 
   -0.39199E+08         0.27241E+06         0.00000E+00
    0.27241E+06        -0.97617E+08         0.00000E+00
    0.00000E+00         0.00000E+00        -0.38792E+08
 
   -0.39055E+08         0.25428E+06         0.00000E+00
    0.25428E+06        -0.97619E+08         0.00000E+00
    0.00000E+00         0.00000E+00        -0.38555E+08
 
   -0.38919E+08         0.23330E+06         0.00000E+00
    0.23330E+06        -0.97622E+08         0.00000E+00
    0.00000E+00         0.00000E+00        -0.38317E+08
 
   -0.38793E+08         0.20926E+06         0.00000E+00
    0.20926E+06        -0.97626E+08         0.00000E+00
    0.00000E+00         0.00000E+00        -0.38077E+08
 
   -0.38678E+08         0.18199E+06         0.00000E+00
    0.18199E+06        -0.97629E+08         0.00000E+00
    0.00000E+00         0.00000E+00        -0.37835E+08
 
   -0.38576E+08         0.15143E+06         0.00000E+00
    0.15143E+06        -0.97633E+08         0.00000E+00
    0.00000E+00         0.00000E+00        -0.37593E+08
 
   -0.38487E+08         0.11762E+06         0.00000E+00
    0.11762E+06        -0.97636E+08         0.00000E+00
    0.00000E+00         0.00000E+00        -0.37349E+08
 
   -0.38413E+08         0.80849E+05         0.00000E+00
    0.80849E+05        -0.97640E+08         0.00000E+00
    0.00000E+00         0.00000E+00        -0.37104E+08
 
   -0.38354E+08         0.41657E+05         0.00000E+00
    0.41657E+05        -0.97642E+08         0.00000E+00
    0.00000E+00         0.00000E+00        -0.36858E+08
 
   -0.38309E+08         0.10198E+04         0.00000E+00
    0.10198E+04        -0.97644E+08         0.00000E+00
    0.00000E+00         0.00000E+00        -0.36611E+08
 
   -0.38279E+08        -0.39466E+05         0.00000E+00
   -0.39466E+05        -0.97644E+08         0.00000E+00
    0.00000E+00         0.00000E+00        -0.36364E+08
 
   -0.38261E+08        -0.77198E+05         0.00000E+00
   -0.77198E+05        -0.97642E+08         0.00000E+00
    0.00000E+00         0.00000E+00        -0.36116E+08
 
   -0.38251E+08        -0.10771E+06         0.00000E+00
   -0.10771E+06        -0.97635E+08         0.00000E+00
    0.00000E+00         0.00000E+00        -0.35868E+08
 
   -0.38240E+08        -0.12217E+06         0.00000E+00
   -0.12217E+06        -0.97618E+08         0.00000E+00
    0.00000E+00         0.00000E+00        -0.35620E+08
 
   -0.38224E+08        -0.10452E+06         0.00000E+00
   -0.10452E+06        -0.97572E+08         0.00000E+00
    0.00000E+00         0.00000E+00        -0.35372E+08
 
   -0.38208E+08        -0.42682E+05         0.00000E+00
   -0.42682E+05        -0.97451E+08         0.00000E+00
    0.00000E+00         0.00000E+00        -0.35124E+08
 
   -0.49004E+08        -0.11362E+05         0.00000E+00
   -0.11362E+05        -0.97635E+08         0.00000E+00
    0.00000E+00         0.00000E+00        -0.49966E+08
 
   -0.48999E+08        -0.26637E+05         0.00000E+00
   -0.26637E+05        -0.97603E+08         0.00000E+00
    0.00000E+00         0.00000E+00        -0.49897E+08
 
   -0.48994E+08        -0.28745E+05         0.00000E+00
   -0.28745E+05        -0.97593E+08         0.00000E+00
    0.00000E+00         0.00000E+00        -0.49828E+08
 
   -0.48991E+08        -0.22241E+05         0.00000E+00
   -0.22241E+05        -0.97590E+08         0.00000E+00
    0.00000E+00         0.00000E+00        -0.49759E+08
 
   -0.48986E+08        -0.11890E+05         0.00000E+00
   -0.11890E+05        -0.97588E+08         0.00000E+00
    0.00000E+00         0.00000E+00        -0.49691E+08
 
   -0.48978E+08         0.74756E+02         0.00000E+00
    0.74756E+02        -0.97588E+08         0.00000E+00
    0.00000E+00         0.00000E+00        -0.49622E+08
 
   -0.48965E+08         0.12596E+05         0.00000E+00
    0.12596E+05        -0.97588E+08         0.00000E+00
    0.00000E+00         0.00000E+00        -0.49553E+08
 
   -0.48947E+08         0.25066E+05         0.00000E+00
    0.25066E+05        -0.97589E+08         0.00000E+00
    0.00000E+00         0.00000E+00        -0.49484E+08
 
   -0.48923E+08         0.37123E+05         0.00000E+00
    0.37123E+05        -0.97589E+08         0.00000E+00
    0.00000E+00         0.00000E+00        -0.49415E+08
 
   -0.48893E+08         0.48553E+05         0.00000E+00
    0.48553E+05        -0.97590E+08         0.00000E+00
    0.00000E+00         0.00000E+00        -0.49345E+08
 
   -0.48858E+08         0.59239E+05         0.00000E+00
    0.59239E+05        -0.97591E+08         0.00000E+00
    0.00000E+00         0.00000E+00        -0.49274E+08
 
   -0.48817E+08         0.69135E+05         0.00000E+00
    0.69135E+05        -0.97592E+08         0.00000E+00
    0.00000E+00         0.00000E+00        -0.49203E+08
 
   -0.48772E+08         0.78242E+05         0.00000E+00
    0.78242E+05        -0.97592E+08         0.00000E+00
    0.00000E+00         0.00000E+00        -0.49132E+08
 
   -0.48722E+08         0.86594E+05         0.00000E+00
    0.86594E+05        -0.97593E+08         0.00000E+00
    0.00000E+00         0.00000E+00        -0.49059E+08
 
   -0.48668E+08         0.94243E+05         0.00000E+00
    0.94243E+05        -0.97594E+08         0.00000E+00
    0.00000E+00         0.00000E+00        -0.48986E+08
 
   -0.48610E+08         0.10125E+06         0.00000E+00
    0.10125E+06        -0.97594E+08         0.00000E+00
    0.00000E+00         0.00000E+00        -0.48912E+08
 
   -0.48549E+08         0.10770E+06         0.00000E+00
    0.10770E+06        -0.97595E+08         0.00000E+00
    0.00000E+00         0.00000E+00        -0.48838E+08
 
   -0.48484E+08         0.11364E+06         0.00000E+00
    0.11364E+06        -0.97595E+08         0.00000E+00
    0.00000E+00         0.00000E+00        -0.48762E+08
 
   -0.48415E+08         0.11915E+06         0.00000E+00
    0.11915E+06        -0.97595E+08         0.00000E+00
    0.00000E+00         0.00000E+00        -0.48685E+08
 
   -0.48344E+08         0.12428E+06         0.00000E+00
    0.12428E+06        -0.97596E+08         0.00000E+00
    0.00000E+00         0.00000E+00        -0.48607E+08
 
   -0.48270E+08         0.12911E+06         0.00000E+00
    0.12911E+06        -0.97596E+08         0.00000E+00
    0.00000E+00         0.00000E+00        -0.48528E+08
 
   -0.48193E+08         0.13367E+06         0.00000E+00
    0.13367E+06        -0.97596E+08         0.00000E+00
    0.00000E+00         0.00000E+00        -0.48448E+08
 
   -0.48114E+08         0.13801E+06         0.00000E+00
    0.13801E+06        -0.97596E+08         0.00000E+00
    0.00000E+00         0.00000E+00        -0.48366E+08
 
   -0.48032E+08         0.14218E+06         0.00000E+00
    0.14218E+06        -0.97596E+08         0.00000E+00
    0.00000E+00         0.00000E+00        -0.48283E+08
 
   -0.47948E+08         0.14621E+06         0.00000E+00
    0.14621E+06        -0.97597E+08         0.00000E+00
    0.00000E+00         0.00000E+00        -0.48199E+08
 
   -0.47861E+08         0.15012E+06         0.00000E+00
    0.15012E+06        -0.97597E+08         0.00000E+00
    0.00000E+00         0.00000E+00        -0.48113E+08
 
   -0.47772E+08         0.15394E+06         0.00000E+00
    0.15394E+06        -0.97597E+08         0.00000E+00
    0.00000E+00         0.00000E+00        -0.48025E+08
 
   -0.47681E+08         0.15770E+06         0.00000E+00
    0.15770E+06        -0.97597E+08         0.00000E+00
    0.00000E+00         0.00000E+00        -0.47936E+08
 
   -0.47588E+08         0.16142E+06         0.00000E+00
    0.16142E+06        -0.97597E+08         0.00000E+00
    0.00000E+00         0.00000E+00        -0.47846E+08
 
   -0.47492E+08         0.16510E+06         0.00000E+00
    0.16510E+06        -0.97597E+08         0.00000E+00
    0.00000E+00         0.00000E+00        -0.47753E+08
 
   -0.47395E+08         0.16877E+06         0.00000E+00
    0.16877E+06        -0.97597E+08         0.00000E+00
    0.00000E+00         0.00000E+00        -0.47659E+08
 
   -0.47295E+08         0.17243E+06         0.00000E+00
    0.17243E+06        -0.97597E+08         0.00000E+00
    0.00000E+00         0.00000E+00        -0.47563E+08
 
   -0.47193E+08         0.17609E+06         0.00000E+00
    0.17609E+06        -0.97597E+08         0.00000E+00
    0.00000E+00         0.00000E+00        -0.47465E+08
 
   -0.47089E+08         0.17976E+06         0.00000E+00
    0.17976E+06        -0.97597E+08         0.00000E+00
    0.00000E+00         0.00000E+00        -0.47365E+08
 
   -0.46983E+08         0.18345E+06         0.00000E+00
    0.18345E+06        -0.97597E+08         0.00000E+00
    0.00000E+00         0.00000E+00        -0.47263E+08
 
   -0.46874E+08         0.18716E+06         0.00000E+00
    0.18716E+06        -0.97597E+08         0.00000E+00
    0.00000E+00         0.00000E+00        -0.47159E+08
 
   -0.46763E+08         0.19090E+06         0.00000E+00
    0.19090E+06        -0.97597E+08         0.00000E+00
    0.00000E+00         0.00000E+00        -0.47053E+08
 
   -0.46650E+08         0.19467E+06         0.00000E+00
    0.19467E+06        -0.97597E+08         0.00000E+00
    0.00000E+00         0.00000E+00        -0.46945E+08
 
   -0.46535E+08         0.19846E+06         0.00000E+00
    0.19846E+06        -0.97597E+08         0.00000E+00
    0.00000E+00         0.00000E+00        -0.46834E+08
 
   -0.46418E+08         0.20229E+06         0.00000E+00
    0.20229E+06        -0.97597E+08         0.00000E+00
    0.00000E+00         0.00000E+00        -0.46721E+08
 
   -0.46298E+08         0.20615E+06         0.00000E+00
    0.20615E+06        -0.97597E+08         0.00000E+00
    0.00000E+00         0.00000E+00        -0.46606E+08
 
   -0.46176E+08         0.21004E+06         0.00000E+00
    0.21004E+06        -0.97597E+08         0.00000E+00
    0.00000E+00         0.00000E+00        -0.46488E+08
 
   -0.46052E+08         0.21396E+06         0.00000E+00
    0.21396E+06        -0.97597E+08         0.00000E+00
    0.00000E+00         0.00000E+00        -0.46368E+08
 
   -0.45926E+08         0.21790E+06         0.00000E+00
    0.21790E+06        -0.97597E+08         0.00000E+00
    0.00000E+00         0.00000E+00        -0.46246E+08
 
   -0.45797E+08         0.22188E+06         0.00000E+00
    0.22188E+06        -0.97597E+08         0.00000E+00
    0.00000E+00         0.00000E+00        -0.46121E+08
 
   -0.45665E+08         0.22588E+06         0.00000E+00
    0.22588E+06        -0.97597E+08         0.00000E+00
    0.00000E+00         0.00000E+00        -0.45993E+08
 
   -0.45532E+08         0.22989E+06         0.00000E+00
    0.22989E+06        -0.97597E+08         0.00000E+00
    0.00000E+00         0.00000E+00        -0.45863E+08
 
   -0.45396E+08         0.23392E+06         0.00000E+00
    0.23392E+06        -0.97596E+08         0.00000E+00
    0.00000E+00         0.00000E+00        -0.45730E+08
 
   -0.45257E+08         0.23797E+06         0.00000E+00
    0.23797E+06        -0.97596E+08         0.00000E+00
    0.00000E+00         0.00000E+00        -0.45594E+08
 
   -0.45116E+08         0.24202E+06         0.00000E+00
    0.24202E+06        -0.97596E+08         0.00000E+00
    0.00000E+00         0.00000E+00        -0.45456E+08
 
   -0.44973E+08         0.24607E+06         0.00000E+00
    0.24607E+06        -0.97596E+08         0.00000E+00
    0.00000E+00         0.00000E+00        -0.45314E+08
 
   -0.44827E+08         0.25011E+06         0.00000E+00
    0.25011E+06        -0.97596E+08         0.00000E+00
    0.00000E+00         0.00000E+00        -0.45170E+08
 
   -0.44679E+08         0.25414E+06         0.00000E+00
    0.25414E+06        -0.97597E+08         0.00000E+00
    0.00000E+00         0.00000E+00        -0.45023E+08
 
   -0.44529E+08         0.25816E+06         0.00000E+00
    0.25816E+06        -0.97597E+08         0.00000E+00
    0.00000E+00         0.00000E+00        -0.44874E+08
 
   -0.44376E+08         0.26214E+06         0.00000E+00
    0.26214E+06        -0.97597E+08         0.00000E+00
    0.00000E+00         0.00000E+00        -0.44721E+08
 
   -0.44221E+08         0.26608E+06         0.00000E+00
    0.26608E+06        -0.97597E+08         0.00000E+00
    0.00000E+00         0.00000E+00        -0.44565E+08
 
   -0.44064E+08         0.26997E+06         0.00000E+00
    0.26997E+06        -0.97597E+08         0.00000E+00
    0.00000E+00         0.00000E+00        -0.44407E+08
 
   -0.43904E+08         0.27380E+06         0.00000E+00
    0.27380E+06        -0.97597E+08         0.00000E+00
    0.00000E+00         0.00000E+00        -0.44245E+08
 
   -0.43742E+08         0.27756E+06         0.00000E+00
    0.27756E+06        -0.97597E+08         0.00000E+00
    0.00000E+00         0.00000E+00        -0.44081E+08
 
   -0.43577E+08         0.28123E+06         0.00000E+00
    0.28123E+06        -0.97597E+08         0.00000E+00
    0.00000E+00         0.00000E+00        -0.43913E+08
 
   -0.43411E+08         0.28480E+06         0.00000E+00
    0.28480E+06        -0.97597E+08         0.00000E+00
    0.00000E+00         0.00000E+00        -0.43743E+08
 
   -0.43242E+08         0.28826E+06         0.00000E+00
    0.28826E+06        -0.97597E+08         0.00000E+00
    0.00000E+00         0.00000E+00        -0.43569E+08
 
   -0.43072E+08         0.29157E+06         0.00000E+00
    0.29157E+06        -0.97597E+08         0.00000E+00
    0.00000E+00         0.00000E+00        -0.43392E+08
 
   -0.42899E+08         0.29473E+06         0.00000E+00
    0.29473E+06        -0.97597E+08         0.00000E+00
    0.00000E+00         0.00000E+00        -0.43213E+08
 
   -0.42725E+08         0.29772E+06         0.00000E+00
    0.29772E+06        -0.97597E+08         0.00000E+00
    0.00000E+00         0.00000E+00        -0.43030E+08
 
   -0.42549E+08         0.30050E+06         0.00000E+00
    0.30050E+06        -0.97598E+08         0.00000E+00
    0.00000E+00         0.00000E+00        -0.42845E+08
 
   -0.42371E+08         0.30305E+06         0.00000E+00
    0.30305E+06        -0.97598E+08         0.00000E+00
    0.00000E+00         0.00000E+00        -0.42656E+08
 
   -0.42192E+08         0.30534E+06         0.00000E+00
    0.30534E+06        -0.97598E+08         0.00000E+00
    0.00000E+00         0.00000E+00        -0.42464E+08
 
   -0.42012E+08         0.30734E+06         0.00000E+00
    0.30734E+06        -0.97598E+08         0.00000E+00
    0.00000E+00         0.00000E+00        -0.42270E+08
 
   -0.41830E+08         0.30901E+06         0.00000E+00
    0.30901E+06        -0.97599E+08         0.00000E+00
    0.00000E+00         0.00000E+00        -0.42072E+08
 
   -0.41647E+08         0.31029E+06         0.00000E+00
    0.31029E+06        -0.97599E+08         0.00000E+00
    0.00000E+00         0.00000E+00        -0.41872E+08
 
   -0.41464E+08         0.31115E+06         0.00000E+00
    0.31115E+06        -0.97599E+08         0.00000E+00
    0.00000E+00         0.00000E+00        -0.41669E+08
 
   -0.41281E+08         0.31153E+06         0.00000E+00
    0.31153E+06        -0.97600E+08         0.00000E+00
    0.00000E+00         0.00000E+00        -0.41463E+08
 
   -0.41097E+08         0.31136E+06         0.00000E+00
    0.31136E+06        -0.97600E+08         0.00000E+00
    0.00000E+00         0.00000E+00        -0.41254E+08
 
   -0.40913E+08         0.31057E+06         0.00000E+00
    0.31057E+06        -0.97601E+08         0.00000E+00
    0.00000E+00         0.00000E+00        -0.41042E+08
 
   -0.40731E+08         0.30907E+06         0.00000E+00
    0.30907E+06        -0.97602E+08         0.00000E+00
    0.00000E+00         0.00000E+00        -0.40828E+08
 
   -0.40549E+08         0.30677E+06         0.00000E+00
    0.30677E+06        -0.97602E+08         0.00000E+00
    0.00000E+00         0.00000E+00        -0.40611E+08
 
   -0.40368E+08         0.30356E+06         0.00000E+00
    0.30356E+06        -0.97603E+08         0.00000E+00
    0.00000E+00         0.00000E+00        -0.40392E+08
 
   -0.40190E+08         0.29931E+06         0.00000E+00
    0.29931E+06        -0.97604E+08         0.00000E+00
    0.00000E+00         0.00000E+00        -0.40170E+08
 
   -0.40014E+08         0.29388E+06         0.00000E+00
    0.29388E+06        -0.97605E+08         0.00000E+00
    0.00000E+00         0.00000E+00        -0.39946E+08
 
   -0.39841E+08         0.28711E+06         0.00000E+00
    0.28711E+06        -0.97606E+08         0.00000E+00
    0.00000E+00         0.00000E+00        -0.39719E+08
 
   -0.39673E+08         0.27883E+06         0.00000E+00
    0.27883E+06        -0.97608E+08         0.00000E+00
    0.00000E+00         0.00000E+00        -0.39491E+08
 
   -0.39509E+08         0.26883E+06         0.00000E+00
    0.26883E+06        -0.97610E+08         0.00000E+00
    0.00000E+00         0.00000E+00        -0.39260E+08
 
   -0.39351E+08         0.25690E+06         0.00000E+00
    0.25690E+06        -0.97611E+08         0.00000E+00
    0.00000E+00         0.00000E+00        -0.39027E+08
 
   -0.39200E+08         0.24282E+06         0.00000E+00
    0.24282E+06        -0.97613E+08         0.00000E+00
    0.00000E+00         0.00000E+00        -0.38792E+08
 
   -0.39057E+08         0.22636E+06         0.00000E+00
    0.22636E+06        -0.97616E+08         0.00000E+00
    0.00000E+00         0.00000E+00        -0.38555E+08
 
   -0.38923E+08         0.20729E+06         0.00000E+00
    0.20729E+06        -0.97618E+08         0.00000E+00
    0.00000E+00         0.00000E+00        -0.38317E+08
 
   -0.38800E+08         0.18541E+06         0.00000E+00
    0.18541E+06        -0.97621E+08         0.00000E+00
    0.00000E+00         0.00000E+00        -0.38077E+08
 
   -0.38688E+08         0.16055E+06         0.00000E+00
    0.16055E+06        -0.97624E+08         0.00000E+00
    0.00000E+00         0.00000E+00        -0.37835E+08
 
   -0.38589E+08         0.13264E+06         0.00000E+00
    0.13264E+06        -0.97627E+08         0.00000E+00
    0.00000E+00         0.00000E+00        -0.37593E+08
 
   -0.38504E+08         0.10171E+06         0.00000E+00
    0.10171E+06        -0.97630E+08         0.00000E+00
    0.00000E+00         0.00000E+00        -0.37349E+08
 
   -0.38434E+08         0.67978E+05         0.00000E+00
    0.67978E+05        -0.97632E+08         0.00000E+00
    0.00000E+00         0.00000E+00        -0.37104E+08
 
   -0.38380E+08         0.31915E+05         0.00000E+00
    0.31915E+05        -0.97635E+08         0.00000E+00
    0.00000E+00         0.00000E+00        -0.36858E+08
 
   -0.38343E+08        -0.56470E+04         0.00000E+00
   -0.56470E+04        -0.97636E+08         0.00000E+00
    0.00000E+00         0.00000E+00        -0.36611E+08
 
   -0.38321E+08        -0.43337E+05         0.00000E+00
   -0.43337E+05        -0.97636E+08         0.00000E+00
    0.00000E+00         0.00000E+00        -0.36364E+08
 
   -0.38312E+08        -0.78903E+05         0.00000E+00
   -0.78903E+05        -0.97635E+08         0.00000E+00
    0.00000E+00         0.00000E+00        -0.36116E+08
 
   -0.38312E+08        -0.10848E+06         0.00000E+00
   -0.10848E+06        -0.97630E+08         0.00000E+00
    0.00000E+00         0.00000E+00        -0.35868E+08
 
   -0.38312E+08        -0.12398E+06         0.00000E+00
   -0.12398E+06        -0.97617E+08         0.00000E+00
    0.00000E+00         0.00000E+00        -0.35620E+08
 
   -0.38304E+08        -0.10828E+06         0.00000E+00
   -0.10828E+06        -0.97580E+08         0.00000E+00
    0.00000E+00         0.00000E+00        -0.35372E+08
 
   -0.38292E+08        -0.45070E+05         0.00000E+00
   -0.45070E+05        -0.97468E+08         0.00000E+00
    0.00000E+00         0.00000E+00        -0.35124E+08
 
   -0.48978E+08        -0.12094E+05         0.00000E+00
   -0.12094E+05        -0.97630E+08         0.00000E+00
    0.00000E+00         0.00000E+00        -0.49966E+08
 
   -0.48975E+08        -0.27683E+05         0.00000E+00
   -0.27683E+05        -0.97602E+08         0.00000E+00
    0.00000E+00         0.00000E+00        -0.49897E+08
 
   -0.48973E+08        -0.29209E+05         0.00000E+00
   -0.29209E+05        -0.97594E+08         0.00000E+00
    0.00000E+00         0.00000E+00        -0.49828E+08
 
   -0.48973E+08        -0.22628E+05         0.00000E+00
   -0.22628E+05        -0.97592E+08         0.00000E+00
    0.00000E+00         0.00000E+00        -0.49759E+08
 
   -0.48972E+08        -0.12848E+05         0.00000E+00
   -0.12848E+05        -0.97591E+08         0.00000E+00
    0.00000E+00         0.00000E+00        -0.49691E+08
 
   -0.48966E+08        -0.17972E+04         0.00000E+00
   -0.17972E+04        -0.97590E+08         0.00000E+00
    0.00000E+00         0.00000E+00        -0.49622E+08
 
   -0.48955E+08         0.96421E+04         0.00000E+00
    0.96421E+04        -0.97591E+08         0.00000E+00
    0.00000E+00         0.00000E+00        -0.49553E+08
 
   -0.48938E+08         0.20961E+05         0.00000E+00
    0.20961E+05        -0.97591E+08         0.00000E+00
    0.00000E+00         0.00000E+00        -0.49484E+08
 
   -0.48915E+08         0.31857E+05         0.00000E+00
    0.31857E+05        -0.97592E+08         0.00000E+00
    0.00000E+00         0.00000E+00        -0.49415E+08
 
   -0.48887E+08         0.42154E+05         0.00000E+00
    0.42154E+05        -0.97592E+08         0.00000E+00
    0.00000E+00         0.00000E+00        -0.49345E+08
 
   -0.48852E+08         0.51755E+05         0.00000E+00
    0.51755E+05        -0.97593E+08         0.00000E+00
    0.00000E+00         0.00000E+00        -0.49274E+08
 
   -0.48813E+08         0.60628E+05         0.00000E+00
    0.60628E+05        -0.97593E+08         0.00000E+00
    0.00000E+00         0.00000E+00        -0.49203E+08
 
   -0.48768E+08         0.68776E+05         0.00000E+00
    0.68776E+05        -0.97594E+08         0.00000E+00
    0.00000E+00         0.00000E+00        -0.49132E+08
 
   -0.48719E+08         0.76236E+05         0.00000E+00
    0.76236E+05        -0.97594E+08         0.00000E+00
    0.00000E+00         0.00000E+00        -0.49059E+08
 
   -0.48665E+08         0.83056E+05         0.00000E+00
    0.83056E+05        -0.97595E+08         0.00000E+00
    0.00000E+00         0.00000E+00        -0.48986E+08
 
   -0.48607E+08         0.89296E+05         0.00000E+00
    0.89296E+05        -0.97595E+08         0.00000E+00
    0.00000E+00         0.00000E+00        -0.48912E+08
 
   -0.48545E+08         0.95022E+05         0.00000E+00
    0.95022E+05        -0.97596E+08         0.00000E+00
    0.00000E+00         0.00000E+00        -0.48838E+08
 
   -0.48480E+08         0.10030E+06         0.00000E+00
    0.10030E+06        -0.97596E+08         0.00000E+00
    0.00000E+00         0.00000E+00        -0.48762E+08
 
   -0.48412E+08         0.10518E+06         0.00000E+00
    0.10518E+06        -0.97596E+08         0.00000E+00
    0.00000E+00         0.00000E+00        -0.48685E+08
 
   -0.48341E+08         0.10973E+06         0.00000E+00
    0.10973E+06        -0.97597E+08         0.00000E+00
    0.00000E+00         0.00000E+00        -0.48607E+08
 
   -0.48267E+08         0.11400E+06         0.00000E+00
    0.11400E+06        -0.97597E+08         0.00000E+00
    0.00000E+00         0.00000E+00        -0.48528E+08
 
   -0.48190E+08         0.11804E+06         0.00000E+00
    0.11804E+06        -0.97597E+08         0.00000E+00
    0.00000E+00         0.00000E+00        -0.48448E+08
 
   -0.48110E+08         0.12188E+06         0.00000E+00
    0.12188E+06        -0.97597E+08         0.00000E+00
    0.00000E+00         0.00000E+00        -0.48366E+08
 
   -0.48028E+08         0.12556E+06         0.00000E+00
    0.12556E+06        -0.97597E+08         0.00000E+00
    0.00000E+00         0.00000E+00        -0.48283E+08
 
   -0.47944E+08         0.12911E+06         0.00000E+00
    0.12911E+06        -0.97597E+08         0.00000E+00
    0.00000E+00         0.00000E+00        -0.48199E+08
 
   -0.47857E+08         0.13256E+06         0.00000E+00
    0.13256E+06        -0.97597E+08         0.00000E+00
    0.00000E+00         0.00000E+00        -0.48113E+08
 
   -0.47768E+08         0.13594E+06         0.00000E+00
    0.13594E+06        -0.97597E+08         0.00000E+00
    0.00000E+00         0.00000E+00        -0.48025E+08
 
   -0.47677E+08         0.13926E+06         0.00000E+00
    0.13926E+06        -0.97597E+08         0.00000E+00
    0.00000E+00         0.00000E+00        -0.47936E+08
 
   -0.47584E+08         0.14253E+06         0.00000E+00
    0.14253E+06        -0.97598E+08         0.00000E+00
    0.00000E+00         0.00000E+00        -0.47846E+08
 
   -0.47488E+08         0.14578E+06         0.00000E+00
    0.14578E+06        -0.97598E+08         0.00000E+00
    0.00000E+00         0.00000E+00        -0.47753E+08
 
   -0.47390E+08         0.14901E+06         0.00000E+00
    0.14901E+06        -0.97598E+08         0.00000E+00
    0.00000E+00         0.00000E+00        -0.47659E+08
 
   -0.47290E+08         0.15224E+06         0.00000E+00
    0.15224E+06        -0.97598E+08         0.00000E+00
    0.00000E+00         0.00000E+00        -0.47563E+08
 
   -0.47188E+08         0.15547E+06         0.00000E+00
    0.15547E+06        -0.97598E+08         0.00000E+00
    0.00000E+00         0.00000E+00        -0.47465E+08
 
   -0.47084E+08         0.15871E+06         0.00000E+00
    0.15871E+06        -0.97598E+08         0.00000E+00
    0.00000E+00         0.00000E+00        -0.47365E+08
 
   -0.46978E+08         0.16197E+06         0.00000E+00
    0.16197E+06        -0.97597E+08         0.00000E+00
    0.00000E+00         0.00000E+00        -0.47263E+08
 
   -0.46869E+08         0.16524E+06         0.00000E+00
    0.16524E+06        -0.97597E+08         0.00000E+00
    0.00000E+00         0.00000E+00        -0.47159E+08
 
   -0.46758E+08         0.16853E+06         0.00000E+00
    0.16853E+06        -0.97597E+08         0.00000E+00
    0.00000E+00         0.00000E+00        -0.47053E+08
 
   -0.46645E+08         0.17186E+06         0.00000E+00
    0.17186E+06        -0.97597E+08         0.00000E+00
    0.00000E+00         0.00000E+00        -0.46945E+08
 
   -0.46530E+08         0.17520E+06         0.00000E+00
    0.17520E+06        -0.97597E+08         0.00000E+00
    0.00000E+00         0.00000E+00        -0.46834E+08
 
   -0.46413E+08         0.17858E+06         0.00000E+00
    0.17858E+06        -0.97597E+08         0.00000E+00
    0.00000E+00         0.00000E+00        -0.46721E+08
 
   -0.46293E+08         0.18198E+06         0.00000E+00
    0.18198E+06        -0.97597E+08         0.00000E+00
    0.00000E+00         0.00000E+00        -0.46606E+08
 
   -0.46171E+08         0.18541E+06         0.00000E+00
    0.18541E+06        -0.97597E+08         0.00000E+00
    0.00000E+00         0.00000E+00        -0.46488E+08
 
   -0.46046E+08         0.18886E+06         0.00000E+00
    0.18886E+06        -0.97597E+08         0.00000E+00
    0.00000E+00         0.00000E+00        -0.46368E+08
 
   -0.45920E+08         0.19235E+06         0.00000E+00
    0.19235E+06        -0.97597E+08         0.00000E+00
    0.00000E+00         0.00000E+00        -0.46246E+08
 
   -0.45791E+08         0.19585E+06         0.00000E+00
    0.19585E+06        -0.97597E+08         0.00000E+00
    0.00000E+00         0.00000E+00        -0.46121E+08
 
   -0.45659E+08         0.19937E+06         0.00000E+00
    0.19937E+06        -0.97597E+08         0.00000E+00
    0.00000E+00         0.00000E+00        -0.45993E+08
 
   -0.45526E+08         0.20291E+06         0.00000E+00
    0.20291E+06        -0.97597E+08         0.00000E+00
    0.00000E+00         0.00000E+00        -0.45863E+08
 
   -0.45390E+08         0.20647E+06         0.00000E+00
    0.20647E+06        -0.97597E+08         0.00000E+00
    0.00000E+00         0.00000E+00        -0.45730E+08
 
   -0.45251E+08         0.21003E+06         0.00000E+00
    0.21003E+06        -0.97597E+08         0.00000E+00
    0.00000E+00         0.00000E+00        -0.45594E+08
 
   -0.45110E+08         0.21360E+06         0.00000E+00
    0.21360E+06        -0.97597E+08         0.00000E+00
    0.00000E+00         0.00000E+00        -0.45456E+08
 
   -0.44967E+08         0.21717E+06         0.00000E+00
    0.21717E+06        -0.97597E+08         0.00000E+00
    0.00000E+00         0.00000E+00        -0.45314E+08
 
   -0.44821E+08         0.22074E+06         0.00000E+00
    0.22074E+06        -0.97597E+08         0.00000E+00
    0.00000E+00         0.00000E+00        -0.45170E+08
 
   -0.44673E+08         0.22429E+06         0.00000E+00
    0.22429E+06        -0.97597E+08         0.00000E+00
    0.00000E+00         0.00000E+00        -0.45023E+08
 
   -0.44522E+08         0.22783E+06         0.00000E+00
    0.22783E+06        -0.97597E+08         0.00000E+00
    0.00000E+00         0.00000E+00        -0.44874E+08
 
   -0.44370E+08         0.23133E+06         0.00000E+00
    0.23133E+06        -0.97597E+08         0.00000E+00
    0.00000E+00         0.00000E+00        -0.44721E+08
 
   -0.44214E+08         0.23481E+06         0.00000E+00
    0.23481E+06        -0.97597E+08         0.00000E+00
    0.00000E+00         0.00000E+00        -0.44565E+08
 
   -0.44057E+08         0.23824E+06         0.00000E+00
    0.23824E+06        -0.97597E+08         0.00000E+00
    0.00000E+00         0.00000E+00        -0.44407E+08
 
   -0.43897E+08         0.24161E+06         0.00000E+00
    0.24161E+06        -0.97597E+08         0.00000E+00
    0.00000E+00         0.00000E+00        -0.44245E+08
 
   -0.43735E+08         0.24492E+06         0.00000E+00
    0.24492E+06        -0.97597E+08         0.00000E+00
    0.00000E+00         0.00000E+00        -0.44081E+08
 
   -0.43571E+08         0.24816E+06         0.00000E+00
    0.24816E+06        -0.97598E+08         0.00000E+00
    0.00000E+00         0.00000E+00        -0.43913E+08
 
   -0.43404E+08         0.25130E+06         0.00000E+00
    0.25130E+06        -0.97598E+08         0.00000E+00
    0.00000E+00         0.00000E+00        -0.43743E+08
 
   -0.43236E+08         0.25434E+06         0.00000E+00
    0.25434E+06        -0.97598E+08         0.00000E+00
    0.00000E+00         0.00000E+00        -0.43569E+08
 
   -0.43065E+08         0.25726E+06         0.00000E+00
    0.25726E+06        -0.97598E+08         0.00000E+00
    0.00000E+00         0.00000E+00        -0.43392E+08
 
   -0.42893E+08         0.26005E+06         0.00000E+00
    0.26005E+06        -0.97598E+08         0.00000E+00
    0.00000E+00         0.00000E+00        -0.43213E+08
 
   -0.42718E+08         0.26268E+06         0.00000E+00
    0.26268E+06        -0.97598E+08         0.00000E+00
    0.00000E+00         0.00000E+00        -0.43030E+08
 
   -0.42542E+08         0.26512E+06         0.00000E+00
    0.26512E+06        -0.97598E+08         0.00000E+00
    0.00000E+00         0.00000E+00        -0.42845E+08
 
   -0.42365E+08         0.26737E+06         0.00000E+00
    0.26737E+06        -0.97598E+08         0.00000E+00
    0.00000E+00         0.00000E+00        -0.42656E+08
 
   -0.42186E+08         0.26938E+06         0.00000E+00
    0.26938E+06        -0.97599E+08         0.00000E+00
    0.00000E+00         0.00000E+00        -0.42464E+08
 
   -0.42005E+08         0.27114E+06         0.00000E+00
    0.27114E+06        -0.97599E+08         0.00000E+00
    0.00000E+00         0.00000E+00        -0.42270E+08
 
   -0.41824E+08         0.27260E+06         0.00000E+00
    0.27260E+06        -0.97599E+08         0.00000E+00
    0.00000E+00         0.00000E+00        -0.42072E+08
 
   -0.41641E+08         0.27373E+06         0.00000E+00
    0.27373E+06        -0.97599E+08         0.00000E+00
    0.00000E+00         0.00000E+00        -0.41872E+08
 
   -0.41458E+08         0.27448E+06         0.00000E+00
    0.27448E+06        -0.97600E+08         0.00000E+00
    0.00000E+00         0.00000E+00        -0.41669E+08
 
   -0.41275E+08         0.27480E+06         0.00000E+00
    0.27480E+06        -0.97600E+08         0.00000E+00
    0.00000E+00         0.00000E+00        -0.41463E+08
 
   -0.41091E+08         0.27464E+06         0.00000E+00
    0.27464E+06        -0.97600E+08         0.00000E+00
    0.00000E+00         0.00000E+00        -0.41254E+08
 
   -0.40908E+08         0.27393E+06         0.00000E+00
    0.27393E+06        -0.97601E+08         0.00000E+00
    0.00000E+00         0.00000E+00        -0.41042E+08
 
   -0.40725E+08         0.27259E+06         0.00000E+00
    0.27259E+06        -0.97601E+08         0.00000E+00
    0.00000E+00         0.00000E+00        -0.40828E+08
 
   -0.40544E+08         0.27054E+06         0.00000E+00
    0.27054E+06        -0.97602E+08         0.00000E+00
    0.00000E+00         0.00000E+00        -0.40611E+08
 
   -0.40364E+08         0.26768E+06         0.00000E+00
    0.26768E+06        -0.97602E+08         0.00000E+00
    0.00000E+00         0.00000E+00        -0.40392E+08
 
   -0.40185E+08         0.26390E+06         0.00000E+00
    0.26390E+06        -0.97603E+08         0.00000E+00
    0.00000E+00         0.00000E+00        -0.40170E+08
 
   -0.40010E+08         0.25906E+06         0.00000E+00
    0.25906E+06        -0.97604E+08         0.00000E+00
    0.00000E+00         0.00000E+00        -0.39946E+08
 
   -0.39838E+08         0.25304E+06         0.00000E+00
    0.25304E+06        -0.97605E+08         0.00000E+00
    0.00000E+00         0.00000E+00        -0.39719E+08
 
   -0.39670E+08         0.24565E+06         0.00000E+00
    0.24565E+06        -0.97606E+08         0.00000E+00
    0.00000E+00         0.00000E+00        -0.39491E+08
 
   -0.39507E+08         0.23673E+06         0.00000E+00
    0.23673E+06        -0.97607E+08         0.00000E+00
    0.00000E+00         0.00000E+00        -0.39260E+08
 
   -0.39350E+08         0.22608E+06         0.00000E+00
    0.22608E+06        -0.97609E+08         0.00000E+00
    0.00000E+00         0.00000E+00        -0.39027E+08
 
   -0.39200E+08         0.21350E+06         0.00000E+00
    0.21350E+06        -0.97611E+08         0.00000E+00
    0.00000E+00         0.00000E+00        -0.38792E+08
 
   -0.39059E+08         0.19877E+06         0.00000E+00
    0.19877E+06        -0.97612E+08         0.00000E+00
    0.00000E+00         0.00000E+00        -0.38555E+08
 
   -0.38926E+08         0.18168E+06         0.00000E+00
    0.18168E+06        -0.97614E+08         0.00000E+00
    0.00000E+00         0.00000E+00        -0.38317E+08
 
   -0.38805E+08         0.16204E+06         0.00000E+00
    0.16204E+06        -0.97616E+08         0.00000E+00
    0.00000E+00         0.00000E+00        -0.38077E+08
 
   -0.38696E+08         0.13970E+06         0.00000E+00
    0.13970E+06        -0.97619E+08         0.00000E+00
    0.00000E+00         0.00000E+00        -0.37835E+08
 
   -0.38600E+08         0.11457E+06         0.00000E+00
    0.11457E+06        -0.97621E+08         0.00000E+00
    0.00000E+00         0.00000E+00        -0.37593E+08
 
   -0.38519E+08         0.86657E+05         0.00000E+00
    0.86657E+05        -0.97623E+08         0.00000E+00
    0.00000E+00         0.00000E+00        -0.37349E+08
 
   -0.38454E+08         0.56144E+05         0.00000E+00
    0.56144E+05        -0.97626E+08         0.00000E+00
    0.00000E+00         0.00000E+00        -0.37104E+08
 
   -0.38406E+08         0.23413E+05         0.00000E+00
    0.23413E+05        -0.97627E+08         0.00000E+00
    0.00000E+00         0.00000E+00        -0.36858E+08
 
   -0.38375E+08        -0.10840E+05         0.00000E+00
   -0.10840E+05        -0.97629E+08         0.00000E+00
    0.00000E+00         0.00000E+00        -0.36611E+08
 
   -0.38361E+08        -0.45468E+05         0.00000E+00
   -0.45468E+05        -0.97629E+08         0.00000E+00
    0.00000E+00         0.00000E+00        -0.36364E+08
 
   -0.38362E+08        -0.78574E+05         0.00000E+00
   -0.78574E+05        -0.97628E+08         0.00000E+00
    0.00000E+00         0.00000E+00        -0.36116E+08
 
   -0.38373E+08        -0.10692E+06         0.00000E+00
   -0.10692E+06        -0.97625E+08         0.00000E+00
    0.00000E+00         0.00000E+00        -0.35868E+08
 
   -0.38386E+08        -0.12352E+06         0.00000E+00
   -0.12352E+06        -0.97616E+08         0.00000E+00
    0.00000E+00         0.00000E+00        -0.35620E+08
 
   -0.38388E+08        -0.11075E+06         0.00000E+00
   -0.11075E+06        -0.97588E+08         0.00000E+00
    0.00000E+00         0.00000E+00        -0.35372E+08
 
   -0.38381E+08        -0.47260E+05         0.00000E+00
   -0.47260E+05        -0.97486E+08         0.00000E+00
    0.00000E+00         0.00000E+00        -0.35124E+08
 
   -0.48952E+08        -0.12755E+05         0.00000E+00
   -0.12755E+05        -0.97626E+08         0.00000E+00
    0.00000E+00         0.00000E+00        -0.49966E+08
 
   -0.48950E+08        -0.28268E+05         0.00000E+00
   -0.28268E+05        -0.97600E+08         0.00000E+00
    0.00000E+00         0.00000E+00        -0.49897E+08
 
   -0.48952E+08        -0.28947E+05         0.00000E+00
   -0.28947E+05        -0.97595E+08         0.00000E+00
    0.00000E+00         0.00000E+00        -0.49828E+08
 
   -0.48955E+08        -0.22337E+05         0.00000E+00
   -0.22337E+05        -0.97593E+08         0.00000E+00
    0.00000E+00         0.00000E+00        -0.49759E+08
 
   -0.48957E+08        -0.13244E+05         0.00000E+00
   -0.13244E+05        -0.97593E+08         0.00000E+00
    0.00000E+00         0.00000E+00        -0.49691E+08
 
   -0.48954E+08        -0.32058E+04         0.00000E+00
   -0.32058E+04        -0.97593E+08         0.00000E+00
    0.00000E+00         0.00000E+00        -0.49622E+08
 
   -0.48945E+08         0.70665E+04         0.00000E+00
    0.70665E+04        -0.97593E+08         0.00000E+00
    0.00000E+00         0.00000E+00        -0.49553E+08
 
   -0.48930E+08         0.17161E+05         0.00000E+00
    0.17161E+05        -0.97593E+08         0.00000E+00
    0.00000E+00         0.00000E+00        -0.49484E+08
 
   -0.48909E+08         0.26836E+05         0.00000E+00
    0.26836E+05        -0.97594E+08         0.00000E+00
    0.00000E+00         0.00000E+00        -0.49415E+08
 
   -0.48881E+08         0.35947E+05         0.00000E+00
    0.35947E+05        -0.97594E+08         0.00000E+00
    0.00000E+00         0.00000E+00        -0.49345E+08
 
   -0.48848E+08         0.44421E+05         0.00000E+00
    0.44421E+05        -0.97594E+08         0.00000E+00
    0.00000E+00         0.00000E+00        -0.49274E+08
 
   -0.48809E+08         0.52234E+05         0.00000E+00
    0.52234E+05        -0.97595E+08         0.00000E+00
    0.00000E+00         0.00000E+00        -0.49203E+08
 
   -0.48764E+08         0.59394E+05         0.00000E+00
    0.59394E+05        -0.97595E+08         0.00000E+00
    0.00000E+00         0.00000E+00        -0.49132E+08
 
   -0.48715E+08         0.65937E+05         0.00000E+00
    0.65937E+05        -0.97596E+08         0.00000E+00
    0.00000E+00         0.00000E+00        -0.49059E+08
 
   -0.48662E+08         0.71908E+05         0.00000E+00
    0.71908E+05        -0.97596E+08         0.00000E+00
    0.00000E+00         0.00000E+00        -0.48986E+08
 
   -0.48604E+08         0.77364E+05         0.00000E+00
    0.77364E+05        -0.97597E+08         0.00000E+00
    0.00000E+00         0.00000E+00        -0.48912E+08
 
   -0.48543E+08         0.82362E+05         0.00000E+00
    0.82362E+05        -0.97597E+08         0.00000E+00
    0.00000E+00         0.00000E+00        -0.48838E+08
 
   -0.48478E+08         0.86960E+05         0.00000E+00
    0.86960E+05        -0.97597E+08         0.00000E+00
    0.00000E+00         0.00000E+00        -0.48762E+08
 
   -0.48409E+08         0.91213E+05         0.00000E+00
    0.91213E+05        -0.97597E+08         0.00000E+00
    0.00000E+00         0.00000E+00        -0.48685E+08
 
   -0.48338E+08         0.95171E+05         0.00000E+00
    0.95171E+05        -0.97597E+08         0.00000E+00
    0.00000E+00         0.00000E+00        -0.48607E+08
 
   -0.48264E+08         0.98881E+05         0.00000E+00
    0.98881E+05        -0.97598E+08         0.00000E+00
    0.00000E+00         0.00000E+00        -0.48528E+08
 
   -0.48187E+08         0.10238E+06         0.00000E+00
    0.10238E+06        -0.97598E+08         0.00000E+00
    0.00000E+00         0.00000E+00        -0.48448E+08
 
   -0.48107E+08         0.10572E+06         0.00000E+00
    0.10572E+06        -0.97598E+08         0.00000E+00
    0.00000E+00         0.00000E+00        -0.48366E+08
 
   -0.48025E+08         0.10891E+06         0.00000E+00
    0.10891E+06        -0.97598E+08         0.00000E+00
    0.00000E+00         0.00000E+00        -0.48283E+08
 
   -0.47940E+08         0.11199E+06         0.00000E+00
    0.11199E+06        -0.97598E+08         0.00000E+00
    0.00000E+00         0.00000E+00        -0.48199E+08
 
   -0.47854E+08         0.11498E+06         0.00000E+00
    0.11498E+06        -0.97598E+08         0.00000E+00
    0.00000E+00         0.00000E+00        -0.48113E+08
 
   -0.47765E+08         0.11791E+06         0.00000E+00
    0.11791E+06        -0.97598E+08         0.00000E+00
    0.00000E+00         0.00000E+00        -0.48025E+08
 
   -0.47673E+08         0.12078E+06         0.00000E+00
    0.12078E+06        -0.97598E+08         0.00000E+00
    0.00000E+00         0.00000E+00        -0.47936E+08
 
   -0.47580E+08         0.12362E+06         0.00000E+00
    0.12362E+06        -0.97598E+08         0.00000E+00
    0.00000E+00         0.00000E+00        -0.47846E+08
 
   -0.47484E+08         0.12643E+06         0.00000E+00
    0.12643E+06        -0.97598E+08         0.00000E+00
    0.00000E+00         0.00000E+00        -0.47753E+08
 
   -0.47386E+08         0.12924E+06         0.00000E+00
    0.12924E+06        -0.97598E+08         0.00000E+00
    0.00000E+00         0.00000E+00        -0.47659E+08
 
   -0.47286E+08         0.13203E+06         0.00000E+00
    0.13203E+06        -0.97598E+08         0.00000E+00
    0.00000E+00         0.00000E+00        -0.47563E+08
 
   -0.47184E+08         0.13483E+06         0.00000E+00
    0.13483E+06        -0.97598E+08         0.00000E+00
    0.00000E+00         0.00000E+00        -0.47465E+08
 
   -0.47080E+08         0.13764E+06         0.00000E+00
    0.13764E+06        -0.97598E+08         0.00000E+00
    0.00000E+00         0.00000E+00        -0.47365E+08
 
   -0.46973E+08         0.14045E+06         0.00000E+00
    0.14045E+06        -0.97598E+08         0.00000E+00
    0.00000E+00         0.00000E+00        -0.47263E+08
 
   -0.46864E+08         0.14329E+06         0.00000E+00
    0.14329E+06        -0.97598E+08         0.00000E+00
    0.00000E+00         0.00000E+00        -0.47159E+08
 
   -0.46753E+08         0.14614E+06         0.00000E+00
    0.14614E+06        -0.97598E+08         0.00000E+00
    0.00000E+00         0.00000E+00        -0.47053E+08
 
   -0.46640E+08         0.14902E+06         0.00000E+00
    0.14902E+06        -0.97598E+08         0.00000E+00
    0.00000E+00         0.00000E+00        -0.46945E+08
 
   -0.46525E+08         0.15192E+06         0.00000E+00
    0.15192E+06        -0.97598E+08         0.00000E+00
    0.00000E+00         0.00000E+00        -0.46834E+08
 
   -0.46407E+08         0.15484E+06         0.00000E+00
    0.15484E+06        -0.97598E+08         0.00000E+00
    0.00000E+00         0.00000E+00        -0.46721E+08
 
   -0.46287E+08         0.15779E+06         0.00000E+00
    0.15779E+06        -0.97598E+08         0.00000E+00
    0.00000E+00         0.00000E+00        -0.46606E+08
 
   -0.46165E+08         0.16076E+06         0.00000E+00
    0.16076E+06        -0.97598E+08         0.00000E+00
    0.00000E+00         0.00000E+00        -0.46488E+08
 
   -0.46041E+08         0.16375E+06         0.00000E+00
    0.16375E+06        -0.97598E+08         0.00000E+00
    0.00000E+00         0.00000E+00        -0.46368E+08
 
   -0.45914E+08         0.16677E+06         0.00000E+00
    0.16677E+06        -0.97598E+08         0.00000E+00
    0.00000E+00         0.00000E+00        -0.46246E+08
 
   -0.45785E+08         0.16980E+06         0.00000E+00
    0.16980E+06        -0.97598E+08         0.00000E+00
    0.00000E+00         0.00000E+00        -0.46121E+08
 
   -0.45653E+08         0.17285E+06         0.00000E+00
    0.17285E+06        -0.97598E+08         0.00000E+00
    0.00000E+00         0.00000E+00        -0.45993E+08
 
   -0.45520E+08         0.17592E+06         0.00000E+00
    0.17592E+06        -0.97598E+08         0.00000E+00
    0.00000E+00         0.00000E+00        -0.45863E+08
 
   -0.45383E+08         0.17900E+06         0.00000E+00
    0.17900E+06        -0.97598E+08         0.00000E+00
    0.00000E+00         0.00000E+00        -0.45730E+08
 
   -0.45245E+08         0.18208E+06         0.00000E+00
    0.18208E+06        -0.97598E+08         0.00000E+00
    0.00000E+00         0.00000E+00        -0.45594E+08
 
   -0.45104E+08         0.18517E+06         0.00000E+00
    0.18517E+06        -0.97598E+08         0.00000E+00
    0.00000E+00         0.00000E+00        -0.45456E+08
 
   -0.44960E+08         0.18827E+06         0.00000E+00
    0.18827E+06        -0.97598E+08         0.00000E+00
    0.00000E+00         0.00000E+00        -0.45314E+08
 
   -0.44815E+08         0.19135E+06         0.00000E+00
    0.19135E+06        -0.97598E+08         0.00000E+00
    0.00000E+00         0.00000E+00        -0.45170E+08
 
   -0.44667E+08         0.19443E+06         0.00000E+00
    0.19443E+06        -0.97598E+08         0.00000E+00
    0.00000E+00         0.00000E+00        -0.45023E+08
 
   -0.44516E+08         0.19749E+06         0.00000E+00
    0.19749E+06        -0.97598E+08         0.00000E+00
    0.00000E+00         0.00000E+00        -0.44874E+08
 
   -0.44363E+08         0.20052E+06         0.00000E+00
    0.20052E+06        -0.97598E+08         0.00000E+00
    0.00000E+00         0.00000E+00        -0.44721E+08
 
   -0.44208E+08         0.20353E+06         0.00000E+00
    0.20353E+06        -0.97598E+08         0.00000E+00
    0.00000E+00         0.00000E+00        -0.44565E+08
 
   -0.44050E+08         0.20650E+06         0.00000E+00
    0.20650E+06        -0.97598E+08         0.00000E+00
    0.00000E+00         0.00000E+00        -0.44407E+08
 
   -0.43890E+08         0.20942E+06         0.00000E+00
    0.20942E+06        -0.97598E+08         0.00000E+00
    0.00000E+00         0.00000E+00        -0.44245E+08
 
   -0.43728E+08         0.21228E+06         0.00000E+00
    0.21228E+06        -0.97598E+08         0.00000E+00
    0.00000E+00         0.00000E+00        -0.44081E+08
 
   -0.43564E+08         0.21508E+06         0.00000E+00
    0.21508E+06        -0.97598E+08         0.00000E+00
    0.00000E+00         0.00000E+00        -0.43913E+08
 
   -0.43398E+08         0.21780E+06         0.00000E+00
    0.21780E+06        -0.97598E+08         0.00000E+00
    0.00000E+00         0.00000E+00        -0.43743E+08
 
   -0.43229E+08         0.22043E+06         0.00000E+00
    0.22043E+06        -0.97598E+08         0.00000E+00
    0.00000E+00         0.00000E+00        -0.43569E+08
 
   -0.43059E+08         0.22296E+06         0.00000E+00
    0.22296E+06        -0.97598E+08         0.00000E+00
    0.00000E+00         0.00000E+00        -0.43393E+08
 
   -0.42886E+08         0.22537E+06         0.00000E+00
    0.22537E+06        -0.97598E+08         0.00000E+00
    0.00000E+00         0.00000E+00        -0.43213E+08
 
   -0.42712E+08         0.22764E+06         0.00000E+00
    0.22764E+06        -0.97598E+08         0.00000E+00
    0.00000E+00         0.00000E+00        -0.43030E+08
 
   -0.42536E+08         0.22976E+06         0.00000E+00
    0.22976E+06        -0.97599E+08         0.00000E+00
    0.00000E+00         0.00000E+00        -0.42845E+08
 
   -0.42358E+08         0.23170E+06         0.00000E+00
    0.23170E+06        -0.97599E+08         0.00000E+00
    0.00000E+00         0.00000E+00        -0.42656E+08
 
   -0.42179E+08         0.23344E+06         0.00000E+00
    0.23344E+06        -0.97599E+08         0.00000E+00
    0.00000E+00         0.00000E+00        -0.42464E+08
 
   -0.41999E+08         0.23496E+06         0.00000E+00
    0.23496E+06        -0.97599E+08         0.00000E+00
    0.00000E+00         0.00000E+00        -0.42270E+08
 
   -0.41818E+08         0.23622E+06         0.00000E+00
    0.23622E+06        -0.97599E+08         0.00000E+00
    0.00000E+00         0.00000E+00        -0.42072E+08
 
   -0.41635E+08         0.23719E+06         0.00000E+00
    0.23719E+06        -0.97599E+08         0.00000E+00
    0.00000E+00         0.00000E+00        -0.41872E+08
 
   -0.41452E+08         0.23783E+06         0.00000E+00
    0.23783E+06        -0.97600E+08         0.00000E+00
    0.00000E+00         0.00000E+00        -0.41669E+08
 
   -0.41269E+08         0.23811E+06         0.00000E+00
    0.23811E+06        -0.97600E+08         0.00000E+00
    0.00000E+00         0.00000E+00        -0.41463E+08
 
   -0.41086E+08         0.23796E+06         0.00000E+00
    0.23796E+06        -0.97600E+08         0.00000E+00
    0.00000E+00         0.00000E+00        -0.41254E+08
 
   -0.40902E+08         0.23733E+06         0.00000E+00
    0.23733E+06        -0.97601E+08         0.00000E+00
    0.00000E+00         0.00000E+00        -0.41042E+08
 
   -0.40720E+08         0.23616E+06         0.00000E+00
    0.23616E+06        -0.97601E+08         0.00000E+00
    0.00000E+00         0.00000E+00        -0.40828E+08
 
   -0.40539E+08         0.23437E+06         0.00000E+00
    0.23437E+06        -0.97601E+08         0.00000E+00
    0.00000E+00         0.00000E+00        -0.40611E+08
 
   -0.40359E+08         0.23187E+06         0.00000E+00
    0.23187E+06        -0.97602E+08         0.00000E+00
    0.00000E+00         0.00000E+00        -0.40392E+08
 
   -0.40181E+08         0.22856E+06         0.00000E+00
    0.22856E+06        -0.97602E+08         0.00000E+00
    0.00000E+00         0.00000E+00        -0.40170E+08
 
   -0.40006E+08         0.22434E+06         0.00000E+00
    0.22434E+06        -0.97603E+08         0.00000E+00
    0.00000E+00         0.00000E+00        -0.39946E+08
 
   -0.39834E+08         0.21907E+06         0.00000E+00
    0.21907E+06        -0.97604E+08         0.00000E+00
    0.00000E+00         0.00000E+00        -0.39719E+08
 
   -0.39667E+08         0.21261E+06         0.00000E+00
    0.21261E+06        -0.97605E+08         0.00000E+00
    0.00000E+00         0.00000E+00        -0.39491E+08
 
   -0.39505E+08         0.20479E+06         0.00000E+00
    0.20479E+06        -0.97606E+08         0.00000E+00
    0.00000E+00         0.00000E+00        -0.39260E+08
 
   -0.39349E+08         0.19546E+06         0.00000E+00
    0.19546E+06        -0.97607E+08         0.00000E+00
    0.00000E+00         0.00000E+00        -0.39027E+08
 
   -0.39200E+08         0.18442E+06         0.00000E+00
    0.18442E+06        -0.97608E+08         0.00000E+00
    0.00000E+00         0.00000E+00        -0.38792E+08
 
   -0.39060E+08         0.17147E+06         0.00000E+00
    0.17147E+06        -0.97609E+08         0.00000E+00
    0.00000E+00         0.00000E+00        -0.38555E+08
 
   -0.38929E+08         0.15644E+06         0.00000E+00
    0.15644E+06        -0.97611E+08         0.00000E+00
    0.00000E+00         0.00000E+00        -0.38317E+08
 
   -0.38809E+08         0.13913E+06         0.00000E+00
    0.13913E+06        -0.97613E+08         0.00000E+00
    0.00000E+00         0.00000E+00        -0.38077E+08
 
   -0.38703E+08         0.11941E+06         0.00000E+00
    0.11941E+06        -0.97614E+08         0.00000E+00
    0.00000E+00         0.00000E+00        -0.37835E+08
 
   -0.38610E+08         0.97186E+05         0.00000E+00
    0.97186E+05        -0.97616E+08         0.00000E+00
    0.00000E+00         0.00000E+00        -0.37593E+08
 
   -0.38533E+08         0.72452E+05         0.00000E+00
    0.72452E+05        -0.97618E+08         0.00000E+00
    0.00000E+00         0.00000E+00        -0.37349E+08
 
   -0.38472E+08         0.45338E+05         0.00000E+00
    0.45338E+05        -0.97620E+08         0.00000E+00
    0.00000E+00         0.00000E+00        -0.37104E+08
 
   -0.38430E+08         0.16153E+05         0.00000E+00
    0.16153E+05        -0.97621E+08         0.00000E+00
    0.00000E+00         0.00000E+00        -0.36858E+08
 
   -0.38406E+08        -0.14538E+05         0.00000E+00
   -0.14538E+05        -0.97622E+08         0.00000E+00
    0.00000E+00         0.00000E+00        -0.36611E+08
 
   -0.38400E+08        -0.45806E+05         0.00000E+00
   -0.45806E+05        -0.97623E+08         0.00000E+00
    0.00000E+00         0.00000E+00        -0.36364E+08
 
   -0.38411E+08        -0.76110E+05         0.00000E+00
   -0.76110E+05        -0.97622E+08         0.00000E+00
    0.00000E+00         0.00000E+00        -0.36116E+08
 
   -0.38434E+08        -0.10283E+06         0.00000E+00
   -0.10283E+06        -0.97620E+08         0.00000E+00
    0.00000E+00         0.00000E+00        -0.35868E+08
 
   -0.38461E+08        -0.12039E+06         0.00000E+00
   -0.12039E+06        -0.97615E+08         0.00000E+00
    0.00000E+00         0.00000E+00        -0.35620E+08
 
   -0.38476E+08        -0.11151E+06         0.00000E+00
   -0.11151E+06        -0.97594E+08         0.00000E+00
    0.00000E+00         0.00000E+00        -0.35372E+08
 
   -0.38475E+08        -0.49179E+05         0.00000E+00
   -0.49179E+05        -0.97504E+08         0.00000E+00
    0.00000E+00         0.00000E+00        -0.35124E+08
 
   -0.48923E+08        -0.13316E+05         0.00000E+00
   -0.13316E+05        -0.97621E+08         0.00000E+00
    0.00000E+00         0.00000E+00        -0.49966E+08
 
   -0.48924E+08        -0.28238E+05         0.00000E+00
   -0.28238E+05        -0.97599E+08         0.00000E+00
    0.00000E+00         0.00000E+00        -0.49897E+08
 
   -0.48930E+08        -0.27827E+05         0.00000E+00
   -0.27827E+05        -0.97596E+08         0.00000E+00
    0.00000E+00         0.00000E+00        -0.49828E+08
 
   -0.48938E+08        -0.21312E+05         0.00000E+00
   -0.21312E+05        -0.97595E+08         0.00000E+00
    0.00000E+00         0.00000E+00        -0.49759E+08
 
   -0.48943E+08        -0.13052E+05         0.00000E+00
   -0.13052E+05        -0.97595E+08         0.00000E+00
    0.00000E+00         0.00000E+00        -0.49691E+08
 
   -0.48942E+08        -0.41390E+04         0.00000E+00
   -0.41390E+04        -0.97595E+08         0.00000E+00
    0.00000E+00         0.00000E+00        -0.49622E+08
 
   -0.48936E+08         0.48726E+04         0.00000E+00
    0.48726E+04        -0.97595E+08         0.00000E+00
    0.00000E+00         0.00000E+00        -0.49553E+08
 
   -0.48922E+08         0.13666E+05         0.00000E+00
    0.13666E+05        -0.97595E+08         0.00000E+00
    0.00000E+00         0.00000E+00        -0.49484E+08
 
   -0.48902E+08         0.22055E+05         0.00000E+00
    0.22055E+05        -0.97595E+08         0.00000E+00
    0.00000E+00         0.00000E+00        -0.49414E+08
 
   -0.48876E+08         0.29928E+05         0.00000E+00
    0.29928E+05        -0.97596E+08         0.00000E+00
    0.00000E+00         0.00000E+00        -0.49345E+08
 
   -0.48843E+08         0.37231E+05         0.00000E+00
    0.37231E+05        -0.97596E+08         0.00000E+00
    0.00000E+00         0.00000E+00        -0.49274E+08
 
   -0.48805E+08         0.43947E+05         0.00000E+00
    0.43947E+05        -0.97596E+08         0.00000E+00
    0.00000E+00         0.00000E+00        -0.49203E+08
 
   -0.48761E+08         0.50090E+05         0.00000E+00
    0.50090E+05        -0.97597E+08         0.00000E+00
    0.00000E+00         0.00000E+00        -0.49132E+08
 
   -0.48712E+08         0.55692E+05         0.00000E+00
    0.55692E+05        -0.97597E+08         0.00000E+00
    0.00000E+00         0.00000E+00        -0.49059E+08
 
   -0.48659E+08         0.60795E+05         0.00000E+00
    0.60795E+05        -0.97597E+08         0.00000E+00
    0.00000E+00         0.00000E+00        -0.48986E+08
 
   -0.48601E+08         0.65451E+05         0.00000E+00
    0.65451E+05        -0.97597E+08         0.00000E+00
    0.00000E+00         0.00000E+00        -0.48912E+08
 
   -0.48540E+08         0.69709E+05         0.00000E+00
    0.69709E+05        -0.97598E+08         0.00000E+00
    0.00000E+00         0.00000E+00        -0.48838E+08
 
   -0.48475E+08         0.73622E+05         0.00000E+00
    0.73622E+05        -0.97598E+08         0.00000E+00
    0.00000E+00         0.00000E+00        -0.48762E+08
 
   -0.48407E+08         0.77236E+05         0.00000E+00
    0.77236E+05        -0.97598E+08         0.00000E+00
    0.00000E+00         0.00000E+00        -0.48685E+08
 
   -0.48335E+08         0.80596E+05         0.00000E+00
    0.80596E+05        -0.97598E+08         0.00000E+00
    0.00000E+00         0.00000E+00        -0.48607E+08
 
   -0.48261E+08         0.83743E+05         0.00000E+00
    0.83743E+05        -0.97598E+08         0.00000E+00
    0.00000E+00         0.00000E+00        -0.48528E+08
 
   -0.48184E+08         0.86712E+05         0.00000E+00
    0.86712E+05        -0.97598E+08         0.00000E+00
    0.00000E+00         0.00000E+00        -0.48448E+08
 
   -0.48104E+08         0.89534E+05         0.00000E+00
    0.89534E+05        -0.97598E+08         0.00000E+00
    0.00000E+00         0.00000E+00        -0.48366E+08
 
   -0.48022E+08         0.92237E+05         0.00000E+00
    0.92237E+05        -0.97598E+08         0.00000E+00
    0.00000E+00         0.00000E+00        -0.48283E+08
 
   -0.47937E+08         0.94845E+05         0.00000E+00
    0.94845E+05        -0.97599E+08         0.00000E+00
    0.00000E+00         0.00000E+00        -0.48199E+08
 
   -0.47850E+08         0.97377E+05         0.00000E+00
    0.97377E+05        -0.97599E+08         0.00000E+00
    0.00000E+00         0.00000E+00        -0.48113E+08
 
   -0.47761E+08         0.99852E+05         0.00000E+00
    0.99852E+05        -0.97599E+08         0.00000E+00
    0.00000E+00         0.00000E+00        -0.48025E+08
 
   -0.47670E+08         0.10228E+06         0.00000E+00
    0.10228E+06        -0.97599E+08         0.00000E+00
    0.00000E+00         0.00000E+00        -0.47936E+08
 
   -0.47576E+08         0.10468E+06         0.00000E+00
    0.10468E+06        -0.97599E+08         0.00000E+00
    0.00000E+00         0.00000E+00        -0.47846E+08
 
   -0.47480E+08         0.10706E+06         0.00000E+00
    0.10706E+06        -0.97599E+08         0.00000E+00
    0.00000E+00         0.00000E+00        -0.47753E+08
 
   -0.47382E+08         0.10943E+06         0.00000E+00
    0.10943E+06        -0.97599E+08         0.00000E+00
    0.00000E+00         0.00000E+00        -0.47659E+08
 
   -0.47282E+08         0.11180E+06         0.00000E+00
    0.11180E+06        -0.97599E+08         0.00000E+00
    0.00000E+00         0.00000E+00        -0.47563E+08
 
   -0.47180E+08         0.11416E+06         0.00000E+00
    0.11416E+06        -0.97599E+08         0.00000E+00
    0.00000E+00         0.00000E+00        -0.47465E+08
 
   -0.47075E+08         0.11654E+06         0.00000E+00
    0.11654E+06        -0.97599E+08         0.00000E+00
    0.00000E+00         0.00000E+00        -0.47365E+08
 
   -0.46968E+08         0.11892E+06         0.00000E+00
    0.11892E+06        -0.97599E+08         0.00000E+00
    0.00000E+00         0.00000E+00        -0.47263E+08
 
   -0.46860E+08         0.12132E+06         0.00000E+00
    0.12132E+06        -0.97599E+08         0.00000E+00
    0.00000E+00         0.00000E+00        -0.47159E+08
 
   -0.46749E+08         0.12373E+06         0.00000E+00
    0.12373E+06        -0.97599E+08         0.00000E+00
    0.00000E+00         0.00000E+00        -0.47053E+08
 
   -0.46635E+08         0.12616E+06         0.00000E+00
    0.12616E+06        -0.97599E+08         0.00000E+00
    0.00000E+00         0.00000E+00        -0.46945E+08
 
   -0.46520E+08         0.12861E+06         0.00000E+00
    0.12861E+06        -0.97599E+08         0.00000E+00
    0.00000E+00         0.00000E+00        -0.46834E+08
 
   -0.46402E+08         0.13109E+06         0.00000E+00
    0.13109E+06        -0.97599E+08         0.00000E+00
    0.00000E+00         0.00000E+00        -0.46721E+08
 
   -0.46282E+08         0.13358E+06         0.00000E+00
    0.13358E+06        -0.97599E+08         0.00000E+00
    0.00000E+00         0.00000E+00        -0.46606E+08
 
   -0.46160E+08         0.13609E+06         0.00000E+00
    0.13609E+06        -0.97599E+08         0.00000E+00
    0.00000E+00         0.00000E+00        -0.46488E+08
 
   -0.46035E+08         0.13862E+06         0.00000E+00
    0.13862E+06        -0.97599E+08         0.00000E+00
    0.00000E+00         0.00000E+00        -0.46368E+08
 
   -0.45908E+08         0.14117E+06         0.00000E+00
    0.14117E+06        -0.97599E+08         0.00000E+00
    0.00000E+00         0.00000E+00        -0.46246E+08
 
   -0.45779E+08         0.14373E+06         0.00000E+00
    0.14373E+06        -0.97599E+08         0.00000E+00
    0.00000E+00         0.00000E+00        -0.46121E+08
 
   -0.45648E+08         0.14631E+06         0.00000E+00
    0.14631E+06        -0.97598E+08         0.00000E+00
    0.00000E+00         0.00000E+00        -0.45993E+08
 
   -0.45514E+08         0.14891E+06         0.00000E+00
    0.14891E+06        -0.97598E+08         0.00000E+00
    0.00000E+00         0.00000E+00        -0.45863E+08
 
   -0.45377E+08         0.15151E+06         0.00000E+00
    0.15151E+06        -0.97598E+08         0.00000E+00
    0.00000E+00         0.00000E+00        -0.45730E+08
 
   -0.45239E+08         0.15412E+06         0.00000E+00
    0.15412E+06        -0.97598E+08         0.00000E+00
    0.00000E+00         0.00000E+00        -0.45594E+08
 
   -0.45098E+08         0.15673E+06         0.00000E+00
    0.15673E+06        -0.97598E+08         0.00000E+00
    0.00000E+00         0.00000E+00        -0.45456E+08
 
   -0.44954E+08         0.15934E+06         0.00000E+00
    0.15934E+06        -0.97598E+08         0.00000E+00
    0.00000E+00         0.00000E+00        -0.45314E+08
 
   -0.44808E+08         0.16195E+06         0.00000E+00
    0.16195E+06        -0.97598E+08         0.00000E+00
    0.00000E+00         0.00000E+00        -0.45170E+08
 
   -0.44660E+08         0.16455E+06         0.00000E+00
    0.16455E+06        -0.97598E+08         0.00000E+00
    0.00000E+00         0.00000E+00        -0.45023E+08
 
   -0.44510E+08         0.16714E+06         0.00000E+00
    0.16714E+06        -0.97598E+08         0.00000E+00
    0.00000E+00         0.00000E+00        -0.44874E+08
 
   -0.44357E+08         0.16970E+06         0.00000E+00
    0.16970E+06        -0.97599E+08         0.00000E+00
    0.00000E+00         0.00000E+00        -0.44721E+08
 
   -0.44201E+08         0.17224E+06         0.00000E+00
    0.17224E+06        -0.97599E+08         0.00000E+00
    0.00000E+00         0.00000E+00        -0.44565E+08
 
   -0.44044E+08         0.17475E+06         0.00000E+00
    0.17475E+06        -0.97599E+08         0.00000E+00
    0.00000E+00         0.00000E+00        -0.44407E+08
 
   -0.43884E+08         0.17722E+06         0.00000E+00
    0.17722E+06        -0.97599E+08         0.00000E+00
    0.00000E+00         0.00000E+00        -0.44245E+08
 
   -0.43722E+08         0.17964E+06         0.00000E+00
    0.17964E+06        -0.97599E+08         0.00000E+00
    0.00000E+00         0.00000E+00        -0.44081E+08
 
   -0.43557E+08         0.18201E+06         0.00000E+00
    0.18201E+06        -0.97599E+08         0.00000E+00
    0.00000E+00         0.00000E+00        -0.43913E+08
 
   -0.43391E+08         0.18430E+06         0.00000E+00
    0.18430E+06        -0.97599E+08         0.00000E+00
    0.00000E+00         0.00000E+00        -0.43743E+08
 
   -0.43222E+08         0.18653E+06         0.00000E+00
    0.18653E+06        -0.97599E+08         0.00000E+00
    0.00000E+00         0.00000E+00        -0.43569E+08
 
   -0.43052E+08         0.18866E+06         0.00000E+00
    0.18866E+06        -0.97599E+08         0.00000E+00
    0.00000E+00         0.00000E+00        -0.43393E+08
 
   -0.42880E+08         0.19070E+06         0.00000E+00
    0.19070E+06        -0.97599E+08         0.00000E+00
    0.00000E+00         0.00000E+00        -0.43213E+08
 
   -0.42705E+08         0.19261E+06         0.00000E+00
    0.19261E+06        -0.97599E+08         0.00000E+00
    0.00000E+00         0.00000E+00        -0.43030E+08
 
   -0.42529E+08         0.19440E+06         0.00000E+00
    0.19440E+06        -0.97599E+08         0.00000E+00
    0.00000E+00         0.00000E+00        -0.42845E+08
 
   -0.42352E+08         0.19604E+06         0.00000E+00
    0.19604E+06        -0.97599E+08         0.00000E+00
    0.00000E+00         0.00000E+00        -0.42656E+08
 
   -0.42173E+08         0.19751E+06         0.00000E+00
    0.19751E+06        -0.97599E+08         0.00000E+00
    0.00000E+00         0.00000E+00        -0.42464E+08
 
   -0.41993E+08         0.19879E+06         0.00000E+00
    0.19879E+06        -0.97599E+08         0.00000E+00
    0.00000E+00         0.00000E+00        -0.42270E+08
 
   -0.41811E+08         0.19985E+06         0.00000E+00
    0.19985E+06        -0.97599E+08         0.00000E+00
    0.00000E+00         0.00000E+00        -0.42072E+08
 
   -0.41629E+08         0.20067E+06         0.00000E+00
    0.20067E+06        -0.97600E+08         0.00000E+00
    0.00000E+00         0.00000E+00        -0.41872E+08
 
   -0.41446E+08         0.20121E+06         0.00000E+00
    0.20121E+06        -0.97600E+08         0.00000E+00
    0.00000E+00         0.00000E+00        -0.41669E+08
 
   -0.41263E+08         0.20144E+06         0.00000E+00
    0.20144E+06        -0.97600E+08         0.00000E+00
    0.00000E+00         0.00000E+00        -0.41463E+08
 
   -0.41080E+08         0.20131E+06         0.00000E+00
    0.20131E+06        -0.97600E+08         0.00000E+00
    0.00000E+00         0.00000E+00        -0.41254E+08
 
   -0.40897E+08         0.20077E+06         0.00000E+00
    0.20077E+06        -0.97600E+08         0.00000E+00
    0.00000E+00         0.00000E+00        -0.41042E+08
 
   -0.40714E+08         0.19977E+06         0.00000E+00
    0.19977E+06        -0.97601E+08         0.00000E+00
    0.00000E+00         0.00000E+00        -0.40828E+08
 
   -0.40533E+08         0.19824E+06         0.00000E+00
    0.19824E+06        -0.97601E+08         0.00000E+00
    0.00000E+00         0.00000E+00        -0.40611E+08
 
   -0.40354E+08         0.19611E+06         0.00000E+00
    0.19611E+06        -0.97601E+08         0.00000E+00
    0.00000E+00         0.00000E+00        -0.40392E+08
 
   -0.40176E+08         0.19329E+06         0.00000E+00
    0.19329E+06        -0.97602E+08         0.00000E+00
    0.00000E+00         0.00000E+00        -0.40170E+08
 
   -0.40001E+08         0.18969E+06         0.00000E+00
    0.18969E+06        -0.97602E+08         0.00000E+00
    0.00000E+00         0.00000E+00        -0.39946E+08
 
   -0.39830E+08         0.18519E+06         0.00000E+00
    0.18519E+06        -0.97603E+08         0.00000E+00
    0.00000E+00         0.00000E+00        -0.39719E+08
 
   -0.39663E+08         0.17968E+06         0.00000E+00
    0.17968E+06        -0.97603E+08         0.00000E+00
    0.00000E+00         0.00000E+00        -0.39491E+08
 
   -0.39502E+08         0.17300E+06         0.00000E+00
    0.17300E+06        -0.97604E+08         0.00000E+00
    0.00000E+00         0.00000E+00        -0.39260E+08
 
   -0.39347E+08         0.16502E+06         0.00000E+00
    0.16502E+06        -0.97605E+08         0.00000E+00
    0.00000E+00         0.00000E+00        -0.39027E+08
 
   -0.39199E+08         0.15556E+06         0.00000E+00
    0.15556E+06        -0.97606E+08         0.00000E+00
    0.00000E+00         0.00000E+00        -0.38792E+08
 
   -0.39059E+08         0.14446E+06         0.00000E+00
    0.14446E+06        -0.97607E+08         0.00000E+00
    0.00000E+00         0.00000E+00        -0.38555E+08
 
   -0.38930E+08         0.13155E+06         0.00000E+00
    0.13155E+06        -0.97608E+08         0.00000E+00
    0.00000E+00         0.00000E+00        -0.38317E+08
 
   -0.38813E+08         0.11666E+06         0.00000E+00
    0.11666E+06        -0.97609E+08         0.00000E+00
    0.00000E+00         0.00000E+00        -0.38077E+08
 
   -0.38708E+08         0.99669E+05         0.00000E+00
    0.99669E+05        -0.97610E+08         0.00000E+00
    0.00000E+00         0.00000E+00        -0.37835E+08
 
   -0.38619E+08         0.80480E+05         0.00000E+00
    0.80480E+05        -0.97612E+08         0.00000E+00
    0.00000E+00         0.00000E+00        -0.37593E+08
 
   -0.38545E+08         0.59078E+05         0.00000E+00
    0.59078E+05        -0.97613E+08         0.00000E+00
    0.00000E+00         0.00000E+00        -0.37349E+08
 
   -0.38489E+08         0.35551E+05         0.00000E+00
    0.35551E+05        -0.97614E+08         0.00000E+00
    0.00000E+00         0.00000E+00        -0.37104E+08
 
   -0.38453E+08         0.10138E+05         0.00000E+00
    0.10138E+05        -0.97615E+08         0.00000E+00
    0.00000E+00         0.00000E+00        -0.36858E+08
 
   -0.38436E+08        -0.16722E+05         0.00000E+00
   -0.16722E+05        -0.97616E+08         0.00000E+00
    0.00000E+00         0.00000E+00        -0.36611E+08
 
   -0.38438E+08        -0.44305E+05         0.00000E+00
   -0.44305E+05        -0.97617E+08         0.00000E+00
    0.00000E+00         0.00000E+00        -0.36364E+08
 
   -0.38459E+08        -0.71418E+05         0.00000E+00
   -0.71418E+05        -0.97617E+08         0.00000E+00
    0.00000E+00         0.00000E+00        -0.36116E+08
 
   -0.38495E+08        -0.96013E+05         0.00000E+00
   -0.96013E+05        -0.97616E+08         0.00000E+00
    0.00000E+00         0.00000E+00        -0.35868E+08
 
   -0.38537E+08        -0.11410E+06         0.00000E+00
   -0.11410E+06        -0.97613E+08         0.00000E+00
    0.00000E+00         0.00000E+00        -0.35620E+08
 
   -0.38568E+08        -0.11002E+06         0.00000E+00
   -0.11002E+06        -0.97600E+08         0.00000E+00
    0.00000E+00         0.00000E+00        -0.35372E+08
 
   -0.38575E+08        -0.50717E+05         0.00000E+00
   -0.50717E+05        -0.97522E+08         0.00000E+00
    0.00000E+00         0.00000E+00        -0.35124E+08
 
   -0.48893E+08        -0.13727E+05         0.00000E+00
   -0.13727E+05        -0.97616E+08         0.00000E+00
    0.00000E+00         0.00000E+00        -0.49966E+08
 
   -0.48897E+08        -0.27378E+05         0.00000E+00
   -0.27378E+05        -0.97598E+08         0.00000E+00
    0.00000E+00         0.00000E+00        -0.49897E+08
 
   -0.48908E+08        -0.25707E+05         0.00000E+00
   -0.25707E+05        -0.97597E+08         0.00000E+00
    0.00000E+00         0.00000E+00        -0.49828E+08
 
   -0.48921E+08        -0.19510E+05         0.00000E+00
   -0.19510E+05        -0.97596E+08         0.00000E+00
    0.00000E+00         0.00000E+00        -0.49759E+08
 
   -0.48929E+08        -0.12250E+05         0.00000E+00
   -0.12250E+05        -0.97596E+08         0.00000E+00
    0.00000E+00         0.00000E+00        -0.49691E+08
 
   -0.48931E+08        -0.45867E+04         0.00000E+00
   -0.45867E+04        -0.97596E+08         0.00000E+00
    0.00000E+00         0.00000E+00        -0.49622E+08
 
   -0.48927E+08         0.30627E+04         0.00000E+00
    0.30627E+04        -0.97596E+08         0.00000E+00
    0.00000E+00         0.00000E+00        -0.49553E+08
 
   -0.48915E+08         0.10474E+05         0.00000E+00
    0.10474E+05        -0.97597E+08         0.00000E+00
    0.00000E+00         0.00000E+00        -0.49484E+08
 
   -0.48896E+08         0.17511E+05         0.00000E+00
    0.17511E+05        -0.97597E+08         0.00000E+00
    0.00000E+00         0.00000E+00        -0.49414E+08
 
   -0.48871E+08         0.24091E+05         0.00000E+00
    0.24091E+05        -0.97597E+08         0.00000E+00
    0.00000E+00         0.00000E+00        -0.49345E+08
 
   -0.48839E+08         0.30177E+05         0.00000E+00
    0.30177E+05        -0.97597E+08         0.00000E+00
    0.00000E+00         0.00000E+00        -0.49274E+08
 
   -0.48801E+08         0.35760E+05         0.00000E+00
    0.35760E+05        -0.97597E+08         0.00000E+00
    0.00000E+00         0.00000E+00        -0.49203E+08
 
   -0.48758E+08         0.40856E+05         0.00000E+00
    0.40856E+05        -0.97598E+08         0.00000E+00
    0.00000E+00         0.00000E+00        -0.49132E+08
 
   -0.48709E+08         0.45494E+05         0.00000E+00
    0.45494E+05        -0.97598E+08         0.00000E+00
    0.00000E+00         0.00000E+00        -0.49059E+08
 
   -0.48656E+08         0.49711E+05         0.00000E+00
    0.49711E+05        -0.97598E+08         0.00000E+00
    0.00000E+00         0.00000E+00        -0.48986E+08
 
   -0.48599E+08         0.53552E+05         0.00000E+00
    0.53552E+05        -0.97598E+08         0.00000E+00
    0.00000E+00         0.00000E+00        -0.48912E+08
 
   -0.48537E+08         0.57059E+05         0.00000E+00
    0.57059E+05        -0.97598E+08         0.00000E+00
    0.00000E+00         0.00000E+00        -0.48838E+08
 
   -0.48472E+08         0.60277E+05         0.00000E+00
    0.60277E+05        -0.97599E+08         0.00000E+00
    0.00000E+00         0.00000E+00        -0.48762E+08
 
   -0.48404E+08         0.63246E+05         0.00000E+00
    0.63246E+05        -0.97599E+08         0.00000E+00
    0.00000E+00         0.00000E+00        -0.48685E+08
 
   -0.48333E+08         0.66004E+05         0.00000E+00
    0.66004E+05        -0.97599E+08         0.00000E+00
    0.00000E+00         0.00000E+00        -0.48607E+08
 
   -0.48258E+08         0.68584E+05         0.00000E+00
    0.68584E+05        -0.97599E+08         0.00000E+00
    0.00000E+00         0.00000E+00        -0.48528E+08
 
   -0.48181E+08         0.71017E+05         0.00000E+00
    0.71017E+05        -0.97599E+08         0.00000E+00
    0.00000E+00         0.00000E+00        -0.48448E+08
 
   -0.48101E+08         0.73328E+05         0.00000E+00
    0.73328E+05        -0.97599E+08         0.00000E+00
    0.00000E+00         0.00000E+00        -0.48366E+08
 
   -0.48019E+08         0.75540E+05         0.00000E+00
    0.75540E+05        -0.97599E+08         0.00000E+00
    0.00000E+00         0.00000E+00        -0.48283E+08
 
   -0.47934E+08         0.77674E+05         0.00000E+00
    0.77674E+05        -0.97599E+08         0.00000E+00
    0.00000E+00         0.00000E+00        -0.48199E+08
 
   -0.47847E+08         0.79745E+05         0.00000E+00
    0.79745E+05        -0.97599E+08         0.00000E+00
    0.00000E+00         0.00000E+00        -0.48113E+08
 
   -0.47758E+08         0.81769E+05         0.00000E+00
    0.81769E+05        -0.97599E+08         0.00000E+00
    0.00000E+00         0.00000E+00        -0.48025E+08
 
   -0.47666E+08         0.83757E+05         0.00000E+00
    0.83757E+05        -0.97599E+08         0.00000E+00
    0.00000E+00         0.00000E+00        -0.47936E+08
 
   -0.47572E+08         0.85719E+05         0.00000E+00
    0.85719E+05        -0.97599E+08         0.00000E+00
    0.00000E+00         0.00000E+00        -0.47846E+08
 
   -0.47476E+08         0.87665E+05         0.00000E+00
    0.87665E+05        -0.97599E+08         0.00000E+00
    0.00000E+00         0.00000E+00        -0.47753E+08
 
   -0.47378E+08         0.89602E+05         0.00000E+00
    0.89602E+05        -0.97599E+08         0.00000E+00
    0.00000E+00         0.00000E+00        -0.47659E+08
 
   -0.47278E+08         0.91535E+05         0.00000E+00
    0.91535E+05        -0.97599E+08         0.00000E+00
    0.00000E+00         0.00000E+00        -0.47563E+08
 
   -0.47175E+08         0.93470E+05         0.00000E+00
    0.93470E+05        -0.97599E+08         0.00000E+00
    0.00000E+00         0.00000E+00        -0.47465E+08
 
   -0.47071E+08         0.95410E+05         0.00000E+00
    0.95410E+05        -0.97599E+08         0.00000E+00
    0.00000E+00         0.00000E+00        -0.47365E+08
 
   -0.46964E+08         0.97359E+05         0.00000E+00
    0.97359E+05        -0.97599E+08         0.00000E+00
    0.00000E+00         0.00000E+00        -0.47263E+08
 
   -0.46855E+08         0.99319E+05         0.00000E+00
    0.99319E+05        -0.97599E+08         0.00000E+00
    0.00000E+00         0.00000E+00        -0.47159E+08
 
   -0.46744E+08         0.10129E+06         0.00000E+00
    0.10129E+06        -0.97599E+08         0.00000E+00
    0.00000E+00         0.00000E+00        -0.47053E+08
 
   -0.46630E+08         0.10328E+06         0.00000E+00
    0.10328E+06        -0.97599E+08         0.00000E+00
    0.00000E+00         0.00000E+00        -0.46945E+08
 
   -0.46515E+08         0.10529E+06         0.00000E+00
    0.10529E+06        -0.97599E+08         0.00000E+00
    0.00000E+00         0.00000E+00        -0.46834E+08
 
   -0.46397E+08         0.10731E+06         0.00000E+00
    0.10731E+06        -0.97599E+08         0.00000E+00
    0.00000E+00         0.00000E+00        -0.46721E+08
 
   -0.46277E+08         0.10934E+06         0.00000E+00
    0.10934E+06        -0.97599E+08         0.00000E+00
    0.00000E+00         0.00000E+00        -0.46606E+08
 
   -0.46155E+08         0.11140E+06         0.00000E+00
    0.11140E+06        -0.97599E+08         0.00000E+00
    0.00000E+00         0.00000E+00        -0.46488E+08
 
   -0.46030E+08         0.11347E+06         0.00000E+00
    0.11347E+06        -0.97599E+08         0.00000E+00
    0.00000E+00         0.00000E+00        -0.46368E+08
 
   -0.45903E+08         0.11555E+06         0.00000E+00
    0.11555E+06        -0.97599E+08         0.00000E+00
    0.00000E+00         0.00000E+00        -0.46246E+08
 
   -0.45774E+08         0.11765E+06         0.00000E+00
    0.11765E+06        -0.97599E+08         0.00000E+00
    0.00000E+00         0.00000E+00        -0.46121E+08
 
   -0.45642E+08         0.11976E+06         0.00000E+00
    0.11976E+06        -0.97599E+08         0.00000E+00
    0.00000E+00         0.00000E+00        -0.45993E+08
 
   -0.45508E+08         0.12188E+06         0.00000E+00
    0.12188E+06        -0.97599E+08         0.00000E+00
    0.00000E+00         0.00000E+00        -0.45863E+08
 
   -0.45372E+08         0.12400E+06         0.00000E+00
    0.12400E+06        -0.97599E+08         0.00000E+00
    0.00000E+00         0.00000E+00        -0.45730E+08
 
   -0.45233E+08         0.12614E+06         0.00000E+00
    0.12614E+06        -0.97599E+08         0.00000E+00
    0.00000E+00         0.00000E+00        -0.45594E+08
 
   -0.45092E+08         0.12827E+06         0.00000E+00
    0.12827E+06        -0.97599E+08         0.00000E+00
    0.00000E+00         0.00000E+00        -0.45456E+08
 
   -0.44948E+08         0.13041E+06         0.00000E+00
    0.13041E+06        -0.97599E+08         0.00000E+00
    0.00000E+00         0.00000E+00        -0.45314E+08
 
   -0.44802E+08         0.13254E+06         0.00000E+00
    0.13254E+06        -0.97599E+08         0.00000E+00
    0.00000E+00         0.00000E+00        -0.45170E+08
 
   -0.44654E+08         0.13466E+06         0.00000E+00
    0.13466E+06        -0.97599E+08         0.00000E+00
    0.00000E+00         0.00000E+00        -0.45023E+08
 
   -0.44503E+08         0.13678E+06         0.00000E+00
    0.13678E+06        -0.97599E+08         0.00000E+00
    0.00000E+00         0.00000E+00        -0.44874E+08
 
   -0.44350E+08         0.13887E+06         0.00000E+00
    0.13887E+06        -0.97599E+08         0.00000E+00
    0.00000E+00         0.00000E+00        -0.44721E+08
 
   -0.44195E+08         0.14095E+06         0.00000E+00
    0.14095E+06        -0.97599E+08         0.00000E+00
    0.00000E+00         0.00000E+00        -0.44565E+08
 
   -0.44037E+08         0.14300E+06         0.00000E+00
    0.14300E+06        -0.97599E+08         0.00000E+00
    0.00000E+00         0.00000E+00        -0.44407E+08
 
   -0.43877E+08         0.14502E+06         0.00000E+00
    0.14502E+06        -0.97599E+08         0.00000E+00
    0.00000E+00         0.00000E+00        -0.44245E+08
 
   -0.43715E+08         0.14699E+06         0.00000E+00
    0.14699E+06        -0.97599E+08         0.00000E+00
    0.00000E+00         0.00000E+00        -0.44081E+08
 
   -0.43551E+08         0.14893E+06         0.00000E+00
    0.14893E+06        -0.97599E+08         0.00000E+00
    0.00000E+00         0.00000E+00        -0.43913E+08
 
   -0.43384E+08         0.15080E+06         0.00000E+00
    0.15080E+06        -0.97599E+08         0.00000E+00
    0.00000E+00         0.00000E+00        -0.43743E+08
 
   -0.43216E+08         0.15262E+06         0.00000E+00
    0.15262E+06        -0.97599E+08         0.00000E+00
    0.00000E+00         0.00000E+00        -0.43569E+08
 
   -0.43045E+08         0.15436E+06         0.00000E+00
    0.15436E+06        -0.97599E+08         0.00000E+00
    0.00000E+00         0.00000E+00        -0.43393E+08
 
   -0.42873E+08         0.15602E+06         0.00000E+00
    0.15602E+06        -0.97599E+08         0.00000E+00
    0.00000E+00         0.00000E+00        -0.43213E+08
 
   -0.42699E+08         0.15759E+06         0.00000E+00
    0.15759E+06        -0.97599E+08         0.00000E+00
    0.00000E+00         0.00000E+00        -0.43030E+08
 
   -0.42523E+08         0.15905E+06         0.00000E+00
    0.15905E+06        -0.97599E+08         0.00000E+00
    0.00000E+00         0.00000E+00        -0.42845E+08
 
   -0.42345E+08         0.16039E+06         0.00000E+00
    0.16039E+06        -0.97599E+08         0.00000E+00
    0.00000E+00         0.00000E+00        -0.42656E+08
 
   -0.42166E+08         0.16159E+06         0.00000E+00
    0.16159E+06        -0.97599E+08         0.00000E+00
    0.00000E+00         0.00000E+00        -0.42464E+08
 
   -0.41986E+08         0.16263E+06         0.00000E+00
    0.16263E+06        -0.97599E+08         0.00000E+00
    0.00000E+00         0.00000E+00        -0.42270E+08
 
   -0.41805E+08         0.16350E+06         0.00000E+00
    0.16350E+06        -0.97600E+08         0.00000E+00
    0.00000E+00         0.00000E+00        -0.42072E+08
 
   -0.41623E+08         0.16417E+06         0.00000E+00
    0.16417E+06        -0.97600E+08         0.00000E+00
    0.00000E+00         0.00000E+00        -0.41872E+08
 
   -0.41440E+08         0.16461E+06         0.00000E+00
    0.16461E+06        -0.97600E+08         0.00000E+00
    0.00000E+00         0.00000E+00        -0.41669E+08
 
   -0.41257E+08         0.16479E+06         0.00000E+00
    0.16479E+06        -0.97600E+08         0.00000E+00
    0.00000E+00         0.00000E+00        -0.41463E+08
 
   -0.41074E+08         0.16468E+06         0.00000E+00
    0.16468E+06        -0.97600E+08         0.00000E+00
    0.00000E+00         0.00000E+00        -0.41254E+08
 
   -0.40891E+08         0.16423E+06         0.00000E+00
    0.16423E+06        -0.97600E+08         0.00000E+00
    0.00000E+00         0.00000E+00        -0.41042E+08
 
   -0.40709E+08         0.16341E+06         0.00000E+00
    0.16341E+06        -0.97600E+08         0.00000E+00
    0.00000E+00         0.00000E+00        -0.40828E+08
 
   -0.40528E+08         0.16215E+06         0.00000E+00
    0.16215E+06        -0.97601E+08         0.00000E+00
    0.00000E+00         0.00000E+00        -0.40611E+08
 
   -0.40348E+08         0.16040E+06         0.00000E+00
    0.16040E+06        -0.97601E+08         0.00000E+00
    0.00000E+00         0.00000E+00        -0.40392E+08
 
   -0.40171E+08         0.15808E+06         0.00000E+00
    0.15808E+06        -0.97601E+08         0.00000E+00
    0.00000E+00         0.00000E+00        -0.40170E+08
 
   -0.39996E+08         0.15511E+06         0.00000E+00
    0.15511E+06        -0.97601E+08         0.00000E+00
    0.00000E+00         0.00000E+00        -0.39946E+08
 
   -0.39826E+08         0.15140E+06         0.00000E+00
    0.15140E+06        -0.97602E+08         0.00000E+00
    0.00000E+00         0.00000E+00        -0.39719E+08
 
   -0.39659E+08         0.14685E+06         0.00000E+00
    0.14685E+06        -0.97602E+08         0.00000E+00
    0.00000E+00         0.00000E+00        -0.39491E+08
 
   -0.39498E+08         0.14134E+06         0.00000E+00
    0.14134E+06        -0.97603E+08         0.00000E+00
    0.00000E+00         0.00000E+00        -0.39260E+08
 
   -0.39344E+08         0.13474E+06         0.00000E+00
    0.13474E+06        -0.97603E+08         0.00000E+00
    0.00000E+00         0.00000E+00        -0.39027E+08
 
   -0.39197E+08         0.12691E+06         0.00000E+00
    0.12691E+06        -0.97604E+08         0.00000E+00
    0.00000E+00         0.00000E+00        -0.38792E+08
 
   -0.39058E+08         0.11771E+06         0.00000E+00
    0.11771E+06        -0.97605E+08         0.00000E+00
    0.00000E+00         0.00000E+00        -0.38555E+08
 
   -0.38931E+08         0.10698E+06         0.00000E+00
    0.10698E+06        -0.97605E+08         0.00000E+00
    0.00000E+00         0.00000E+00        -0.38317E+08
 
   -0.38815E+08         0.94605E+05         0.00000E+00
    0.94605E+05        -0.97606E+08         0.00000E+00
    0.00000E+00         0.00000E+00        -0.38077E+08
 
   -0.38713E+08         0.80447E+05         0.00000E+00
    0.80447E+05        -0.97607E+08         0.00000E+00
    0.00000E+00         0.00000E+00        -0.37835E+08
 
   -0.38626E+08         0.64426E+05         0.00000E+00
    0.64426E+05        -0.97608E+08         0.00000E+00
    0.00000E+00         0.00000E+00        -0.37593E+08
 
   -0.38556E+08         0.46515E+05         0.00000E+00
    0.46515E+05        -0.97609E+08         0.00000E+00
    0.00000E+00         0.00000E+00        -0.37349E+08
 
   -0.38505E+08         0.26770E+05         0.00000E+00
    0.26770E+05        -0.97610E+08         0.00000E+00
    0.00000E+00         0.00000E+00        -0.37104E+08
 
   -0.38474E+08         0.53628E+04         0.00000E+00
    0.53628E+04        -0.97611E+08         0.00000E+00
    0.00000E+00         0.00000E+00        -0.36858E+08
 
   -0.38463E+08        -0.17380E+05         0.00000E+00
   -0.17380E+05        -0.97611E+08         0.00000E+00
    0.00000E+00         0.00000E+00        -0.36611E+08
 
   -0.38475E+08        -0.40922E+05         0.00000E+00
   -0.40922E+05        -0.97612E+08         0.00000E+00
    0.00000E+00         0.00000E+00        -0.36364E+08
 
   -0.38506E+08        -0.64411E+05         0.00000E+00
   -0.64411E+05        -0.97612E+08         0.00000E+00
    0.00000E+00         0.00000E+00        -0.36116E+08
 
   -0.38555E+08        -0.86292E+05         0.00000E+00
   -0.86292E+05        -0.97611E+08         0.00000E+00
    0.00000E+00         0.00000E+00        -0.35868E+08
 
   -0.38615E+08        -0.10414E+06         0.00000E+00
   -0.10414E+06        -0.97610E+08         0.00000E+00
    0.00000E+00         0.00000E+00        -0.35620E+08
 
   -0.38665E+08        -0.10549E+06         0.00000E+00
   -0.10549E+06        -0.97605E+08         0.00000E+00
    0.00000E+00         0.00000E+00        -0.35372E+08
 
   -0.38684E+08        -0.51697E+05         0.00000E+00
   -0.51697E+05        -0.97541E+08         0.00000E+00
    0.00000E+00         0.00000E+00        -0.35124E+08
 
   -0.48860E+08        -0.13906E+05         0.00000E+00
   -0.13906E+05        -0.97611E+08         0.00000E+00
    0.00000E+00         0.00000E+00        -0.49966E+08
 
   -0.48868E+08        -0.25381E+05         0.00000E+00
   -0.25381E+05        -0.97598E+08         0.00000E+00
    0.00000E+00         0.00000E+00        -0.49897E+08
 
   -0.48886E+08        -0.22444E+05         0.00000E+00
   -0.22444E+05        -0.97598E+08         0.00000E+00
    0.00000E+00         0.00000E+00        -0.49828E+08
 
   -0.48904E+08        -0.16894E+05         0.00000E+00
   -0.16894E+05        -0.97598E+08         0.00000E+00
    0.00000E+00         0.00000E+00        -0.49759E+08
 
   -0.48916E+08        -0.10817E+05         0.00000E+00
   -0.10817E+05        -0.97598E+08         0.00000E+00
    0.00000E+00         0.00000E+00        -0.49691E+08
 
   -0.48921E+08        -0.45418E+04         0.00000E+00
   -0.45418E+04        -0.97598E+08         0.00000E+00
    0.00000E+00         0.00000E+00        -0.49622E+08
 
   -0.48919E+08         0.16375E+04         0.00000E+00
    0.16375E+04        -0.97598E+08         0.00000E+00
    0.00000E+00         0.00000E+00        -0.49553E+08
 
   -0.48909E+08         0.75820E+04         0.00000E+00
    0.75820E+04        -0.97598E+08         0.00000E+00
    0.00000E+00         0.00000E+00        -0.49484E+08
 
   -0.48891E+08         0.13197E+05         0.00000E+00
    0.13197E+05        -0.97598E+08         0.00000E+00
    0.00000E+00         0.00000E+00        -0.49414E+08
 
   -0.48867E+08         0.18429E+05         0.00000E+00
    0.18429E+05        -0.97598E+08         0.00000E+00
    0.00000E+00         0.00000E+00        -0.49345E+08
 
   -0.48836E+08         0.23253E+05         0.00000E+00
    0.23253E+05        -0.97598E+08         0.00000E+00
    0.00000E+00         0.00000E+00        -0.49274E+08
 
   -0.48798E+08         0.27667E+05         0.00000E+00
    0.27667E+05        -0.97598E+08         0.00000E+00
    0.00000E+00         0.00000E+00        -0.49203E+08
 
   -0.48755E+08         0.31686E+05         0.00000E+00
    0.31686E+05        -0.97599E+08         0.00000E+00
    0.00000E+00         0.00000E+00        -0.49132E+08
 
   -0.48707E+08         0.35336E+05         0.00000E+00
    0.35336E+05        -0.97599E+08         0.00000E+00
    0.00000E+00         0.00000E+00        -0.49059E+08
 
   -0.48654E+08         0.38649E+05         0.00000E+00
    0.38649E+05        -0.97599E+08         0.00000E+00
    0.00000E+00         0.00000E+00        -0.48986E+08
 
   -0.48597E+08         0.41661E+05         0.00000E+00
    0.41661E+05        -0.97599E+08         0.00000E+00
    0.00000E+00         0.00000E+00        -0.48912E+08
 
   -0.48535E+08         0.44407E+05         0.00000E+00
    0.44407E+05        -0.97599E+08         0.00000E+00
    0.00000E+00         0.00000E+00        -0.48838E+08
 
   -0.48470E+08         0.46923E+05         0.00000E+00
    0.46923E+05        -0.97599E+08         0.00000E+00
    0.00000E+00         0.00000E+00        -0.48762E+08
 
   -0.48402E+08         0.49241E+05         0.00000E+00
    0.49241E+05        -0.97599E+08         0.00000E+00
    0.00000E+00         0.00000E+00        -0.48685E+08
 
   -0.48330E+08         0.51392E+05         0.00000E+00
    0.51392E+05        -0.97599E+08         0.00000E+00
    0.00000E+00         0.00000E+00        -0.48607E+08
 
   -0.48256E+08         0.53402E+05         0.00000E+00
    0.53402E+05        -0.97599E+08         0.00000E+00
    0.00000E+00         0.00000E+00        -0.48528E+08
 
   -0.48178E+08         0.55296E+05         0.00000E+00
    0.55296E+05        -0.97599E+08         0.00000E+00
    0.00000E+00         0.00000E+00        -0.48448E+08
 
   -0.48098E+08         0.57095E+05         0.00000E+00
    0.57095E+05        -0.97599E+08         0.00000E+00
    0.00000E+00         0.00000E+00        -0.48366E+08
 
   -0.48016E+08         0.58816E+05         0.00000E+00
    0.58816E+05        -0.97599E+08         0.00000E+00
    0.00000E+00         0.00000E+00        -0.48283E+08
 
   -0.47931E+08         0.60474E+05         0.00000E+00
    0.60474E+05        -0.97599E+08         0.00000E+00
    0.00000E+00         0.00000E+00        -0.48199E+08
 
   -0.47844E+08         0.62085E+05         0.00000E+00
    0.62085E+05        -0.97599E+08         0.00000E+00
    0.00000E+00         0.00000E+00        -0.48113E+08
 
   -0.47754E+08         0.63658E+05         0.00000E+00
    0.63658E+05        -0.97599E+08         0.00000E+00
    0.00000E+00         0.00000E+00        -0.48025E+08
 
   -0.47662E+08         0.65203E+05         0.00000E+00
    0.65203E+05        -0.97599E+08         0.00000E+00
    0.00000E+00         0.00000E+00        -0.47936E+08
 
   -0.47568E+08         0.66728E+05         0.00000E+00
    0.66728E+05        -0.97599E+08         0.00000E+00
    0.00000E+00         0.00000E+00        -0.47846E+08
 
   -0.47472E+08         0.68240E+05         0.00000E+00
    0.68240E+05        -0.97599E+08         0.00000E+00
    0.00000E+00         0.00000E+00        -0.47753E+08
 
   -0.47374E+08         0.69745E+05         0.00000E+00
    0.69745E+05        -0.97599E+08         0.00000E+00
    0.00000E+00         0.00000E+00        -0.47659E+08
 
   -0.47274E+08         0.71248E+05         0.00000E+00
    0.71248E+05        -0.97599E+08         0.00000E+00
    0.00000E+00         0.00000E+00        -0.47563E+08
 
   -0.47171E+08         0.72751E+05         0.00000E+00
    0.72751E+05        -0.97599E+08         0.00000E+00
    0.00000E+00         0.00000E+00        -0.47465E+08
 
   -0.47066E+08         0.74259E+05         0.00000E+00
    0.74259E+05        -0.97599E+08         0.00000E+00
    0.00000E+00         0.00000E+00        -0.47365E+08
 
   -0.46959E+08         0.75774E+05         0.00000E+00
    0.75774E+05        -0.97599E+08         0.00000E+00
    0.00000E+00         0.00000E+00        -0.47263E+08
 
   -0.46850E+08         0.77297E+05         0.00000E+00
    0.77297E+05        -0.97599E+08         0.00000E+00
    0.00000E+00         0.00000E+00        -0.47159E+08
 
   -0.46739E+08         0.78831E+05         0.00000E+00
    0.78831E+05        -0.97599E+08         0.00000E+00
    0.00000E+00         0.00000E+00        -0.47053E+08
 
   -0.46626E+08         0.80377E+05         0.00000E+00
    0.80377E+05        -0.97599E+08         0.00000E+00
    0.00000E+00         0.00000E+00        -0.46945E+08
 
   -0.46510E+08         0.81935E+05         0.00000E+00
    0.81935E+05        -0.97599E+08         0.00000E+00
    0.00000E+00         0.00000E+00        -0.46834E+08
 
   -0.46392E+08         0.83505E+05         0.00000E+00
    0.83505E+05        -0.97599E+08         0.00000E+00
    0.00000E+00         0.00000E+00        -0.46721E+08
 
   -0.46272E+08         0.85089E+05         0.00000E+00
    0.85089E+05        -0.97599E+08         0.00000E+00
    0.00000E+00         0.00000E+00        -0.46606E+08
 
   -0.46149E+08         0.86685E+05         0.00000E+00
    0.86685E+05        -0.97599E+08         0.00000E+00
    0.00000E+00         0.00000E+00        -0.46488E+08
 
   -0.46025E+08         0.88293E+05         0.00000E+00
    0.88293E+05        -0.97599E+08         0.00000E+00
    0.00000E+00         0.00000E+00        -0.46368E+08
 
   -0.45897E+08         0.89912E+05         0.00000E+00
    0.89912E+05        -0.97599E+08         0.00000E+00
    0.00000E+00         0.00000E+00        -0.46246E+08
 
   -0.45768E+08         0.91542E+05         0.00000E+00
    0.91542E+05        -0.97599E+08         0.00000E+00
    0.00000E+00         0.00000E+00        -0.46121E+08
 
   -0.45636E+08         0.93181E+05         0.00000E+00
    0.93181E+05        -0.97599E+08         0.00000E+00
    0.00000E+00         0.00000E+00        -0.45993E+08
 
   -0.45502E+08         0.94828E+05         0.00000E+00
    0.94828E+05        -0.97599E+08         0.00000E+00
    0.00000E+00         0.00000E+00        -0.45863E+08
 
   -0.45366E+08         0.96481E+05         0.00000E+00
    0.96481E+05        -0.97599E+08         0.00000E+00
    0.00000E+00         0.00000E+00        -0.45730E+08
 
   -0.45227E+08         0.98139E+05         0.00000E+00
    0.98139E+05        -0.97599E+08         0.00000E+00
    0.00000E+00         0.00000E+00        -0.45594E+08
 
   -0.45086E+08         0.99798E+05         0.00000E+00
    0.99798E+05        -0.97599E+08         0.00000E+00
    0.00000E+00         0.00000E+00        -0.45456E+08
 
   -0.44942E+08         0.10146E+06         0.00000E+00
    0.10146E+06        -0.97599E+08         0.00000E+00
    0.00000E+00         0.00000E+00        -0.45314E+08
 
   -0.44796E+08         0.10311E+06         0.00000E+00
    0.10311E+06        -0.97599E+08         0.00000E+00
    0.00000E+00         0.00000E+00        -0.45170E+08
 
   -0.44648E+08         0.10476E+06         0.00000E+00
    0.10476E+06        -0.97599E+08         0.00000E+00
    0.00000E+00         0.00000E+00        -0.45024E+08
 
   -0.44497E+08         0.10641E+06         0.00000E+00
    0.10641E+06        -0.97599E+08         0.00000E+00
    0.00000E+00         0.00000E+00        -0.44874E+08
 
   -0.44344E+08         0.10804E+06         0.00000E+00
    0.10804E+06        -0.97599E+08         0.00000E+00
    0.00000E+00         0.00000E+00        -0.44721E+08
 
   -0.44189E+08         0.10965E+06         0.00000E+00
    0.10965E+06        -0.97599E+08         0.00000E+00
    0.00000E+00         0.00000E+00        -0.44565E+08
 
   -0.44031E+08         0.11124E+06         0.00000E+00
    0.11124E+06        -0.97599E+08         0.00000E+00
    0.00000E+00         0.00000E+00        -0.44407E+08
 
   -0.43871E+08         0.11281E+06         0.00000E+00
    0.11281E+06        -0.97599E+08         0.00000E+00
    0.00000E+00         0.00000E+00        -0.44245E+08
 
   -0.43709E+08         0.11434E+06         0.00000E+00
    0.11434E+06        -0.97599E+08         0.00000E+00
    0.00000E+00         0.00000E+00        -0.44081E+08
 
   -0.43544E+08         0.11584E+06         0.00000E+00
    0.11584E+06        -0.97599E+08         0.00000E+00
    0.00000E+00         0.00000E+00        -0.43913E+08
 
   -0.43378E+08         0.11730E+06         0.00000E+00
    0.11730E+06        -0.97599E+08         0.00000E+00
    0.00000E+00         0.00000E+00        -0.43743E+08
 
   -0.43209E+08         0.11871E+06         0.00000E+00
    0.11871E+06        -0.97599E+08         0.00000E+00
    0.00000E+00         0.00000E+00        -0.43569E+08
 
   -0.43039E+08         0.12007E+06         0.00000E+00
    0.12007E+06        -0.97599E+08         0.00000E+00
    0.00000E+00         0.00000E+00        -0.43393E+08
 
   -0.42866E+08         0.12136E+06         0.00000E+00
    0.12136E+06        -0.97599E+08         0.00000E+00
    0.00000E+00         0.00000E+00        -0.43213E+08
 
   -0.42692E+08         0.12257E+06         0.00000E+00
    0.12257E+06        -0.97600E+08         0.00000E+00
    0.00000E+00         0.00000E+00        -0.43030E+08
 
   -0.42516E+08         0.12371E+06         0.00000E+00
    0.12371E+06        -0.97600E+08         0.00000E+00
    0.00000E+00         0.00000E+00        -0.42845E+08
 
   -0.42339E+08         0.12474E+06         0.00000E+00
    0.12474E+06        -0.97600E+08         0.00000E+00
    0.00000E+00         0.00000E+00        -0.42656E+08
 
   -0.42160E+08         0.12568E+06         0.00000E+00
    0.12568E+06        -0.97600E+08         0.00000E+00
    0.00000E+00         0.00000E+00        -0.42464E+08
 
   -0.41980E+08         0.12649E+06         0.00000E+00
    0.12649E+06        -0.97600E+08         0.00000E+00
    0.00000E+00         0.00000E+00        -0.42270E+08
 
   -0.41799E+08         0.12716E+06         0.00000E+00
    0.12716E+06        -0.97600E+08         0.00000E+00
    0.00000E+00         0.00000E+00        -0.42072E+08
 
   -0.41616E+08         0.12768E+06         0.00000E+00
    0.12768E+06        -0.97600E+08         0.00000E+00
    0.00000E+00         0.00000E+00        -0.41872E+08
 
   -0.41434E+08         0.12802E+06         0.00000E+00
    0.12802E+06        -0.97600E+08         0.00000E+00
    0.00000E+00         0.00000E+00        -0.41669E+08
 
   -0.41251E+08         0.12816E+06         0.00000E+00
    0.12816E+06        -0.97600E+08         0.00000E+00
    0.00000E+00         0.00000E+00        -0.41463E+08
 
   -0.41068E+08         0.12807E+06         0.00000E+00
    0.12807E+06        -0.97600E+08         0.00000E+00
    0.00000E+00         0.00000E+00        -0.41254E+08
 
   -0.40885E+08         0.12772E+06         0.00000E+00
    0.12772E+06        -0.97600E+08         0.00000E+00
    0.00000E+00         0.00000E+00        -0.41042E+08
 
   -0.40703E+08         0.12707E+06         0.00000E+00
    0.12707E+06        -0.97600E+08         0.00000E+00
    0.00000E+00         0.00000E+00        -0.40828E+08
 
   -0.40522E+08         0.12609E+06         0.00000E+00
    0.12609E+06        -0.97600E+08         0.00000E+00
    0.00000E+00         0.00000E+00        -0.40611E+08
 
   -0.40342E+08         0.12472E+06         0.00000E+00
    0.12472E+06        -0.97601E+08         0.00000E+00
    0.00000E+00         0.00000E+00        -0.40392E+08
 
   -0.40165E+08         0.12291E+06         0.00000E+00
    0.12291E+06        -0.97601E+08         0.00000E+00
    0.00000E+00         0.00000E+00        -0.40170E+08
 
   -0.39991E+08         0.12059E+06         0.00000E+00
    0.12059E+06        -0.97601E+08         0.00000E+00
    0.00000E+00         0.00000E+00        -0.39946E+08
 
   -0.39821E+08         0.11768E+06         0.00000E+00
    0.11768E+06        -0.97601E+08         0.00000E+00
    0.00000E+00         0.00000E+00        -0.39719E+08
 
   -0.39655E+08         0.11411E+06         0.00000E+00
    0.11411E+06        -0.97601E+08         0.00000E+00
    0.00000E+00         0.00000E+00        -0.39491E+08
 
   -0.39494E+08         0.10979E+06         0.00000E+00
    0.10979E+06        -0.97602E+08         0.00000E+00
    0.00000E+00         0.00000E+00        -0.39260E+08
 
   -0.39340E+08         0.10460E+06         0.00000E+00
    0.10460E+06        -0.97602E+08         0.00000E+00
    0.00000E+00         0.00000E+00        -0.39027E+08
 
   -0.39194E+08         0.98439E+05         0.00000E+00
    0.98439E+05        -0.97602E+08         0.00000E+00
    0.00000E+00         0.00000E+00        -0.38792E+08
 
   -0.39057E+08         0.91188E+05         0.00000E+00
    0.91188E+05        -0.97603E+08         0.00000E+00
    0.00000E+00         0.00000E+00        -0.38555E+08
 
   -0.38930E+08         0.82726E+05         0.00000E+00
    0.82726E+05        -0.97603E+08         0.00000E+00
    0.00000E+00         0.00000E+00        -0.38317E+08
 
   -0.38816E+08         0.72937E+05         0.00000E+00
    0.72937E+05        -0.97604E+08         0.00000E+00
    0.00000E+00         0.00000E+00        -0.38077E+08
 
   -0.38716E+08         0.61721E+05         0.00000E+00
    0.61721E+05        -0.97604E+08         0.00000E+00
    0.00000E+00         0.00000E+00        -0.37835E+08
 
   -0.38632E+08         0.49000E+05         0.00000E+00
    0.49000E+05        -0.97605E+08         0.00000E+00
    0.00000E+00         0.00000E+00        -0.37593E+08
 
   -0.38565E+08         0.34743E+05         0.00000E+00
    0.34743E+05        -0.97606E+08         0.00000E+00
    0.00000E+00         0.00000E+00        -0.37349E+08
 
   -0.38519E+08         0.18979E+05         0.00000E+00
    0.18979E+05        -0.97606E+08         0.00000E+00
    0.00000E+00         0.00000E+00        -0.37104E+08
 
   -0.38493E+08         0.18207E+04         0.00000E+00
    0.18207E+04        -0.97607E+08         0.00000E+00
    0.00000E+00         0.00000E+00        -0.36858E+08
 
   -0.38490E+08        -0.16507E+05         0.00000E+00
   -0.16507E+05        -0.97607E+08         0.00000E+00
    0.00000E+00         0.00000E+00        -0.36611E+08
 
   -0.38509E+08        -0.35630E+05         0.00000E+00
   -0.35630E+05        -0.97607E+08         0.00000E+00
    0.00000E+00         0.00000E+00        -0.36364E+08
 
   -0.38552E+08        -0.55007E+05         0.00000E+00
   -0.55007E+05        -0.97608E+08         0.00000E+00
    0.00000E+00         0.00000E+00        -0.36116E+08
 
   -0.38615E+08        -0.73541E+05         0.00000E+00
   -0.73541E+05        -0.97607E+08         0.00000E+00
    0.00000E+00         0.00000E+00        -0.35868E+08
 
   -0.38692E+08        -0.89996E+05         0.00000E+00
   -0.89996E+05        -0.97607E+08         0.00000E+00
    0.00000E+00         0.00000E+00        -0.35620E+08
 
   -0.38766E+08        -0.96839E+05         0.00000E+00
   -0.96839E+05        -0.97607E+08         0.00000E+00
    0.00000E+00         0.00000E+00        -0.35372E+08
 
   -0.38803E+08        -0.51824E+05         0.00000E+00
   -0.51824E+05        -0.97559E+08         0.00000E+00
    0.00000E+00         0.00000E+00        -0.35124E+08
 
   -0.48823E+08        -0.13710E+05         0.00000E+00
   -0.13710E+05        -0.97606E+08         0.00000E+00
    0.00000E+00         0.00000E+00        -0.49966E+08
 
   -0.48839E+08        -0.21815E+05         0.00000E+00
   -0.21815E+05        -0.97598E+08         0.00000E+00
    0.00000E+00         0.00000E+00        -0.49897E+08
 
   -0.48865E+08        -0.17926E+05         0.00000E+00
   -0.17926E+05        -0.97599E+08         0.00000E+00
    0.00000E+00         0.00000E+00        -0.49828E+08
 
   -0.48887E+08        -0.13441E+05         0.00000E+00
   -0.13441E+05        -0.97599E+08         0.00000E+00
    0.00000E+00         0.00000E+00        -0.49759E+08
 
   -0.48903E+08        -0.87321E+04         0.00000E+00
   -0.87321E+04        -0.97599E+08         0.00000E+00
    0.00000E+00         0.00000E+00        -0.49691E+08
 
   -0.48911E+08        -0.40010E+04         0.00000E+00
   -0.40010E+04        -0.97599E+08         0.00000E+00
    0.00000E+00         0.00000E+00        -0.49622E+08
 
   -0.48911E+08         0.59632E+03         0.00000E+00
    0.59632E+03        -0.97599E+08         0.00000E+00
    0.00000E+00         0.00000E+00        -0.49553E+08
 
   -0.48903E+08         0.49850E+04         0.00000E+00
    0.49850E+04        -0.97599E+08         0.00000E+00
    0.00000E+00         0.00000E+00        -0.49484E+08
 
   -0.48887E+08         0.91080E+04         0.00000E+00
    0.91080E+04        -0.97599E+08         0.00000E+00
    0.00000E+00         0.00000E+00        -0.49414E+08
 
   -0.48863E+08         0.12934E+05         0.00000E+00
    0.12934E+05        -0.97599E+08         0.00000E+00
    0.00000E+00         0.00000E+00        -0.49345E+08
 
   -0.48833E+08         0.16450E+05         0.00000E+00
    0.16450E+05        -0.97599E+08         0.00000E+00
    0.00000E+00         0.00000E+00        -0.49274E+08
 
   -0.48796E+08         0.19659E+05         0.00000E+00
    0.19659E+05        -0.97599E+08         0.00000E+00
    0.00000E+00         0.00000E+00        -0.49203E+08
 
   -0.48753E+08         0.22572E+05         0.00000E+00
    0.22572E+05        -0.97599E+08         0.00000E+00
    0.00000E+00         0.00000E+00        -0.49132E+08
 
   -0.48705E+08         0.25212E+05         0.00000E+00
    0.25212E+05        -0.97599E+08         0.00000E+00
    0.00000E+00         0.00000E+00        -0.49059E+08
 
   -0.48652E+08         0.27603E+05         0.00000E+00
    0.27603E+05        -0.97599E+08         0.00000E+00
    0.00000E+00         0.00000E+00        -0.48986E+08
 
   -0.48595E+08         0.29772E+05         0.00000E+00
    0.29772E+05        -0.97599E+08         0.00000E+00
    0.00000E+00         0.00000E+00        -0.48912E+08
 
   -0.48533E+08         0.31747E+05         0.00000E+00
    0.31747E+05        -0.97599E+08         0.00000E+00
    0.00000E+00         0.00000E+00        -0.48838E+08
 
   -0.48468E+08         0.33553E+05         0.00000E+00
    0.33553E+05        -0.97600E+08         0.00000E+00
    0.00000E+00         0.00000E+00        -0.48762E+08
 
   -0.48400E+08         0.35215E+05         0.00000E+00
    0.35215E+05        -0.97600E+08         0.00000E+00
    0.00000E+00         0.00000E+00        -0.48685E+08
 
   -0.48328E+08         0.36755E+05         0.00000E+00
    0.36755E+05        -0.97600E+08         0.00000E+00
    0.00000E+00         0.00000E+00        -0.48607E+08
 
   -0.48253E+08         0.38194E+05         0.00000E+00
    0.38194E+05        -0.97600E+08         0.00000E+00
    0.00000E+00         0.00000E+00        -0.48528E+08
 
   -0.48176E+08         0.39548E+05         0.00000E+00
    0.39548E+05        -0.97600E+08         0.00000E+00
    0.00000E+00         0.00000E+00        -0.48448E+08
 
   -0.48096E+08         0.40833E+05         0.00000E+00
    0.40833E+05        -0.97600E+08         0.00000E+00
    0.00000E+00         0.00000E+00        -0.48366E+08
 
   -0.48013E+08         0.42061E+05         0.00000E+00
    0.42061E+05        -0.97600E+08         0.00000E+00
    0.00000E+00         0.00000E+00        -0.48283E+08
 
   -0.47928E+08         0.43246E+05         0.00000E+00
    0.43246E+05        -0.97600E+08         0.00000E+00
    0.00000E+00         0.00000E+00        -0.48199E+08
 
   -0.47841E+08         0.44395E+05         0.00000E+00
    0.44395E+05        -0.97600E+08         0.00000E+00
    0.00000E+00         0.00000E+00        -0.48113E+08
 
   -0.47751E+08         0.45517E+05         0.00000E+00
    0.45517E+05        -0.97600E+08         0.00000E+00
    0.00000E+00         0.00000E+00        -0.48025E+08
 
   -0.47659E+08         0.46620E+05         0.00000E+00
    0.46620E+05        -0.97600E+08         0.00000E+00
    0.00000E+00         0.00000E+00        -0.47936E+08
 
   -0.47565E+08         0.47708E+05         0.00000E+00
    0.47708E+05        -0.97600E+08         0.00000E+00
    0.00000E+00         0.00000E+00        -0.47846E+08
 
   -0.47469E+08         0.48787E+05         0.00000E+00
    0.48787E+05        -0.97600E+08         0.00000E+00
    0.00000E+00         0.00000E+00        -0.47753E+08
 
   -0.47370E+08         0.49861E+05         0.00000E+00
    0.49861E+05        -0.97600E+08         0.00000E+00
    0.00000E+00         0.00000E+00        -0.47659E+08
 
   -0.47270E+08         0.50933E+05         0.00000E+00
    0.50933E+05        -0.97600E+08         0.00000E+00
    0.00000E+00         0.00000E+00        -0.47563E+08
 
   -0.47167E+08         0.52006E+05         0.00000E+00
    0.52006E+05        -0.97600E+08         0.00000E+00
    0.00000E+00         0.00000E+00        -0.47465E+08
 
   -0.47062E+08         0.53082E+05         0.00000E+00
    0.53082E+05        -0.97600E+08         0.00000E+00
    0.00000E+00         0.00000E+00        -0.47365E+08
 
   -0.46955E+08         0.54163E+05         0.00000E+00
    0.54163E+05        -0.97600E+08         0.00000E+00
    0.00000E+00         0.00000E+00        -0.47263E+08
 
   -0.46846E+08         0.55251E+05         0.00000E+00
    0.55251E+05        -0.97600E+08         0.00000E+00
    0.00000E+00         0.00000E+00        -0.47159E+08
 
   -0.46734E+08         0.56346E+05         0.00000E+00
    0.56346E+05        -0.97600E+08         0.00000E+00
    0.00000E+00         0.00000E+00        -0.47053E+08
 
   -0.46621E+08         0.57449E+05         0.00000E+00
    0.57449E+05        -0.97600E+08         0.00000E+00
    0.00000E+00         0.00000E+00        -0.46945E+08
 
   -0.46505E+08         0.58561E+05         0.00000E+00
    0.58561E+05        -0.97600E+08         0.00000E+00
    0.00000E+00         0.00000E+00        -0.46834E+08
 
   -0.46387E+08         0.59681E+05         0.00000E+00
    0.59681E+05        -0.97600E+08         0.00000E+00
    0.00000E+00         0.00000E+00        -0.46721E+08
 
   -0.46267E+08         0.60812E+05         0.00000E+00
    0.60812E+05        -0.97600E+08         0.00000E+00
    0.00000E+00         0.00000E+00        -0.46606E+08
 
   -0.46144E+08         0.61951E+05         0.00000E+00
    0.61951E+05        -0.97600E+08         0.00000E+00
    0.00000E+00         0.00000E+00        -0.46488E+08
 
   -0.46019E+08         0.63098E+05         0.00000E+00
    0.63098E+05        -0.97600E+08         0.00000E+00
    0.00000E+00         0.00000E+00        -0.46368E+08
 
   -0.45892E+08         0.64254E+05         0.00000E+00
    0.64254E+05        -0.97600E+08         0.00000E+00
    0.00000E+00         0.00000E+00        -0.46246E+08
 
   -0.45763E+08         0.65417E+05         0.00000E+00
    0.65417E+05        -0.97600E+08         0.00000E+00
    0.00000E+00         0.00000E+00        -0.46121E+08
 
   -0.45631E+08         0.66587E+05         0.00000E+00
    0.66587E+05        -0.97600E+08         0.00000E+00
    0.00000E+00         0.00000E+00        -0.45993E+08
 
   -0.45496E+08         0.67762E+05         0.00000E+00
    0.67762E+05        -0.97600E+08         0.00000E+00
    0.00000E+00         0.00000E+00        -0.45863E+08
 
   -0.45360E+08         0.68942E+05         0.00000E+00
    0.68942E+05        -0.97600E+08         0.00000E+00
    0.00000E+00         0.00000E+00        -0.45730E+08
 
   -0.45221E+08         0.70125E+05         0.00000E+00
    0.70125E+05        -0.97600E+08         0.00000E+00
    0.00000E+00         0.00000E+00        -0.45594E+08
 
   -0.45080E+08         0.71309E+05         0.00000E+00
    0.71309E+05        -0.97600E+08         0.00000E+00
    0.00000E+00         0.00000E+00        -0.45456E+08
 
   -0.44936E+08         0.72493E+05         0.00000E+00
    0.72493E+05        -0.97600E+08         0.00000E+00
    0.00000E+00         0.00000E+00        -0.45314E+08
 
   -0.44790E+08         0.73675E+05         0.00000E+00
    0.73675E+05        -0.97600E+08         0.00000E+00
    0.00000E+00         0.00000E+00        -0.45170E+08
 
   -0.44642E+08         0.74853E+05         0.00000E+00
    0.74853E+05        -0.97600E+08         0.00000E+00
    0.00000E+00         0.00000E+00        -0.45024E+08
 
   -0.44491E+08         0.76024E+05         0.00000E+00
    0.76024E+05        -0.97600E+08         0.00000E+00
    0.00000E+00         0.00000E+00        -0.44874E+08
 
   -0.44338E+08         0.77186E+05         0.00000E+00
    0.77186E+05        -0.97600E+08         0.00000E+00
    0.00000E+00         0.00000E+00        -0.44721E+08
 
   -0.44182E+08         0.78336E+05         0.00000E+00
    0.78336E+05        -0.97600E+08         0.00000E+00
    0.00000E+00         0.00000E+00        -0.44565E+08
 
   -0.44025E+08         0.79472E+05         0.00000E+00
    0.79472E+05        -0.97600E+08         0.00000E+00
    0.00000E+00         0.00000E+00        -0.44407E+08
 
   -0.43865E+08         0.80590E+05         0.00000E+00
    0.80590E+05        -0.97600E+08         0.00000E+00
    0.00000E+00         0.00000E+00        -0.44245E+08
 
   -0.43702E+08         0.81686E+05         0.00000E+00
    0.81686E+05        -0.97600E+08         0.00000E+00
    0.00000E+00         0.00000E+00        -0.44081E+08
 
   -0.43538E+08         0.82756E+05         0.00000E+00
    0.82756E+05        -0.97600E+08         0.00000E+00
    0.00000E+00         0.00000E+00        -0.43913E+08
 
   -0.43371E+08         0.83796E+05         0.00000E+00
    0.83796E+05        -0.97600E+08         0.00000E+00
    0.00000E+00         0.00000E+00        -0.43743E+08
 
   -0.43203E+08         0.84802E+05         0.00000E+00
    0.84802E+05        -0.97600E+08         0.00000E+00
    0.00000E+00         0.00000E+00        -0.43569E+08
 
   -0.43032E+08         0.85767E+05         0.00000E+00
    0.85767E+05        -0.97600E+08         0.00000E+00
    0.00000E+00         0.00000E+00        -0.43393E+08
 
   -0.42860E+08         0.86687E+05         0.00000E+00
    0.86687E+05        -0.97600E+08         0.00000E+00
    0.00000E+00         0.00000E+00        -0.43213E+08
 
   -0.42686E+08         0.87554E+05         0.00000E+00
    0.87554E+05        -0.97600E+08         0.00000E+00
    0.00000E+00         0.00000E+00        -0.43030E+08
 
   -0.42510E+08         0.88363E+05         0.00000E+00
    0.88363E+05        -0.97600E+08         0.00000E+00
    0.00000E+00         0.00000E+00        -0.42845E+08
 
   -0.42332E+08         0.89103E+05         0.00000E+00
    0.89103E+05        -0.97600E+08         0.00000E+00
    0.00000E+00         0.00000E+00        -0.42656E+08
 
   -0.42153E+08         0.89768E+05         0.00000E+00
    0.89768E+05        -0.97600E+08         0.00000E+00
    0.00000E+00         0.00000E+00        -0.42464E+08
 
   -0.41973E+08         0.90345E+05         0.00000E+00
    0.90345E+05        -0.97600E+08         0.00000E+00
    0.00000E+00         0.00000E+00        -0.42270E+08
 
   -0.41792E+08         0.90825E+05         0.00000E+00
    0.90825E+05        -0.97600E+08         0.00000E+00
    0.00000E+00         0.00000E+00        -0.42072E+08
 
   -0.41610E+08         0.91194E+05         0.00000E+00
    0.91194E+05        -0.97600E+08         0.00000E+00
    0.00000E+00         0.00000E+00        -0.41872E+08
 
   -0.41427E+08         0.91436E+05         0.00000E+00
    0.91436E+05        -0.97600E+08         0.00000E+00
    0.00000E+00         0.00000E+00        -0.41669E+08
 
   -0.41244E+08         0.91535E+05         0.00000E+00
    0.91535E+05        -0.97600E+08         0.00000E+00
    0.00000E+00         0.00000E+00        -0.41463E+08
 
   -0.41061E+08         0.91471E+05         0.00000E+00
    0.91471E+05        -0.97600E+08         0.00000E+00
    0.00000E+00         0.00000E+00        -0.41254E+08
 
   -0.40879E+08         0.91221E+05         0.00000E+00
    0.91221E+05        -0.97600E+08         0.00000E+00
    0.00000E+00         0.00000E+00        -0.41042E+08
 
   -0.40697E+08         0.90759E+05         0.00000E+00
    0.90759E+05        -0.97600E+08         0.00000E+00
    0.00000E+00         0.00000E+00        -0.40828E+08
 
   -0.40516E+08         0.90055E+05         0.00000E+00
    0.90055E+05        -0.97600E+08         0.00000E+00
    0.00000E+00         0.00000E+00        -0.40611E+08
 
   -0.40337E+08         0.89072E+05         0.00000E+00
    0.89072E+05        -0.97600E+08         0.00000E+00
    0.00000E+00         0.00000E+00        -0.40392E+08
 
   -0.40160E+08         0.87770E+05         0.00000E+00
    0.87770E+05        -0.97600E+08         0.00000E+00
    0.00000E+00         0.00000E+00        -0.40170E+08
 
   -0.39986E+08         0.86102E+05         0.00000E+00
    0.86102E+05        -0.97600E+08         0.00000E+00
    0.00000E+00         0.00000E+00        -0.39946E+08
 
   -0.39815E+08         0.84015E+05         0.00000E+00
    0.84015E+05        -0.97601E+08         0.00000E+00
    0.00000E+00         0.00000E+00        -0.39719E+08
 
   -0.39649E+08         0.81447E+05         0.00000E+00
    0.81447E+05        -0.97601E+08         0.00000E+00
    0.00000E+00         0.00000E+00        -0.39491E+08
 
   -0.39489E+08         0.78329E+05         0.00000E+00
    0.78329E+05        -0.97601E+08         0.00000E+00
    0.00000E+00         0.00000E+00        -0.39260E+08
 
   -0.39336E+08         0.74585E+05         0.00000E+00
    0.74585E+05        -0.97601E+08         0.00000E+00
    0.00000E+00         0.00000E+00        -0.39027E+08
 
   -0.39190E+08         0.70132E+05         0.00000E+00
    0.70132E+05        -0.97601E+08         0.00000E+00
    0.00000E+00         0.00000E+00        -0.38792E+08
 
   -0.39054E+08         0.64882E+05         0.00000E+00
    0.64882E+05        -0.97601E+08         0.00000E+00
    0.00000E+00         0.00000E+00        -0.38555E+08
 
   -0.38929E+08         0.58745E+05         0.00000E+00
    0.58745E+05        -0.97602E+08         0.00000E+00
    0.00000E+00         0.00000E+00        -0.38317E+08
 
   -0.38816E+08         0.51631E+05         0.00000E+00
    0.51631E+05        -0.97602E+08         0.00000E+00
    0.00000E+00         0.00000E+00        -0.38077E+08
 
   -0.38718E+08         0.43462E+05         0.00000E+00
    0.43462E+05        -0.97602E+08         0.00000E+00
    0.00000E+00         0.00000E+00        -0.37835E+08
 
   -0.38636E+08         0.34174E+05         0.00000E+00
    0.34174E+05        -0.97603E+08         0.00000E+00
    0.00000E+00         0.00000E+00        -0.37593E+08
 
   -0.38573E+08         0.23736E+05         0.00000E+00
    0.23736E+05        -0.97603E+08         0.00000E+00
    0.00000E+00         0.00000E+00        -0.37349E+08
 
   -0.38531E+08         0.12155E+05         0.00000E+00
    0.12155E+05        -0.97603E+08         0.00000E+00
    0.00000E+00         0.00000E+00        -0.37104E+08
 
   -0.38510E+08        -0.50146E+03         0.00000E+00
   -0.50146E+03        -0.97604E+08         0.00000E+00
    0.00000E+00         0.00000E+00        -0.36858E+08
 
   -0.38514E+08        -0.14100E+05         0.00000E+00
   -0.14100E+05        -0.97604E+08         0.00000E+00
    0.00000E+00         0.00000E+00        -0.36611E+08
 
   -0.38542E+08        -0.28409E+05         0.00000E+00
   -0.28409E+05        -0.97604E+08         0.00000E+00
    0.00000E+00         0.00000E+00        -0.36364E+08
 
   -0.38596E+08        -0.43129E+05         0.00000E+00
   -0.43129E+05        -0.97604E+08         0.00000E+00
    0.00000E+00         0.00000E+00        -0.36116E+08
 
   -0.38673E+08        -0.57664E+05         0.00000E+00
   -0.57664E+05        -0.97604E+08         0.00000E+00
    0.00000E+00         0.00000E+00        -0.35868E+08
 
   -0.38769E+08        -0.71252E+05         0.00000E+00
   -0.71252E+05        -0.97604E+08         0.00000E+00
    0.00000E+00         0.00000E+00        -0.35620E+08
 
   -0.38871E+08        -0.82495E+05         0.00000E+00
   -0.82495E+05        -0.97608E+08         0.00000E+00
    0.00000E+00         0.00000E+00        -0.35372E+08
 
   -0.38934E+08        -0.50582E+05         0.00000E+00
   -0.50582E+05        -0.97576E+08         0.00000E+00
    0.00000E+00         0.00000E+00        -0.35124E+08
 
   -0.48782E+08        -0.12872E+05         0.00000E+00
   -0.12872E+05        -0.97602E+08         0.00000E+00
    0.00000E+00         0.00000E+00        -0.49966E+08
 
   -0.48809E+08        -0.16063E+05         0.00000E+00
   -0.16063E+05        -0.97598E+08         0.00000E+00
    0.00000E+00         0.00000E+00        -0.49897E+08
 
   -0.48843E+08        -0.12128E+05         0.00000E+00
   -0.12128E+05        -0.97600E+08         0.00000E+00
    0.00000E+00         0.00000E+00        -0.49828E+08
 
   -0.48871E+08        -0.91216E+04         0.00000E+00
   -0.91216E+04        -0.97599E+08         0.00000E+00
    0.00000E+00         0.00000E+00        -0.49759E+08
 
   -0.48891E+08        -0.59833E+04         0.00000E+00
   -0.59833E+04        -0.97599E+08         0.00000E+00
    0.00000E+00         0.00000E+00        -0.49691E+08
 
   -0.48902E+08        -0.29641E+04         0.00000E+00
   -0.29641E+04        -0.97599E+08         0.00000E+00
    0.00000E+00         0.00000E+00        -0.49622E+08
 
   -0.48904E+08        -0.63325E+02         0.00000E+00
   -0.63325E+02        -0.97600E+08         0.00000E+00
    0.00000E+00         0.00000E+00        -0.49553E+08
 
   -0.48897E+08         0.26770E+04         0.00000E+00
    0.26770E+04        -0.97600E+08         0.00000E+00
    0.00000E+00         0.00000E+00        -0.49484E+08
 
   -0.48882E+08         0.52357E+04         0.00000E+00
    0.52357E+04        -0.97600E+08         0.00000E+00
    0.00000E+00         0.00000E+00        -0.49414E+08
 
   -0.48860E+08         0.75981E+04         0.00000E+00
    0.75981E+04        -0.97600E+08         0.00000E+00
    0.00000E+00         0.00000E+00        -0.49345E+08
 
   -0.48830E+08         0.97604E+04         0.00000E+00
    0.97604E+04        -0.97600E+08         0.00000E+00
    0.00000E+00         0.00000E+00        -0.49274E+08
 
   -0.48794E+08         0.11726E+05         0.00000E+00
    0.11726E+05        -0.97600E+08         0.00000E+00
    0.00000E+00         0.00000E+00        -0.49203E+08
 
   -0.48751E+08         0.13506E+05         0.00000E+00
    0.13506E+05        -0.97600E+08         0.00000E+00
    0.00000E+00         0.00000E+00        -0.49132E+08
 
   -0.48703E+08         0.15114E+05         0.00000E+00
    0.15114E+05        -0.97600E+08         0.00000E+00
    0.00000E+00         0.00000E+00        -0.49059E+08
 
   -0.48650E+08         0.16566E+05         0.00000E+00
    0.16566E+05        -0.97600E+08         0.00000E+00
    0.00000E+00         0.00000E+00        -0.48986E+08
 
   -0.48593E+08         0.17880E+05         0.00000E+00
    0.17880E+05        -0.97600E+08         0.00000E+00
    0.00000E+00         0.00000E+00        -0.48912E+08
 
   -0.48532E+08         0.19074E+05         0.00000E+00
    0.19074E+05        -0.97600E+08         0.00000E+00
    0.00000E+00         0.00000E+00        -0.48838E+08
 
   -0.48466E+08         0.20164E+05         0.00000E+00
    0.20164E+05        -0.97600E+08         0.00000E+00
    0.00000E+00         0.00000E+00        -0.48762E+08
 
   -0.48398E+08         0.21165E+05         0.00000E+00
    0.21165E+05        -0.97600E+08         0.00000E+00
    0.00000E+00         0.00000E+00        -0.48685E+08
 
   -0.48326E+08         0.22092E+05         0.00000E+00
    0.22092E+05        -0.97600E+08         0.00000E+00
    0.00000E+00         0.00000E+00        -0.48607E+08
 
   -0.48251E+08         0.22956E+05         0.00000E+00
    0.22956E+05        -0.97600E+08         0.00000E+00
    0.00000E+00         0.00000E+00        -0.48528E+08
 
   -0.48173E+08         0.23769E+05         0.00000E+00
    0.23769E+05        -0.97600E+08         0.00000E+00
    0.00000E+00         0.00000E+00        -0.48448E+08
 
   -0.48093E+08         0.24539E+05         0.00000E+00
    0.24539E+05        -0.97600E+08         0.00000E+00
    0.00000E+00         0.00000E+00        -0.48366E+08
 
   -0.48010E+08         0.25276E+05         0.00000E+00
    0.25276E+05        -0.97600E+08         0.00000E+00
    0.00000E+00         0.00000E+00        -0.48283E+08
 
   -0.47925E+08         0.25986E+05         0.00000E+00
    0.25986E+05        -0.97600E+08         0.00000E+00
    0.00000E+00         0.00000E+00        -0.48199E+08
 
   -0.47838E+08         0.26674E+05         0.00000E+00
    0.26674E+05        -0.97600E+08         0.00000E+00
    0.00000E+00         0.00000E+00        -0.48113E+08
 
   -0.47748E+08         0.27347E+05         0.00000E+00
    0.27347E+05        -0.97600E+08         0.00000E+00
    0.00000E+00         0.00000E+00        -0.48025E+08
 
   -0.47656E+08         0.28007E+05         0.00000E+00
    0.28007E+05        -0.97600E+08         0.00000E+00
    0.00000E+00         0.00000E+00        -0.47936E+08
 
   -0.47561E+08         0.28660E+05         0.00000E+00
    0.28660E+05        -0.97600E+08         0.00000E+00
    0.00000E+00         0.00000E+00        -0.47846E+08
 
   -0.47465E+08         0.29306E+05         0.00000E+00
    0.29306E+05        -0.97600E+08         0.00000E+00
    0.00000E+00         0.00000E+00        -0.47753E+08
 
   -0.47367E+08         0.29949E+05         0.00000E+00
    0.29949E+05        -0.97600E+08         0.00000E+00
    0.00000E+00         0.00000E+00        -0.47659E+08
 
   -0.47266E+08         0.30592E+05         0.00000E+00
    0.30592E+05        -0.97600E+08         0.00000E+00
    0.00000E+00         0.00000E+00        -0.47563E+08
 
   -0.47163E+08         0.31235E+05         0.00000E+00
    0.31235E+05        -0.97600E+08         0.00000E+00
    0.00000E+00         0.00000E+00        -0.47465E+08
 
   -0.47058E+08         0.31880E+05         0.00000E+00
    0.31880E+05        -0.97600E+08         0.00000E+00
    0.00000E+00         0.00000E+00        -0.47365E+08
 
   -0.46951E+08         0.32527E+05         0.00000E+00
    0.32527E+05        -0.97600E+08         0.00000E+00
    0.00000E+00         0.00000E+00        -0.47263E+08
 
   -0.46841E+08         0.33179E+05         0.00000E+00
    0.33179E+05        -0.97600E+08         0.00000E+00
    0.00000E+00         0.00000E+00        -0.47159E+08
 
   -0.46730E+08         0.33835E+05         0.00000E+00
    0.33835E+05        -0.97600E+08         0.00000E+00
    0.00000E+00         0.00000E+00        -0.47053E+08
 
   -0.46616E+08         0.34497E+05         0.00000E+00
    0.34497E+05        -0.97600E+08         0.00000E+00
    0.00000E+00         0.00000E+00        -0.46945E+08
 
   -0.46500E+08         0.35163E+05         0.00000E+00
    0.35163E+05        -0.97600E+08         0.00000E+00
    0.00000E+00         0.00000E+00        -0.46834E+08
 
   -0.46382E+08         0.35835E+05         0.00000E+00
    0.35835E+05        -0.97600E+08         0.00000E+00
    0.00000E+00         0.00000E+00        -0.46721E+08
 
   -0.46262E+08         0.36512E+05         0.00000E+00
    0.36512E+05        -0.97600E+08         0.00000E+00
    0.00000E+00         0.00000E+00        -0.46606E+08
 
   -0.46139E+08         0.37195E+05         0.00000E+00
    0.37195E+05        -0.97600E+08         0.00000E+00
    0.00000E+00         0.00000E+00        -0.46488E+08
 
   -0.46014E+08         0.37883E+05         0.00000E+00
    0.37883E+05        -0.97600E+08         0.00000E+00
    0.00000E+00         0.00000E+00        -0.46368E+08
 
   -0.45887E+08         0.38576E+05         0.00000E+00
    0.38576E+05        -0.97600E+08         0.00000E+00
    0.00000E+00         0.00000E+00        -0.46246E+08
 
   -0.45757E+08         0.39273E+05         0.00000E+00
    0.39273E+05        -0.97600E+08         0.00000E+00
    0.00000E+00         0.00000E+00        -0.46121E+08
 
   -0.45625E+08         0.39974E+05         0.00000E+00
    0.39974E+05        -0.97600E+08         0.00000E+00
    0.00000E+00         0.00000E+00        -0.45993E+08
 
   -0.45491E+08         0.40678E+05         0.00000E+00
    0.40678E+05        -0.97600E+08         0.00000E+00
    0.00000E+00         0.00000E+00        -0.45863E+08
 
   -0.45354E+08         0.41385E+05         0.00000E+00
    0.41385E+05        -0.97600E+08         0.00000E+00
    0.00000E+00         0.00000E+00        -0.45730E+08
 
   -0.45215E+08         0.42094E+05         0.00000E+00
    0.42094E+05        -0.97600E+08         0.00000E+00
    0.00000E+00         0.00000E+00        -0.45594E+08
 
   -0.45074E+08         0.42804E+05         0.00000E+00
    0.42804E+05        -0.97600E+08         0.00000E+00
    0.00000E+00         0.00000E+00        -0.45456E+08
 
   -0.44930E+08         0.43513E+05         0.00000E+00
    0.43513E+05        -0.97600E+08         0.00000E+00
    0.00000E+00         0.00000E+00        -0.45314E+08
 
   -0.44784E+08         0.44222E+05         0.00000E+00
    0.44222E+05        -0.97600E+08         0.00000E+00
    0.00000E+00         0.00000E+00        -0.45170E+08
 
   -0.44636E+08         0.44927E+05         0.00000E+00
    0.44927E+05        -0.97600E+08         0.00000E+00
    0.00000E+00         0.00000E+00        -0.45024E+08
 
   -0.44485E+08         0.45629E+05         0.00000E+00
    0.45629E+05        -0.97600E+08         0.00000E+00
    0.00000E+00         0.00000E+00        -0.44874E+08
 
   -0.44332E+08         0.46325E+05         0.00000E+00
    0.46325E+05        -0.97600E+08         0.00000E+00
    0.00000E+00         0.00000E+00        -0.44721E+08
 
   -0.44176E+08         0.47015E+05         0.00000E+00
    0.47015E+05        -0.97600E+08         0.00000E+00
    0.00000E+00         0.00000E+00        -0.44565E+08
 
   -0.44018E+08         0.47695E+05         0.00000E+00
    0.47695E+05        -0.97600E+08         0.00000E+00
    0.00000E+00         0.00000E+00        -0.44407E+08
 
   -0.43858E+08         0.48364E+05         0.00000E+00
    0.48364E+05        -0.97600E+08         0.00000E+00
    0.00000E+00         0.00000E+00        -0.44245E+08
 
   -0.43696E+08         0.49021E+05         0.00000E+00
    0.49021E+05        -0.97600E+08         0.00000E+00
    0.00000E+00         0.00000E+00        -0.44081E+08
 
   -0.43532E+08         0.49662E+05         0.00000E+00
    0.49662E+05        -0.97600E+08         0.00000E+00
    0.00000E+00         0.00000E+00        -0.43913E+08
 
   -0.43365E+08         0.50285E+05         0.00000E+00
    0.50285E+05        -0.97600E+08         0.00000E+00
    0.00000E+00         0.00000E+00        -0.43743E+08
 
   -0.43196E+08         0.50887E+05         0.00000E+00
    0.50887E+05        -0.97600E+08         0.00000E+00
    0.00000E+00         0.00000E+00        -0.43569E+08
 
   -0.43026E+08         0.51466E+05         0.00000E+00
    0.51466E+05        -0.97600E+08         0.00000E+00
    0.00000E+00         0.00000E+00        -0.43393E+08
 
   -0.42853E+08         0.52017E+05         0.00000E+00
    0.52017E+05        -0.97600E+08         0.00000E+00
    0.00000E+00         0.00000E+00        -0.43213E+08
 
   -0.42679E+08         0.52536E+05         0.00000E+00
    0.52536E+05        -0.97600E+08         0.00000E+00
    0.00000E+00         0.00000E+00        -0.43030E+08
 
   -0.42503E+08         0.53021E+05         0.00000E+00
    0.53021E+05        -0.97600E+08         0.00000E+00
    0.00000E+00         0.00000E+00        -0.42845E+08
 
   -0.42326E+08         0.53464E+05         0.00000E+00
    0.53464E+05        -0.97600E+08         0.00000E+00
    0.00000E+00         0.00000E+00        -0.42656E+08
 
   -0.42147E+08         0.53862E+05         0.00000E+00
    0.53862E+05        -0.97600E+08         0.00000E+00
    0.00000E+00         0.00000E+00        -0.42465E+08
 
   -0.41967E+08         0.54209E+05         0.00000E+00
    0.54209E+05        -0.97600E+08         0.00000E+00
    0.00000E+00         0.00000E+00        -0.42270E+08
 
   -0.41786E+08         0.54496E+05         0.00000E+00
    0.54496E+05        -0.97600E+08         0.00000E+00
    0.00000E+00         0.00000E+00        -0.42072E+08
 
   -0.41604E+08         0.54717E+05         0.00000E+00
    0.54717E+05        -0.97600E+08         0.00000E+00
    0.00000E+00         0.00000E+00        -0.41872E+08
 
   -0.41421E+08         0.54862E+05         0.00000E+00
    0.54862E+05        -0.97600E+08         0.00000E+00
    0.00000E+00         0.00000E+00        -0.41669E+08
 
   -0.41238E+08         0.54922E+05         0.00000E+00
    0.54922E+05        -0.97600E+08         0.00000E+00
    0.00000E+00         0.00000E+00        -0.41463E+08
 
   -0.41055E+08         0.54884E+05         0.00000E+00
    0.54884E+05        -0.97600E+08         0.00000E+00
    0.00000E+00         0.00000E+00        -0.41254E+08
 
   -0.40872E+08         0.54734E+05         0.00000E+00
    0.54734E+05        -0.97600E+08         0.00000E+00
    0.00000E+00         0.00000E+00        -0.41043E+08
 
   -0.40690E+08         0.54456E+05         0.00000E+00
    0.54456E+05        -0.97600E+08         0.00000E+00
    0.00000E+00         0.00000E+00        -0.40828E+08
 
   -0.40509E+08         0.54032E+05         0.00000E+00
    0.54032E+05        -0.97600E+08         0.00000E+00
    0.00000E+00         0.00000E+00        -0.40611E+08
 
   -0.40330E+08         0.53440E+05         0.00000E+00
    0.53440E+05        -0.97600E+08         0.00000E+00
    0.00000E+00         0.00000E+00        -0.40392E+08
 
   -0.40153E+08         0.52656E+05         0.00000E+00
    0.52656E+05        -0.97600E+08         0.00000E+00
    0.00000E+00         0.00000E+00        -0.40170E+08
 
   -0.39979E+08         0.51650E+05         0.00000E+00
    0.51650E+05        -0.97600E+08         0.00000E+00
    0.00000E+00         0.00000E+00        -0.39946E+08
 
   -0.39809E+08         0.50389E+05         0.00000E+00
    0.50389E+05        -0.97600E+08         0.00000E+00
    0.00000E+00         0.00000E+00        -0.39719E+08
 
   -0.39644E+08         0.48835E+05         0.00000E+00
    0.48835E+05        -0.97600E+08         0.00000E+00
    0.00000E+00         0.00000E+00        -0.39491E+08
 
   -0.39484E+08         0.46946E+05         0.00000E+00
    0.46946E+05        -0.97600E+08         0.00000E+00
    0.00000E+00         0.00000E+00        -0.39260E+08
 
   -0.39331E+08         0.44673E+05         0.00000E+00
    0.44673E+05        -0.97600E+08         0.00000E+00
    0.00000E+00         0.00000E+00        -0.39027E+08
 
   -0.39186E+08         0.41965E+05         0.00000E+00
    0.41965E+05        -0.97600E+08         0.00000E+00
    0.00000E+00         0.00000E+00        -0.38792E+08
 
   -0.39050E+08         0.38765E+05         0.00000E+00
    0.38765E+05        -0.97601E+08         0.00000E+00
    0.00000E+00         0.00000E+00        -0.38555E+08
 
   -0.38926E+08         0.35015E+05         0.00000E+00
    0.35015E+05        -0.97601E+08         0.00000E+00
    0.00000E+00         0.00000E+00        -0.38317E+08
 
   -0.38815E+08         0.30658E+05         0.00000E+00
    0.30658E+05        -0.97601E+08         0.00000E+00
    0.00000E+00         0.00000E+00        -0.38077E+08
 
   -0.38718E+08         0.25640E+05         0.00000E+00
    0.25640E+05        -0.97601E+08         0.00000E+00
    0.00000E+00         0.00000E+00        -0.37835E+08
 
   -0.38639E+08         0.19918E+05         0.00000E+00
    0.19918E+05        -0.97601E+08         0.00000E+00
    0.00000E+00         0.00000E+00        -0.37593E+08
 
   -0.38579E+08         0.13465E+05         0.00000E+00
    0.13465E+05        -0.97601E+08         0.00000E+00
    0.00000E+00         0.00000E+00        -0.37349E+08
 
   -0.38541E+08         0.62759E+04         0.00000E+00
    0.62759E+04        -0.97601E+08         0.00000E+00
    0.00000E+00         0.00000E+00        -0.37104E+08
 
   -0.38526E+08        -0.16222E+04         0.00000E+00
   -0.16222E+04        -0.97601E+08         0.00000E+00
    0.00000E+00         0.00000E+00        -0.36858E+08
 
   -0.38536E+08        -0.10163E+05         0.00000E+00
   -0.10163E+05        -0.97602E+08         0.00000E+00
    0.00000E+00         0.00000E+00        -0.36611E+08
 
   -0.38573E+08        -0.19254E+05         0.00000E+00
   -0.19254E+05        -0.97602E+08         0.00000E+00
    0.00000E+00         0.00000E+00        -0.36364E+08
 
   -0.38638E+08        -0.28724E+05         0.00000E+00
   -0.28724E+05        -0.97602E+08         0.00000E+00
    0.00000E+00         0.00000E+00        -0.36116E+08
 
   -0.38729E+08        -0.38553E+05         0.00000E+00
   -0.38553E+05        -0.97602E+08         0.00000E+00
    0.00000E+00         0.00000E+00        -0.35868E+08
 
   -0.38845E+08        -0.47812E+05         0.00000E+00
   -0.47812E+05        -0.97601E+08         0.00000E+00
    0.00000E+00         0.00000E+00        -0.35620E+08
 
   -0.38979E+08        -0.60252E+05         0.00000E+00
   -0.60252E+05        -0.97605E+08         0.00000E+00
    0.00000E+00         0.00000E+00        -0.35371E+08
 
   -0.39082E+08        -0.47012E+05         0.00000E+00
   -0.47012E+05        -0.97592E+08         0.00000E+00
    0.00000E+00         0.00000E+00        -0.35124E+08
 
   -0.48735E+08        -0.10874E+05         0.00000E+00
   -0.10874E+05        -0.97599E+08         0.00000E+00
    0.00000E+00         0.00000E+00        -0.49965E+08
 
   -0.48779E+08        -0.72601E+04         0.00000E+00
   -0.72601E+04        -0.97600E+08         0.00000E+00
    0.00000E+00         0.00000E+00        -0.49897E+08
 
   -0.48823E+08        -0.52204E+04         0.00000E+00
   -0.52204E+04        -0.97600E+08         0.00000E+00
    0.00000E+00         0.00000E+00        -0.49828E+08
 
   -0.48856E+08        -0.38528E+04         0.00000E+00
   -0.38528E+04        -0.97600E+08         0.00000E+00
    0.00000E+00         0.00000E+00        -0.49759E+08
 
   -0.48880E+08        -0.25846E+04         0.00000E+00
   -0.25846E+04        -0.97600E+08         0.00000E+00
    0.00000E+00         0.00000E+00        -0.49691E+08
 
   -0.48893E+08        -0.14265E+04         0.00000E+00
   -0.14265E+04        -0.97600E+08         0.00000E+00
    0.00000E+00         0.00000E+00        -0.49622E+08
 
   -0.48898E+08        -0.34840E+03         0.00000E+00
   -0.34840E+03        -0.97600E+08         0.00000E+00
    0.00000E+00         0.00000E+00        -0.49553E+08
 
   -0.48893E+08         0.65121E+03         0.00000E+00
    0.65121E+03        -0.97600E+08         0.00000E+00
    0.00000E+00         0.00000E+00        -0.49484E+08
 
   -0.48879E+08         0.15713E+04         0.00000E+00
    0.15713E+04        -0.97600E+08         0.00000E+00
    0.00000E+00         0.00000E+00        -0.49414E+08
 
   -0.48857E+08         0.24117E+04         0.00000E+00
    0.24117E+04        -0.97600E+08         0.00000E+00
    0.00000E+00         0.00000E+00        -0.49345E+08
 
   -0.48828E+08         0.31737E+04         0.00000E+00
    0.31737E+04        -0.97600E+08         0.00000E+00
    0.00000E+00         0.00000E+00        -0.49274E+08
 
   -0.48792E+08         0.38609E+04         0.00000E+00
    0.38609E+04        -0.97600E+08         0.00000E+00
    0.00000E+00         0.00000E+00        -0.49203E+08
 
   -0.48750E+08         0.44784E+04         0.00000E+00
    0.44784E+04        -0.97600E+08         0.00000E+00
    0.00000E+00         0.00000E+00        -0.49132E+08
 
   -0.48702E+08         0.50325E+04         0.00000E+00
    0.50325E+04        -0.97600E+08         0.00000E+00
    0.00000E+00         0.00000E+00        -0.49059E+08
 
   -0.48649E+08         0.55299E+04         0.00000E+00
    0.55299E+04        -0.97600E+08         0.00000E+00
    0.00000E+00         0.00000E+00        -0.48986E+08
 
   -0.48592E+08         0.59775E+04         0.00000E+00
    0.59775E+04        -0.97600E+08         0.00000E+00
    0.00000E+00         0.00000E+00        -0.48912E+08
 
   -0.48530E+08         0.63820E+04         0.00000E+00
    0.63820E+04        -0.97600E+08         0.00000E+00
    0.00000E+00         0.00000E+00        -0.48838E+08
 
   -0.48465E+08         0.67496E+04         0.00000E+00
    0.67496E+04        -0.97600E+08         0.00000E+00
    0.00000E+00         0.00000E+00        -0.48762E+08
 
   -0.48396E+08         0.70861E+04         0.00000E+00
    0.70861E+04        -0.97600E+08         0.00000E+00
    0.00000E+00         0.00000E+00        -0.48685E+08
 
   -0.48324E+08         0.73964E+04         0.00000E+00
    0.73964E+04        -0.97600E+08         0.00000E+00
    0.00000E+00         0.00000E+00        -0.48607E+08
 
   -0.48249E+08         0.76851E+04         0.00000E+00
    0.76851E+04        -0.97600E+08         0.00000E+00
    0.00000E+00         0.00000E+00        -0.48528E+08
 
   -0.48171E+08         0.79560E+04         0.00000E+00
    0.79560E+04        -0.97600E+08         0.00000E+00
    0.00000E+00         0.00000E+00        -0.48448E+08
 
   -0.48091E+08         0.82125E+04         0.00000E+00
    0.82125E+04        -0.97600E+08         0.00000E+00
    0.00000E+00         0.00000E+00        -0.48366E+08
 
   -0.48008E+08         0.84575E+04         0.00000E+00
    0.84575E+04        -0.97600E+08         0.00000E+00
    0.00000E+00         0.00000E+00        -0.48283E+08
 
   -0.47922E+08         0.86933E+04         0.00000E+00
    0.86933E+04        -0.97600E+08         0.00000E+00
    0.00000E+00         0.00000E+00        -0.48199E+08
 
   -0.47835E+08         0.89219E+04         0.00000E+00
    0.89219E+04        -0.97600E+08         0.00000E+00
    0.00000E+00         0.00000E+00        -0.48113E+08
 
   -0.47745E+08         0.91452E+04         0.00000E+00
    0.91452E+04        -0.97600E+08         0.00000E+00
    0.00000E+00         0.00000E+00        -0.48025E+08
 
   -0.47653E+08         0.93644E+04         0.00000E+00
    0.93644E+04        -0.97600E+08         0.00000E+00
    0.00000E+00         0.00000E+00        -0.47936E+08
 
   -0.47558E+08         0.95809E+04         0.00000E+00
    0.95809E+04        -0.97600E+08         0.00000E+00
    0.00000E+00         0.00000E+00        -0.47846E+08
 
   -0.47462E+08         0.97956E+04         0.00000E+00
    0.97956E+04        -0.97600E+08         0.00000E+00
    0.00000E+00         0.00000E+00        -0.47753E+08
 
   -0.47363E+08         0.10009E+05         0.00000E+00
    0.10009E+05        -0.97600E+08         0.00000E+00
    0.00000E+00         0.00000E+00        -0.47659E+08
 
   -0.47262E+08         0.10223E+05         0.00000E+00
    0.10223E+05        -0.97600E+08         0.00000E+00
    0.00000E+00         0.00000E+00        -0.47563E+08
 
   -0.47159E+08         0.10436E+05         0.00000E+00
    0.10436E+05        -0.97600E+08         0.00000E+00
    0.00000E+00         0.00000E+00        -0.47465E+08
 
   -0.47054E+08         0.10651E+05         0.00000E+00
    0.10651E+05        -0.97600E+08         0.00000E+00
    0.00000E+00         0.00000E+00        -0.47365E+08
 
   -0.46947E+08         0.10866E+05         0.00000E+00
    0.10866E+05        -0.97600E+08         0.00000E+00
    0.00000E+00         0.00000E+00        -0.47263E+08
 
   -0.46837E+08         0.11083E+05         0.00000E+00
    0.11083E+05        -0.97600E+08         0.00000E+00
    0.00000E+00         0.00000E+00        -0.47159E+08
 
   -0.46726E+08         0.11301E+05         0.00000E+00
    0.11301E+05        -0.97600E+08         0.00000E+00
    0.00000E+00         0.00000E+00        -0.47053E+08
 
   -0.46612E+08         0.11521E+05         0.00000E+00
    0.11521E+05        -0.97600E+08         0.00000E+00
    0.00000E+00         0.00000E+00        -0.46945E+08
 
   -0.46496E+08         0.11742E+05         0.00000E+00
    0.11742E+05        -0.97600E+08         0.00000E+00
    0.00000E+00         0.00000E+00        -0.46834E+08
 
   -0.46377E+08         0.11966E+05         0.00000E+00
    0.11966E+05        -0.97600E+08         0.00000E+00
    0.00000E+00         0.00000E+00        -0.46721E+08
 
   -0.46257E+08         0.12191E+05         0.00000E+00
    0.12191E+05        -0.97600E+08         0.00000E+00
    0.00000E+00         0.00000E+00        -0.46606E+08
 
   -0.46134E+08         0.12418E+05         0.00000E+00
    0.12418E+05        -0.97600E+08         0.00000E+00
    0.00000E+00         0.00000E+00        -0.46488E+08
 
   -0.46009E+08         0.12647E+05         0.00000E+00
    0.12647E+05        -0.97600E+08         0.00000E+00
    0.00000E+00         0.00000E+00        -0.46368E+08
 
   -0.45882E+08         0.12877E+05         0.00000E+00
    0.12877E+05        -0.97600E+08         0.00000E+00
    0.00000E+00         0.00000E+00        -0.46246E+08
 
   -0.45752E+08         0.13109E+05         0.00000E+00
    0.13109E+05        -0.97600E+08         0.00000E+00
    0.00000E+00         0.00000E+00        -0.46121E+08
 
   -0.45620E+08         0.13342E+05         0.00000E+00
    0.13342E+05        -0.97600E+08         0.00000E+00
    0.00000E+00         0.00000E+00        -0.45993E+08
 
   -0.45485E+08         0.13576E+05         0.00000E+00
    0.13576E+05        -0.97600E+08         0.00000E+00
    0.00000E+00         0.00000E+00        -0.45863E+08
 
   -0.45349E+08         0.13811E+05         0.00000E+00
    0.13811E+05        -0.97600E+08         0.00000E+00
    0.00000E+00         0.00000E+00        -0.45730E+08
 
   -0.45210E+08         0.14047E+05         0.00000E+00
    0.14047E+05        -0.97600E+08         0.00000E+00
    0.00000E+00         0.00000E+00        -0.45594E+08
 
   -0.45068E+08         0.14283E+05         0.00000E+00
    0.14283E+05        -0.97600E+08         0.00000E+00
    0.00000E+00         0.00000E+00        -0.45456E+08
 
   -0.44924E+08         0.14519E+05         0.00000E+00
    0.14519E+05        -0.97600E+08         0.00000E+00
    0.00000E+00         0.00000E+00        -0.45314E+08
 
   -0.44778E+08         0.14754E+05         0.00000E+00
    0.14754E+05        -0.97600E+08         0.00000E+00
    0.00000E+00         0.00000E+00        -0.45170E+08
 
   -0.44630E+08         0.14988E+05         0.00000E+00
    0.14988E+05        -0.97600E+08         0.00000E+00
    0.00000E+00         0.00000E+00        -0.45024E+08
 
   -0.44479E+08         0.15222E+05         0.00000E+00
    0.15222E+05        -0.97600E+08         0.00000E+00
    0.00000E+00         0.00000E+00        -0.44874E+08
 
   -0.44325E+08         0.15453E+05         0.00000E+00
    0.15453E+05        -0.97600E+08         0.00000E+00
    0.00000E+00         0.00000E+00        -0.44721E+08
 
   -0.44170E+08         0.15682E+05         0.00000E+00
    0.15682E+05        -0.97600E+08         0.00000E+00
    0.00000E+00         0.00000E+00        -0.44565E+08
 
   -0.44012E+08         0.15908E+05         0.00000E+00
    0.15908E+05        -0.97600E+08         0.00000E+00
    0.00000E+00         0.00000E+00        -0.44407E+08
 
   -0.43852E+08         0.16130E+05         0.00000E+00
    0.16130E+05        -0.97600E+08         0.00000E+00
    0.00000E+00         0.00000E+00        -0.44245E+08
 
   -0.43690E+08         0.16348E+05         0.00000E+00
    0.16348E+05        -0.97600E+08         0.00000E+00
    0.00000E+00         0.00000E+00        -0.44081E+08
 
   -0.43525E+08         0.16561E+05         0.00000E+00
    0.16561E+05        -0.97600E+08         0.00000E+00
    0.00000E+00         0.00000E+00        -0.43913E+08
 
   -0.43359E+08         0.16768E+05         0.00000E+00
    0.16768E+05        -0.97600E+08         0.00000E+00
    0.00000E+00         0.00000E+00        -0.43743E+08
 
   -0.43190E+08         0.16968E+05         0.00000E+00
    0.16968E+05        -0.97600E+08         0.00000E+00
    0.00000E+00         0.00000E+00        -0.43569E+08
 
   -0.43019E+08         0.17161E+05         0.00000E+00
    0.17161E+05        -0.97600E+08         0.00000E+00
    0.00000E+00         0.00000E+00        -0.43393E+08
 
   -0.42847E+08         0.17344E+05         0.00000E+00
    0.17344E+05        -0.97600E+08         0.00000E+00
    0.00000E+00         0.00000E+00        -0.43213E+08
 
   -0.42673E+08         0.17516E+05         0.00000E+00
    0.17516E+05        -0.97600E+08         0.00000E+00
    0.00000E+00         0.00000E+00        -0.43030E+08
 
   -0.42497E+08         0.17677E+05         0.00000E+00
    0.17677E+05        -0.97600E+08         0.00000E+00
    0.00000E+00         0.00000E+00        -0.42845E+08
 
   -0.42319E+08         0.17825E+05         0.00000E+00
    0.17825E+05        -0.97600E+08         0.00000E+00
    0.00000E+00         0.00000E+00        -0.42656E+08
 
   -0.42140E+08         0.17957E+05         0.00000E+00
    0.17957E+05        -0.97600E+08         0.00000E+00
    0.00000E+00         0.00000E+00        -0.42465E+08
 
   -0.41960E+08         0.18072E+05         0.00000E+00
    0.18072E+05        -0.97600E+08         0.00000E+00
    0.00000E+00         0.00000E+00        -0.42270E+08
 
   -0.41779E+08         0.18168E+05         0.00000E+00
    0.18168E+05        -0.97600E+08         0.00000E+00
    0.00000E+00         0.00000E+00        -0.42072E+08
 
   -0.41597E+08         0.18242E+05         0.00000E+00
    0.18242E+05        -0.97600E+08         0.00000E+00
    0.00000E+00         0.00000E+00        -0.41872E+08
 
   -0.41414E+08         0.18291E+05         0.00000E+00
    0.18291E+05        -0.97600E+08         0.00000E+00
    0.00000E+00         0.00000E+00        -0.41669E+08
 
   -0.41231E+08         0.18311E+05         0.00000E+00
    0.18311E+05        -0.97600E+08         0.00000E+00
    0.00000E+00         0.00000E+00        -0.41463E+08
 
   -0.41048E+08         0.18299E+05         0.00000E+00
    0.18299E+05        -0.97600E+08         0.00000E+00
    0.00000E+00         0.00000E+00        -0.41254E+08
 
   -0.40866E+08         0.18249E+05         0.00000E+00
    0.18249E+05        -0.97600E+08         0.00000E+00
    0.00000E+00         0.00000E+00        -0.41043E+08
 
   -0.40684E+08         0.18157E+05         0.00000E+00
    0.18157E+05        -0.97600E+08         0.00000E+00
    0.00000E+00         0.00000E+00        -0.40828E+08
 
   -0.40503E+08         0.18015E+05         0.00000E+00
    0.18015E+05        -0.97600E+08         0.00000E+00
    0.00000E+00         0.00000E+00        -0.40611E+08
 
   -0.40324E+08         0.17817E+05         0.00000E+00
    0.17817E+05        -0.97600E+08         0.00000E+00
    0.00000E+00         0.00000E+00        -0.40392E+08
 
   -0.40147E+08         0.17554E+05         0.00000E+00
    0.17554E+05        -0.97600E+08         0.00000E+00
    0.00000E+00         0.00000E+00        -0.40170E+08
 
   -0.39973E+08         0.17215E+05         0.00000E+00
    0.17215E+05        -0.97600E+08         0.00000E+00
    0.00000E+00         0.00000E+00        -0.39946E+08
 
   -0.39803E+08         0.16790E+05         0.00000E+00
    0.16790E+05        -0.97600E+08         0.00000E+00
    0.00000E+00         0.00000E+00        -0.39719E+08
 
   -0.39637E+08         0.16263E+05         0.00000E+00
    0.16263E+05        -0.97600E+08         0.00000E+00
    0.00000E+00         0.00000E+00        -0.39491E+08
 
   -0.39478E+08         0.15620E+05         0.00000E+00
    0.15620E+05        -0.97600E+08         0.00000E+00
    0.00000E+00         0.00000E+00        -0.39260E+08
 
   -0.39325E+08         0.14843E+05         0.00000E+00
    0.14843E+05        -0.97600E+08         0.00000E+00
    0.00000E+00         0.00000E+00        -0.39027E+08
 
   -0.39180E+08         0.13914E+05         0.00000E+00
    0.13914E+05        -0.97600E+08         0.00000E+00
    0.00000E+00         0.00000E+00        -0.38792E+08
 
   -0.39045E+08         0.12809E+05         0.00000E+00
    0.12809E+05        -0.97600E+08         0.00000E+00
    0.00000E+00         0.00000E+00        -0.38555E+08
 
   -0.38922E+08         0.11508E+05         0.00000E+00
    0.11508E+05        -0.97600E+08         0.00000E+00
    0.00000E+00         0.00000E+00        -0.38317E+08
 
   -0.38812E+08         0.99875E+04         0.00000E+00
    0.99875E+04        -0.97600E+08         0.00000E+00
    0.00000E+00         0.00000E+00        -0.38077E+08
 
   -0.38717E+08         0.82248E+04         0.00000E+00
    0.82248E+04        -0.97600E+08         0.00000E+00
    0.00000E+00         0.00000E+00        -0.37835E+08
 
   -0.38641E+08         0.62005E+04         0.00000E+00
    0.62005E+04        -0.97600E+08         0.00000E+00
    0.00000E+00         0.00000E+00        -0.37593E+08
 
   -0.38584E+08         0.38992E+04         0.00000E+00
    0.38992E+04        -0.97600E+08         0.00000E+00
    0.00000E+00         0.00000E+00        -0.37349E+08
 
   -0.38549E+08         0.13118E+04         0.00000E+00
    0.13118E+04        -0.97600E+08         0.00000E+00
    0.00000E+00         0.00000E+00        -0.37104E+08
 
   -0.38539E+08        -0.15621E+04         0.00000E+00
   -0.15621E+04        -0.97600E+08         0.00000E+00
    0.00000E+00         0.00000E+00        -0.36858E+08
 
   -0.38556E+08        -0.47167E+04         0.00000E+00
   -0.47167E+04        -0.97600E+08         0.00000E+00
    0.00000E+00         0.00000E+00        -0.36611E+08
 
   -0.38602E+08        -0.81422E+04         0.00000E+00
   -0.81422E+04        -0.97600E+08         0.00000E+00
    0.00000E+00         0.00000E+00        -0.36364E+08
 
   -0.38677E+08        -0.11837E+05         0.00000E+00
   -0.11837E+05        -0.97600E+08         0.00000E+00
    0.00000E+00         0.00000E+00        -0.36116E+08
 
   -0.38784E+08        -0.15898E+05         0.00000E+00
   -0.15898E+05        -0.97600E+08         0.00000E+00
    0.00000E+00         0.00000E+00        -0.35868E+08
 
   -0.38920E+08        -0.20278E+05         0.00000E+00
   -0.20278E+05        -0.97601E+08         0.00000E+00
    0.00000E+00         0.00000E+00        -0.35620E+08
 
   -0.39086E+08        -0.27003E+05         0.00000E+00
   -0.27003E+05        -0.97600E+08         0.00000E+00
    0.00000E+00         0.00000E+00        -0.35371E+08
 
   -0.39251E+08        -0.39254E+05         0.00000E+00
   -0.39254E+05        -0.97604E+08         0.00000E+00
    0.00000E+00         0.00000E+00        -0.35124E+08
 
SCALARS stresss double 
LOOKUP_TABLE default
  -65790986.3961675     
  -65734268.1992919     
  -65680607.9434377     
  -65629579.6226877     
  -65580984.0984898     
  -65534316.3468906     
  -65489117.9031157     
  -65444929.0936811     
  -65401342.9862925     
  -65358007.0857216     
  -65314628.3890781     
  -65270968.7331003     
  -65226838.5695896     
  -65182089.2557808     
  -65136605.5438905     
  -65090298.6699688     
  -65043100.3604312     
  -64994957.7975275     
  -64945829.5072092     
  -64895682.0733332     
  -64844487.5661415     
  -64792221.5703608     
  -64738861.7060404     
  -64684386.5467779     
  -64628774.8531212     
  -64572005.0519244     
  -64514054.9045427     
  -64454901.3175485     
  -64394520.2590081     
  -64332886.7512804     
  -64269974.9178724     
  -64205758.0672618     
  -64140208.8009073     
  -64073299.1360957     
  -64005000.6369387     
  -63935284.5488917     
  -63864121.9337346     
  -63791483.8031086     
  -63717341.2495715     
  -63641665.5747413     
  -63564428.4145409     
  -63485601.8618497     
  -63405158.5870713     
  -63323071.9572479     
  -63239316.1544353     
  -63153866.2940965     
  -63066698.5442934     
  -62977790.2464752     
  -62887120.0386746     
  -62794667.9819327     
  -62700415.6907994     
  -62604346.4687893     
  -62506445.4497017     
  -62406699.7457820     
  -62305098.6037575     
  -62201633.5698590     
  -62096298.6650235     
  -61989090.5715603     
  -61880008.8326472     
  -61769056.0660864     
  -61656238.1937935     
  -61541564.6884723     
  -61425048.8388190     
  -61306708.0343770     
  -61186564.0707423     
  -61064643.4751381     
  -60940977.8513397     
  -60815604.2414081     
  -60688565.4995068     
  -60559910.6700567     
  -60429695.3583544     
  -60297982.0762475     
  -60164840.5381689     
  -60030347.8733417     
  -59894588.7078179     
  -59757655.0546443     
  -59619645.9313115     
  -59480666.6001781     
  -59340827.2992370     
  -59200241.2970695     
  -59059022.0670725     
  -58917279.3324650     
  -58775113.6866251     
  -58632609.4456325     
  -58489825.3475812     
  -58346782.6839337     
  -58203450.4554976     
  -58059727.1999047     
  -57915419.3471019     
  -57770216.2311090     
  -57623662.8746704     
  -57475131.9333583     
  -57323800.8038349     
  -57168634.0492091     
  -57008400.4220492     
  -56841676.7615497     
  -56667040.1023507     
  -56482888.8474831     
  -56288712.8125635     
  -56083143.2970193     
  -65783790.9834324     
  -65729725.3785798     
  -65676724.2682360     
  -65626292.5643915     
  -65578035.2432519     
  -65531629.0008057     
  -65486620.6322232     
  -65442585.2065790     
  -65399126.6019337     
  -65355902.1095429     
  -65312623.2730114     
  -65269054.7064465     
  -65225008.1072913     
  -65180335.3757706     
  -65134921.4084126     
  -65088677.4414103     
  -65041535.1792845     
  -64993441.8307291     
  -64944356.0242349     
  -64894244.5283953     
  -64843079.6734247     
  -64790837.3662932     
  -64737495.5963814     
  -64683033.3387092     
  -64627429.7737749     
  -64570663.7553906     
  -64512713.4695775     
  -64453556.2381368     
  -64393168.4297347     
  -64331525.4491971     
  -64268601.7822672     
  -64204371.0784604     
  -64138806.2589937     
  -64071879.6402181     
  -64003563.0656879     
  -63933828.0420921     
  -63862645.8758665     
  -63789987.8084951     
  -63715825.1493910     
  -63640129.4058826     
  -63562872.4102815     
  -63484026.4443217     
  -63403564.3614670     
  -63321459.7077162     
  -63237686.8416260     
  -63152221.0543153     
  -63065038.6902459     
  -62976117.2695937     
  -62885435.6130375     
  -62792973.9698090     
  -62698714.1498705     
  -62602639.6611220     
  -62504735.8525755     
  -62404990.0644917     
  -62303391.7865437     
  -62199932.8251410     
  -62094607.4811366     
  -61987412.7392232     
  -61878348.4704035     
  -61767417.6489869     
  -61654626.5855884     
  -61539985.1775864     
  -61423507.1783675     
  -61305210.4864428     
  -61185117.4550769     
  -61063255.2223497     
  -60939656.0604978     
  -60814357.7417934     
  -60687403.9159771     
  -60558844.4911529     
  -60428736.0058332     
  -60297141.9741786     
  -60164133.1790669     
  -60029787.8780192     
  -59894191.8747423     
  -59757438.3935939     
  -59619627.6751146     
  -59480866.1873664     
  -59341265.3197319     
  -59200939.3928118     
  -59060002.7801812     
  -58918565.8957429     
  -58776729.7558015     
  -58634578.7814586     
  -58492171.4696216     
  -58349528.5434385     
  -58206618.2057263     
  -58063338.2179772     
  -57919494.6939605     
  -57774778.0276275     
  -57628736.7696762     
  -57480752.5629154     
  -57330018.0879757     
  -57175532.0480624     
  -57016100.8593482     
  -56850425.6172945     
  -56677100.4084676     
  -56495180.6217010     
  -56303443.0030606     
  -56107522.6517436     
  -65777107.0319563     
  -65724918.5969032     
  -65672794.8630714     
  -65622892.1433568     
  -65575013.5388198     
  -65528876.3269114     
  -65484076.8157060     
  -65440207.9617825     
  -65396889.2385384     
  -65353785.8065171     
  -65310614.4880079     
  -65267142.7155435     
  -65223183.7966582     
  -65178590.4460423     
  -65133247.9842352     
  -65087067.8818755     
  -65039982.0220707     
  -64991937.8030596     
  -64942894.0867858     
  -64892817.9290827     
  -64841681.9988991     
  -64789462.5846195     
  -64736138.0883382     
  -64681687.9173555     
  -64626091.6932198     
  -64569328.7103274     
  -64511377.5873744     
  -64452216.0652663     
  -64391820.9141784     
  -64330167.9202498     
  -64267231.9289303     
  -64202986.9273843     
  -64137406.1527139     
  -64070462.2162471     
  -64002127.2368657     
  -63932372.9784724     
  -63861170.9883112     
  -63788492.7340735     
  -63714309.7386223     
  -63638593.7118186     
  -63561316.6793998     
  -63482451.1091842     
  -63401970.0350907     
  -63319847.1796052     
  -63236057.0754168     
  -63150575.1870002     
  -63063378.0329502     
  -62974443.3098983     
  -62883750.0188587     
  -62791278.5948635     
  -62697011.0407780     
  -62600931.0662178     
  -62503024.2325294     
  -62403278.1048565     
  -62301682.4123776     
  -62198229.2178769     
  -62092913.0978955     
  -61985731.3347913     
  -61876684.1221185     
  -61765774.7847915     
  -61653010.0155258     
  -61538400.1290112     
  -61421959.3351387     
  -61303706.0323375     
  -61183663.1216113     
  -61061858.3411150     
  -60938324.6199988     
  -60813100.4486070     
  -60686230.2598220     
  -60557764.8131616     
  -60427761.5689307     
  -60296285.0340002     
  -60163407.0532633     
  -60029207.0111183     
  -59893771.8949610     
  -59757196.1571575     
  -59619581.2927906     
  -59481035.0271617     
  -59341669.9791887     
  -59201601.6343164     
  -59060945.4235697     
  -58919812.6647779     
  -58778305.0798019     
  -58636507.5614100     
  -58494478.8324535     
  -58352239.6285942     
  -58209758.0675796     
  -58066931.9665437     
  -57923568.1156794     
  -57779358.9283054     
  -57633857.7779863     
  -57486455.4178547     
  -57336362.4497859     
  -57182604.7591253     
  -57024043.8105027     
  -56859443.8837525     
  -56687576.8017564     
  -56507643.1887798     
  -56319136.5782510     
  -56130055.7048627     
  -65770795.5423352     
  -65719991.8695609     
  -65668780.2567725     
  -65619404.1026884     
  -65571915.6534752     
  -65526063.3979371     
  -65481487.1445251     
  -65437798.7725102     
  -65394631.5409255     
  -65351658.7820397     
  -65308602.4735137     
  -65265233.1569651     
  -65221365.9945618     
  -65176854.8076104     
  -65131585.6001461     
  -65085470.3108890     
  -65038441.1980296     
  -64990446.0117951     
  -64941443.9780041     
  -64891402.5424385     
  -64840294.7919020     
  -64788097.4558390     
  -64734789.3929083     
  -64680350.4739761     
  -64624760.7831008     
  -64568000.0691756     
  -64510047.3917945     
  -64450880.9149916     
  -64390477.8114519     
  -64328814.2475187     
  -64265865.4258274     
  -64201605.6677801     
  -64136008.5224489     
  -64069046.8919935     
  -64000693.1664407     
  -63930919.3628132     
  -63859697.2652383     
  -63786998.5639027     
  -63712794.9916368     
  -63637058.4575825     
  -63559761.1778681     
  -63480875.8035569     
  -63400375.5463516     
  -63318234.3026913     
  -63234426.7769682     
  -63148928.6046525     
  -63061716.4761451     
  -62972768.2622040     
  -62882063.1418080     
  -62789581.7333388     
  -62695306.2299926     
  -62599220.5403633     
  -62501310.4351844     
  -62401563.7012740     
  -62299970.3037938     
  -62196522.5580100     
  -62091215.3118257     
  -61984046.1404414     
  -61875015.5545725     
  -61764127.2237108     
  -61651388.2159370     
  -61536809.2557431     
  -61420405.0011839     
  -61302194.3413952     
  -61182200.7150250     
  -61060452.4493572     
  -60936983.1187511     
  -60811831.9193443     
  -60685044.0546148     
  -60556671.1231562     
  -60426771.4956389     
  -60295410.6621224     
  -60162661.5232794     
  -60028604.5893025     
  -59893328.0378277     
  -59756927.5666544     
  -59619505.9578725     
  -59481172.2467979     
  -59342040.3615361     
  -59202227.0669524     
  -59061849.0106880     
  -58921018.6296512     
  -58779838.6353676     
  -58638394.7598289     
  -58496746.4173282     
  -58354914.9346374     
  -58212869.0430557     
  -58070507.4449134     
  -57927638.5263758     
  -57783957.7550105     
  -57639024.1878861     
  -57492238.7181484     
  -57342829.4043410     
  -57189850.4104567     
  -57032211.7138051     
  -56868744.6104800     
  -56698377.0009654     
  -56520421.0052087     
  -56335272.5999459     
  -56151247.9500305     
  -65764763.6677674     
  -65715017.8688998     
  -65664677.6131340     
  -65615837.2969498     
  -65568744.9699737     
  -65523192.6467016     
  -65478853.3718702     
  -65435358.7631654     
  -65392354.3785230     
  -65349521.6765177     
  -65306587.7613898     
  -65263326.4841592     
  -65219555.1117099     
  -65175128.8415579     
  -65129934.6167095     
  -65083885.0714707     
  -65036913.0335580     
  -64988966.7661412     
  -64940005.9889196     
  -64889998.6402757     
  -64838918.3042101     
  -64786742.2111869     
  -64733449.7206210     
  -64679021.1985465     
  -64623437.2132611     
  -64566677.9822793     
  -64508723.0144711     
  -64449550.9011247     
  -64389139.2184917     
  -64327464.5120279     
  -64264502.3390200     
  -64200227.3516609     
  -64134613.4070231     
  -64067633.6938882     
  -63999260.8691726     
  -63929467.1988487     
  -63858224.6999239     
  -63785505.2812896     
  -63711280.8821859     
  -63635523.6077094     
  -63558205.8612737     
  -63479300.4742794     
  -63398780.8334773     
  -63316621.0066631     
  -63232795.8674423     
  -63147281.2198617     
  -63060053.9237442     
  -62971092.0215873     
  -62880374.8679058     
  -62787883.2619211     
  -62693599.5845264     
  -62597507.9404926     
  -62499594.3069235     
  -62399846.6890298     
  -62298255.2843550     
  -62194812.6566671     
  -62089513.9208118     
  -61982356.9399051     
  -61873342.5363206     
  -61762474.7179774     
  -61649760.9214524     
  -61535212.2733864     
  -61418843.8715049     
  -61300675.0862774     
  -61180729.8837349     
  -61059037.1691766     
  -60935631.1503029     
  -60810551.7166132     
  -60683844.8295060     
  -60555562.9142180     
  -60425765.2403132     
  -60294518.2715455     
  -60161895.9582521     
  -60027979.9355774     
  -59892859.5783370     
  -59756631.8477527     
  -59619400.8461496     
  -59481276.9726123     
  -59342375.5452763     
  -59202814.7243668     
  -59062712.5347625     
  -58922182.7489558     
  -58781329.3532563     
  -58640239.2864299     
  -58498973.1183964     
  -58357553.3404196     
  -58215949.9887229     
  -58074063.4583761     
  -57931704.6368172     
  -57788572.9993365     
  -57644234.1678673     
  -57498099.8784489     
  -57349415.5259062     
  -57197263.3892300     
  -57040596.5962064     
  -56878316.4978563     
  -56709469.9895623     
  -56533525.6191656     
  -56351588.8421367     
  -56171437.3806362     
  -65758946.1056407     
  -65710032.6684948     
  -65660496.1168314     
  -65612196.2797258     
  -65565505.8032903     
  -65520266.2762786     
  -65476177.3228913     
  -65432889.1449053     
  -65390058.6943319     
  -65347375.2174664     
  -65304570.9536142     
  -65261423.2139018     
  -65217751.6092978     
  -65173412.9697377     
  -65128295.4257824     
  -65082312.5302400     
  -65035397.8721840     
  -64987500.3872860     
  -64938580.4184802     
  -64888606.4992065     
  -64837552.7900532     
  -64785397.0826346     
  -64732119.2815254     
  -64677700.2797363     
  -64622121.1517116     
  -64565362.5978496     
  -64507404.5847692     
  -64448226.1351935     
  -64387805.2300165     
  -64326118.7927045     
  -64263142.7326269     
  -64198852.0292691     
  -64133220.8436703     
  -64066222.6469512     
  -63997830.3585846     
  -63928016.4892425     
  -63856753.2847294     
  -63784012.8687724     
  -63709767.3833870     
  -63633989.1262252     
  -63556650.6848101     
  -63477725.0679056     
  -63397185.8345104     
  -63315007.2211200     
  -63231164.2680039     
  -63145632.9453097     
  -63058390.2798419     
  -62969414.4833945     
  -62878685.0835337     
  -62786183.0577527     
  -62691890.9719486     
  -62595793.1242049     
  -62497875.6949130     
  -62398126.9043223     
  -62296537.1786791     
  -62193099.3261901     
  -62087808.7241314     
  -61980663.5185074     
  -61871664.8377366     
  -61760817.0218947     
  -61648127.8690555     
  -61533608.9002142     
  -61417275.6441212     
  -61299147.9430461     
  -61179250.2799755     
  -61057612.1269371     
  -60934268.3129333     
  -60809259.4082312     
  -60682632.1193241     
  -60554439.6855370     
  -60424742.2637721     
  -60293607.2819551     
  -60161109.7340186     
  -60027332.3793587     
  -59892365.7971692     
  -59756308.2304820     
  -59619265.1356406     
  -59481348.3299708     
  -59342674.6033531     
  -59203363.6282951     
  -59063534.9685384     
  -58923303.9495223     
  -58782776.1178741     
  -58642039.9862133     
  -58501157.7421395     
  -58360153.6099614     
  -58218999.6129676     
  -58077598.6301278     
  -57935764.9307659     
  -57793202.9032160     
  -57649485.5773062     
  -57504036.0555856     
  -57356117.0849603     
  -57204837.8334003     
  -57049191.3292110     
  -56888144.8715393     
  -56720840.3526015     
  -56546924.9531391     
  -56367955.7694043     
  -56190862.0138913     
  -65753294.8263405     
  -65705053.0555853     
  -65656247.2637629     
  -65608485.0246209     
  -65562202.0968558     
  -65517286.6226131     
  -65473460.7879741     
  -65430391.2276371     
  -65387745.5002109     
  -65345220.2146721     
  -65302552.7220566     
  -65259523.9244020     
  -65215955.9987606     
  -65171707.6542516     
  -65126668.4504045     
  -65080753.0773036     
  -65033896.0745475     
  -64986047.2083888     
  -64937167.5735525     
  -64887226.4006373     
  -64836198.5061029     
  -64784062.3028704     
  -64730798.2851623     
  -64676387.9048745     
  -64620812.7645915     
  -64564054.0619216     
  -64506092.2297416     
  -64446906.7263973     
  -64386475.9384830     
  -64324777.1663359     
  -64261786.6687841     
  -64197479.7490396     
  -64131830.8679999     
  -64064813.7747612     
  -63996401.6469363     
  -63926567.2355641     
  -63855283.0110815     
  -63782521.3081032     
  -63708254.4677090     
  -63632454.9766350     
  -63555095.6032686     
  -63476149.5306974     
  -63395590.4873056     
  -63313392.8755712     
  -63229531.8998220     
  -63143983.6937742     
  -63056725.4487192     
  -62967735.5432500     
  -62876993.6754447     
  -62784480.9984452     
  -62690180.2604007     
  -62594075.9497827     
  -62496154.4471222     
  -62396404.1842851     
  -62294815.8124665     
  -62191382.3801664     
  -62086099.5224903     
  -61978965.6632058     
  -61869982.2310564     
  -61759153.8918860     
  -61646488.7981376     
  -61531998.8572271     
  -61415700.0201347     
  -61297612.5912366     
  -61177761.5598768     
  -61056176.9533503     
  -60932894.2097440     
  -60807954.5673210     
  -60681405.4646763     
  -60553300.9425160     
  -60423702.0334015     
  -60292677.1198235     
  -60160302.2332127     
  -60026661.2565575     
  -59891845.9807590     
  -59755955.9492794     
  -59619098.0066094     
  -59481385.4432480     
  -59342936.6030902     
  -59203872.7884565     
  -59064315.2641398     
  -58924381.1262478     
  -58784177.7671381     
  -58643795.6393430     
  -58503299.0075702     
  -58362714.3926363     
  -58222016.4776529     
  -58081111.4019220     
  -57939817.6715814     
  -57797845.4594352     
  -57654775.9836615     
  -57510044.1652605     
  -57362930.0041669     
  -57212568.0182528     
  -57057988.3125838     
  -56898216.4111436     
  -56732474.7772600     
  -56560578.5234992     
  -56384313.7480477     
  -56209697.1650893     
  -65747773.1302339     
  -65700085.4187403     
  -65651941.3408248     
  -65604707.6629301     
  -65558837.3265804     
  -65514256.0909432     
  -65470705.5545454     
  -65427866.3934809     
  -65385415.8820434     
  -65343057.5541248     
  -65300533.8081177     
  -65257629.2537852     
  -65214168.8412648     
  -65170013.3970009     
  -65125054.1445768     
  -65079207.1261151     
  -65032408.0183205     
  -64984607.5745281     
  -64935767.7688833     
  -64885858.6307342     
  -64834855.7114362     
  -64782738.1052596     
  -64729486.9405223     
  -64675084.2599034     
  -64619512.2161197     
  -64562752.5183055     
  -64504786.0740794     
  -64445592.7815580     
  -64385151.4340404     
  -64323439.7075264     
  -64260434.2076043     
  -64196110.5575632     
  -64130443.5139634     
  -64063407.0994251     
  -63994974.7451971     
  -63925119.4382659     
  -63853813.8694525     
  -63781030.5802311     
  -63706742.1069591     
  -63630921.1219126     
  -63553540.5710306     
  -63474573.8086197     
  -63393994.7295263     
  -63311777.8994356     
  -63227898.6840713     
  -63142333.3781327     
  -63055059.3348496     
  -62966055.0970644     
  -62875300.5307742     
  -62782776.9620918     
  -62688467.3186116     
  -62592356.2762091     
  -62494430.4123447     
  -62394678.3670111     
  -62293091.0125260     
  -62189661.6334583     
  -62084386.1180552     
  -61977263.1626278     
  -61868294.4904195     
  -61757485.0865404     
  -61644843.4505491     
  -61530381.8682118     
  -61414116.7037945     
  -61296068.7139266     
  -61176263.3835413     
  -61054731.2835599     
  -60931508.4487496     
  -60806636.7724082     
  -60680164.4120509     
  -60552146.1968776     
  -60422644.0232648     
  -60291727.2185211     
  -60159472.8453722     
  -60025965.9096825     
  -59891299.4213878     
  -59755574.2430671     
  -59618898.6416231     
  -59481387.4358600     
  -59343160.6061995     
  -59204341.2025365     
  -59065052.3530343     
  -58925413.1420612     
  -58785533.0924759     
  -58645504.9612325     
  -58505395.5465291     
  -58365234.2237420     
  -58224998.9995024     
  -58084600.0356479     
  -57943860.9074356     
  -57802498.4126250     
  -57660102.6841284     
  -57516120.8628920     
  -57369849.9541609     
  -57220448.2404646     
  -57066979.7042823     
  -56908519.4977427     
  -56744359.3757574     
  -56574450.2099027     
  -56400640.8165901     
  -56228077.0170309     
  -65742352.0468233     
  -65695130.4430257     
  -65647586.4188373     
  -65600868.3643411     
  -65555414.6237774     
  -65511177.0688300     
  -65467913.4290586     
  -65425316.0819478     
  -65383070.9993018     
  -65340888.1949766     
  -65298515.0213168     
  -65255739.8990439     
  -65212390.7470116     
  -65168330.7392493     
  -65123452.9929673     
  -65077675.1132855     
  -65030934.0980761     
  -64983181.8426068     
  -64934381.3270243     
  -64884503.4803576     
  -64833524.6674757     
  -64781424.7237861     
  -64728185.4559858     
  -64673789.5293207     
  -64618219.6685384     
  -64561458.1085306     
  -64503486.2400582     
  -64444284.4050700     
  -64383831.8044813     
  -64322106.4886531     
  -64259085.4071357     
  -64194744.4995484     
  -64129058.8138209     
  -64062002.6415490     
  -63993549.6630206     
  -63923673.0966606     
  -63852345.8493410     
  -63779540.6652866     
  -63705230.2722693     
  -63629387.5244903     
  -63551985.5420592     
  -63472997.8473347     
  -63392398.4986417     
  -63310162.2220404     
  -63226264.5419340     
  -63140681.9113661     
  -63053391.8429053     
  -62964373.0410422     
  -62873605.5370492     
  -62781070.8272797     
  -62686752.0159121     
  -62590633.9631847     
  -62492703.4402174     
  -62392949.2915747     
  -62291362.6068006     
  -62187936.9022319     
  -62082668.3144866     
  -61975555.8071068     
  -61866601.3919105     
  -61755810.3666589     
  -61643191.5706507     
  -61528757.6597973     
  -61412525.4025594     
  -61294515.9978066     
  -61174755.4151208     
  -61053274.7572248     
  -60930110.6429677     
  -60805305.6075183     
  -60678908.5139216     
  -60550974.9667745     
  -60421567.7142178     
  -60290757.0184343     
  -60158620.9670602     
  -60025245.6879598     
  -59890725.4173001     
  -59755162.3553623     
  -59618666.2256529     
  -59481353.4303557     
  -59343345.6688594     
  -59204767.8562573     
  -59065745.1461046     
  -58926398.8280156     
  -58786840.8389705     
  -58647166.6028074     
  -58507445.9041387     
  -58367711.5253204     
  -58227945.4514173     
  -58088062.6155716     
  -57947892.4748081     
  -57807159.2640446     
  -57665462.7163015     
  -57522262.5447876     
  -57376872.4068649     
  -57228472.7378466     
  -57076157.7353933     
  -56919043.7674440     
  -56756480.1173886     
  -56588511.9095706     
  -56416935.6630377     
  -56246107.6902892     
  -65737008.0558585     
  -65690185.6556690     
  -65643188.3126114     
  -65596971.0749662     
  -65551936.8717265     
  -65508051.8798869     
  -65465086.2398951     
  -65422741.7844282     
  -65380712.0820443     
  -65338713.1677305     
  -65296497.2377136     
  -65253856.6150829     
  -65210622.3745093     
  -65166660.2611437     
  -65121865.5105675     
  -65076157.4983423     
  -65029474.7251100     
  -64981770.3812155     
  -64933008.5782195     
  -64883161.2449658     
  -64832205.6379023     
  -64780122.3929725     
  -64726894.0392500     
  -64672503.8961091     
  -64616935.2820459     
  -64560170.9717828     
  -64502192.8474799     
  -64442981.6988444     
  -64382517.1351923     
  -64320777.5798188     
  -64257740.3233204     
  -64193381.6177847     
  -64127676.7981074     
  -64060600.4202082     
  -63992126.4087180     
  -63922228.2088988     
  -63850878.9392529     
  -63778051.5425655     
  -63703718.9340841     
  -63627854.1462487     
  -63550430.4698931     
  -63471421.5921979     
  -63390801.7319247     
  -63308545.7726217     
  -63224629.3946016     
  -63139029.2065626     
  -63051722.8777628     
  -62962689.2716904     
  -62871908.5821993     
  -62779362.4731029     
  -62685034.2222493     
  -62588908.8711450     
  -62490973.3812397     
  -62391216.7980535     
  -62289630.4243920     
  -62186208.0039855     
  -62080945.9169704     
  -61973843.3887188     
  -61864902.7135985     
  -61754129.4952990     
  -61641532.9053633     
  -61527125.9615102     
  -61410925.8271589     
  -61292954.1332466     
  -61173237.3228905     
  -61051807.0186013     
  -60928700.4105094     
  -60803960.6622744     
  -60677637.3288532     
  -60549786.7769032     
  -60420472.5940306     
  -60289765.9670940     
  -60157746.0019980     
  -60024499.9474706     
  -59890123.2728442     
  -59754719.5344198     
  -59618399.9462181     
  -59481282.5485611     
  -59343490.8418636     
  -59205151.7235356     
  -59066392.5338270     
  -58927336.9835070     
  -58788099.7056545     
  -58648779.1509299     
  -58509448.5394357     
  -58370144.6071388     
  -58230853.9639325     
  -58091497.0506647     
  -57951910.0016155     
  -57811825.2769516     
  -57670852.8643625     
  -57528465.3586304     
  -57383992.6550616     
  -57236635.6783828     
  -57085514.8775606     
  -56929779.7607423     
  -56768823.7785710     
  -56602743.6840756     
  -56433208.3980730     
  -56263875.5160631     
  -65731721.5860302     
  -65685246.8366304     
  -65638750.8669167     
  -65593019.3157056     
  -65548406.7476433     
  -65504882.7677438     
  -65462225.8321622     
  -65420145.0421167     
  -65378340.4279071     
  -65336533.5727068     
  -65294481.3984971     
  -65251980.2137640     
  -65208864.4298485     
  -65165002.5811880     
  -65120292.2423033     
  -65074654.7634363     
  -65028030.3272142     
  -64980373.5704516     
  -64931649.8602581     
  -64881832.2244894     
  -64830898.8885458     
  -64778831.3477817     
  -64725612.8972387     
  -64671227.5416549     
  -64615659.2147218     
  -64558891.2448356     
  -64500906.0136091     
  -64441684.7622527     
  -64381207.5091009     
  -64319453.0488054     
  -64256399.0099518     
  -64192021.9531038     
  -64126297.4955992     
  -64059200.4529176     
  -63990704.9892331     
  -63920784.7719471     
  -63849413.1266830     
  -63776563.1905138     
  -63702208.0621480     
  -63626320.9485075     
  -63548875.3076383     
  -63469844.9882525     
  -63389204.3664496     
  -63306928.4803238     
  -63222993.1632769     
  -63137375.1769222     
  -63050052.3445093     
  -62961003.6858258     
  -62870209.5545657     
  -62777651.7791729     
  -62683313.8082012     
  -62587180.8612759     
  -62489240.0867929     
  -62389480.7275500     
  -62287894.2955852     
  -62184474.7575767     
  -62079218.7322487     
  -61972125.7013157     
  -61863198.2355760     
  -61752442.2378180     
  -61639867.2042160     
  -61525486.5058289     
  -61409317.6916537     
  -61291382.8143643     
  -61171708.7793233     
  -61050327.7166247     
  -60927277.3746690     
  -60802601.5319964     
  -60676350.4216092     
  -60548581.1586203     
  -60419358.1575123     
  -60288753.5193107     
  -60156847.3612107     
  -60023728.0513063     
  -59889492.2986374     
  -59754245.0334074     
  -59618098.9935712     
  -59481173.9117783     
  -59343595.1708377     
  -59205491.7667267     
  -59066993.3865548     
  -58928226.3766195     
  -58789308.3459505     
  -58650341.1289831     
  -58511401.8261767     
  -58372531.6678239     
  -58233722.5268197     
  -58094901.0769088     
  -57955910.9103280     
  -57816493.4813447     
  -57676269.6642514     
  -57534725.2139921     
  -57391205.8195269     
  -57244931.1787327     
  -57095043.9008637     
  -56940718.7701042     
  -56781378.6744803     
  -56617132.7243831     
  -56449475.4446162     
  -56281452.4869523     
  -65726475.9893180     
  -65680308.8125085     
  -65634276.3114403     
  -65589016.0719216     
  -65544826.7301270     
  -65501671.8941713     
  -65459334.0618516     
  -65417527.4447471     
  -65375957.3998709     
  -65334350.5786192     
  -65292468.5087653     
  -65250111.5629604     
  -65207117.6659713     
  -65163358.3556775     
  -65118733.7625983     
  -65073167.4129999     
  -65026601.3484051     
  -64978991.8016983     
  -64930305.5182887     
  -64880516.7231740     
  -64829604.6872491     
  -64777551.8234988     
  -64724342.2359974     
  -64669960.6456536     
  -64614391.6224431     
  -64557619.0619746     
  -64499625.8531053     
  -64440393.6920645     
  -64379903.0066213     
  -64318132.9610251     
  -64255061.5186315     
  -64190665.5443424     
  -64124920.9332812     
  -64057802.7556033     
  -63989285.4101175     
  -63919342.7815674     
  -63847948.3980975     
  -63775075.5867133     
  -63700697.6254938     
  -63624787.8920163     
  -63547320.0079625     
  -63468267.9802262     
  -63387606.3390897     
  -63305310.2741995     
  -63221355.7691756     
  -63135719.7357598     
  -63048380.1484481     
  -62959316.1805831     
  -62868508.3429118     
  -62775938.6256317     
  -62681590.6449895     
  -62585449.7955307     
  -62487503.4091579     
  -62387740.9222123     
  -62286154.0518720     
  -62182736.9832489     
  -62077486.5686493     
  -61970402.5405596     
  -61861487.7399958     
  -61750748.3619146     
  -61638194.2193933     
  -61523839.0282355     
  -61407700.7134942     
  -61289801.7390887     
  -61170169.4611624     
  -61048836.5049898     
  -60925841.1640122     
  -60801227.8177986     
  -60675047.3632607     
  -60547357.6500625     
  -60418223.9066444     
  -60287719.1373194     
  -60155924.4631850     
  -60022929.3697419     
  -59888831.8117541     
  -59753738.1106124     
  -59617762.5609284     
  -59481026.6410413     
  -59343657.6965281     
  -59205786.9369541     
  -59067546.5549057     
  -58929065.7445940     
  -58790465.3682519     
  -58651850.9976141     
  -58513304.0538107     
  -58374870.7961486     
  -58236548.9908164     
  -58098272.2595958     
  -57959892.4210238     
  -57821160.6779972     
  -57681709.4084280     
  -57541037.7900354     
  -57398506.8532539     
  -57253353.3251223     
  -57104737.8804468     
  -56951852.8129703     
  -56794135.0598375     
  -56631672.0658549     
  -56465756.6633548     
  -56298899.9813125     
  -65721256.8169914     
  -65675365.9064670     
  -65629765.5898152     
  -65584963.7565367     
  -65541199.0931769     
  -65498421.3420961     
  -65456412.7921799     
  -65414890.6296019     
  -65373564.4248068     
  -65332165.4213278     
  -65290459.6364546     
  -65248251.5856444     
  -65205382.8819312     
  -65161728.2780988     
  -65117190.6748917     
  -65071695.9733565     
  -65025188.2486054     
  -64977625.4773620     
  -64928975.9046012     
  -64879215.0493952     
  -64828323.3037088     
  -64776284.0555918     
  -64723082.2605730     
  -64668703.3860047     
  -64613132.6587909     
  -64556354.5549148     
  -64498352.4779502     
  -64439108.5823843     
  -64378603.7055978     
  -64316817.3794705     
  -64253727.8987257     
  -64189312.4283034     
  -64123547.1363129     
  -64056407.3425734     
  -63987867.6755058     
  -63917902.2322957     
  -63846484.7389162     
  -63773588.7078672     
  -63699187.5924313     
  -63623254.9369458     
  -63545764.5230887     
  -63466690.5125266     
  -63386007.5865158     
  -63303691.0832104     
  -63219717.1335296     
  -63134062.7965101     
  -63046706.1951046     
  -62957626.6534229     
  -62866804.8364322     
  -62774222.8931627     
  -62679864.6044940     
  -62583715.5366444     
  -62485763.2015334     
  -62385997.2252541     
  -62284409.5259736     
  -62180994.5026572     
  -62075749.2361152     
  -61968673.7039549     
  -61859771.0111089     
  -61749047.6376703     
  -61636513.7057805     
  -61522183.2672676     
  -61406074.6135768     
  -61288210.6092252     
  -61168619.0494921     
  -61047333.0422306     
  -60924391.4124661     
  -60799839.1266897     
  -60673727.7312967     
  -60546115.7962706     
  -60417069.3507166     
  -60286662.2909324     
  -60154976.7340404     
  -60022103.2804255     
  -59888141.1359406     
  -59753198.0296830     
  -59617389.8447393     
  -59480839.8574252     
  -59343677.4551574     
  -59206036.1745252     
  -59068050.8702546     
  -58929853.7944184     
  -58791569.3366473     
  -58653307.1556339     
  -58515153.4286109     
  -58377159.9724721     
  -58239331.0694653     
  -58101607.9956456     
  -57963851.5543062     
  -57825823.4419305     
  -57687168.1499797     
  -57547398.5403939     
  -57405890.5447040     
  -57261896.1863862     
  -57114590.1855228     
  -56963174.6536795     
  -56807085.2636640     
  -56646359.3973945     
  -56482073.7252605     
  -56316271.3926421     
  -65716051.2932107     
  -65670412.1916613     
  -65625218.6345689     
  -65580864.2213979     
  -65537525.8997667     
  -65495133.1199204     
  -65453463.8925414     
  -65412236.2809810     
  -65371162.9926494     
  -65329979.4028387     
  -65288455.9113930     
  -65246401.2590148     
  -65203660.9221415     
  -65160113.0784952     
  -65115663.6111098     
  -65070240.9922833     
  -65023791.5032804     
  -64976275.0105687     
  -64927661.3783709     
  -64877927.5154422     
  -64827055.0092919     
  -64775028.2795555     
  -64721833.1748780     
  -64667455.9386943     
  -64611882.4749482     
  -64555097.8527129     
  -64497085.9973703     
  -64437829.5245835     
  -64377309.6812460     
  -64315506.3646633     
  -64252398.1973203     
  -64187962.6397177     
  -64122176.1279959     
  -64055014.2264904     
  -63986451.7880916     
  -63916463.1174216     
  -63845022.1334963     
  -63772102.5297865     
  -63697677.9305365     
  -63621722.0428799     
  -63544208.8047892     
  -63465112.5292378     
  -63384408.0451949     
  -63302070.8362273     
  -63218077.1775882     
  -63132404.2727309     
  -63045030.3902327     
  -62955935.0021388     
  -62865098.9247626     
  -62772504.4630017     
  -62678135.5592653     
  -62581977.9481503     
  -62484019.3180526     
  -62384249.4809751     
  -62282660.5518633     
  -62179247.1388935     
  -62074006.5462323     
  -61966938.9908797     
  -61858047.8352978     
  -61747339.8375882     
  -61634825.4210082     
  -61520518.9645674     
  -61404439.1163006     
  -61286609.1305169     
  -61167057.2298084     
  -61045816.9917989     
  -60922927.7594081     
  -60798435.0716724     
  -60672391.1097364     
  -60544855.1493148     
  -60415894.0064709     
  -60285582.4577006     
  -60154003.6077117     
  -60021249.1685876     
  -59887419.6018521     
  -59752624.0598992     
  -59616980.0450023     
  -59480612.6824096     
  -59343653.4788493     
  -59206238.4094318     
  -59068505.1453271     
  -58930589.2035425     
  -58792618.7717834     
  -58654707.9410699     
  -58516948.0749684     
  -58379397.0703285     
  -58242066.3410570     
  -58104905.5159434     
  -57967785.1340536     
  -57830478.1254164     
  -57692641.7058233     
  -57553802.6957801     
  -57413351.5194238     
  -57270553.8175983     
  -57124594.4637601     
  -56974677.8271830     
  -56820223.6492065     
  -56661196.0667607     
  -56498449.1962576     
  -56333614.0416460     
  -65710847.9217765     
  -65665441.6300524     
  -65620634.5859691     
  -65576718.7963549     
  -65533809.0009830     
  -65491809.1664958     
  -65450489.2397104     
  -65409566.1303810     
  -65368754.6560854     
  -65327793.8905751     
  -65286458.5244690     
  -65244561.6136646     
  -65201952.6756130     
  -65158513.5227989     
  -65114153.2310944     
  -65068803.0385264     
  -65022411.6030303     
  -64974940.8248206     
  -64926362.3053693     
  -64876654.4372731     
  -64825800.0768278     
  -64773784.7307343     
  -64720595.1815397     
  -64666218.4776656     
  -64610641.2195900     
  -64553849.0816714     
  -64495826.5177556     
  -64436556.6072305     
  -64376021.0060916     
  -64314199.9746025     
  -64251072.4591768     
  -64186616.2112057     
  -64120807.9297407     
  -64053623.4183427     
  -63985037.7491039     
  -63915025.4289695     
  -63843560.5651157     
  -63770617.0273768     
  -63696168.6066413     
  -63620189.1688081     
  -63542652.8043807     
  -63463533.9741179     
  -63382807.6513885     
  -63300449.4620309     
  -63216435.8226211     
  -63130744.0781084     
  -63043352.6398203     
  -62954241.1248657     
  -62863390.4979888     
  -62770783.2169487     
  -62676403.3825383     
  -62580236.8943936     
  -62482271.6138010     
  -62382497.5347790     
  -62280906.9647872     
  -62177494.7165099     
  -62072258.3122562     
  -61965198.2026166     
  -61856318.0011120     
  -61745624.7366316     
  -61633129.1254949     
  -61518845.8649295     
  -61402793.9496209     
  -61284997.0127067     
  -61165483.6920876     
  -61044288.0221421     
  -60921449.8497524     
  -60797015.2718424     
  -60671037.0892429     
  -60543575.2684248     
  -60414697.3982481     
  -60284479.1230834     
  -60153004.5261439     
  -60020366.4272652     
  -59886666.5473133     
  -59752015.4764778     
  -59616532.3656190     
  -59480344.2382965     
  -59343584.7961220     
  -59206392.5619346     
  -59068908.1748967     
  -58931270.6207094     
  -58793612.1518652     
  -58656051.6323699     
  -58518686.0368403     
  -58381579.8581601     
  -58244752.2506766     
  -58108161.8876947     
  -57971689.7900024     
  -57835120.8605435     
  -57698125.6589090     
  -57560245.2647192     
  -57420884.2391044     
  -57279320.2556014     
  -57134744.6234077     
  -56986356.6427543     
  -56833546.4735326     
  -56676186.2893441     
  -56514906.0371258     
  -56350970.6049005     
  -65705636.1847811     
  -65660448.1431768     
  -65616011.9617776     
  -65572528.3419290     
  -65530050.0424676     
  -65488451.3571788     
  -65447490.7208567     
  -65406881.9575283     
  -65366341.0307101     
  -65325610.3169153     
  -65284468.7269115     
  -65242733.7327852     
  -65200259.0751820     
  -65156930.4121286     
  -65112660.2219865     
  -65067382.7012713     
  -65021049.0531379     
  -64973623.3536132     
  -64925079.0576403     
  -64875396.1342414     
  -64824558.7803771     
  -64772553.6441263     
  -64719368.4817351     
  -64664991.1746794     
  -64609409.0387632     
  -64552608.3652373     
  -64494574.1425728     
  -64435289.9160165     
  -64374737.7499089     
  -64312898.2647104     
  -64249750.7266859     
  -64185273.1732385     
  -64119442.5610340     
  -64052234.9274164     
  -63983625.5582841     
  -63913589.1576787     
  -63842100.0159574     
  -63769132.1746258     
  -63694659.5868240     
  -63618656.2731176     
  -63541096.4727184     
  -63461954.7905949     
  -63381206.3411521     
  -63298826.8893125     
  -63214792.9899210     
  -63129082.1264607     
  -63041672.8500955     
  -62952544.9200869     
  -62861679.4466559     
  -62769059.0373782     
  -62674667.9482437     
  -62578492.2405466     
  -62480519.9448323     
  -62380741.2331928     
  -62279148.6012857     
  -62175737.0615431     
  -62070504.3491387     
  -61963451.1423813     
  -61854581.2993002     
  -61743902.1122609     
  -61631424.5824889     
  -61517163.7163488     
  -61401138.8451023     
  -61283373.9695960     
  -61163898.1308537     
  -61042745.8067802     
  -60919957.3340388     
  -60795579.3524895     
  -60669665.2672379     
  -60542275.7201222     
  -60413479.0581423     
  -60283351.7806265     
  -60151978.9395001     
  -60019454.4575454     
  -59885881.3176040     
  -59751371.5609078     
  -59616046.0147916     
  -59480033.6486817     
  -59343470.4324482     
  -59206497.5432309     
  -59069258.7365819     
  -58931896.6669095     
  -58794547.9137945     
  -58657336.4497584     
  -58520365.2793538     
  -58383706.0011961     
  -58247386.1123561     
  -58111374.0167998     
  -57975561.9601802     
  -57839747.5613588     
  -57703615.3594404     
  -57566721.0325872     
  -57428482.9975637     
  -57288189.5080139     
  -57145034.8116018     
  -56998206.1613676     
  -56847051.6979879     
  -56691336.5349539     
  -56531467.3498162     
  -56368380.2098331     
  -65700406.3059405     
  -65655425.6419094     
  -65611348.7869990     
  -65568293.3067803     
  -65526250.4777781     
  -65485061.5115582     
  -65444470.2380750     
  -65404185.5923027     
  -65363923.7956288     
  -65323430.1789809     
  -65282487.8296775     
  -65240918.7514006     
  -65198581.0967247     
  -65155364.5820537     
  -65111185.2975657     
  -65065980.5895654     
  -65019704.3730729     
  -64972323.0400127     
  -64923812.0131418     
  -64874152.9287937     
  -64823331.3949768     
  -64771335.2541694     
  -64718153.2750094     
  -64663774.1991610     
  -64608186.0757596     
  -64551375.8238951     
  -64493328.9722744     
  -64434029.5336796     
  -64373459.9796549     
  -64311601.2877786     
  -64248433.0398222     
  -64183933.5540995     
  -64118080.0394058     
  -64050848.7612694     
  -63982215.2138630     
  -63912154.2929846     
  -63840640.4670945     
  -63767647.9445914     
  -63693150.8363996     
  -63617123.3135871     
  -63539539.7601924     
  -63460374.9217647     
  -63379604.0503348     
  -63297203.0466757     
  -63213148.6008065     
  -63127418.3317426     
  -63039990.9275319     
  -62950846.2866413     
  -62859965.6617777     
  -62767331.8072503     
  -62672929.1310211     
  -62576743.8526220     
  -62478764.1681836     
  -62378980.4238843     
  -62277385.2992131     
  -62173974.0015358     
  -62068744.4735529     
  -61961697.6153511     
  -61852837.5228418     
  -61742171.7444687     
  -61629711.5581072     
  -61515472.2700640     
  -61399473.5379690     
  -61281739.7191030     
  -61162300.2452446     
  -61041190.0243810     
  -60918449.8685190     
  -60794126.9451976     
  -60668275.2480185     
  -60540956.0783555     
  -60412238.5261585     
  -60282199.9321476     
  -60150926.3063807     
  -60018512.6688241     
  -59885063.2657669     
  -59750691.6013174     
  -59615520.2054609     
  -59479680.0389776     
  -59343309.4108817     
  -59206552.2562049     
  -59069555.5917424     
  -58932465.9364499     
  -58795424.4544413     
  -58658560.5567391     
  -58521983.6905652     
  -58385773.0634739     
  -58249965.1113320     
  -58114538.6502504     
  -57979397.8932004     
  -57844353.9255987     
  -57709105.9251704     
  -57573224.5590265     
  -57436141.9135139     
  -57297155.5368003     
  -57155459.3867060     
  -57010222.1481336     
  -56860738.7813799     
  -56706655.0596449     
  -56548156.2721720     
  -56385879.2948183     
  -65695149.0601258     
  -65650368.0312012     
  -65606642.6921847     
  -65564013.7849647     
  -65522411.5874610     
  -65481641.4032707     
  -65441429.7142617     
  -65401478.9175230     
  -65361504.6944905     
  -65321255.0386550     
  -65280517.2029390     
  -65239117.8556290     
  -65196919.7583593     
  -65153816.9018226     
  -65109729.1975474     
  -65064597.3316971     
  -65018378.0959531     
  -64971040.3361944     
  -64922561.5553546     
  -64872925.1461389     
  -64822118.1963625     
  -64770129.7945082     
  -64716949.7590823     
  -64662567.7180387     
  -64606972.4709793     
  -64550151.5750523     
  -64492091.1042045     
  -64432775.5399247     
  -64372187.7594037     
  -64310309.0939121     
  -64247119.4360974     
  -64182597.3798450     
  -64116720.3803982     
  -64049464.9257034     
  -63980806.7125392     
  -63910720.8230016     
  -63839181.8984759     
  -63766164.3093901     
  -63691642.3199112     
  -63615590.2473804     
  -63537982.6167232     
  -63458794.3103896     
  -63378000.7145780     
  -63295577.8626372     
  -63211502.5766249     
  -63125752.6080496     
  -63038306.7788556     
  -62949145.1237319     
  -62858249.0348448     
  -62765601.4101201     
  -62671186.8062307     
  -62574991.5974872     
  -62477004.1418917     
  -62377214.9556788     
  -62275616.8977569     
  -62172205.3655587     
  -62066978.5039174     
  -61959937.4286921     
  -61851086.4669776     
  -61740433.4158142     
  -61627989.8213754     
  -61513771.2806025     
  -61397797.7671551     
  -61280093.9833195     
  -61160689.7390770     
  -61039620.3588348     
  -60916927.1152430     
  -60792657.6879447     
  -60666866.6428734     
  -60539615.9246383     
  -60410975.3503753     
  -60281023.0879296     
  -60149846.0940534     
  -60017540.4790825     
  -59884211.7529386     
  -59749974.8928716     
  -59614954.1557855     
  -59479282.5369906     
  -59343100.7527510     
  -59206555.5962601     
  -59069797.4864766     
  -58932976.9981427     
  -58796240.1320515     
  -58659722.0617459     
  -58523539.0833710     
  -58387778.5100055     
  -58252486.3064142     
  -58117652.3785567     
  -57983193.6504421     
  -57848935.4360356     
  -57714592.2408451     
  -57579750.1737869     
  -57443854.9202167     
  -57306212.2369937     
  -57166012.8831735     
  -57022401.0041526     
  -56874608.4740398     
  -56722151.5515474     
  -56564995.9631660     
  -56403502.3014848     
  -65689855.6161881     
  -65645269.1993496     
  -65601890.9875240     
  -65559689.5704497     
  -65518534.5025053     
  -65478192.7720876     
  -65438371.1002601     
  -65398763.8725346     
  -65359085.5369332     
  -65319086.5228083     
  -65278558.2756595     
  -65237332.2819634     
  -65195276.1196283     
  -65152288.2735549     
  -65108292.6868333     
  -65063233.5745265     
  -65017070.7679616     
  -64969775.7029428     
  -64921328.0728567     
  -64871713.1138900     
  -64820919.4606678     
  -64768937.4977426     
  -64715758.1296382     
  -64661371.8955692     
  -64605768.3617867     
  -64548935.7329202     
  -64490860.6324987     
  -64431528.0113421     
  -64370921.1502781     
  -64309021.7304728     
  -64245809.9505134     
  -64181264.6742660     
  -64115363.5975316     
  -64048083.4247384     
  -63979400.0494574     
  -63909288.7345046     
  -63837724.2889118     
  -63764681.2401863     
  -63690134.0011221     
  -63614057.0310402     
  -63536424.9917578     
  -63457212.8988953     
  -63376396.2693162     
  -63293951.2656284     
  -63209854.8387550     
  -63124084.8696228     
  -63036620.3110504     
  -62947441.3309317     
  -62856529.4578342     
  -62763867.7301492     
  -62669440.8499647     
  -62573235.3428767     
  -62475239.7250075     
  -62375444.6785770     
  -62273843.2374563     
  -62170430.9842314     
  -62065206.2604187     
  -61958170.3915849     
  -61849327.9292389     
  -61738686.9114560     
  -61626259.1442635     
  -61512060.5058213     
  -61396111.2753520     
  -61278436.4885648     
  -61159066.3209092     
  -61038036.4993278     
  -60915388.7421448     
  -60791171.2252033     
  -60665439.0702022     
  -60538254.8481900     
  -60409689.0871132     
  -60279820.7669226     
  -60148737.7786958     
  -60016537.3151787     
  -59883326.1487027     
  -59749220.7382005     
  -59614347.0896589     
  -59478840.2735469     
  -59342843.4784161     
  -59206506.4522305     
  -59069983.1527141     
  -58933428.3966076     
  -58796993.2677857     
  -58660819.0199417     
  -58525029.1975736     
  -58389719.7090898     
  -58254946.6324690     
  -58120711.6382191     
  -57986945.1081352     
  -57853487.3614797     
  -57720068.9568733     
  -57586291.9710611     
  -57451615.7522334     
  -57315353.4108604     
  -57176689.9682546     
  -57034739.6826044     
  -56888662.6219315     
  -56737836.8644817     
  -56582009.6440220     
  -56421282.2460685     
  -65684517.4038237     
  -65640122.9975672     
  -65597090.7185500     
  -65555320.2079091     
  -65514620.2310281     
  -65474717.3382679     
  -65435296.3832204     
  -65396042.4575317     
  -65356668.2004106     
  -65316926.3237091     
  -65276612.5352450     
  -65235563.3165650     
  -65193651.2806617     
  -65150779.6313944     
  -65106876.5547184     
  -65061889.9827737     
  -65015782.9477221     
  -64968529.6091131     
  -64920111.9588659     
  -64870517.1616779     
  -64819735.4641010     
  -64767758.5951589     
  -64714578.5801031     
  -64660186.8931526     
  -64604573.8823580     
  -64547728.4083886     
  -64489637.6479814     
  -64430287.0213217     
  -64369660.2103796     
  -64307739.2420225     
  -64244504.6155154     
  -64179935.4588492     
  -64114009.7022749     
  -64046704.2605864     
  -63977995.2181869     
  -63907858.0129126     
  -63836267.6160608     
  -63763198.7071815     
  -63688625.8430077     
  -63612523.6204831     
  -63534866.8342667     
  -63455630.6293707     
  -63374790.6497770     
  -63292323.1839974     
  -63208205.3086108     
  -63122415.0308537     
  -63034931.4313635     
  -62945734.8081918     
  -62854806.8232173     
  -62762130.6521141     
  -62667691.1390591     
  -62571474.9574057     
  -62473470.7776099     
  -62373669.4437695     
  -62272064.1602205     
  -62168650.6897422     
  -62063427.5650347     
  -61956396.3152493     
  -61847561.7094744     
  -61736932.0191830     
  -61624519.3017220     
  -61510339.7069481     
  -61394413.8090544     
  -61276766.9654396     
  -61157429.7041029     
  -61036438.1404139     
  -60913834.4231265     
  -60789667.2080409     
  -60663992.1556346     
  -60536872.4460783     
  -60408379.3011068     
  -60278592.4969512     
  -60147600.8456477     
  -60015502.6131552     
  -59882405.8314653     
  -59748428.4478559     
  -59613698.2372683     
  -59478352.3831717     
  -59342536.6080906     
  -59206403.7073735     
  -59070111.3094068     
  -58933818.6536892     
  -58797682.1473906     
  -58661849.4351625     
  -58526451.7021008     
  -58391593.9347749     
  -58257342.9030228     
  -58123712.7142543     
  -57990647.9593752     
  -57858004.7574810     
  -57725530.4873047     
  -57592843.8024199     
  -57459417.9295083     
  -57324572.7376861     
  -57187485.3905609     
  -57047235.5932378     
  -56902903.9843601     
  -56753722.8182277     
  -56599220.6743571     
  -56439251.2034042     
  -65679125.9976437     
  -65634923.2133249     
  -65592238.7080715     
  -65550905.0397448     
  -65510669.6873341     
  -65471216.8190603     
  -65432207.5961248     
  -65393316.7385412     
  -65354254.6323610     
  -65314776.1995926     
  -65274681.5272564     
  -65233812.2945604     
  -65192046.3813127     
  -65149291.9406222     
  -65105481.6140509     
  -65060567.2382576     
  -65014515.2056309     
  -64967302.5310556     
  -64918913.6107493     
  -64869337.6207383     
  -64818566.4826001     
  -64766593.3164433     
  -64713411.3014075     
  -64659012.8691389     
  -64603389.1635216     
  -64546529.7088943     
  -64488422.2380589     
  -64429052.6399666     
  -64368404.9947175     
  -64306461.6702640     
  -64243203.4609444     
  -64178609.7527385     
  -64112658.7040128     
  -64045327.4336259     
  -63976592.2107023     
  -63906428.6422732     
  -63834811.8564171     
  -63761716.6796057     
  -63687117.8077486     
  -63610989.9709950     
  -63533308.0927410     
  -63454047.4435653     
  -63373183.7909810     
  -63290693.5460107     
  -63206553.9076449     
  -63120743.0062882     
  -63033240.0473123     
  -62944025.4558487     
  -62853081.0239683     
  -62760390.0614172     
  -62665937.5511041     
  -62569710.3105812     
  -62471697.1608203     
  -62371889.1036530     
  -62270279.5093447     
  -62166864.3158664     
  -62061642.2415546     
  -61954615.0129681     
  -61845787.6098781     
  -61735168.5294449     
  -61622770.0717153     
  -61508608.6486197     
  -61392705.1186053     
  -61275085.1488775     
  -61155779.6068831     
  -61034824.9820851     
  -60912263.8381418     
  -60788145.2942191     
  -60662525.5321501     
  -60535468.3233646     
  -60407045.5656804     
  -60277337.8149303     
  -60146434.7896750     
  -60014435.8185630     
  -59881450.1888513     
  -59747597.3407989     
  -59613006.8356889     
  -59477818.0048155     
  -59342179.1627266     
  -59206246.2404396     
  -59070180.6638139     
  -58934146.2699891     
  -58798305.0230033     
  -58662811.2620086     
  -58527804.1973811     
  -58393398.3694709     
  -58259671.8129964     
  -58126651.7427957     
  -57994297.7161001     
  -57862482.4667864     
  -57730971.0072031     
  -57599399.2684863     
  -57467254.7390506     
  -57333863.7393621     
  -57198393.9209062     
  -57059886.4983605     
  -56917336.0654645     
  -56769822.0487621     
  -56616652.6507739     
  -56457440.7283608     
  -65673673.0132441     
  -65629663.5395398     
  -65587331.5879613     
  -65546443.2498357     
  -65506683.7227891     
  -65467692.9471748     
  -65429106.8284050     
  -65390588.8529917     
  -65351846.8526727     
  -65312637.9753626     
  -65272766.8551647     
  -65232080.5993338     
  -65190462.6002627     
  -65147826.1967263     
  -65104108.7003461     
  -65059266.0390915     
  -65013268.1231462     
  -64966094.9520007     
  -64917733.4295005     
  -64868174.8234720     
  -64817412.7914654     
  -64765441.8893773     
  -64712256.4817367     
  -64657849.9786215     
  -64602214.3325903     
  -64545339.7382855     
  -64487214.4866082     
  -64427824.9340022     
  -64367155.5551356     
  -64305189.0539831     
  -64241906.5139897     
  -64177287.5726967     
  -64111310.6100155     
  -64043952.9423780     
  -63975191.0173628     
  -63905000.6052459     
  -63833356.9852990     
  -63760235.1257072     
  -63685609.8567245     
  -63609456.0372260     
  -63531748.7151900     
  -63452463.2828904     
  -63371575.6277445     
  -63289062.2798562     
  -63204900.5573514     
  -63119068.7106319     
  -63031546.0666896     
  -62942313.1746309     
  -62851351.9535730     
  -62758645.8440956     
  -62664179.9644546     
  -62567941.2728152     
  -62469918.7368150     
  -62370103.5118446     
  -62268489.1295275     
  -62165071.6979852     
  -62059850.1155998     
  -61952826.3001096     
  -61844005.4350137     
  -61733396.2353803     
  -61621011.2352547     
  -61506867.0989189     
  -61390984.9582381     
  -61273390.7781938     
  -61154115.7523970     
  -61033196.7298409     
  -60910676.6732796     
  -60786605.1482938     
  -60661038.8401982     
  -60534042.0932505     
  -60405687.4629286     
  -60276056.2670859     
  -60145239.1152426     
  -60013336.3867982     
  -59880458.6181210     
  -59746726.7449129     
  -59612272.1295175     
  -59477236.2826310     
  -59341770.1649614     
  -59206032.9268202     
  -59070189.9128825     
  -58934409.7265076     
  -58798860.1150825     
  -58663702.4080826     
  -58529084.2178741     
  -58395130.1067218     
  -58261929.9415772     
  -58129524.7137826     
  -57997889.7110593     
  -57866915.1196115     
  -57736384.4495141     
  -57605951.7095067     
  -57475119.2144760     
  -57343219.7420170     
  -57209410.2860579     
  -57072690.4023597     
  -56931962.9577025     
  -56786147.8953092     
  -56634329.5204174     
  -56475882.2336042     
  -65668150.0111633     
  -65624337.5408118     
  -65582365.8236947     
  -65541933.9048185     
  -65502663.1582065     
  -65464147.4910342     
  -65425996.2375611     
  -65387861.0157871     
  -65349446.9563931     
  -65310513.5433925     
  -65270870.1801307     
  -65230369.6618045     
  -65188901.1540909     
  -65146383.4244256     
  -65102758.6708499     
  -65057987.0988289     
  -65012042.2920348     
  -64964907.3614084     
  -64916571.8191853     
  -64867029.1029782     
  -64816274.6649715     
  -64764304.5395179     
  -64711114.3062672     
  -64656698.3732232     
  -64601049.5131868     
  -64544158.5966797     
  -64486014.4738629     
  -64426603.9666849     
  -64365911.9402386     
  -64303921.4289882     
  -64240613.7991409     
  -64175968.9330669     
  -64109965.4254085     
  -64042580.7834812     
  -63973791.6268941     
  -63903573.8830883     
  -63831902.9768368     
  -63758754.0127453     
  -63684101.9505079     
  -63607921.7731879     
  -63530188.6491390     
  -63450878.0884171     
  -63369966.0946782     
  -63287429.3136446     
  -63203245.1792705     
  -63117392.0587550     
  -63029849.3975701     
  -62940597.8656661     
  -62849619.5060362     
  -62756897.8868298     
  -62662418.2582410     
  -62566167.7154350     
  -62468135.3688385     
  -62368312.5231959     
  -62266692.8668856     
  -62163272.6731027     
  -62058051.0146424     
  -61951029.9941486     
  -61842214.9918383     
  -61731614.9328436     
  -61619242.5764285     
  -61505114.8294094     
  -61389253.0861176     
  -61271683.5971346     
  -61152437.8687691     
  -61031553.0947553     
  -60909072.6208435     
  -60785046.4417129     
  -60659531.7278199     
  -60532593.3772267     
  -60404304.5839000     
  -60274747.4091839     
  -60144013.3367978     
  -60012203.7834539     
  -59879430.5266078     
  -59745815.9975466     
  -59611493.3715423     
  -59476606.3667955     
  -59341308.6401236     
  -59205762.6397708     
  -59070137.7447203     
  -58934607.4864006     
  -58799345.6144733     
  -58664520.7363721     
  -58530289.2347626     
  -58396786.1541367     
  -58264113.7552407     
  -58132327.4737619     
  -58001419.0998139     
  -57871297.1337917     
  -57741764.5015373     
  -57612494.1950099     
  -57483004.1136965     
  -57352633.8340230     
  -57220529.0960856     
  -57085645.4358425     
  -56946789.1944126     
  -56802714.3137475     
  -56652275.7051660     
  -56494607.3385964     
  -65662548.4053391     
  -65618938.6173658     
  -65577337.7339969     
  -65537375.9938854     
  -65498608.8176559     
  -65460582.2766157     
  -65422878.0616638     
  -65385135.5257979     
  -65347057.1166240     
  -65308404.8643944     
  -65268993.2207925     
  -65228680.9596770     
  -65187363.2963002     
  -65144964.6766439     
  -65101432.4035547     
  -65056731.1455654     
  -65010838.3135761     
  -64963740.2542788     
  -64915429.1863554     
  -64865900.7925631     
  -64815152.3759585     
  -64763181.4898597     
  -64709984.9568907     
  -64655558.2008707     
  -64599894.8250621     
  -64542986.3803179     
  -64484822.2762961     
  -64425389.7977077     
  -64364674.1953165     
  -64302658.8280512     
  -64239325.3381406     
  -64174653.8457359     
  -64108623.1531421     
  -64041210.9516689     
  -63972394.0263694     
  -63902148.4556414     
  -63830449.8039629     
  -63757273.3069818     
  -63682594.0488587     
  -63606387.1322495     
  -63528627.8416283     
  -63449291.8008776     
  -63368355.1261902     
  -63285794.5754129     
  -63201587.6949915     
  -63115712.9656971     
  -63028149.9483159     
  -62938879.4304886     
  -62847883.5758901     
  -62755146.0769538     
  -62660652.3123791     
  -62564389.5106947     
  -62466346.9212151     
  -62366515.9938065     
  -62264890.5689691     
  -62161467.0798616     
  -62056244.7680236     
  -61949225.9146868     
  -61840416.0897251     
  -61729824.4204302     
  -61617463.8824309     
  -61503351.6151702     
  -61387509.2643789     
  -61269963.3539212     
  -61150745.6891575     
  -61029893.7935429     
  -60907451.3794333     
  -60783468.8529149     
  -60658003.8507673     
  -60531121.8052226     
  -60402896.5287833     
  -60273410.8067626     
  -60142756.9790618     
  -60011037.4846860     
  -59878365.3321737     
  -59744864.4460812     
  -59610669.8234465     
  -59475927.4143816     
  -59340793.6173011     
  -59205434.2517082     
  -59070022.8401602     
  -58934737.9968438     
  -58799759.6845983     
  -58665264.0677814     
  -58531416.6588020     
  -58398363.4364908     
  -58266219.6109308     
  -58135055.7288192     
  -58004880.8628037     
  -57875622.7148805     
  -57747104.6011159     
  -57619019.5127513     
  -57490901.8950673     
  -57362098.8207874     
  -57231744.7659788     
  -57098749.7347215     
  -56961819.6078963     
  -56819535.8078480     
  -56670516.2340908     
  -56513648.2021161     
  -65656859.3731309     
  -65613459.9670220     
  -65572243.5075994     
  -65532768.4681988     
  -65494521.5637629     
  -65456999.2107089     
  -65419754.6326023     
  -65382414.7726715     
  -65344679.5875433     
  -65306313.9683205     
  -65267137.7530358     
  -65227016.0166535     
  -65185850.3162943     
  -65143571.0334326     
  -65100130.7961615     
  -65055498.9209887     
  -65009656.7977230     
  -64962594.1304275     
  -64914305.9394316     
  -64864790.2252212     
  -64814046.1954018     
  -64762072.9604821     
  -64708868.6119263     
  -64654429.6055626     
  -64598750.3839072     
  -64541823.1814129     
  -64483637.9664990     
  -64424182.4831042     
  -64363442.3622690     
  -64301401.2808467     
  -64238041.1499366     
  -64173342.3200953     
  -64107283.7939625     
  -64039843.4397459     
  -63970998.2011924     
  -63900724.3013169     
  -63828997.4384018     
  -63755792.9736742     
  -63681086.1107203     
  -63604852.0671351     
  -63527066.2392122     
  -63447704.3606650     
  -63366742.6564880     
  -63284157.9931272     
  -63199928.0261578     
  -63114031.3466720     
  -63026447.6275826     
  -62937157.7710455     
  -62846144.0582016     
  -62753390.3024625     
  -62658882.0075794     
  -62562606.5317861     
  -62464553.2593613     
  -62364713.7810365     
  -62263082.0847747     
  -62159654.7585592     
  -62054431.2069704     
  -61947413.8834712     
  -61838608.5404850     
  -61728024.4995009     
  -61615674.9435900     
  -61501577.2348262     
  -61385753.2591648     
  -61268229.8012950     
  -61149038.9518053     
  -61028218.5486228     
  -60905812.6540223     
  -60781872.0674249     
  -60656454.8726249     
  -60529627.0157572     
  -60401462.9070975     
  -60272046.0353712     
  -60141469.5773301     
  -60009836.9775903     
  -59877262.4636840     
  -59743871.4485237     
  -59609800.7565480     
  -59475198.5902708     
  -59340224.1304645     
  -59205046.6355823     
  -59069843.8744150     
  -58934799.6910064     
  -58800100.4637793     
  -58665930.1838092     
  -58532463.8433359     
  -58399858.7989964     
  -58268243.7594149     
  -58137705.0476675     
  -58008269.8075257     
  -57879885.8562686     
  -57752397.9326738     
  -57625520.1571584     
  -57498804.6923301     
  -57371607.1768145     
  -57243051.4321515     
  -57112001.3139985     
  -56977059.1890681     
  -56836627.3711312     
  -56689076.8830449     
  -56533037.8489283     
  -65651073.7642178     
  -65607894.5453073     
  -65567079.2188957     
  -65528110.2810940     
  -65490402.3346789     
  -65453400.3054234     
  -65416628.3899206     
  -65379701.2438608     
  -65342316.7074877     
  -65304242.9552584     
  -65265305.6097296     
  -65225376.4015972     
  -65184363.5383007     
  -65142203.6008368     
  -65098854.7649904     
  -65054291.1793841     
  -65008498.3622210     
  -64961469.4937225     
  -64913202.4880567     
  -64863697.7330935     
  -64812956.3919631     
  -64760979.1681800     
  -64707765.4458199     
  -64653312.7271259     
  -64597616.3011587     
  -64540669.0879946     
  -64482461.6130576     
  -64422982.0751510     
  -64362216.4795279     
  -64300148.8138916     
  -64236761.2506347     
  -64172034.3630055     
  -64105947.3463835     
  -64038478.2385672     
  -63969604.1350802     
  -63899301.3970847     
  -63827545.8506609     
  -63754312.9770703     
  -63679578.0942148     
  -63603316.5299220     
  -63525503.7879582     
  -63446115.7078346     
  -63365128.6195794     
  -63282519.4946858     
  -63198266.0944702     
  -63112347.1170733     
  -63024742.3443262     
  -62935432.7897038     
  -62844400.8485809     
  -62751630.4520213     
  -62657107.2253563     
  -62560818.6528483     
  -62462754.2497956     
  -62362905.7435184     
  -62261267.2647596     
  -62157835.5511613     
  -62052610.1646117     
  -61945593.7244125     
  -61836792.1583857     
  -61726214.9742044     
  -61613875.5533928     
  -61499791.4705786     
  -61383984.8406604     
  -61266482.6965596     
  -61147317.4000919     
  -61026527.0881806     
  -60904156.1560341     
  -60780255.7779514     
  -60654884.4649297     
  -60528108.6560907     
  -60400003.3378834     
  -60270652.6808140     
  -60140150.6777816     
  -60008601.7605934     
  -59876121.3614987     
  -59742836.3741255     
  -59608885.4525713     
  -59474419.0681134     
  -59339599.2196488     
  -59204598.6663183     
  -59069599.5188220     
  -58934790.9901338     
  -58800366.0676856     
  -58666516.8293759     
  -58533428.0874761     
  -58401269.0107557     
  -58270182.3488215     
  -58140270.8649110     
  -58011580.5708645     
  -57884080.3393959     
  -57757637.4232283     
  -57631988.3175042     
  -57506704.2887222     
  -57381150.9956008     
  -57254442.8644240     
  -57125397.9355925     
  -56992512.9444391     
  -56854004.4328974     
  -56707984.3209866     
  -56552810.5003229     
  -65645182.0057606     
  -65602235.0237198     
  -65561840.8442093     
  -65523400.4303197     
  -65486252.1829754     
  -65449787.7037811     
  -65413501.8950643     
  -65376997.5317545     
  -65339970.9020309     
  -65302193.9962836     
  -65263498.6804052     
  -65223763.7276331     
  -65182904.3202302     
  -65140863.5097018     
  -65097605.2438355     
  -65053108.6865872     
  -65007363.6316824     
  -64960366.8512861     
  -64912119.2424169     
  -64862623.6469003     
  -64811883.2315216     
  -64759900.3260810     
  -64706675.6288333     
  -64652207.7009652     
  -64596492.6837977     
  -64539524.1837502     
  -64481293.2804274     
  -64421788.6222681     
  -64360996.5819794     
  -64298901.4504847     
  -64235485.6534515     
  -64170729.9787591     
  -64104613.8066582     
  -64037115.3370156     
  -63968211.8100478     
  -63897879.7184602     
  -63826095.0100223     
  -63752833.2804012     
  -63678069.9566398     
  -63601780.4720390     
  -63523940.4334472     
  -63444525.7821052     
  -63363512.9492765     
  -63280879.0079228     
  -63196601.8216919     
  -63110660.1924793     
  -63023034.0078073     
  -62933704.3892576     
  -62842653.8431878     
  -62749866.4149734     
  -62655327.8480375     
  -62559025.7489775     
  -62460949.7601505     
  -62361091.7411689     
  -62259445.9608532     
  -62156009.3013158     
  -62050781.4759928     
  -61943765.2636004     
  -61834966.7601702     
  -61724395.6514969     
  -61612065.5085093     
  -61497994.1082323     
  -61382203.7831260     
  -61264721.8016190     
  -61145580.7825815     
  -61024819.1462273     
  -60902481.6034176     
  -60778619.6844793     
  -60653292.3072903     
  -60526566.3823767     
  -60398517.4498975     
  -60269230.3393966     
  -60138799.8377922     
  -60007331.3438522     
  -59874941.4779817     
  -59741758.6040228     
  -59607923.2044503     
  -59473588.0313276     
  -59338917.9321887     
  -59204089.2223288     
  -59069288.4426734     
  -58934710.3057371     
  -58800554.5919120     
  -58667021.7157982     
  -58534306.6394527     
  -58402590.7684000     
  -58272031.4283789     
  -58142748.4845140     
  -58014807.6216186     
  -57888199.7341399     
  -57762815.7385154     
  -57638415.8660435     
  -57514592.0906475     
  -57390721.9379823     
  -57265912.3740681     
  -57138936.9692917     
  -57008185.7459362     
  -56871682.8022725     
  -56727266.2630362     
  -56573001.9179673     
  -65639174.0011369     
  -65596473.7461115     
  -65556524.2804350     
  -65518638.0036503     
  -65482072.3167415     
  -65446163.7062068     
  -65410377.8458449     
  -65374306.3407937     
  -65337644.6869889     
  -65300169.3342291     
  -65261718.9108530     
  -65222179.6511736     
  -65181474.0524679     
  -65139551.9144170     
  -65096383.1827624     
  -65051952.2188891     
  -65006253.2366199     
  -64959286.7126595     
  -64911056.6125347     
  -64861568.2953502     
  -64810826.9766857     
  -64758836.6432462     
  -64705599.3267219     
  -64651114.6578048     
  -64595379.6341441     
  -64538388.5478611     
  -64480133.0288040     
  -64420602.1689187     
  -64359782.7008862     
  -64297659.2106457     
  -64234214.3686683     
  -64169429.1690455     
  -64103283.1687521     
  -64035754.7219831     
  -63966821.2063928     
  -63896459.2394951     
  -63824644.8845353     
  -63751353.8458773     
  -63676561.6544665     
  -63600243.8442657     
  -63522376.1207744     
  -63442934.5228607     
  -63361895.5791976     
  -63279236.4606122     
  -63194935.1296530     
  -63108970.4886588     
  -63021322.5275991     
  -62931972.4729341     
  -62840902.9387401     
  -62748098.0813483     
  -62653543.7587722     
  -62557227.6962363     
  -62459139.6591808     
  -62359271.6351992     
  -62257618.0264693     
  -62154175.8543656     
  -62048944.9780893     
  -61941928.3293192     
  -61833132.1650735     
  -61722566.3411630     
  -61610244.6088146     
  -61496184.9372224     
  -61380409.8649290     
  -61262946.8830169     
  -61143828.8530683     
  -61023094.4626584     
  -60900788.7207198     
  -60776963.4943634     
  -60651678.0875052     
  -60524999.8598139     
  -60397004.8818078     
  -60267778.6181777     
  -60137416.6262589     
  -60006025.2496675     
  -59873722.2780232     
  -59740637.5318993     
  -59606913.3171636     
  -59472704.6741418     
  -59338179.3240085     
  -59203517.1870954     
  -59068909.3151330     
  -58934556.0418860     
  -58800664.1146805     
  -58667442.5239136     
  -58535096.7001358     
  -58403820.6999212     
  -58273786.9523632     
  -58145133.0834954     
  -58017945.2632665     
  -57892237.3994515     
  -57767925.2793671     
  -57644794.3463554     
  -57522459.1013336     
  -57400311.1796274     
  -57277452.7185610     
  -57152615.2458052     
  -57024082.1687689     
  -56889678.6039556     
  -56746951.6304017     
  -56593649.7707801     
  -65633039.0193191     
  -65590602.6832014     
  -65551125.3679897     
  -65513822.2292902     
  -65477864.1431601     
  -65442530.7977012     
  -65407259.0909078     
  -65371630.4944462     
  -65335340.6712790     
  -65298171.2843320     
  -65259968.3026196     
  -65220625.8708589     
  -65180074.1565885     
  -65138269.9915921     
  -65095189.5468477     
  -65050822.5618893     
  -65005167.8124352     
  -64958229.5889327     
  -64910015.0075322     
  -64860532.0045255     
  -64809787.8862879     
  -64757788.3242583     
  -64704536.7004020     
  -64650033.7234218     
  -64594277.2496456     
  -64537262.2548361     
  -64478980.9139933     
  -64419422.7555077     
  -64358574.8638085     
  -64296422.1110552     
  -64232947.4035840     
  -64168131.9329155     
  -64101955.4243167     
  -64034396.3783501     
  -63965432.3026817     
  -63895039.9327663     
  -63823195.4410100     
  -63749874.6346845     
  -63675053.1433365     
  -63598706.5967315     
  -63520810.7945498     
  -63441341.8691527     
  -63360276.4427701     
  -63277591.7804713     
  -63193265.9402550     
  -63107277.9215758     
  -63019607.8135917     
  -62930236.9444007     
  -62839148.0325198     
  -62746325.3418694     
  -62651754.8415394     
  -62555424.3716625     
  -62457323.8167745     
  -62357445.2881255     
  -62255783.3165163     
  -62152335.0573595     
  -62047100.5098195     
  -61940082.7520623     
  -61831288.1948388     
  -61720726.8558315     
  -61608412.6574090     
  -61494363.7506373     
  -61378602.8685709     
  -61261157.7119704     
  -61142061.3706217     
  -61021352.7833081     
  -60899077.2391560     
  -60775286.9224182     
  -60650041.5016801     
  -60523408.7627970     
  -60395465.2823890     
  -60266297.1352225     
  -60136000.6239251     
  -60004683.0129030     
  -59872463.2395792     
  -59739472.5646709     
  -59605855.1085961     
  -59471768.2026745     
  -59337382.4609626     
  -59202881.4508155     
  -59068460.8072380     
  -58934326.5976080     
  -58800692.6996717     
  -58667776.9073572     
  -58535795.4267331     
  -58404955.3687041     
  -58275444.7842741     
  -58147419.7158782     
  -58020987.6370195     
  -57896186.4843217     
  -57772958.1784810     
  -57651114.9621417     
  -57530295.8949140     
  -57409909.3584255     
  -57289056.0038156     
  -57166428.9009202     
  -57040206.3122163     
  -56908008.1987198     
  -56767070.7171896     
  -56614794.0353891     
  -65626765.5715617     
  -65584613.3853309     
  -65545639.9203269     
  -65508952.5326087     
  -65473629.3147743     
  -65438891.6754221     
  -65404148.6439736     
  -65368972.9419159     
  -65333061.5595669     
  -65296202.2347189     
  -65258248.9123802     
  -65219104.1263965     
  -65178706.0839887     
  -65137018.9386632     
  -65094025.3148579     
  -65049720.5092975     
  -65004107.9983651     
  -64957195.9918375     
  -64908994.8348649     
  -64859515.0972449     
  -64808766.2148606     
  -64756755.5687965     
  -64703487.9056079     
  -64648965.0183735     
  -64593185.6226609     
  -64536145.3743421     
  -64477836.9872784     
  -64418250.4182790     
  -64357373.0945261     
  -64295190.1649945     
  -64231684.7624703     
  -64166838.2667477     
  -64100630.5626651     
  -64033040.2889679     
  -63964045.0757365     
  -63893621.7693675     
  -63821746.6450110     
  -63748395.6069800     
  -63673544.3780617     
  -63597168.6789169     
  -63519244.3989002     
  -63439747.7597024     
  -63358655.4732350     
  -63275944.8951652     
  -63191594.1754761     
  -63105582.4073956     
  -63017889.7759997     
  -62928497.7077712     
  -62837389.0223811     
  -62744548.0879614     
  -62649960.9811559     
  -62553615.6532777     
  -62455502.1039604     
  -62355612.5637773     
  -62253941.6874072     
  -62150486.7590634     
  -62045247.9120561     
  -61938228.3645435     
  -61829434.6737303     
  -61718877.0109922     
  -61606569.4606368     
  -61492530.3452412     
  -61376782.5807154     
  -61259354.0644040     
  -61140278.0996264     
  -61019593.8600031     
  -60897346.8966780     
  -60773589.6910064     
  -60648382.2543433     
  -60521792.7750687     
  -60393898.3107201     
  -60264785.5198590     
  -60134551.4237154     
  -60003304.1814158     
  -59871163.8542209     
  -59738263.1231881     
  -59604747.9104304     
  -59470777.8360528     
  -59336526.4202258     
  -59202180.9121144     
  -59067941.5939817     
  -58934020.3693900     
  -58800638.3989803     
  -58668022.4959864     
  -58536399.9366647     
  -58405991.2777660     
  -58277000.7012483     
  -58149603.3169128     
  -58023928.7252007     
  -57900039.9291562     
  -57777906.2977181     
  -57657368.5667268     
  -57538092.5913838     
  -57419506.5225833     
  -57300713.5848481     
  -57180373.2099659     
  -57056561.5978142     
  -56926688.0806061     
  -56787655.3637237     
  -56636477.4421756     
  -65620341.2714508     
  -65578496.9337996     
  -65540063.7627514     
  -65504028.6008503     
  -65469369.7785512     
  -65435249.2763280     
  -65401049.6976125     
  -65366336.7644553     
  -65330810.1546296     
  -65294264.6466911     
  -65256562.8511669     
  -65217616.1972911     
  -65177371.3144297     
  -65135799.9724250     
  -65092891.4778661     
  -65048646.8616838     
  -65003074.4363848     
  -64956186.4328062     
  -64907996.4995290     
  -64858517.8924051     
  -64807762.2120956     
  -64755738.5711974     
  -64702453.0925408     
  -64647908.6577173     
  -64592104.8402394     
  -64535037.9710314     
  -64476701.2952868     
  -64417085.1892134     
  -64356177.4129588     
  -64293963.3822859     
  -64230426.4465271     
  -64165548.1642158     
  -64099308.5707466     
  -64031686.4346404     
  -63962659.5006227     
  -63892204.7189010     
  -63820298.4608533     
  -63746916.7218912     
  -63672035.3126230     
  -63595630.0396538     
  -63517676.8774710     
  -63438152.1329046     
  -63357032.6036502     
  -63274295.7323116     
  -63189919.7573760     
  -63103883.8624904     
  -63016168.3253675     
  -62926754.6676131     
  -62835625.8067564     
  -62742766.2117575     
  -62648162.0632841     
  -62551801.4200946     
  -62453674.3929175     
  -62353773.3273074     
  -62252092.9970688     
  -62148630.8099695     
  -62043387.0276363     
  -61936365.0017094     
  -61827571.4285470     
  -61717016.6250105     
  -61604714.8281025     
  -61490684.5214934     
  -61374948.7922117     
  -61257535.7209791     
  -61138478.8098222     
  -61017817.4506117     
  -60895597.4380399     
  -60771871.5301260     
  -60646700.0585592     
  -60520151.5898688     
  -60392303.6363815     
  -60263243.4129366     
  -60133068.6310702     
  -60001888.3164929     
  -59869823.6277006     
  -59737008.6429575     
  -59603591.0690618     
  -59469732.8075646     
  -59335610.2917318     
  -59201414.4798200     
  -59067350.3564773     
  -58933635.7537795     
  -58800499.2561951     
  -58668176.8994599     
  -58536907.3116201     
  -58406924.8742113     
  -58278450.3987281     
  -58151678.7076059     
  -58026762.3549978     
  -57903790.4676302     
  -57782761.2260730     
  -57663545.6535118     
  -57545838.8328850     
  -57429092.0802928     
  -57312415.9661055     
  -57194442.4121879     
  -57073150.5390206     
  -56945734.7410105     
  -56808739.1352204     
  -56658745.9811084     
  -65613752.6734994     
  -65572243.8914761     
  -65534392.7839482     
  -65499050.4575716     
  -65465087.8276590     
  -65431606.8044447     
  -65397965.6362941     
  -65363725.1811565     
  -65328589.3593616     
  -65292361.0547715     
  -65254912.2834302     
  -65216163.9014508     
  -65176071.3544848     
  -65134614.3274840     
  -65091789.0378039     
  -65047602.4251757     
  -65002067.7700670     
  -64955201.4219956     
  -64907020.4032383     
  -64857540.7042983     
  -64806776.1222870     
  -64754737.5200053     
  -64701432.4055079     
  -64646864.7507248     
  -64591034.9838972     
  -64533940.1043671     
  -64475573.8798551     
  -64415927.0959237     
  -64354987.8350887     
  -64292741.7692345     
  -64229172.4538391     
  -64164261.6162549     
  -64097989.4331247     
  -64030334.7941094     
  -63961275.5506387     
  -63890788.7494709     
  -63818850.8515979     
  -63745437.9375128     
  -63670525.9001706     
  -63594090.6271274     
  -63516108.1734293     
  -63436554.9268306     
  -63355407.7668946     
  -63272644.2194855     
  -63188242.6081015     
  -63102182.2034449     
  -63014443.3725750     
  -62925007.7289525     
  -62833858.2846635     
  -62740979.6061063     
  -62646357.9744387     
  -62549981.5521253     
  -62451840.5569814     
  -62351927.4451989     
  -62250237.1049501     
  -62146767.0623054     
  -62041517.7013713     
  -61934492.5007483     
  -61825698.2886325     
  -61715145.5191385     
  -61602848.5726849     
  -61488826.0835663     
  -61373101.2981168     
  -61255702.4671222     
  -61136663.2763390     
  -61016023.3190914     
  -60893828.6148598     
  -60770132.1774926     
  -60644994.6360385     
  -60518484.9100811     
  -60390680.9396501     
  -60261670.4670844     
  -60131551.8642870     
  -60000434.9932950     
  -59868442.0805240     
  -59735708.5748800     
  -59602383.9465398     
  -59468632.3658466     
  -59334633.1796575     
  -59200581.0747977     
  -59066685.7841993     
  -58933171.1500873     
  -58800273.3096052     
  -58668237.7109674     
  -58537314.6017999     
  -58407752.5539073     
  -58279789.4953921     
  -58153640.5995701     
  -58029482.2026268     
  -57907430.6291017     
  -57787514.2784422     
  -57669636.3476245     
  -57553523.7617644     
  -57438654.7518619     
  -57324152.7030014     
  -57208629.5252880     
  -57089974.4760569     
  -56965164.4874428     
  -56830357.5033894     
  -56681649.4846817     
  -65606985.0842594     
  -65565844.2539619     
  -65528623.0045806     
  -65494018.5486123     
  -65460786.1556072     
  -65427967.7572169     
  -65394900.0484678     
  -65361141.5541005     
  -65326402.1783642     
  -65290494.0664801     
  -65253299.4259186     
  -65214749.0936611     
  -65174807.7358841     
  -65133463.2546325     
  -65090719.0059486     
  -65046588.0101012     
  -65001088.6433988     
  -64954241.4672752     
  -64906066.9435776     
  -64856583.8419129     
  -64805808.1837589     
  -64753752.5975095     
  -64700425.9825537     
  -64645833.4005914     
  -64589976.1293885     
  -64532851.8284465     
  -64474454.7778936     
  -64414776.1615536     
  -64353804.3728821     
  -64291525.3285695     
  -64227922.7793322     
  -64162978.6110329     
  -64096673.1319545     
  -64028985.3440380     
  -63959893.1973052     
  -63889373.8276773     
  -63817403.7790485     
  -63743959.2109066     
  -63669016.0930251     
  -63592550.3888777     
  -63514538.2294665     
  -63434956.0792327     
  -63353780.8956735     
  -63270990.2842243     
  -63186562.6498920     
  -63100477.3470621     
  -63012714.8288448     
  -62923256.7972823     
  -62832086.3557124     
  -62739188.1645792     
  -62644548.6019940     
  -62548155.9303872     
  -62450000.4706526     
  -62350074.7852730     
  -62248373.8720293     
  -62144895.3700409     
  -62039639.7800538     
  -61932610.7010997     
  -61823815.0858849     
  -61713263.5175272     
  -61600970.5105512     
  -61486954.8393604     
  -61371239.8977149     
  -61253854.0930496     
  -61134831.2797306     
  -61014211.2355333     
  -60892040.1856809     
  -60768371.3786203     
  -60643265.7172487     
  -60516792.4483810     
  -60389029.9116948     
  -60260066.3469704     
  -60130000.7548621     
  -59998943.8013046     
  -59867018.7485344     
  -59734362.3860031     
  -59601125.9215287     
  -59467475.7761026     
  -59333594.2039492     
  -59199679.6318432     
  -59065946.5773022     
  -58932624.9631874     
  -58799958.5955265     
  -58668202.5111136     
  -58537618.8303436     
  -58408470.6663863     
  -58281013.5383689     
  -58155483.6002253     
  -58032081.7979487     
  -57910952.7416476     
  -57792156.4953172     
  -57675630.3990071     
  -57561136.0008411     
  -57448182.5251982     
  -57335912.3065639     
  -57222926.1513529     
  -57107033.2694239     
  -56984993.2013771     
  -56852548.0264407     
  -56705242.3096211     
  -65600022.3382448     
  -65559287.4035166     
  -65522750.6685638     
  -65488933.8413644     
  -65456467.9120124     
  -65424335.9503097     
  -65391856.7374257     
  -65358589.3927403     
  -65324251.7190461     
  -65288666.3618038     
  -65251726.5463531     
  -65213373.6639145     
  -65173582.0137524     
  -65132348.0191367     
  -65089682.4013430     
  -65045604.4295787     
  -65000137.6995553     
  -64953307.0731832     
  -64905136.5131268     
  -64855647.6082097     
  -64804858.6282780     
  -64752783.9792728     
  -64699433.9550847     
  -64644814.7041394     
  -64588928.3464757     
  -64531773.1918225     
  -64473344.0212489     
  -64413632.4046726     
  -64352627.0342133     
  -64290314.0593877     
  -64226677.4147327     
  -64161699.1339189     
  -64095359.6469631     
  -64027638.0589981     
  -63958512.4103579     
  -63887959.9186105     
  -63815957.2037502     
  -63742480.4981021     
  -63667505.8426792     
  -63591009.2718036     
  -63512966.9878030     
  -63433355.5275480     
  -63352151.9225225     
  -63269333.8540332     
  -63184879.8050850     
  -63098769.2103693     
  -63010982.6057477     
  -62921501.7785675     
  -62830309.9201110     
  -62737391.7814756     
  -62642733.8341904     
  -62546324.4369113     
  -62448154.0096031     
  -62348215.2166953     
  -62246503.1608213     
  -62143015.5888965     
  -62037753.1124656     
  -61930719.4444613     
  -61821921.6547652     
  -61711370.4472340     
  -61599080.4611657     
  -61485070.6005178     
  -61369364.3945339     
  -61251990.3937907     
  -61132982.6060049     
  -61012380.9762040     
  -60890231.9160272     
  -60766588.8868995     
  -60641513.0415172     
  -60515073.9273768     
  -60387350.2547697     
  -60258430.7295609     
  -60128414.9478351     
  -59997414.3447802     
  -59865553.1835058     
  -59732969.5602879     
  -59599816.3902927     
  -59466262.3213520     
  -59332492.5018932     
  -59198709.1016328     
  -59065131.4490125     
  -58931995.6064108     
  -58799553.1517533     
  -58668068.8719527     
  -58537816.9979469     
  -58409075.5199838     
  -58282118.0087378     
  -58157202.2183654     
  -58034554.5295762     
  -57914348.9357878     
  -57796678.6435193     
  -57681517.1771689     
  -57568663.6363022     
  -57457662.6154989     
  -57347682.1534568     
  -57237322.2767631     
  -57124324.9457276     
  -57005236.0151331     
  -56875350.5196759     
  -56729584.1450369     
  -65592846.5286221     
  -65552562.0694081     
  -65516772.3642772     
  -65483797.9388639     
  -65452136.7587399     
  -65420715.5401498     
  -65388839.7307424     
  -65356072.3574098     
  -65322141.1921804     
  -65286880.6923316     
  -65250195.9618850     
  -65212039.5355880     
  -65172395.7647339     
  -65131269.8989389     
  -65088680.2491456     
  -65044652.4980523     
  -64999215.5796298     
  -64952398.7398483     
  -64904229.4985607     
  -64854732.2993825     
  -64803927.6804517     
  -64751831.8336478     
  -64698456.4474857     
  -64643808.7515183     
  -64587891.6986954     
  -64530704.2373251     
  -64472241.6365698     
  -64412495.8391752     
  -64351455.8227872     
  -64289107.9570981     
  -64225436.3485279     
  -64160423.1674569     
  -64094048.9554287     
  -64026292.9114571     
  -63957133.1577382     
  -63886546.9858486     
  -63814511.0849881     
  -63741001.7540966     
  -63665995.0998003     
  -63589467.2221655     
  -63511394.3901913     
  -63431753.2089040     
  -63350520.7798140     
  -63267674.8563910     
  -63183193.9961227     
  -63097057.7106248     
  -63009246.6152089     
  -62919742.5792510     
  -62828528.8786720     
  -62735590.3518309     
  -62640913.5601400     
  -62544486.9547458     
  -62446301.0506808     
  -62346348.6099816     
  -62244624.8353825     
  -62141127.5763474     
  -62035857.5493829     
  -61928818.5747946     
  -61820017.8323030     
  -61709466.1382315     
  -61597178.2473004     
  -61483173.1824332     
  -61367474.5963601     
  -61250111.1692063     
  -61131117.0466509     
  -61010532.3235822     
  -60888403.5784555     
  -60764784.4636686     
  -60639736.3571353     
  -60513329.0797514     
  -60385641.6824053     
  -60256763.3043773     
  -60126794.1021326     
  -59995846.2432114     
  -59864044.9537398     
  -59731529.5993870     
  -59598454.7676955     
  -59464991.3037052     
  -59331327.2297213     
  -59197668.4527249     
  -59064239.1280918     
  -58931281.5045354     
  -58799055.0211266     
  -58667834.3611782     
  -58537906.0876727     
  -58409563.3872148     
  -58283098.3273329     
  -58158790.8701159     
  -58036893.6505012     
  -57917611.1489600     
  -57801071.2180793     
  -57687285.6678196     
  -57576094.2036361     
  -57467081.4298981     
  -57359448.4038824     
  -57251806.0705213     
  -57141845.2902930     
  -57025906.8817669     
  -56898807.2036327     
  -56754740.9830755     
  -65585437.6793590     
  -65545656.3006747     
  -65510685.1851512     
  -65478613.2096535     
  -65447796.9244990     
  -65417111.0434783     
  -65385853.2881088     
  -65353594.2618353     
  -65320073.9118598     
  -65285139.8800328     
  -65248710.0373195     
  -65210748.6634588     
  -65171250.5849984     
  -65130230.1827696     
  -65087713.5789131     
  -65043733.0297726     
  -64998322.9213223     
  -64951516.9618777     
  -64903346.2797243     
  -64853838.2040986     
  -64803015.5571133     
  -64750896.3212862     
  -64697493.5767318     
  -64642815.6259001     
  -64586866.2431234     
  -64529645.0018810     
  -64471147.6451689     
  -64411366.4741783     
  -64350290.7380650     
  -64287907.0133663     
  -64224199.5659259     
  -64159150.6913375     
  -64092741.0321649     
  -64024949.8717669     
  -63955755.4055880     
  -63885134.9914541     
  -63813065.3807876     
  -63739522.9328574     
  -63664483.8142334     
  -63587924.1855902     
  -63509820.3779223     
  -63430149.0601236     
  -63348887.3997617     
  -63266013.2187558     
  -63181505.1455567     
  -63095342.7653228     
  -63007506.7695145     
  -62917979.1062613     
  -62826743.1328190     
  -62733783.7714208     
  -62639087.6698340     
  -62542643.3679647     
  -62444441.4719173     
  -62344474.8370038     
  -62242738.7613164     
  -62139231.1916287     
  -62033952.9435813     
  -61926907.9383300     
  -61818103.4581019     
  -61707550.4234119     
  -61595263.6950399     
  -61481262.4042621     
  -61365570.3152501     
  -61248216.2240070     
  -61129234.3986627     
  -61008665.0663937     
  -60886554.9526069     
  -60762957.8782878     
  -60637935.4214550     
  -60511557.6483980     
  -60383903.9195956     
  -60255063.7737524     
  -60125137.8909124     
  -59994239.1317778     
  -59862493.6446707     
  -59730042.0234331     
  -59597040.4882194     
  -59463662.0456647     
  -59330097.5642561     
  -59196556.6736136     
  -59063268.3613692     
  -58930481.0968674     
  -58798462.2552247     
  -58667496.5464642     
  -58537883.0699529     
  -58409930.5103959     
  -58283949.8608586     
  -58160243.8852963     
  -58039092.2842779     
  -57920731.1307923     
  -57805324.4453487     
  -57692924.4715733     
  -57583414.6770155     
  -57476424.5377005     
  -57371195.9299513     
  -57266363.6878029     
  -57159587.3831136     
  -57047018.0042122     
  -56922962.8084582     
  -56780786.2998351     
  -65577773.3408759     
  -65538557.4609824     
  -65504486.9418189     
  -65473382.9331904     
  -65443453.2551930     
  -65413527.3532799     
  -65382901.9074230     
  -65351159.0745371     
  -65318053.2948137     
  -65283446.8156526     
  -65247271.1830911     
  -65209503.0315523     
  -65170148.0881267     
  -65129230.1681674     
  -65086783.4228093     
  -65042846.8372221     
  -64997460.3575848     
  -64950662.2272153     
  -64902487.2286822     
  -64852965.6027217     
  -64802122.4666961     
  -64749977.5946386     
  -64696545.4519943     
  -64641835.4031731     
  -64585852.0301388     
  -64528595.5163331     
  -64470062.0628884     
  -64410244.3139205     
  -64349131.7751908     
  -64286711.2160637     
  -64222967.0488204     
  -64157881.6823734     
  -64091435.8495032     
  -64023608.9081553     
  -63954379.1182459     
  -63883723.8959726     
  -63811620.0479146     
  -63738043.9873253     
  -63662971.9350054     
  -63586380.1070751     
  -63508244.8918305     
  -63428543.0177319     
  -63347251.7144284     
  -63264348.8685721     
  -63179813.1760562     
  -63093624.2922010     
  -63005762.9813176     
  -62916211.2670173     
  -62824952.5845919     
  -62731971.9367680     
  -62637256.0541466     
  -62540793.5616709     
  -62442575.1525309     
  -62342593.7709938     
  -62240844.8057779     
  -62137326.2957398     
  -62032039.1498387     
  -61924987.3835698     
  -61816178.3743420     
  -61705623.1385907     
  -61593336.6337871     
  -61479338.0889269     
  -61363651.3675399     
  -61246305.3677647     
  -61127334.4645598     
  -61006778.9996429     
  -60884685.8252502     
  -60761108.9082006     
  -60636110.0009848     
  -60509759.3865530     
  -60382136.7029830     
  -60253331.8530823     
  -60123446.0019063     
  -59992592.6618077     
  -59860898.8594732     
  -59728506.3718341     
  -59595573.0069975     
  -59462273.8914479     
  -59328802.7045879     
  -59195372.7748288     
  -59062217.9163397     
  -58929592.8404074     
  -58797772.9181700     
  -58667052.9999581     
  -58537744.9077878     
  -58410173.1075173     
  -58284667.9283263     
  -58161555.5142059     
  -58041143.4317849     
  -57923700.4492280     
  -57809428.2874260     
  -57698421.8048750     
  -57590611.4625518     
  -57485676.6466836     
  -57382908.2567815     
  -57280979.0883617     
  -57177541.0788390     
  -57068579.0799935     
  -56947864.5999738     
  -56807802.5109737     
  -65569828.0845490     
  -65531252.2612419     
  -65498176.4414408     
  -65468111.4584466     
  -65439111.2564680     
  -65409969.7506884     
  -65379990.3290218     
  -65348770.9189936     
  -65316082.8590508     
  -65281804.4567098     
  -65245881.8529846     
  -65208304.6508171     
  -65169089.9028695     
  -65128271.1594053     
  -65085890.8137457     
  -65041994.7294863     
  -64996628.5152259     
  -64949835.0159666     
  -64901652.7087487     
  -64852114.7665192     
  -64801248.6085935     
  -64749075.7974463     
  -64695612.1742416     
  -64640868.1516319     
  -64584849.1031859     
  -64527555.8052616     
  -64468984.8999658     
  -64409129.3576640     
  -64347978.9249204     
  -64285520.5492149     
  -64221738.7757541     
  -64156616.1144770     
  -64090133.3772787     
  -64022269.9867160     
  -63953004.2582417     
  -63882313.6584329     
  -63810175.0418794     
  -63736564.8694174     
  -63661459.4103300     
  -63584834.9309947     
  -63506667.8722988     
  -63426935.0179607     
  -63345613.6557310     
  -63262681.7332756     
  -63178118.0104131     
  -63091902.2092473     
  -63004015.1636449     
  -62914438.9694348     
  -62823157.1366539     
  -62730154.7451485     
  -62635418.6048410     
  -62538937.4220018     
  -62440701.9729321     
  -62340705.2865473     
  -62238942.8374758     
  -62135412.7514470     
  -62030116.0249386     
  -61923056.7612900     
  -61814242.4257823     
  -61703684.1225087     
  -61591396.8962647     
  -61477400.0631214     
  -61361717.5738508     
  -61244378.4149253     
  -61125417.0524047     
  -61004873.9246386     
  -60882795.9903238     
  -60759237.3389980     
  -60634259.8714773     
  -60507934.0579240     
  -60380339.7810376     
  -60251567.2710756     
  -60121718.1377587     
  -59990906.5012356     
  -59859260.2196724     
  -59726922.2040778     
  -59594051.8008579     
  -59460826.2083323     
  -59327441.8737830     
  -59194115.7910839     
  -59061086.5838256     
  -58928615.2131092     
  -58796985.0905504     
  -58666501.3029256     
  -58537488.5621405     
  -58410287.3783665     
  -58285247.8078219     
  -58162719.9348479     
  -58043039.9785873     
  -57926510.4975400     
  -57813372.4479584     
  -57703765.5032486     
  -57597670.3958600     
  -57494821.5859014     
  -57394567.5177324     
  -57295633.8824333     
  -57195692.4391052     
  -57090596.3056119     
  -56973562.2715226     
  -56835882.7904098     
  -65561572.8615905     
  -65523726.8554273     
  -65491753.8537592     
  -65462804.3697124     
  -65434777.1242273     
  -65406443.9129169     
  -65377123.5378809     
  -65346434.0724550     
  -65314166.2218298     
  -65280215.8250771     
  -65244544.5415874     
  -65207155.5566193     
  -65168077.6707784     
  -65127354.4653204     
  -65085036.7834453     
  -65041177.5105697     
  -64995828.0134727     
  -64949035.7991934     
  -64900843.0734913     
  -64851285.9568538     
  -64800394.1725111     
  -64748191.0642282     
  -64694693.8358373     
  -64639913.9316665     
  -64583857.4985367     
  -64526525.8868045     
  -64467916.1609001     
  -64408021.5995963     
  -64346832.1735498     
  -64284334.9929502     
  -64220514.7218872     
  -64155353.9586381     
  -64088833.5828175     
  -64020933.0714039     
  -63951630.7862952     
  -63880904.2363479     
  -63808730.3169383     
  -63735085.5300333     
  -63659946.1876140     
  -63583288.6011064     
  -63505089.2592670     
  -63425324.9967578     
  -63343973.1554484     
  -63261011.7403026     
  -63176419.5715495     
  -63090176.4347040     
  -63002263.2299022     
  -62912662.1219327     
  -62821356.6922957     
  -62728332.0945950     
  -62633575.2145742     
  -62537074.8361336     
  -62438821.8147272     
  -62338809.2596279     
  -62237032.7266763     
  -62133490.4232843     
  -62028183.4276692     
  -61921115.9245412     
  -61812295.4597604     
  -61701733.2168317     
  -61589444.3185159     
  -61475448.1573111     
  -61359768.7590932     
  -61242435.1848145     
  -61123481.9758162     
  -61002949.6490180     
  -60880885.2489728     
  -60757342.9644747     
  -60632384.8180152     
  -60506081.4368124     
  -60378512.9142327     
  -60249769.7699989     
  -60119954.0163651     
  -59989180.3350586     
  -59857577.3657540     
  -59725289.1005377     
  -59592476.3693779     
  -59459318.3880142     
  -59326014.3206202     
  -59192784.7834621     
  -59059873.1806978     
  -58927546.7172159     
  -58796096.8734524     
  -58665839.0505458     
  -58537110.9975286     
  -58410269.5109115     
  -58285684.7436081     
  -58163731.2606011     
  -58044774.7029211     
  -57929152.5022606     
  -57817146.3793912     
  -57708943.0268966     
  -57604576.7443467     
  -57503842.2955679     
  -57406154.4235962     
  -57310307.2192475     
  -57214023.1385022     
  -57113071.0705237     
  -57000107.6107185     
  -56865133.3757509     
  -65552974.1770959     
  -65515967.0413127     
  -65485221.1873999     
  -65457468.6476583     
  -65430457.7587792     
  -65402955.9178853     
  -65374306.7634665     
  -65344152.9633314     
  -65312307.0969564     
  -65278684.0041239     
  -65243261.7814772     
  -65206057.8060555     
  -65167113.0437025     
  -65126481.3970487     
  -65084222.3604388     
  -65040395.9776575     
  -64995059.4624937     
  -64948265.0376794     
  -64900058.6657164     
  -64850479.4243596     
  -64799559.3378078     
  -64747323.5197607     
  -64693790.5201349     
  -64638972.7954509     
  -64582877.2450544     
  -64525505.7724798     
  -64466855.8443214     
  -64406921.0287359     
  -64345691.5028496     
  -64283154.5234580     
  -64219294.8589645     
  -64154095.1829039     
  -64087536.4309259     
  -64019598.1240289     
  -63950258.6613163     
  -63879495.5857172     
  -63807285.8260990     
  -63733605.9190593     
  -63658432.2134629     
  -63581741.0605578     
  -63503508.9922385     
  -63423712.8897925     
  -63342330.1452282     
  -63259338.8170952     
  -63174717.7825243     
  -63088446.8870773     
  -63000507.0938819     
  -62910880.6334397     
  -62819551.1554428     
  -62726503.8839035     
  -62631725.7769016     
  -62535205.6922856     
  -62436934.5607206     
  -62336905.5675679     
  -62235114.3452039     
  -62131559.1775556     
  -62026241.2188260     
  -61919164.7286468     
  -61810337.3261907     
  -61699770.2661485     
  -61587478.7399024     
  -61473482.2057330     
  -61357804.7524676     
  -61240475.5016428     
  -61121529.0539796     
  -61001005.9867648     
  -60878953.4095812     
  -60755425.5866799     
  -60630484.6350896     
  -60504201.3082316     
  -60376655.8752136     
  -60247939.1059136     
  -60118153.3712018     
  -59987413.8657902     
  -59855849.9577742     
  -59723606.6632835     
  -59590846.2359467     
  -59457749.8479866     
  -59324519.3213518     
  -59191378.8416435     
  -59058576.5526530     
  -58926385.8826782     
  -58795106.3926082     
  -58665063.8568543     
  -58536609.1878147     
  -58410115.6879425     
  -58285973.9535700     
  -58164583.5483562     
  -58046340.2843126     
  -57931617.5320401     
  -57820739.2917349     
  -57713941.4686195     
  -57611315.2144829     
  -57512720.8251769     
  -57417648.2433263     
  -57324975.7335973     
  -57232509.8867354     
  -57135998.2564007     
  -57027553.7920410     
  -56895676.5368414     
  -65543993.0074666     
  -65507958.6354201     
  -65478582.9023950     
  -65452112.8044907     
  -65426160.7596201     
  -65399512.2468620     
  -65371545.4766130     
  -65341932.1672065     
  -65310509.2914196     
  -65277212.1354045     
  -65242036.1401417     
  -65205013.4750793     
  -65166197.6811568     
  -65125653.2656592     
  -65083448.5679826     
  -65039650.9193214     
  -64994323.4618811     
  -64947523.1806671     
  -64899299.8164341     
  -64849695.4081068     
  -64798744.2728301     
  -64746473.2785531     
  -64692902.3010709     
  -64638044.7866296     
  -64581908.3639569     
  -64524495.4670094     
  -64465803.9428608     
  -64405827.6288384     
  -64344556.8899987     
  -64281979.1129404     
  -64218079.1552885     
  -64152839.7523634     
  -64086241.8838809     
  -64018265.1042540     
  -63948887.8404056     
  -63878087.6610306     
  -63805841.5211262     
  -63732125.9853759     
  -63656917.4336892     
  -63580192.2518943     
  -63501927.0102881     
  -63422098.6324643     
  -63340684.5565949     
  -63257662.8911092     
  -63173012.5665406     
  -63086713.4851430     
  -62998746.6697690     
  -62909094.4133984     
  -62817740.4306596     
  -62724670.0126380     
  -62629870.1862810     
  -62533329.8797226     
  -62435040.0949193     
  -62334994.0890721     
  -62233187.5664429     
  -62129618.8823336     
  -62024289.2612083     
  -61917203.0312018     
  -61808367.8775619     
  -61697795.1179667     
  -61585500.0031000     
  -61471502.0463910     
  -61355825.3874613     
  -61238499.1945059     
  -61119558.1116524     
  -60999042.7582241     
  -60877000.2877989     
  -60753485.0159654     
  -60628559.1266743     
  -60502293.4680167     
  -60374768.4489603     
  -60246075.0489113     
  -60116315.9516525     
  -59985606.8139071     
  -59854077.6759663     
  -59721874.5168902     
  -59589160.9488326     
  -59456120.0329276     
  -59322956.1814871     
  -59189897.0861658     
  -59057195.5770455     
  -58925131.2706515     
  -58794011.8026450     
  -58664173.3598316     
  -58535980.1221891     
  -58409822.0939760     
  -58286110.6370060     
  -58165270.8071137     
  -58047729.3128509     
  -57933896.5074309     
  -57824140.1629107     
  -57718747.5640432     
  -57617869.9638919     
  -57521438.3420795     
  -57429026.7915897     
  -57339613.5611579     
  -57251123.9424969     
  -57159364.0485032     
  -57055954.0475731     
  -56927654.4647541     
  -65534583.3538484     
  -65499688.1392301     
  -65471846.6819561     
  -65446746.9586644     
  -65421894.4020400     
  -65396119.7865558     
  -65368845.3824182     
  -65339776.4017472     
  -65308776.7013163     
  -65275803.4148927     
  -65240870.2166408     
  -65204024.6554334     
  -65165333.2475534     
  -65124871.3796919     
  -65082716.4219080     
  -65038943.1136751     
  -64993620.5990935     
  -64946810.6645672     
  -64898566.8438034     
  -64848934.1347522     
  -64797949.1342373     
  -64745640.4443201     
  -64692029.2427553     
  -64637129.9400071     
  -64580950.8685825     
  -64523494.9681463     
  -64464760.4430254     
  -64404741.3783078     
  -64343428.3075225     
  -64280808.7295730     
  -64216867.5756917     
  -64151587.6291311     
  -64084949.9014237     
  -64016933.9695926     
  -63947518.2788562     
  -63876680.4152739     
  -63804397.3525480     
  -63730645.6768663     
  -63655401.7933209     
  -63578642.1170689     
  -63500343.2520702     
  -63420482.1599117     
  -63339036.3209580     
  -63255983.8898232     
  -63171303.8469531     
  -63084976.1479529     
  -62996981.8721467     
  -62907303.3717732     
  -62815924.4231549     
  -62722830.3811345     
  -62628008.3380766     
  -62531447.2887597     
  -62433138.3025332     
  -62333074.7042174     
  -62231252.2653368     
  -62127669.4074590     
  -62022327.4196187     
  -61915230.6920687     
  -61806386.9689310     
  -61695807.6227084     
  -61583507.9540920     
  -61469507.5210498     
  -61353830.5018442     
  -61236506.0973818     
  -61117568.9791660     
  -60997059.7901121     
  -60875025.7065651     
  -60751521.0710241     
  -60626608.1062919     
  -60500357.7229298     
  -60372850.4329441     
  -60244177.3833370     
  -60114441.5233271     
  -59983758.9182919     
  -59852260.2213430     
  -59720092.3092472     
  -59587420.0822518     
  -59454428.4160958     
  -59321324.2375931     
  -59188338.6707174     
  -59055729.1657659     
  -58923781.4770616     
  -58792811.2914414     
  -58663165.2266381     
  -58535220.8113540     
  -58409384.9224208     
  -58286089.9827748     
  -58165787.0070539     
  -58048934.2991335     
  -57935980.2115713     
  -57827337.7506865     
  -57723347.7043196     
  -57624224.6172724     
  -57529975.1541355     
  -57440266.4180085     
  -57354192.4183161     
  -57269830.8423859     
  -57183143.1763707     
  -57085359.2973851     
  -56961234.4658966     
  -65524690.2666541     
  -65491143.8983699     
  -65465024.3690018     
  -65441382.7974787     
  -65417667.6058162     
  -65392785.8305059     
  -65366212.4080334     
  -65337690.5210874     
  -65307113.3068958     
  -65274461.0888068     
  -65239766.6380031     
  -65203093.4513920     
  -65164521.4093047     
  -65124137.0425934     
  -65082026.9283941     
  -65038273.3264727     
  -64992951.4478626     
  -64946127.9116417     
  -64897860.0520617     
  -64848195.8176807     
  -64797174.0663230     
  -64744825.1094503     
  -64691171.3990650     
  -64636228.2812374     
  -64580004.7641578     
  -64522504.2665025     
  -64463725.3250739     
  -64403662.2501090     
  -64342305.7232333     
  -64279643.3374645     
  -64215660.0815142     
  -64150338.7723343     
  -64083660.4407543     
  -64015604.6754103     
  -63946149.9301590     
  -63875273.7999349     
  -63802953.2696644     
  -63729164.9404244     
  -63653885.2366097     
  -63577090.5974496     
  -63498757.6558293     
  -63418863.4070199     
  -63337385.3696207     
  -63254301.7407441     
  -63169591.5472757     
  -63083234.7948432     
  -62995212.6160042     
  -62905507.4190545     
  -62814103.0387880     
  -62720984.8905064     
  -62626140.1285632     
  -62529557.8107629     
  -62431229.0699783     
  -62331147.2944543     
  -62229308.3183878     
  -62125710.6245387     
  -62020355.5608571     
  -61913247.5733719     
  -61804394.4579180     
  -61693807.6336996     
  -61581502.4421615     
  -61467498.4752260     
  -61351819.9376600     
  -61234496.0491251     
  -61115561.4924247     
  -60995056.9155225     
  -60873029.4961234     
  -60749533.5789266     
  -60624631.3970752     
  -60498393.8907574     
  -60370901.6372744     
  -60242245.9080082     
  -60112529.8683725     
  -59981869.9366665     
  -59850397.3162918     
  -59718259.7123628     
  -59585623.2374394     
  -59452674.5007351     
  -59319622.8591110     
  -59186702.7844578     
  -59054176.2681670     
  -58922335.1362422     
  -58791503.0845835     
  -58662037.1589886     
  -58534328.2938985     
  -58408800.3830063     
  -58285907.1777946     
  -58166126.0890705     
  -58049947.6848873     
  -57937859.3017941     
  -57830320.6060276     
  -57727727.9519084     
  -57630362.2841117     
  -57538310.7504445     
  -57451341.9986178     
  -57368681.7098154     
  -57288590.5295211     
  -57207295.5635627     
  -57115814.0182243     
  -56996616.0520871     
  -65514247.0800637     
  -65482318.1105225     
  -65458133.0193404     
  -65436033.3599468     
  -65413489.9222132     
  -65389518.0742266     
  -65363652.6853648     
  -65335679.5103175     
  -65305523.1664203     
  -65273188.4491695     
  -65238728.0553239     
  -65202221.9763193     
  -65163763.8317894     
  -65123451.5500553     
  -65081381.0816737     
  -65037642.3091575     
  -64992316.5665614     
  -64945475.3286617     
  -64897179.7304376     
  -64847480.6561366     
  -64796419.2003292     
  -64744027.3544760     
  -64690328.8132340     
  -64635339.8265164     
  -64579070.0475682     
  -64521523.3453827     
  -64462698.5628977     
  -64402590.2116845     
  -64341189.1001742     
  -64278482.8966220     
  -64214456.6305822     
  -64149093.1381038     
  -64082373.4565289     
  -64014277.1749262     
  -63944782.7460077     
  -63873867.7650117     
  -63801509.2205569     
  -63727683.7219653     
  -63652367.7070427     
  -63575537.6338311     
  -63497170.1594082     
  -63417242.3084320     
  -63335731.6337879     
  -63252616.3714186     
  -63167875.5911892     
  -63081489.3454400     
  -62993438.8167431     
  -62903706.4662663     
  -62812276.1840728     
  -62719133.4426472     
  -62624265.4549284     
  -62527661.3381535     
  -62429312.2848762     
  -62329211.7426059     
  -62227355.6036554     
  -62123742.4069415     
  -62018373.5537189     
  -61911253.5394923     
  -61802390.2046971     
  -61691795.0071637     
  -61579483.3198792     
  -61465474.7581768     
  -61349793.5412143     
  -61232468.8934566     
  -61113535.4928989     
  -60993033.9739255     
  -60871011.4940356     
  -60747522.3751488     
  -60622628.8318198     
  -60496401.8003979     
  -60368921.8848389     
  -60240280.4364226     
  -60110580.7857735     
  -59979939.6460180     
  -59848488.7051634     
  -59716376.4231605     
  -59583770.0437140     
  -59450857.8214787     
  -59317851.4501840     
  -59184988.6543617     
  -59052535.8740295     
  -58920790.9246346     
  -58790085.4499156     
  -58660786.8986652     
  -58533299.6428674     
  -58408064.7094721     
  -58285557.4159025     
  -58166281.9747824     
  -58050761.8542319     
  -57939524.3222852     
  -57833077.0873703     
  -57731874.0605442     
  -57636265.5759161     
  -57546423.8601227     
  -57462226.9493656     
  -57383048.5705077     
  -57307358.1235069     
  -57231762.5575706     
  -57147349.0782328     
  -57034040.8617834     
  -65503171.4293284     
  -65473210.3257731     
  -65451195.8844289     
  -65430712.5765063     
  -65409371.5867674     
  -65386324.5868530     
  -65361172.5329560     
  -65333748.4796890     
  -65304010.4086754     
  -65271988.8292818     
  -65237757.1394844     
  -65201412.3490821     
  -65163062.1761759     
  -65122816.1872548     
  -65080779.8616620     
  -65037050.7968595     
  -64991716.4965380     
  -64944853.3055430     
  -64896526.1520482     
  -64846788.8343463     
  -64795684.6537598     
  -64743247.2475391     
  -64689501.5174486     
  -64634464.5822749     
  -64578146.7071329     
  -64520552.1806208     
  -64461680.1239051     
  -64401525.2248752     
  -64340078.3965673     
  -64277327.3629185     
  -64213257.1771896     
  -64147850.6795650     
  -64081088.9008607     
  -64012951.4192188     
  -63943416.6763075     
  -63872462.2590220     
  -63800065.1520981     
  -63726201.9664359     
  -63650849.1473524     
  -63573983.1664447     
  -63495580.7002600     
  -63415618.7985574     
  -63334075.0445767     
  -63250927.7094397     
  -63166155.9025496     
  -63079739.7196682     
  -62991660.3901828     
  -62901900.4249705     
  -62810443.7661833     
  -62717275.9402368     
  -62622384.2152757     
  -62525757.7644081     
  -62427387.8360559     
  -62327267.9328674     
  -62225394.0007535     
  -62121764.6297955     
  -62016381.2689862     
  -61909248.4570587     
  -61800374.0719874     
  -61689769.6022075     
  -61577450.4430909     
  -61463436.2228846     
  -61347751.1630606     
  -61230424.4789495     
  -61111490.8276139     
  -60990990.8111639     
  -60868971.5451858     
  -60745487.3035930     
  -60620600.2530307     
  -60494381.2919449     
  -60366911.0114334     
  -60238280.7969554     
  -60108594.0916434     
  -59977967.8430130     
  -59846534.1548479     
  -59714442.1642704     
  -59581860.1595425     
  -59448977.9457579     
  -59316009.4514924     
  -59183195.5475812     
  -59050807.0165626     
  -58919147.5645500     
  -58788556.7021853     
  -58659412.2331627     
  -58532131.9725213     
  -58407174.1675196     
  -58285035.9070587     
  -58166248.5770596     
  -58051369.1454591     
  -57940965.7180723     
  -57835595.3751657     
  -57735771.4999656     
  -57641916.6243768     
  -57554292.5138639     
  -57472893.3233265     
  -57397257.6714681     
  -57326085.5587149     
  -57256463.4077317     
  -57179969.2353394     
  -57073806.9421070     
  -65491359.3267265     
  -65463833.6370813     
  -65444242.7985964     
  -65425434.5837763     
  -65405323.6948610     
  -65383213.7253058     
  -65358778.4506764     
  -65331902.6544257     
  -65302579.2252115     
  -65270865.5989688     
  -65236856.5764896     
  -65200666.6903493     
  -65162418.0960842     
  -65122232.2260105     
  -65080224.2315145     
  -65036499.5063427     
  -64991151.7604157     
  -64944262.2139583     
  -64895899.5727843     
  -64846120.5206353     
  -64794970.5296893     
  -64742484.8438600     
  -64688689.5324435     
  -64633602.5448803     
  -64577234.7223840     
  -64519590.7404202     
  -64460669.9689095     
  -64400467.2458451     
  -64338973.5657649     
  -64276176.6880633     
  -64212061.6720843     
  -64146611.3468348     
  -64079806.7233193     
  -64011627.3572308     
  -63942051.6691831     
  -63871057.2290147     
  -63798621.0099649     
  -63724719.6178277     
  -63649329.4995294     
  -63572427.1349710     
  -63493989.2154584     
  -63413992.8115826     
  -63332415.5330265     
  -63249235.6824568     
  -63164432.4053963     
  -63077985.8377586     
  -62989877.2525688     
  -62900089.2072735     
  -62808605.6929576     
  -62715412.2867427     
  -62620496.3086291     
  -62523846.9840612     
  -62425455.6135539     
  -62325315.7508046     
  -62223423.3908478     
  -62119777.1699814     
  -62014378.5794232     
  -61907232.1949383     
  -61798345.9250411     
  -61687731.2808083     
  -61575403.6709019     
  -61461382.7260411     
  -61345692.6579820     
  -61228362.6590132     
  -61109427.3491369     
  -60988927.2794441     
  -60866909.5017813     
  -60743428.2166049     
  -60618545.5129600     
  -60492332.2167576     
  -60364868.8658824     
  -60236246.8330479     
  -60106569.6195039     
  -59975954.3443997     
  -59844533.4553421     
  -59712456.6848058     
  -59579893.2735896     
  -59447034.4752004     
  -59314096.3420921     
  -59181322.7738249     
  -59048988.7754396     
  -58917403.8279844     
  -58786915.2077724     
  -58657911.0014669     
  -58530822.4452749     
  -58406125.0630392     
  -58284337.8868626     
  -58166019.8111285     
  -58051761.8632126     
  -57942173.8503780     
  -57837863.4872133     
  -57739405.4815657     
  -57647297.1151465     
  -57561894.0595901     
  -57483312.1131393     
  -57411270.5866480     
  -57344724.0261406     
  -57281293.8672826     
  -57213631.0154172     
  -57116289.9842271     
  -65478676.0214704     
  -65454225.8555685     
  -65437308.6459587     
  -65420213.1515459     
  -65401358.4855289     
  -65380193.9571813     
  -65356477.1510009     
  -65330147.3492613     
  -65301233.8666728     
  -65269822.1581146     
  -65236029.0629053     
  -65199987.1186432     
  -65161833.2341198     
  -65121700.9218469     
  -65079715.1351094     
  -65035989.1339087     
  -64990622.8603587     
  -64943702.4059315     
  -64895300.2301853     
  -64845475.8665405     
  -64794276.9160732     
  -64741740.1852093     
  -64687892.8671028     
  -64632753.7003374     
  -64576334.0638503     
  -64518638.9852017     
  -64459668.0520241     
  -64399416.2250096     
  -64337874.5562048     
  -64275030.8195780     
  -64210870.0624557     
  -64145375.0870179     
  -64078526.8709388     
  -64010304.9357791     
  -63940687.6709912     
  -63869652.6205824     
  -63797176.7386507     
  -63723236.6191900     
  -63647808.7048349     
  -63570869.4785512     
  -63492395.6417095     
  -63412364.2814832     
  -63330753.0301071     
  -63247540.2181845     
  -63162705.0239606     
  -63076227.6202547     
  -62988089.3205778     
  -62898272.7258314     
  -62806761.8729041     
  -62713542.3864257     
  -62618601.6349319     
  -62521928.8927052     
  -62423515.5086122     
  -62323355.0833519     
  -62221443.6566512     
  -62117779.9061283     
  -62012365.3597652     
  -61905204.6242278     
  -61796305.6316300     
  -61685679.9077991     
  -61573342.8656586     
  -61459314.1280263     
  -61343617.8849699     
  -61226283.2918703     
  -61107344.9155547     
  -60986843.2373198     
  -60864825.2233442     
  -60741344.9749786     
  -60616464.4736362     
  -60490254.4375223     
  -60362795.3101471     
  -60234178.4033818     
  -60104507.2205504     
  -59973898.9873961     
  -59842486.4202985     
  -59710419.7611308     
  -59577869.1057620     
  -59445027.0470262     
  -59312111.6412523     
  -59179369.6877464     
  -59047080.2798557     
  -58915558.5404834     
  -58785159.3894990     
  -58656281.0999619     
  -58529368.2788132     
  -58404913.7506067     
  -58283458.6264031     
  -58165589.6061330     
  -58051932.2915498     
  -57943139.0115916     
  -57839869.3000867     
  -57742760.9693877     
  -57652388.3761487     
  -57569205.0471775     
  -57493453.8795779     
  -57425044.7718661     
  -57363226.0141049     
  -57306131.6547654     
  -57248202.7624848     
  -57161976.0748550     
  -65464941.3106364     
  -65444470.2007710     
  -65430426.7091266     
  -65415062.5415906     
  -65397489.3385544     
  -65377273.6760504     
  -65354275.6237657     
  -65328487.9191739     
  -65299978.6496872     
  -65268861.9251753     
  -65235277.3029122     
  -65199375.7455300     
  -65161309.2185277     
  -65121223.5108773     
  -65079253.4944925     
  -65035520.3532423     
  -64990130.2763109     
  -64943174.2124119     
  -64894728.3423029     
  -64844855.0059179     
  -64793603.8850569     
  -64741013.2993807     
  -64687111.5180648     
  -64631918.0239991     
  -64575444.6928472     
  -64517696.8674540     
  -64458674.3205599     
  -64398372.1069715     
  -64336781.3113708     
  -64273889.7007740     
  -64209682.2919280     
  -64144141.8442085     
  -64077249.2882205     
  -64008984.0995657     
  -63939324.6263332     
  -63868248.3778749     
  -63795732.2814802     
  -63721752.9126432     
  -63646286.7038147     
  -63569310.1358017     
  -63490799.9153644     
  -63410733.1420346     
  -63329087.4667322     
  -63245841.2444131     
  -63160973.6826742     
  -63074464.9880220     
  -62986296.5113261     
  -62896450.8938565     
  -62804912.2152047     
  -62711666.1443419     
  -62616700.0950525     
  -62520003.3869921     
  -62421567.4136793     
  -62321385.8188091     
  -62219454.6824193     
  -62115772.7186052     
  -62010341.4867126     
  -61903165.6182388     
  -61794253.0620313     
  -61683615.3508501     
  -61571267.8929289     
  -61457230.2928862     
  -61341526.7072006     
  -61224186.2405325     
  -61105243.3904524     
  -60984738.5496730     
  -60862718.5767011     
  -60739237.4479592     
  -60614357.0068861     
  -60488147.8283067     
  -60360690.2194246     
  -60232075.3820426     
  -60102406.7639027     
  -59971801.6300635     
  -59840392.8875625     
  -59708331.1976071     
  -59575787.4082342     
  -59442955.3354324     
  -59310054.9102908     
  -59177335.6913377     
  -59045080.7116099     
  -58913610.5850517     
  -58783287.7315199     
  -58654520.4884449     
  -58527766.7534143     
  -58403536.6421299     
  -58282393.4427617     
  -58164951.9162757     
  -58051872.7100843     
  -57943851.4344648     
  -57841600.5884903     
  -57745822.6533288     
  -57657171.5509240     
  -57576200.9933006     
  -57503289.4072821     
  -57438533.5677080     
  -57381542.2310277     
  -57330860.2075951     
  -57283390.6573818     
  -57211514.3130360     
  -65449904.8610921     
  -65434734.7197694     
  -65423609.3171861     
  -65410003.8742318     
  -65393728.7176932     
  -65374461.6867970     
  -65352180.9983823     
  -65326929.7624769     
  -65298817.9520926     
  -65267988.3264000     
  -65234604.0059057     
  -65198834.6699537     
  -65160847.6601149     
  -65120801.2063991     
  -65078840.2073425     
  -65035093.8131751     
  -64989674.4642222     
  -64942677.9418245     
  -64894184.1065599     
  -64844258.0540481     
  -64792951.4922892     
  -64740304.1996701     
  -64686345.4693340     
  -64631095.4802820     
  -64574566.5612740     
  -64516764.3315929     
  -64457688.7149317     
  -64397334.8304594     
  -64335693.7697573     
  -64272753.2707365     
  -64208498.3005532     
  -64142911.5594951     
  -64075973.9171467     
  -64007664.7911899     
  -63937962.4780699     
  -63866844.4436166     
  -63794287.5806263     
  -63720268.4393963     
  -63644763.4363149     
  -63567749.0448261     
  -63489201.9724324     
  -63409099.3268237     
  -63327418.7737679     
  -63244138.6890176     
  -63159238.3061791     
  -63072697.8622544     
  -62984498.7423751     
  -62894623.6251221     
  -62803056.6297200     
  -62709783.4663469     
  -62614791.5907830     
  -62518070.3646333     
  -62419611.2224067     
  -62319407.8468380     
  -62217456.3539448     
  -62113755.4895131     
  -62008306.8389171     
  -61901115.0524865     
  -61792188.0890117     
  -61681537.4804497     
  -61569178.6214795     
  -61455131.0883083     
  -61339418.9920058     
  -61222071.3727717     
  -61103122.6428824     
  -60982613.0876865     
  -60860589.4359612     
  -60737105.5132331     
  -60612222.9943454     
  -60486012.2746003     
  -60358553.4822331     
  -60229937.6586662     
  -60100268.1368429     
  -59969662.1516622     
  -59838252.7196899     
  -59706190.8273266     
  -59573647.9664585     
  -59440819.0529587     
  -59307925.7543967     
  -59175220.2363228     
  -59042989.3082042     
  -58911558.9060894     
  -58781298.7843021     
  -58652627.1961981     
  -58526015.2195868     
  -58401990.2154282     
  -58281137.7105579     
  -58164100.7310078     
  -58051575.4131941     
  -57944301.2993417     
  -57843045.0620852     
  -57748574.9639713     
  -57661627.5848531     
  -57582856.8700539     
  -57512787.9654901     
  -57451693.5435274     
  -57399598.8388784     
  -57355437.8394356     
  -57318597.7489267     
  -57265805.1799120     
  -65433202.7635536     
  -65425349.7238597     
  -65416797.9003366     
  -65405088.4677739     
  -65390077.9799531     
  -65371771.2636776     
  -65350198.9086363     
  -65325478.9291712     
  -65297755.9680334     
  -65267204.8780980     
  -65234011.8480355     
  -65198365.9860473     
  -65160450.1439005     
  -65120435.1973275     
  -65078476.1436549     
  -65034710.1356731     
  -64989255.8541504     
  -64942213.8786449     
  -64893667.6985923     
  -64843685.1067482     
  -64792319.7762368     
  -64739612.8843606     
  -64685594.6918991     
  -64630286.0223890     
  -64573699.6114161     
  -64515841.3138265     
  -64456711.1685689     
  -64396304.3282729     
  -64334611.8648392     
  -64271621.4643100     
  -64207318.0248134     
  -64141684.1709669     
  -64074700.6971908     
  -64006346.9511644     
  -63936601.1673388     
  -63865440.7591221     
  -63792842.5771262     
  -63718783.1397625     
  -63643238.8414964     
  -63566186.1432327     
  -63487601.7485945     
  -63407462.7692628     
  -63325746.8820461     
  -63242432.4799687     
  -63157498.8193353     
  -63070926.1644829     
  -62982695.9317387     
  -62892790.8339686     
  -62801195.0269930     
  -62707894.2590977     
  -62612876.0248437     
  -62516129.7243982     
  -62417646.8296488     
  -62317421.0584590     
  -62215448.5585510     
  -62111728.1026778     
  -62006261.2969725     
  -61899052.8046736     
  -61790110.5878086     
  -61679446.1698824     
  -61567074.9232498     
  -61453016.3855916     
  -61337294.6108428     
  -61219938.5610858     
  -61100982.5473317     
  -60980466.7288132     
  -60858437.6824911     
  -60734949.0569134     
  -60610062.3274619     
  -60483847.6733448     
  -60356385.0004843     
  -60227765.1385740     
  -60098091.2450337     
  -59967480.4529891     
  -59836065.8044421     
  -59703998.5128213     
  -59571450.6001560     
  -59438617.9518415     
  -59305723.8244402     
  -59173022.8265513     
  -59040805.3659369     
  -58909402.5134088     
  -58779191.1695416     
  -58650599.3285201     
  -58524111.1049164     
  -58400271.0256234     
  -58279686.8669354     
  -58163030.1040689     
  -58051032.6810622     
  -57944478.8702943     
  -57844190.0697142     
  -57751002.9457611     
  -57665735.0477197     
  -57589152.9463424     
  -57521902.7967571     
  -57464520.9196711     
  -57417214.0055333     
  -57380076.2816297     
  -57352647.0081894     
  -57326156.0704278     
